
units lj                  # Use reduced LJ style units
atom_style atomic         # Uncharged point particles
atom_modify map hash      # Needed for indexing of clusters etc
                          # Used to be able to find where atoms are in relation to each other.

lattice fcc 1.0 spacing 1 1 1
Lattice spacing in x,y,z = 1.5874011 1.5874011 1.5874011
region box block 0 10 0 10 0 10 units lattice
create_box 2 box
Created orthogonal box = (0.0000000 0.0000000 0.0000000) to (15.874011 15.874011 15.874011)
  3 by 4 by 4 MPI processor grid
create_atoms 1 box
Created 4000 atoms
  using lattice units in orthogonal box = (0.0000000 0.0000000 0.0000000) to (15.874011 15.874011 15.874011)
  create_atoms CPU = 0.013 seconds
set type 1 type/fraction 2 0.22 78393
Setting atom values ...
  910 settings made for type/fraction
mass 1 1.0
mass 2 1.0
pair_style lj/cut  3.5
pair_modify tail  yes
pair_coeff 1  1  1.0  1.0   # Intearaction between 1 and 1 set with epsilon = 1 and sigma = 1
pair_coeff 1  2  1.5  0.8
pair_coeff 2  2  0.5  0.88

write_data data.0
System init for write_data ...
Neighbor list info ...
  update every 1 steps, delay 10 steps, check yes
  max neighbors/atom: 2000, page size: 100000
  master list distance cutoff = 3.8
  ghost atom cutoff = 3.8
  binsize = 1.9, bins = 9 9 9
  1 neighbor lists, perpetual/occasional/extra = 1 0 0
  (1) pair lj/cut, perpetual
      attributes: half, newton on
      pair build: half/bin/atomonly/newton
      stencil: half/bin/3d
      bin: standard
WARNING: Not all mixed pair coeffs generated from mixing. Use write_data with 'pair ij' option to store all pair coeffs. (../write_data.cpp:312)


#############################
#   M E L T   S Y S T E M   #
#############################

velocity all create 2.4 5833274 mom yes dist gaussian # Assign velocities
                                                    # Temperature 2.4, random number seed, zero linear momentum
                                                                                # Gaussian distribution

timestep 0.002   # simulation timestep
thermo 1000       # output thermodynamic data every 1000 steps bf 100

# Define a fix  in this case with index 1 applied to all
# particles in the simulation. This fix is for simulations
# in the anisotropic NPT ensemble. Note that we use the MTK
# correction.
fix 1 all npt temp 2.4 2.4 0.1 iso 5.68 5.68 0.5 mtk yes tchain 5 pchain 5 # Use NPT ensemble
                                                                         # Set temperature and pressure and damping
                                                                         # Numbers of thermostats in chain and in barostat
run 10000          # run for 10000 steps
Per MPI rank memory allocation (min/avg/max) = 3.642 | 3.644 | 3.648 Mbytes
Step Temp E_pair E_mol TotEng Press Volume 
       0          2.4   -6.9213593            0   -3.3222593   -3.6990896         4000 
    1000    2.3780223   -4.8161646            0   -1.2500228    5.5171737    4440.8741 
    2000    2.3972107   -4.8879978            0   -1.2930806    5.3355853    4427.0625 
    3000    2.3386866   -4.8631994            0   -1.3560464    5.8102086    4395.2674 
    4000    2.3958365   -4.8398967            0   -1.2470404    5.7305168      4409.48 
    5000     2.437691   -4.8380506            0   -1.1824282     6.042545    4395.6863 
    6000    2.3630491   -4.8244315            0    -1.280744    5.4622478    4456.8968 
    7000    2.3992423   -4.9513603            0   -1.3533964     5.806521    4356.3212 
    8000    2.4102408   -4.8659733            0   -1.2515159     5.679359    4417.0072 
    9000    2.4293822   -4.8623542            0    -1.219192    5.9444571    4390.5283 
   10000    2.3780794    -4.831376            0   -1.2651487    5.8125258    4409.7471 
Loop time of 2.35149 on 48 procs for 10000 steps with 4000 atoms

Performance: 734851.902 tau/day, 4252.615 timesteps/s
99.6% CPU use with 48 MPI tasks x no OpenMP threads

MPI task timing breakdown:
Section |  min time  |  avg time  |  max time  |%varavg| %total
---------------------------------------------------------------
Pair    | 0.97282    | 1.0555     | 1.2        |   3.9 | 44.88
Neigh   | 0.19895    | 0.20755    | 0.23489    |   1.6 |  8.83
Comm    | 0.65616    | 0.82502    | 0.91147    |   5.7 | 35.09
Output  | 0.00024075 | 0.00024619 | 0.00031433 |   0.0 |  0.01
Modify  | 0.21706    | 0.24847    | 0.29498    |   4.6 | 10.57
Other   |            | 0.01474    |            |       |  0.63

Nlocal:        83.3333 ave          94 max          69 min
Histogram: 1 0 5 3 5 12 9 6 5 2
Nghost:        1538.65 ave        1565 max        1492 min
Histogram: 1 0 1 2 7 9 9 8 6 5
Neighs:        8650.40 ave        9912 max        6719 min
Histogram: 1 0 4 0 6 12 11 8 3 3

Total # of neighbors = 415219
Ave neighs/atom = 103.80475
Neighbor list builds = 908
Dangerous builds = 236

# Equilibrate just above the melting temperature to avoid step fn in T

fix 1 all npt temp 1.25 1.25 0.1 iso 5.68 5.68 0.5 mtk yes tchain 5 pchain 5
run 2000
Per MPI rank memory allocation (min/avg/max) = 3.643 | 3.645 | 3.649 Mbytes
Step Temp E_pair E_mol TotEng Press Volume 
   10000    2.3780794    -4.831376            0   -1.2651487    5.8125258    4409.7471 
   11000    1.2566095   -6.6137192            0   -4.7292762    5.6006283    3588.9035 
   12000    1.2736874   -6.6191952            0   -4.7091418    5.8424471    3576.0311 
Loop time of 0.521651 on 48 procs for 2000 steps with 4000 atoms

Performance: 662511.643 tau/day, 3833.979 timesteps/s
99.6% CPU use with 48 MPI tasks x no OpenMP threads

MPI task timing breakdown:
Section |  min time  |  avg time  |  max time  |%varavg| %total
---------------------------------------------------------------
Pair    | 0.22172    | 0.24881    | 0.28345    |   2.3 | 47.70
Neigh   | 0.031442   | 0.034075   | 0.038463   |   0.6 |  6.53
Comm    | 0.1516     | 0.18075    | 0.21544    |   3.5 | 34.65
Output  | 4.9383e-05 | 5.0385e-05 | 6.6066e-05 |   0.0 |  0.01
Modify  | 0.043407   | 0.053422   | 0.064879   |   3.0 | 10.24
Other   |            | 0.004543   |            |       |  0.87

Nlocal:        83.3333 ave          95 max          75 min
Histogram: 2 0 8 11 13 7 2 3 1 1
Nghost:        1767.15 ave        1790 max        1744 min
Histogram: 1 5 7 7 7 3 6 2 8 2
Neighs:        10664.1 ave       12293 max        9476 min
Histogram: 2 3 10 9 9 7 4 2 0 2

Total # of neighbors = 511879
Ave neighs/atom = 127.96975
Neighbor list builds = 140
Dangerous builds = 5

#############################
# L I N E A R  Q U E N C H  #
#############################

# Define solid atoms. This closely follows ten Wolde  Ruiz-Montero and Frenkel  Faraday Discuss  1996  104  93-110
# Compute components of the per-atom q6 vector
compute q6 all orientorder/atom degrees 1 6 components 6 nnn NULL cutoff 1.3 # compute the Q6 parameter.
                                                                             # Use all neighbours within 1.3 unit cell.

# get number of connections
compute coord_number all coord/atom orientorder q6 0.5

# An atom is solid if it has 8 or more connections (of a possible 14)
variable is_solid atom c_coord_number>=8
group solid dynamic all var is_solid    # Must be dynamic to update
dynamic group solid defined

# do clustering
compute cluster solid cluster/atom 1.3 # Create a cluster where all atoms within are solid and max 1.3 units from another member

# define chunks one chunk per cluster
compute clus_chunks solid chunk/atom c_cluster nchunk every compress yes  # Says which atoms are in which chunk

# count the size of each chunk
compute size_chunks solid property/chunk clus_chunks count


# Find the maximum entry in the vector of chunk sizes
variable max_n equal max(c_size_chunks)


# Thermo style which includes this variable
# thermo_style custom step temp pe vol v_max_n

thermo ${N}  # Print the thermo information every 100 steps
thermo 1000  

# Reset the npt fix at a lower temperature (below freezing)
fix 1  all npt temp  ${temp} ${temp}  0.1  iso  5.68  5.68  0.5  mtk yes tchain  5  pchain  5
fix 1  all npt temp  0.45 ${temp}  0.1  iso  5.68  5.68  0.5  mtk yes tchain  5  pchain  5
fix 1  all npt temp  0.45 0.45  0.1  iso  5.68  5.68  0.5  mtk yes tchain  5  pchain  5

dump dmp2 all dcd ${N} traj.dcd
dump dmp2 all dcd 1000 traj.dcd


compute msd all msd com yes
variable twopoint equal c_msd[4]/6/(step*dt+1.0e-6)
fix 9 all vector 10 c_msd[4]
variable fit equal slope(f_9)/6/(10*dt)
thermo_style custom step temp pe c_msd[4] v_twopoint v_fit v_max_n

fix 1 all npt temp 1.25 ${temp} 0.1 iso 5.68 5.68 0.5 mtk yes tchain 5 pchain 5
fix 1 all npt temp 1.25 0.45 0.1 iso 5.68 5.68 0.5 mtk yes tchain 5 pchain 5
run 5000000 # 5000000  # Run for this many steps
Neighbor list info ...
  update every 1 steps, delay 10 steps, check yes
  max neighbors/atom: 2000, page size: 100000
  master list distance cutoff = 3.8
  ghost atom cutoff = 3.8
  binsize = 1.9, bins = 9 9 9
  4 neighbor lists, perpetual/occasional/extra = 1 3 0
  (1) pair lj/cut, perpetual
      attributes: half, newton on
      pair build: half/bin/atomonly/newton
      stencil: half/bin/3d
      bin: standard
  (2) compute orientorder/atom, occasional
      attributes: full, newton on
      pair build: full/bin/atomonly
      stencil: full/bin/3d
      bin: standard
  (3) compute coord/atom, occasional
      attributes: full, newton on
      pair build: full/bin/atomonly
      stencil: full/bin/3d
      bin: standard
  (4) compute cluster/atom, occasional
      attributes: full, newton on
      pair build: full/bin/atomonly
      stencil: full/bin/3d
      bin: standard
Per MPI rank memory allocation (min/avg/max) = 9.779 | 9.786 | 9.791 Mbytes
Step Temp PotEng c_msd[4] v_twopoint v_fit v_max_n 
   12000    1.2736874   -6.6191952 1.8526398e-30 1.2865554e-32 8.3333333e+20            1 
   13000    1.2355516   -6.6061298   0.53688702 0.0034415833  0.043905156            1 
   14000     1.295166   -6.6246248    1.0788581 0.0064217742   0.04515552            2 
   15000    1.2626937   -6.5647474    1.5497176 0.0086095422  0.043008753            2 
   16000    1.2491015   -6.6700126    2.0222603  0.010532605  0.041905544            3 
   17000    1.2815842    -6.605006    2.5881311  0.012686917  0.041857413            3 
   18000    1.2324866   -6.6570611    3.1334676  0.014506794  0.042306696            1 
   19000    1.2498357   -6.6213633    3.6763404    0.0161243  0.043045129            6 
   20000    1.2479693   -6.6334307    4.2056728  0.017523636  0.043460965            6 
   21000    1.2980753   -6.6582584    4.6715852  0.018538036  0.043450433            2 
   22000    1.2469954   -6.6253403     5.173939  0.019598253  0.043341976            1 
   23000    1.2429806   -6.6256686    5.6376042  0.020426102   0.04312854            1 
   24000    1.2509274   -6.6393263    6.2099251  0.021562239   0.04300142            3 
   25000    1.2685314   -6.6520832    6.7582131  0.022527377  0.043012636            2 
   26000     1.277905   -6.5801055    7.2500652  0.023237388  0.043085964            4 
   27000    1.2629075   -6.6138704    7.7477982  0.023912957  0.043046173            2 
   28000    1.2342926   -6.6452001     8.361198  0.024884517  0.043124716            1 
   29000    1.2415414   -6.6325163    8.8806644   0.02551915  0.043293588            2 
   30000    1.2785077   -6.6728341    9.4327348  0.026202041   0.04342202            1 
   31000     1.240703   -6.6211505    9.9785885  0.026824162   0.04352097            2 
   32000    1.2388793   -6.6400191    10.351648  0.026957416  0.043528052            1 
   33000    1.2344711   -6.6604621    10.738166   0.02711658  0.043384769            2 
   34000    1.2426636   -6.6218675    11.280973  0.027649444    0.0431828            2 
   35000    1.2535786   -6.5918716    11.843055   0.02819775   0.04306766            2 
   36000    1.2398558   -6.6745748     12.34433  0.028574839  0.043032077            1 
   37000    1.2806917   -6.6203255    12.804056  0.028837964  0.042962683            2 
   38000    1.2476272   -6.5669579    13.287346  0.029138916  0.042871156            2 
   39000    1.2357261   -6.6129718    13.712165  0.029299497  0.042719821            3 
   40000    1.2652219   -6.6359516    14.216255  0.029617198  0.042600417            1 
   41000     1.226683   -6.6426023    14.788921  0.030058783  0.042548515            2 
   42000    1.2408539   -6.6441179    15.288691  0.030334704  0.042477791            3 
   43000    1.2442801   -6.6375626    15.801934  0.030623902  0.042442829            2 
   44000    1.2364178   -6.5806547    16.497496  0.031245257  0.042451231            1 
   45000    1.2435724    -6.652133    16.995133  0.031472469  0.042492106            2 
   46000    1.2641215   -6.6515018    17.572084  0.031833486  0.042551012            2 
   47000    1.2410468   -6.6380004    18.073431  0.032045089  0.042605946            2 
   48000    1.2349521   -6.6560735     18.58432  0.032264445  0.042657815            1 
   49000    1.2146494    -6.663806    19.043782  0.032387383  0.042680316            3 
   50000    1.2525016   -6.6894094    19.650724  0.032751206  0.042705353            2 
   51000    1.2425706   -6.6622863    20.286155  0.033147312  0.042766738            1 
   52000    1.2395703   -6.6391416    20.977776  0.033618231  0.042860078            2 
   53000    1.2546944   -6.6488668    21.498156  0.033802132  0.042970024            1 
   54000    1.2559267   -6.6525432    21.947013  0.033868846  0.043042953            1 
   55000     1.240624   -6.6253491    22.461203  0.034032125   0.04311307            1 
   56000    1.2478511   -6.6311949    23.027123  0.034266551  0.043196155            1 
   57000    1.2314999   -6.6159275    23.423948  0.034245538  0.043229152            1 
   58000    1.2292286     -6.64212     23.99903  0.034481364  0.043273903            2 
   59000     1.251664    -6.642525    24.672712  0.034848464  0.043336867            1 
   60000    1.2521469    -6.622901    25.305764  0.035146895  0.043407757            1 
   61000    1.2303866   -6.6297862    25.793116  0.035236497  0.043485991            2 
   62000    1.2173792   -6.6551281    26.312498   0.03536626  0.043535935            2 
   63000    1.2294263   -6.6769483      26.7272  0.035353439  0.043572884            3 
   64000    1.2162447   -6.6707547     27.32041   0.03557345  0.043608765            4 
   65000    1.2170973   -6.6114825    27.925205  0.035801544  0.043650008            1 
   66000    1.2279525    -6.612116    28.504432  0.035990444  0.043695491            3 
   67000    1.2490273   -6.5901601    28.887787  0.035930083  0.043726462            5 
   68000    1.2283252   -6.6283279    29.374996   0.03599877  0.043740963            2 
   69000    1.2756121    -6.624247    29.672988  0.035836942  0.043752465            2 
   70000    1.2570476   -6.6180567    30.159036  0.035903614  0.043737436            1 
   71000    1.2509279      -6.6325    30.532163  0.035835872  0.043701314            2 
   72000     1.232499   -6.6348088    31.183153  0.036091612  0.043660189            1 
   73000    1.2479416    -6.629002    31.862975  0.036373259  0.043649078            3 
   74000    1.2644959   -6.6711641    32.179242  0.036237884  0.043644413            3 
   75000    1.2543185   -6.6492418    32.688251  0.036320279  0.043626566            1 
   76000    1.2322327   -6.6326014    33.232834  0.036439511    0.0436126            1 
   77000    1.2608767   -6.6697503    33.560677  0.036321079  0.043586655            3 
   78000    1.2257403    -6.662409    34.123732  0.036456978  0.043555173            2 
   79000    1.2256651    -6.647635     34.62933  0.036528828  0.043519734            1 
   80000     1.264215   -6.6477706    35.123555  0.036587036  0.043492692            1 
   81000    1.2498196   -6.6570402     35.62985  0.036656224  0.043455983            2 
   82000    1.2494215   -6.6671937    36.130525  0.036718013  0.043412804            5 
   83000    1.2178504   -6.6551409    36.746517  0.036894093  0.043383381            3 
   84000    1.2389139   -6.6716334    37.459036  0.037161742  0.043369134            2 
   85000    1.2216448   -6.6545246    38.068727  0.037322281  0.043367397            3 
   86000    1.2484418   -6.6591137    38.494003   0.03730039  0.043377323            2 
   87000    1.2341869   -6.6739106    39.028595  0.037383711  0.043376254            3 
   88000    1.2172536   -6.6770104    39.433616  0.037342439  0.043374613            1 
   89000    1.2617994   -6.6432421    40.167641  0.037610151  0.043380991            1 
   90000    1.2562921    -6.619496    40.271312  0.037288252  0.043367541            2 
   91000    1.2416785   -6.6464667    40.660889  0.037235246  0.043329638            1 
   92000    1.2528033   -6.6875663    40.969032   0.03710963  0.043292192            6 
   93000    1.2429282   -6.6658089    41.676848  0.037344846  0.043256521            3 
   94000    1.2298236   -6.6456135    42.095262  0.037318494  0.043221658            1 
   95000     1.252131   -6.6695423    42.455072  0.037241291  0.043186769            1 
   96000    1.2408039   -6.6437547    43.321552  0.037605513  0.043160716            1 
   97000    1.2329868   -6.6443756    43.735005  0.037573028  0.043141666            2 
   98000    1.2458601   -6.6594761     44.24763  0.037625536  0.043119441            3 
   99000    1.2240215     -6.64888    44.793676  0.037705114   0.04309489            2 
  100000    1.2206395   -6.6916749      45.1536     0.037628  0.043067781            3 
  101000    1.2472794   -6.6605717    45.666903  0.037678962  0.043044225            2 
  102000    1.2257852   -6.6714519    46.034938  0.037610244  0.043015895            2 
  103000    1.2443161   -6.6314454    46.622274  0.037720286  0.042981429            2 
  104000    1.2274442   -6.6439731    46.711831  0.037429352  0.042946829            3 
  105000     1.248498   -6.6355955    47.261172  0.037508866  0.042902985            2 
  106000    1.2517237   -6.6211804    47.974456  0.037715767  0.042866923            3 
  107000    1.2254312    -6.671878    48.356613  0.037660913  0.042832792            2 
  108000    1.2176007   -6.6542542    48.828655  0.037676431  0.042793002            1 
  109000    1.2029581   -6.6518789      49.1546  0.037579969   0.04275397            1 
  110000    1.2473651   -6.6316927    49.890377   0.03779574  0.042717784            3 
  111000    1.2504651   -6.6857127    50.165185   0.03766155  0.042682397            2 
  112000    1.2413403   -6.6568804    50.884708  0.037860646  0.042650197            1 
  113000    1.2445206   -6.6633792    51.335372  0.037857944  0.042620877            1 
  114000    1.2180499   -6.6595119    51.890866  0.037931919  0.042592726            2 
  115000    1.2028517   -6.6487296    52.641189  0.038145789  0.042563694            1 
  116000    1.2140615   -6.6285276    52.610714  0.037795053  0.042532295            1 
  117000    1.2349239   -6.6628565    52.932901  0.037701496  0.042494819            2 
  118000    1.2397255   -6.6358897     53.64572  0.037885395  0.042455376            1 
  119000    1.2130104   -6.6700642    53.938154  0.037771817  0.042416569            1 
  120000    1.2129887   -6.6882034    54.122836  0.037585302   0.04237676            2 
  121000    1.2466097   -6.6635736    54.721909  0.037687265  0.042332341            2 
  122000    1.2382561   -6.6672796    55.033398  0.037591119  0.042284829            2 
  123000    1.2163514    -6.657486    55.744636  0.037767368   0.04224082            2 
  124000    1.2403767   -6.6169426    56.334684  0.037859331  0.042208139            1 
  125000    1.2231657   -6.6757812     56.59721  0.037731473  0.042174008            3 
  126000    1.2539795   -6.6756013    57.423483  0.037978494  0.042145452            1 
  127000    1.2269792   -6.6920072    57.812568  0.037934756  0.042110023            2 
  128000    1.2126191   -6.6554735    58.431535  0.038041364  0.042082757            1 
  129000    1.2512473   -6.6584432    58.798214  0.037983343  0.042053742            2 
  130000    1.2339857    -6.701497    59.323827  0.038028094  0.042026344            2 
  131000    1.2141416     -6.67618    59.607066  0.037917981   0.04200268            2 
  132000    1.2496212   -6.6636969    60.077058  0.037927436  0.041973588            2 
  133000    1.2055034   -6.6787109    60.583927  0.037959854  0.041942702            3 
  134000    1.2226163   -6.6700552    61.046663  0.037964342  0.041910445            1 
  135000    1.2264375    -6.655741     61.26123  0.037815574  0.041878449            2 
  136000    1.2231772   -6.6850559    62.187762  0.038105246  0.041850996            3 
  137000    1.2329757   -6.6748391    62.468068  0.037997608  0.041825291            1 
  138000    1.2238754   -6.6909277     63.27924  0.038212101  0.041800939            3 
  139000    1.2190211    -6.657392    63.795025  0.038246418  0.041780361            1 
  140000    1.2177793   -6.6589472    64.124434  0.038169306  0.041758262            1 
  141000    1.2521546   -6.6775877    64.366246  0.038041516  0.041739729            1 
  142000    1.2127835   -6.6834045    64.554921  0.037884343   0.04171152            2 
  143000    1.2452834   -6.6187376    65.333805  0.038073313  0.041680868            1 
  144000    1.2479178   -6.6852289    65.775879  0.038064745  0.041651955            2 
  145000    1.2012912   -6.6280794    66.329977  0.038120676  0.041625248            2 
  146000     1.246256   -6.6414331    66.881972  0.038174641  0.041606184            2 
  147000    1.1999846   -6.6724093    67.437058  0.038229625  0.041586985            2 
  148000    1.2153533    -6.671236    67.606941  0.038066971  0.041562225            2 
  149000    1.2189367   -6.6387785    68.436671  0.038275543  0.041540459            3 
  150000    1.2197799   -6.6701066    69.058251  0.038365695    0.0415277            1 
  151000    1.2034165   -6.6376878    69.686313   0.03845823   0.04151729            1 
  152000    1.2480492   -6.7140533    69.903186  0.038324115  0.041504608            4 
  153000    1.2346367   -6.6623631    70.198629  0.038234547  0.041487908            1 
  154000    1.2110945   -6.6927618    70.502301  0.038150595  0.041469742            3 
  155000    1.1970459   -6.6384062    71.218257  0.038289385   0.04144983            1 
  156000     1.220188    -6.701005    71.343328  0.038110752   0.04143043            2 
  157000    1.2492779      -6.6899    71.807039  0.038114139    0.0414077            5 
  158000     1.234736   -6.6649463    72.342118  0.038155125  0.041386977            2 
  159000    1.2050454   -6.6738356    73.023293  0.038272166  0.041365286            1 
  160000    1.2186634   -6.6933073    73.725733  0.038398819  0.041347152            2 
  161000    1.2261993   -6.6495259    74.188124   0.03839965   0.04133221            2 
  162000    1.2064005   -6.6779691    74.840604  0.038498253  0.041319999            1 
  163000    1.2351429   -6.6427456     75.29849   0.03849616  0.041308041            2 
  164000    1.2068973   -6.6818843    75.760381  0.038496128  0.041292886            4 
  165000     1.228251   -6.6795232     75.94584  0.038356485  0.041278626            2 
  166000    1.1925961    -6.673231    76.467662   0.03838738  0.041263351            2 
  167000    1.2050917   -6.6984055    77.022807  0.038434534  0.041247306            1 
  168000    1.2218601   -6.6831613     77.42818  0.038406835  0.041232301            2 
  169000    1.2270781   -6.6037122    78.237628  0.038578712  0.041220388            3 
  170000    1.2180187   -6.6942136    78.783715  0.038619468  0.041212176            1 
  171000    1.2342859   -6.6705202    79.147062  0.038570693  0.041202501            3 
  172000    1.2340758   -6.6550592    79.553083   0.03854316  0.041196336            2 
  173000    1.2309104   -6.6933377    79.816377  0.038447195   0.04118471            1 
  174000    1.2111452   -6.6720138    80.497069  0.038552236  0.041173476            2 
  175000    1.2136525   -6.6420502    80.694817  0.038426103  0.041162931            1 
  176000    1.1848066   -6.6903938    81.025221  0.038364214  0.041148684            2 
  177000    1.2162683   -6.6646726    81.455205  0.038349908  0.041134434            2 
  178000    1.2090735   -6.7126122    81.970399  0.038375655  0.041120373            2 
  179000    1.2174902   -6.6437292    82.738643  0.038518921  0.041106945            1 
  180000    1.2511752   -6.6710789     83.06525  0.038456134  0.041095307            2 
  181000    1.2121734   -6.7067606    83.328156  0.038364713  0.041081773            2 
  182000    1.2295732   -6.6540372    84.045166  0.038482219  0.041065607            1 
  183000    1.2073256   -6.7129914    83.806667  0.038163328  0.041045524            1 
  184000    1.2304296   -6.6707789    84.719519  0.038369347   0.04102653            1 
  185000     1.243097   -6.6723739    85.501049  0.038513986   0.04101068            2 
  186000    1.2105828   -6.6471239    85.919417  0.038494362  0.040996686            4 
  187000    1.2138621   -6.6276404    86.681736  0.038628224  0.040984489            1 
  188000     1.210331   -6.6375778    86.957325  0.038544913  0.040972109       -1e+20 
  189000    1.1946379    -6.680814    87.124429  0.038414651  0.040959297            1 
  190000    1.2263766   -6.6805723    87.755214  0.038489129  0.040945683            3 
  191000    1.2132545   -6.7047852    88.548711  0.038633818  0.040936088            2 
  192000    1.2203146   -6.7170103    89.313221  0.038764419  0.040927453            1 
  193000    1.2289498   -6.6667964    89.665586  0.038715711  0.040919389            3 
  194000    1.2023747   -6.6569329    89.961262  0.038643154  0.040906359            1 
  195000    1.2261984   -6.7055139    89.782766  0.038368703  0.040892466            2 
  196000     1.233187   -6.6528586    90.117985   0.03831547  0.040877323            2 
  197000    1.2169012   -6.6843596    90.735238   0.03838208   0.04086078            2 
  198000    1.2157203   -6.6731519    91.609456  0.038556168   0.04084505            1 
  199000    1.2242302   -6.6797239    91.960434  0.038509394  0.040831992            2 
  200000    1.2169107   -6.7065662    92.372561  0.038488567  0.040819249            3 
  201000    1.2159885   -6.6570894    92.901652  0.038516439  0.040805667            2 
  202000    1.2193427   -6.6779492     93.21919  0.038456761  0.040792191            1 
  203000     1.243545   -6.6870748    93.532084  0.038395765  0.040778578            2 
  204000    1.2011666   -6.7097191    94.291601  0.038517811  0.040763995            1 
  205000    1.2048748   -6.7246054    95.184511   0.03869289  0.040751579            1 
  206000    1.2293621   -6.7061085    95.634473  0.038687085  0.040745309            2 
  207000    1.1976646    -6.656009    96.244312  0.038745697  0.040739309            1 
  208000    1.2448178   -6.7129977    96.687725  0.038737069  0.040734472            1 
  209000    1.2216395   -6.6783302    97.341096  0.038812239  0.040728027            1 
  210000    1.2234487   -6.6632368    97.610447  0.038734304  0.040721413            3 
  211000    1.2045976    -6.691278    97.444747  0.038485287  0.040711949            1 
  212000    1.2401291   -6.7147768    97.648835  0.038383976   0.04069884            2 
  213000    1.2058282   -6.7085266    98.580607  0.038568312  0.040686234            1 
  214000    1.2181369   -6.7054706    99.545147  0.038763686  0.040676074            4 
  215000    1.2168296   -6.6712042    100.04411  0.038776788  0.040669683            2 
  216000    1.2244913   -6.6690952    100.61431   0.03881725  0.040662637            2 
  217000     1.209167   -6.6733293    100.70096  0.038671642  0.040653815            2 
  218000    1.2327622   -6.6664378    100.92826  0.038581137  0.040645706            2 
  219000    1.2214893   -6.7006127     101.4728  0.038612178  0.040636915            2 
  220000    1.2336723   -6.6971397    101.59644  0.038483499  0.040622601            1 
  221000    1.2189286   -6.6520467    102.51343   0.03865514  0.040611534            2 
  222000    1.1966507   -6.6887483    102.81652   0.03859479  0.040601169            3 
  223000    1.2270359   -6.6862078    103.37701  0.038631171  0.040592184            3 
  224000    1.2053777   -6.7646449      103.567  0.038529391  0.040582981            1 
  225000    1.1874714   -6.7060484    104.58227  0.038734172  0.040575582            2 
  226000    1.1896715   -6.7167335    104.99061  0.038713351  0.040567205            2 
  227000    1.2256012   -6.6673923    105.46515  0.038717014  0.040560349            1 
  228000    1.2190982   -6.6782975    106.09887  0.038778828  0.040555098            1 
  229000    1.2330755   -6.7143383     106.0992  0.038609608  0.040549683            2 
  230000    1.2003818   -6.6746679     106.7593  0.038680907  0.040542163            2 
  231000    1.2171361   -6.6999945    107.32535  0.038717658  0.040534762            4 
  232000    1.2103294   -6.6677792    107.86057   0.03874302  0.040527069            2 
  233000    1.2139156   -6.7019356    108.11536  0.038667868  0.040518737            1 
  234000    1.2030201   -6.7202926    108.74408  0.038726526  0.040510644            1 
  235000    1.2009315   -6.6817997    109.09515  0.038686223  0.040504729            2 
  236000    1.2263226   -6.6624155    109.75577  0.038755568  0.040499172            1 
  237000    1.2005956   -6.6684721    110.31533  0.038788795  0.040492458            2 
  238000    1.2144144    -6.736079    110.47922    0.0386832  0.040487697            2 
  239000    1.2305621   -6.6883291    111.02961  0.038713253  0.040484342            2 
  240000    1.2020927   -6.6865187    112.00064  0.038889112  0.040480774            2 
  241000    1.2018489   -6.7074427    112.12011  0.038769054  0.040476457            2 
  242000    1.1823823   -6.6608454    112.83545  0.038855181  0.040471549            3 
  243000    1.2081003   -6.7190022    113.02218   0.03875932   0.04046707            2 
  244000    1.2240744   -6.6925948    113.55714  0.038783175  0.040462579            2 
  245000    1.1930143   -6.6817857    114.13714  0.038822157  0.040459552            2 
  246000    1.1936573   -6.7053066    114.73711  0.038867585  0.040457546            3 
  247000      1.20389   -6.7776264    114.90061  0.038765389  0.040453702            2 
  248000    1.2157502   -6.6963068    115.59822  0.038843489  0.040449325            2 
  249000     1.189026   -6.6925279    115.96688   0.03881087  0.040446555            3 
  250000    1.1996139    -6.703276    116.56413  0.038854709  0.040442441            1 
  251000    1.2076854   -6.7048026    116.74698  0.038760619  0.040437468            3 
  252000    1.2111646   -6.6781067    117.10046  0.038723697  0.040430344            4 
  253000     1.192542   -6.6740644    117.35256  0.038653675  0.040420847            4 
  254000    1.2101752   -6.6901332       117.67  0.038605643  0.040411794            2 
  255000    1.2080575   -6.6839283    118.35189  0.038677087   0.04040243            2 
  256000    1.2029181   -6.6911822    118.53391  0.038585256  0.040391245            1 
  257000    1.1807709   -6.6976186     119.1042  0.038620039  0.040379787            2 
  258000    1.1990646   -6.7446969    119.06684  0.038458282  0.040369513            2 
  259000    1.2189562   -6.7331437    119.80474  0.038547215  0.040357328            1 
  260000    1.1934982   -6.7009882    120.05109  0.038477914  0.040344928            7 
  261000     1.205116   -6.6955497    120.48973  0.038470539  0.040331414            1 
  262000    1.2029361   -6.7036077    121.11384  0.038522213  0.040318481            2 
  263000    1.1853389   -6.6874596    121.79547  0.038591719  0.040306177            2 
  264000    1.2118286   -6.7135264    121.87402  0.038470335  0.040295555            1 
  265000    1.2345497   -6.7107698    122.49116  0.038519234  0.040283629            2 
  266000    1.2307714   -6.7394862    123.00908  0.038536679  0.040274562            3 
  267000    1.1954272   -6.6831727    123.38667  0.038510196  0.040264822            1 
  268000    1.1895084   -6.6864437    124.04137  0.038570078  0.040253781            2 
  269000    1.1905315    -6.710966    124.99474  0.038722037  0.040243814            2 
  270000    1.2181733   -6.6839617    125.14473  0.038624916  0.040235327            3 
  271000    1.1976319   -6.6766192    125.28534  0.038525627  0.040226192            3 
  272000    1.2158098   -6.7312959    125.52967  0.038458844  0.040217205            2 
  273000    1.2026189   -6.6965701    126.67609  0.038667916  0.040208257            1 
  274000    1.2129311   -6.7030959    126.94208   0.03860769  0.040198851            1 
  275000    1.2051662   -6.6895573     127.5531  0.038652454  0.040191112            2 
  276000    1.2082822   -6.7099889    127.77341  0.038578929  0.040183338            2 
  277000    1.2411733   -6.7355796     128.0339   0.03851802   0.04017469            2 
  278000    1.2017256   -6.7186862    128.91249  0.038642833  0.040167255            2 
  279000    1.2390988   -6.7253898    128.83423  0.038480954  0.040159031            2 
  280000    1.1747965   -6.7202034    130.29868  0.038779368  0.040150971            2 
  281000    1.2329871   -6.7362849    130.64591  0.038744338  0.040145535            3 
  282000    1.1972265    -6.735595    130.80352  0.038653522  0.040140723            2 
  283000    1.2188991    -6.690374    131.72623  0.038788643  0.040134624            1 
  284000    1.2095988   -6.7120907    131.73988  0.038656069    0.0401286            1 
  285000    1.1854259    -6.740257    131.37733  0.038414424  0.040121017            4 
  286000    1.2402488   -6.7758495     132.8881  0.038720309  0.040112569            1 
  287000    1.1899058   -6.7103627    132.96782  0.038608543  0.040104316            3 
  288000    1.1959629   -6.7351952    133.40137  0.038599933  0.040097356            1 
  289000    1.1942508   -6.6995874    133.96978  0.038630271  0.040089338            2 
  290000    1.2068128   -6.7349759    134.30413  0.038593142  0.040081389            2 
  291000    1.2187873   -6.7233591    134.63294   0.03855468  0.040072749            2 
  292000    1.1998251   -6.7208947    134.78248   0.03846532  0.040062525            2 
  293000    1.2167816   -6.7422767    134.97739  0.038389474  0.040051713            3 
  294000    1.1842039   -6.7205009    135.91945  0.038525922    0.0400409            1 
  295000     1.223802   -6.7376672    135.95648  0.038405784   0.04003038            1 
  296000    1.1916684   -6.7221502    136.97366  0.038562405  0.040021717            2 
  297000    1.2112131   -6.7188821    137.60736  0.038610371   0.04001355            1 
  298000    1.2079745   -6.7211133    138.03599  0.038600667  0.040006649            2 
  299000    1.2276435   -6.7336099    138.46151  0.038590164  0.039999293            2 
  300000    1.1890561   -6.6735362    139.19547  0.038665408  0.039991801            1 
  301000    1.2091514   -6.7097905    138.98006  0.038477313  0.039983108            2 
  302000    1.1917324   -6.7348241    139.57756  0.038514779  0.039975606            2 
  303000    1.1896996   -6.7299298    140.22973  0.038567032  0.039968383            3 
  304000    1.2204839   -6.7108645    141.17698  0.038699831  0.039962428            2 
  305000    1.2129543   -6.7245768    141.49277  0.038659226  0.039956345            2 
  306000     1.227465   -6.7201184    142.12526  0.038705135  0.039951027            1 
  307000    1.1816454   -6.7400681    143.06454  0.038834022  0.039946744            1 
  308000    1.1770911   -6.7134366    143.39325  0.038796875  0.039943209            2 
  309000    1.1763919   -6.7354151    143.84196   0.03879233  0.039939346            2 
  310000    1.1838154   -6.7425804    144.00047  0.038709804  0.039935299            2 
  311000    1.1971422   -6.7006963    144.97349  0.038846059  0.039931812            5 
  312000    1.2210145   -6.7055916    144.57251  0.038614454  0.039927438            3 
  313000    1.2293495    -6.705825    145.51673  0.038742475  0.039923444            2 
  314000    1.1847377   -6.7068613    146.54093  0.038890905  0.039920573            1 
  315000     1.188606   -6.6966728    146.89363  0.038860749  0.039915961            2 
  316000    1.2009149   -6.7029195    146.77997  0.038707797  0.039911172            1 
  317000     1.194866   -6.7480794    146.76969  0.038582989  0.039904049            1 
  318000    1.1763631   -6.6906712    147.32617  0.038607487  0.039896854            1 
  319000    1.2233626   -6.7151294     147.9355  0.038645637   0.03989027            1 
  320000    1.2188049   -6.7056035    148.38868  0.038642884  0.039884146            2 
  321000    1.2112413   -6.7514845    148.73844  0.038613302   0.03987761            3 
  322000    1.2037469   -6.7220962    149.68589  0.038738585  0.039871783            2 
  323000    1.1892966   -6.7219944    149.73084  0.038630246  0.039865064            1 
  324000    1.2036946   -6.7655424    150.00649  0.038581917  0.039860066            2 
  325000    1.2129104   -6.7444911    150.42797  0.038571274  0.039853731            2 
  326000    1.2112911   -6.6971031    150.95867  0.038588618  0.039847579            1 
  327000    1.2105731   -6.6816599    151.54273  0.038619452  0.039840896            1 
  328000    1.1771097   -6.7511582    151.24083  0.038425007  0.039833563            3 
  329000    1.1823268   -6.7458304    152.19368  0.038549564  0.039825618            1 
  330000    1.1748502   -6.7248611     152.7284  0.038567778    0.0398187            3 
  331000    1.1752417   -6.6912383    153.60891  0.038672938  0.039810773            1 
  332000    1.1762951   -6.7324471    153.16681  0.038445484  0.039802291            2 
  333000    1.1875039    -6.701128    153.65036  0.038451042  0.039793629            1 
  334000    1.2070566    -6.732771    153.96547  0.038414539  0.039784545            1 
  335000    1.2089621    -6.750422    154.24365  0.038369067  0.039776256            2 
  336000    1.2188687   -6.7156449    155.16472  0.038483313  0.039768356            4 
  337000    1.1777732   -6.7241792    156.03981  0.038585513  0.039759336            2 
  338000    1.2270034    -6.730079    155.78361  0.038408189  0.039750143            1 
  339000    1.2092851   -6.7733677    155.69112  0.038272154  0.039740627            3 
  340000    1.2117091   -6.7048249     156.9295  0.038463114  0.039730816            2 
  341000    1.2009751   -6.7502099      156.983  0.038363392  0.039721442            2 
  342000    1.2087128   -6.7495845    157.21726  0.038308298   0.03971263            1 
  343000    1.2193874   -6.7213136    158.79724  0.038580476  0.039705319            2 
  344000    1.2112882   -6.7427468    158.14045  0.038309216  0.039698029            1 
  345000    1.2222733   -6.7597448    159.30248  0.038478861  0.039690037            2 
  346000    1.1742918   -6.6690569    160.35354  0.038620796  0.039682428            3 
  347000    1.2066957   -6.7777313    160.09742  0.038447987  0.039675342            2 
  348000    1.1718856   -6.7407499    160.66427  0.038473245  0.039668465            2 
  349000    1.2000061   -6.7087869    161.62413  0.038592199  0.039662254            2 
  350000    1.1967061   -6.7500364    162.04205  0.038581441  0.039656588            1 
  351000     1.185589   -6.6826727     162.4028   0.03855717  0.039651535            2 
  352000    1.2112505   -6.7171125    162.41572  0.038450691  0.039645452            1 
  353000    1.2017104   -6.7383401    162.73461  0.038417046  0.039638637            3 
  354000    1.2050312   -6.7194355    163.64949  0.038523891  0.039630362            1 
  355000    1.2019434   -6.7322126    163.42737  0.038363232  0.039620906            4 
  356000    1.2018207   -6.7647392    163.43397  0.038257015   0.03961108            1 
  357000    1.1900889   -6.7421376     164.2213  0.038333636  0.039601745            1 
  358000    1.2144323     -6.74056    164.92193  0.038389648  0.039592052            2 
  359000     1.180071   -6.7064623    165.16646  0.038339476  0.039581985            1 
  360000    1.1915394   -6.7563198      165.985  0.038422453  0.039573139            2 
  361000    1.2107217   -6.7294185    165.95646  0.038309432  0.039564901            2 
  362000    1.1771605   -6.7152663    166.80757  0.038399533   0.03955635            1 
  363000    1.1994185   -6.7050624    167.31355  0.038409906  0.039547458            2 
  364000    1.1839955   -6.7361184    167.26423  0.038293094  0.039540164            4 
  365000     1.195289   -6.7297945    168.71458   0.03851931  0.039532548            1 
  366000    1.2324289   -6.7324818    168.13168  0.038281348   0.03952554            1 
  367000    1.1900043   -6.7158409    168.92631  0.038357472  0.039518527            2 
  368000    1.2075879   -6.7146529    170.53633  0.038617829  0.039512503            3 
  369000    1.2193787   -6.6694973    170.83198  0.038579942  0.039507358            3 
  370000    1.2082661    -6.735114    170.91647    0.0384947   0.03950239            2 
  371000    1.1859137   -6.7145883    171.17708  0.038449479  0.039497422            1 
  372000    1.1836801   -6.7153566    171.87727  0.038502973  0.039491837            3 
  373000    1.1861365   -6.7142861    172.52541  0.038544551  0.039486558            3 
  374000    1.1946087   -6.7135839    172.32249  0.038396277  0.039479226            1 
  375000    1.1746872   -6.7352165    172.18197   0.03826266  0.039471036            2 
  376000    1.2331237   -6.7203419    172.86163  0.038311531  0.039462842            1 
  377000    1.2029792   -6.7119264    172.79953  0.038196183  0.039453604            2 
  378000    1.1859892   -6.7091096    173.74277   0.03830308  0.039444676            2 
  379000     1.194145    -6.732924     173.7104    0.0381949  0.039436014       -1e+20 
  380000    1.2031935   -6.7853163    174.07018  0.038173284  0.039426697            2 
  381000    1.1977491   -6.7465577     174.3183  0.038127363  0.039416265            4 
  382000    1.2028016    -6.752663    175.45249  0.038274976  0.039406129            1 
  383000    1.1783379   -6.7521395    174.88317  0.038051168  0.039396499            1 
  384000    1.1836894   -6.7302778     175.5062  0.038087282  0.039385896            3 
  385000    1.1793974   -6.7491936    175.88248  0.038069801  0.039375085            5 
  386000    1.1704261   -6.7622735    176.60727  0.038127648  0.039364092            3 
  387000    1.1586942   -6.7616157    176.82812  0.038076684  0.039353302            2 
  388000    1.1639901   -6.7192575    177.24695  0.038068503  0.039342624            3 
  389000    1.1851896   -6.7315691    178.53473  0.038246514   0.03933237            1 
  390000    1.1973655   -6.7413813    177.76006   0.03798292  0.039321071            2 
  391000    1.1785763    -6.734448     178.4683  0.038036721  0.039309417            1 
  392000    1.1823078   -6.7514219    178.59193  0.037965972    0.0392979            1 
  393000    1.1706674   -6.7490156    179.20286   0.03799891  0.039286458            1 
  394000    1.2125652   -6.7178776    179.63951  0.037994819  0.039274746            3 
  395000    1.1930109   -6.7218738    180.20196  0.038017291  0.039262675            1 
  396000    1.1754226   -6.7642173     180.8643   0.03806067  0.039250871            2 
  397000    1.1739978   -6.7495804    181.43344  0.038084266  0.039240127            5 
  398000    1.1702483   -6.7414008    181.73385  0.038051476  0.039231094            1 
  399000    1.1875032   -6.7694858    182.91486  0.038202769  0.039222017            1 
  400000    1.1657544   -6.7055221    183.20315  0.038167323  0.039213615            4 
  401000    1.1910406   -6.7449598    183.66953  0.038169063  0.039204522            1 
  402000    1.2064439   -6.7361063    183.53209  0.038045624  0.039196259            2 
  403000    1.1954688   -6.7200737     184.2376  0.038097106  0.039187398            2 
  404000    1.1820739   -6.7877303    184.65058   0.03808799   0.03917915            4 
  405000    1.1807868   -6.7644217    184.34623  0.037931322  0.039171167            1 
  406000    1.1672989   -6.7469949    185.64695  0.038104874  0.039163414            2 
  407000    1.1930773   -6.7499271    186.24636  0.038133981  0.039154813            1 
  408000    1.1498477   -6.7759657    185.79498   0.03794832  0.039144928            1 
  409000    1.1795659   -6.8097858    186.41229  0.037981315  0.039135042            2 
  410000    1.2010487    -6.753942    187.36045  0.038081392  0.039125306            2 
  411000    1.1617965   -6.7521581    187.26232   0.03796884  0.039115826            1 
  412000    1.1697232    -6.777876    187.94148  0.038014053  0.039106465            2 
  413000    1.1739123   -6.7378938     188.0285  0.037939569  0.039096991            2 
  414000    1.1864895   -6.7269934     188.4507  0.037932911  0.039087401            2 
  415000    1.1831112   -6.7257836    188.95432  0.037942634  0.039076688            1 
  416000    1.1521886    -6.728429    188.93258  0.037847072  0.039066236            2 
  417000    1.1812948   -6.7103138    190.22153  0.038013895  0.039055941            2 
  418000    1.2004576     -6.75775     190.1588  0.037910446  0.039045243            2 
  419000    1.1855001   -6.7589103    189.97807  0.037784024   0.03903359            1 
  420000    1.1789502   -6.7446091    190.62358  0.037822138  0.039022406            2 
  421000    1.1633989   -6.7486629    191.28364  0.037862952  0.039011054            1 
  422000    1.1841941   -6.7491661    190.63787  0.037645708  0.038999844            3 
  423000    1.1677115    -6.755768    191.21702  0.037670809  0.038987822            8 
  424000    1.1767836   -6.7579849    192.19214  0.037773612   0.03897581            1 
  425000    1.2106659   -6.7410308    193.00551  0.037844218  0.038963395            2 
  426000    1.1911024   -6.8060382    192.22241  0.037602193  0.038950431            1 
  427000    1.1679411   -6.7609424    193.38493  0.037741008  0.038937489            2 
  428000     1.152656   -6.7547156    193.07407  0.037592304  0.038924685            2 
  429000    1.1695932   -6.7710114    193.20337  0.037529792  0.038911201            1 
  430000    1.1814185   -6.7659128    193.80054  0.037558244  0.038898197            1 
  431000    1.1784953    -6.739191    195.02672  0.037708182  0.038886037            1 
  432000    1.1763248   -6.7460838    195.52351  0.037716727  0.038875149            1 
  433000    1.2093745   -6.7587793    196.00551  0.037722385  0.038863543            1 
  434000    1.1697543    -6.788551    195.73234  0.037583015  0.038851481            1 
  435000    1.1925915   -6.8030868    195.96569  0.037541321  0.038839255            2 
  436000    1.1973663    -6.787271    197.41741  0.037732685  0.038827722            1 
  437000    1.1728598   -6.7744374    197.23783  0.037612095  0.038815995            2 
  438000    1.1744048    -6.739411    198.48516  0.037763539  0.038803486            1 
  439000    1.1792664    -6.728211    198.46769    0.0376742  0.038791834            1 
  440000    1.1655486   -6.7545778    199.20402  0.037728035  0.038780338            2 
  441000    1.1605475   -6.7838462    199.09943  0.037622719   0.03876929            1 
  442000    1.1609076   -6.7693873    199.46357  0.037606253  0.038758271            3 
  443000    1.1787597   -6.7741441    199.08446   0.03745005  0.038746684            2 
  444000    1.1801451   -6.7442685    199.78169  0.037496563  0.038734865            2 
  445000    1.2063194   -6.7697485    199.97078  0.037447712  0.038722536            1 
  446000    1.2198042   -6.7403101    201.02818  0.037561319  0.038710434            2 
  447000    1.2064499   -6.8040729    201.45687  0.037557209  0.038699085            1 
  448000    1.2026735   -6.7438736    202.85521  0.037733484  0.038688129            1 
  449000    1.1785041   -6.7725262    202.09182  0.037507761  0.038676249            2 
  450000    1.2043319   -6.7737938    203.11248  0.037613422  0.038665199            2 
  451000    1.1828979   -6.7709635    202.76833  0.037466432  0.038653831            2 
  452000    1.2028627    -6.762926    203.77458   0.03756906  0.038642403            1 
  453000    1.1893909   -6.7332158    204.41085  0.037603173  0.038631403            4 
  454000    1.1514421   -6.7604306    204.14803  0.037472105  0.038620497            2 
  455000    1.1867441   -6.7503041    204.96385  0.037539167  0.038610142            2 
  456000    1.1759399   -6.7672391    206.31595  0.037703937  0.038599686            2 
  457000    1.1951046   -6.7741513    205.33183  0.037441982  0.038589113            1 
  458000    1.1944493   -6.7488674    206.93677   0.03765225  0.038578283            1 
  459000    1.1751189   -6.7605627    206.88034  0.037559974  0.038568302            2 
  460000    1.1929176   -6.7915182    207.24892  0.037545094  0.038558057            3 
  461000    1.1692508   -6.7723218    208.10327  0.037618089  0.038548324            3 
  462000    1.1943107   -6.7556265     208.2721  0.037567118   0.03853863            2 
  463000    1.1740749   -6.7628783    208.67539  0.037558565  0.038528407            2 
  464000     1.158848   -6.7853034    209.78678  0.037677224  0.038519251            1 
  465000    1.1984993   -6.7885167    209.93805  0.037623306  0.038510558            1 
  466000    1.1545831   -6.7711925    210.14032  0.037578741  0.038501743            2 
  467000    1.2219076   -6.7741471    210.70487  0.037599013  0.038493229            2 
  468000    1.1930236   -6.7983257     210.7652  0.037529417  0.038484603            2 
  469000    1.1749067   -6.7821686    211.01447  0.037493686  0.038475644            1 
  470000    1.1641855   -6.8027852    212.12577  0.037610952   0.03846709            1 
  471000    1.1709167   -6.7908465    212.44401  0.037587404  0.038458476            1 
  472000    1.1879698   -6.8029832    213.05278  0.037615251  0.038450187            1 
  473000    1.1693034    -6.747825    213.96599  0.037696616   0.03844179            1 
  474000    1.1781052    -6.727594    214.55358   0.03772039  0.038433583            1 
  475000    1.1792842   -6.8146191    214.27786  0.037592607   0.03842589            2 
  476000    1.1596795   -6.7750255    215.43191   0.03771567  0.038419085            2 
  477000    1.1662284   -6.7808505    215.59635   0.03766533  0.038412146            2 
  478000    1.1684863   -6.7751394    216.15162  0.037683336  0.038405883            4 
  479000    1.1518351   -6.7928152    217.06505  0.037763579  0.038399169            2 
  480000    1.1703636    -6.774994    217.49141  0.037758926  0.038392678            1 
  481000    1.1578815   -6.7468116    217.66594  0.037710661  0.038386565            2 
  482000    1.1515426   -6.7569026    218.79697  0.037827968  0.038380635            2 
  483000     1.178685   -6.7480136     219.0125  0.037786837  0.038375491            2 
  484000    1.1839457   -6.7877201    218.87344   0.03768482  0.038369905            3 
  485000    1.1941945   -6.7990045    219.59883  0.037731758  0.038363664            2 
  486000    1.1760166   -6.7599885    219.42543  0.037624387  0.038357001            1 
  487000    1.1548503   -6.7672001    220.47056  0.037725969  0.038350673            3 
  488000    1.1819554   -6.7917672    219.82167  0.037537853  0.038343941            2 
  489000    1.1909536   -6.7851967    221.17314  0.037691401  0.038336473            2 
  490000    1.1671809   -6.7958953     220.7875  0.037548895  0.038329305            1 
  491000    1.1692736   -6.8001059    221.52777   0.03759806  0.038321799            4 
  492000    1.1646178   -6.7835917    222.27531  0.037648257  0.038314784            3 
  493000    1.1784846   -6.7293588    223.11464  0.037713766  0.038308107            3 
  494000    1.1564767   -6.7888618     222.4508  0.037525439  0.038301633            2 
  495000    1.1861488   -6.8017583    223.48359  0.037623501   0.03829436            1 
  496000    1.1597734   -6.7726773    223.09471   0.03748231  0.038287552            2 
  497000    1.1765578    -6.785377    223.86357  0.037535811  0.038280583            2 
  498000    1.1537773    -6.776911    223.53182  0.037404923  0.038272867            2 
  499000    1.1494576   -6.7708909    224.94418  0.037565828  0.038264561            2 
  500000    1.1939854   -6.7635088    224.78011  0.037463352  0.038257109            2 
  501000    1.1701453   -6.7803146    225.45713  0.037501185   0.03824983            2 
  502000    1.1844957   -6.7663708    226.55995  0.037609554  0.038241949            1 
  503000    1.1731938   -6.7741748    226.38557  0.037505893  0.038234243            2 
  504000    1.1835263   -6.8188723    226.42718  0.037438356  0.038226457            4 
  505000    1.1863693   -6.7603274    227.02833   0.03746342   0.03821852            1 
  506000    1.1592326    -6.768756    227.69912  0.037499856  0.038211013            1 
  507000    1.1566339   -6.8211092    227.77174  0.037437827  0.038203942            2 
  508000    1.1682944   -6.7693214    228.92592  0.037553464  0.038197328            1 
  509000     1.175593   -6.7715274      229.759  0.037616077    0.0381911            1 
  510000    1.1924896   -6.8205593    229.75585  0.037541805  0.038184566            2 
  511000    1.1738621    -6.811747    231.17638  0.037699996  0.038178763            2 
  512000    1.1720902   -6.7535847    231.13918   0.03762031  0.038173182            1 
  513000    1.1924138   -6.7927383     231.0266  0.037528688  0.038166938            2 
  514000     1.191222   -6.8121038    232.23946  0.037652312  0.038160719            2 
  515000    1.1729726   -6.8065653     231.3893  0.037441635  0.038154527            2 
  516000    1.1672031   -6.7916686    232.37562  0.037528362   0.03814785            1 
  517000    1.1807328   -6.7891383     232.0567  0.037404368  0.038140344            1 
  518000     1.176343   -6.7626344    233.02378  0.037487737  0.038133723            1 
  519000    1.1646998   -6.7587342    234.03935  0.037578572  0.038127648            3 
  520000    1.1671873   -6.8366298    233.22687  0.037376102  0.038120868            5 
  521000     1.204954   -6.8056387    233.57508  0.037360058  0.038113911            2 
  522000    1.1695947   -6.7438053    235.10133  0.037532141  0.038106873            3 
  523000    1.1822273   -6.7542988    235.32926  0.037496695  0.038100033            1 
  524000    1.1895845    -6.789678    236.16607  0.037558217  0.038093675            2 
  525000    1.2023704   -6.7749709    236.17786  0.037488548  0.038086949            2 
  526000    1.1602626   -6.7741448    236.97315  0.037543274   0.03808027            4 
  527000    1.1782494   -6.7614608    237.81902  0.037605791  0.038074329            2 
  528000    1.1601299   -6.7719729    238.15667  0.037587857  0.038068864            3 
  529000    1.1680803   -6.8364696    237.79881   0.03746043  0.038062465            2 
  530000    1.1446352   -6.7683863    238.79481  0.037546354  0.038056622            1 
  531000     1.167383   -6.8344976    239.13466   0.03752898  0.038051062            1 
  532000    1.1917852   -6.8128027    238.92501  0.037425597  0.038045487            3 
  533000    1.1466234   -6.8134659    239.54993  0.037453084  0.038039952            2 
  534000    1.1847529   -6.8278855    240.45836  0.037524713  0.038033765            2 
  535000    1.1744323   -6.7891566    240.37563  0.037441686  0.038027508            5 
  536000    1.1518208   -6.8136119    241.02114  0.037472193  0.038021279            1 
  537000    1.1939817   -6.7902029    241.84868  0.037530832  0.038014869            2 
  538000    1.1545317   -6.7924287    242.13366  0.037505213  0.038009002            2 
  539000    1.1746508   -6.7799157    242.22389  0.037449581  0.038003277            1 
  540000     1.173993   -6.7946077    242.20579  0.037377437   0.03799715            3 
  541000    1.1594032   -6.7747274    244.03927  0.037590769  0.037991694            2 
  542000    1.1823803    -6.778142    243.64367  0.037460589  0.037986416            3 
  543000    1.1503894   -6.8178029    243.29624  0.037338281  0.037981143            4 
  544000     1.166593   -6.8093852       244.33  0.037428003  0.037976041            1 
  545000    1.1662367   -6.7726956    246.12277  0.037633451  0.037971379            2 
  546000    1.1816876   -6.7839758    246.26917  0.037586869  0.037966609            2 
  547000    1.1883115   -6.8242377    245.97912  0.037473968  0.037961295            3 
  548000    1.1461885   -6.7951489    246.69864     0.037515  0.037956026            1 
  549000    1.1753983   -6.8161897    246.60991  0.037433198  0.037950663            2 
  550000    1.1489033   -6.7952734    247.37474  0.037481021  0.037945276            4 
  551000    1.1938021   -6.8173525    248.37696  0.037564574   0.03794054            1 
  552000    1.1830183   -6.7605785    248.74988  0.037552819  0.037935877            2 
  553000    1.1595711   -6.8574351    249.26244  0.037562152  0.037931749            1 
  554000    1.1407573   -6.8406346    250.11152   0.03762207  0.037927484            3 
  555000    1.1567337   -6.7826214     249.9685  0.037532808   0.03792293            2 
  556000    1.1606214   -6.7815327    250.18966   0.03749845  0.037918746            1 
  557000    1.1539237   -6.8147762    250.57636  0.037488982  0.037914708            2 
  558000    1.1581232   -6.7970077    251.32899  0.037534197  0.037910518            4 
  559000    1.1793287   -6.7936429    252.43605  0.037632088   0.03790705            2 
  560000    1.1950338   -6.8127924    252.03134  0.037504663  0.037902661            1 
  561000    1.1601415   -6.7647106    253.08296  0.037594023  0.037898725            2 
  562000     1.172925   -6.7849827    252.80953  0.037486585  0.037894469            1 
  563000    1.1258307   -6.8013199    253.01571  0.037450519  0.037889963            4 
  564000    1.1680792   -6.8453321    253.32605  0.037429973  0.037884994            1 
  565000     1.175179   -6.8155455    253.12917  0.037334685  0.037880338            3 
  566000    1.1646104   -6.8227271    254.93692  0.037534883  0.037875629            1 
  567000    1.1708896   -6.8040052    255.19755  0.037506988  0.037871725            2 
  568000    1.1661969   -6.7857466    256.46897  0.037627489  0.037867952            2 
  569000    1.1679551   -6.7900407    255.74594  0.037455469   0.03786449            1 
  570000     1.176942   -6.7882992    255.90181  0.037412545  0.037860689            2 
  571000    1.1541608   -6.8309388    256.02926  0.037365625  0.037856596            1 
  572000    1.1721055   -6.7796772     257.8177  0.037560853  0.037852663            4 
  573000     1.142034   -6.8164507    257.50398  0.037449677  0.037848794            1 
  574000    1.1554142   -6.7899335    259.08692  0.037614245  0.037844987            2 
  575000    1.1416477   -6.7981685    260.04859  0.037688202  0.037841292            1 
  576000    1.1640251   -6.8214242    259.35619  0.037522596  0.037837733            3 
  577000    1.1531248   -6.7996822    259.23319  0.037439802  0.037833869            2 
  578000    1.1304638   -6.8044917    260.29933  0.037528738   0.03782969            2 
  579000    1.1588424    -6.814112    260.13876  0.037440811  0.037825403            2 
  580000    1.1489899   -6.7527247    261.21514  0.037530911  0.037821096            3 
  581000    1.1418114   -6.7943876    260.68523  0.037390308  0.037816358            3 
  582000    1.1736118   -6.7985266    261.85629  0.037493741  0.037811879            3 
  583000    1.1524522   -6.7904666    262.01831  0.037452589  0.037807807            4 
  584000    1.1459645   -6.8211896     261.5877  0.037327012  0.037803133            1 
  585000    1.1696615   -6.7677647     262.3614  0.037373419  0.037798653            3 
  586000    1.1568491   -6.8006992     263.3022   0.03744343  0.037793908            1 
  587000    1.1637674   -6.7637275    263.50807  0.037408869  0.037789173            1 
  588000    1.1700125   -6.7660221     264.1996  0.037443254  0.037784215            1 
  589000    1.1632273     -6.84305    263.30717  0.037253419  0.037778729            3 
  590000    1.1483873   -6.7809152     263.6805  0.037243008  0.037772835            2 
  591000    1.1614317   -6.8254164    264.48575  0.037293535  0.037766678            5 
  592000    1.1649987   -6.7971341     264.6182  0.037249184  0.037760455            2 
  593000    1.1703407    -6.833246    264.13364  0.037118274  0.037754275            1 
  594000    1.1726488   -6.7797463    265.02373  0.037180658  0.037747845            2 
  595000    1.1633543   -6.8133339    265.97476  0.037251367  0.037741856            2 
  596000    1.1773404   -6.7748695     266.2295  0.037224483  0.037735235            3 
  597000    1.1637442   -6.8174501    266.08972  0.037142619  0.037728916            4 
  598000    1.1547986   -6.8058578    266.06783  0.037077457  0.037722407            2 
  599000    1.1640525   -6.8079763    267.20119  0.037173232  0.037715953            1 
  600000    1.1725693   -6.7739583    268.67133  0.037315463  0.037709833            1 
  601000    1.1467372   -6.8228343    268.60362  0.037243985  0.037703652            2 
  602000    1.1316403   -6.8117595    267.92569  0.037088274  0.037697227            1 
  603000    1.1745814   -6.7972613    268.86531  0.037156621  0.037690956            2 
  604000    1.1543231   -6.8378534    269.00199  0.037113961  0.037684391            5 
  605000    1.1603858   -6.7801706    269.86015   0.03717082  0.037677558            1 
  606000    1.1513357    -6.862994     269.6626  0.037082315  0.037671204            2 
  607000    1.1487031    -6.800252     269.8023  0.037040403  0.037663942            2 
  608000    1.1436767   -6.7998099     269.8681  0.036988501    0.0376568            1 
  609000     1.163256   -6.7930085    270.98379  0.037080432  0.037650121            2 
  610000    1.1844208   -6.8256426    270.91268  0.037009929  0.037643856            2 
  611000    1.1251966   -6.8142257    271.65774  0.037050973  0.037637172            4 
  612000    1.1272076   -6.8065194    271.86925  0.037019233   0.03763014            2 
  613000    1.1755691   -6.8286576    272.45357  0.037038278   0.03762337            2 
  614000     1.128502   -6.7930875    272.96044  0.037046748  0.037616819            2 
  615000    1.1396118   -6.8170438    273.48156  0.037057122  0.037610525            3 
  616000    1.1859868   -6.8304471    274.14786  0.037087102  0.037604571            2 
  617000    1.1233422   -6.8194309    276.01656  0.037279384  0.037598905            1 
  618000    1.1647418   -6.8179352    276.26898  0.037253099  0.037593964            1 
  619000    1.1514916   -6.8052962     277.6176  0.037374475  0.037589323            2 
  620000    1.1553663   -6.8303923     276.4418  0.037156155  0.037583792            1 
  621000    1.1566585   -6.8302275    277.19441  0.037197318  0.037578229            1 
  622000     1.150886   -6.8294235    277.05033  0.037118211  0.037572853            3 
  623000    1.1560414   -6.8323343     277.6715   0.03714172    0.0375674            4 
  624000    1.1426017    -6.796814      278.677   0.03721648  0.037562513            1 
  625000      1.13852   -6.8019717    280.13129  0.037350839  0.037558129            3 
  626000    1.1626211   -6.7976166     279.6206   0.03722319  0.037554078            2 
  627000    1.1399456   -6.8527922    279.33998  0.037126525  0.037549348            1 
  628000    1.1527581   -6.8223128    280.00602  0.037155788  0.037544759            3 
  629000    1.1579029   -6.8205952    281.29143  0.037267015  0.037540649            1 
  630000    1.1366264   -6.8310718    282.56154  0.037375866  0.037537208            4 
  631000    1.1590519   -6.8622006     282.0064  0.037243317  0.037533138            2 
  632000    1.1479908   -6.8364572    281.98992  0.037182215  0.037529203            3 
  633000    1.1356155   -6.8257723    281.93271  0.037115944  0.037525274            3 
  634000    1.1243645   -6.8168239    282.62075  0.037147838  0.037521087            2 
  635000    1.1496026   -6.8506668    282.80734  0.037113825  0.037516271            3 
  636000    1.1798902   -6.8471932     283.1613  0.037101847  0.037511448            2 
  637000    1.1480212   -6.7830244    284.74641  0.037250969  0.037507022            2 
  638000    1.1822257   -6.8174265    285.34543  0.037270825  0.037502547            2 
  639000    1.1578277   -6.8092419    284.88691  0.037152701  0.037497998            2 
  640000    1.1392597   -6.8345137    284.32245  0.037021152  0.037493007            1 
  641000    1.1275487   -6.8320037    284.83768   0.03703038  0.037487531            1 
  642000    1.1430817    -6.832334    285.80575  0.037098358  0.037482552            2 
  643000    1.1463402   -6.7897905    287.07919  0.037205701  0.037477903            3 
  644000    1.1253342   -6.8327078    287.53719  0.037207193  0.037473128            2 
  645000    1.1575452    -6.830619    287.57184  0.037153984   0.03746881            3 
  646000    1.1601343    -6.800834    289.04433   0.03728642   0.03746487            1 
  647000    1.1689678   -6.8037728     288.9994  0.037223004  0.037461186            1 
  648000    1.1753051   -6.8311874    290.14466  0.037312842  0.037457549            3 
  649000    1.1323472   -6.8464213    289.48058   0.03717008  0.037454223            6 
  650000    1.1388469   -6.7987927    289.56178  0.037123305  0.037450541            3 
  651000    1.1688827   -6.8458231    290.47354  0.037182992  0.037446944            3 
  652000    1.1576137   -6.8603661    290.53425  0.037133724  0.037443172            1 
  653000    1.1564279   -6.8110965    292.01229  0.037265478  0.037439226            2 
  654000    1.1655614   -6.8247941    292.67713  0.037293213  0.037435417            2 
  655000    1.1351487   -6.8006893    292.50116  0.037213888  0.037431851            1 
  656000    1.1360049   -6.8576279    294.03736  0.037352307  0.037428359            1 
  657000    1.1419218   -6.8366537    294.34837  0.037334902  0.037425801            4 
  658000    1.1525847   -6.8433321    293.57149  0.037179774    0.0374231            3 
  659000    1.1571764   -6.8195055    295.12008  0.037319181  0.037420103            4 
  660000    1.1561707   -6.8365912     295.7109  0.037337234  0.037417851            3 
  661000     1.146025   -6.8130165     295.7087  0.037280472  0.037415025            1 
  662000    1.1537449   -6.8162652    295.72053  0.037225646   0.03741209            5 
  663000    1.1516142   -6.8450848    295.45089  0.037135607  0.037408954            2 
  664000    1.1460023   -6.8242409    296.63482  0.037228266   0.03740579            3 
  665000    1.1487645   -6.8189195    297.19949  0.037243044  0.037402572            1 
  666000     1.156846   -6.8446564    297.19722   0.03718684  0.037399355            2 
  667000    1.1222985   -6.8349468     298.0218  0.037234108  0.037396209            2 
  668000    1.1501071   -6.8124677    297.74495  0.037143831  0.037392683            2 
  669000    1.1225199   -6.8178527    298.88926   0.03723085   0.03738868            1 
  670000    1.1341741   -6.8381231    298.87187  0.037173118  0.037385728            1 
  671000    1.1419264   -6.8325511    298.52639  0.037074813  0.037382312            2 
  672000    1.1471755   -6.8153328    300.30717  0.037240473  0.037379448            1 
  673000    1.1329788    -6.849971    300.69623  0.037233312  0.037376922            3 
  674000    1.1404906   -6.8462092    301.09221  0.037227029  0.037373822            3 
  675000    1.1452188   -6.8293919     302.6348  0.037362321  0.037370879            3 
  676000     1.128214   -6.8064942    302.62745  0.037306145  0.037368102            2 
  677000    1.1602218   -6.8475707    302.61122  0.037249042  0.037365706            2 
  678000    1.1464609   -6.8165561    302.56473  0.037188389  0.037362778            2 
  679000    1.1637428   -6.8209757    303.76591   0.03728104  0.037359903            3 
  680000    1.1493524   -6.8202951    304.02513  0.037257981  0.037357568            2 
  681000    1.1393161   -6.8441931    303.65363  0.037157811  0.037354723            2 
  682000    1.1645542   -6.7930321    304.64525  0.037224493  0.037351713            2 
  683000    1.1328901   -6.8660734    305.08016  0.037223056  0.037348266            3 
  684000    1.1471819   -6.8304481    304.39643  0.037085334  0.037344606            1 
  685000    1.1486678   -6.8162849    304.98248  0.037102492  0.037340784            4 
  686000    1.1440015   -6.8318997    305.76186  0.037143083  0.037337602            3 
  687000    1.1491842   -6.8216306    305.71834  0.037083738  0.037333977            1 
  688000    1.1348426    -6.800617    306.67421  0.037145616  0.037330613            2 
  689000     1.163584   -6.8574735    307.01002   0.03713232  0.037327057            2 
  690000    1.1669397   -6.8345477    306.22772  0.036984025  0.037323241            2 
  691000    1.1250847   -6.8424728    308.23477  0.037172548  0.037320105            2 
  692000    1.1181903   -6.8441726    308.43154  0.037142526  0.037317039            3 
  693000    1.1486502   -6.8389551     309.0535   0.03716372  0.037313919            2 
  694000    1.1459193   -6.8324253    310.14833  0.037241634  0.037311543            1 
  695000    1.1113254   -6.8442231    310.39534  0.037217667  0.037308912            5 
  696000    1.1450779   -6.8172127    310.81338  0.037214245  0.037306954            2 
  697000    1.1615723     -6.81833    310.90585  0.037171909  0.037304292            3 
  698000    1.1405891   -6.8514156    310.74387  0.037099316  0.037301423            2 
  699000    1.1303717   -6.8782204    311.14246   0.03709376  0.037298212            2 
  700000    1.1274024   -6.8534553     312.5399  0.037207131  0.037295835            2 
  701000    1.1502067   -6.8394529    314.31057  0.037364547  0.037293538            1 
  702000    1.1098336     -6.85511    313.88494  0.037260796  0.037291382            2 
  703000    1.1129357   -6.8508067    314.81095  0.037317562   0.03728875            2 
  704000    1.1394253   -6.8721924    313.60572  0.037121889  0.037286586            1 
  705000    1.1767334   -6.8456951    313.88083  0.037101753  0.037284166            1 
  706000    1.1632626    -6.869269    313.72553   0.03703087  0.037280954            4 
  707000    1.1620675   -6.8670913    314.98854  0.037127362   0.03727795            2 
  708000    1.1467416   -6.8421978    315.26711   0.03710771  0.037275305            1 
  709000    1.1360859   -6.8838628    315.28736  0.037057752  0.037272566            3 
  710000    1.1076373    -6.856462    315.83603  0.037069957  0.037269745            5 
  711000    1.1162715   -6.8524559    315.90882   0.03702635  0.037266459            4 
  712000    1.1307045   -6.8300834    317.14481  0.037119008  0.037263545            2 
  713000    1.1293406   -6.8923015    317.61887  0.037122355  0.037260683            2 
  714000    1.1307392   -6.8743395    317.47993  0.037054147  0.037257511            1 
  715000    1.1453935   -6.8287001    318.53836  0.037125683   0.03725478            1 
  716000    1.1351356   -6.8807423    318.29065  0.037045001  0.037252325            1 
  717000    1.1427926   -6.8857162     318.9437  0.037069235  0.037249622            2 
  718000    1.1229985   -6.8696326    319.44203  0.037075445  0.037246473            3 
  719000    1.1574849   -6.8767149    319.03973  0.036977251  0.037243306            5 
  720000    1.1635156   -6.8887343    320.04993  0.037042816  0.037240455            2 
  721000    1.1250096   -6.8399416    321.16885  0.037120764   0.03723773            1 
  722000    1.1677566   -6.8531869    322.15878  0.037183608  0.037235545            2 
  723000    1.1625667    -6.834088    322.64363  0.037188062  0.037233665            3 
  724000    1.1683873   -6.8694863    322.56822  0.037128018  0.037231219            2 
  725000    1.1408253    -6.846953    323.49786  0.037183662  0.037228504            4 
  726000    1.1302602   -6.8502505    323.01153  0.037076622  0.037225982            1 
  727000    1.1542808   -6.8217346    323.71622  0.037106399  0.037222996            1 
  728000    1.1384663   -6.8932761    323.11057    0.0369861  0.037220034            5 
  729000    1.1170694   -6.9039001    323.31799  0.036959075  0.037216715            2 
  730000    1.1195437   -6.8089741    324.89394  0.037088349  0.037213754            1 
  731000    1.1335167   -6.8817901    324.39895  0.036981184  0.037210493            2 
  732000    1.1432704   -6.8390706     325.3211  0.037035645  0.037206931            2 
  733000    1.1036752   -6.8516645    325.05744  0.036955144  0.037203873            1 
  734000    1.1286908    -6.856528    325.67491  0.036974899   0.03720027            5 
  735000     1.107901   -6.8657043    326.09538  0.036972265  0.037196715            3 
  736000    1.1474703   -6.8468403    326.72423  0.036993233  0.037193216            3 
  737000    1.1475683   -6.8306474    327.11329   0.03698703  0.037189559            1 
  738000    1.1267758   -6.8709193    325.98049  0.036808998  0.037185653            1 
  739000    1.1156301   -6.8528141    326.98686  0.036872672  0.037181518            3 
  740000    1.1665693   -6.8572429    328.61277  0.037005942  0.037177543            4 
  741000    1.1530452   -6.8827956    328.28824  0.036919505  0.037173483            2 
  742000    1.1300831   -6.8754936    328.29041  0.036869992  0.037169517            2 
  743000    1.1626387   -6.8355137    330.05345  0.037018108  0.037165681            1 
  744000    1.1290531    -6.836569    329.45138  0.036900917  0.037161764            3 
  745000    1.1395144   -6.8638672    329.65831  0.036874532  0.037157455            1 
  746000     1.109223   -6.8691884    329.39675  0.036795884  0.037152898            4 
  747000    1.1652544   -6.8818323    329.92949  0.036806056  0.037148292            2 
  748000    1.1062654   -6.8634772    331.13241  0.036890865  0.037144234            2 
  749000    1.1568812   -6.8432127    331.34562  0.036865333  0.037140262            2 
  750000    1.1438556   -6.8685183    331.49984  0.036833315  0.037136046            4 
  751000    1.1472099   -6.8721466    330.93499  0.036721592  0.037131379            3 
  752000    1.1338239   -6.8058777    332.62103    0.0368596  0.037126398            1 
  753000    1.1295671   -6.8491443    332.00295  0.036742247  0.037121595            2 
  754000    1.1246838   -6.8712161    332.31563  0.036728076  0.037116899            2 
  755000    1.1406595   -6.8753533     332.4132  0.036690199  0.037111434            1 
  756000    1.1140569   -6.8993929    332.73025  0.036676615  0.037106016            2 
  757000    1.1567723   -6.8708466    332.91137  0.036648103  0.037100342            1 
  758000    1.1027177    -6.862378    333.26501  0.036638634  0.037094358            3 
  759000    1.1257419   -6.8443837    334.47443  0.036723148   0.03708894            3 
  760000    1.1145457   -6.8852927    333.33727   0.03655014  0.037082743            2 
  761000     1.163248    -6.852993     335.1251  0.036697886   0.03707668            3 
  762000    1.1249562   -6.8338382     335.6721  0.036709547  0.037070745            1 
  763000    1.1177746   -6.8587919    333.24373  0.036396214  0.037064814            2 
  764000    1.1337743   -6.8672918    335.03962  0.036544461   0.03705872            2 
  765000    1.1379227   -6.8628563    335.14782  0.036508477  0.037052616            5 
  766000    1.1387389   -6.8595214    336.44957  0.036602434  0.037046616            2 
  767000    1.1370625   -6.8306062     336.8059  0.036593426  0.037041063            1 
  768000    1.1495952   -6.8885336    335.87703   0.03644499  0.037035453            2 
  769000    1.1325035   -6.8466158    337.06429  0.036526256   0.03702906            1 
  770000    1.1075173   -6.8282563    337.49838  0.036525799  0.037022941            1 
  771000    1.1442793   -6.7924234    337.90525    0.0365224  0.037016855            2 
  772000    1.1207552   -6.8222741     338.4118  0.036529771  0.037010791            1 
  773000    1.1131069   -6.8423854    337.88829  0.036426077  0.037004338            2 
  774000    1.1129555    -6.876845    338.36462  0.036430299  0.036997782            2 
  775000    1.1231484   -6.8543657    338.42524  0.036389811  0.036991679            2 
  776000    1.1333397   -6.8989136    340.11857   0.03652476  0.036985234            3 
  777000    1.1407481   -6.8855777    339.18648  0.036377786  0.036978516            2 
  778000    1.1283835   -6.8887035    339.73134  0.036389389  0.036971525            2 
  779000    1.1239405   -6.9109628    339.94887  0.036365947  0.036964972            1 
  780000      1.07991   -6.8059647    341.16721  0.036449489  0.036958781            2 
  781000    1.1285648   -6.8563555    343.00738  0.036599166  0.036952532            2 
  782000    1.1475208   -6.8840924    341.14847   0.03635427  0.036946135            2 
  783000    1.1423146   -6.8415044    342.30738  0.036431182    0.0369394            3 
  784000    1.1354066   -6.8671047    342.14983  0.036367967    0.0369328            1 
  785000     1.123718   -6.8591752    342.95409  0.036407016  0.036926017            2 
  786000    1.1133146   -6.8527286    343.67257  0.036436871   0.03691946            2 
  787000    1.0998311   -6.8847271     342.4664  0.036262855  0.036912553            2 
  788000    1.1382575    -6.872764    342.46943  0.036217156  0.036905222            3 
  789000    1.1354944   -6.8795037     344.2149  0.036355609  0.036898097            1 
  790000    1.1425591   -6.8625812    344.97009   0.03638925  0.036890938            1 
  791000    1.1181088   -6.9038288    343.92086  0.036232708  0.036883977            2 
  792000    1.1385573   -6.8470728    344.85651  0.036285407   0.03687659            2 
  793000    1.1359093   -6.9167907    344.60767    0.0362135   0.03686916            3 
  794000    1.1334308   -6.8988803    345.25078  0.036235389  0.036861779            1 
  795000    1.1336343   -6.9161948    344.28172  0.036088231  0.036854435            1 
  796000    1.1155944   -6.8873497    345.44711  0.036164898  0.036846876            3 
  797000    1.1393598   -6.8408402    347.52475  0.036336757   0.03683967            1 
  798000    1.1216366   -6.8765168    346.40793  0.036174596  0.036832391            2 
  799000    1.1147346   -6.9016068    347.00398  0.036191487  0.036824559            1 
  800000    1.1171653   -6.8502413    346.77157  0.036122038  0.036816755            2 
  801000    1.1325172   -6.8380567    347.66064  0.036169438  0.036808729            2 
  802000    1.1011876   -6.8657249    347.15544  0.036071845  0.036801112            1 
  803000    1.1186151   -6.8922537    347.38044  0.036050274  0.036793237            6 
  804000    1.1398989   -6.8961866    347.34719  0.036001989  0.036784869            2 
  805000    1.1294436   -6.8917546    347.83878  0.036008155  0.036776335            3 
  806000    1.1214888   -6.8798142    349.26167  0.036110594  0.036767933            3 
  807000     1.108071   -6.8530315    350.16761  0.036159398  0.036759606            4 
  808000    1.0824701   -6.8746374    349.11657  0.036006247  0.036751327            4 
  809000    1.0861491   -6.8382437    349.65948  0.036017663   0.03674335            1 
  810000    1.1174123   -6.8833602    349.61403  0.035968521  0.036734931            2 
  811000     1.122837   -6.8701036    350.63522  0.036029102  0.036726676            1 
  812000    1.1092547    -6.881715    350.03744  0.035923383    0.0367181            3 
  813000    1.1339937   -6.8524836    351.53342  0.036032536  0.036710131            2 
  814000      1.12638   -6.9144371    351.20127  0.035954266  0.036701754            3 
  815000    1.1341512   -6.8504665    352.32672  0.036025227  0.036693711            2 
  816000    1.1335513   -6.8551665     352.2171  0.035969884  0.036685898            5 
  817000      1.11116   -6.8644182    352.67369  0.035972428  0.036678171            3 
  818000    1.1163424    -6.857289    354.62121  0.036126855  0.036670744            2 
  819000    1.1173973   -6.8897433    353.07605  0.035925524  0.036662985            1 
  820000    1.1099201   -6.9025634    353.27005  0.035901427  0.036655269            2 
  821000    1.0982681   -6.9129663    353.90628  0.035922278  0.036647396            2 
  822000    1.1366623   -6.8471597    353.82609  0.035870447  0.036639398            3 
  823000      1.12632   -6.8741065    354.31323  0.035876188  0.036631356            1 
  824000    1.1030108   -6.8430586    355.72595  0.035975521   0.03662354            1 
  825000    1.0887878   -6.8954132    356.50846  0.036010955  0.036615808            2 
  826000    1.1219546   -6.8560128    355.59064  0.035874762  0.036608047            1 
  827000    1.1062098    -6.914881    356.53994  0.035927039  0.036600331            2 
  828000     1.128022   -6.8849032    357.96782  0.036027357  0.036592868            3 
  829000    1.1278019   -6.8708835    357.84099  0.035971149  0.036585618            1 
  830000    1.1108061    -6.841264    359.60282    0.0361047  0.036578566            1 
  831000    1.1063823   -6.8703763    360.31811  0.036132983   0.03657142            2 
  832000    1.1268369   -6.8928423     359.6592  0.036023558  0.036564304            2 
  833000    1.1424889   -6.8882513    360.35969   0.03605039  0.036557218            1 
  834000     1.121888   -6.8798016    359.89332  0.035960563  0.036550133            1 
  835000     1.119262   -6.9134755    360.70089  0.035998093  0.036543122            3 
  836000    1.1095508   -6.8680241    361.96517  0.036081057  0.036536349            3 
  837000    1.1105001   -6.8631471    363.18798  0.036159695  0.036529839            1 
  838000    1.0955725   -6.8563147     363.5977  0.036157289   0.03652374            4 
  839000    1.1132886   -6.8583264    363.13546  0.036068282  0.036517275            1 
  840000    1.1039091   -6.8850865    362.87711  0.035999713  0.036510552            3 
  841000    1.1302295    -6.883816    362.81513  0.035950766  0.036504004            2 
  842000    1.1337275   -6.8688158    365.02681  0.036126961   0.03649738            2 
  843000    1.0904756    -6.888127    363.93629  0.035976304  0.036490764            2 
  844000    1.1107819   -6.9413093    363.70243  0.035910587  0.036483997            2 
  845000    1.0929616   -6.8895816    365.08814  0.036004748  0.036477638            2 
  846000    1.1115675   -6.8744493    365.75053  0.036027436  0.036471296            2 
  847000    1.1260996   -6.8708613    366.40696  0.036049485  0.036464751            2 
  848000    1.1213838   -6.9521907    365.92114  0.035959231   0.03645834            4 
  849000    1.1088296   -6.8842385    366.63766  0.035987206  0.036451614            3 
  850000    1.1123294   -6.9366216    367.58819  0.036038057  0.036444949            2 
  851000    1.1187733    -6.879686    368.23188  0.036058743  0.036438161            2 
  852000    1.1152716   -6.8839151    367.54144  0.035948889  0.036431369            2 
  853000    1.1446305   -6.8781881    366.76296  0.035830691  0.036424578            3 
  854000    1.1241662   -6.8390102    369.26081  0.036032475  0.036417789            1 
  855000    1.1099207   -6.8783682      367.269  0.035796199  0.036411244            2 
  856000    1.1317646   -6.8864019    368.13588  0.035838774  0.036404336            3 
  857000    1.1077822   -6.8758019    367.95397  0.035779266  0.036397312            5 
  858000    1.1368583   -6.8637682    368.86031  0.035825593  0.036390364            2 
  859000    1.1291554    -6.916484    371.04907  0.035996223  0.036383639            2 
  860000    1.1137179    -6.885424     370.2339  0.035875378  0.036376831            3 
  861000    1.1122139   -6.9096988    370.22631  0.035832976  0.036370066            1 
  862000    1.1237757   -6.8686406    371.74568  0.035938291  0.036363379            1 
  863000    1.1266109   -6.8922083    372.50507  0.035969975  0.036356749            1 
  864000    1.1172991   -6.8905029    373.23063  0.035998325  0.036350424            1 
  865000    1.0987954   -6.8634545    373.30069  0.035963458  0.036344154            2 
  866000     1.100764   -6.9068088    373.70393  0.035960732   0.03633795            2 
  867000    1.1050664   -6.8786711     374.2491  0.035971655   0.03633163            2 
  868000    1.1275179   -6.8710394    374.02061  0.035908276  0.036325474            2 
  869000    1.0901844   -6.9289384    373.81497  0.035847235  0.036319415            2 
  870000    1.0882055   -6.9061154    374.86545  0.035906653  0.036313314            4 
  871000    1.1188204   -6.9226856    375.52639  0.035928663   0.03630724            2 
  872000    1.1049897    -6.916958    374.16306  0.035757173  0.036300943            4 
  873000    1.1199996   -6.9523699    373.84001  0.035685377  0.036294417            3 
  874000    1.1089275    -6.910278    376.50495  0.035898641  0.036287554            2 
  875000    1.1053883   -6.8983002    374.25465    0.0356433  0.036280701            3 
  876000    1.1247237   -6.8872947    374.69191  0.035644208  0.036273799            1 
  877000    1.0936266   -6.8983389     375.9026  0.035718605  0.036266664            1 
  878000    1.1131875   -6.9024128    376.99296  0.035781413  0.036259518            3 
  879000    1.1164721   -6.8806194    376.77729  0.035720259  0.036252021            1 
  880000    1.0993884   -6.9065306    377.00879   0.03570159  0.036244488            1 
  881000     1.130338   -6.9005259    376.67236  0.035629243  0.036236975            1 
  882000    1.1101594   -6.9573351    376.37595  0.035560842   0.03622918            4 
  883000    1.1033844   -6.8847721    377.32517  0.035610152  0.036221462            3 
  884000    1.1146213   -6.9006715    378.47264  0.035678039  0.036213777            2 
  885000     1.105365   -6.9025317    378.44503  0.035635125  0.036206091            5 
  886000    1.1111799   -6.9264606    377.90095  0.035543731   0.03619833            2 
  887000     1.097205   -6.8860007    378.70334  0.035579043  0.036190756            2 
  888000    1.1234244   -6.8818845     378.9648  0.035563513   0.03618332            1 
  889000    1.0923513   -6.8845863    380.69786  0.035685964   0.03617611            3 
  890000    1.1347871   -6.8834952     378.9037  0.035477875  0.036168339            2 
  891000     1.081189   -6.8958847    379.47922  0.035491883  0.036160566            2 
  892000    1.1157284   -6.8972599    382.24501  0.035710483  0.036153169            1 
  893000    1.1037328    -6.877209    381.59427  0.035609767   0.03614587            1 
  894000    1.1138664   -6.9126004    380.41724   0.03546022   0.03613791            3 
  895000    1.0946186   -6.9011872    382.63011  0.035626639  0.036130186            2 
  896000    1.1181887   -6.9128201    381.61968  0.035492902  0.036122188            2 
  897000    1.1004862   -6.9449069    380.51602    0.0353508   0.03611416            2 
  898000    1.1036841   -6.9122048    382.07912  0.035456488  0.036106259            2 
  899000    1.1081509   -6.9225386    382.63832  0.035468884  0.036098739            3 
  900000    1.1140685   -6.9098432    383.84485  0.035541189  0.036091322            3 
  901000    1.1089225   -6.8902687    384.40916  0.035553936  0.036084026            3 
  902000     1.111668   -6.8721589    384.59458   0.03553165  0.036076532            1 
  903000    1.0914522   -6.9188729    384.49461  0.035483076   0.03606933            2 
  904000    1.1041886   -6.8731545    385.85585  0.035569308  0.036062016            2 
  905000    1.1168906   -6.9206897    385.79569  0.035524465  0.036054766            4 
  906000    1.1130369   -6.9160908    386.33086   0.03553448  0.036047449            3 
  907000    1.0901111   -6.9402362    385.83429  0.035449678  0.036040335            2 
  908000    1.1285304   -6.9541551    386.58669  0.035479689  0.036033084            3 
  909000    1.0890201   -6.9245584    387.03295  0.035481569  0.036025959            1 
  910000    1.1021341   -6.9140113    388.23193  0.035552375  0.036019196            2 
  911000    1.1050595   -6.9268185     388.9206  0.035576345   0.03601221            1 
  912000    1.1117029   -6.9259841    387.10463  0.035371402  0.036005246            1 
  913000    1.0803711   -6.9325522    388.61083  0.035470138  0.035998086            1 
  914000    1.0869654   -6.8914043    390.07123  0.035564481  0.035990984            1 
  915000    1.0972453   -6.8861219    389.62371  0.035484855  0.035983915            2 
  916000    1.1045906   -6.9060574    391.01896  0.035573049  0.035977105            2 
  917000    1.0917909   -6.9050055    390.86832  0.035520567  0.035970254            2 
  918000    1.1314028   -6.9298434    391.50813  0.035539954  0.035963323            2 
  919000    1.0973836    -6.898222    391.00488  0.035455647  0.035956299            3 
  920000    1.0946462   -6.8810666    392.88171  0.035587111  0.035949465            2 
  921000    1.1067654   -6.9444283    391.27107  0.035402739  0.035942596            2 
  922000    1.1121923   -6.9210708    392.70956  0.035494356  0.035935704            1 
  923000    1.1251381    -6.865779    393.09865   0.03549103  0.035929176            1 
  924000    1.1167081   -6.9165825    393.13063  0.035455504  0.035922431            1 
  925000    1.1220455   -6.8804147    394.62723  0.035552003  0.035915568            2 
  926000    1.1218208   -6.9344798    393.61737  0.035422729  0.035908986            3 
  927000    1.1004074   -6.9283021    394.38437  0.035453468  0.035902277            2 
  928000    1.0983197   -6.9026085    394.10275  0.035389974  0.035895322            1 
  929000      1.10562   -6.9266916    394.12578  0.035353945  0.035888152            1 
  930000    1.1154673   -6.9174566    395.44033  0.035433721  0.035881327            3 
  931000    1.1169331   -6.8812268    394.87787  0.035345316  0.035874184            2 
  932000    1.0937064     -6.91105    394.94579  0.035313464  0.035867412            2 
  933000    1.0895794   -6.8961841    395.22279  0.035300356  0.035860253            2 
  934000    1.0939133   -6.9002634    396.59412  0.035384914  0.035853193            3 
  935000    1.1013984   -6.9330329    396.15605  0.035308026  0.035846084            3 
  936000    1.0914912   -6.9600038    394.85852  0.035154783  0.035838678            2 
  937000    1.0983155   -6.8950998    396.71214  0.035282119  0.035831405            2 
  938000    1.1229534   -6.8832566    397.89531  0.035349619  0.035824216            3 
  939000    1.0933319   -6.9549023    397.92823  0.035314894  0.035816941            4 
  940000    1.1093742   -6.9365134    396.81896  0.035178986  0.035809512            2 
  941000    1.1069253   -6.9017516     397.2463  0.035179445   0.03580195            1 
  942000     1.061485   -6.9344242    396.88396  0.035110046  0.035794546            1 
  943000    1.1217111   -6.9095183    399.02296  0.035261838  0.035787202            3 
  944000    1.0998659   -6.9239191    398.54516  0.035182305  0.035779824            2 
  945000    1.1060808   -6.9258453    400.25446  0.035295808  0.035772295            2 
  946000    1.0821299   -6.9379764    399.67786  0.035207704  0.035764853            2 
  947000    1.0985463   -6.9165309    400.44318  0.035237872  0.035757513            1 
  948000    1.0998471   -6.8945929    400.25639  0.035184282  0.035750264            3 
  949000    1.0997099   -6.9197698    400.87845  0.035201831  0.035742751            3 
  950000    1.1150885   -6.9192354    400.45158  0.035127332  0.035735305            1 
  951000    1.0772911   -6.9193915    400.45237  0.035090463   0.03572777            2 
  952000    1.0924348   -6.9654245    402.54727  0.035236981  0.035720226            1 
  953000     1.091004   -6.9331664    402.95668  0.035235806  0.035713196            2 
  954000    1.0981618   -6.9520212     402.7319  0.035179237  0.035705957            3 
  955000    1.0867747   -6.8896517    403.48167  0.035207824  0.035698549            2 
  956000    1.1136861    -6.901522    403.55161  0.035177093   0.03569108            2 
  957000    1.1142458   -6.8998517      403.637  0.035147771  0.035683598            1 
  958000    1.0742836    -6.929027    403.25629  0.035077965  0.035675981            3 
  959000    1.1280931   -6.9224223    403.79679  0.035088355  0.035668344            2 
  960000    1.1095546   -6.9334575    405.64316   0.03521208  0.035660694            2 
  961000     1.099465   -6.9413901    404.88109  0.035109355  0.035653323            3 
  962000    1.0756334   -6.9365744    404.44751  0.035035301  0.035645747            1 
  963000    1.0829045   -6.9579709    404.42307  0.034996804  0.035637803            1 
  964000    1.1308648   -6.9535081    405.45624  0.035049813  0.035630052            2 
  965000     1.090825   -6.9530406    404.43419  0.034925233   0.03562202            4 
  966000    1.0776709   -6.9406786     405.8859  0.035014312  0.035613967            1 
  967000    1.1176862   -6.9228174    405.88698  0.034978195  0.035606161            2 
  968000    1.1160837   -6.9416032     407.2104  0.035055992  0.035598562            4 
  969000    1.1021203    -6.974608    407.94473  0.035082966  0.035591126            2 
  970000    1.1106981   -6.8947992    407.28461  0.034990087  0.035583436            7 
  971000     1.071771   -6.9424958    407.30773  0.034956036  0.035575621            3 
  972000    1.0974004   -6.9335541    409.30573  0.035091369   0.03556801            1 
  973000    1.0778985   -6.8735342    410.42024  0.035150757  0.035560731            1 
  974000     1.093483   -6.9285546    409.71338   0.03505419   0.03555362            1 
  975000    1.1002611   -6.9393215    409.35179  0.034987333  0.035546183            1 
  976000    1.1017542   -6.9408732    408.58868  0.034886328  0.035538702            2 
  977000    1.0885024   -6.9168917     410.0247  0.034973107  0.035530635            2 
  978000    1.0846357   -6.9346631    410.49306  0.034977255  0.035522614            3 
  979000    1.0908332   -6.9471549    409.90191  0.034891208   0.03551493            2 
  980000    1.0930428   -6.9413612     411.0579  0.034953903  0.035506913            3 
  981000    1.0581694   -6.9386534    412.50827  0.035041477  0.035499417            1 
  982000    1.0966983   -6.9524818     411.2586  0.034899745    0.0354919            2 
  983000    1.0671803   -6.9652966    412.55102  0.034973807   0.03548425            1 
  984000    1.1021979   -6.9595159    410.97266  0.034804595  0.035476905            3 
  985000    1.0814046   -6.9424633    412.54179  0.034902012  0.035469409            5 
  986000    1.0956828   -6.9426593    412.99863  0.034905226  0.035461617            2 
  987000    1.0946236   -6.9348431    414.01435  0.034955619  0.035453999            2 
  988000    1.0761255   -6.9551557    413.46823  0.034874176  0.035446406            1 
  989000    1.0890654   -6.9311648     413.1983   0.03481617  0.035438329            1 
  990000    1.0889864   -6.9493508    413.34725   0.03479354  0.035430134            4 
  991000    1.0982615   -6.9706117    413.40403  0.034763205  0.035421936            2 
  992000    1.0845087    -6.905667    414.97698  0.034860297  0.035413479            2 
  993000     1.105881   -6.9455704     413.5026  0.034701461  0.035405615            2 
  994000    1.0878533   -6.9430843    415.01166  0.034793063  0.035397391            1 
  995000     1.064499   -6.8852145    415.51879  0.034800569  0.035389272            1 
  996000    1.1043648   -6.9612431     414.8981  0.034713696  0.035381117            1 
  997000     1.082534   -6.9349019    416.40242  0.034804615   0.03537309            1 
  998000    1.0890288   -6.9303883    416.14869  0.034748555  0.035365288            1 
  999000    1.1028086   -6.9496494    416.20567  0.034718524  0.035357257            2 
 1000000     1.085559   -6.9612498    416.35593  0.034696327  0.035349075            2 
 1001000    1.0849783   -6.9217387     418.0617  0.034803671  0.035341047            1 
 1002000    1.0905808   -6.8943748    418.19307  0.034779863  0.035333058            2 
 1003000    1.0650127   -6.9389688    416.63234  0.034615515  0.035325043            2 
 1004000    1.1049472   -6.9087306    418.57814  0.034742541   0.03531691            1 
 1005000     1.085107   -6.9837162    416.96297  0.034574044  0.035308915            4 
 1006000    1.1087939   -6.9333466    418.04226   0.03462908  0.035300823            3 
 1007000    1.0799564   -6.9467114    419.51483  0.034716553   0.03529271            3 
 1008000    1.0932862   -6.9544864    419.27346  0.034662158  0.035284602            3 
 1009000    1.0781177   -6.9567294    419.70277  0.034663261  0.035276059            2 
 1010000    1.0863506   -6.9314748    419.25453  0.034591958  0.035267676            4 
 1011000    1.1026641   -6.9524509    419.04341   0.03454034  0.035259253            4 
 1012000    1.0955997   -6.9354143    421.60308  0.034716986  0.035250955            4 
 1013000    1.0889904   -6.9478891    420.50507  0.034592388  0.035242832            2 
 1014000    1.0825643   -6.9540248    421.42023  0.034633484  0.035234537            2 
 1015000    1.0805801   -6.9630587    420.19931  0.034499122  0.035226427            3 
 1016000    1.1095213   -6.9179317    422.74192  0.034673714  0.035218208            4 
 1017000     1.088243   -6.9406419    422.86732  0.034649895  0.035209958            2 
 1018000    1.0933054    -6.950625    422.41397  0.034578747  0.035201311            2 
 1019000    1.0883652   -6.9343783    422.53649  0.034554832   0.03519279            4 
 1020000    1.1099507   -6.9584596    422.83879  0.034545653  0.035184465            4 
 1021000    1.1000169   -6.9368699    423.19121  0.034540582  0.035176386            2 
 1022000    1.0865634   -6.9483304    423.18836  0.034506553  0.035168223            2 
 1023000    1.0743811   -6.9379204    423.72487  0.034516526  0.035160174            3 
 1024000     1.073485   -6.9647379    425.06788  0.034592113  0.035152182            2 
 1025000    1.1289132   -6.9652425    425.00641  0.034553366   0.03514393            5 
 1026000    1.0737913   -6.9339355     425.0802  0.034525682  0.035135654            3 
 1027000     1.101599   -6.9175045    424.64719  0.034456929  0.035127291            3 
 1028000    1.0796105   -6.9694817    424.99155  0.034451326  0.035118985            3 
 1029000    1.0737864   -6.9262997    426.48876  0.034539096  0.035110878            2 
 1030000    1.0871954   -6.9468288    426.42457  0.034500369  0.035102535            3 
 1031000     1.073648   -6.9553125    426.19541  0.034448384  0.035094336            2 
 1032000     1.095886   -6.9900751    425.84619  0.034386804  0.035085922            3 
 1033000    1.0864167   -6.9470352    428.07108  0.034533001  0.035077782            2 
 1034000    1.0822903   -6.9382796    426.62654  0.034383183  0.035069584            1 
 1035000    1.0826784   -6.9745691     427.1603  0.034392939  0.035061507            2 
 1036000    1.0781731   -6.9417963    429.08081  0.034514222  0.035053613            1 
 1037000    1.0670414    -6.935638     428.5511  0.034438372  0.035045422            4 
 1038000     1.083957   -7.0053704    428.34609  0.034388736  0.035037069            4 
 1039000     1.068767    -6.948526    428.17267  0.034341728   0.03502867            1 
 1040000    1.0902144   -6.9572639    431.01927    0.0345368  0.035020254            3 
 1041000    1.1050899   -6.9628898    429.48488  0.034380794  0.035011898            1 
 1042000    1.0721947    -6.940051    431.17694   0.03448312  0.035003706            3 
 1043000    1.0703961   -6.9297548     430.2447  0.034375575  0.034995402            2 
 1044000     1.092955   -6.9260584    432.38127  0.034513192  0.034987433            3 
 1045000    1.0718099   -6.9855581    430.98962  0.034369188  0.034979461            3 
 1046000    1.0941485   -6.9583303    431.63363  0.034387638  0.034971518            2 
 1047000    1.1085362   -6.9351289    432.93253  0.034458177  0.034963567            3 
 1048000     1.076046   -6.9571641    433.96736  0.034507583  0.034955697            4 
 1049000    1.0575665    -6.977226    432.58793  0.034365104  0.034947808            3 
 1050000    1.0668133   -6.9933982     431.5362  0.034248905   0.03493978            2 
 1051000    1.0802894   -6.9570699    432.38744  0.034283812   0.03493149            2 
 1052000    1.0708954   -6.9525181    433.32035  0.034325123  0.034923305            1 
 1053000    1.0905391   -6.9546083    433.22684  0.034285125  0.034915009            1 
 1054000    1.0768257   -6.9564442     435.2551  0.034412958   0.03490667            2 
 1055000    1.0718009   -6.9537455    433.99674  0.034280943  0.034898317            2 
 1056000    1.0742486   -6.9684204    432.14677  0.034102491  0.034889931            2 
 1057000    1.1142123   -6.9376208    434.98195  0.034293752  0.034881554            2 
 1058000    1.0745545    -6.968086    434.95064  0.034258872  0.034873112            3 
 1059000    1.0826845   -6.9688807    434.10138  0.034159693  0.034864374            2 
 1060000    1.0985893   -6.9515407    434.80272  0.034182603  0.034855592            4 
 1061000     1.105774   -6.9371167    435.28544    0.0341883  0.034846893            3 
 1062000    1.0895838   -6.9937868    434.91327  0.034126904  0.034838131            7 
 1063000    1.0798373   -6.9787341    434.73154  0.034080553   0.03482914            1 
 1064000    1.0947626   -6.9527217    436.54588  0.034190623  0.034820415            3 
 1065000      1.11044    -6.978208    434.96838  0.034035084  0.034811636            2 
 1066000    1.0717031   -6.9830141    434.21065  0.033943922  0.034802595            1 
 1067000    1.0836256   -6.9173903    435.99964  0.034051831  0.034793539            2 
 1068000    1.0526032   -6.9897525    436.43075  0.034053585  0.034784484            2 
 1069000    1.0668467   -6.9513264    436.14156  0.033999186  0.034775239            2 
 1070000     1.056946   -6.9656977    435.99828  0.033956252   0.03476593            2 
 1071000    1.0758195   -6.9611223    436.87604  0.033992845  0.034756718            2 
 1072000    1.0685507   -6.9434778     437.4211  0.034003506  0.034747395            3 
 1073000    1.0756924   -6.9960107      438.232  0.034034794  0.034738172            2 
 1074000    1.0562489   -6.9604889     438.0991  0.033992792  0.034729022            1 
 1075000    1.0904152   -6.9528159    438.31606  0.033977989  0.034719814            2 
 1076000    1.0873234   -6.9550153    438.28438  0.033943958  0.034710362            4 
 1077000    1.0694219   -6.9659525     438.8262  0.033954364    0.0347009            2 
 1078000    1.0723545   -6.9800699     439.4966  0.033974691  0.034691664            2 
 1079000    1.0702708   -6.9742183    437.91603  0.033821133  0.034682399            5 
 1080000    1.0887607   -6.9900885    439.27822  0.033894924  0.034672921            1 
 1081000    1.0975765   -6.9744306    439.17502  0.033855614  0.034663474            1 
 1082000    1.0835854   -6.9320791    441.16124  0.033977298  0.034654278            2 
 1083000    1.1174407   -6.9627512    441.18234  0.033947549  0.034645017            2 
 1084000    1.0599014   -6.9974163    438.79199  0.033732472   0.03463554            2 
 1085000    1.1057596   -6.9853979    439.99573  0.033793835  0.034626193            2 
 1086000    1.0618004   -6.9806987    442.55897  0.033959406  0.034616939            3 
 1087000    1.0710385   -7.0030593    440.95354  0.033805086   0.03460755            3 
 1088000    1.0618731   -6.9546306    443.20663  0.033946586  0.034598446            2 
 1089000    1.0457883   -7.0023444    441.81077  0.033808599  0.034589189            2 
 1090000    1.0709803   -6.9537428    442.89264  0.033860294  0.034580122            4 
 1091000    1.0919972   -6.9813462     442.9563   0.03383412  0.034571067            2 
 1092000    1.0559039   -6.9874773    442.49079  0.033767612  0.034561861            3 
 1093000    1.1026578   -6.9283508    444.10379  0.033859697  0.034552758            2 
 1094000    1.0718071   -6.9913396    444.32657  0.033845717  0.034544004            2 
 1095000    1.0618364   -6.9614505    444.56494  0.033832948  0.034534875            2 
 1096000    1.0640677   -6.9551102     445.3971  0.033865351  0.034526027            5 
 1097000    1.0671005   -7.0027839    445.68059  0.033856016  0.034516923            3 
 1098000    1.0714554   -6.9540522    446.61119   0.03389581  0.034507773            4 
 1099000    1.0776012   -6.9776836    446.76524  0.033876648  0.034499034            2 
 1100000    1.0703483   -6.9409126    446.52138  0.033827377  0.034490377            3 
 1101000    1.0877194   -6.9671292    446.16403  0.033769606  0.034481885            4 
 1102000    1.0748426   -6.9199742    447.77062  0.033860452    0.0344734            2 
 1103000    1.0902538   -6.9890358     448.8513  0.033911401  0.034464881            2 
 1104000    1.0843648   -6.9109359    450.02858  0.033969549  0.034456159            3 
 1105000    1.0763892   -6.9568213    449.14767  0.033872373   0.03444755            3 
 1106000    1.0662129   -6.9728323    447.80413  0.033740516  0.034438978            2 
 1107000    1.0891809   -6.9583547    450.53268  0.033915438  0.034430465            2 
 1108000    1.0731182   -6.9969893    449.31178  0.033793004  0.034421919            1 
 1109000    1.0757909   -6.9505532    450.63737  0.033862141  0.034413415            3 
 1110000    1.0894042   -6.9955344    451.28725  0.033880424  0.034405017            4 
 1111000    1.0557161   -6.9960673    450.55924  0.033795323  0.034396646            2 
 1112000    1.0613029   -6.9101278    452.27834   0.03389376  0.034388342            5 
 1113000    1.0909093   -6.9733115    452.37027  0.033870191  0.034380178            2 
 1114000    1.0901534    -6.956916    452.87755  0.033877734  0.034372079            3 
 1115000     1.041464   -6.9457869    454.41987  0.033962621   0.03436414            1 
 1116000    1.0910617   -6.9848269     453.7521  0.033882325  0.034356158            4 
 1117000    1.0609154   -7.0150221    454.09617  0.033877662   0.03434807            2 
 1118000    1.0812223   -6.9862864    454.38658  0.033869006  0.034340165            5 
 1119000    1.0795333   -6.9801732    453.79922  0.033794997  0.034331914            2 
 1120000    1.0727949   -6.9875644    456.12606  0.033937951  0.034323844            1 
 1121000    1.0767103   -6.9623995    456.84064  0.033960797  0.034315903            2 
 1122000    1.0645471   -6.9704546    454.99341  0.033793331  0.034308018            3 
 1123000    1.0978871   -6.9590377    455.35005  0.033789704  0.034300058            3 
 1124000    1.0635256   -7.0200865    455.38672  0.033762361  0.034292155            3 
 1125000    1.0692657   -6.9917384    454.87061   0.03369412  0.034283942            5 
 1126000    1.0623408   -6.9318723    456.98333  0.033820554  0.034275975            1 
 1127000    1.0645425   -6.9879427    457.25536   0.03381066  0.034268015            2 
 1128000    1.0817647   -6.9932256    455.82063  0.033674692   0.03425984            2 
 1129000    1.0681262   -6.9884965    456.59192  0.033701795  0.034251631            3 
 1130000    1.0631526    -6.975906    459.07644  0.033855195  0.034243658            4 
 1131000    1.0750402   -6.9702629    457.77054  0.033729041   0.03423567            1 
 1132000    1.0511535    -7.007029    457.59148  0.033686063  0.034227613            5 
 1133000    1.0596792   -6.9613241    458.50134  0.033723252  0.034219513            3 
 1134000    1.0541456   -7.0062778    459.03533  0.033732755  0.034211462            2 
 1135000     1.066951    -6.960158          461  0.033847283   0.03420371            2 
 1136000    1.0455182   -7.0143558    459.89076  0.033736118  0.034195821            3 
 1137000    1.0634541   -6.9620231    460.17552  0.033727317   0.03418801            2 
 1138000    1.0622067   -6.9706676    460.88736  0.033749807  0.034180125            3 
 1139000    1.0665158   -7.0200504    460.69038  0.033705764  0.034172218            1 
 1140000    1.0729325    -6.974738    461.10739  0.033706681    0.0341644            2 
 1141000    1.0631843   -6.9550847    462.18798   0.03375606  0.034156683            2 
 1142000    1.0723785   -6.9571624    462.59449  0.033756165  0.034148903            4 
 1143000    1.0731078   -6.9876366    461.09382  0.033617222  0.034140992            2 
 1144000    1.0734993   -6.9978445    460.51761  0.033545863  0.034133107            2 
 1145000    1.0769136   -6.9925338    461.38585  0.033579756  0.034124976            2 
 1146000    1.0679789   -6.9834548    462.01112  0.033595922  0.034116745            3 
 1147000    1.0566789   -7.0136982    461.32106  0.033516497  0.034108346            4 
 1148000    1.0502743   -6.9761373    462.15553  0.033547875  0.034099908            2 
 1149000    1.0753396   -6.9803144    461.79165  0.033492287  0.034091423            2 
 1150000    1.0564144   -7.0077585    461.65529  0.033453282  0.034082985            3 
 1151000    1.0698196   -6.9779226    462.44186  0.033481166  0.034074479            3 
 1152000    1.0723242   -6.9589916     464.0324  0.033567158  0.034066074            2 
 1153000    1.0764347   -6.9635085    464.32876  0.033559465  0.034057567            1 
 1154000    1.0630338   -7.0351996    462.35958  0.033388185  0.034048948            1 
 1155000    1.0734817    -7.021183    463.51936  0.033442955  0.034040131            1 
 1156000    1.0675627   -6.9885601    463.21931  0.033392395  0.034031366            3 
 1157000    1.0512379   -6.9622143    465.26824  0.033511109  0.034022593            2 
 1158000    1.0651047   -6.9812937    462.96075  0.033316116  0.034013991            3 
 1159000    1.0574677   -6.9637757    463.91525     0.033356  0.034005093            1 
 1160000    1.0502131   -7.0320697    464.93013  0.033400153  0.033996277            3 
 1161000    1.0593817   -7.0105242    463.27376  0.033252495  0.033987356            2 
 1162000    1.0690732   -7.0052994     465.3464  0.033372518  0.033978545            1 
 1163000    1.0780115   -6.9982878    465.62338   0.03336367  0.033969496            4 
 1164000    1.0493172   -6.9838371     464.3949  0.033247058  0.033960512            2 
 1165000    1.0888015   -6.9673613    465.70108  0.033311952  0.033951592            3 
 1166000    1.0602933   -7.0369195    464.01157  0.033162633  0.033942402            1 
 1167000    1.0760841   -7.0041908    464.22146  0.033149204  0.033932959            2 
 1168000    1.0525829   -7.0303629    466.19728  0.033261792  0.033923542            3 
 1169000    1.0589865   -7.0164485    465.06187    0.0331524   0.03391417            3 
 1170000    1.0671314   -7.0408943    466.08195   0.03319672  0.033904751            1 
 1171000    1.0480182   -6.9955779    467.52952  0.033271386  0.033895548            1 
 1172000    1.0679083   -6.9677731    467.35948  0.033230907  0.033886233            3 
 1173000    1.0526205   -6.9696172    466.09873   0.03311301  0.033876987            2 
 1174000    1.0662199   -6.9890866    467.10755  0.033156414  0.033867936            3 
 1175000    1.0540624   -6.9937708    469.07461  0.033267703  0.033858776            2 
 1176000    1.0658979   -6.9947339    469.33555  0.033257905  0.033849729            1 
 1177000    1.0985108   -6.9341925    470.30594  0.033298353  0.033840989            1 
 1178000    1.0612346   -6.9750401    470.76083  0.033302266  0.033832454            2 
 1179000     1.064541   -7.0084521    470.58501  0.033261593  0.033823846            1 
 1180000    1.0577166   -7.0085675    469.07447  0.033126728  0.033815125            3 
 1181000    1.0762923   -6.9754946    469.88635  0.033155966  0.033806316            2 
 1182000    1.0585057   -7.0180155    470.92853  0.033201391  0.033797428            1 
 1183000    1.0323504   -6.9756594    472.38949  0.033276239  0.033788598            2 
 1184000    1.0756046   -7.0019751    470.87597  0.033141608  0.033779759            2 
 1185000    1.0953372   -7.0027221    472.36418  0.033218297  0.033770793            2 
 1186000    1.0894925   -7.0135721    472.15878  0.033175856  0.033761936            4 
 1187000    1.0708035   -6.9908182    471.64028  0.033111505  0.033753102            2 
 1188000    1.0523325    -6.988496    473.13253  0.033188308  0.033744658            2 
 1189000     1.060609   -7.0207825    472.78461  0.033136012  0.033736078            3 
 1190000    1.0770603   -7.0115153    473.24894  0.033140682  0.033727579            1 
 1191000    1.0717441   -7.0216344    474.23772   0.03318204  0.033719142            2 
 1192000    1.0882573    -7.026397    473.23137  0.033083849  0.033710709            3 
 1193000     1.043312   -7.0156577    472.43298  0.033000348  0.033702184            2 
 1194000    1.0502757   -7.0283567    474.53225  0.033119224  0.033693562            3 
 1195000    1.0678328   -6.9831525    475.30143  0.033145148  0.033684934            2 
 1196000    1.0451278   -6.9870433    473.46067  0.032989177  0.033676473            3 
 1197000    1.0531123   -6.9750535    475.03075  0.033070924  0.033667956            1 
 1198000    1.0619049   -6.9910466    475.60343  0.033083154  0.033659454            2 
 1199000    1.0803133   -7.0014724    474.50107  0.032978946  0.033650773            1 
 1200000    1.0547795   -7.0084816    476.27208   0.03307445  0.033642149            3 
 1201000    1.0447276   -7.0133433    477.32869  0.033120225  0.033633933            4 
 1202000    1.0571435   -7.0325772     475.9406  0.032996437  0.033625445            2 
 1203000    1.0745696   -7.0101329    477.64019   0.03308674  0.033616978            1 
 1204000    1.0479786   -7.0059955     477.1112  0.033022647  0.033608452            1 
 1205000    1.0852143   -6.9943011    477.66018  0.033033207  0.033599947            1 
 1206000    1.0855774   -6.9693937    477.88199  0.033021143  0.033591382            2 
 1207000    1.0693258   -7.0001503    478.80833  0.033057741  0.033582843            2 
 1208000    1.0519142   -7.0322445    479.20016  0.033057406  0.033574379            1 
 1209000    1.0470232   -7.0113946    479.71299  0.033065411  0.033565927            2 
 1210000    1.0832623   -6.9952522    480.69076  0.033105424  0.033557408            3 
 1211000    1.0496142   -7.0132539    479.30325  0.032982608  0.033549045            2 
 1212000    1.0549874   -7.0340616    481.46023  0.033103701  0.033540759            3 
 1213000    1.0542803   -7.0294862     483.1894  0.033195205  0.033532597            3 
 1214000    1.0482916   -7.0109481    481.10472  0.033024761  0.033524575            2 
 1215000    1.0569614   -6.9907311    481.21677  0.033005265  0.033516457            2 
 1216000    1.0489656   -6.9731086    482.80526  0.033086983  0.033508456            1 
 1217000    1.0676628    -7.000993    482.65606  0.033049579  0.033500506            1 
 1218000    1.0682796   -7.0408462    482.58197  0.033017376  0.033492593            1 
 1219000    1.0713271    -7.023661    482.31061   0.03297174  0.033484521            2 
 1220000    1.0539066   -6.9947474     482.8098  0.032978811  0.033476355            3 
 1221000    1.0624542   -7.0164008    482.83068  0.032953227  0.033468118            2 
 1222000    1.0452551   -6.9966203     484.6009  0.033046979  0.033459883            2 
 1223000    1.0785686   -6.9826523    484.00227  0.032979168    0.0334517            2 
 1224000    1.0497426   -7.0138255     483.7762  0.032936833  0.033443503            1 
 1225000    1.0580865    -7.013696    484.31219  0.032946407  0.033435097            1 
 1226000    1.0776059   -7.0485763    482.63722  0.032805684  0.033426483            3 
 1227000    1.0579755   -6.9908189    485.42551  0.032968318  0.033417906            3 
 1228000    1.0600692   -6.9895548     484.6577  0.032889366  0.033409255            2 
 1229000    1.0479496   -7.0491812    483.47161  0.032782181  0.033400536            4 
 1230000    1.0737085   -7.0161593    485.71708  0.032907661  0.033391706            2 
 1231000     1.034212   -7.0322584    485.82822  0.032888453  0.033383156            2 
 1232000    1.0792598   -7.0048243    485.98699  0.032872496  0.033374581            2 
 1233000    1.0553332   -7.0556521    485.15381  0.032789525  0.033366039            3 
 1234000    1.0501044   -7.0661101    485.90916  0.032813963  0.033357388            4 
 1235000    1.0371445   -7.0045042    487.50219  0.032894885   0.03334905            2 
 1236000    1.0573897   -7.0203779    487.62553  0.032876587  0.033340581            1 
 1237000    1.0381346   -6.9855429    487.61104  0.032849033  0.033332252            2 
 1238000    1.0363082   -7.0151409    487.41837  0.032809529  0.033323905            2 
 1239000    1.0666607   -7.0185228    487.65024  0.032798644  0.033315372            3 
 1240000    1.0357144   -7.0187387    488.03771  0.032798233  0.033306866            2 
 1241000    1.0404217   -7.0502926    487.02063  0.032703508   0.03329841            3 
 1242000    1.0470868    -7.054489    487.45469    0.0327063  0.033289981            4 
 1243000    1.0488774   -7.0478737    489.32733  0.032805533  0.033281641            2 
 1244000    1.0371038   -6.9860566    489.73196  0.032806267  0.033273302            1 
 1245000    1.0547217   -7.0132708     490.6697  0.032842684  0.033265153            1 
 1246000     1.064531   -6.9888667    491.08971  0.032844416    0.0332571            1 
 1247000    1.0495824   -7.0163036    491.62729  0.032854002  0.033248787            1 
 1248000    1.0655805   -7.0065289    490.96041  0.032783147  0.033240536            1 
 1249000    1.0584524   -7.0031868    490.68703   0.03273866  0.033232454            1 
 1250000     1.040763    -6.986755    491.16979  0.032744652   0.03322433            3 
 1251000    1.0482128   -6.9945899     491.2186  0.032721729   0.03321621            2 
 1252000    1.0603487   -7.0105101    494.16176  0.032891491  0.033208077            4 
 1253000    1.0695161    -6.990675    494.03065  0.032856521  0.033199976            2 
 1254000    1.0550714   -7.0396094    493.53205  0.032797185  0.033192071            4 
 1255000      1.06293   -7.0032957    493.59682  0.032775353  0.033184327            3 
 1256000    1.0248026   -7.0370938    494.19671   0.03278906  0.033176291            2 
 1257000    1.0506684   -7.0283222    494.42819  0.032778321  0.033168463            2 
 1258000    1.0465445   -7.0192712    494.97792   0.03278868  0.033160673            2 
 1259000    1.0385258    -7.013388    496.05283  0.032833785  0.033153093            2 
 1260000    1.0435705   -7.0043236     495.1301  0.032746699   0.03314531            3 
 1261000    1.0425715   -7.0073734    496.95416  0.032841274  0.033137562            4 
 1262000    1.0425629    -7.018528    497.98078  0.032883042  0.033129948            1 
 1263000    1.0203649   -7.0617209    496.17447  0.032737824  0.033122312            4 
 1264000    1.0592682   -6.9913449    498.60262  0.032872008   0.03311498            4 
 1265000    1.0463342   -7.0346856    497.53159  0.032775467  0.033107622            2 
 1266000    1.0242185   -7.0365004    498.78681  0.032832202  0.033100263            2 
 1267000    1.0692712   -7.0234323    500.32512  0.032907466  0.033092879            7 
 1268000    1.0449789   -7.0278094    499.44816   0.03282388    0.0330855            4 
 1269000    1.0645851   -7.0144991     499.5797  0.032806652   0.03307817            5 
 1270000    1.0748589   -7.0131327    501.01345  0.032874898  0.033071042            1 
 1271000    1.0514497   -7.0462955    500.77528  0.032833417  0.033064074            2 
 1272000    1.0690673   -7.0118748    499.43692  0.032719924  0.033056913            1 
 1273000    1.0635118    -7.029532    502.59394  0.032900886  0.033049745            3 
 1274000    1.0452782   -7.0269131    502.01262  0.032837037  0.033042616            2 
 1275000    1.0456225   -7.0015804    501.52971   0.03277972   0.03303528            2 
 1276000    1.0228675   -7.0367826    502.60927  0.032824534  0.033027918            2 
 1277000    1.0439774   -7.0189653    502.17457  0.032770463  0.033020507            3 
 1278000    1.0210126   -7.0436776     502.5405  0.032768681  0.033013369            2 
 1279000    1.0346448   -7.0007729     502.4906   0.03273981  0.033006227            3 
 1280000    1.0526102    -7.054823     501.6481  0.032659382  0.032999014            4 
 1281000    1.0561291   -7.0299456    503.36215  0.032745391  0.032991808            1 
 1282000    1.0601925   -7.0184054     503.4391   0.03272485  0.032984474            2 
 1283000    1.0534195   -7.0074072    503.92916  0.032731175    0.0329772            3 
 1284000    1.0523252   -7.0297585     504.6036  0.032749455  0.032969994            5 
 1285000    1.0610459   -7.0520211    503.74742  0.032668445  0.032962668            3 
 1286000    1.0243194   -7.0551505    503.79979  0.032646435  0.032955239            2 
 1287000    1.0553161   -7.0391324    505.18866  0.032710998  0.032947992            2 
 1288000    1.0365067   -7.0173021    504.46561  0.032638821  0.032940602            2 
 1289000    1.0826443   -7.0502406    505.38811  0.032673138  0.032933276            2 
 1290000    1.0212016    -7.004326    505.11891   0.03263042  0.032925713            2 
 1291000    1.0785524   -7.0501901    505.04132  0.032600137  0.032918278            3 
 1292000    1.0426285   -7.0244686    505.35234  0.032594965  0.032910802            2 
 1293000    1.0576091   -7.0549737    505.17831   0.03255854  0.032903163            2 
 1294000    1.0510672   -7.0392793    506.69563  0.032631094  0.032895707            5 
 1295000    1.0415365   -7.0173031    507.40057   0.03265126  0.032888252            2 
 1296000    1.0483689   -7.0672246    507.32905  0.032621467  0.032880824            2 
 1297000    1.0249911     -7.06101    506.74752  0.032558951  0.032873278            4 
 1298000    1.0338478   -7.0314489    509.45893  0.032707944  0.032865829            2 
 1299000    1.0355367   -7.0505426    507.48003  0.032555814  0.032858428            2 
 1300000    1.0315038   -7.0667356    507.11653   0.03250747  0.032850971            3 
 1301000    1.0525818   -7.0565818    507.19709  0.032487643  0.032843308            1 
 1302000     1.026919   -7.0468757    507.50722  0.032482541  0.032835633            3 
 1303000    1.0297855   -7.0101955    508.25782  0.032505617  0.032827988            1 
 1304000    1.0299636   -7.0594991    507.93981  0.032460366  0.032820438            3 
 1305000    1.0738417   -7.0598766    507.81673  0.032427633  0.032812711            2 
 1306000    1.0339943   -7.0317702    508.65937   0.03245657  0.032805215            3 
 1307000    1.0299478   -7.0388388    509.72052  0.032499396  0.032797527            2 
 1308000    1.0302442    -7.054506    508.43207  0.032392461  0.032789965            4 
 1309000    1.0277331    -7.071394    510.13635  0.032476212  0.032782274            1 
 1310000     1.007463    -7.035176    510.13024  0.032451033  0.032774532            3 
 1311000    1.0154654   -7.0514886    509.54381  0.032389004  0.032766903            1 
 1312000     1.040458   -7.0627275    510.24346  0.032408756  0.032759085            3 
 1313000    1.0482527   -7.0119684    511.75305  0.032479884  0.032751472            2 
 1314000    1.0563969    -7.072973    510.90333  0.032401277  0.032744076            4 
 1315000    1.0094725   -7.0552955    510.37393  0.032343088  0.032736447            3 
 1316000     1.055176   -7.0309036    512.40266  0.032446977  0.032728695            1 
 1317000    1.0404479   -7.0523708    512.25869   0.03241323  0.032720962            5 
 1318000    1.0108574   -7.0337515    512.20892  0.032385491  0.032713416            1 
 1319000    1.0557382   -7.0630557    512.13596  0.032356328  0.032705723            4 
 1320000    1.0388778   -7.0543046    512.84728  0.032376722  0.032698157            2 
 1321000    1.0461762   -7.0580824    512.62436   0.03233815  0.032690529            1 
 1322000    1.0328379   -7.0552494    512.72552  0.032320065  0.032682875            2 
 1323000    1.0358113   -7.0740603    514.23252   0.03239056  0.032675217            2 
 1324000    1.0349247    -7.029539    512.84035  0.032278471  0.032667444            3 
 1325000      1.03324   -7.0347468    514.34719   0.03234888  0.032659698            1 
 1326000    1.0504163   -7.0431352    515.03215  0.032367531  0.032651845            7 
 1327000    1.0567823   -7.0662964    513.94979  0.032275169  0.032644047            1 
 1328000    1.0240876    -7.064302    514.52294  0.032286831  0.032636415            1 
 1329000     1.031962   -7.0659191    515.26326  0.032308958  0.032628735            2 
 1330000    1.0388423   -7.0502755    515.45657  0.032296777  0.032621088            3 
 1331000    1.0431159   -7.0347956    515.99412  0.032306168  0.032613522            2 
 1332000    1.0373911   -7.0922681    515.25588  0.032235728  0.032605906            6 
 1333000    1.0372663   -7.0202735    517.66048   0.03236187    0.0325983            2 
 1334000    1.0377528   -7.0579606    516.75923  0.032281311  0.032590559            3 
 1335000     1.024408   -7.0652321    516.40257  0.032234867  0.032582959            3 
 1336000    1.0138914   -7.0622059    516.86405  0.032239524  0.032575267            2 
 1337000    1.0550061   -7.0622063    517.86313  0.032277682   0.03256755            3 
 1338000    1.0075478   -7.0513711    516.54409  0.032171406  0.032559871            5 
 1339000    1.0470286   -7.0641863    518.50605  0.032269483  0.032552276            1 
 1340000    1.0312855   -7.0882955    518.66885  0.032255525  0.032544659            2 
 1341000    1.0427132   -7.0294342    519.67166   0.03229379  0.032537133            3 
 1342000    1.0330887   -7.0504499    519.01498  0.032228948  0.032529526            6 
 1343000    1.0280522   -7.0608056    520.46852  0.032295143  0.032521879            2 
 1344000    1.0262803   -7.0030641    519.80427  0.032229928  0.032514281            3 
 1345000    1.0343031   -7.0368243    517.93123  0.032089915  0.032506668            3 
 1346000    1.0390876   -7.0298499    518.75872  0.032117306  0.032498781            4 
 1347000    1.0181946   -7.0222808    520.43045  0.032196885  0.032490959            1 
 1348000    1.0426622   -7.0637786    519.75328  0.032131137  0.032483057            1 
 1349000    1.0466284   -7.0592465    519.52029  0.032092926  0.032475102            1 
 1350000    1.0242928    -7.126242    517.77351  0.031961328  0.032466976            2 
 1351000    1.0449362   -7.0675726     518.8712  0.032005379  0.032458978            2 
 1352000    1.0491358   -7.0796606    519.62632   0.03202825  0.032451129            3 
 1353000    1.0374416   -7.0646353    520.46507  0.032056237  0.032443466            2 
 1354000    1.0466954   -7.0811206    520.65287   0.03204412  0.032435671            4 
 1355000    1.0239712   -7.0290252    522.17663  0.032114184  0.032427826            3 
 1356000    1.0490484   -7.0545547    522.20434  0.032092204  0.032419808            2 
 1357000    1.0352342   -7.0576562    520.56216  0.031967708  0.032411832            3 
 1358000    1.0309245   -7.0528181    522.27034   0.03204899  0.032403812            3 
 1359000    1.0363166   -7.0493563    521.13061  0.031955519  0.032395811            3 
 1360000    1.0218182    -7.053544    522.86783   0.03203847  0.032387723            1 
 1361000    1.0417082   -7.0443615    522.24948  0.031977068  0.032379607            1 
 1362000    1.0260955   -7.0393037     523.6972  0.032042169  0.032371793            2 
 1363000    1.0255344    -7.020348    523.79735  0.032024783  0.032363898            3 
 1364000    1.0335792   -7.0498479    523.32477  0.031972432  0.032355766            3 
 1365000    1.0242734   -7.0366873    523.89654  0.031983916  0.032347824            3 
 1366000    1.0380754   -7.0227293    523.59982    0.0319424  0.032340011            2 
 1367000    1.0348807   -7.0780262    524.95678  0.032001754  0.032332232            2 
 1368000    1.0250079   -7.0814682    525.28556  0.031998389  0.032324133            1 
 1369000    1.0360654   -7.0617354    524.31247  0.031915782  0.032316172            3 
 1370000    1.0203769   -7.0610063    526.23337  0.032009329  0.032308132            4 
 1371000    1.0367388   -7.0042838    524.98066  0.031909838  0.032300104            2 
 1372000    1.0308302   -7.0678888    524.86907  0.031879802  0.032292049            2 
 1373000    1.0214026   -7.0668953    524.71759   0.03184739  0.032283887            4 
 1374000    1.0351837   -7.0729576    526.49209  0.031931835  0.032275973            1 
 1375000    1.0490245   -7.0687943    523.71774  0.031740469  0.032267817            5 
 1376000    1.0112108   -7.0911739    525.82472  0.031845005  0.032259751            2 
 1377000    1.0185515   -7.0885467    526.44809  0.031859603  0.032251704            1 
 1378000    1.0402853   -7.0404105    526.16468  0.031819344  0.032243654            3 
 1379000    1.0270863   -7.0860927      526.448  0.031813392  0.032235689            2 
 1380000    1.0314354   -7.0304417    527.50833  0.031854367  0.032227844            1 
 1381000    1.0501359    -7.080936     527.1738  0.031811115  0.032220001            4 
 1382000    1.0329192   -7.0765236    527.30385  0.031795939  0.032212198            1 
 1383000    1.0090794   -7.0478421     528.6708  0.031855314  0.032204217            1 
 1384000    1.0480604   -7.0710542    528.70589   0.03183441  0.032196304            2 
 1385000    1.0166316    -7.037089    530.49866  0.031919294  0.032188367            2 
 1386000    1.0239171   -7.0718577    527.68436  0.031727054    0.0321803            4 
 1387000    1.0204222   -7.0949377    528.44414  0.031749828   0.03217218            3 
 1388000    1.0321145   -7.0832547    528.52951  0.031732079  0.032164187            2 
 1389000    1.0266786   -7.0464846     529.8747  0.031789939  0.032156236            4 
 1390000    1.0414713   -7.0630137    531.39258  0.031858069  0.032148256            2 
 1391000     1.037063   -7.1035441     529.8276  0.031741409  0.032140111            2 
 1392000    1.0320394   -7.0491989    530.50505  0.031759163  0.032132156            1 
 1393000       1.0284   -7.0419171    531.43957  0.031792269  0.032124243            1 
 1394000    1.0494013   -7.0589831    531.51788  0.031774144    0.0321164            3 
 1395000    1.0293292    -7.077067    530.25725   0.03167606  0.032108528            1 
 1396000    1.0323272   -7.0517524    530.55612  0.031671211  0.032100516            2 
 1397000    1.0288944   -7.0666217    532.90607  0.031788718  0.032092559            2 
 1398000     1.033943   -7.0722088    533.76342  0.031817085  0.032084559            2 
 1399000    1.0293036    -7.080022    532.67135  0.031729292  0.032076548            3 
 1400000    1.0127958   -7.1098404    532.16708  0.031676612   0.03206834            7 
 1401000    1.0150836   -7.0848779    531.70812  0.031626702  0.032060029            2 
 1402000    1.0361832   -7.0887661    533.61547  0.031717515  0.032052017            2 
 1403000    1.0162565   -7.0401378    533.96332  0.031715569  0.032044059            7 
 1404000    1.0360951   -7.0710724    533.08078  0.031640597  0.032036077            5 
 1405000    1.0122056   -7.0486915     535.8968  0.031785101  0.032028081            4 
 1406000    1.0323096   -7.0854737    534.22246  0.031663256  0.032020144            2 
 1407000     1.042324   -7.0701428    533.33511  0.031588197  0.032012078            2 
 1408000    1.0330754   -7.0999205    534.96199   0.03166205  0.032003864            2 
 1409000    1.0413477   -7.0979921    534.85878  0.031633474  0.031995699            2 
 1410000    1.0380826   -7.0802951    534.76281  0.031605367  0.031987599            2 
 1411000     1.021153   -7.0656073    533.57237  0.031512661  0.031979543            3 
 1412000    1.0164422   -7.0876084     535.8428  0.031624339  0.031971405            4 
 1413000    1.0075136   -7.0701676    535.77017  0.031597675  0.031963273            3 
 1414000     1.039582   -7.0775154    536.30261  0.031606707  0.031955287            2 
 1415000    1.0119556    -7.070227    536.31225  0.031584938  0.031947414            2 
 1416000    1.0158082   -7.0804841     537.9012  0.031656144  0.031939497            1 
 1417000   0.99568162   -7.0740498    538.44329  0.031665684  0.031931514            3 
 1418000     1.014514   -7.0824561    536.84356  0.031549339  0.031923714            2 
 1419000    1.0380627   -7.0649846    538.26395  0.031610521  0.031915872            2 
 1420000    1.0351062   -7.0833331    536.72829  0.031498139   0.03190795            2 
 1421000    1.0362817   -7.1052154    535.65768  0.031413188  0.031900097            2 
 1422000    1.0351365   -7.0807792      538.869   0.03157929  0.031892145            3 
 1423000     1.045312   -7.0507664    539.38629  0.031587391  0.031884305            2 
 1424000    1.0121688   -7.0740164      538.313  0.031502399  0.031876524            2 
 1425000    1.0081622   -7.0722098    538.91856  0.031515705  0.031868476            3 
 1426000    1.0230087    -7.060366    539.02017  0.031499542  0.031860413            2 
 1427000    1.0183429   -7.0522157    540.32416  0.031553618  0.031852486            3 
 1428000     1.033579   -7.0972081    539.48837  0.031482748  0.031844547            5 
 1429000    1.0227311   -7.0685539    538.48025  0.031401928  0.031836752            2 
 1430000    1.0451386   -7.0932435    539.74836  0.031453867  0.031828732            2 
 1431000    1.0349428   -7.0809783    541.22744   0.03151802  0.031820712            9 
 1432000    1.0281466   -7.0808582    540.25118  0.031439198  0.031812669            2 
 1433000    1.0165983   -7.0799751    540.65084    0.0314405  0.031804491            2 
 1434000     1.010334   -7.0615965    538.93553  0.031318894  0.031796238            3 
 1435000   0.99928403   -7.0826541    540.19735  0.031370345  0.031788029            1 
 1436000    1.0033477   -7.1207332    539.39379  0.031301868  0.031779735            3 
 1437000    1.0269986   -7.0660866    540.60507  0.031350329  0.031771414            2 
 1438000   0.99338506   -7.0763807    541.11833  0.031358271  0.031763359            2 
 1439000    1.0207471   -7.0613674    542.02015  0.031388704  0.031755169            2 
 1440000    1.0226934   -7.0628068    541.82497  0.031355612  0.031746995            4 
 1441000    1.0285531   -7.1159515    542.15324  0.031352836  0.031738691            5 
 1442000    1.0204948   -7.1083813    541.67984  0.031303736  0.031730623            1 
 1443000    1.0287263   -7.0836389    541.70433  0.031283457  0.031722354            3 
 1444000    1.0160296   -7.0741767    542.45084  0.031304873  0.031714116            6 
 1445000    1.0427176   -7.1166093    542.39797   0.03128016  0.031705804            4 
 1446000    1.0408514    -7.065451    543.95044  0.031347997  0.031697532            4 
 1447000    1.0220327   -7.0827128    542.09769  0.031219632  0.031689324            2 
 1448000    1.0258059     -7.07268    541.23242  0.031148275  0.031681136            3 
 1449000     1.018803   -7.0684332    543.67707  0.031267372  0.031672907            3 
 1450000   0.99479781   -7.1009558     544.0303  0.031266109  0.031664672            2 
 1451000    1.0286436   -7.1002165    544.31545  0.031260938  0.031656471            1 
 1452000    1.0386368   -7.0707008    545.59738  0.031312981  0.031648223            3 
 1453000     1.028443   -7.0963163    544.49799  0.031228377  0.031640034            1 
 1454000    1.0038255   -7.0977491    545.68393   0.03127487  0.031631775            5 
 1455000    1.0243873   -7.1001034    544.67405  0.031195536  0.031623679            4 
 1456000    1.0421283   -7.1202591    547.09137  0.031312464  0.031615445            3 
 1457000    1.0298124   -7.0893384    545.89093  0.031222314   0.03160737            2 
 1458000    1.0104857   -7.0868441    545.32246  0.031168408   0.03159918            3 
 1459000    1.0198597   -7.0819024    545.23698  0.031142162  0.031591121            2 
 1460000    1.0313094   -7.0649835    547.16646  0.031230962  0.031582917            2 
 1461000    1.0258758    -7.088188    547.28602  0.031216405  0.031574737            3 
 1462000    1.0236426   -7.1221637    545.82702  0.031111891    0.0315667            3 
 1463000     1.005815   -7.0647907     547.8026  0.031203155  0.031558753            2 
 1464000    1.0202414   -7.1239151    546.00527  0.031079535  0.031550648            2 
 1465000    1.0024077   -7.0881616    547.27085   0.03113031  0.031542536            1 
 1466000    1.0354137   -7.0827782    548.94012  0.031203963  0.031534541            4 
 1467000    1.0179389   -7.1142196    546.95705  0.031070044  0.031526449            3 
 1468000    1.0298073   -7.0752247    549.23938  0.031178439  0.031518381            1 
 1469000    1.0206636   -7.1098461    549.66037  0.031181097  0.031510357            1 
 1470000    1.0103927   -7.1034747    550.19956  0.031190451   0.03150232            3 
 1471000   0.99031545    -7.090601    547.84014  0.031035585  0.031494268            3 
 1472000    1.0140661   -7.1135045    549.24162  0.031093842  0.031486106            7 
 1473000    1.0092427   -7.0981111    550.47332  0.031142415  0.031477961            4 
 1474000    1.0042925   -7.0682207    550.90987  0.031145967  0.031469834            1 
 1475000    1.0084083   -7.1122468    551.14859  0.031138338  0.031461904            3 
 1476000    1.0155652   -7.1166456    550.51619  0.031081538  0.031453958            2 
 1477000    1.0245653    -7.141932    551.06935  0.031091703  0.031445981            3 
 1478000    1.0120126   -7.1111337    551.06339  0.031070331  0.031438087            3 
 1479000    1.0036791   -7.1329362     552.0071  0.031102496  0.031430059            1 
 1480000    1.0074086   -7.0871319    552.84545  0.031128685  0.031422099            3 
 1481000      1.00665   -7.0791099    553.31039  0.031133828   0.03141421            2 
 1482000    1.0116891   -7.0871732    553.62945  0.031130761  0.031406225            2 
 1483000   0.99967133   -7.0700199    554.09042  0.031135672  0.031398391            1 
 1484000    1.0085538   -7.1243654    552.30309  0.031014325  0.031390497            3 
 1485000   0.99710971   -7.1195472    552.85847  0.031024605  0.031382575            1 
 1486000    1.0243411   -7.0831339    552.22398  0.030968146   0.03137463            1 
 1487000    1.0000042   -7.1245354    554.30482  0.031063933  0.031366719            3 
 1488000    1.0132369   -7.1086524    553.23862  0.030983346    0.0313587            2 
 1489000    1.0044974   -7.0929645    552.17638  0.030903088  0.031350595            1 
 1490000    1.0118078   -7.1052564    553.83109  0.030974893  0.031342441            1 
 1491000    1.0297623   -7.0819431    553.53751   0.03093771   0.03133434            6 
 1492000    1.0354589   -7.0783078    556.78544  0.031098383  0.031326355            4 
 1493000    1.0016928   -7.1100823    554.62608  0.030957026  0.031318249            1 
 1494000    1.0162526   -7.0717624    555.36784   0.03097768  0.031310004            4 
 1495000    1.0280884   -7.1227091    554.48099  0.030907524  0.031301836            2 
 1496000    1.0102767   -7.1391745    554.10206  0.030865756  0.031293682            2 
 1497000     1.022303   -7.1377124    554.21566  0.030851462  0.031285617            2 
 1498000   0.99390161   -7.0923399    555.85792  0.030922225  0.031277357            3 
 1499000   0.99836569   -7.1302097    555.02191   0.03085512  0.031269177            3 
 1500000    1.0348266   -7.1335033    555.69109  0.030871727  0.031260959            1 
 1501000    1.0130302   -7.1361363    557.69082  0.030962182   0.03125275            2 
 1502000    1.0098871     -7.10473     556.5304  0.030877186   0.03124454            5 
 1503000    1.0089969    -7.108159    557.45153  0.030907714  0.031236402            2 
 1504000    1.0193276   -7.0745442    558.44848  0.030942403  0.031228428            4 
 1505000    1.0292622   -7.1220338    557.57771  0.030873627  0.031220486            2 
 1506000    1.0205799   -7.0799831    559.56077  0.030962858  0.031212498            1 
 1507000    1.0079037   -7.1113389     558.6941  0.030894387  0.031204561            4 
 1508000    1.0070119   -7.1444485    557.38894  0.030801776  0.031196592            6 
 1509000   0.98321502   -7.1068771    557.97006  0.030813456  0.031188569            3 
 1510000   0.99309637   -7.0857775    559.46667  0.030875644  0.031180558            4 
 1511000    1.0090522   -7.0729795    559.59475  0.030862274  0.031172569            3 
 1512000   0.99534039   -7.1431144    559.00274  0.030809234  0.031164559            2 
 1513000    1.0068141    -7.109177    559.04855  0.030791394  0.031156534            1 
 1514000    1.0110091   -7.0919737     560.3465  0.030842498  0.031148694            2 
 1515000    1.0187332   -7.0801659    561.06715  0.030861779  0.031140839            2 
 1516000   0.99776213   -7.1209798    560.06223  0.030786182  0.031132958            2 
 1517000    1.0160088   -7.1659861    558.40077  0.030674619  0.031125012            4 
 1518000   0.99922692   -7.0866415    562.19745  0.030862838  0.031117025            3 
 1519000   0.99525682   -7.1251666    559.47373  0.030693095  0.031109083            2 
 1520000    1.0174871   -7.1254885    560.83677   0.03074763  0.031101042            2 
 1521000    1.0056025   -7.1067045    560.97987  0.030735255  0.031093031            5 
 1522000   0.99708227   -7.1319281    560.85912  0.030708449  0.031084911            2 
 1523000   0.99955318   -7.1608063    560.22543  0.030653613  0.031076664            1 
 1524000    1.0121933   -7.0999623    561.63924  0.030710807  0.031068562            2 
 1525000    1.0299508   -7.1046764    561.14048  0.030663414  0.031060385            4 
 1526000    1.0109574   -7.0741906    561.06637  0.030639273  0.031052271            2 
 1527000   0.98848909   -7.1073816    563.08767  0.030729517  0.031044116            2 
 1528000    1.0102384   -7.1230029    564.20728  0.030770467  0.031036014            3 
 1529000    1.0038187    -7.120993    562.89258  0.030678688  0.031028059            1 
 1530000    1.0284772   -7.1148837    564.56114  0.030749517   0.03102018            2 
 1531000    1.0165203   -7.1738622    561.78352  0.030578245  0.031012106            1 
 1532000    1.0131627   -7.1275053     563.1954  0.030635085  0.031004086            2 
 1533000    1.0119144   -7.0875638    564.67447  0.030695503  0.030996082            2 
 1534000    1.0182714   -7.1324833    564.59671  0.030671268  0.030988117            2 
 1535000    1.0037358   -7.1474059    561.99341  0.030509957  0.030979982            2 
 1536000    1.0240628   -7.0990325    565.40858  0.030675379  0.030971925            6 
 1537000    1.0289176   -7.1068222    563.96824  0.030577328  0.030963802            3 
 1538000   0.99633544   -7.1122153    564.95471  0.030610897  0.030955734            2 
 1539000    0.9944054   -7.1317205    563.12686  0.030492033  0.030947593            2 
 1540000    1.0071249   -7.1281009    566.25528  0.030641519  0.030939411            6 
 1541000    1.0222829    -7.128403    566.46911  0.030633199  0.030931309            1 
 1542000    1.0039475   -7.1281244    565.03412  0.030535783   0.03092327            2 
 1543000    1.0073065     -7.11267    567.16503  0.030631078  0.030915068            3 
 1544000   0.99750403   -7.0985177    565.80051  0.030537592  0.030907028            3 
 1545000    1.0058618   -7.1092682    568.38886  0.030657436  0.030899037            4 
 1546000   0.99541745   -7.1164853    566.80252  0.030552098   0.03089102            5 
 1547000    1.0221029   -7.1043955    568.32732  0.030614486  0.030882933            2 
 1548000    1.0192741   -7.1511957     565.6302  0.030449516  0.030874927            1 
 1549000   0.99988415   -7.1257821    565.93571  0.030446294  0.030866793            1 
 1550000    1.0004067   -7.1331641    567.17232  0.030493136  0.030858669            3 
 1551000    1.0152418   -7.0914408    567.76083  0.030505095   0.03085069            3 
 1552000     1.008339   -7.1278627    567.35372   0.03046358  0.030842712            3 
 1553000   0.98490403   -7.1131962    567.20583  0.030436029   0.03083458            1 
 1554000    1.0047566   -7.1145644    567.67413  0.030441555  0.030826409            2 
 1555000   0.99811512   -7.1333188     569.3441  0.030511474  0.030818355            3 
 1556000    1.0145403   -7.1073015    568.24935  0.030433234  0.030810186            5 
 1557000    1.0023243   -7.1321244    568.92356  0.030449773   0.03080187            2 
 1558000   0.99668435   -7.1196601    567.46822  0.030352386  0.030793499            2 
 1559000    1.0075211   -7.1276325    566.64696  0.030289019  0.030785034            2 
 1560000    1.0082836   -7.0959874    569.24629  0.030408456  0.030776688            1 
 1561000   0.99689789   -7.1066575     569.3754  0.030395868   0.03076835            2 
 1562000    1.0021734   -7.1223156    568.75039  0.030343064  0.030760009            5 
 1563000    1.0050254   -7.1100402    569.64638  0.030371422  0.030751668            1 
 1564000   0.99554031   -7.0951965    569.75068  0.030357559  0.030743521            2 
 1565000    1.0067541   -7.1438737    570.26807  0.030365712  0.030735161            2 
 1566000   0.99825873   -7.1296158    568.19201  0.030235846  0.030726832            4 
 1567000   0.98838397   -7.1245362    570.10848  0.030318469   0.03071847            3 
 1568000    1.0037375   -7.1366955    570.17485   0.03030266  0.030710068            1 
 1569000    1.0162817   -7.1490732     571.1286  0.030334003  0.030701791            4 
 1570000    1.0066127    -7.168871    569.61931  0.030234571   0.03069337            2 
 1571000   0.99809895   -7.1198945     570.0837  0.030239959  0.030684957            2 
 1572000   0.97072341   -7.1724247    568.73053  0.030148989  0.030676552            2 
 1573000    1.0172207   -7.1748605    569.45231   0.03016806  0.030668102            2 
 1574000   0.98016532   -7.1278485    570.83183  0.030221931  0.030659774            3 
 1575000    1.0127398     -7.13469     572.6194  0.030297323   0.03065148            7 
 1576000   0.98765055   -7.0809773    574.53577  0.030379429  0.030643143            2 
 1577000    1.0174989   -7.1253012    573.39493   0.03029988  0.030634802            2 
 1578000   0.99401474   -7.1063587    570.93494  0.030150768  0.030626383            1 
 1579000   0.99204151   -7.1938237    570.89348  0.030129485  0.030617834            5 
 1580000   0.98554404   -7.1614732    571.09781  0.030121192  0.030609169            3 
 1581000    1.0140351   -7.1441192    571.42816  0.030119553   0.03060054            4 
 1582000   0.99837835    -7.131102    572.63775   0.03016423  0.030591845            2 
 1583000   0.98646622   -7.1420343    571.18111  0.030068494  0.030583138            3 
 1584000   0.97730013   -7.1493041    571.48317  0.030065403  0.030574521            3 
 1585000   0.99258809   -7.1344005     572.7919  0.030115242    0.0305659            2 
 1586000    1.0127479   -7.1302466    573.80179  0.030149316  0.030557358            2 
 1587000   0.96677469   -7.1428912    572.40172  0.030056801  0.030548857            4 
 1588000    0.9786946    -7.115079    574.77115  0.030162214  0.030540351            4 
 1589000    1.0029247    -7.104734    575.56907  0.030185078  0.030531948            3 
 1590000   0.99150889   -7.1461459    573.09283  0.030036312  0.030523521            2 
 1591000   0.99886615   -7.1727705    574.18767  0.030074778  0.030515018            3 
 1592000    1.0049838   -7.1247231     574.8514   0.03009063  0.030506594            5 
 1593000   0.98257849   -7.1339074     575.3116  0.030095815  0.030498075            1 
 1594000   0.99632642    -7.172611    575.47502  0.030085478  0.030489494            2 
 1595000   0.97583982   -7.1411262    575.37235  0.030061251  0.030480987            3 
 1596000   0.99002706    -7.189785    574.24619  0.029983615  0.030472466            2 
 1597000    1.0026691    -7.152201    575.55229  0.030032994  0.030463881            2 
 1598000   0.99243783   -7.1357277     575.5344  0.030013267  0.030455371            3 
 1599000   0.98029991   -7.1381168    576.94112  0.030067809  0.030446855            2 
 1600000   0.99521414   -7.1975641    574.23539  0.029908093  0.030438218            4 
 1601000   0.99147722   -7.1509041    575.95986  0.029979172  0.030429573            2 
 1602000    0.9951997   -7.1130152    577.39367  0.030035043   0.03042109            2 
 1603000   0.98667507   -7.1647499    575.28296  0.029906579  0.030412525            3 
 1604000    1.0172402   -7.1185251    576.64546  0.029958721  0.030403969            2 
 1605000   0.99011932   -7.1310023    579.59277  0.030093083  0.030395475            3 
 1606000   0.99319315   -7.1647739    576.72389  0.029925482  0.030386935            2 
 1607000   0.99634458   -7.1825204    577.12514  0.029927667  0.030378366            4 
 1608000   0.98794748   -7.1400634    577.09898    0.0299077  0.030369726            3 
 1609000    1.0021092   -7.1756547    575.27854  0.029794828  0.030361158            3 
 1610000    1.0001446   -7.1546491    577.06586  0.029868833  0.030352467            4 
 1611000   0.99588516   -7.1666207    577.65471  0.029880753   0.03034387            2 
 1612000   0.97588931   -7.1489695    577.87405  0.029873555  0.030335317            2 
 1613000    0.9864082   -7.1571595    577.54051  0.029837802  0.030326741            2 
 1614000   0.97533387   -7.1483684    577.12461  0.029797842  0.030318063            2 
 1615000   0.99315231   -7.1599623    576.86572  0.029766033  0.030309324            2 
 1616000   0.97973454   -7.1455557    577.57379  0.029784127  0.030300517            2 
 1617000   0.98758738    -7.135061    580.33042  0.029907772  0.030291748            2 
 1618000    1.0098213   -7.1576368    578.09677  0.029774247  0.030283137            2 
 1619000    0.9982874     -7.10577    580.23862  0.029866102  0.030274514            2 
 1620000    1.0005639   -7.1447306    580.14717  0.029842961  0.030265874           10 
 1621000    1.0049847   -7.1246868    580.76901  0.029856519   0.03025727            2 
 1622000    0.9881133   -7.1860953    578.76232  0.029735015  0.030248702            4 
 1623000   0.98064402   -7.1577795    580.14825  0.029787854  0.030240086            3 
 1624000    1.0198201   -7.2129809    578.73704  0.029697098  0.030231444            3 
 1625000   0.98923602   -7.1529542    581.09646  0.029799818  0.030222844            4 
 1626000   0.97470497   -7.1549802    581.34091  0.029794019  0.030214229            3 
 1627000   0.97730501   -7.1531937     581.3572  0.029776542  0.030205688            3 
 1628000    0.9922246   -7.1182065    583.09794  0.029847356  0.030197251            2 
 1629000   0.98427578   -7.1492442     581.9623  0.029770938  0.030188682            3 
 1630000    1.0038666   -7.1758791    580.90802  0.029698774   0.03018012            2 
 1631000   0.98920347   -7.1802562    580.66103  0.029667946  0.030171541            3 
 1632000   0.99369417   -7.1603588    582.27277  0.029732066  0.030162939            1 
 1633000    1.0142781   -7.1590458    580.85779  0.029641651  0.030154322            3 
 1634000   0.98500957   -7.1866402    581.87273  0.029675272  0.030145726            2 
 1635000   0.98176556   -7.1832686    581.06357   0.02961588  0.030137076            3 
 1636000   0.98966216   -7.1301324    581.75886  0.029633194  0.030128456            5 
 1637000    1.0111569   -7.1966381    582.62416  0.029659141   0.03011985            4 
 1638000   0.99452521   -7.1158083    584.34978  0.029728825  0.030111224            3 
 1639000   0.99056323    -7.116001    583.04188  0.029644187  0.030102639            3 
 1640000    1.0193985   -7.1518253    584.30241  0.029690163  0.030094099            2 
 1641000   0.99777766   -7.1380634    583.18002  0.029615073  0.030085478            2 
 1642000    1.0093147   -7.1487657    583.02518  0.029589179  0.030076783            1 
 1643000   0.97764103   -7.1422766    583.73439  0.029607141  0.030068089            3 
 1644000   0.98724426   -7.1434888    586.22862  0.029715563  0.030059563            4 
 1645000     0.986191   -7.1306524    585.41224  0.029656142  0.030051072            2 
 1646000   0.99886551    -7.154971    586.92154  0.029714537  0.030042646            3 
 1647000   0.97506776   -7.1592115     586.2269  0.029661349  0.030034227            3 
 1648000   0.99028217   -7.1775099    583.72121  0.029516647  0.030025681            1 
 1649000   0.98267904   -7.1717071    584.80481  0.029553508  0.030017108            2 
 1650000   0.98277808   -7.1333031    585.79901  0.029585809  0.030008497            5 
 1651000   0.99602639   -7.1510592    585.02377  0.029528759   0.02999984            3 
 1652000   0.97648806   -7.1638354    586.43996  0.029582322  0.029991219            1 
 1653000   0.99606303   -7.1187322    584.86938  0.029485248  0.029982629            1 
 1654000   0.99689665   -7.1609725    584.06485  0.029426887  0.029973917            3 
 1655000   0.98840659   -7.1962108    585.55995  0.029484388  0.029965208            3 
 1656000    0.9919055   -7.1436618    586.41305  0.029509513  0.029956552            1 
 1657000    1.0090246   -7.1515224      587.139  0.029528213  0.029948031            3 
 1658000   0.97627844   -7.1389283     587.5296  0.029530036  0.029939513            4 
 1659000   0.97161061   -7.1720893    587.06917  0.029489109   0.02993102            4 
 1660000   0.98259749   -7.1190791    588.61658  0.029549025  0.029922525            5 
 1661000   0.97300581   -7.1947575    586.15456  0.029407714  0.029914078            2 
 1662000   0.96460392   -7.1645334    588.68582  0.029516938  0.029905532            2 
 1663000   0.97347351   -7.1202519    588.47671  0.029488711  0.029897021            1 
 1664000   0.99679662   -7.1504297    588.77587  0.029485971  0.029888531            2 
 1665000   0.98688206   -7.1725115    588.44656   0.02945178  0.029880031            1 
 1666000   0.98356753   -7.1383556    588.52162  0.029437856  0.029871548            2 
 1667000   0.96518404   -7.1675684    589.51711  0.029469962  0.029863168            3 
 1668000   0.98507694    -7.170619    589.96576  0.029474708  0.029854751            4 
 1669000   0.96254595   -7.1647667    589.75792  0.029446671  0.029846404            3 
 1670000   0.98787598    -7.143419    590.39086  0.029460622  0.029838146            2 
 1671000    0.9716954   -7.1690365    590.65047  0.029455938  0.029829885            3 
 1672000    1.0006729   -7.1303644    592.94232  0.029552548  0.029821667            2 
 1673000   0.98593908   -7.1666169    591.17869  0.029447036  0.029813495            4 
 1674000   0.98633659   -7.1680855    589.89119  0.029365352  0.029805182            2 
 1675000   0.98592583   -7.1913843     591.3342  0.029419612   0.02979669            2 
 1676000   0.99412239   -7.1655443    590.66578  0.029368824  0.029788303            3 
 1677000   0.97822335   -7.1687756    591.31522  0.029383583  0.029779833            1 
 1678000   0.96715745   -7.1893878    590.72748  0.029336883  0.029771337            3 
 1679000   0.98137637   -7.1548016    591.35205  0.029350409  0.029762816            3 
 1680000    0.9995774   -7.1801858    591.33312     0.029332  0.029754395            2 
 1681000   0.97955329   -7.1478905    592.25575  0.029360289  0.029745985            3 
 1682000   0.98509664   -7.1480265    593.25165  0.029392174  0.029737508            3 
 1683000     1.017418    -7.196669    591.42491   0.02928426  0.029729042            1 
 1684000    1.0156367   -7.1916103    593.62996  0.029375988  0.029720643            2 
 1685000   0.98059181   -7.1689052    593.61359  0.029357745  0.029712305            2 
 1686000   0.96185204   -7.1744652    591.76074  0.029248752  0.029703987            1 
 1687000   0.99971951   -7.1564154     594.3066  0.029357173  0.029695668            3 
 1688000   0.99280656   -7.1711125    593.11959  0.029281181  0.029687295            2 
 1689000   0.98685731   -7.1488123    592.97759  0.029256838  0.029678838            2 
 1690000   0.96982374   -7.1778708    594.19061   0.02929934  0.029670442            2 
 1691000    1.0007623   -7.1735067    595.14481  0.029329037  0.029662017            5 
 1692000    1.0161411   -7.1737656    597.61694  0.029433458  0.029653697            2 
 1693000   0.99671178   -7.1707621    596.41002  0.029356666  0.029645421            2 
 1694000   0.98088884   -7.1999609    594.61128   0.02925085  0.029637215            3 
 1695000   0.97817346   -7.1595944    595.23028  0.029264026  0.029629002            1 
 1696000   0.99255755   -7.1863102    595.29464  0.029249933  0.029620788            4 
 1697000    0.9737156   -7.1649464    595.58783  0.029247095  0.029612547            3 
 1698000   0.96511606   -7.1794099    596.51192  0.029275222  0.029604288            2 
 1699000   0.97503546   -7.1859348    596.61304  0.029262951  0.029596006            2 
 1700000   0.99476884   -7.1965174    597.32037   0.02928041  0.029587657            3 
 1701000   0.97792508   -7.1495886    598.07022  0.029299932  0.029579427            3 
 1702000   0.98616307    -7.183533    596.93156  0.029226967  0.029571222            2 
 1703000    1.0048636    -7.158283    598.40578  0.029281943  0.029563103            2 
 1704000   0.98209097   -7.1451252    598.10916  0.029250253  0.029554999            2 
 1705000   0.98574736   -7.2035057    598.01652  0.029228569  0.029546905            3 
 1706000   0.98034356   -7.1819583    598.48609  0.029234373  0.029538662            3 
 1707000   0.97310849   -7.2081023    597.30884  0.029159776  0.029530453            7 
 1708000   0.98427431   -7.1569064    599.14496  0.029232287  0.029522267            2 
 1709000    0.9747723   -7.1732071    599.28519   0.02922202  0.029514169            2 
 1710000   0.98377994   -7.1828642    600.43085  0.029260763  0.029506114            3 
 1711000   0.96167359   -7.1926087    600.24717  0.029234715  0.029498023            4 
 1712000   0.97082194   -7.1721817    600.44535  0.029227285  0.029489977            3 
 1713000   0.96712244   -7.1893984    598.76205  0.029128335  0.029481814            2 
 1714000   0.97874727    -7.161041    600.45379  0.029193592  0.029473664            2 
 1715000   0.96594496   -7.1928284    600.14194  0.029161416  0.029465459            4 
 1716000    0.9788922    -7.203957    599.53837  0.029115111  0.029457261            2 
 1717000   0.95340641   -7.1593126    602.61078  0.029247271   0.02944918            2 
 1718000    0.9755515    -7.164615    603.14875  0.029256342  0.029441173            3 
 1719000   0.96027225   -7.1783459    602.26597  0.029196527  0.029433097            3 
 1720000   0.97099968   -7.1937754    600.56711  0.029097244  0.029424898            2 
 1721000   0.98829075   -7.1693002    601.56551  0.029128681  0.029416687            1 
 1722000   0.98207903   -7.1885551    600.27562  0.029049343  0.029408423            2 
 1723000   0.94742984   -7.1510135    602.85774  0.029157368  0.029400239            3 
 1724000   0.99126577   -7.1724161    601.93376  0.029095793   0.02939217            2 
 1725000   0.98072622   -7.1469903    603.11026  0.029135761  0.029384114            2 
 1726000   0.96739267   -7.2014387     601.4207  0.029037307  0.029375988            4 
 1727000   0.98278904   -7.1994343    602.36641  0.029066127   0.02936787            2 
 1728000   0.98642514   -7.1830592    601.90865   0.02902723  0.029359691            1 
 1729000   0.97961042   -7.2289485    601.90165  0.029010104   0.02935148            1 
 1730000   0.97259605   -7.2190389    603.01876  0.029047147  0.029343256            2 
 1731000    1.0071266   -7.2036872    601.87713  0.028975406  0.029335004            2 
 1732000   0.98181065   -7.1904851    602.49526  0.028988417  0.029326809            4 
 1733000   0.98019989   -7.1961094    601.84227   0.02894029  0.029318541            1 
 1734000   0.96194241    -7.203105    602.30578  0.028945876  0.029310356            5 
 1735000   0.96741738   -7.1715224    604.42493  0.029030977  0.029302193            3 
 1736000   0.97544842   -7.2044849    602.38063  0.028916121  0.029293873            3 
 1737000   0.95972385   -7.1982232    603.76639  0.028965956  0.029285668            1 
 1738000   0.97952657   -7.1767268    604.71695  0.028994867  0.029277528            2 
 1739000   0.97696207   -7.2070587    604.53141  0.028969303  0.029269353            3 
 1740000   0.96142952   -7.1728694    605.37332  0.028992975  0.029261201            4 
 1741000   0.97583795   -7.1737862    605.45256  0.028980115  0.029253001            3 
 1742000   0.97203134   -7.1931487    602.90661  0.028841686  0.029244734            3 
 1743000   0.96684418   -7.1812229    605.13801  0.028931823  0.029236362            2 
 1744000    0.9602903    -7.233448    605.27991  0.028922014   0.02922798            1 
 1745000   0.99236998   -7.1777025    604.51164   0.02886875  0.029219576            2 
 1746000    0.9929991   -7.1976841    604.88601  0.028870085   0.02921114            2 
 1747000   0.96988271   -7.1707796     605.6391  0.028889482  0.029202779            1 
 1748000   0.97616061   -7.2208981    605.34888  0.028859119  0.029194497            4 
 1749000   0.97462551   -7.2030205    605.21016  0.028836009    0.0291862            5 
 1750000   0.97502509   -7.2002702    605.21469  0.028819747  0.029177878            2 
 1751000   0.97608008   -7.1967833    603.71755  0.028732037   0.02916962            3 
 1752000   0.96883229   -7.1750343     606.1671  0.028832149  0.029161382            1 
 1753000   0.96277933   -7.1911962     607.4027  0.028874439  0.029153208            2 
 1754000   0.95578389   -7.1904901    605.09173  0.028748182  0.029144837            4 
 1755000   0.97842788   -7.1780159    607.23816  0.028833721  0.029136546            2 
 1756000   0.98025169   -7.1667216    607.39785  0.028824879  0.029128372            3 
 1757000   0.96300502   -7.1897947     607.6018  0.028818146  0.029120221            3 
 1758000    0.9560921   -7.2026501    608.38939  0.028839088   0.02911213            4 
 1759000   0.95479814   -7.1851089    608.64951  0.028835015  0.029103963            2 
 1760000   0.97589661   -7.1920883    609.73894  0.028870215  0.029095845            3 
 1761000   0.97751382   -7.2234672    607.60701  0.028752935  0.029087783            3 
 1762000   0.95577279   -7.1799642    608.74125   0.02879026  0.029079721            3 
 1763000   0.97224068   -7.1675308    609.90277  0.028828832  0.029071651            3 
 1764000   0.99421921   -7.1989128    610.50493  0.028840936  0.029063587            5 
 1765000   0.96809316   -7.1614861    610.35304  0.028817424   0.02905548            8 
 1766000   0.99166398   -7.2110319    609.91367  0.028780373  0.029047406            1 
 1767000   0.96272934   -7.1731202    611.63936   0.02884547  0.029039415            3 
 1768000   0.97775404   -7.2440747    608.54454  0.028683283  0.029031377            1 
 1769000    0.9683098   -7.2277079    609.15109  0.028695642  0.029023375            3 
 1770000   0.95599365   -7.2328509    611.79517  0.028803916  0.029015273            1 
 1771000   0.98614293   -7.1973364    609.77259   0.02869248  0.029007198            3 
 1772000   0.96358724   -7.2140341    611.32768   0.02874942  0.028999157            6 
 1773000   0.95853975   -7.2315047    609.63942  0.028653855  0.028991001            5 
 1774000   0.98412308   -7.1955265      612.703  0.028781614  0.028982892            4 
 1775000   0.94066268   -7.2154093    611.07848   0.02868913  0.028974873            3 
 1776000   0.95101939   -7.2183511    611.00646  0.028669597  0.028966817            2 
 1777000   0.95217914   -7.1953586    614.36706  0.028811061  0.028958714            3 
 1778000    0.9819323   -7.2291826    612.98381  0.028730025  0.028950622            2 
 1779000   0.97942832   -7.2036469    612.11458  0.028673158  0.028942611            2 
 1780000   0.98123809   -7.1739285    613.37004  0.028715826   0.02893465            2 
 1781000   0.95816166   -7.1746842    612.99348  0.028682083  0.028926701            7 
 1782000   0.97618469      -7.1998    613.75759  0.028701721  0.028918799            1 
 1783000   0.95684343   -7.2155301     611.7142  0.028590119  0.028910914            3 
 1784000   0.96209798   -7.2236584    614.62678  0.028710145  0.028903122            4 
 1785000    0.9748014   -7.1731708    614.63548  0.028694467  0.028895331            2 
 1786000   0.96630947   -7.1983179    615.30713  0.028709739  0.028887476            1 
 1787000   0.96440115    -7.197361    614.77382  0.028668804  0.028879675            2 
 1788000   0.95593864   -7.2072062    614.72794  0.028650631  0.028871861            2 
 1789000   0.96873295   -7.2025467    615.46712  0.028669048  0.028864136            2 
 1790000   0.96692488   -7.2143043    615.20289   0.02864073   0.02885636            4 
 1791000   0.97722317   -7.1733443    616.97129  0.028707021  0.028848562            3 
 1792000   0.95949325   -7.2085466    615.13936  0.028605811  0.028840749            2 
 1793000   0.99040287   -7.2036669    616.14582  0.028636634  0.028832954            2 
 1794000    0.9832959   -7.2237643    615.94682  0.028611428  0.028825126            4 
 1795000    0.9568277   -7.2010768    615.87133  0.028591984   0.02881731            6 
 1796000   0.98385726   -7.1975338     616.6235  0.028610964  0.028809429            2 
 1797000   0.96722304    -7.201877    616.27013  0.028578656  0.028801582            2 
 1798000   0.95999001   -7.2496434    615.84334   0.02854298   0.02879367            2 
 1799000   0.95081778   -7.2211547    615.86777  0.028528246  0.028785835            3 
 1800000   0.97814872     -7.19175    618.87638  0.028651684  0.028778013            3 
 1801000   0.98876028   -7.1842701     617.4349  0.028569078  0.028770353            1 
 1802000   0.96823904    -7.254377    617.36951  0.028550199  0.028762559            4 
 1803000   0.96912929   -7.1882247    618.48528  0.028585934  0.028754711            2 
 1804000   0.96316096   -7.2179704    619.83708  0.028632533  0.028746949            3 
 1805000    0.9734865   -7.1803758    618.88019  0.028572492  0.028739084            6 
 1806000   0.96214401   -7.2211889    618.34007  0.028531749  0.028731232            4 
 1807000   0.96046556   -7.2565865    616.45737  0.028429135   0.02872327            2 
 1808000    0.9463257   -7.2136292     617.4125  0.028457435  0.028715361            3 
 1809000   0.96259242   -7.2431929    618.80692  0.028505939  0.028707517            3 
 1810000   0.95439505   -7.1690171    618.94179  0.028496399  0.028699779            3 
 1811000   0.96204111   -7.1889797    619.39509  0.028501523  0.028692119            3 
 1812000   0.95215526   -7.1900201    622.35434  0.028621888  0.028684469            5 
 1813000   0.97939384   -7.2176608    620.33439  0.028513256   0.02867678            5 
 1814000   0.98504122   -7.2069698    618.73765  0.028424184  0.028669055            2 
 1815000   0.96232585    -7.190349     621.0515  0.028514761  0.028661336            3 
 1816000   0.95545212   -7.2297683    620.31125   0.02846509  0.028653602            2 
 1817000   0.97971838   -7.1852348    620.85315  0.028474278  0.028645853            3 
 1818000   0.94130357   -7.2033624    622.41113   0.02853003   0.02863815            7 
 1819000   0.98690295   -7.2073347    621.03752  0.028451417  0.028630485            2 
 1820000   0.95967041   -7.1862678    624.06656  0.028574476  0.028622885            2 
 1821000   0.94734292   -7.2058244    622.78918  0.028500329  0.028615186            3 
 1822000   0.97005918   -7.2273832    622.79846  0.028485111   0.02860746            3 
 1823000   0.97506635   -7.1979325    622.86697  0.028472617  0.028599752            3 
 1824000   0.94060121    -7.217189    622.43178  0.028437124  0.028592081            2 
 1825000   0.96564539   -7.1845891    622.87483  0.028441773  0.028584391            2 
 1826000   0.95720742   -7.2417898    621.75655  0.028375162  0.028576623            3 
 1827000   0.95410185    -7.224889    621.97721  0.028369696  0.028568884            2 
 1828000   0.94753871   -7.2385505    620.91221  0.028305626  0.028561024            1 
 1829000   0.95180499   -7.2068661    622.64025  0.028368883  0.028553209            2 
 1830000   0.96082529   -7.2220334    622.43632  0.028344095  0.028545286            2 
 1831000   0.98040508   -7.2027223    623.73322   0.02838764  0.028537573            2 
 1832000   0.94706976   -7.2314998    621.90217  0.028288854  0.028529878            3 
 1833000   0.93800192   -7.2299755     622.9774  0.028322304  0.028522061            4 
 1834000   0.97486519   -7.2191588    623.87239  0.028347528  0.028514255            2 
 1835000    0.9519359   -7.2271637    623.51812  0.028315991  0.028506483            3 
 1836000   0.97306489   -7.2098852    624.97873  0.028366863  0.028498764            1 
 1837000   0.96034902   -7.1650348      625.241  0.028363319  0.028491145            3 
 1838000   0.95249712   -7.2263732    625.51674  0.028360389  0.028483543            2 
 1839000   0.95225688   -7.2030273    626.01349  0.028367477  0.028475939            4 
 1840000   0.95150364   -7.2271606    626.23058  0.028361892    0.0284682            4 
 1841000   0.94834528   -7.2225486    624.74459  0.028279223  0.028460445            2 
 1842000   0.95747984   -7.2075309    626.60131   0.02834787  0.028452658            4 
 1843000   0.92938791   -7.2065307    626.90018  0.028346002  0.028444921            1 
 1844000    0.9503856   -7.2005939    625.61154  0.028272394  0.028437183            2 
 1845000   0.93844197   -7.1484424    626.30905  0.028288575  0.028429466            2 
 1846000   0.95927322   -7.2028835    626.21353  0.028268939  0.028421792            5 
 1847000   0.95398452   -7.2548501    625.80199  0.028235066  0.028414153            3 
 1848000   0.95923714   -7.2372646    627.22118  0.028283783  0.028406396            3 
 1849000   0.95878505   -7.2166995    625.97516  0.028212329  0.028398655            3 
 1850000   0.94416689   -7.1979083    628.12201  0.028293784  0.028390954            2 
 1851000   0.94676651   -7.2264399    627.10803  0.028232849  0.028383207            2 
 1852000   0.94153176   -7.1864771    629.08223  0.028306436  0.028375457            2 
 1853000   0.95473785   -7.2018821    626.62472   0.02818064  0.028367784            2 
 1854000   0.94001308   -7.2175505    627.32588  0.028196956  0.028360056            2 
 1855000    0.9513628   -7.2710405     627.5315  0.028190993  0.028352331            1 
 1856000   0.93957925   -7.2052241    628.06051  0.028199556  0.028344599            3 
 1857000   0.96730042    -7.233776    629.33598  0.028241608  0.028336918            2 
 1858000   0.95893192   -7.2261365    628.99028  0.028210903  0.028329286            2 
 1859000   0.94448934   -7.2234236    627.90241  0.028146961  0.028321555            4 
 1860000   0.96175545   -7.2454377    628.42635  0.028155302  0.028313777            2 
 1861000   0.93147248   -7.1951403    628.84666  0.028158994  0.028306157            2 
 1862000   0.95753848   -7.2186261    630.02256  0.028196498  0.028298566            2 
 1863000   0.95004644   -7.2409432    629.85267  0.028173764   0.02829103            4 
 1864000    0.9423315    -7.210392    630.51946  0.028188459   0.02828345            2 
 1865000   0.95980854   -7.2387098    629.33407  0.028120379  0.028275788            2 
 1866000   0.96598021   -7.2309849    630.09436  0.028139262  0.028268195            2 
 1867000   0.95642678   -7.2677516    629.30016  0.028088741  0.028260586            4 
 1868000   0.94455174   -7.2297163    629.69384  0.028091267  0.028253003            2 
 1869000    0.9466082   -7.2565625    631.22424  0.028144473  0.028245419            3 
 1870000   0.96736792    -7.240192    631.35506  0.028135252  0.028237789            3 
 1871000   0.94979579   -7.2321486    631.77136  0.028138756  0.028230208            2 
 1872000   0.97262452   -7.2463406    632.10057   0.02813838  0.028222688            3 
 1873000   0.96294293   -7.2274112    632.64694  0.028147666  0.028215218            3 
 1874000   0.93829015   -7.2580952    631.94301  0.028101343  0.028207724            4 
 1875000   0.95000465    -7.217328    634.23967   0.02818843  0.028200265            3 
 1876000   0.96088898   -7.2447926    632.53162  0.028097531  0.028192872            2 
 1877000   0.97594728   -7.2157794    634.36083  0.028163773  0.028185419            4 
 1878000   0.92872636   -7.2160673    632.77817  0.028078549  0.028178012            3 
 1879000    0.9350504   -7.2651535    634.51724  0.028140733  0.028170583           10 
 1880000   0.94069815   -7.2685668     633.8187  0.028094801  0.028163071            3 
 1881000   0.92789974   -7.2580108    635.34355  0.028147419  0.028155579            2 
 1882000   0.96445463   -7.2414003    634.30264  0.028086373  0.028148009            3 
 1883000   0.92950777   -7.2236735    635.43516  0.028121577  0.028140539            2 
 1884000    0.9435948   -7.2130134    636.38633  0.028148723  0.028133244            2 
 1885000    0.9518714   -7.2498948    634.29714   0.02804143  0.028125913            2 
 1886000   0.96079176   -7.2443218    636.43425   0.02812099  0.028118633            7 
 1887000   0.96374496   -7.2417433    636.14143  0.028093156  0.028111232            7 
 1888000   0.92866761   -7.2640085    635.28449  0.028040452  0.028103827            2 
 1889000   0.92955153   -7.2366899     636.8417  0.028094305  0.028096533            3 
 1890000   0.95255421   -7.2502541    636.65387  0.028071158  0.028089264            3 
 1891000   0.96138168   -7.2347134    638.52789  0.028138899  0.028082114            3 
 1892000   0.96076074   -7.2401486    637.92555  0.028097496  0.028074992            4 
 1893000   0.95833977   -7.2291304    637.63123  0.028069696  0.028067906            3 
 1894000   0.94432969   -7.2370066    638.13826  0.028077185  0.028060769            3 
 1895000   0.95547208   -7.2554794    639.03267  0.028101701  0.028053674            2 
 1896000   0.95920999   -7.2286084    638.09847  0.028045819  0.028046559            5 
 1897000   0.94055584    -7.238607    641.20444  0.028167477  0.028039575            2 
 1898000   0.97118155   -7.2528647    641.88213  0.028182391  0.028032556            2 
 1899000   0.93141853   -7.2521071    638.23949  0.028007701  0.028025478            3 
 1900000   0.97769996   -7.2857207    638.82014  0.028018427  0.028018354            2 
 1901000   0.95920358   -7.2268819    640.24236  0.028066034  0.028011206            3 
 1902000   0.94733823   -7.2756274    638.89572  0.027992277  0.028004062            3 
 1903000   0.94406956   -7.2341952    639.51068  0.028004496  0.027996971            2 
 1904000   0.95667788   -7.2561138    641.04709  0.028057033  0.027989776            5 
 1905000   0.93472283   -7.2457656    640.82292  0.028032498  0.027982566            3 
 1906000   0.95510775   -7.2735758    639.79309  0.027972765  0.027975354            2 
 1907000   0.93788467   -7.2741605    641.15921  0.028017794  0.027968104            4 
 1908000   0.94637957   -7.2533668    641.58987  0.028021919  0.027960866            2 
 1909000   0.92083925   -7.2265918    639.44642  0.027913673  0.027953662            2 
 1910000   0.93118813   -7.2537525    640.03962   0.02792494  0.027946422            2 
 1911000   0.95053194    -7.227097    642.30837  0.028009261   0.02793924            2 
 1912000   0.95728292   -7.2719179    641.20946  0.027946716  0.027932169            3 
 1913000   0.94140119   -7.2277876    641.81575  0.027958518  0.027925022            1 
 1914000   0.96052887   -7.2651936    641.96357  0.027950347  0.027917863            3 
 1915000   0.96013457   -7.2450676    641.59189  0.027919578  0.027910719            2 
 1916000   0.96484954   -7.2546446    641.85332  0.027916376  0.027903511            2 
 1917000   0.94680367   -7.2464509      641.803  0.027899626  0.027896226            2 
 1918000   0.95199955   -7.2883073    639.18502  0.027771334  0.027888847            1 
 1919000   0.93354103    -7.241651    642.13067  0.027884778  0.027881411            4 
 1920000   0.93296132   -7.2500967    642.12424  0.027869976   0.02787415            3 
 1921000   0.95269813    -7.230424     643.0458  0.027895445  0.027866884            2 
 1922000   0.91821119    -7.254406    644.00188  0.027922385   0.02785968            5 
 1923000   0.96562451   -7.2862209     642.0988  0.027825394  0.027852468            1 
 1924000   0.93934604   -7.2801352    641.79703  0.027797862  0.027845148            7 
 1925000   0.94397006   -7.2491927    641.22001  0.027758442  0.027837771            2 
 1926000   0.91569031   -7.2171709    643.63886  0.027848687  0.027830441            4 
 1927000   0.95641801   -7.2509923    641.26402  0.027731535  0.027823146            2 
 1928000   0.96182557   -7.2500126    643.66822  0.027821068  0.027815826            2 
 1929000   0.95840861   -7.2427976    644.53519  0.027844098  0.027808525            3 
 1930000   0.94493007   -7.2421851    645.04253  0.027851577  0.027801319            3 
 1931000   0.93735278   -7.2662701    643.94099  0.027789616  0.027794186            2 
 1932000   0.92786286   -7.2414409    643.34444  0.027749501  0.027787078            3 
 1933000   0.94341571   -7.2696442    643.95799  0.027761596  0.027779876            5 
 1934000   0.93771509   -7.2199692    643.76466  0.027738911  0.027772744            1 
 1935000   0.93830717   -7.2758035    645.56337   0.02780204  0.027765579            3 
 1936000   0.94854407   -7.2725151    644.63902  0.027747892  0.027758313            1 
 1937000   0.94554344   -7.2953457    644.82172  0.027741426  0.027751115            3 
 1938000    0.9353604   -7.2811844    644.49595  0.027713104  0.027743847            2 
 1939000   0.93603248   -7.2311517     644.4574  0.027697155   0.02773662            4 
 1940000   0.94025492   -7.2347846    645.44176  0.027725162  0.027729354            3 
 1941000   0.94510906   -7.2871854    644.76027  0.027681619  0.027722119            2 
 1942000   0.94189078   -7.2865071    646.24933  0.027731262   0.02771482            4 
 1943000   0.95808692   -7.2687457    647.29941  0.027762026  0.027707562            3 
 1944000   0.91998512   -7.2406446    648.32095  0.027791536  0.027700346            3 
 1945000   0.94772856   -7.2539983    646.04626  0.027679788   0.02769312            3 
 1946000   0.92850516   -7.2630642    646.23282  0.027673553  0.027685894            1 
 1947000   0.94079255   -7.2158144    646.08467  0.027652999  0.027678628            3 
 1948000   0.93540773   -7.2423695    646.51034  0.027657013  0.027671325            1 
 1949000   0.92294294   -7.2750087    645.12939  0.027583778  0.027664035           10 
 1950000   0.94300393   -7.2498809    646.25115   0.02761757  0.027656772            1 
 1951000   0.92373122   -7.2333676    646.54779  0.027616085  0.027649511            4 
 1952000   0.92698095     -7.26443    646.83095  0.027614026  0.027642149            1 
 1953000   0.94284444   -7.2858792    647.18683  0.027615072  0.027634782            2 
 1954000   0.92712524    -7.282074    646.95876  0.027591213  0.027627411            1 
 1955000   0.91765385   -7.2667394     646.8108  0.027570793  0.027619971            2 
 1956000   0.94809627   -7.2533802    649.67339  0.027678655  0.027612672            3 
 1957000   0.94642566   -7.2804557    648.55545  0.027616907  0.027605409            3 
 1958000   0.94237852   -7.2943844    648.08024  0.027582578  0.027598172            2 
 1959000   0.95047323   -7.2825036    649.11558   0.02761254  0.027590829            5 
 1960000   0.94747473   -7.3040002    647.69684  0.027538131  0.027583468            5 
 1961000   0.93277465   -7.2841717    647.91949   0.02753355   0.02757616            5 
 1962000   0.93257337   -7.2648165    648.90306  0.027561292  0.027568975            2 
 1963000   0.93993755   -7.2689973    648.24557   0.02751934   0.02756173            1 
 1964000   0.91800644   -7.2852202    649.07407  0.027540481  0.027554498            2 
 1965000   0.92943434   -7.2703945    650.44499  0.027584605  0.027547239            2 
 1966000   0.93730238   -7.2678644    649.44989  0.027528395  0.027540052            2 
 1967000   0.93050092   -7.3074933    648.97754  0.027494388  0.027532932            5 
 1968000   0.93897169    -7.272811    651.32082  0.027579642  0.027525665            4 
 1969000   0.93652729   -7.2671402    649.83707  0.027502839  0.027518518            2 
 1970000   0.93601986   -7.2800677    649.85579   0.02748967  0.027511363            2 
 1971000    0.9209994   -7.2894699    651.46009  0.027543552  0.027504151            5 
 1972000   0.94477273   -7.2678351    651.25892  0.027521083  0.027496946            3 
 1973000   0.93491888   -7.2657018    651.10698  0.027500717  0.027489826            2 
 1974000   0.94774246   -7.2836456    652.02267  0.027525442  0.027482672            1 
 1975000   0.94715444   -7.3100546    649.91372   0.02742252  0.027475473            2 
 1976000    0.9328538   -7.2706946    651.67379  0.027482869  0.027468211            3 
 1977000   0.93314125   -7.2836711    650.40506  0.027415489  0.027460946            2 
 1978000   0.93563719   -7.2743575    651.73337   0.02745759  0.027453742            3 
 1979000   0.95659414   -7.3042615    651.50528  0.027434111  0.027446505            2 
 1980000    0.9302866   -7.2557493     653.4928  0.027503906  0.027439325            3 
 1981000   0.94880288   -7.2524653    654.05504  0.027513673  0.027432189            5 
 1982000   0.92852936   -7.2544159    654.05416  0.027499754   0.02742501            4 
 1983000   0.92335935   -7.2609682    648.92318  0.027270263  0.027417682            3 
 1984000   0.90444199   -7.2580392     651.9754   0.02738472  0.027410353            5 
 1985000   0.92347988   -7.2687057    652.11734  0.027376882   0.02740312            2 
 1986000   0.91936167   -7.2884156    653.16653  0.027407122   0.02739589            3 
 1987000   0.92324813   -7.2806329    652.63412     0.027371  0.027388689            2 
 1988000   0.94865468   -7.2443149    653.60748  0.027398033  0.027381507            2 
 1989000   0.92373287   -7.2846162    654.23663  0.027410618  0.027374298            4 
 1990000    0.9186692   -7.2785396    652.43687  0.027321477  0.027367032            6 
 1991000   0.93762787   -7.2933666    652.09822   0.02729358  0.027359742            3 
 1992000   0.91536212   -7.2780014     653.2966  0.027330012  0.027352536            3 
 1993000   0.92432179   -7.2791695    653.20545  0.027312488  0.027345225            2 
 1994000   0.90641249   -7.2392089     654.2593  0.027342833  0.027337947            1 
 1995000   0.92202147   -7.2924508    653.20955  0.027285278  0.027330634            1 
 1996000   0.91004653   -7.2829993    653.36501  0.027278098  0.027323329            2 
 1997000   0.92379903   -7.2803894    653.17148  0.027256363  0.027316045            3 
 1998000   0.92095482   -7.2682235    654.81593  0.027311309  0.027308727            3 
 1999000   0.92366027   -7.2734572    653.56107  0.027245334  0.027301431            1 
 2000000   0.92159534   -7.2813678    655.35708  0.027306545  0.027294094            2 
 2001000   0.94529445    -7.285297    652.94412  0.027192409  0.027286754            2 
 2002000   0.92446444   -7.2911908    653.54992  0.027204043  0.027279344            4 
 2003000    0.9175993   -7.2569079    655.27831  0.027262369  0.027272021            4 
 2004000   0.92627436   -7.2954954    653.53039  0.027176081  0.027264662            4 
 2005000   0.93111782    -7.289751    655.78192  0.027256106  0.027257346            7 
 2006000   0.92074651   -7.2934393    654.66862   0.02719627  0.027250047            5 
 2007000   0.90738066   -7.2855814    654.72445  0.027185038  0.027242774            3 
 2008000   0.93898928   -7.2416281    655.90465  0.027220479  0.027235581            5 
 2009000   0.94102176   -7.2685727    657.30176  0.027264881  0.027228295            2 
 2010000   0.92048312   -7.2977514    654.92066  0.027152598   0.02722099            3 
 2011000    0.9306877   -7.2697127    658.59457  0.027291338  0.027213796            4 
 2012000   0.94787098   -7.2535767    658.98627  0.027293997  0.027206633            4 
 2013000   0.93529456   -7.2769656    656.78433  0.027189284  0.027199474            3 
 2014000   0.92172866   -7.2798264     658.4842  0.027246119  0.027192232            4 
 2015000   0.95654044   -7.2817679    658.08077  0.027215913  0.027185038            3 
 2016000   0.93156092   -7.2803652    658.57562  0.027222868  0.027177877            4 
 2017000   0.93024521   -7.2857319    658.16005  0.027192202  0.027170684            2 
 2018000    0.9261417   -7.2788652    657.72039  0.027160571  0.027163467            2 
 2019000   0.92780481   -7.2832459    656.63382  0.027102271  0.027156296            4 
 2020000   0.94532747   -7.2629531    659.09989  0.027190589  0.027149131            4 
 2021000   0.94424846   -7.3181705    657.53128  0.027112456  0.027141885            4 
 2022000   0.92775682   -7.2886164    658.75691  0.027149559   0.02713468            1 
 2023000   0.93044817   -7.2877363    659.29635   0.02715836   0.02712746            3 
 2024000   0.93119953   -7.2586477    661.08479  0.027218577  0.027120333            2 
 2025000   0.92713052   -7.3197619    660.53395  0.027182467  0.027113249            2 
 2026000   0.93840257    -7.270267    658.78483  0.027097106  0.027106011            2 
 2027000   0.92577084   -7.2769523    660.24409   0.02714373  0.027098863            3 
 2028000   0.92575748   -7.2556284    658.89266  0.027074813  0.027091656            3 
 2029000   0.92724686   -7.2986563    659.83902  0.027100337  0.027084545            5 
 2030000   0.93774763   -7.2714277    660.20901  0.027102176  0.027077395            4 
 2031000   0.92587278   -7.2660475    661.08306  0.027124695  0.027070239            2 
 2032000   0.92422764   -7.3206387     659.9471   0.02706476  0.027063056            4 
 2033000   0.91971755   -7.2943285    660.30978  0.027066313  0.027055861            3 
 2034000   0.91353932   -7.2652681    660.63217  0.027066215  0.027048638            3 
 2035000    0.9140792   -7.2976166    660.86428  0.027062419  0.027041417            2 
 2036000   0.91234755   -7.3045022    661.67727  0.027082403   0.02703429            2 
 2037000   0.94023643    -7.295741     660.2063  0.027008931  0.027027015            4 
 2038000   0.93229872    -7.289608    660.20398  0.026995583  0.027019878            1 
 2039000   0.91524956   -7.2888517    662.95542  0.027094794   0.02701277            5 
 2040000   0.92944614   -7.2827698    662.44879  0.027060817  0.027005665            4 
 2041000    0.9311001   -7.3121892    663.19886  0.027078183  0.026998588            2 
 2042000   0.93437196   -7.2582241    664.11595  0.027102349  0.026991522            2 
 2043000   0.93312282    -7.259161    663.12552  0.027048683  0.026984471            4 
 2044000   0.90815487   -7.2904943     663.5312   0.02705199  0.026977385            3 
 2045000   0.93843431   -7.2902362    663.82485  0.027050728  0.026970248            4 
 2046000   0.91466888   -7.2759363    663.52945  0.027025475  0.026963139            3 
 2047000   0.92884414   -7.2830062    662.65239  0.026976567  0.026956021            2 
 2048000   0.93480094    -7.290502    663.70961  0.027006413  0.026948847            3 
 2049000   0.92546849   -7.2911304    662.73899  0.026953757  0.026941713            3 
 2050000   0.92167763   -7.3098239    663.75713  0.026981997  0.026934523            2 
 2051000    0.9424068   -7.2969421    664.60226   0.02700318  0.026927391            3 
 2052000   0.92616746   -7.2820702    664.39081  0.026981433  0.026920255            5 
 2053000   0.91452719   -7.2615428    662.71737  0.026900364  0.026913052            2 
 2054000    0.9132647   -7.2539175    664.83651  0.026973244  0.026905898            2 
 2055000   0.92629237   -7.2977327     663.8899  0.026921732  0.026898775            4 
 2056000   0.91739515   -7.2862951    666.55392  0.027016615  0.026891599            6 
 2057000   0.92030077   -7.2839797    664.80009   0.02693243  0.026884364            3 
 2058000   0.91864428   -7.3323404    663.52957  0.026867896  0.026877103            1 
 2059000   0.92548229   -7.3223062    663.86489  0.026868419  0.026869844            3 
 2060000   0.90414249   -7.2757985    664.31442  0.026873561  0.026862643            2 
 2061000   0.91103804   -7.3069786    663.55482  0.026829808  0.026855414            2 
 2062000   0.93019996    -7.339528    661.30546  0.026725891  0.026848111            2 
 2063000   0.91340559   -7.3019742    664.00276  0.026821892  0.026840791            5 
 2064000   0.92848424   -7.2831699    665.79171  0.026881125  0.026833529            7 
 2065000   0.90979916   -7.2890086    666.27084  0.026887443  0.026826283            5 
 2066000   0.92298283   -7.3001884    663.87378  0.026777742  0.026819075            3 
 2067000   0.89920919   -7.3175702    665.99824  0.026850437  0.026811835            3 
 2068000    0.9377966    -7.318679    664.02775  0.026758049   0.02680457            1 
 2069000    0.9164328   -7.3329791    665.36145  0.026798834  0.026797307            3 
 2070000   0.91628391   -7.3122471    666.00506  0.026811798   0.02679007            3 
 2071000   0.93460028   -7.3124179    666.45106  0.026816798  0.026782799            6 
 2072000   0.92787258   -7.3388733    665.22613   0.02675459   0.02677552            2 
 2073000   0.89427704   -7.2966269    665.77252  0.026763649  0.026768241            3 
 2074000   0.94079283   -7.2983268    665.26747  0.026730451  0.026760999            2 
 2075000   0.92223498   -7.2983295    666.19866  0.026754966  0.026753748            8 
 2076000    0.9219034   -7.3041458    664.89476  0.026689738    0.0267464            1 
 2077000   0.94637721   -7.2561271    667.38658  0.026776865   0.02673911            3 
 2078000    0.9204705   -7.2994102    666.44093  0.026726056  0.026731878            6 
 2079000    0.9189948    -7.302763    664.49114  0.026635046  0.026724552            3 
 2080000   0.92559814   -7.3133263    665.77505   0.02667368  0.026717205            4 
 2081000   0.92161605   -7.3053212    667.32066  0.026722756  0.026709816            2 
 2082000   0.92639809   -7.3114424    667.29245  0.026708792  0.026702458            1 
 2083000   0.91199354   -7.2810576     667.0041  0.026684434  0.026695095            2 
 2084000   0.94025601   -7.2904907    666.39102  0.026647114  0.026687767            5 
 2085000   0.92577707    -7.336827    666.75509  0.026648884   0.02668046            3 
 2086000   0.93728617   -7.3117528    667.71575  0.026674487   0.02667318            2 
 2087000   0.90959854   -7.2627176    668.30717  0.026685321  0.026665924            2 
 2088000   0.90694566   -7.2753731    670.30284  0.026752189  0.026658835            1 
 2089000   0.89160008   -7.3154175    669.73233  0.026716624  0.026651688            2 
 2090000   0.92189319   -7.3181496    669.59273  0.026698275  0.026644491            1 
 2091000   0.94162436   -7.3235641    668.97075  0.026660718   0.02663733            2 
 2092000   0.93823747   -7.3418173    667.27616  0.026580472  0.026630027            2 
 2093000   0.91839313   -7.3327427    668.86335  0.026630966  0.026622695            2 
 2094000   0.91662856     -7.32942    665.40299  0.026480539  0.026615326            4 
 2095000   0.92119284   -7.2938147    669.26937  0.026621693  0.026608032            2 
 2096000   0.90345118   -7.3144915    671.08169  0.026681047  0.026600813            2 
 2097000   0.92199793   -7.3060125    668.92161  0.026582483  0.026593617            2 
 2098000   0.92129057   -7.3235728    667.82677  0.026526326  0.026586327            2 
 2099000   0.91712714   -7.3336346    668.99332  0.026560001  0.026579054            1 
 2100000   0.91384495   -7.3176512    670.68521  0.026614493  0.026571793            4 
 2101000   0.91503241   -7.3010127    671.07161  0.026617151  0.026564549            2 
 2102000   0.92097113   -7.3063264    669.61016  0.026546549  0.026557262            2 
 2103000   0.91747889   -7.3561464    667.95557  0.026468362  0.026549903            2 
 2104000   0.92027516   -7.3117091    670.66003  0.026562897  0.026542498            2 
 2105000   0.91795748   -7.3173754    670.02638  0.026525193  0.026535122            1 
 2106000   0.91775143   -7.2869629    669.49492  0.026491569  0.026527825            5 
 2107000   0.91005049   -7.3409642    668.45697  0.026437944  0.026520489            4 
 2108000   0.92565337   -7.2871217    670.80882  0.026518375  0.026513166            2 
 2109000   0.90660169    -7.307384    671.33754  0.026526693  0.026505925            2 
 2110000   0.91456201    -7.309104    670.37621  0.026476154  0.026498709            6 
 2111000   0.93363629   -7.3442581    671.27763  0.026499196  0.026491463            3 
 2112000   0.91770088   -7.2796044    672.31117  0.026527429  0.026484177            2 
 2113000   0.91710323   -7.3142606    671.69345  0.026490513  0.026477002            2 
 2114000   0.87957368   -7.3539819    670.52051  0.026431745  0.026469743            2 
 2115000   0.91534681   -7.2881111    672.34757  0.026491236  0.026462497            3 
 2116000   0.92243849    -7.299629    672.48562  0.026484153  0.026455343            4 
 2117000   0.91451614   -7.3309517    674.78001  0.026561959  0.026448224            3 
 2118000   0.91366354   -7.3059859    674.79253  0.026549911  0.026441078            2 
 2119000   0.90067899   -7.3355468    674.42582   0.02652296  0.026433953            2 
 2120000   0.94023923   -7.3261702    675.51639  0.026553317   0.02642688            3 
 2121000   0.91710377   -7.3205692    673.30761  0.026454016  0.026419741            6 
 2122000   0.90818563   -7.3023393    674.55516  0.026490542  0.026412588            3 
 2123000   0.92640651   -7.3328447    672.73136  0.026406475   0.02640543            7 
 2124000   0.91358731   -7.3253249    673.30887  0.026416701  0.026398295            3 
 2125000   0.91369787   -7.3203052    672.50637  0.026372799  0.026391071            3 
 2126000   0.89762271   -7.3300554    672.54979  0.026362096  0.026383916            4 
 2127000   0.92053575   -7.3497453    672.25234  0.026338048  0.026376666            2 
 2128000   0.90111378    -7.296518    674.29888  0.026405815  0.026369619            2 
 2129000   0.94255805   -7.2979529    673.79369  0.026373637  0.026362601            4 
 2130000   0.88666684   -7.3083608    675.12847  0.026413477  0.026355484            4 
 2131000   0.92108051   -7.3367661    674.80503  0.026388434  0.026348317            2 
 2132000   0.92327714   -7.3276496    675.50047  0.026403239  0.026341172            3 
 2133000    0.9085186   -7.3429722    673.63773  0.026318086  0.026333946            5 
 2134000   0.89091534    -7.330411    673.58353  0.026303637  0.026326692            1 
 2135000   0.88081346   -7.3308813    676.21702  0.026394107  0.026319396            4 
 2136000   0.89957445   -7.3431037     674.1843  0.026302446    0.0263122            2 
 2137000   0.91061027   -7.3089589    675.37637  0.026336623  0.026305026            3 
 2138000   0.92415972   -7.3130795    675.70826  0.026337241  0.026297915            3 
 2139000   0.89030537    -7.337956    675.30102  0.026309062  0.026290712            3 
 2140000   0.90281528   -7.3441361    674.59705  0.026269356  0.026283462            3 
 2141000   0.90555256   -7.3668184    674.03578   0.02623524  0.026276271            5 
 2142000   0.91038496   -7.3237264     676.6188  0.026323483  0.026269039            2 
 2143000    0.9163519   -7.3211795    676.07959  0.026290231   0.02626185            3 
 2144000   0.90657987    -7.363909    675.11119  0.026240329  0.026254686            2 
 2145000   0.92317415   -7.3181354    676.25746  0.026272629  0.026247481            4 
 2146000     0.892245    -7.333652    675.93378  0.026247817  0.026240272            3 
 2147000   0.91516472   -7.3522783    676.05808  0.026240416  0.026233177            2 
 2148000   0.90240935    -7.321847    677.12385  0.026269547  0.026226083            2 
 2149000   0.90346553   -7.3424523    678.38847  0.026306362   0.02621895            3 
 2150000   0.91808615   -7.3255244    677.15384  0.026246273  0.026211843            4 
 2151000   0.89976642    -7.327541    678.63309   0.02629138    0.0262048            3 
 2152000   0.90197456   -7.3172917    677.90264  0.026250877  0.026197632            5 
 2153000    0.9255468   -7.3501232    676.30968  0.026177027  0.026190446            1 
 2154000   0.90693825   -7.3524511    675.89078  0.026148668  0.026183267            3 
 2155000   0.89893809   -7.3236264    679.49797  0.026276024  0.026176076            3 
 2156000     0.911896   -7.3603972    678.51735  0.026225933  0.026168971            3 
 2157000   0.90953181   -7.3342186    677.86621  0.026188619  0.026161837            2 
 2158000   0.89031573   -7.3497075    679.62407  0.026244365  0.026154732            4 
 2159000   0.91153257   -7.3549117    678.53037  0.026189994  0.026147618            2 
 2160000   0.91480925   -7.3508852    679.29121  0.026207223  0.026140506            5 
 2161000   0.89629471   -7.3408027    679.72339  0.026211761  0.026133381            2 
 2162000   0.91108189   -7.3241756    680.12755  0.026215215  0.026126292            3 
 2163000   0.91592796   -7.3498025    678.67977  0.026147317  0.026119211            3 
 2164000   0.91559575   -7.3371515    679.42809  0.026164051  0.026112071            3 
 2165000   0.91295368   -7.3546526    680.74733  0.026202746  0.026105008            3 
 2166000   0.91675808   -7.3600085    679.62188  0.026147348  0.026097875            2 
 2167000   0.91111582   -7.3552782    679.87912  0.026145175  0.026090794            1 
 2168000   0.90191739   -7.3442124    679.27736  0.026109985  0.026083638            4 
 2169000   0.90382114   -7.3460345    680.43461  0.026142408  0.026076551            5 
 2170000   0.90835105   -7.3468274    679.53517  0.026095821  0.026069412            3 
 2171000   0.89875195   -7.3447666    680.49201  0.026120529  0.026062299            2 
 2172000   0.91559546   -7.3377987    680.04336  0.026091289  0.026055227            4 
 2173000   0.89693193     -7.33778    680.66015  0.026102936  0.026048108            5 
 2174000   0.89827695   -7.3472831    680.96254   0.02610252  0.026040985            3 
 2175000   0.89609282    -7.340471    680.83525  0.026085642  0.026033901            3 
 2176000   0.91506146   -7.3696358    679.31459  0.026015418  0.026026839            5 
 2177000    0.9052124   -7.3410356    682.60019  0.026129237  0.026019805            2 
 2178000   0.90165939     -7.33925    680.20407  0.026025561  0.026012746            1 
 2179000   0.91830234   -7.3315325    683.64634  0.026145263   0.02600563            2 
 2180000   0.91138194   -7.3399797      682.092  0.026073853  0.025998538            4 
 2181000   0.89449643   -7.3773242    680.86161  0.026014887  0.025991434            2 
 2182000   0.87700092    -7.379368    680.36332  0.025983934  0.025984304            5 
 2183000   0.91430413   -7.3594386     683.2558  0.026082448   0.02597715            4 
 2184000   0.90660134   -7.3491765    683.32668   0.02607321  0.025970073            2 
 2185000   0.93092372   -7.3664725    682.96377  0.026047436  0.025963071            2 
 2186000   0.89463357   -7.3483116    682.12677  0.026003613  0.025956092            2 
 2187000   0.90999588   -7.3383481    684.40471  0.026078521  0.025949032            2 
 2188000   0.90337961   -7.3110235    683.25934  0.026022979     0.025942            1 
 2189000   0.89922241   -7.3673698    683.32709   0.02601367  0.025934923            3 
 2190000   0.88782934   -7.3391292    683.77514  0.026018841  0.025927887            4 
 2191000    0.9143112   -7.3423843    683.67047  0.026002984  0.025920796            3 
 2192000   0.90007079   -7.3686495    683.16417  0.025971874  0.025913689            2 
 2193000   0.88936206   -7.3262666     684.6969  0.026018274  0.025906626            2 
 2194000   0.91116311    -7.328301    684.96343  0.026016539  0.025899566            3 
 2195000   0.89939533   -7.3579604    683.17744  0.025936881  0.025892518            3 
 2196000   0.90182165   -7.3482866    684.00206  0.025956362  0.025885491            4 
 2197000   0.89861744   -7.3795126    684.42745  0.025960683  0.025878462            2 
 2198000   0.90573783   -7.3642196     685.4218  0.025986571  0.025871341            3 
 2199000   0.90904233   -7.3578397    685.15947  0.025964812  0.025864256            2 
 2200000   0.91485441   -7.3486916    682.83772  0.025865065  0.025857231            2 
 2201000   0.90559486   -7.3539229    685.34299  0.025948167   0.02585018            3 
 2202000   0.89627558    -7.346874    685.03989  0.025924913  0.025843253            3 
 2203000   0.89609118   -7.3564467    685.69705  0.025938003  0.025836267            2 
 2204000   0.87138194   -7.3374039    687.03955  0.025976994  0.025829316            3 
 2205000   0.89348936    -7.337352    685.52441  0.025907952  0.025822377            2 
 2206000   0.87898731   -7.3342185    686.88748  0.025947699  0.025815407            2 
 2207000   0.87383072   -7.3279359    688.23658  0.025986882  0.025808436            1 
 2208000   0.89733995   -7.3638216    685.64429  0.025877275  0.025801521            3 
 2209000   0.91654299   -7.3659939    687.08367  0.025919861  0.025794552            2 
 2210000    0.8960244   -7.3637036    686.89749  0.025901112  0.025787613            2 
 2211000   0.90624312   -7.3477348    686.51904  0.025875133  0.025780643            4 
 2212000   0.90558901    -7.410879    685.40909   0.02582162  0.025773615            3 
 2213000   0.89206781    -7.369171    687.30539   0.02588136  0.025766666            8 
 2214000   0.91128913   -7.3425189    689.24467  0.025942663  0.025759765            3 
 2215000   0.89109547   -7.3596968    687.74895  0.025874678  0.025752817            2 
 2216000   0.87865012   -7.3452585    687.45879  0.025852091  0.025745898            2 
 2217000   0.88266538   -7.3665608    686.84725  0.025817443  0.025739018            3 
 2218000   0.90638443   -7.3912349    687.68266   0.02583719   0.02573203            4 
 2219000   0.89529632   -7.3508239     688.0296  0.025838576  0.025725074            2 
 2220000   0.88659508   -7.3840459    688.09253  0.025829299  0.025718087            2 
 2221000   0.89965317    -7.328695    689.16015  0.025857727  0.025711108            4 
 2222000   0.88360989   -7.3477096    688.56139  0.025823634  0.025704138            3 
 2223000   0.89819777   -7.3608529    689.68295  0.025854062  0.025697185            4 
 2224000   0.87610132   -7.3903126    690.25631  0.025863921  0.025690198            2 
 2225000     0.871736   -7.3721387    687.18267  0.025737179  0.025683132            3 
 2226000    0.8766061   -7.3820159    687.00587  0.025718998  0.025675998            3 
 2227000   0.90079977   -7.3521502    686.59182  0.025691955  0.025668942            2 
 2228000   0.88051521     -7.35984     687.5166  0.025715013  0.025661859            2 
 2229000   0.89946054   -7.3249818    689.90671  0.025792833  0.025654736            3 
 2230000   0.89052093   -7.3272642    690.67069  0.025809816  0.025647676            3 
 2231000   0.88973853   -7.3942537     689.8634  0.025768094   0.02564058            2 
 2232000    0.9062773   -7.3454541    687.41088  0.025664982  0.025633474            2 
 2233000   0.88742484   -7.3866275    688.35608  0.025688763  0.025626363            3 
 2234000   0.89473247   -7.3865047    688.68846  0.025689662  0.025619236            3 
 2235000   0.88603562   -7.3568684    687.09664  0.025618816  0.025612085            4 
 2236000   0.88310662   -7.3436944    688.16737  0.025647263  0.025604977            2 
 2237000    0.9128155   -7.3742677    688.23933  0.025638479  0.025597864            6 
 2238000   0.88668651   -7.3610882    688.67315  0.025643177  0.025590709            2 
 2239000   0.90824125   -7.3748885     688.0534  0.025608657  0.025583545            3 
 2240000   0.90126899   -7.3613352    686.21736   0.02552892  0.025576377            4 
 2241000   0.90020267   -7.3642346    688.44803  0.025600477   0.02556916            4 
 2242000   0.89215188   -7.3952195    687.69884  0.025561212  0.025561913            3 
 2243000   0.88164495   -7.3437533    687.86029  0.025555814   0.02555473            2 
 2244000   0.89802226   -7.3807253    688.83127  0.025580484  0.025547582            2 
 2245000   0.89843047   -7.3937465    688.37377  0.025552107  0.025540442            4 
 2246000   0.89092005   -7.3718628    687.15071  0.025495351  0.025533332            2 
 2247000   0.91857578   -7.3778221    689.46772  0.025569935  0.025526271            3 
 2248000   0.89214633   -7.3615056    688.57564  0.025525491  0.025519174            2 
 2249000   0.91150041    -7.359752    691.65492  0.025628239   0.02551208            1 
 2250000   0.89727213   -7.3862111    688.61778  0.025504362  0.025504987            1 
 2251000   0.87253819   -7.3454023    692.11209  0.025622393   0.02549791            4 
 2252000   0.89989657   -7.3844396    689.84417  0.025527093  0.025490818            7 
 2253000   0.88976608    -7.361467    690.41813  0.025536993  0.025483699            3 
 2254000   0.89601253   -7.3911731    690.46743  0.025527486  0.025476557            3 
 2255000   0.89426651   -7.4121257    690.44025  0.025515161  0.025469431            2 
 2256000   0.88997563   -7.3769809     688.5666  0.025434641  0.025462232            3 
 2257000   0.87358701   -7.3600118     690.1716  0.025482632  0.025455032            2 
 2258000   0.86536652   -7.3530103     690.1864  0.025471892  0.025447853            2 
 2259000   0.89578638   -7.3884177    688.74539  0.025407459  0.025440687            2 
 2260000    0.8794975   -7.3609096    691.61244  0.025501934  0.025433503            3 
 2261000   0.89735648    -7.390082    689.70594  0.025420387  0.025426282            2 
 2262000   0.89546493   -7.3943761    689.44232  0.025399437  0.025419094            2 
 2263000   0.89815468   -7.3744347    690.86295  0.025440527  0.025411888            2 
 2264000   0.86357784   -7.3681343    691.68887   0.02545969  0.025404792            3 
 2265000    0.9098573   -7.3683709     689.9884  0.025385887  0.025397684            2 
 2266000   0.88508866   -7.3871941    688.12737  0.025306243  0.025390431            3 
 2267000   0.90653267   -7.3886238    691.12337  0.025405211  0.025383203            2 
 2268000    0.8813196    -7.372574    691.36598  0.025402924  0.025376029            4 
 2269000   0.89482741   -7.3560006    693.38814  0.025465996  0.025368875            3 
 2270000    0.8775433    -7.361878    693.50476  0.025459059  0.025361744            3 
 2271000   0.88973857   -7.4002814    692.32491  0.025404554  0.025354598            2 
 2272000   0.88363047   -7.3641265    691.93178  0.025378953  0.025347449            3 
 2273000   0.88618142   -7.3474783    692.76023  0.025398161  0.025340329            8 
 2274000   0.87376342   -7.3623704    692.00698  0.025359388  0.025333194            1 
 2275000   0.88452407   -7.3746725     692.2582  0.025357443  0.025326084            3 
 2276000   0.88265256    -7.386274    692.71457  0.025363011  0.025318862            3 
 2277000   0.89110337   -7.3731693    689.50829   0.02523453   0.02531165            2 
 2278000   0.86632934   -7.4016407      690.371  0.025255012  0.025304417            3 
 2279000   0.89389612   -7.4025679    693.51525  0.025358902  0.025297244            3 
 2280000   0.89433672   -7.3786151    692.68684  0.025317502  0.025290074            4 
 2281000   0.90114629   -7.3804028    693.14586  0.025323172  0.025282976            5 
 2282000   0.89944135   -7.3881895    692.48235  0.025287845  0.025275944           10 
 2283000   0.89755409    -7.411167     693.5133    0.0253144  0.025268901            1 
 2284000   0.89880892   -7.3648153    694.29779  0.025331939   0.02526188            2 
 2285000   0.87601398   -7.3674648    693.85976  0.025304878   0.02525477            2 
 2286000   0.88226344   -7.3912784    692.70731  0.025251797  0.025247693            2 
 2287000    0.8914089   -7.3996105    694.94171  0.025322173  0.025240576            4 
 2288000   0.87918687   -7.3915092    694.89994  0.025309584  0.025233489            2 
 2289000   0.89423584   -7.3875999     694.6341  0.025288849  0.025226398            2 
 2290000   0.88084417   -7.3915197    695.44285  0.025307236   0.02521932            4 
 2291000   0.86804179    -7.387839    694.90353  0.025276572  0.025212245            3 
 2292000   0.88583843   -7.4031892    695.33037  0.025281064  0.025205224            4 
 2293000   0.89088331   -7.3679368    696.04652  0.025296065  0.025198178            2 
 2294000   0.89092832   -7.3850809    695.29701  0.025257811   0.02519123            2 
 2295000   0.89883507   -7.3429641    698.16261  0.025350857  0.025184302            3 
 2296000    0.8791281   -7.3801459    697.43499  0.025313407  0.025177334            2 
 2297000    0.9001845   -7.3820939    694.47962  0.025195168  0.025170393            4 
 2298000   0.87419344   -7.3716067    697.33104  0.025287606   0.02516343            2 
 2299000   0.89225163   -7.3600623      697.678  0.025289184  0.025156524            2 
 2300000   0.87246951   -7.4120372    695.88648  0.025213278  0.025149519            2 
 2301000   0.90110833   -7.3888719    696.79861  0.025235355  0.025142485           11 
 2302000   0.88547705   -7.3825846    697.15811  0.025237406  0.025135486            2 
 2303000   0.87708519   -7.4081461    696.92815  0.025218127  0.025128478            3 
 2304000   0.87051023   -7.3940798    696.03248  0.025174786  0.025121445            2 
 2305000   0.88262496   -7.3806363    697.83075  0.025228877  0.025114492            2 
 2306000   0.87991695   -7.3908581    697.53901  0.025207394  0.025107462            7 
 2307000   0.87951298    -7.389034    696.72876    0.0251672  0.025100431            3 
 2308000   0.86947304   -7.3790221    696.12316  0.025134429  0.025093441            3 
 2309000   0.89461779   -7.3680438    696.77693  0.025147139  0.025086414            2 
 2310000   0.91328629    -7.390264    696.10352   0.02511196  0.025079348            3 
 2311000   0.89904202   -7.4018773    699.85415  0.025236339  0.025072346            4 
 2312000   0.87390185   -7.3792899    698.14235  0.025163724  0.025065297            3 
 2313000   0.88061666   -7.3711045    697.31824  0.025123153  0.025058255            3 
 2314000   0.88455098   -7.3643397    699.62735  0.025195454  0.025051274            2 
 2315000   0.87112793   -7.3877474      698.757   0.02515324  0.025044331            4 
 2316000   0.88418952   -7.3996787    698.76764  0.025142762  0.025037335            4 
 2317000   0.90366192   -7.3928782    699.99043   0.02517589  0.025030344            4 
 2318000   0.87144441   -7.3911087    699.51886  0.025148075  0.025023343            3 
 2319000   0.88998545   -7.3651789    700.68194  0.025179026  0.025016343            3 
 2320000   0.88111476   -7.4291444    699.12377  0.025112205  0.025009351            2 
 2321000   0.87064557   -7.3945995    698.48387   0.02507841  0.025002297            4 
 2322000   0.89827617   -7.4123245    698.77857  0.025078186  0.024995284            6 
 2323000   0.88282856   -7.4017982     698.9633  0.025074017  0.024988271            5 
 2324000   0.89868557   -7.3869114    701.53861  0.025155573  0.024981328            3 
 2325000   0.88249471   -7.3940546    700.94051  0.025123316  0.024974388            2 
 2326000   0.87849987   -7.3658294    699.59355  0.025064257  0.024967422            3 
 2327000   0.86728807   -7.3854632     697.6633  0.024984361  0.024960396            4 
 2328000   0.87689915   -7.4247087     700.4981  0.025075104  0.024953399            3 
 2329000   0.88344783    -7.383579     701.4292  0.025097653  0.024946498            2 
 2330000   0.88121887   -7.4020081    700.60744  0.025057491  0.024939535            3 
 2331000   0.85990609   -7.3883005    700.14245  0.025030117  0.024932582            3 
 2332000   0.88094675   -7.4063978    699.76628  0.025005942  0.024925595            2 
 2333000   0.86299288   -7.4058014    700.45364  0.025019776  0.024918624            2 
 2334000    0.8762784   -7.3818698    702.09564  0.025067682  0.024911676            3 
 2335000   0.87304583    -7.387487    700.74486  0.025008739  0.024904742            1 
 2336000    0.8874744   -7.4219639     700.2121  0.024979028  0.024897855            2 
 2337000   0.88226981   -7.4159831    702.36408  0.025045075  0.024890933            8 
 2338000   0.88741005   -7.4050114     702.6062  0.025042993  0.024883953            2 
 2339000   0.85828261   -7.4010237     700.3435  0.024951671  0.024876994            4 
 2340000   0.86067617   -7.3937387    701.87881  0.024995684  0.024869994            5 
 2341000   0.89141814   -7.4152829    700.41127  0.024932766  0.024863028            4 
 2342000   0.87570606   -7.4013527    701.22819  0.024951188  0.024856062            2 
 2343000   0.88042531   -7.4073531    703.01228  0.025003994  0.024849116            2 
 2344000   0.87618252   -7.4315303    700.87817  0.024917455  0.024842152            3 
 2345000   0.87080065    -7.406196    701.79057  0.024939253   0.02483518            5 
 2346000   0.87471729   -7.3879181    701.08353  0.024903507  0.024828256            3 
 2347000   0.88356932   -7.4306553    700.40161  0.024868684  0.024821276            1 
 2348000   0.86832793   -7.4409862    703.26325  0.024959655  0.024814318            1 
 2349000   0.88547364   -7.4060994    702.71345  0.024929525  0.024807302            3 
 2350000   0.87381007    -7.395701    703.33478   0.02494095  0.024800359            3 
 2351000   0.87890771   -7.4428234    701.90406  0.024879628  0.024793396            6 
 2352000   0.87365813   -7.4037045    702.62353  0.024894541  0.024786425            2 
 2353000   0.87425471   -7.4146828    702.66896   0.02488557   0.02477946            3 
 2354000      0.88478   -7.4103717    702.19668   0.02485828  0.024772481            2 
 2355000   0.87235751   -7.3796652    702.87288  0.024871652  0.024765569            4 
 2356000   0.87591001   -7.4192894    704.74188  0.024927203  0.024758675            3 
 2357000    0.8982505   -7.4016907    703.87196   0.02488587  0.024751796            6 
 2358000   0.86795858   -7.3794086    703.97526  0.024878967  0.024744862            3 
 2359000   0.86843888   -7.4004457    705.02461   0.02490549  0.024737907            5 
 2360000    0.8572117   -7.4422565    702.51106  0.024806182  0.024730946            3 
 2361000   0.87550835   -7.3992399    702.86183  0.024808055  0.024723961            2 
 2362000   0.88185704   -7.4020107    705.31938  0.024884257  0.024717029            3 
 2363000   0.86246031   -7.4330652    704.21513  0.024834784  0.024710116            3 
 2364000   0.88387777   -7.3789587    705.32641  0.024863452    0.0247032            2 
 2365000   0.87184933   -7.4177081    701.97132  0.024734719  0.024696282            1 
 2366000   0.87873984   -7.3729748    705.76151   0.02485776  0.024689376            3 
 2367000   0.86453882   -7.4249514    702.98165  0.024749389  0.024682415            2 
 2368000   0.87716445   -7.4253514    704.14399  0.024779842  0.024675469            2 
 2369000   0.87792086   -7.4034956     704.3778  0.024777607  0.024668588            2 
 2370000   0.88709397   -7.4344635    704.69868  0.024778435  0.024661662            1 
 2371000   0.87229099   -7.4232138    704.79759   0.02477146  0.024654752            2 
 2372000   0.87744389   -7.4083507    705.58093  0.024788537  0.024647849            2 
 2373000   0.86812899   -7.4282835    705.39488  0.024771558  0.024640923            3 
 2374000   0.86056631    -7.399439    705.40188  0.024761369  0.024634013            4 
 2375000   0.87292031   -7.4089521    705.96867  0.024770831  0.024627115            5 
 2376000   0.88007367   -7.4137898    704.99099  0.024726115  0.024620202            3 
 2377000   0.85946335   -7.3992591    707.01817  0.024786782  0.024613336            3 
 2378000   0.87028506   -7.3896679    707.65792  0.024798778  0.024606478            4 
 2379000   0.87352984   -7.3706651    707.87452  0.024795941  0.024599652            3 
 2380000   0.88494993   -7.4270331    707.72272  0.024780207  0.024592856            2 
 2381000   0.84785884    -7.419628    706.61359  0.024730981  0.024586031            5 
 2382000    0.8801019   -7.4367768    707.25174  0.024742924  0.024579105            3 
 2383000   0.86657107   -7.4361379    707.56282  0.024743419  0.024572219            4 
 2384000   0.87559314   -7.4432456    705.49819  0.024660871  0.024565371            4 
 2385000   0.85418949   -7.4349824    708.27671  0.024747614  0.024558572            6 
 2386000   0.88289946   -7.4097688    709.24094  0.024770919  0.024551805            3 
 2387000   0.86515958     -7.42911    706.42563  0.024662255  0.024544973            2 
 2388000   0.86036981   -7.4268845     706.9986  0.024671922  0.024538142            6 
 2389000   0.88607614   -7.3935029    708.14972  0.024701748  0.024531321            3 
 2390000   0.86269979     -7.40762    706.34251    0.0246284  0.024524571            2 
 2391000   0.86236781   -7.4033446    708.61851  0.024697425   0.02451781            2 
 2392000   0.86633263   -7.3957394    708.72756  0.024690899  0.024511067            5 
 2393000   0.86584499   -7.4049114    710.07386  0.024727464  0.024504338            2 
 2394000   0.88813831   -7.3986393    711.53744  0.024768081  0.024497625            3 
 2395000     0.852297    -7.423315    709.15256  0.024674758  0.024490891            3 
 2396000   0.86992915   -7.3913463    710.48647  0.024710854  0.024484196            2 
 2397000   0.86019182   -7.4347091    708.87883  0.024644654  0.024477549            2 
 2398000   0.84511438   -7.4354741    709.62264  0.024660225  0.024470827            3 
 2399000   0.86137341    -7.414398    710.30261  0.024673566  0.024464144            5 
 2400000   0.85579098     -7.40992    710.75571  0.024679018  0.024457472            3 
 2401000   0.88619179   -7.4436908    710.78266  0.024669674  0.024450799            3 
 2402000    0.8742742   -7.3979061    712.30725  0.024712297  0.024444153            3 
 2403000   0.86936394   -7.4719163    708.65255  0.024575272  0.024437467            3 
 2404000   0.86195911   -7.4193763    709.47221  0.024593463  0.024430727            5 
 2405000   0.86308546   -7.4237463     710.8415  0.024630682  0.024424004            6 
 2406000   0.87232051   -7.4451387     708.2246  0.024529808  0.024417287            6 
 2407000   0.86397543   -7.4427667     710.1672  0.024586872  0.024410529            2 
 2408000   0.87560778   -7.3727667     712.7712  0.024666777  0.024403811            3 
 2409000   0.87059085   -7.4511907    711.01918  0.024595931  0.024397108            4 
 2410000   0.86857686   -7.4389781    713.35074  0.024666346  0.024390401            3 
 2411000   0.86976689   -7.4349092    711.48294  0.024591557  0.024383705            2 
 2412000   0.87501933   -7.4300198    709.47218  0.024511891  0.024377047            8 
 2413000   0.85008678   -7.4039221     713.5021  0.024640907  0.024370341            2 
 2414000   0.87357987   -7.4356207     711.2061   0.02455144  0.024363701            3 
 2415000   0.86454245   -7.4252274    712.14401  0.024573637  0.024356977            5 
 2416000   0.86114364   -7.4078596     711.7348  0.024549352  0.024350368            4 
 2417000   0.87266432   -7.4384786     712.7053  0.024572655   0.02434376            5 
 2418000   0.87482484   -7.4137504    713.88571  0.024603175  0.024337129            3 
 2419000   0.86495071   -7.4418542    712.53196  0.024546368  0.024330489            3 
 2420000    0.8786169   -7.4369523    714.06721  0.024589091  0.024323833            5 
 2421000   0.85454638   -7.4204009    712.57109  0.024527437  0.024317156            3 
 2422000   0.84769048     -7.40826    712.29922  0.024507955  0.024310437            4 
 2423000   0.86272227   -7.4087132    712.08782   0.02449057  0.024303747            7 
 2424000   0.86661927    -7.443073    713.02253  0.024512601  0.024297053            5 
 2425000   0.85461381   -7.4257845    712.30688    0.0244779  0.024290366            2 
 2426000   0.87181964   -7.4398904    713.03679  0.024492882  0.024283641            4 
 2427000   0.84729103    -7.403169    713.72761   0.02450651  0.024276913            3 
 2428000   0.88208241   -7.4479964      714.748  0.024531439  0.024270289            3 
 2429000   0.83747308   -7.4229289    712.69053  0.024450752  0.024263665            8 
 2430000   0.86704255   -7.4276575    712.51653  0.024434723  0.024256991            2 
 2431000   0.86467856    -7.415116    714.31643  0.024486371  0.024250352            2 
 2432000   0.86267232   -7.4051243    713.45199  0.024446683  0.024243674            5 
 2433000   0.86461034   -7.4424548    714.53666  0.024473786   0.02423701            2 
 2434000   0.86825291   -7.4282111    714.98335  0.024479025  0.024230352            3 
 2435000   0.86503061   -7.4290583    713.56861  0.024420555  0.024223704            1 
 2436000   0.86487791   -7.4177543    714.48774  0.024441973  0.024217063            1 
 2437000   0.88250204   -7.4532453    714.57265  0.024434846  0.024210442            4 
 2438000   0.87521669   -7.4419644     712.9796  0.024370372  0.024203803            4 
 2439000   0.85945531   -7.4740959    714.25657   0.02440401  0.024197116            2 
 2440000   0.87116109   -7.4669027    714.31137   0.02439588  0.024190446            3 
 2441000   0.83518922   -7.4564858    715.99864  0.024443488  0.024183747            6 
 2442000   0.86652827   -7.4830251    714.91666  0.024396555  0.024177031            8 
 2443000   0.87556762   -7.4260856    714.92344    0.0243868  0.024170329            2 
 2444000   0.86567642   -7.4759748    714.82357  0.024373417  0.024163629            6 
 2445000   0.86155381   -7.4234859    714.14487  0.024340316  0.024156961            3 
 2446000   0.87183326   -7.4493317    714.76654  0.024351545  0.024150298            2 
 2447000   0.86180858   -7.4573684    714.79331  0.024342505  0.024143624            3 
 2448000   0.83987282   -7.4689786    716.92737  0.024405207  0.024136973            3 
 2449000   0.86196805   -7.4657656    714.27068  0.024304841  0.024130271            2 
 2450000   0.85390326   -7.4862574    715.02143  0.024320457  0.024123608            2 
 2451000   0.84065597   -7.4524127    714.96176  0.024308505  0.024116966            5 
 2452000   0.85222039   -7.4251785    714.15369  0.024271129  0.024110326            2 
 2453000   0.85905552   -7.4441482    716.99156  0.024357642  0.024103655            2 
 2454000    0.8607332   -7.4407882    717.94303  0.024380027  0.024097043            2 
 2455000   0.86077596   -7.4452148    716.57541  0.024323673  0.024090395            3 
 2456000   0.86686044   -7.4502029    716.50857  0.024311502  0.024083801            2 
 2457000   0.87471348   -7.4570659    717.76004  0.024344052  0.024077171            3 
 2458000   0.86421691   -7.4467302    716.23594  0.024282477  0.024070545            3 
 2459000   0.87449564   -7.4305454    717.96949   0.02433135  0.024063956            2 
 2460000   0.87242504   -7.4767225    716.72013  0.024279137  0.024057351            4 
 2461000   0.84649152   -7.4485934    717.59358  0.024298848   0.02405071            3 
 2462000   0.85213855    -7.443703    719.16305  0.024342101  0.024044115            2 
 2463000   0.85421817   -7.4058359    719.33146  0.024337916  0.024037552            3 
 2464000   0.83610496   -7.4543085    718.72396  0.024307493  0.024030966            3 
 2465000   0.85837017   -7.4355998     719.7184  0.024331251  0.024024373            4 
 2466000   0.84795064   -7.4502582    718.55469  0.024282059  0.024017824            6 
 2467000   0.85780787   -7.4151014    718.71203  0.024277531  0.024011278            4 
 2468000   0.87599862   -7.4577215    719.48167  0.024293682  0.024004759            6 
 2469000   0.84426178   -7.4620877    719.35069  0.024279421  0.023998163            3 
 2470000   0.86946838   -7.4463416    721.26449   0.02433416  0.023991643            3 
 2471000   0.84219358   -7.4525865    719.08842  0.024250925  0.023985155            2 
 2472000   0.83647185   -7.4586716    719.86801  0.024267395  0.023978656            3 
 2473000   0.86417399   -7.4161881    719.92345   0.02425945   0.02397214            4 
 2474000   0.85507821   -7.4625757    719.38253  0.024231424  0.023965597            4 
 2475000    0.8449942     -7.46845    722.36174  0.024321944  0.023959064            2 
 2476000   0.87284545   -7.4644173    720.92596  0.024263798  0.023952522            3 
 2477000   0.87614457   -7.4662372    721.17317  0.024262319  0.023946061            3 
 2478000   0.85581589   -7.4617347    721.15068  0.024251772  0.023939545            2 
 2479000   0.86929535   -7.4619201    721.59711  0.024256996  0.023933056            4 
 2480000   0.85008291   -7.4445722    720.29853   0.02420358  0.023926581            5 
 2481000   0.84306297   -7.4400396    719.16457  0.024155736    0.0239201            4 
 2482000   0.86221377   -7.4362931    722.76765  0.024266977   0.02391367            4 
 2483000   0.86340846   -7.4373217     723.5639  0.024283927   0.02390722            4 
 2484000   0.85302254   -7.4680721    720.51996  0.024172033  0.023900746            2 
 2485000   0.86119923      -7.4696    721.12451  0.024182579  0.023894289            2 
 2486000   0.82656456   -7.4611313    721.81483  0.024195992  0.023887847            4 
 2487000   0.85310588   -7.4754872    722.04246   0.02419389  0.023881393            2 
 2488000   0.82844214   -7.4540936     722.2554  0.024191298  0.023874983            4 
 2489000   0.84627763   -7.4410757    722.36416   0.02418522  0.023868575            2 
 2490000   0.85851849   -7.4648639    721.14719  0.024134779  0.023862146            9 
 2491000   0.83609796   -7.4582485    722.48939  0.024169992  0.023855688            4 
 2492000   0.84613695   -7.4861487    720.26449  0.024085891  0.023849193            6 
 2493000   0.85077457   -7.4521102    722.43731   0.02414886  0.023842729            8 
 2494000   0.83039721   -7.4582524     722.8682  0.024153575  0.023836301            5 
 2495000   0.85437718   -7.4556788    724.91646  0.024212307  0.023829921            5 
 2496000   0.84491456   -7.4378959    725.38989  0.024218413  0.023823579            1 
 2497000   0.86622582   -7.4935404    723.83794   0.02415692  0.023817187            4 
 2498000   0.87902704   -7.4678559     723.5159  0.024136506  0.023810763            3 
 2499000   0.85184793   -7.4829236    721.42997  0.024057289  0.023804335            4 
 2500000   0.85775192    -7.472235    721.64441  0.024054814  0.023797901            6 
 2501000   0.86572025   -7.4615394    722.52703  0.024074605  0.023791411            3 
 2502000   0.84629013   -7.4894644    724.81281  0.024141114  0.023784953            4 
 2503000   0.83993482   -7.4635451    722.01623  0.024038362  0.023778508            5 
 2504000   0.84580339   -7.4403653    724.44857   0.02410971    0.0237721            4 
 2505000   0.86461084   -7.4469222    724.00756  0.024085415  0.023765696            3 
 2506000   0.87388526   -7.4876271    723.39875  0.024055558   0.02375925            3 
 2507000   0.82959613   -7.4392461    724.07322  0.024068383  0.023752768            4 
 2508000    0.8512864   -7.4442915    723.73237   0.02404746  0.023746325            3 
 2509000   0.84202271   -7.4950249    723.62671  0.024034367  0.023739848            2 
 2510000   0.85291251   -7.4344855    724.46695  0.024052688  0.023733437            3 
 2511000   0.86631071   -7.4611325     723.2641  0.024003189  0.023727004            4 
 2512000   0.85719758   -7.4848724    723.66979  0.024007092  0.023720516            6 
 2513000   0.86405238   -7.4790749     723.9371  0.024006403  0.023714036            2 
 2514000   0.83468469   -7.4672998    724.18419  0.024005045   0.02370757            7 
 2515000   0.85494787   -7.4282888    725.44351  0.024037227  0.023701141            3 
 2516000   0.85047427   -7.4559896    725.71753  0.024036749  0.023694734            5 
 2517000   0.84336677   -7.4825543    724.44005  0.023984904  0.023688353            5 
 2518000   0.84884357    -7.447807     723.9166  0.023958055  0.023681895            3 
 2519000   0.85712598   -7.4644333    723.71394   0.02394184  0.023675474            2 
 2520000   0.84590675   -7.4775992    724.48985  0.023957998  0.023669042            3 
 2521000   0.84870857    -7.471856    724.85668   0.02396062  0.023662624            5 
 2522000   0.85339296    -7.447116    725.58785  0.023975279   0.02365621            7 
 2523000   0.85338353   -7.4755858    726.85649  0.024007679   0.02364984           11 
 2524000   0.84322659   -7.4667862    726.55324  0.023988155  0.023643459            7 
 2525000    0.8338725   -7.4648862    725.96516  0.023959246  0.023637059            4 
 2526000   0.85020808   -7.5050321    724.52619  0.023902289  0.023630634            3 
 2527000    0.8572587   -7.4887265    726.13001   0.02394572  0.023624202            4 
 2528000   0.84214739   -7.4581041    727.15223  0.023969944  0.023617769            1 
 2529000   0.86197066    -7.467615    726.63187   0.02394332  0.023611332            3 
 2530000   0.86313458   -7.4944061    726.29428  0.023922736  0.023604925            3 
 2531000   0.83512147   -7.4811364    727.22245  0.023943845  0.023598492            3 
 2532000   0.82935768   -7.4670856    726.09055  0.023897135  0.023592095            2 
 2533000   0.81872725    -7.444527    727.26895  0.023926469    0.0235857            5 
 2534000   0.84341586   -7.4625799    726.42485  0.023889268  0.023579335            5 
 2535000   0.84478632   -7.4552704    727.75666  0.023923624  0.023572975            4 
 2536000   0.85075582   -7.4858869    728.99019  0.023954725  0.023566625            2 
 2537000    0.8516675   -7.4709883    726.08277  0.023849782  0.023560265            5 
 2538000   0.82809708   -7.4634936    727.58979  0.023889867  0.023553938            2 
 2539000   0.83431745   -7.5198734    726.99662  0.023860989  0.023547574            2 
 2540000   0.82811153   -7.4670503    729.00875   0.02391761  0.023541137            2 
 2541000    0.8389606    -7.485986    727.82684  0.023869436   0.02353472            3 
 2542000   0.85366247   -7.4662694    727.91554  0.023862954  0.023528369            2 
 2543000   0.82672885    -7.481003    728.46855  0.023871692  0.023522027            4 
 2544000   0.84036718   -7.4650438    728.93562  0.023877608  0.023515709            3 
 2545000   0.84991066   -7.4732859    728.06992   0.02383988    0.0235094            4 
 2546000   0.83490739   -7.4652507    728.74835  0.023852722  0.023503109            4 
 2547000   0.82987379   -7.4800022    729.82186   0.02387848  0.023496785            3 
 2548000    0.8576982   -7.4856224    730.63531  0.023895713  0.023490409            2 
 2549000   0.85097684   -7.4955856    728.76773  0.023825282  0.023484077            4 
 2550000    0.8652778   -7.5164429    730.33515  0.023867162  0.023477735            2 
 2551000    0.8322828   -7.4718259    730.49522  0.023863035  0.023471468            4 
 2552000   0.83556467   -7.4760721    727.85621  0.023767509  0.023465154            3 
 2553000   0.84949881   -7.4811496    730.50268  0.023844584   0.02345882            4 
 2554000   0.85148514   -7.4803172    732.27679  0.023893135  0.023452464            4 
 2555000   0.84002329   -7.4996592    729.57943  0.023795807  0.023446142            2 
 2556000     0.861435   -7.4745444    729.49085  0.023783609  0.023439832            2 
 2557000   0.83613164   -7.4786682    729.12931  0.023762525  0.023433563            2 
 2558000   0.84037549   -7.4941932    731.00131   0.02381422  0.023427242            3 
 2559000   0.85237472   -7.4927639    729.94845  0.023770628  0.023420924            2 
 2560000   0.83489206   -7.4728996    731.34259  0.023806725  0.023414647            3 
 2561000   0.84686401   -7.4906242    732.21578  0.023825842  0.023408368            3 
 2562000   0.83411743   -7.4903479    730.57914  0.023763308  0.023402084            3 
 2563000   0.83348209   -7.5063422    729.61546  0.023722703  0.023395799            4 
 2564000    0.8435436   -7.4759814    729.69363  0.023715992  0.023389525            3 
 2565000   0.84366454    -7.492665    730.94528   0.02374741  0.023383285            3 
 2566000   0.87095878   -7.4624185    731.46219  0.023754942  0.023377034            1 
 2567000   0.84840182    -7.462613    731.25925  0.023739101  0.023370822            5 
 2568000   0.83059731   -7.4540594    733.02262  0.023787079  0.023364597            2 
 2569000   0.84201608   -7.5003679    732.56449  0.023762959  0.023358361            3 
 2570000   0.84599019   -7.4910592    731.21832  0.023710062  0.023352116            1 
 2571000   0.85188976   -7.4929037    732.42966  0.023740103  0.023345817            2 
 2572000   0.84315786   -7.4879107    732.60173  0.023736448  0.023339503            2 
 2573000   0.84813072   -7.5312533    730.60231  0.023662466  0.023333197            4 
 2574000    0.8506218   -7.5196493    730.94718  0.023664439  0.023326871            4 
 2575000   0.84705501    -7.482505    732.37331  0.023701402  0.023320559            3 
 2576000   0.85231185   -7.5069349    731.76447  0.023672505   0.02331433            4 
 2577000   0.83467416    -7.512768    732.84477  0.023698253    0.0233081            5 
 2578000   0.83538853   -7.4739427    733.61223  0.023713868  0.023301816            5 
 2579000   0.83893286   -7.5302116    731.93915  0.023650612   0.02329553            5 
 2580000   0.84615461   -7.5219489    733.70056  0.023698338  0.023289275            3 
 2581000   0.84537425   -7.5277819    731.78043  0.023627161  0.023283009            7 
 2582000   0.82820737   -7.4733389    733.57172  0.023675824  0.023276792            2 
 2583000   0.83694961    -7.478121    734.89896  0.023709477  0.023270585            2 
 2584000   0.85022202   -7.5008192     734.7443  0.023695314  0.023264389            1 
 2585000   0.84082312   -7.4569514    734.10602  0.023665571  0.023258192            3 
 2586000   0.82417269   -7.4877561     732.9577  0.023619415  0.023251978            4 
 2587000   0.82587103   -7.4891789    733.65171  0.023632641  0.023245767            3 
 2588000   0.83295149   -7.4830542    734.72685  0.023658129   0.02323956            4 
 2589000    0.8232865   -7.4995617    734.21415  0.023632488  0.023233285            4 
 2590000    0.8309808   -7.5213255    734.89781  0.023645361  0.023226989            2 
 2591000   0.83342826   -7.4778747    734.21588  0.023614302  0.023220716            3 
 2592000   0.84644415   -7.4896476    734.10111  0.023601502   0.02321449            4 
 2593000   0.84198096   -7.4943945     733.7699  0.023581755  0.023208277            4 
 2594000   0.83830865   -7.4892414    734.17019  0.023585524  0.023202051            2 
 2595000   0.81421965   -7.4980246    733.07279  0.023541194  0.023195849            3 
 2596000   0.84847661   -7.4966401    732.68299  0.023519613  0.023189599            5 
 2597000   0.86344161   -7.5061948    735.06313  0.023586931  0.023183397            1 
 2598000   0.83156304   -7.4883166     735.0292  0.023576764  0.023177226            2 
 2599000   0.83242891   -7.4949045    736.46791  0.023613823  0.023171066            3 
 2600000   0.83494579   -7.4944858    734.90523  0.023554655  0.023164859            3 
 2601000   0.83568356   -7.4765364    736.70426  0.023603238  0.023158699            4 
 2602000   0.84699086   -7.4775362    735.66994  0.023561041  0.023152554            3 
 2603000   0.85175782   -7.5088277    735.46936  0.023545568  0.023146406           12 
 2604000   0.81845236   -7.4978545    737.33294  0.023596164  0.023140263            2 
 2605000   0.83670445   -7.4828457    735.19673  0.023518769  0.023134146            4 
 2606000   0.83950839   -7.5242049    735.73563  0.023526977  0.023127974            3 
 2607000   0.85385737   -7.5138689     735.5522  0.023512089  0.023121798            2 
 2608000   0.83717197   -7.5244021    733.38475  0.023433817  0.023115578            5 
 2609000    0.8386244   -7.5140312    734.14875  0.023449238  0.023109302            3 
 2610000    0.8380175   -7.5168418     734.8752  0.023463448  0.023103048            3 
 2611000    0.8181323   -7.4971534     734.3835  0.023438769  0.023096829            3 
 2612000   0.85546311    -7.486399    736.09044  0.023484253  0.023090584            2 
 2613000   0.81644044   -7.4959086    736.43777  0.023486343  0.023084341            2 
 2614000   0.83712667   -7.5231421    735.08361  0.023434188  0.023078087            2 
 2615000   0.83382377   -7.5417822    735.27906  0.023431455  0.023071799            5 
 2616000   0.83200072   -7.4882846    736.40889  0.023458489  0.023065572            4 
 2617000   0.84206278    -7.486589    737.97679  0.023499452  0.023059415            3 
 2618000   0.80705758   -7.5152751    735.17833  0.023401398  0.023053215            3 
 2619000   0.83672602   -7.5032144    737.91469  0.023479531  0.023047013            8 
 2620000   0.83814217   -7.4916681    735.22295  0.023384954  0.023040844            5 
 2621000   0.85845109   -7.5131627    736.62135  0.023420493  0.023034624            3 
 2622000   0.82928161   -7.5451765    736.41344  0.023404953   0.02302842            2 
 2623000   0.83826276    -7.486602    737.34864  0.023425741  0.023022207            5 
 2624000   0.82324155   -7.5053128    737.42292  0.023419173  0.023016011            3 
 2625000   0.84488556   -7.5191986    735.10518  0.023336672  0.023009828            3 
 2626000   0.81822976   -7.5048269    737.36637  0.023399542  0.023003646            3 
 2627000   0.82607438     -7.45618     739.6462  0.023462955  0.022997511            3 
 2628000   0.84925084   -7.5071548    738.78688  0.023426778  0.022991337            2 
 2629000   0.83018548   -7.5068542    738.79548   0.02341814   0.02298518            5 
 2630000   0.84228933   -7.4775611    737.11204  0.023355895  0.022978989            5 
 2631000   0.84408634   -7.5323875    737.70952  0.023365942  0.022972797            1 
 2632000   0.85296113   -7.5110718    739.32898  0.023408339  0.022966644            3 
 2633000   0.82793736    -7.478676    738.89411  0.023385685  0.022960488            4 
 2634000   0.80371773    -7.514167    740.01968  0.023412417  0.022954393            8 
 2635000   0.84484578   -7.4903857    739.83514  0.023397696  0.022948266            4 
 2636000   0.81363957   -7.4581138    742.04169  0.023458577  0.022942181            4 
 2637000   0.83252255   -7.4580041    739.58008   0.02337189  0.022936104            4 
 2638000   0.82325934   -7.4962456    738.91328  0.023341966  0.022930047            5 
 2639000   0.83163003   -7.5062763    739.85552  0.023362875  0.022923977            2 
 2640000   0.82039297   -7.5246513    739.70982  0.023349426  0.022917889            3 
 2641000   0.82256597   -7.4995782    739.08784  0.023320959  0.022911838            3 
 2642000   0.83504229   -7.4908271    738.16399  0.023282992  0.022905762            3 
 2643000   0.83469665   -7.5300987    739.64876  0.023320998  0.022899634            3 
 2644000   0.82284648   -7.5040737    740.25129  0.023331168   0.02289353            4 
 2645000   0.82689945   -7.4887112    739.52284  0.023299396  0.022887411            3 
 2646000   0.83781426   -7.4846254    742.69418  0.023390469    0.0228813            3 
 2647000   0.80780072   -7.5014632     740.7184  0.023319431  0.022875206            3 
 2648000    0.8359737   -7.5051458    740.20189   0.02329437  0.022869106            2 
 2649000   0.80471408   -7.5159596    740.74155  0.023302553  0.022863022            4 
 2650000   0.81987426   -7.4986147    739.94336  0.023268659  0.022856921            3 
 2651000   0.83157958   -7.5337396     740.7666   0.02328576   0.02285081            2 
 2652000   0.84975313   -7.5172105    738.22045  0.023196972  0.022844657            4 
 2653000   0.83725347   -7.5348296    739.88979  0.023240664  0.022838519            2 
 2654000   0.82720674     -7.52162    739.30596  0.023213576  0.022832404            3 
 2655000    0.8457187   -7.5177789    738.77042  0.023188023   0.02282631            3 
 2656000   0.81941119   -7.5158675    741.68939  0.023270877  0.022820232            4 
 2657000   0.82880756   -7.5223775    740.08965  0.023211945  0.022814141            5 
 2658000   0.82688404   -7.4942565    741.49577  0.023247297  0.022808041            2 
 2659000   0.83264159   -7.5052538    741.71106  0.023245301  0.022801961            7 
 2660000   0.84726955   -7.5230145    739.36072   0.02316293  0.022795891            3 
 2661000   0.82246297   -7.5107014    742.32172  0.023246954  0.022789807            6 
 2662000   0.83209132   -7.5155577    740.98272  0.023196304  0.022783749            4 
 2663000   0.82066436   -7.5390658    742.55887  0.023236916  0.022777678            2 
 2664000   0.83601786   -7.5243953    741.40327  0.023192044  0.022771587            4 
 2665000   0.81255212   -7.4953134    743.08667  0.023235981  0.022765525            5 
 2666000    0.8301406   -7.5135991    742.54671  0.023210387  0.022759474            2 
 2667000   0.81911492   -7.5366609    743.14999  0.023220535  0.022753427            3 
 2668000   0.83256252   -7.5201987    741.33915  0.023155271  0.022747336            5 
 2669000   0.83757694   -7.5158858    742.07844  0.023169678  0.022741277            2 
 2670000   0.82166885   -7.5089847    742.81474  0.023183981  0.022735194            4 
 2671000   0.82052948   -7.5131747    742.23963  0.023157358  0.022729092            4 
 2672000   0.82849101   -7.5270397    744.75556  0.023227157  0.022723045            2 
 2673000   0.82307865   -7.5182962    743.03015  0.023164676  0.022716981            3 
 2674000   0.81798225   -7.5453929    741.14732  0.023097336  0.022710893            5 
 2675000   0.83114907   -7.5107876    742.51462  0.023131297  0.022704816            4 
 2676000   0.81582456   -7.5199903    743.65485   0.02315816  0.022698704            6 
 2677000   0.82036737    -7.517248    742.99633   0.02312901  0.022692582            3 
 2678000   0.83314178     -7.54338    742.39734  0.023101735  0.022686444            6 
 2679000   0.83841486   -7.5259025    741.71846  0.023071994  0.022680304            3 
 2680000   0.82429609   -7.5160779    743.20561  0.023109627  0.022674136            5 
 2681000   0.82693564   -7.5236516    743.44262  0.023108374   0.02266799            2 
 2682000   0.82735804   -7.4929782    744.05796  0.023118878  0.022661863            2 
 2683000   0.84755732    -7.485782    744.22987    0.0231156  0.022655748            2 
 2684000   0.82685201    -7.518734    742.02591  0.023038559  0.022649578            2 
 2685000   0.82199253   -7.5094496    742.29419  0.023038305  0.022643388            5 
 2686000   0.81686902   -7.5367804    741.09472  0.022992514  0.022637211            3 
 2687000   0.80674625   -7.5208762    742.65217  0.023032259   0.02263104            2 
 2688000   0.83706469   -7.5378153    742.54137  0.023020256  0.022624853            3 
 2689000   0.83015358   -7.5186401    742.47585  0.023009664  0.022618694            1 
 2690000   0.80839033   -7.5169163     743.9865  0.023047909  0.022612544            2 
 2691000   0.82147343   -7.4892598    744.92691  0.023068466   0.02260637            4 
 2692000   0.84277949   -7.5409992    742.71305  0.022991365  0.022600182            2 
 2693000   0.82808621   -7.5239184    742.41302  0.022973543   0.02259401            2 
 2694000   0.84024624   -7.5025979    742.89168  0.022979822  0.022587822            2 
 2695000   0.84025494   -7.5469634    743.51292  0.022990505  0.022581663            5 
 2696000   0.82103125   -7.5257166    743.43113  0.022979449  0.022575488            2 
 2697000   0.83135293   -7.5565019    741.55231  0.022912876  0.022569313            8 
 2698000   0.82861432   -7.5283098    743.66575  0.022969661  0.022563115            4 
 2699000   0.81415843   -7.5281677    742.28703  0.022918582   0.02255694            6 
 2700000   0.83198112   -7.5522914    744.50141  0.022978439  0.022550767            2 
 2701000   0.82075987   -7.5431716    744.63921  0.022974183  0.022544589            4 
 2702000   0.81047915   -7.5112718    744.71302  0.022967956  0.022538421            6 
 2703000   0.81918825   -7.5593022     743.3215  0.022916559  0.022532278            6 
 2704000   0.82429335   -7.5149674    742.09228  0.022870201  0.022526118            8 
 2705000   0.83186865   -7.5600963    744.10769  0.022923835   0.02251998            3 
 2706000   0.82749549   -7.5664392    744.13147  0.022916096  0.022513827            5 
 2707000   0.83027416   -7.5274602    746.08482  0.022967763  0.022507674            4 
 2708000   0.83091467   -7.5202353    745.54775  0.022942755   0.02250157            4 
 2709000   0.82116988    -7.532104    743.98573  0.022886235  0.022495492            2 
 2710000   0.80258035   -7.5034064    745.35071  0.022919763  0.022489419            6 
 2711000   0.81829824   -7.5745417    746.08051  0.022933743  0.022483311            4 
 2712000   0.81864889   -7.5108622     745.8256  0.022917453  0.022477204            3 
 2713000   0.81725104   -7.5557188    744.79205  0.022877259  0.022471106            1 
 2714000   0.80614045   -7.5480214     746.2986  0.022915088  0.022465004            3 
 2715000   0.80622037   -7.5252936     747.1899  0.022934006  0.022458912            6 
 2716000   0.84169544   -7.4975073    748.87033  0.022977121   0.02245285            3 
 2717000   0.81932673   -7.5390666     746.6779   0.02290142  0.022446833            2 
 2718000   0.80296097   -7.5108127    747.23941   0.02291021   0.02244081            4 
 2719000   0.82510838   -7.5469946     747.0304  0.022895378  0.022434745            3 
 2720000   0.82608067   -7.5543282    745.97754  0.022854704  0.022428728            2 
 2721000   0.82401431   -7.5212299     743.8718  0.022781814  0.022422661            4 
 2722000   0.80766273   -7.5213196    747.75345   0.02289228  0.022416616            4 
 2723000   0.81111519   -7.5121895    746.88007  0.022857145  0.022410568            2 
 2724000   0.81575436     -7.53904    747.04467  0.022853789  0.022404528            5 
 2725000   0.81735871    -7.525322    746.91503  0.022841438    0.0223985            4 
 2726000   0.81507336   -7.5543871     746.5438  0.022821711  0.022392416            4 
 2727000    0.8269333   -7.5599911    743.97248  0.022734766  0.022386314            3 
 2728000   0.81729583   -7.5511226    748.11038  0.022852834  0.022380255            4 
 2729000   0.80811906   -7.5466091    747.51619  0.022826316  0.022374211            3 
 2730000   0.82344528   -7.5524985     746.5039  0.022787054  0.022368135            2 
 2731000   0.81624507   -7.5590908    746.27749  0.022771802  0.022362032            4 
 2732000    0.8232213    -7.561024      748.357  0.022826897   0.02235594            4 
 2733000   0.81390672   -7.5427939    746.83518  0.022772142  0.022349844            3 
 2734000   0.82262967   -7.5334874    748.73427  0.022821698  0.022343809            2 
 2735000   0.81310783   -7.5680189    745.46242  0.022713663  0.022337743            4 
 2736000   0.80135436   -7.5503405     746.9301  0.022750064  0.022331663            3 
 2737000   0.81247618   -7.5611937    748.92907  0.022802615  0.022325612            3 
 2738000   0.82059227   -7.5527682    749.38642  0.022808206  0.022319566            3 
 2739000   0.80206784   -7.5302991    748.79582   0.02278191  0.022313552            2 
 2740000   0.80706796   -7.5342014    749.06421  0.022781758  0.022307582            2 
 2741000   0.81895849   -7.5298114    749.30884  0.022780884  0.022301578            3 
 2742000   0.79871863   -7.4848708    749.60798  0.022781667   0.02229562            4 
 2743000   0.81877204   -7.5625705    748.77859  0.022748165  0.022289588            2 
 2744000   0.80759537   -7.5283856    750.52927  0.022793042  0.022283571            3 
 2745000   0.83330604   -7.5406586    749.55682  0.022755216  0.022277566            2 
 2746000    0.8094612   -7.5424436    750.75961  0.022783431   0.02227157            5 
 2747000   0.79779325   -7.5632993    749.57644  0.022739244  0.022265524            7 
 2748000   0.81896831   -7.5225435    750.01383  0.022744233   0.02225949            2 
 2749000   0.82044695   -7.5680187    749.03769  0.022706369  0.022253436            8 
 2750000   0.82681913   -7.5451031    750.80488  0.022751663  0.022247381            5 
 2751000   0.81292272   -7.5453301    749.60766  0.022707126  0.022241331            2 
 2752000   0.80390497   -7.5460768    748.50815  0.022665581  0.022235283            3 
 2753000   0.78967296    -7.541305    748.26799  0.022650079  0.022229249            3 
 2754000   0.81150675   -7.5315698    748.88384  0.022660489  0.022223199            3 
 2755000   0.82068121   -7.5282515     749.2883  0.022664498  0.022217156            4 
 2756000   0.80431114    -7.566953    747.93073  0.022615225  0.022211087            2 
 2757000   0.79813043   -7.5849079    748.06879  0.022611195  0.022205012            4 
 2758000   0.82147747   -7.5710951    750.53881  0.022677629  0.022198936            3 
 2759000   0.81835871   -7.5295908    748.04594  0.022594114  0.022192895            4 
 2760000   0.78557882    -7.548987    748.18389  0.022590093  0.022186873            3 
 2761000   0.80902775    -7.521867    748.44507  0.022589795  0.022180806            5 
 2762000   0.79513712   -7.5483047    749.53122  0.022614386  0.022174707            2 
 2763000   0.80108268   -7.5334542    749.67293  0.022610476  0.022168628            4 
 2764000   0.80314278   -7.5490565    749.07806   0.02258436  0.022162559            4 
 2765000   0.80417882   -7.5636342    748.76109  0.022566639  0.022156479            2 
 2766000   0.80350202   -7.5403596    747.80686  0.022529732  0.022150364            4 
 2767000    0.8113467   -7.5489533    749.47747  0.022571903  0.022144258            2 
 2768000   0.80930316   -7.5779612    750.51972  0.022595126  0.022138153            3 
 2769000   0.80781919   -7.5519864    749.36374  0.022552177   0.02213203            3 
 2770000   0.82049545   -7.5450827    747.45836  0.022486714  0.022125893            2 
 2771000   0.80897797   -7.5592884    749.40385  0.022537106  0.022119759            5 
 2772000   0.82009686   -7.5901459    749.40508  0.022529013  0.022113639            4 
 2773000    0.8112843   -7.5480426    748.66668  0.022498698  0.022107505            7 
 2774000   0.80112843    -7.515014    751.36559  0.022571665  0.022101449            5 
 2775000   0.79930735    -7.549734    748.80807  0.022486729  0.022095394            2 
 2776000   0.81482992   -7.5482677    749.08211  0.022486855  0.022089326            3 
 2777000   0.79773009   -7.5424845    751.67459  0.022556554  0.022083258            2 
 2778000   0.79121914   -7.5825899    750.69153  0.022518944   0.02207717            5 
 2779000   0.78798359    -7.541837    751.65271  0.022539664  0.022071087            2 
 2780000   0.79161257   -7.5618877    750.18575  0.022487583  0.022065004            4 
 2781000   0.81044688   -7.5412934    749.28015   0.02245236  0.022058955            4 
 2782000   0.80978563   -7.5671799    750.06307  0.022467741  0.022052914            3 
 2783000   0.81615666   -7.5337165    750.26803  0.022465805  0.022046863            2 
 2784000   0.79394661   -7.5498545    750.95749  0.022478373  0.022040791            3 
 2785000   0.80696959    -7.535542      751.374  0.022482765  0.022034729            3 
 2786000   0.80273521   -7.5317687    750.45609  0.022447239  0.022028678            4 
 2787000   0.80809504   -7.5497581    752.55325  0.022501891  0.022022596            2 
 2788000   0.80800859   -7.5481038    750.55262  0.022434021  0.022016506            4 
 2789000   0.80656248   -7.5589802    752.02326  0.022469919  0.022010393            4 
 2790000   0.79749597   -7.5792304    749.22215    0.0223782  0.022004283            3 
 2791000   0.81430994   -7.6129693    751.00478  0.022423408  0.021998167            2 
 2792000   0.78325599   -7.5760923    749.85461  0.022381047  0.021992062            3 
 2793000   0.81427504   -7.5916116    749.87806  0.022373734  0.021985944            3 
 2794000    0.8080587   -7.5508029    751.08022  0.022401581  0.021979855            2 
 2795000   0.80236329   -7.5516203    750.94633  0.022389575   0.02197376            5 
 2796000   0.81963297   -7.5673585    749.83481  0.022348439  0.021967613            5 
 2797000   0.81268675   -7.5724983    749.81239   0.02233978  0.021961415            2 
 2798000   0.80538961   -7.6036126     750.2755  0.022345589  0.021955247            4 
 2799000   0.81607886   -7.5927214    749.52596   0.02231529  0.021949011            6 
 2800000    0.8147725   -7.5981882    749.98319  0.022320928  0.021942843            3 
 2801000    0.8225219   -7.5710452    749.22253  0.022290329   0.02193668            2 
 2802000   0.81100543   -7.5864349    751.21845  0.022341733   0.02193049            2 
 2803000   0.80128896   -7.5804741    751.94471  0.022355355  0.021924335            9 
 2804000   0.81514949   -7.5877614    751.67293  0.022339305   0.02191819            2 
 2805000   0.79848089   -7.5465133    752.78643  0.022364422  0.021912039            2 
 2806000   0.80045844   -7.5851106    751.88854  0.022329785  0.021905886            2 
 2807000   0.80051051   -7.5854343    750.73087  0.022287462  0.021899747            4 
 2808000   0.80585603    -7.570012    752.62748  0.022335811  0.021893622            3 
 2809000   0.79184544   -7.5424264    751.97316  0.022308448  0.021887486            4 
 2810000   0.80982208   -7.5557205    751.42297  0.022284192  0.021881367            2 
 2811000   0.79075296   -7.5495378    752.86718  0.022319079  0.021875274            6 
 2812000   0.79388484   -7.5706765    749.96015  0.022224992  0.021869144            6 
 2813000   0.81968343   -7.5619769    750.52754    0.0222339  0.021863028            1 
 2814000   0.81807803   -7.5748624    752.30149  0.022278533  0.021856894            3 
 2815000   0.81139032   -7.5830548    750.59416  0.022220076  0.021850761            5 
 2816000   0.80628128    -7.609739     748.8618   0.02216092  0.021844587            8 
 2817000   0.80048497   -7.5672862    753.38501   0.02228686  0.021838435            3 
 2818000    0.8012083   -7.5781145    751.93457  0.022236059  0.021832317            1 
 2819000   0.79165334   -7.5717148    751.15455  0.022205113  0.021826175            4 
 2820000   0.81265738   -7.5553841    752.11329   0.02222557  0.021820024            4 
 2821000   0.81445333   -7.5781133    751.80216    0.0222085  0.021813858            6 
 2822000   0.80802521   -7.5751088     752.9977  0.022235935  0.021807716            6 
 2823000   0.80002222    -7.573971    751.54057  0.022185045  0.021801566            2 
 2824000   0.78829189   -7.5839947     750.4473  0.022144927  0.021795427            8 
 2825000   0.79831706   -7.5762043    752.44212  0.022195933  0.021789274            2 
 2826000   0.79472897   -7.5808819    750.62543  0.022134508  0.021783091            3 
 2827000   0.79647722   -7.5466305    752.77289   0.02218998  0.021776951           10 
 2828000   0.78460871   -7.5562244    754.55982   0.02223479  0.021770822            4 
 2829000   0.79702897   -7.5631016    751.40382  0.022133964  0.021764695            5 
 2830000   0.80686099   -7.5490374    753.83086  0.022197611  0.021758533            4 
 2831000   0.79343465   -7.5750467    753.54275  0.022181289  0.021752383            6 
 2832000   0.80223739   -7.5620848    753.05942  0.022159234  0.021746208            2 
 2833000   0.80079747   -7.5615148    753.61651  0.022167799  0.021740065            6 
 2834000   0.78892827   -7.5812422    752.26691  0.022120293  0.021733949            2 
 2835000   0.80581948   -7.6012892    752.32064   0.02211407  0.021727745            2 
 2836000   0.79723641   -7.5788919    752.61588  0.022114947  0.021721552            3 
 2837000   0.79922394   -7.5221576     754.2332  0.022154659  0.021715427            3 
 2838000    0.7927499    -7.572711    753.64918  0.022129703  0.021709325            6 
 2839000    0.7872799   -7.5886427    754.17645  0.022137386  0.021703159            2 
 2840000   0.79697389   -7.5788909    752.26202  0.022073416  0.021697017            4 
 2841000   0.78777171   -7.5912872    752.02704  0.022058754  0.021690878            5 
 2842000   0.79165319   -7.5632086    752.66956  0.022069832  0.021684726            3 
 2843000    0.8090727   -7.5979236    751.65827  0.022032427  0.021678539            2 
 2844000    0.8050721   -7.5869065     752.1931  0.022040351  0.021672345            3 
 2845000    0.7983029   -7.5997452    749.33417  0.021948863  0.021666108            2 
 2846000   0.79326418   -7.5916396    750.98417  0.021989464  0.021659898            5 
 2847000   0.79265047   -7.5741492    752.76157  0.022033766  0.021653668            3 
 2848000   0.79410366   -7.5519319    752.53198  0.022019311  0.021647436            2 
 2849000   0.80784877   -7.5966697    752.14332  0.022000214    0.0216412            5 
 2850000   0.80701459     -7.57838    750.68425  0.021949832  0.021634928            5 
 2851000   0.79422843   -7.6018516    751.69895  0.021971792  0.021628662            5 
 2852000   0.80183826   -7.6090304    752.26223  0.021980547  0.021622391            2 
 2853000   0.79705022   -7.6058624    751.93736  0.021963353   0.02161614            3 
 2854000   0.80533381   -7.6184605    750.81736  0.021922955  0.021609902            1 
 2855000    0.8043147   -7.6195343    751.04615  0.021921954  0.021603641            2 
 2856000   0.79669927   -7.6010127    752.71126  0.021962863  0.021597391            3 
 2857000   0.78325605   -7.5992303     751.9892  0.021934115  0.021591153            4 
 2858000   0.78023213   -7.5973918    752.76103  0.021948945  0.021584842            7 
 2859000   0.82320686   -7.5879527    753.18914  0.021953747  0.021578572            3 
 2860000   0.79705361   -7.5843842    752.72806  0.021932636  0.021572303            5 
 2861000   0.80551862   -7.5764807    752.52475  0.021919048  0.021566044            3 
 2862000   0.77575017   -7.6045278      751.073  0.021869118  0.021559765            7 
 2863000   0.79403108    -7.579013    751.33664  0.021869154  0.021553476            5 
 2864000   0.78551084   -7.5836954    751.52858  0.021867102  0.021547216            5 
 2865000   0.79999132   -7.5790719    752.46921   0.02188683  0.021540972            5 
 2866000   0.78837468   -7.5702331    752.86302  0.021890644  0.021534735            3 
 2867000   0.79922331   -7.5834122    752.10275   0.02186091    0.0215285            3 
 2868000   0.78987971   -7.5834613    751.84965  0.021845934  0.021522233            5 
 2869000   0.80922101   -7.6275511    751.81703  0.021837372  0.021515974            6 
 2870000   0.80774233   -7.6012418    754.43049  0.021905647   0.02150973            3 
 2871000   0.79351783   -7.5824583    751.80997  0.021821954  0.021503456            2 
 2872000   0.81323661   -7.5901068    752.00618  0.021820049  0.021497196            4 
 2873000    0.7955876   -7.6095966    750.86161  0.021779255    0.0214909            4 
 2874000   0.78913342   -7.5751771    753.87356  0.021859011   0.02148464            3 
 2875000    0.7978325   -7.5613961    751.83279  0.021792255  0.021478369            3 
 2876000   0.79222491   -7.5817604    752.49598  0.021803894  0.021472098            4 
 2877000   0.81267088   -7.6064081    752.76215  0.021804025  0.021465829            3 
 2878000   0.78475965   -7.6019566    752.50634  0.021789042  0.021459525            5 
 2879000   0.78832162   -7.5765458    752.12517   0.02177044  0.021453221            4 
 2880000   0.78441872   -7.5796056    753.52653   0.02180343  0.021446925            3 
 2881000   0.79106015   -7.6044547    752.50302  0.021766257  0.021440685            5 
 2882000   0.77956445   -7.6330321    752.87209  0.021769376  0.021434418            4 
 2883000   0.79072919   -7.6109445    753.07445  0.021767674   0.02142816            2 
 2884000   0.80889101     -7.60015    753.89471  0.021783828  0.021421875            3 
 2885000   0.79864221   -7.5810412    754.74245  0.021800764  0.021415644            4 
 2886000   0.79126639   -7.5840297    754.62693  0.021789874  0.021409399            2 
 2887000   0.79592709   -7.5953786    752.69701   0.02172662  0.021403114            7 
 2888000   0.80306916   -7.6140045    752.98351  0.021727363  0.021396864            4 
 2889000   0.79330859    -7.602458    753.11477  0.021723629  0.021390633            5 
 2890000   0.80102512     -7.61783    753.39822  0.021724285  0.021384371            4 
 2891000   0.79453745   -7.5939051    751.71854  0.021668354  0.021378108            2 
 2892000   0.81000952    -7.622797     752.4211  0.021681106  0.021371827            5 
 2893000   0.79140774    -7.652349    751.99835  0.021661434  0.021365514            4 
 2894000   0.78880346   -7.6261515    752.84624  0.021678364  0.021359188            4 
 2895000   0.80693426   -7.6007122    753.90946  0.021701481  0.021352917            4 
 2896000   0.78713431     -7.59563    754.83981  0.021720759  0.021346691            5 
 2897000   0.77710575   -7.5984308    754.08949  0.021691678  0.021340501            4 
 2898000   0.78585959   -7.5781776    754.75873  0.021703437  0.021334297            3 
 2899000    0.7680433   -7.5979226    754.08908  0.021676701  0.021328067            4 
 2900000   0.80422487   -7.5963353    753.99862  0.021666627  0.021321824            5 
 2901000   0.78366509   -7.6105429    753.33375   0.02164006  0.021315563            3 
 2902000    0.7802522   -7.6345473    753.19206  0.021628534  0.021309306            5 
 2903000   0.78312013   -7.6258444    752.76865  0.021608929  0.021303004            2 
 2904000     0.786614   -7.5894893    754.13788  0.021640779  0.021296711            2 
 2905000   0.78236929   -7.6224599    754.07454  0.021631513  0.021290416            3 
 2906000    0.7730127   -7.5955287    754.41789  0.021633915  0.021284146            3 
 2907000   0.78252059   -7.6264292    754.76147  0.021636322  0.021277891            4 
 2908000   0.77542104   -7.6343806     754.6701  0.021626264  0.021271648            8 
 2909000   0.77440082   -7.6395075    751.78977  0.021536317  0.021265376            5 
 2910000    0.7937006   -7.6457317    753.89107  0.021589091  0.021259105            7 
 2911000   0.79696775   -7.6366956    753.37769  0.021566979  0.021252845            3 
 2912000   0.77986053   -7.6377322    752.82549   0.02154377  0.021246559            6 
 2913000   0.77223799   -7.6554013     753.4454  0.021554108   0.02124025            4 
 2914000   0.77656677   -7.6250311    754.66177  0.021581497  0.021233946            2 
 2915000   0.79772461   -7.6236927    752.46179    0.0215112  0.021227688            3 
 2916000   0.77557451   -7.6201029    753.40548  0.021530792  0.021221409            5 
 2917000    0.7875995   -7.6154507    752.96441   0.02151081  0.021215126            4 
 2918000   0.79845282   -7.6126922    754.36892  0.021543549  0.021208837            5 
 2919000   0.78231739   -7.6257964    751.48224  0.021453758  0.021202531            4 
 2920000   0.78196788    -7.636831    751.06888  0.021434614  0.021196191            3 
 2921000   0.77806272   -7.6337971    751.22851   0.02143183   0.02118983            4 
 2922000   0.78437255   -7.6141664    754.44238  0.021516153  0.021183513            2 
 2923000   0.78438079   -7.6188641    753.76641   0.02148952  0.021177188            2 
 2924000   0.77479888   -7.6221708    755.18157  0.021522503  0.021170877            4 
 2925000    0.7776316   -7.6169712    754.73221  0.021502342  0.021164554            4 
 2926000   0.77631955   -7.6017442    755.32768  0.021511952   0.02115824            4 
 2927000    0.7770697   -7.6293634    753.19558  0.021443901  0.021151938            3 
 2928000   0.77482592   -7.6255685     754.5807  0.021475999  0.021145633            6 
 2929000   0.79357158    -7.621746    753.58419  0.021440315  0.021139309            2 
 2930000   0.78329448   -7.6148067    754.07073  0.021446835  0.021132994            3 
 2931000    0.7891208   -7.6217714    753.08735  0.021411559  0.021126691            8 
 2932000   0.78155534   -7.6318998    753.96309  0.021429146  0.021120379            2 
 2933000   0.78973227   -7.6148527    753.25867  0.021401826  0.021114083            5 
 2934000   0.79258803   -7.6341633    752.52119  0.021373585  0.021107788            4 
 2935000   0.78092856   -7.6306979    755.10063  0.021439541  0.021101522            3 
 2936000   0.78229812   -7.6171565    754.44244  0.021413557  0.021095253            7 
 2937000    0.7781875   -7.6129785    755.60085  0.021439134   0.02108897            3 
 2938000   0.79333023   -7.6327123    753.19069  0.021363475  0.021082676            5 
 2939000    0.7802876   -7.6406724    753.62056  0.021368395  0.021076366            4 
 2940000   0.78463548   -7.6059687    755.53771  0.021415468  0.021070062            5 
 2941000   0.78578054   -7.5958752    756.11497  0.021424543  0.021063791            6 
 2942000   0.78318375     -7.63126    755.08464  0.021388076  0.021057511            5 
 2943000   0.77595123   -7.6397264    753.98054  0.021349545  0.021051222            4 
 2944000    0.7758745   -7.6278198    755.75688  0.021392575   0.02104495            1 
 2945000   0.78694942   -7.6395574    755.85632  0.021388125  0.021038685            2 
 2946000   0.78836995   -7.6303604    755.32996  0.021365975  0.021032414            4 
 2947000   0.77719186   -7.5996057    756.59931  0.021394619  0.021026131            4 
 2948000   0.76787721   -7.6187308    754.28184  0.021321852  0.021019852            3 
 2949000   0.77345057   -7.6174263    755.08252  0.021337248  0.021013569            3 
 2950000   0.77795813   -7.6476168    755.60803   0.02134486  0.021007307            7 
 2951000   0.78368164    -7.623687    754.18298  0.021297385  0.021001074            5 
 2952000   0.78359667    -7.641494    754.75929  0.021306439  0.020994806            4 
 2953000   0.77072062   -7.6506492    754.41569  0.021289527   0.02098853            2 
 2954000   0.76112391     -7.63063    756.06366   0.02132881  0.020982283            2 
 2955000   0.76854005   -7.6427323    754.09079  0.021265956  0.020976017            5 
 2956000   0.77289949   -7.6229677    754.46397  0.021269282  0.020969755            3 
 2957000   0.77420247    -7.647494    754.22514  0.021255359  0.020963502            3 
 2958000   0.76611682   -7.6401672    755.18072  0.021275093  0.020957241            7 
 2959000   0.78999265   -7.6728763    754.78776  0.021256837  0.020950986            7 
 2960000   0.78380429   -7.6215508    757.15605   0.02131633  0.020944756            6 
 2961000   0.77545982   -7.6292686    756.56237  0.021292423  0.020938561            2 
 2962000   0.79080905     -7.62961    757.28135  0.021305462  0.020932386            3 
 2963000   0.76842312   -7.6428324    754.40069  0.021217254  0.020926187            3 
 2964000   0.76942333   -7.5965202      755.818  0.021249944  0.020919958            5 
 2965000   0.77393498   -7.6219065    757.16909   0.02128075  0.020913738            5 
 2966000   0.78031927   -7.6394652    757.17491  0.021273739  0.020907537            2 
 2967000   0.78144507   -7.6046746    757.32593   0.02127081  0.020901302            3 
 2968000   0.78169644   -7.6337355     756.0607  0.021228119  0.020895085            3 
 2969000   0.78043682   -7.6271158    755.96963  0.021218413  0.020888873            3 
 2970000   0.78759452   -7.6370035    755.17627  0.021189009  0.020882614            5 
 2971000   0.78330058   -7.6519655     754.9171  0.021174607  0.020876388            4 
 2972000   0.78022675   -7.6036105    757.29625  0.021234193  0.020870184            8 
 2973000   0.79771613   -7.5929967     757.4379  0.021231021  0.020863994            4 
 2974000   0.79409489   -7.6278563    758.45325  0.021252333  0.020857794            2 
 2975000   0.79270985   -7.6084681    757.31924  0.021213424  0.020851594            3 
 2976000   0.76992741   -7.6278378    756.25398  0.021176467  0.020845394            2 
 2977000   0.76460098   -7.6489298     756.6287  0.021179843  0.020839161            4 
 2978000   0.76787786   -7.6378184    756.69422  0.021174564  0.020832926            7 
 2979000   0.76859166   -7.5969279    757.29484  0.021184258  0.020826707            5 
 2980000   0.79798232   -7.6357777    755.05945  0.021114638  0.020820499            2 
 2981000   0.76274792    -7.640038      757.727  0.021182126  0.020814287            3 
 2982000    0.7687919   -7.6017717    757.60057  0.021171489  0.020808073            4 
 2983000   0.78336537   -7.6515939    756.98767   0.02114727  0.020801873            3 
 2984000   0.76297567   -7.5960327    757.56491  0.021156303   0.02079566            4 
 2985000   0.76676619   -7.6359418    757.31044  0.021142112  0.020789471            5 
 2986000   0.77671094   -7.6654146    757.29606   0.02113463  0.020783282            4 
 2987000   0.77744823     -7.66602    758.27099  0.021154754  0.020777037            2 
 2988000   0.78487195   -7.6491733    756.96796  0.021111333  0.020770815            6 
 2989000   0.77464901   -7.6276666    758.64519  0.021151031  0.020764646            2 
 2990000   0.75237796   -7.6285309    758.28506   0.02113392  0.020758432            6 
 2991000   0.76113321   -7.6179641    757.91361  0.021116505  0.020752232            6 
 2992000   0.76697134   -7.6284818    757.79408  0.021106119  0.020746053            5 
 2993000   0.76048864   -7.6322869    759.52791  0.021147341  0.020739852            5 
 2994000   0.76576078   -7.6366999    757.92648  0.021095705  0.020733674            5 
 2995000   0.75484967   -7.6353266     758.5751  0.021106708   0.02072752            3 
 2996000   0.76430916    -7.674143    756.73631  0.021048518  0.020721306            7 
 2997000   0.76679261   -7.6334161    758.84305  0.021100074  0.020715095            3 
 2998000   0.78839725   -7.6660383    755.92498  0.021011924  0.020708846            5 
 2999000   0.76869981   -7.6759868    756.24418  0.021013787  0.020702599            3 
 3000000   0.78251085   -7.6540448    757.33046  0.021036957  0.020696389            4 
 3001000   0.75829464   -7.6394547     757.1873  0.021025972  0.020690207            5 
 3002000   0.76705866   -7.6449751     759.3214  0.021078209  0.020684045            3 
 3003000   0.76717545   -7.6535818    757.83832  0.021030034  0.020677895            6 
 3004000   0.76231625   -7.6667353    758.36012  0.021037509  0.020671702            3 
 3005000   0.77145021   -7.6501462    757.95023  0.021019141  0.020665514            2 
 3006000   0.78032997   -7.6703378    756.29452  0.020966249  0.020659287            5 
 3007000   0.76679855   -7.6550639     757.5117  0.020993008  0.020653069            4 
 3008000   0.76673125   -7.6853372    758.84498  0.021022966   0.02064688            4 
 3009000   0.78033941   -7.6200417    760.80748   0.02107033  0.020640712            3 
 3010000   0.77295337   -7.6579691    759.73744  0.021033705  0.020634544            2 
 3011000   0.77840687   -7.6440912    757.19903  0.020956466  0.020628376            3 
 3012000   0.75111438   -7.6444022    759.31421  0.021008029  0.020622244            7 
 3013000   0.76609398   -7.6717806    759.15727  0.020996716  0.020616086            6 
 3014000   0.78006249   -7.6448717    759.75183  0.021006189  0.020609952            4 
 3015000   0.78311195   -7.6307295     758.2277  0.020957095   0.02060379            7 
 3016000    0.7671535    -7.662678     758.4882  0.020957344  0.020597619            9 
 3017000   0.77408346   -7.6474154    759.92296  0.020990028  0.020591447            5 
 3018000   0.76831212   -7.6550206    758.98976  0.020957305  0.020585284            3 
 3019000   0.76919062    -7.649052    758.44252  0.020935258  0.020579109            9 
 3020000   0.77257534    -7.636273    760.07002  0.020973235  0.020572963            3 
 3021000   0.76658944   -7.6638051    758.37133  0.020919434  0.020566829            4 
 3022000   0.75849042   -7.6990408    757.07734  0.020876829  0.020560675            4 
 3023000   0.77452351   -7.6884588    759.41812   0.02093445  0.020554484            2 
 3024000   0.76759899   -7.6580249    756.83226  0.020856268  0.020548292            4 
 3025000   0.76578179   -7.6679652    758.63028  0.020898906  0.020542109            4 
 3026000   0.76236588   -7.6364025    760.56756   0.02094535  0.020535945            2 
 3027000   0.75146904   -7.6586804    758.32183  0.020876606  0.020529793            5 
 3028000   0.76852743   -7.6469624     760.3274  0.020924906  0.020523667            5 
 3029000   0.78308078   -7.6590213    759.73275  0.020901638  0.020517526            4 
 3030000   0.76823354   -7.6534746    760.44791  0.020914409  0.020511383            2 
 3031000   0.76745098   -7.6474957     760.4769  0.020908306  0.020505237            4 
 3032000   0.76628285   -7.6703052     759.2422  0.020867475   0.02049909            3 
 3033000    0.7623124   -7.6487445    760.88959  0.020905857  0.020492951            7 
 3034000   0.76225536   -7.6619694      758.787  0.020841216  0.020486801            5 
 3035000   0.76172422   -7.6574246     760.1446  0.020871626  0.020480643            2 
 3036000   0.76277965   -7.7002316    759.49873  0.020847023  0.020474473            5 
 3037000   0.75553131   -7.6607227    758.02516  0.020799725  0.020468297            4 
 3038000    0.7732072   -7.6678403    758.64044  0.020809755  0.020462139            2 
 3039000   0.75090827   -7.6594124    759.76797  0.020833826  0.020455976            3 
 3040000   0.78268368   -7.6793322    758.74556  0.020798946  0.020449791            3 
 3041000   0.76197921   -7.6733398     760.9679  0.020853006  0.020443606            3 
 3042000   0.76924655   -7.6877732    758.13975  0.020768676   0.02043743            5 
 3043000   0.77417645   -7.6711759    757.50222  0.020744392  0.020431269            3 
 3044000   0.78035731   -7.6782554    759.58841  0.020794689  0.020425098            2 
 3045000   0.76777643   -7.6766577    759.37336  0.020781975  0.020418919            3 
 3046000   0.76967088   -7.6719443    760.16957  0.020796935  0.020412771            5 
 3047000   0.76824632   -7.6557625    759.12247  0.020761472  0.020406597            5 
 3048000   0.74923815   -7.6643824    758.05667  0.020725521  0.020400437            4 
 3049000   0.75850811   -7.6694874     760.3812  0.020782257  0.020394304            3 
 3050000   0.76732646   -7.6711212    760.08284  0.020767291  0.020388153            5 
 3051000   0.76042741   -7.6657929    761.45307   0.02079791  0.020382045            3 
 3052000   0.77803233   -7.6674419     760.2981  0.020759559  0.020375959            3 
 3053000   0.75570478   -7.6753621    761.02512  0.020772604  0.020369866            4 
 3054000   0.76828922      -7.6678    761.59094  0.020781242  0.020363747            3 
 3055000   0.77060253   -7.6704942    761.04783  0.020759624  0.020357651            2 
 3056000   0.76943645   -7.6473407    761.45992  0.020764069  0.020351596            5 
 3057000   0.75486725   -7.6606426    762.61269  0.020788701  0.020345539            5 
 3058000   0.76536658    -7.643184    762.48637   0.02077846  0.020339479            7 
 3059000   0.75859876   -7.6803606    760.62917  0.020721074  0.020333406            3 
 3060000   0.77217301   -7.6791427    759.97975  0.020696616  0.020327325            5 
 3061000   0.76068337    -7.651984    761.91829   0.02074263  0.020321225            4 
 3062000   0.76918026   -7.6580793     761.0788  0.020713009  0.020315107            4 
 3063000   0.76651595   -7.6662162    761.47491  0.020717023  0.020308995            4 
 3064000    0.7669285    -7.660171    761.12449  0.020700731   0.02030289            4 
 3065000   0.75373071   -7.6664723    761.81549  0.020712765   0.02029679            2 
 3066000   0.75481466   -7.6690883    762.75594  0.020731571  0.020290667            4 
 3067000    0.7545906   -7.6782967     760.9948  0.020676959  0.020284565            6 
 3068000   0.76831576   -7.6739663    761.72199  0.020689971  0.020278472            3 
 3069000   0.75144538    -7.636896    761.23538  0.020670017  0.020272386            5 
 3070000   0.76803607   -7.6767758    761.56917  0.020672344  0.020266314            3 
 3071000   0.74834819    -7.684174    760.54171  0.020637732  0.020260239            2 
 3072000   0.76834487   -7.6574336    762.14641  0.020674544  0.020254155            3 
 3073000   0.76124421   -7.6592073    762.71702   0.02068329  0.020248106            4 
 3074000   0.75642061   -7.7145377    760.81574   0.02062502  0.020242026            6 
 3075000    0.7688501   -7.7014233    761.07213  0.020625261  0.020235925            4 
 3076000   0.76392637   -7.6662925    761.41124  0.020627743  0.020229824            2 
 3077000   0.74961412   -7.6664975     759.3789  0.020565998  0.020223746            3 
 3078000   0.75501561   -7.6537232    761.89553  0.020627451  0.020217669            4 
 3079000   0.74153432   -7.6772153    761.06103  0.020598166  0.020211601            5 
 3080000    0.7662769   -7.6879773    761.28312  0.020597487   0.02020548            5 
 3081000   0.75514125   -7.6634748    760.58788  0.020571997  0.020199391            4 
 3082000    0.7646828   -7.6797481    762.79319  0.020624951  0.020193317            9 
 3083000   0.75960813   -7.6797936    762.61252  0.020613378  0.020187251            2 
 3084000   0.76399174   -7.6792359    761.53796  0.020577658  0.020181168            4 
 3085000   0.75812639   -7.6882242    760.83691   0.02055205  0.020175067            4 
 3086000     0.749765   -7.6830808    762.31991  0.020585437     0.020169            6 
 3087000    0.7638631   -7.7006795    762.17976  0.020574985  0.020162942            3 
 3088000   0.74240445   -7.6756448    763.77959  0.020611496  0.020156918            4 
 3089000   0.75284564    -7.649004    763.32474  0.020592553  0.020150893            3 
 3090000   0.77186754   -7.6537469    763.39888  0.020587888  0.020144862            3 
 3091000   0.76856125   -7.6926128    762.14851  0.020547517  0.020138826            6 
 3092000   0.76618203   -7.6673043    762.57334  0.020552322  0.020132775            5 
 3093000   0.76997809   -7.6729687    761.96668  0.020529332  0.020126708            3 
 3094000   0.73737369   -7.6823421    762.58753  0.020539418  0.020120649            7 
 3095000   0.75282746   -7.6540518    761.10638  0.020492902  0.020114588            5 
 3096000   0.73913385   -7.6709898      764.618  0.020580803  0.020108523            2 
 3097000   0.75869416   -7.6893142    763.11957  0.020533838  0.020102483            4 
 3098000   0.75656562   -7.6530895    763.16902   0.02052854  0.020096434            2 
 3099000   0.74532378      -7.7122    762.06612  0.020492259  0.020090346            4 
 3100000   0.75709098   -7.6737425    764.32951  0.020546492   0.02008426            5 
 3101000   0.76223162   -7.6801822    762.40697  0.020488202  0.020078184            2 
 3102000   0.74647393   -7.6723384    760.64497  0.020434262  0.020072111            3 
 3103000   0.74791693   -7.7034435    761.48982  0.020450366  0.020066045            2 
 3104000   0.75662335   -7.6809791    763.23119  0.020490528  0.020059981            2 
 3105000   0.74420818   -7.7043926     761.8349  0.020446455  0.020053898            6 
 3106000   0.75859517   -7.7031429    761.59084  0.020433324  0.020047821            5 
 3107000   0.75101333   -7.6708077     761.5344  0.020425233   0.02004174            5 
 3108000   0.73483048   -7.7140429    759.80217  0.020372216  0.020035671            3 
 3109000   0.75615009   -7.6696782    762.64985  0.020441992  0.020029597            1 
 3110000   0.74767581    -7.678674    761.73088  0.020410795  0.020023578            3 
 3111000   0.74788262   -7.7232806    762.99867  0.020438194  0.020017548            6 
 3112000   0.75604448   -7.6852963    763.44451  0.020443566   0.02001151            5 
 3113000   0.74048995   -7.6936867    764.18145  0.020456726  0.020005478            3 
 3114000    0.7631999   -7.6702172    765.49197  0.020485227  0.019999468            3 
 3115000   0.75505441   -7.6724179    765.87103  0.020488791  0.019993492            5 
 3116000   0.75297549   -7.6896351    764.15752  0.020436391  0.019987483            3 
 3117000   0.73308639   -7.6705034    763.97645  0.020424993   0.01998148            5 
 3118000   0.75687455   -7.6658689    764.56796  0.020434252  0.019975468            6 
 3119000   0.76184219   -7.6881755    762.93724  0.020384131  0.019969454            6 
 3120000   0.75101586   -7.6783075    763.92415  0.020403957  0.019963451            7 
 3121000   0.74009569   -7.6926248    763.41631   0.02038386  0.019957429            6 
 3122000   0.73394552   -7.6942176    765.24761  0.020426212  0.019951408            6 
 3123000   0.76875993   -7.6896762    762.98798  0.020359376  0.019945407            4 
 3124000   0.75522032   -7.6735455     764.3919  0.020390309  0.019939386            3 
 3125000   0.74898838    -7.666633    765.23694  0.020406318  0.019933384            5 
 3126000   0.76403873   -7.6827816    764.58049  0.020382291  0.019927402            3 
 3127000   0.75192619   -7.6996685    764.22843   0.02036639    0.0199214            3 
 3128000   0.76195856   -7.7029001    765.24297  0.020386908  0.019915392            3 
 3129000   0.76727579   -7.6975266    764.98486  0.020373518  0.019909403            4 
 3130000   0.75314816   -7.6758735    764.51698  0.020354552  0.019903392            3 
 3131000   0.75239159   -7.7073321    762.78215  0.020301878  0.019897375            8 
 3132000    0.7411039   -7.6982671    763.16742  0.020305646  0.019891355            4 
 3133000   0.74990575   -7.7086048    763.82951  0.020316776  0.019885341            3 
 3134000   0.76627515   -7.7110331     764.8876  0.020338428  0.019879343            4 
 3135000   0.75281931   -7.7066189    765.90216  0.020358909  0.019873331            3 
 3136000    0.7527324   -7.6999158    763.75262  0.020295297  0.019867343            4 
 3137000   0.74340842   -7.6976742    764.28067  0.020302855  0.019861379            4 
 3138000   0.72788205    -7.699351    763.97201  0.020288188  0.019855389            5 
 3139000   0.74077392   -7.6620297    765.92609  0.020333601  0.019849419            5 
 3140000   0.76485098   -7.6904858    764.39155    0.0202864  0.019843431            3 
 3141000   0.75657762   -7.6900778    764.93838  0.020294449  0.019837441            7 
 3142000    0.7412591   -7.7078045    764.46609  0.020275464  0.019831442            2 
 3143000   0.76282613   -7.6905587    764.38852  0.020266956  0.019825457            6 
 3144000   0.75369011   -7.7162058    764.28484  0.020257762  0.019819474            4 
 3145000   0.74245497   -7.7001252    764.85079  0.020266317  0.019813475           10 
 3146000   0.75047649   -7.6968162    764.31423  0.020245662  0.019807467            6 
 3147000   0.76001046   -7.7309529    764.93305  0.020255615  0.019801477            4 
 3148000   0.75270628   -7.7084614    764.20023  0.020229782  0.019795482           11 
 3149000   0.75940884   -7.7083262    764.75196  0.020237958   0.01978948            2 
 3150000   0.76482446   -7.7090722     765.2746   0.02024536   0.01978351            2 
 3151000   0.74443488   -7.6926631    765.37194  0.020241509  0.019777539            5 
 3152000   0.76235324    -7.698851    765.03828  0.020226266  0.019771567            5 
 3153000   0.76305801   -7.6846947    765.31222  0.020227091  0.019765601            5 
 3154000   0.73792733   -7.7292736    764.78955  0.020206868  0.019759634            6 
 3155000   0.74028058   -7.7156209    764.32369  0.020188159  0.019753672            6 
 3156000   0.74720426   -7.7069311    766.61223   0.02024219  0.019747733            3 
 3157000   0.74119002    -7.698422    765.58421  0.020208642  0.019741793            5 
 3158000   0.75315934   -7.6782029    767.59711   0.02025536   0.01973587            2 
 3159000   0.75236342   -7.7036683     765.8359  0.020202488  0.019729953            3 
 3160000   0.76293073   -7.6824613    768.25214  0.020259814  0.019724015            3 
 3161000   0.74617224   -7.7154946    767.22806  0.020226407  0.019718101            5 
 3162000   0.72284929   -7.6962098     764.9556   0.02016012  0.019712174            4 
 3163000   0.74334336   -7.6957346    767.95169  0.020232682  0.019706251            5 
 3164000   0.73899105   -7.7160308    765.91057  0.020172529  0.019700315            3 
 3165000    0.7383285   -7.7087679    764.67005  0.020133493  0.019694383           10 
 3166000   0.75790441    -7.701195    766.81799   0.02018367  0.019688445            5 
 3167000   0.74502373   -7.7238653    764.90113  0.020126858  0.019682504            2 
 3168000   0.73485094   -7.7163086    765.80643  0.020144319  0.019676591            4 
 3169000   0.74074866   -7.7062661    767.36887  0.020179049  0.019670718            2 
 3170000     0.730265   -7.6972049    767.87119  0.020185888  0.019664854            3 
 3171000   0.72335646   -7.6797816    768.95411  0.020207982  0.019659017            5 
 3172000   0.75483106    -7.705029    767.42032  0.020161316  0.019653146            3 
 3173000   0.73385192    -7.685263    766.50821  0.020131007  0.019647293            2 
 3174000   0.74742582   -7.6965419    766.53245  0.020125301  0.019641434            7 
 3175000   0.74696456    -7.704109    765.93275  0.020103222  0.019635576            3 
 3176000    0.7320071   -7.7176534    765.03315  0.020073288  0.019629705            5 
 3177000   0.75338257    -7.682023    768.64111  0.020161607  0.019623841            3 
 3178000   0.74391237   -7.6719971    767.59537  0.020127842  0.019617973            3 
 3179000   0.74569605   -7.6911916    767.81813   0.02012735   0.01961214            3 
 3180000   0.73901019   -7.6998274     770.2105  0.020183713  0.019606307            3 
 3181000   0.73782144   -7.7223064    767.25332  0.020099898  0.019600447            2 
 3182000     0.752371   -7.7201477     768.0547  0.020114569  0.019594573            5 
 3183000   0.74290396   -7.7296692    767.96819  0.020105985  0.019588686            7 
 3184000   0.73203259   -7.7317797    767.37719  0.020084202  0.019582783            3 
 3185000     0.738055   -7.7376824    767.53414  0.020082003  0.019576866            3 
 3186000   0.76060954   -7.7470435    767.62509  0.020078078   0.01957096            2 
 3187000    0.7479593   -7.7381218    766.64681  0.020046198   0.01956505            2 
 3188000   0.74226996   -7.7320492    767.29254   0.02005679  0.019559137            3 
 3189000   0.73120146   -7.7243937    767.46155  0.020054917  0.019553217            2 
 3190000   0.74298516   -7.7113731    768.71161  0.020081286  0.019547314            3 
 3191000   0.74912815   -7.7278731    766.34665  0.020013231  0.019541416            4 
 3192000   0.75555954   -7.7290065    764.06824  0.019947479  0.019535541            4 
 3193000   0.73825939   -7.7308228    767.28457  0.020025174  0.019529662            1 
 3194000   0.73657316   -7.7216091    767.62838  0.020027875  0.019523784            3 
 3195000   0.75210949   -7.7047665    767.99637  0.020031204  0.019517889            3 
 3196000   0.74087502   -7.7159884    766.79912  0.019993719  0.019512021            3 
 3197000   0.73036707   -7.7302269    766.00714  0.019966822  0.019506121            4 
 3198000   0.72462062   -7.7362611    767.29611  0.019994166  0.019500236            6 
 3199000   0.71867236   -7.7008217    768.81885  0.020027583  0.019494376            3 
 3200000   0.74534325   -7.7063762    766.73387  0.019967028  0.019488525            2 
 3201000   0.73543006    -7.704381    767.38058  0.019977626  0.019482671            3 
 3202000   0.74553323   -7.7189033    767.63659   0.01997805  0.019476801            3 
 3203000   0.73405052   -7.7543289    767.87052  0.019977899  0.019470899            4 
 3204000   0.74377402   -7.7316283    768.36867   0.01998462  0.019465002            2 
 3205000   0.71712437   -7.7139928    766.72137  0.019935553  0.019459136            5 
 3206000   0.74561964   -7.7049958    768.14538  0.019966349  0.019453297            3 
 3207000   0.75098123   -7.7155455    768.15472  0.019960366  0.019447468            5 
 3208000   0.74999979    -7.735865    768.49698  0.019963034  0.019441619            3 
 3209000   0.73249634   -7.7003073    767.83775  0.019939694  0.019435761            5 
 3210000    0.7174384   -7.7160707    767.50343  0.019924803  0.019429906            6 
 3211000   0.73063092   -7.7236144    768.91507  0.019955234  0.019424057            5 
 3212000   0.74465438   -7.7269778    768.50349  0.019938343  0.019418192            5 
 3213000   0.73887024   -7.7213528    767.12598   0.01989641  0.019412322            2 
 3214000   0.74528889   -7.6804622    767.63514  0.019903421  0.019406462            5 
 3215000   0.74295885   -7.7115174    766.89343  0.019878005  0.019400621            2 
 3216000   0.73940937   -7.7160033    768.06182  0.019902099  0.019394773            3 
 3217000   0.74463379   -7.7143129    767.92662  0.019892411  0.019388911            7 
 3218000    0.7388797   -7.6838233    768.35779  0.019897395  0.019383046            8 
 3219000    0.7361448   -7.7298942     769.1017  0.019910472  0.019377198            4 
 3220000   0.73668243   -7.7012824      767.912  0.019873499  0.019371346            4 
 3221000   0.73840253   -7.7062896    767.97276  0.019868901  0.019365499            4 
 3222000   0.74970348   -7.7331736    768.33309  0.019872054  0.019359621            4 
 3223000    0.7370699   -7.7200641    768.19534  0.019862327  0.019353775            7 
 3224000   0.73140001   -7.7097948    768.36308  0.019860501  0.019347921            3 
 3225000   0.72204494   -7.7168974    767.84361   0.01984092  0.019342032            4 
 3226000   0.73215364   -7.7300617    767.06248  0.019814592  0.019336148            4 
 3227000   0.76455514     -7.73274    767.57116  0.019821588  0.019330257            4 
 3228000   0.73839678   -7.6853642    769.32039  0.019860605  0.019324391            3 
 3229000   0.75305995    -7.731331    766.67157  0.019786094   0.01931851            3 
 3230000   0.74227836   -7.7653412    766.29168  0.019770167  0.019312604            5 
 3231000   0.73937572   -7.7379424    768.75628  0.019827615  0.019306693            4 
 3232000   0.75390515   -7.7356072    765.71128  0.019742968  0.019300795            4 
 3233000   0.73688594   -7.7774266    765.35166  0.019727592  0.019294873            5 
 3234000   0.72014836   -7.7260681    766.95637  0.019762842  0.019288964            8 
 3235000   0.72416765   -7.7264237    767.89068  0.019780801  0.019283055           11 
 3236000   0.73811816   -7.7384473    767.93703  0.019775881  0.019277147            6 
 3237000   0.74954816   -7.7344993    768.83022  0.019792767  0.019271261            4 
 3238000   0.74723987   -7.7633619    769.34887  0.019800002   0.01926538            5 
 3239000   0.73955231   -7.7399837    768.58956  0.019774353  0.019259512            3 
 3240000   0.72067192   -7.7373313    768.74575  0.019772267  0.019253638           11 
 3241000   0.74281855   -7.7243447    767.90522  0.019744555  0.019247748            4 
 3242000   0.75201107   -7.7611252    766.88519  0.019712245  0.019241879            3 
 3243000   0.74379278   -7.7458167    768.95646  0.019759391  0.019236001            5 
 3244000   0.72714055    -7.738827      769.104   0.01975709  0.019230134            3 
 3245000   0.72344138   -7.7343503    770.39001  0.019784027  0.019224285            3 
 3246000   0.73882205   -7.7654974    768.70601  0.019734699  0.019218452            3 
 3247000   0.73450267    -7.714979    770.07288  0.019763702  0.019212628            4 
 3248000   0.72352993   -7.7364639    767.04817  0.019680013  0.019206808            4 
 3249000   0.73576989   -7.7087109    769.09772  0.019726524  0.019200976            3 
 3250000   0.73683851   -7.7502069    770.11528  0.019746546  0.019195143            3 
 3251000    0.7578988   -7.7070689    768.68238  0.019703742  0.019189326            2 
 3252000   0.73007792   -7.7486321     767.0614  0.019656145   0.01918351            3 
 3253000   0.73070816   -7.7475193    769.62737  0.019715836  0.019177682            3 
 3254000   0.72245277   -7.7276332    769.58666  0.019708734  0.019171859            2 
 3255000   0.73845256   -7.7285042    768.65271  0.019678769  0.019166033            3 
 3256000   0.72961661    -7.738011    769.15062  0.019685468  0.019160208            3 
 3257000   0.72408824   -7.7275502    770.13762  0.019704678  0.019154392            2 
 3258000   0.73721506   -7.7527937    768.72727  0.019662555  0.019148577            2 
 3259000   0.73002465   -7.7550234     770.3694  0.019698512  0.019142763            4 
 3260000    0.7311141   -7.7484019    770.08845  0.019685287  0.019136944            4 
 3261000   0.73733833   -7.7338364    768.79499  0.019646197  0.019131142            3 
 3262000   0.73687184   -7.7261252    769.81341  0.019666192   0.01912538            3 
 3263000   0.72500027   -7.7340974    770.61282  0.019680581  0.019119621            2 
 3264000   0.73828635     -7.72728    768.37269  0.019617358  0.019113826            5 
 3265000   0.72440684   -7.7442622    770.37977  0.019662577  0.019108028            4 
 3266000   0.72780875   -7.7637296    769.95812  0.019645798  0.019102231            2 
 3267000   0.74803065   -7.7273068    770.27226  0.019647798  0.019096444            8 
 3268000    0.7232285   -7.7462024      770.758  0.019654172  0.019090686            1 
 3269000    0.7339817   -7.7332268    769.05629  0.019604779  0.019084889            5 
 3270000   0.74661847   -7.7274414    769.37127  0.019606811  0.019079096            5 
 3271000   0.74088552   -7.7262327    770.38208  0.019626569  0.019073311            3 
 3272000   0.72401352   -7.7294343    769.78446   0.01960535  0.019067546            3 
 3273000   0.72265441   -7.7313417     770.1585  0.019608883  0.019061774            4 
 3274000   0.72691293   -7.7533865    768.83522  0.019569212  0.019055998            6 
 3275000   0.73680168   -7.7251638    767.78481  0.019536509  0.019050225            3 
 3276000   0.74224849   -7.7349832     770.2148  0.019592358  0.019044448            3 
 3277000   0.73409698   -7.7492154    769.91914  0.019578861  0.019038651            2 
 3278000   0.71893834   -7.7456419    769.34152  0.019558204  0.019032866            5 
 3279000   0.73900008   -7.7507952    769.55452  0.019557653  0.019027098            2 
 3280000   0.72423272   -7.7269494    770.09534   0.01956543  0.019021332            2 
 3281000   0.70645417   -7.7453418     769.2694  0.019538489  0.019015536            3 
 3282000   0.73696946   -7.7649492    768.44812  0.019511683  0.019009739            4 
 3283000   0.71910657   -7.7543793    770.14694  0.019548861  0.019003938            6 
 3284000   0.71599209   -7.7881756    767.90628   0.01948605  0.018998141            4 
 3285000   0.74395999   -7.7556282    769.55965  0.019522061   0.01899233            4 
 3286000   0.73909389   -7.7701792    770.51248  0.019540284  0.018986547            3 
 3287000   0.72476436   -7.7807648    767.72611  0.019463698  0.018980758            3 
 3288000   0.73168955   -7.7589268    768.98242  0.019489619  0.018974949            5 
 3289000   0.72764166   -7.7661808    770.73026  0.019527979  0.018969151            2 
 3290000   0.71471064   -7.7840375    768.87424  0.019475031  0.018963338            5 
 3291000   0.72175383   -7.7882873    769.66396  0.019489111  0.018957542           10 
 3292000    0.7307075   -7.7832209    770.10512  0.019494358  0.018951751            6 
 3293000   0.72549689   -7.7950795    769.44987  0.019471856  0.018945935            3 
 3294000   0.73739027   -7.7797633    769.56018  0.019468735  0.018940112            2 
 3295000   0.72795778   -7.7806402    767.22426   0.01940375  0.018934307            4 
 3296000   0.73444037   -7.7706528    770.10266  0.019470638  0.018928488            3 
 3297000   0.72117399   -7.7880414    768.64805  0.019427966  0.018922682            3 
 3298000   0.71426097    -7.759266     769.0892  0.019433222  0.018916856            6 
 3299000   0.72106614   -7.7806231    769.80316  0.019445366  0.018911069            4 
 3300000   0.72827293   -7.7870114    770.78089  0.019464164  0.018905281            3 
 3301000   0.72289169   -7.7425669    769.80893   0.01943373  0.018899521            4 
 3302000   0.71776631   -7.7720008     769.6065  0.019422736  0.018893766            4 
 3303000   0.72366221   -7.7819206    769.00274  0.019401623  0.018887979            2 
 3304000   0.71982217   -7.7601258     770.7142  0.019438917  0.018882213            7 
 3305000   0.70023423   -7.7611984    768.94691  0.019388475  0.018876464            5 
 3306000   0.71292621   -7.7518454    772.27422  0.019466481  0.018870716            8 
 3307000   0.72495153   -7.7840938    770.39441  0.019413225  0.018864977            4 
 3308000   0.71282949   -7.7586606    771.44112  0.019433724  0.018859244            5 
 3309000   0.71927909   -7.7874486    770.03253  0.019392378  0.018853499            3 
 3310000    0.7206259   -7.7810604    771.11717  0.019413826  0.018847737            5 
 3311000   0.73227149   -7.7702265    770.42801  0.019390617  0.018841982            4 
 3312000   0.73144593   -7.7731747    770.88465  0.019396252  0.018836242            4 
 3313000   0.70729586    -7.746112    771.13689  0.019396742   0.01883051            2 
 3314000   0.72217418   -7.7572929    770.55918  0.019376363  0.018824785            3 
 3315000   0.73274789    -7.763461     770.7582   0.01937552  0.018819048            3 
 3316000   0.71174458   -7.7798355    771.87508  0.019397745  0.018813292            5 
 3317000   0.71850585   -7.7640967    771.33567  0.019378346  0.018807555            5 
 3318000   0.74416098   -7.7567616    770.38419  0.019348608  0.018801816            5 
 3319000   0.72210807   -7.7624467    771.04785  0.019359442  0.018796102            3 
 3320000   0.72377011   -7.7547969    769.50681   0.01931493  0.018790379            4 
 3321000   0.73400621   -7.7430111    772.91969  0.019394753  0.018784667            3 
 3322000   0.71851403   -7.7544776    771.78026  0.019360332  0.018778968            3 
 3323000   0.72464133   -7.7278028    770.33585  0.019318283  0.018773268            3 
 3324000   0.71344842   -7.7511028    771.87906   0.01935116  0.018767563            3 
 3325000   0.72425006   -7.7537948    771.90077  0.019345884  0.018761838            2 
 3326000   0.71454401   -7.7495214    770.54307   0.01930605  0.018756122            3 
 3327000   0.72699703    -7.751869    771.36351  0.019320797  0.018750398            6 
 3328000   0.72718765   -7.7676581    771.66485  0.019322537  0.018744671            4 
 3329000   0.71096708   -7.7547111    770.55916  0.019289055  0.018738931            3 
 3330000   0.71697423   -7.7618567    770.35985  0.019278275  0.018733182            3 
 3331000   0.72059108   -7.7541007    770.80057  0.019283513  0.018727452            3 
 3332000   0.71809301   -7.7808219    771.94715  0.019306401  0.018721724            3 
 3333000   0.71407146   -7.7629319    773.03523  0.019327813  0.018716002            7 
 3334000    0.7114346   -7.7708108    770.23951  0.019252137  0.018710293            3 
 3335000   0.72014017   -7.7566246    771.44972  0.019276605  0.018704573            5 
 3336000   0.71852044   -7.7704429    771.51761  0.019272522  0.018698848            3 
 3337000   0.71677711   -7.7948238    770.19431  0.019233701  0.018693112            3 
 3338000   0.70838725   -7.7643907    770.23087  0.019228851   0.01868738            3 
 3339000   0.71007009   -7.7580168    771.52062  0.019255282   0.01868166            4 
 3340000   0.73113157   -7.7880346    769.93162  0.019209871   0.01867593            6 
 3341000    0.7204788   -7.7647085    770.04507  0.019206951  0.018670207            5 
 3342000   0.70412438   -7.7806395    770.62409  0.019215642  0.018664466            3 
 3343000   0.71835373   -7.7666344    771.01753  0.019219701  0.018658716            8 
 3344000   0.71865965    -7.750882    771.50433  0.019226085  0.018652975            3 
 3345000     0.714495    -7.806703    769.95298  0.019181689  0.018647218            5 
 3346000   0.68920188    -7.777837    771.42146  0.019212529  0.018641462            2 
 3347000   0.72089496    -7.787062    769.68322   0.01916351  0.018635696            3 
 3348000   0.70687069    -7.779273    770.28466  0.019172756   0.01862995            4 
 3349000   0.70678631   -7.7733496    770.37996  0.019169403  0.018624193            5 
 3350000   0.72824383   -7.7849677    770.25488  0.019160569  0.018618428            2 
 3351000   0.70998235   -7.7785097    769.87147  0.019145317  0.018612662            3 
 3352000   0.71602476    -7.746842    770.89826  0.019165132  0.018606905            3 
 3353000   0.71643807   -7.7958226    768.49456  0.019099676  0.018601152            7 
 3354000   0.70842157   -7.7977513    769.82022  0.019126919  0.018595383            3 
 3355000   0.70250749   -7.7900491    769.42057  0.019111291  0.018589624            5 
 3356000   0.70817755   -7.7826869    771.03985  0.019145805  0.018583851            3 
 3357000   0.71661016   -7.8047048    769.28273  0.019096483  0.018578087            5 
 3358000   0.72107657   -7.8008303    768.35268  0.019067716  0.018572319            4 
 3359000   0.71338193   -7.7910066     769.7613  0.019096986  0.018566571            5 
 3360000   0.72102378   -7.7824447    769.65375  0.019088635  0.018560802            4 
 3361000   0.71849433    -7.788966    770.17113  0.019095783  0.018555046            6 
 3362000   0.70945909   -7.7689998    770.14314   0.01908941  0.018549313            4 
 3363000   0.70415455   -7.7728427    770.24019  0.019086138  0.018543585            3 
 3364000   0.71113164   -7.7864166    771.84758  0.019120283  0.018537853            4 
 3365000    0.7114577   -7.7984531    770.63278  0.019084517  0.018532102            5 
 3366000   0.71263952   -7.7750029    771.03252  0.019088743  0.018526356            6 
 3367000   0.70672495   -7.7687836     768.9435  0.019031371  0.018520612            8 
 3368000   0.73092262   -7.7880909    770.31877  0.019059748  0.018514873           10 
 3369000   0.70248232   -7.7789421     768.6436  0.019012655  0.018509124            3 
 3370000   0.70917106   -7.7742352     769.4269  0.019026382  0.018503391            3 
 3371000   0.72088175   -7.7855481    769.79674  0.019029881  0.018497668            6 
 3372000   0.71815587   -7.7965206    770.70515  0.019046687  0.018491936            5 
 3373000   0.71749434   -7.8072259    771.37423  0.019057571  0.018486188            5 
 3374000   0.72300989   -7.7804838    771.86162   0.01906396  0.018480454            5 
 3375000   0.70609833   -7.7723727    770.75321  0.019030944  0.018474735            5 
 3376000   0.71655021   -7.8012313    771.42717  0.019041942     0.018469            9 
 3377000    0.6989855   -7.7788587    771.36921  0.019034873  0.018463279            4 
 3378000   0.71933254   -7.7899163     772.0457  0.019045927  0.018457541            5 
 3379000   0.69862718   -7.8038299    770.64547  0.019005758  0.018451806            7 
 3380000   0.71573038   -7.7893015    770.84376  0.019005024  0.018446063            5 
 3381000    0.7124788   -7.8166582     771.3572  0.019012058  0.018440326            8 
 3382000   0.70461658   -7.8127811    770.86538  0.018994317  0.018434591            5 
 3383000   0.72547955   -7.7777534    770.10014  0.018969853  0.018428861            4 
 3384000     0.704103   -7.7645577     770.4911  0.018973874  0.018423135            4 
 3385000   0.69683239   -7.7821032     770.7279  0.018974099  0.018417399            2 
 3386000   0.71608397   -7.7942445    769.23476  0.018931747  0.018411664            3 
 3387000   0.71485414   -7.7996575    771.02774  0.018970272  0.018405948            4 
 3388000   0.69844761   -7.7777697     771.3226  0.018971925  0.018400237            4 
 3389000   0.70421027    -7.793434    771.04251   0.01895944  0.018394523            4 
 3390000    0.7203459   -7.7726534    770.77463  0.018947262  0.018388812            3 
 3391000   0.71370246   -7.7945644    771.77115  0.018966164  0.018383132            3 
 3392000   0.70238112   -7.8127803    771.94047  0.018964733  0.018377447            2 
 3393000    0.7126694   -7.7883746    771.22056  0.018941462  0.018371765            5 
 3394000    0.6935473   -7.8036056    769.76628  0.018900174  0.018366059            3 
 3395000   0.70482437   -7.7663361    771.85984  0.018945995  0.018360366            4 
 3396000   0.70513106    -7.782108    772.46815  0.018955343   0.01835469           10 
 3397000   0.72708738   -7.7686049     771.4002  0.018923565   0.01834903            3 
 3398000   0.71808006    -7.776391     771.8974  0.018930189  0.018343366            3 
 3399000   0.70226737   -7.8143016    771.24228  0.018908558  0.018337721            2 
 3400000    0.7088291   -7.7919489    770.63542  0.018888123  0.018332045            3 
 3401000   0.71275331   -7.8003163    770.57999  0.018881211   0.01832637            4 
 3402000   0.69712355   -7.8236236    771.34347  0.018894363  0.018320689            5 
 3403000   0.71835818    -7.790199    772.11716  0.018907757  0.018315029            4 
 3404000    0.7120769   -7.7734834    772.34029  0.018907665  0.018309386            4 
 3405000    0.7130866   -7.7959056     772.0893  0.018895969  0.018303756            4 
 3406000   0.70950389   -7.8179619    772.18024  0.018892646  0.018298111            4 
 3407000   0.70995881   -7.7986728    772.81963   0.01890274  0.018292462            3 
 3408000    0.7028879   -7.8081392    772.41851  0.018887385  0.018286845            4 
 3409000   0.71568563   -7.8000744    772.72187   0.01888926  0.018281207            5 
 3410000   0.69577587   -7.7952329    771.42391  0.018852002  0.018275555            8 
 3411000   0.68557166   -7.8134427    773.35852  0.018893739  0.018269905            3 
 3412000   0.70938064   -7.8171581    770.85245  0.018826994  0.018264238            3 
 3413000   0.71024101   -7.8145478    772.02119  0.018850014  0.018258586            3 
 3414000   0.69803874   -7.8121449    772.58337  0.018858215  0.018252928            3 
 3415000   0.70367304   -7.8136043    770.27316  0.018796319  0.018247263            4 
 3416000   0.70666974   -7.8174361    771.37179  0.018817618  0.018241588            8 
 3417000   0.70491043   -7.8191122    772.03935  0.018828391  0.018235913            6 
 3418000   0.69579465   -7.8051028    773.29412  0.018853475  0.018230247            4 
 3419000    0.6977775   -7.8226737    771.41356  0.018802125  0.018224586            7 
 3420000   0.70710041   -7.8046652    771.71726  0.018804027  0.018218915            4 
 3421000   0.70886915   -7.8149392    770.44712   0.01876759  0.018213261            4 
 3422000   0.70823071   -7.8291385    769.71684  0.018744322  0.018207593            3 
 3423000   0.71699929   -7.7880144    772.80284  0.018813975  0.018201928            3 
 3424000   0.69530095    -7.809346    772.80074  0.018808429  0.018196258            2 
 3425000   0.70502831   -7.8096363    770.83469  0.018755102  0.018190591            4 
 3426000   0.68426811   -7.8285464    770.58682  0.018743599  0.018184929            6 
 3427000   0.69940513   -7.7945099    771.46726  0.018759539  0.018179277            2 
 3428000   0.68564944   -7.8076443    771.14076  0.018746129  0.018173638            2 
 3429000   0.69531184   -7.8301415    769.96109  0.018711993  0.018167986            7 
 3430000   0.72463455   -7.7903021    770.93767  0.018730264  0.018162347            3 
 3431000   0.72455498   -7.8368141    771.60794  0.018741085  0.018156714            3 
 3432000    0.7155211   -7.8013221    772.80091  0.018764591  0.018151095            4 
 3433000   0.70589446   -7.8113564    771.76624  0.018734009  0.018145455            5 
 3434000   0.70008598   -7.8374254    769.90707  0.018683437  0.018139827            3 
 3435000   0.72136779   -7.8112597    771.88254  0.018725923  0.018134203            5 
 3436000   0.69964937   -7.8097397    771.12807  0.018702175  0.018128578            3 
 3437000   0.71427511   -7.8031225    772.07701  0.018719741  0.018122978            5 
 3438000   0.71096566   -7.8081357    773.40784  0.018746554  0.018117384            3 
 3439000   0.69692629    -7.816114    773.39019  0.018740675  0.018111796            9 
 3440000   0.70074716   -7.8176608    773.06337   0.01872731  0.018106195            3 
 3441000   0.69413977    -7.818695    772.73533  0.018713923  0.018100574            3 
 3442000   0.69066377   -7.8010251    771.66485   0.01868257  0.018094956            3 
 3443000   0.71245238   -7.8386704    771.13942  0.018664426  0.018089346            4 
 3444000   0.69686577   -7.8223609    773.80698  0.018723553  0.018083753            6 
 3445000   0.69652814   -7.7862618    772.85127  0.018694999   0.01807816            2 
 3446000    0.6923187   -7.8265712    774.30239  0.018724666  0.018072559            5 
 3447000   0.70543383   -7.8348694    771.83389  0.018659556  0.018066948            6 
 3448000   0.70022088   -7.8424558     772.1765  0.018662425  0.018061348            3 
 3449000   0.69286488   -7.8186067    773.25766  0.018683137  0.018055736            4 
 3450000   0.69466001   -7.7995602     773.0419   0.01867251  0.018050131            3 
 3451000   0.69524249    -7.847732    770.84559  0.018614063  0.018044538            2 
 3452000   0.71342706   -7.8233198    771.02927  0.018613105  0.018038914            2 
 3453000   0.69017445    -7.827952    773.61374  0.018670087  0.018033295            4 
 3454000   0.68907039   -7.8216223    772.11486  0.018628519  0.018027675            3 
 3455000   0.69891179   -7.8082452    772.52888  0.018633113  0.018022091            3 
 3456000   0.67987252    -7.813835    773.43531  0.018649578  0.018016496            3 
 3457000   0.68680293   -7.8180491    772.85459  0.018630185  0.018010915            7 
 3458000   0.70197152   -7.8064758    773.82279   0.01864813  0.018005335            5 
 3459000   0.70987563   -7.8329948    772.24294  0.018604677  0.017999752            2 
 3460000   0.68888337   -7.8162079    773.08993    0.0186197  0.017994149            3 
 3461000   0.71605067   -7.8089537    772.47443    0.0185995  0.017988562            4 
 3462000   0.69640428   -7.8223602    773.44415  0.018617469  0.017982966            6 
 3463000   0.69445252   -7.8356234    772.68173  0.018593746  0.017977367            3 
 3464000   0.69263951   -7.8269536    772.42513  0.018582206  0.017971778            4 
 3465000    0.6978132   -7.8118331    772.13225  0.018569799  0.017966189            4 
 3466000   0.69163448   -7.8319732    772.97994  0.018584822  0.017960614            6 
 3467000    0.7055355   -7.8158181    772.08179  0.018557874  0.017955037           10 
 3468000   0.72175429   -7.8144717    773.25403  0.018580691  0.017949482            3 
 3469000   0.69518506   -7.8008916    773.99006  0.018593016  0.017943923            6 
 3470000   0.70591973   -7.8220353    773.37236  0.018572823  0.017938364            5 
 3471000   0.69394483   -7.8121657    773.91209   0.01858043  0.017932816            2 
 3472000   0.68254532   -7.8421005    774.62633  0.018592222  0.017927259            5 
 3473000   0.71221694   -7.8411003    773.47467  0.018559235  0.017921706            2 
 3474000   0.70101575     -7.82102    774.81892  0.018586138  0.017916164            1 
 3475000   0.68340543   -7.8317305    773.42326   0.01854732  0.017910632            2 
 3476000   0.69418571   -7.8345807    774.77674  0.018574433  0.017905102            4 
 3477000   0.71543679   -7.8038701    775.13017  0.018577561  0.017899558            3 
 3478000    0.7086508   -7.8147848    774.99019  0.018568866  0.017894021            7 
 3479000   0.68800908   -7.8207995    774.23813  0.018545514  0.017888484            3 
 3480000   0.69040459    -7.832823    773.68315  0.018526895  0.017882953            3 
 3481000   0.68950348    -7.831048    773.35942  0.018513823  0.017877427            5 
 3482000   0.69333811   -7.8287148    774.32226  0.018531549  0.017871892            3 
 3483000   0.68124228   -7.8567265     773.8144  0.018514078  0.017866344            3 
 3484000   0.70912084   -7.8341016    774.82952  0.018533044   0.01786081            2 
 3485000   0.68814232   -7.8421789    772.91373  0.018481916  0.017855278            7 
 3486000    0.6908899   -7.8568281    773.84594  0.018498899   0.01784973            3 
 3487000    0.6948016   -7.8316731    773.19661  0.018478076  0.017844176            2 
 3488000   0.69335301   -7.8451835    771.97342  0.018443555   0.01783862            8 
 3489000   0.69798258   -7.8479132    773.37769  0.018471809  0.017833067            4 
 3490000   0.68484815   -7.8281295    773.73035  0.018474937   0.01782752            4 
 3491000   0.68853355   -7.8494238    774.58448  0.018490033  0.017821996            3 
 3492000   0.67846313   -7.8648072    773.49151  0.018458656  0.017816457            4 
 3493000   0.67742347   -7.8420031    773.90052  0.018463129  0.017810931            3 
 3494000   0.69541244   -7.8227228    775.23088  0.018489574  0.017805403            2 
 3495000   0.69932368   -7.8440081    775.27458  0.018485326  0.017799882            4 
 3496000   0.68797988   -7.8068238    773.91053  0.018447524   0.01779437            6 
 3497000   0.68587196   -7.8446905    772.75583  0.018414732  0.017788852            3 
 3498000   0.69222033   -7.8585348    774.45479  0.018449943  0.017783341            5 
 3499000   0.72022725   -7.8383997     773.7822  0.018428651  0.017777836            8 
 3500000   0.69458559   -7.8468541    774.48811  0.018440193  0.017772331            3 
 3501000   0.69609801   -7.8500768    773.62719  0.018414434  0.017766842            8 
 3502000   0.68377786   -7.8227642    772.14073  0.018373804  0.017761337            5 
 3503000    0.6961948   -7.8223328    773.62502  0.018403869  0.017755817            4 
 3504000   0.70168275    -7.834396    774.42614  0.018417669  0.017750306            4 
 3505000   0.70153094   -7.8426688    772.44869  0.018365399  0.017744786            5 
 3506000   0.69193149   -7.8470841    774.63452  0.018412115  0.017739254            4 
 3507000   0.69423349   -7.8352884    773.33802  0.018376058  0.017733727            2 
 3508000   0.68493573   -7.8341207    774.20642  0.018391449  0.017728202            4 
 3509000   0.69435944   -7.8384129    772.78735  0.018352507  0.017722693            6 
 3510000   0.67622832   -7.8448215    772.41933  0.018338541  0.017717168            3 
 3511000   0.67653516   -7.8682833    772.81359  0.018342675  0.017711651            2 
 3512000   0.69532409    -7.857794    773.32952  0.018349694  0.017706126            4 
 3513000   0.68076853   -7.8410602    775.08426  0.018386096  0.017700618            2 
 3514000   0.68141589   -7.8756028    771.80138  0.018303011  0.017695104            2 
 3515000     0.688691   -7.8492305    773.23991  0.018331909  0.017689584            5 
 3516000   0.68394626   -7.8509201    773.64555  0.018336309  0.017684079            4 
 3517000   0.67495626   -7.8523458    773.02173  0.018316314  0.017678566            4 
 3518000   0.68419905   -7.8422753    774.52059  0.018346612  0.017673038            4 
 3519000   0.68387771   -7.8332383    773.09214  0.018307572  0.017667524            2 
 3520000    0.6877965   -7.8671127    774.80133  0.018342835  0.017662013            5 
 3521000     0.693942   -7.8675586     772.9791  0.018294497  0.017656509            3 
 3522000   0.69126206    -7.870069    772.36708  0.018274822  0.017650993            4 
 3523000   0.67094985    -7.846939    774.42235   0.01831825  0.017645491            4 
 3524000   0.68316318   -7.8489734    774.67711  0.018319077  0.017639981            3 
 3525000   0.68484116   -7.8521409    774.21018  0.018302841   0.01763449            5 
 3526000   0.66987555   -7.8441065    774.87453  0.018313351  0.017629007            3 
 3527000   0.68628289   -7.8689533    774.38206  0.018296523  0.017623503            3 
 3528000   0.67716301   -7.8405465    774.95579  0.018304889  0.017618009            2 
 3529000   0.68493126   -7.8545894    772.68408  0.018246058  0.017612505            4 
 3530000   0.67722869   -7.8530112    773.32219  0.018255954  0.017606992            3 
 3531000    0.6769418   -7.8674482    772.98014  0.018242711  0.017601478            4 
 3532000   0.67697884   -7.8549141    773.58806  0.018251889  0.017595967            3 
 3533000   0.68985783   -7.8365144    771.60173  0.018199871  0.017590474            6 
 3534000    0.6857964   -7.8727423    774.71596  0.018268156  0.017584981            5 
 3535000   0.69844466   -7.8562716     772.4782  0.018210236   0.01757947            5 
 3536000   0.69742061   -7.8816247    772.70745  0.018210488  0.017573955            4 
 3537000   0.69606501    -7.858381    773.43285  0.018222431  0.017568437            4 
 3538000   0.68061903   -7.8499492    772.76932  0.018201652  0.017562919           14 
 3539000   0.69475853   -7.8544254    773.93665  0.018223996  0.017557419            8 
 3540000   0.67646275   -7.8625486    774.12076  0.018223182   0.01755193            7 
 3541000   0.69560456    -7.837517    773.48783   0.01820314  0.017546452           10 
 3542000   0.67859249   -7.8698849    774.44639  0.018220553  0.017540974            9 
 3543000    0.6878663    -7.836455    775.08244  0.018230371  0.017535516            4 
 3544000   0.69145168   -7.8409933     774.4556  0.018210487  0.017530055            4 
 3545000   0.68580893    -7.858427    774.85826  0.018214816  0.017524589            4 
 3546000   0.70398194   -7.8519053    774.40555   0.01819904  0.017519113            4 
 3547000   0.66957608   -7.8460055     774.5576  0.018197482  0.017513662            4 
 3548000   0.68915898   -7.8743474    773.75452   0.01817349  0.017508195            4 
 3549000   0.68611727   -7.8595611    775.08629  0.018199641  0.017502739            4 
 3550000   0.69104948   -7.8546018    774.49012  0.018180519  0.017497291            2 
 3551000   0.67156864   -7.8612599    774.85062   0.01818386  0.017491825            6 
 3552000   0.69684747   -7.8503117    772.79564  0.018130528  0.017486362            3 
 3553000   0.69656806   -7.8551123    774.08281  0.018155615  0.017480884            2 
 3554000   0.67953849   -7.8656727    774.63722  0.018163506  0.017475417            5 
 3555000   0.67435819   -7.8612877    774.55155  0.018156389  0.017469954            2 
 3556000   0.68145867   -7.8633795    773.65432  0.018130257  0.017464491            3 
 3557000   0.68728326   -7.8536536    772.63083  0.018101182  0.017459028            2 
 3558000   0.68202754   -7.8381893    774.05413   0.01812943  0.017453579            5 
 3559000   0.69783462   -7.8586065    772.98521  0.018099307  0.017448123            2 
 3560000   0.67746128    -7.845071    775.51695  0.018153487  0.017442657            3 
 3561000   0.67656038   -7.8501644    773.86075  0.018109631  0.017437196            4 
 3562000   0.68796848   -7.8423291    774.98429  0.018130832  0.017431738            3 
 3563000    0.6780754   -7.8589701    773.88177  0.018099957  0.017426279            3 
 3564000   0.68575321   -7.8304619    775.02026  0.018121499   0.01742081            3 
 3565000    0.6938162   -7.8550336    775.14985  0.018119445  0.017415356            2 
 3566000   0.68094697   -7.8525529    773.60242  0.018078202  0.017409907            6 
 3567000   0.68658888   -7.8500833    774.43142  0.018092501  0.017404451            7 
 3568000   0.68000632    -7.862674     773.2569  0.018059999  0.017398997            4 
 3569000   0.68503349   -7.8478941    774.60733   0.01808647  0.017393532            8 
 3570000   0.68780018   -7.8612457    773.47773  0.018055036  0.017388075            9 
 3571000   0.70502996   -7.8830051    773.43903  0.018049076  0.017382627            4 
 3572000   0.68563283   -7.8589208    772.39625  0.018019696  0.017377178            9 
 3573000   0.66509175   -7.8672461    773.23383  0.018034188  0.017371714            9 
 3574000   0.67023439   -7.8583341     775.6678  0.018085894   0.01736627            7 
 3575000   0.66919297   -7.8360418    774.60328  0.018056021  0.017360815            3 
 3576000    0.6872269   -7.8802909    773.91526  0.018034938   0.01735535            7 
 3577000   0.68373626   -7.8822681    773.25262  0.018014459  0.017349883            4 
 3578000   0.67413642   -7.8832293    771.89011   0.01797769  0.017344417            4 
 3579000   0.69076605   -7.8791891    773.87878  0.018018971  0.017338963            3 
 3580000   0.68903949   -7.8835771    775.33789  0.018047903  0.017333517            4 
 3581000   0.68303948   -7.8850908    775.73073  0.018052004  0.017328057            5 
 3582000   0.66978926   -7.8749141    774.01983  0.018007162  0.017322601            6 
 3583000   0.67199262   -7.8983079    774.25243  0.018007546   0.01731714            5 
 3584000   0.66878874   -7.8741821    772.36351  0.017958601  0.017311683            6 
 3585000   0.67076363   -7.8986115    772.15724  0.017948797  0.017306215           15 
 3586000   0.67755998   -7.8818281    774.12909  0.017989614  0.017300744            4 
 3587000   0.67680751   -7.8878043    772.77624   0.01795317  0.017295278            5 
 3588000   0.68230338    -7.897857    773.77062  0.017971261  0.017289801            3 
 3589000   0.67586772   -7.8804428    774.02681  0.017972202  0.017284323            4 
 3590000   0.67997837   -7.8836888    772.79369  0.017938572  0.017278861           12 
 3591000    0.6800189   -7.8863701    774.37039  0.017970166    0.0172734            5 
 3592000   0.68641869   -7.9061164    773.73464  0.017950414   0.01726793            5 
 3593000   0.67988172   -7.8851744    772.87202  0.017925411  0.017262469            5 
 3594000   0.68575982   -7.8669725    773.18614  0.017927707   0.01725701            3 
 3595000   0.68171626   -7.8885356    772.91081  0.017916338  0.017251563            4 
 3596000   0.66790385   -7.9020611    774.43005  0.017946562  0.017246126            2 
 3597000   0.67702931   -7.8829383    773.34965  0.017916543  0.017240705           14 
 3598000   0.66084259   -7.8959981    773.01289  0.017903763  0.017235267            3 
 3599000   0.69707989   -7.8937448    774.60192  0.017935582  0.017229838            2 
 3600000   0.68243104   -7.8892323    773.14147  0.017896793  0.017224422            5 
 3601000   0.67890343   -7.8739076    775.35282  0.017942998  0.017219027            3 
 3602000   0.66258966   -7.8745714    776.03611  0.017953824  0.017213638            9 
 3603000   0.66843053    -7.881328    775.50201  0.017936488  0.017208246            3 
 3604000   0.69362289   -7.8889052    775.24272  0.017925516  0.017202866            6 
 3605000   0.68259008    -7.861663    773.59206  0.017882387  0.017197482            4 
 3606000    0.6894223   -7.8813594    774.08187  0.017888747  0.017192081            4 
 3607000   0.66862333   -7.8880093    775.52608  0.017917154    0.0171867            7 
 3608000   0.66535901   -7.8690014    775.31861  0.017907396  0.017181316            3 
 3609000   0.67759785   -7.8400199    775.15939  0.017898757  0.017175938            6 
 3610000   0.68064156   -7.8792118    775.67659  0.017905739   0.01717057            4 
 3611000   0.67372821   -7.8645971    775.30301  0.017892159    0.0171652            5 
 3612000   0.68133772   -7.9011845    775.24606  0.017885891  0.017159824            4 
 3613000   0.68313984   -7.8772053    776.03086  0.017899042  0.017154444            2 
 3614000   0.68201413   -7.8456165    774.40339  0.017856562  0.017149079            5 
 3615000   0.67328506   -7.8712896    776.38064  0.017897202  0.017143713            3 
 3616000   0.67224148   -7.8888912    776.63889  0.017898205  0.017138331            8 
 3617000   0.68451362   -7.8729806    775.07523   0.01785723  0.017132947            6 
 3618000   0.65075242   -7.8692907    774.72782  0.017844293  0.017127565            6 
 3619000   0.67181777   -7.8698982    776.43573   0.01787869  0.017122186            6 
 3620000   0.66468432   -7.8588915    777.12772  0.017889681   0.01711681            3 
 3621000     0.677388   -7.8867665    775.21101  0.017840629  0.017111432            9 
 3622000   0.67523736    -7.879913    774.75052  0.017825109  0.017106049            8 
 3623000   0.65964827   -7.9021771    775.66449  0.017841211  0.017100668            6 
 3624000    0.6739915   -7.9064086    774.51784  0.017809921  0.017095291            5 
 3625000   0.65005934    -7.870376    774.59698  0.017806827  0.017089914            6 
 3626000     0.691907   -7.8790426    778.13307  0.017883183  0.017084546            5 
 3627000   0.66625166    -7.903131    775.37925  0.017814981  0.017079177           10 
 3628000   0.67680079    -7.893535    774.45497  0.017788841  0.017073814            7 
 3629000   0.66590272   -7.8685359    774.19004  0.017777855  0.017068458            3 
 3630000   0.66356479   -7.8585072    775.00876  0.017791753  0.017063125            7 
 3631000   0.68320593   -7.8865258    774.45139  0.017774061  0.017057786           12 
 3632000   0.67009836   -7.8654746    775.16664  0.017785578  0.017052436            5 
 3633000   0.67512771   -7.8957331    775.39464  0.017785912  0.017047091            5 
 3634000   0.66885598   -7.9149344    773.91562  0.017747102  0.017041737            8 
 3635000   0.67958579   -7.8907078    775.01889  0.017767512   0.01703639            5 
 3636000   0.68149016     -7.88729    775.98434  0.017784753  0.017031043            4 
 3637000   0.67984008   -7.8948244    776.10426  0.017782611  0.017025692            3 
 3638000   0.68480018   -7.8976349    775.78583  0.017770429  0.017020347            5 
 3639000   0.68028363   -7.8665339    774.80644  0.017743117  0.017014997            3 
 3640000   0.65549083   -7.9075681     774.9776  0.017742161  0.017009639            4 
 3641000   0.67133071   -7.9000967    775.11679  0.017740474  0.017004271            5 
 3642000   0.67559361   -7.9179026    773.29539  0.017693927  0.016998906            6 
 3643000   0.67319316   -7.9231246    773.94526  0.017703936  0.016993537            7 
 3644000    0.6888525   -7.8971417     775.5582  0.017735963  0.016988181            7 
 3645000   0.66791383   -7.8872817     774.2088  0.017700247  0.016982832            9 
 3646000   0.65788282   -7.8934602    776.85514  0.017755877  0.016977479            4 
 3647000   0.67429537   -7.9065083    774.90269  0.017706395  0.016972141            4 
 3648000   0.67225629   -7.9083894    774.52985  0.017693025  0.016966807            6 
 3649000   0.66410528   -7.9018078    774.87249  0.017696001  0.016961477            7 
 3650000   0.67358237   -7.9266948    774.65245  0.017686129   0.01695614            4 
 3651000   0.67346148   -7.9055151    774.68437  0.017682013  0.016950801           12 
 3652000   0.66924542   -7.9027173    775.03301  0.017685127  0.016945461            8 
 3653000   0.67089472   -7.9049948    774.40504   0.01766596  0.016940123            5 
 3654000   0.66478231   -7.9083618    775.79179  0.017692752  0.016934799            4 
 3655000   0.67822148   -7.9004075    774.74121  0.017663958  0.016929469            5 
 3656000   0.66373644   -7.8989397    773.37889  0.017628075  0.016924139            4 
 3657000   0.67745441   -7.9099456    776.24486  0.017688562  0.016918813            3 
 3658000   0.66033006   -7.9097287    774.70885  0.017648734  0.016913496            2 
 3659000   0.67167548   -7.8960126    774.96336  0.017649708  0.016908187            5 
 3660000   0.66012495   -7.9059931    773.99524  0.017622843  0.016902868            2 
 3661000   0.67017255   -7.9013658    775.36829  0.017649283  0.016897562            6 
 3662000   0.68579339   -7.9024413    775.83607  0.017655108  0.016892248            6 
 3663000   0.66789207   -7.9254692    774.80012   0.01762672  0.016886937            2 
 3664000   0.66961047   -7.9086509    775.69626  0.017642291  0.016881625            6 
 3665000   0.66413485   -7.9092366    774.69179  0.017614638  0.016876311            4 
 3666000   0.68331819   -7.9148355    775.32131  0.017624143  0.016871001            7 
 3667000   0.64860782   -7.9079764     773.9261  0.017587631  0.016865683            3 
 3668000   0.66604633   -7.9182917    776.63859  0.017644461  0.016860356           12 
 3669000   0.65663619   -7.9252078    773.95485  0.017578696  0.016855035            4 
 3670000   0.66693646   -7.9017712    775.87119   0.01761742  0.016849706            5 
 3671000   0.66928554   -7.9128003     774.8847  0.017590228  0.016844389            3 
 3672000   0.67524015   -7.9238577      776.647  0.017625431  0.016839076            4 
 3673000   0.66849501   -7.9195481     774.9836  0.017582893  0.016833763            2 
 3674000   0.66467075   -7.9225058    773.66529  0.017548206  0.016828443            3 
 3675000   0.66528816   -7.9223852    774.95821  0.017572749  0.016823131            6 
 3676000   0.66726682    -7.941944    774.44124  0.017556249   0.01681781            2 
 3677000   0.66002245   -7.9222728    774.88416  0.017561512   0.01681249            5 
 3678000   0.67228827   -7.8924192    774.59342   0.01755015  0.016807184            3 
 3679000   0.65075612   -7.9298631     774.7633  0.017549228   0.01680188            5 
 3680000    0.6571991   -7.9286203    774.93185  0.017548275  0.016796567            4 
 3681000    0.6549044   -7.9238194    774.62239  0.017536503  0.016791252            4 
 3682000   0.66919501   -7.8961762    774.26054   0.01752355  0.016785939            5 
 3683000    0.6653426   -7.9246022    774.24848  0.017518519  0.016780634            2 
 3684000   0.65766412   -7.9212215    773.62999  0.017499774  0.016775321            5 
 3685000   0.66291051   -7.9383069    775.01928  0.017526442  0.016770016            4 
 3686000   0.65903731   -7.9101187    773.79944  0.017494109  0.016764703            3 
 3687000   0.65575213   -7.9135828    776.67954   0.01755446  0.016759385            5 
 3688000   0.65773627    -7.930016    774.50356  0.017500532  0.016754084            3 
 3689000   0.67465928   -7.9271531    775.62301  0.017521076   0.01674878            6 
 3690000   0.65205899   -7.9241333    774.22948  0.017484857  0.016743476            8 
 3691000   0.66281049   -7.9246844    774.46669  0.017485476  0.016738172            4 
 3692000   0.66371424   -7.9361453    774.58045  0.017483307  0.016732864            4 
 3693000   0.66252734   -7.9090091    773.35419  0.017450902  0.016727557            2 
 3694000   0.66195435   -7.9363662    774.49745  0.017471969  0.016722245            4 
 3695000   0.66855386   -7.9403043    773.47269  0.017444129  0.016716947            3 
 3696000    0.6846423   -7.9030502    774.47292  0.017461962  0.016711657            6 
 3697000   0.64714954    -7.908924     775.0867  0.017471073  0.016706384            4 
 3698000   0.66746917   -7.9307326    774.72498  0.017458198  0.016701094            3 
 3699000   0.65778226   -7.9199269    773.53779  0.017426732  0.016695803            3 
 3700000   0.67175554    -7.925786    774.95373  0.017453913  0.016690507            3 
 3701000   0.65545753     -7.92357     774.3168  0.017434855  0.016685209            4 
 3702000   0.65951296   -7.9461133    773.50467  0.017411865  0.016679898            4 
 3703000    0.6574176   -7.9513277    772.44955  0.017383418  0.016674591            6 
 3704000   0.64124214   -7.9449614    773.93654  0.017412179  0.016669285            6 
 3705000   0.65524431   -7.9313675    774.78454  0.017426553  0.016663988            4 
 3706000   0.66287875   -7.9454558    773.61383  0.017395526  0.016658687            5 
 3707000   0.66787838   -7.9273746    774.20041   0.01740402  0.016653408            6 
 3708000   0.66257551   -7.9262983    775.27812  0.017423546   0.01664813            3 
 3709000   0.65491783   -7.9250996    774.50783  0.017401542  0.016642852            5 
 3710000   0.67366344   -7.9261299    773.21243  0.017367754  0.016637556            5 
 3711000   0.65857123   -7.9360172    773.86753  0.017377785  0.016632257            4 
 3712000   0.64817591   -7.9468492    773.74676  0.017370392   0.01662698            6 
 3713000   0.66534083   -7.9205914    773.51621   0.01736054  0.016621702            4 
 3714000   0.66476399   -7.9286259    775.37327  0.017397533  0.016616433            4 
 3715000   0.65601881   -7.9457249    773.03524  0.017340405  0.016611161            4 
 3716000   0.65511517   -7.9345178    774.06102  0.017358742    0.0166059            6 
 3717000   0.64200919   -7.9306431    774.15569  0.017356194   0.01660063            4 
 3718000   0.65234588   -7.9223866    773.39253  0.017334421  0.016595369            5 
 3719000   0.64718759   -7.9509067     772.7396   0.01731513  0.016590102            6 
 3720000   0.66529701   -7.9112947    774.41179  0.017347934  0.016584834            4 
 3721000   0.65648805   -7.9077444    774.66222  0.017348881  0.016579572            4 
 3722000   0.65123836   -7.9283263    774.98194  0.017351378  0.016574308            7 
 3723000   0.65192309   -7.9493974    775.09122  0.017349163  0.016569047            4 
 3724000   0.65600985   -7.9018065    773.71854  0.017313788  0.016563798            5 
 3725000   0.64569018   -7.9316697    774.62319  0.017329378  0.016558566            9 
 3726000   0.65744267   -7.9342333    775.57474  0.017346009  0.016553335            7 
 3727000    0.6456911   -7.9437905    775.63412  0.017342682  0.016548095            7 
 3728000   0.66401945   -7.9492624    774.19766  0.017305921  0.016542851            9 
 3729000   0.65457644   -7.9371227    774.84985  0.017315854  0.016537613            5 
 3730000   0.65445908   -7.9036135    776.30513  0.017343725   0.01653237            9 
 3731000   0.66086728   -7.9202163    776.61949  0.017346098  0.016527139            4 
 3732000   0.67141721   -7.9183027    776.18797  0.017331814  0.016521921            4 
 3733000    0.6494222   -7.9323599    773.16857  0.017259768  0.016516698            9 
 3734000    0.6446762   -7.9110714    773.99453  0.017273579  0.016511477            9 
 3735000   0.65187746   -7.9299925    775.01245  0.017291665  0.016506252            7 
 3736000   0.63123577   -7.9475968    775.29781  0.017293402  0.016501027           13 
 3737000   0.65350202   -7.9266803     774.4521  0.017269916  0.016495795            9 
 3738000   0.64710222   -7.9462991     775.3278  0.017284818  0.016490573            8 
 3739000   0.66074118   -7.9576619    773.20633  0.017232913   0.01648534            7 
 3740000   0.65756546   -7.9264861    774.63131  0.017260056  0.016480115            8 
 3741000   0.65078219    -7.942755    775.31447   0.01727066  0.016474904           12 
 3742000   0.66044405   -7.9356563    776.14868  0.017284622  0.016469688            4 
 3743000   0.65897986   -7.9331288    773.58016   0.01722282  0.016464474            5 
 3744000   0.66451734   -7.9233476    775.69337  0.017265255  0.016459267            8 
 3745000   0.65130179   -7.9495164    775.05528  0.017246446  0.016454047            9 
 3746000     0.652443   -7.9269058    775.60031  0.017253967  0.016448831            4 
 3747000   0.65974125   -7.9591656    773.57806  0.017204387  0.016443613           11 
 3748000   0.64133429   -7.9482064    775.72876  0.017247616  0.016438403            9 
 3749000   0.64959016   -7.9409884    774.15037   0.01720793  0.016433194            5 
 3750000   0.65269347   -7.9452647    774.77451  0.017217211  0.016427976            7 
 3751000   0.64938259    -7.955078    776.52735  0.017251563  0.016422764            5 
 3752000   0.65056195   -7.9692645    773.64847  0.017183024  0.016417565           11 
 3753000   0.66393972   -7.9453724    773.71004  0.017179813  0.016412354            3 
 3754000   0.65649764   -7.9297091    776.11288  0.017228576   0.01640716            6 
 3755000   0.65432538   -7.9470181    775.48089  0.017209962  0.016401971            5 
 3756000   0.66455391   -7.9547817    775.45715  0.017204853  0.016396768            4 
 3757000   0.64980317   -7.9527773    778.04238  0.017257617  0.016391572            4 
 3758000    0.6451105   -7.9691718    773.96737  0.017162661  0.016386378            5 
 3759000   0.65635055   -7.9543154    773.31312  0.017143591  0.016381175            4 
 3760000   0.65175699   -7.9561634    773.76815  0.017149117  0.016375962            6 
 3761000   0.65408367   -7.9721312    774.20752  0.017154292  0.016370756            8 
 3762000   0.67762301   -7.9681225    774.83641  0.017163663  0.016365551            8 
 3763000   0.65736948   -7.9471649    774.50236  0.017151704   0.01636036           10 
 3764000   0.65702454   -7.9303643    776.53648  0.017192182  0.016355179           10 
 3765000   0.64803368    -7.942498    773.83153  0.017127745  0.016349986            4 
 3766000   0.64447182   -7.9321853    776.03915  0.017172047  0.016344797            4 
 3767000    0.6607273   -7.9492248    774.44941   0.01713232  0.016339612            7 
 3768000   0.63717392   -7.9314063    775.68318   0.01715506  0.016334441            3 
 3769000   0.63990933   -7.9368916    775.01619  0.017135761  0.016329287            4 
 3770000   0.64654747   -7.9212228    773.54841  0.017098771  0.016324129            4 
 3771000    0.6571903   -7.9252904    774.35897  0.017112149  0.016318963            3 
 3772000   0.67341277   -7.9282915    776.42559  0.017153269  0.016313805            5 
 3773000   0.63293851   -7.9125958    774.86189  0.017114186  0.016308663            5 
 3774000   0.65139765   -7.9248455    774.88947   0.01711026   0.01630351            5 
 3775000   0.62480529   -7.9391435     776.2013  0.017134686  0.016298366            7 
 3776000   0.65783052   -7.9352485    777.39717  0.017156541   0.01629323            3 
 3777000   0.64706514   -7.9487909     775.3166  0.017106094  0.016288084            3 
 3778000   0.64785977    -7.932367    774.97952  0.017094131  0.016282941            5 
 3779000   0.64467317   -7.9358747    776.18095  0.017116101  0.016277801            3 
 3780000   0.65555592   -7.9398468    776.72678  0.017123606  0.016272664            5 
 3781000   0.64642717   -7.9369436    775.83826  0.017099494  0.016267532            4 
 3782000   0.66484411   -7.9419943    775.76362  0.017093328  0.016262403            4 
 3783000   0.65819043   -7.9342899    774.92784  0.017070399   0.01625726            3 
 3784000   0.65318445    -7.954241    775.10984  0.017069896  0.016252123            6 
 3785000   0.64152898   -7.9451725    776.60547  0.017098315  0.016246991            3 
 3786000   0.65803875    -7.931587    775.91271  0.017078551  0.016241856            2 
 3787000   0.64777082   -7.9608255    773.98837  0.017031696  0.016236716            5 
 3788000   0.64638675   -7.9384978    775.21345   0.01705415  0.016231571            7 
 3789000   0.65444997   -7.9823966    777.01749  0.017089326  0.016226444            3 
 3790000    0.6396144   -7.9563487    775.92223  0.017060735  0.016221309            4 
 3791000   0.64400896   -7.9308246    775.61629   0.01704951   0.01621617            3 
 3792000   0.65082849   -7.9695303    774.92307  0.017029779  0.016211033            6 
 3793000   0.64375637   -7.9700208    775.15347  0.017030351  0.016205906            4 
 3794000   0.62970561   -7.9294965    775.68643  0.017037569   0.01620078            2 
 3795000   0.64107588   -7.9632864    776.19753  0.017044302  0.016195664            9 
 3796000   0.63465387   -7.9677645    773.98323  0.016991202  0.016190533            4 
 3797000   0.64072213    -7.947024    777.32797  0.017060135  0.016185403            8 
 3798000   0.63733042   -7.9715346    774.50574  0.016993719  0.016180274            3 
 3799000   0.64431064   -7.9629088    775.71953  0.017015871  0.016175134            2 
 3800000   0.65680808   -7.9731434    774.97633  0.016995095      0.01617            7 
 3801000   0.63612377   -7.9545233    775.49442  0.017001982   0.01616488            4 
 3802000   0.64437572   -7.9789792    773.69204  0.016958005  0.016159758            9 
 3803000    0.6445737   -7.9615402    774.62131  0.016973909  0.016154641            3 
 3804000   0.62846399   -7.9727816     774.6377  0.016969806  0.016149509            4 
 3805000   0.64232924   -7.9734656    774.83605   0.01696969  0.016144395            3 
 3806000   0.63721573   -7.9590774    775.33401  0.016976134  0.016139283            6 
 3807000   0.63530177   -7.9423767     775.4482  0.016974175  0.016134176            2 
 3808000   0.65172059   -7.9612444     775.1321    0.0169628  0.016129064            5 
 3809000   0.63640726   -7.9639909    774.47523  0.016943976  0.016123944            5 
 3810000   0.63604649   -7.9742534    775.17431  0.016954819   0.01611881            7 
 3811000   0.63873041    -7.981491    774.85447  0.016943376   0.01611368            4 
 3812000   0.63235222   -7.9787108    775.82457  0.016960138  0.016108564            3 
 3813000   0.65607753   -7.9596265     777.5075  0.016992471  0.016103446            2 
 3814000   0.63832154   -7.9870595    775.01541  0.016933565  0.016098329            4 
 3815000   0.63288698   -7.9713706    774.93833  0.016927443  0.016093204            6 
 3816000   0.63966224   -7.9510371    776.71655  0.016961839  0.016088086            4 
 3817000   0.64551453    -7.974436     776.2207   0.01694657  0.016082968            7 
 3818000   0.64120648   -7.9539851    775.40421  0.016924311  0.016077866            3 
 3819000   0.64107319   -7.9578918    774.37061  0.016897325  0.016072746            3 
 3820000   0.64006294   -7.9604792     775.1492  0.016909887  0.016067643            3 
 3821000   0.65049799   -7.9724973    776.47051  0.016934278  0.016062526            6 
 3822000   0.66206015   -7.9354004    774.72996  0.016891897  0.016057425            6 
 3823000   0.62589859   -7.9729006    774.77562  0.016888474  0.016052322            4 
 3824000   0.65418738   -7.9718876    776.20381  0.016915181   0.01604722            4 
 3825000   0.63986592    -7.985502    775.16393  0.016888103  0.016042121            3 
 3826000   0.63623197   -7.9768724    775.53295  0.016891727  0.016037027            6 
 3827000   0.63480393   -7.9735145    774.79506  0.016871245  0.016031932            2 
 3828000   0.63181851   -7.9718423    776.19617  0.016897339  0.016026824            5 
 3829000   0.65821202   -7.9826871    775.25011  0.016872336  0.016021725            5 
 3830000   0.64261015   -7.9539266    773.39824  0.016827638  0.016016624            4 
 3831000    0.6402153   -7.9663414     774.7505   0.01685266  0.016011534            6 
 3832000   0.64137323   -7.9542129     775.9364  0.016874052  0.016006443            5 
 3833000   0.64291054   -7.9629591    775.29818  0.016855774  0.016001348            6 
 3834000   0.65068392   -7.9552682    775.91355  0.016864753  0.015996267            3 
 3835000   0.64084201   -7.9741474    773.99795   0.01681873  0.015991174            5 
 3836000   0.64232765   -7.9756376    775.89013  0.016855451  0.015986088            6 
 3837000   0.63830048   -7.9647874    776.68472  0.016868316  0.015980998            5 
 3838000   0.63367673   -7.9633507    773.73059  0.016799778  0.015975915            9 
 3839000   0.62126335   -7.9621903    775.41184  0.016831897  0.015970826            4 
 3840000   0.63471358   -7.9675215    775.99905  0.016840257  0.015965755            6 
 3841000   0.64988401   -7.9780435    774.42745  0.016801776  0.015960677            5 
 3842000   0.63937829   -7.9593382    775.65867  0.016824108  0.015955603            4 
 3843000   0.63356402   -7.9680575    775.06048  0.016806759  0.015950524            6 
 3844000   0.64011737   -7.9502078    774.73996  0.016795438  0.015945445            3 
 3845000   0.63357907   -7.9713372    774.26253  0.016780722  0.015940377            6 
 3846000   0.63488775   -7.9744919     773.5882  0.016761748    0.0159353            6 
 3847000   0.63542448   -7.9449576    776.71135  0.016825044  0.015930237            3 
 3848000   0.63871094   -7.9607422    776.06236  0.016806617  0.015925176            7 
 3849000   0.64518175   -7.9350274    775.61243   0.01679251  0.015920119            5 
 3850000   0.63065413   -7.9441109    775.27519  0.016780848  0.015915067            6 
 3851000   0.64129926   -7.9778289    775.48551  0.016781042  0.015910002            7 
 3852000   0.62577976   -7.9494323    773.61298  0.016736176  0.015904941            3 
 3853000   0.63424602   -7.9968046    774.87342  0.016759093   0.01589988            8 
 3854000   0.62929144   -7.9710649    774.89857  0.016755288  0.015894818            9 
 3855000   0.62803359    -7.976884    775.34023  0.016760489  0.015889758           11 
 3856000   0.63030378   -7.9586377    775.06406  0.016750174   0.01588469            6 
 3857000   0.63430318    -7.981779    775.78126  0.016761327  0.015879635            6 
 3858000   0.63869295    -7.971525    775.24658  0.016745433  0.015874573            7 
 3859000   0.63282045   -8.0153431    774.63231  0.016727829  0.015869512            9 
 3860000   0.64306109   -8.0025217    774.63694  0.016723595   0.01586445            7 
 3861000    0.6333793   -7.9646809    775.01965  0.016727524  0.015859389            6 
 3862000   0.62803242   -7.9805535    774.59074  0.016713938  0.015854343            3 
 3863000   0.63509739   -7.9705222    774.58746  0.016709541  0.015849286            2 
 3864000   0.63127615   -7.9771069    776.52301  0.016746959  0.015844244            4 
 3865000   0.63032541   -7.9593754    777.34498  0.016760349  0.015839206           10 
 3866000   0.64708389   -7.9799808    774.72647   0.01669957  0.015834166            3 
 3867000   0.62815234   -7.9741159    774.50274  0.016690431  0.015829131            2 
 3868000    0.6420564   -7.9496812    775.22742  0.016701728  0.015824093            3 
 3869000   0.62894181   -7.9601076        775.7   0.01670759  0.015819066            3 
 3870000   0.63372969   -7.9636777    774.37383  0.016674716  0.015814048            1 
 3871000   0.64628815   -7.9744637     776.0621  0.016706753  0.015809016            4 
 3872000   0.63488117   -7.9502308     774.8942  0.016677303  0.015803984            2 
 3873000    0.6457351   -7.9630381     775.1905  0.016679372  0.015798944            2 
 3874000   0.65417916   -7.9902926    776.47101  0.016702612  0.015793917            5 
 3875000   0.63092456   -7.9727178    775.41106  0.016675507  0.015788881            4 
 3876000   0.62783357   -7.9848198    775.13666  0.016665305  0.015783849            3 
 3877000   0.63393131   -8.0020697     776.8149  0.016697079  0.015778817            5 
 3878000    0.6284135   -7.9752546    775.02992  0.016654416   0.01577378            3 
 3879000   0.64161735   -7.9633719    776.03851  0.016671791  0.015768749            6 
 3880000   0.64119885   -7.9786198    776.27404  0.016672552  0.015763727            4 
 3881000   0.63070298   -7.9783599    774.38741  0.016627747  0.015758692            3 
 3882000    0.6370676   -8.0005175     775.1298    0.0166394  0.015753655            5 
 3883000   0.62327522   -7.9812521    774.48646  0.016621308   0.01574863            5 
 3884000   0.61474595   -7.9958057    774.87973  0.016625466  0.015743608            3 
 3885000   0.62544898   -7.9797726    774.75569  0.016618526  0.015738581            4 
 3886000   0.63189053    -7.974045    774.87954  0.016616905  0.015733558            5 
 3887000   0.63761865   -7.9592709    774.55561  0.016605686  0.015728536            3 
 3888000   0.63038912   -7.9910627    773.50819  0.016578965   0.01572351            4 
 3889000   0.62863412   -7.9709938    775.04457  0.016607623  0.015718489            3 
 3890000   0.61995396   -7.9716187    775.39482  0.016610857  0.015713473            2 
 3891000   0.62724602   -7.9796338    774.63671  0.016590352  0.015708457            4 
 3892000     0.636303   -7.9787701    774.16032  0.016575889  0.015703442            7 
 3893000   0.62688728   -7.9759839    775.63023  0.016603096  0.015698441            3 
 3894000   0.63641472   -8.0040035    774.27673  0.016569867  0.015693439            3 
 3895000    0.6264613   -8.0004724    774.98151  0.016580691  0.015688431            3 
 3896000   0.63864103   -7.9797168    774.49805  0.016566094  0.015683432            2 
 3897000   0.62713501   -7.9816712    774.19044  0.016555266  0.015678435            4 
 3898000   0.61571112   -7.9809404    774.63607  0.016560545  0.015673431            3 
 3899000   0.63539466   -7.9879149    774.43244  0.016551946  0.015668434            5 
 3900000   0.62780472   -7.9809156    776.59976  0.016594012  0.015663433            3 
 3901000    0.6315974   -7.9636006    776.14224  0.016579985  0.015658456            9 
 3902000   0.63118999   -7.9816767    774.84348  0.016547998  0.015653469            4 
 3903000   0.63436104   -7.9736839     775.5794  0.016559471  0.015648482            6 
 3904000   0.61130952    -7.982077    774.43352   0.01653077  0.015643492            5 
 3905000   0.63066566    -7.981499    775.11267   0.01654103  0.015638513            3 
 3906000   0.63650482   -7.9661722    774.49187  0.016523551  0.015633532            4 
 3907000    0.6323186   -7.9824737    775.20391  0.016534509  0.015628544            7 
 3908000   0.61621726   -7.9928251    775.21185  0.016530447  0.015623558            9 
 3909000   0.63935239   -7.9946803    774.25095  0.016505734  0.015618563            9 
 3910000   0.63303748   -8.0117127    776.21435  0.016543358  0.015613584            7 
 3911000   0.62513895   -8.0047143    775.49475  0.016523795  0.015608598            8 
 3912000   0.61103267    -7.991496    774.89242   0.01650674  0.015603617            7 
 3913000   0.62763442   -7.9854697    774.55613   0.01649536  0.015598637            8 
 3914000    0.6187612    -7.998431     774.4158  0.016488158  0.015593659            6 
 3915000   0.61093436   -7.9873988    773.73617   0.01646948  0.015588679           12 
 3916000   0.62564866   -7.9877118    775.05809  0.016493405  0.015583693            5 
 3917000   0.63976255   -7.9738969    775.03522  0.016488708  0.015578713            5 
 3918000   0.61354369   -7.9956366    775.31433  0.016490436  0.015573742            6 
 3919000   0.62781756   -7.9867543    774.39602  0.016466701  0.015568773           11 
 3920000   0.60476796   -8.0118069      774.498  0.016464668  0.015563797            8 
 3921000   0.62195381    -8.000662    776.65774   0.01650637  0.015558819            4 
 3922000   0.63963958   -8.0117647     774.9399  0.016465662  0.015553841            7 
 3923000   0.62964025   -7.9800141    774.87463  0.016460078  0.015548869           10 
 3924000   0.60705264   -7.9961931    774.33631  0.016444451  0.015543906            6 
 3925000   0.63005933   -7.9893049    775.58924  0.016466863  0.015538941            3 
 3926000   0.63672897   -7.9873667    774.08773  0.016430798  0.015533982            4 
 3927000   0.61576444   -7.9831303    774.27204  0.016430525  0.015529016            3 
 3928000    0.6266716   -7.9779966    775.46135  0.016451573  0.015524059            2 
 3929000    0.6233225   -7.9776726    775.48048  0.016447792  0.015519102            3 
 3930000   0.62181531   -7.9999686    773.92775  0.016410682  0.015514145            3 
 3931000   0.61229748   -7.9976118    775.62888  0.016442569  0.015509193            6 
 3932000   0.60753849   -7.9972658    777.21291  0.016471959  0.015504246            4 
 3933000   0.62872093   -7.9704569    776.06178   0.01644338  0.015499303            4 
 3934000   0.62616304   -7.9997141    775.54669   0.01642829  0.015494364            6 
 3935000    0.6100976   -7.9834223    775.02171  0.016412997  0.015489418            4 
 3936000   0.61174255   -7.9922479    775.46857  0.016418288  0.015484478            8 
 3937000   0.62160779   -7.9926546     775.1545   0.01640747  0.015479546            4 
 3938000   0.61465841   -7.9787307    775.94329  0.016419995  0.015474617            5 
 3939000   0.63275375    -7.972316    774.60898  0.016387598  0.015469688            4 
 3940000   0.61862291   -7.9752203    775.00331  0.016391779   0.01546475            9 
 3941000   0.62704434   -7.9931603    775.42065  0.016396444  0.015459819            6 
 3942000   0.63197093   -8.0217675    774.26753  0.016367908  0.015454877            7 
 3943000   0.61846011    -8.004159    774.52907  0.016369285  0.015449938            5 
 3944000   0.61803629   -7.9726468    775.23359   0.01638002  0.015444997            3 
 3945000    0.6186777   -7.9809421    776.17574   0.01639577  0.015440065            5 
 3946000   0.61284144   -7.9765566    775.09617  0.016368816  0.015435134            4 
 3947000   0.62816065   -7.9969697    774.28361  0.016347513  0.015430196            3 
 3948000   0.61197585   -8.0006834    774.57404  0.016349503  0.015425258            4 
 3949000   0.62445141   -8.0032411    775.46623   0.01636419  0.015420329            4 
 3950000   0.63595479    -8.005282    775.03699  0.016350991  0.015415392            5 
 3951000   0.62356626   -7.9934246    774.35984  0.016332571  0.015410463            5 
 3952000   0.62851487   -7.9827341    776.19457  0.016367126  0.015405536            3 
 3953000   0.63096678   -7.9906345     773.4535  0.016305201  0.015400616            4 
 3954000   0.60884728   -7.9920233    776.21446  0.016359266  0.015395685            4 
 3955000   0.60373718   -8.0075085    774.29897   0.01631477  0.015390766            2 
 3956000   0.61070951   -8.0158744    774.66852   0.01631843  0.015385844            5 
 3957000   0.62985785    -8.019519    774.14403  0.016303261  0.015380917            5 
 3958000   0.61869263   -8.0126809    774.22591  0.016300866  0.015375987            5 
 3959000   0.62035504    -8.008993    774.03378  0.016292704  0.015371058            6 
 3960000   0.61583068   -8.0078481    773.94856  0.016286796  0.015366127            2 
 3961000   0.62560389   -8.0061664    774.13556  0.016286619  0.015361206           13 
 3962000   0.61377992   -8.0082371    776.21872  0.016326323  0.015356285            3 
 3963000   0.62113645   -8.0107091    773.86351  0.016272679  0.015351357            3 
 3964000   0.61186689   -8.0091365    774.62825   0.01628465  0.015346421            3 
 3965000   0.62023375   -8.0069659    775.46026   0.01629803  0.015341494            6 
 3966000   0.61771664   -8.0277286    775.70639  0.016299092  0.015336576            5 
 3967000   0.61927615   -8.0097904    774.11151   0.01626148  0.015331653            9 
 3968000   0.62136556   -8.0083759    774.45128  0.016264518   0.01532674           13 
 3969000   0.61544229   -8.0252515     775.1419   0.01627492  0.015321821            4 
 3970000   0.63483032   -7.9806329    774.42002  0.016255668  0.015316905            6 
 3971000   0.62331503   -8.0113012    775.43624    0.0162729     0.015312            5 
 3972000   0.61820864   -7.9884089    773.75554  0.016233542  0.015307089            3 
 3973000   0.61506999   -8.0150661    772.44026  0.016201868  0.015302173            5 
 3974000   0.60511707   -8.0048042    774.52369   0.01624148  0.015297251            6 
 3975000   0.61579336   -8.0092357      774.224  0.016231111  0.015292335            6 
 3976000   0.61668586   -7.9935999    773.81076  0.016218368  0.015287424            5 
 3977000   0.61779251   -8.0060993    773.88481  0.016215841  0.015282514            6 
 3978000   0.61039555   -8.0283663    776.31726  0.016262721  0.015277604            6 
 3979000   0.60875989   -8.0367868    775.16061   0.01623441  0.015272698            3 
 3980000   0.60880783   -8.0287523    774.14271  0.016209018  0.015267785            4 
 3981000   0.61015573   -8.0210125     774.9372  0.016221577  0.015262873            6 
 3982000   0.61643822   -8.0394028    772.25611  0.016161395  0.015257962            4 
 3983000   0.60429321   -8.0363341    773.85009  0.016190687  0.015253054            4 
 3984000   0.61945865    -8.011875    773.47334  0.016178743  0.015248145            5 
 3985000   0.61572599   -8.0280186    774.95576  0.016205683  0.015243254            6 
 3986000   0.61250661   -8.0370377    773.86943  0.016178906  0.015238359            3 
 3987000   0.60878756   -8.0274681     773.2125  0.016161117  0.015233457            5 
 3988000   0.61906406   -8.0168878     773.9334  0.016172129  0.015228557            5 
 3989000   0.61188517   -8.0244232    773.15133  0.016151737  0.015223658            3 
 3990000   0.61634365   -8.0236478    774.63723  0.016178722  0.015218766            7 
 3991000    0.6151543   -8.0399017    772.42004  0.016128373  0.015213875           16 
 3992000   0.62391718   -8.0259628    774.30178  0.016163614   0.01520899            3 
 3993000   0.60712634   -8.0222956     774.1155  0.016155679   0.01520411            3 
 3994000   0.61915495   -8.0309684    774.41058   0.01615779  0.015199218            5 
 3995000   0.61731754   -8.0237348    773.40661  0.016132804  0.015194331            8 
 3996000   0.61474042   -8.0401554    773.52325  0.016131199  0.015189436           10 
 3997000   0.62267083   -8.0279281    773.86078    0.0161342  0.015184551            5 
 3998000   0.61732782   -8.0117779    773.72035  0.016127238  0.015179664            6 
 3999000   0.61190829    -8.007692    773.98233  0.016128664  0.015174781            5 
 4000000   0.60145394   -8.0128129    773.86161  0.016122117  0.015169894           12 
 4001000   0.60576653   -8.0359341    773.56473  0.016111904  0.015165005            5 
 4002000   0.60567557   -8.0251224    774.74189   0.01613239  0.015160122            3 
 4003000   0.62254743   -8.0299034    771.64835  0.016063959  0.015155238            4 
 4004000   0.60589716   -8.0148184    773.07799  0.016089702  0.015150351            5 
 4005000   0.61305949   -8.0360701     772.5284  0.016074249  0.015145461            5 
 4006000   0.59856799   -8.0332043    771.38353   0.01604642  0.015140581            7 
 4007000   0.61156047   -8.0184169    772.01531  0.016055555  0.015135694            6 
 4008000   0.61811828   -8.0434225     773.0695  0.016073468  0.015130813            8 
 4009000   0.61388668   -8.0367496    774.06441  0.016090139  0.015125932           11 
 4010000    0.6326714   -8.0282176    772.69529  0.016057674  0.015121064            6 
 4011000   0.61175568   -8.0439533     774.3048   0.01608711  0.015116196            8 
 4012000   0.62114956   -8.0366554    774.77141  0.016092793  0.015111326            7 
 4013000   0.61031668   -8.0145291    774.28069  0.016078592   0.01510646            7 
 4014000   0.62097968   -8.0324895    772.70801  0.016041937  0.015101592            7 
 4015000   0.61995217   -8.0355998    773.77976  0.016060186  0.015096729            6 
 4016000   0.60927052   -8.0405399    772.12781  0.016021908  0.015091857            3 
 4017000   0.61129255   -8.0489365    773.90753  0.016054841  0.015086985            5 
 4018000   0.61488241    -8.021717    773.51186  0.016042639   0.01508212            3 
 4019000   0.59904523   -8.0505339    772.92966  0.016026575  0.015077258            6 
 4020000    0.6088622   -8.0468821    772.54985  0.016014715  0.015072385            5 
 4021000   0.61439065   -8.0422333    773.67035  0.016033954  0.015067528            4 
 4022000   0.59497427   -8.0432927    773.07619  0.016017657  0.015062664            4 
 4023000    0.6209974   -8.0522495    773.10662  0.016014306  0.015057808            3 
 4024000   0.61041885   -8.0468088    772.09053  0.015989284  0.015052953            4 
 4025000    0.6137909   -8.0533909    773.22914  0.016008885  0.015048097            7 
 4026000   0.60119361   -8.0663046    773.91756  0.016019158  0.015043247            8 
 4027000   0.60491038   -8.0457038    772.37232  0.015983203  0.015038399            4 
 4028000   0.61109535   -8.0322227    773.94905  0.016011856   0.01503355            3 
 4029000   0.62445628   -8.0621283    774.90527  0.016027659  0.015028702            5 
 4030000   0.59810436   -8.0528942    773.41186  0.015992801  0.015023864            5 
 4031000   0.60836434   -8.0435047    773.09367  0.015982256  0.015019024            4 
 4032000   0.59020742   -8.0309655    772.96522  0.015975637  0.015014176            6 
 4033000   0.60184224   -8.0558475     774.6315  0.016006106  0.015009335            4 
 4034000    0.6054532   -8.0374152    773.68333  0.015982551    0.0150045            3 
 4035000   0.59284988   -8.0611312    774.51763  0.015995821  0.014999665            4 
 4036000   0.61302644   -8.0481986     773.1422  0.015963458  0.014994833            5 
 4037000   0.59954886   -8.0603318    772.13869  0.015938789  0.014990004            6 
 4038000    0.5982466   -8.0438022    773.16276  0.015955976  0.014985175            6 
 4039000   0.60676647   -8.0413418    772.75681   0.01594365  0.014980354            4 
 4040000   0.60303656   -8.0533575    773.16211  0.015948063  0.014975525            5 
 4041000   0.61089882   -8.0516878    772.53338  0.015931151  0.014970699            5 
 4042000   0.62488341   -8.0335642    774.28999  0.015963426  0.014965879            2 
 4043000   0.61685886   -8.0164276     773.3716  0.015940547  0.014961057            5 
 4044000   0.60207878   -8.0459689    773.15602  0.015932163  0.014956238            4 
 4045000    0.6094327   -8.0146818    774.15862   0.01594888  0.014951423            4 
 4046000   0.60989928   -8.0457127    773.30665   0.01592739  0.014946609            5 
 4047000   0.60666352   -8.0376585    773.23997  0.015922082  0.014941785           12 
 4048000   0.60928699     -8.05971    773.97046  0.015933186  0.014936968            3 
 4049000   0.60601555   -8.0516507    772.48331  0.015898644  0.014932145            2 
 4050000   0.60781532   -8.0605845    774.22434  0.015930542  0.014927321            6 
 4051000   0.60195186   -8.0370646     773.8302  0.015918502   0.01492251            6 
 4052000   0.60847309    -8.025982    772.78002  0.015892975   0.01491769            2 
 4053000     0.603158   -8.0450927    771.01024  0.015852665   0.01491288           10 
 4054000   0.60864324    -8.042812    773.16464  0.015893041  0.014908067            5 
 4055000   0.60242995   -8.0439457    771.79575  0.015860989  0.014903257            7 
 4056000   0.60260074   -8.0268857    773.18672  0.015885657  0.014898447            3 
 4057000    0.6118009   -8.0287137    772.29596  0.015863445  0.014893643            3 
 4058000   0.59846733   -8.0282001    772.83921  0.015870692   0.01488884            4 
 4059000   0.60611272   -8.0492975    773.48281  0.015879995  0.014884033            8 
 4060000   0.59512947   -8.0459272    772.96432  0.015865442  0.014879231            6 
 4061000   0.60834472   -8.0416427    772.10891  0.015843981  0.014874422            6 
 4062000   0.61473062   -8.0388413    772.76169  0.015853473  0.014869615            4 
 4063000    0.6035421   -8.0598508    771.50735  0.015823844  0.014864808            5 
 4064000   0.61050752   -8.0542259    773.15334  0.015853702  0.014860006            4 
 4065000     0.602978   -8.0388657    773.28846  0.015852572  0.014855207            4 
 4066000   0.60834388    -8.058549    772.42976  0.015831074  0.014850404            4 
 4067000    0.6075004   -8.0581221    773.91851  0.015857686  0.014845607            5 
 4068000   0.60508593   -8.0511416    772.33331  0.015821315  0.014840806            8 
 4069000   0.60766868   -8.0492091    772.54274  0.015821716  0.014836009            6 
 4070000   0.59848531   -8.0463364    771.73063    0.0158012  0.014831219            8 
 4071000    0.6011264   -8.0744141    772.97212  0.015822732  0.014826431            5 
 4072000   0.60420752   -8.0717131     771.6165  0.015791104  0.014821635            4 
 4073000   0.60405823   -8.0355544    773.24355  0.015820516   0.01481684            5 
 4074000   0.59267784   -8.0565538    770.86758  0.015768033  0.014812053            8 
 4075000   0.59492646    -8.063386    773.47663  0.015817518  0.014807266            5 
 4076000   0.59532841   -8.0605841    773.63061  0.015816785  0.014802479            6 
 4077000   0.59331886   -8.0635616    771.90574   0.01577765  0.014797694            7 
 4078000   0.60250105   -8.0608577    772.96648  0.015795457  0.014792912            6 
 4079000   0.60477993   -8.0318647    773.14557  0.015795243  0.014788133            3 
 4080000   0.59482053   -8.0408911    773.31323  0.015794796  0.014783362            3 
 4081000   0.59719227   -8.0577758    772.17017  0.015767585  0.014778598            7 
 4082000   0.60402487   -8.0662521     771.7908  0.015755977  0.014773823            6 
 4083000   0.60942398   -8.0595397    773.47565  0.015786506  0.014769047            7 
 4084000   0.59808563   -8.0563235    772.86989   0.01577028  0.014764284            7 
 4085000   0.59144174   -8.0447011    772.18335  0.015752414  0.014759519           14 
 4086000   0.59874322   -8.0494789    772.47745  0.015754557  0.014754745           12 
 4087000   0.59931603   -8.0570775    773.46526  0.015770844  0.014749974           11 
 4088000   0.58261928   -8.0504213    774.74485   0.01579307  0.014745217           11 
 4089000   0.60262384   -8.0416335    772.30357  0.015739455  0.014740456            9 
 4090000   0.59178953   -8.0153303    771.58731  0.015721013  0.014735695            6 
 4091000    0.6026704   -8.0326965    773.41213  0.015754341  0.014730935            9 
 4092000   0.60256537   -8.0502101    773.50992  0.015752483  0.014726177           11 
 4093000   0.60198353   -8.0464192    772.75214  0.015733206  0.014721426            5 
 4094000   0.59673672   -8.0591626    774.16781  0.015758179  0.014716674           12 
 4095000   0.59679706   -8.0515347    773.22237  0.015735091  0.014711913            6 
 4096000   0.60877413   -8.0526675    772.63188  0.015719236  0.014707158            9 
 4097000   0.59748616   -8.0483687     772.6909    0.0157166  0.014702399            6 
 4098000   0.58044535   -8.0579922      773.818  0.015735684  0.014697655            3 
 4099000   0.60591412   -8.0451606    773.07432  0.015716726  0.014692902            5 
 4100000   0.59687564   -8.0742966    772.30188  0.015697193   0.01468815            9 
 4101000   0.59770214   -8.0666187    773.44405  0.015716574  0.014683394            5 
 4102000    0.6079575   -8.0745929    774.20792  0.015728261   0.01467864            3 
 4103000   0.58642183   -8.0643317     771.3165  0.015665702  0.014673885            3 
 4104000   0.59795956   -8.0635898    772.15596   0.01567893  0.014669127            5 
 4105000   0.61035789   -8.0687165    772.19976     0.015676  0.014664369            4 
 4106000   0.58796127   -8.0729066    770.93936  0.015646602  0.014659609            4 
 4107000   0.59190914   -8.0579166    771.53064  0.015654789  0.014654847            7 
 4108000   0.58971229   -8.0624967    771.99936  0.015660487  0.014650092           13 
 4109000   0.58547074   -8.0649222     771.7387  0.015651389  0.014645341            4 
 4110000   0.59064075   -8.0521311    773.49783  0.015683249   0.01464059            7 
 4111000   0.59384938   -8.0573919    771.63016  0.015641575  0.014635841            2 
 4112000   0.58320739   -8.0532003    770.40167  0.015612874  0.014631091            5 
 4113000   0.58749695   -8.0807468    772.39662  0.015649498  0.014626345            3 
 4114000   0.59110563   -8.0644877    772.28554  0.015643444  0.014621594            3 
 4115000   0.59477172   -8.0601999    773.14249  0.015656997  0.014616857            6 
 4116000   0.58395308   -8.0650338    771.52561  0.015620457  0.014612129            5 
 4117000   0.59219905    -8.065643    772.01358   0.01562654  0.014607397            3 
 4118000    0.5898528   -8.0582717    772.31277    0.0156288  0.014602666            4 
 4119000   0.59216255   -8.0533006    772.33104  0.015625375  0.014597942           10 
 4120000   0.58950817   -8.0802072    772.46265  0.015624244  0.014593213            4 
 4121000   0.59914273   -8.0549522    773.32437  0.015637879  0.014588487            4 
 4122000   0.58443075   -8.0734379    772.59562  0.015619352  0.014583765            5 
 4123000   0.60561782    -8.061871    772.65625  0.015616789  0.014579031            2 
 4124000   0.58886043   -8.0758518    770.78548    0.0155752  0.014574292            3 
 4125000   0.60324767   -8.0687818      771.707   0.01559004  0.014569557            2 
 4126000   0.60059144    -8.073741    771.40372  0.015580136  0.014564825            9 
 4127000   0.59811143   -8.0690242    771.34336  0.015575142  0.014560097            4 
 4128000    0.5979192   -8.0606141      770.626  0.015556888  0.014555369            6 
 4129000   0.57855575   -8.0802405    770.21427  0.015544811  0.014550638            2 
 4130000   0.59340406   -8.0862384    771.01604  0.015557224   0.01454591            2 
 4131000   0.57862782    -8.081465    771.63114  0.015565867  0.014541188            6 
 4132000   0.58071755   -8.0809972    771.71236  0.015563737  0.014536468            4 
 4133000   0.59132051   -8.0855309    771.24272  0.015550502  0.014531749            4 
 4134000   0.60629905   -8.0671076    771.22399  0.015546363  0.014527032            3 
 4135000   0.59687636   -8.0736412     770.1235  0.015520425  0.014522316           12 
 4136000   0.57499036   -8.0820423    772.94783  0.015573578  0.014517601            3 
 4137000   0.58497693   -8.0724245    771.56529  0.015541965  0.014512895            8 
 4138000    0.5874455   -8.0825657    772.67905  0.015560638  0.014508188            6 
 4139000   0.57520564   -8.0863082    771.29836   0.01552908  0.014503474            6 
 4140000   0.59439623   -8.0728099    771.93549  0.015538154  0.014498772            7 
 4141000   0.59183031   -8.0887098    771.87589  0.015533202  0.014494066            5 
 4142000   0.57381699   -8.0748776    772.30655  0.015538117  0.014489354            3 
 4143000   0.59064986   -8.0768532    772.74417  0.015543169  0.014484647            5 
 4144000   0.58897551   -8.0850452    770.69705  0.015498251  0.014479934            4 
 4145000   0.59117169    -8.082943    769.72361  0.015474942   0.01447522            5 
 4146000   0.58519406   -8.0955685    770.60021  0.015488829  0.014470506            5 
 4147000   0.57768444   -8.1054408    770.02992  0.015473634  0.014465789            2 
 4148000   0.58525172   -8.0845016    771.91384  0.015507752  0.014461082            4 
 4149000   0.59660741   -8.0811226    772.67459  0.015519294  0.014456384            4 
 4150000   0.58843903   -8.0882288    770.74458  0.015476799   0.01445168            3 
 4151000   0.60361659   -8.0712854     770.1159  0.015460449  0.014446969            3 
 4152000   0.59266982     -8.10501    771.77213  0.015489967  0.014442267            2 
 4153000   0.59021613   -8.0896466    771.27807  0.015476324  0.014437562            4 
 4154000   0.58319974   -8.0905935    772.25246  0.015492145  0.014432866            5 
 4155000   0.59151657   -8.0921668    770.95454  0.015462385  0.014428162            5 
 4156000   0.58677004   -8.0958254    770.88679  0.015457306  0.014423469            6 
 4157000    0.5756553   -8.0870077    770.70182   0.01544988  0.014418785            4 
 4158000   0.59102548   -8.0848851    771.60731  0.015464312  0.014414086            4 
 4159000   0.58043288   -8.0615566    771.64152  0.015461279  0.014409397            3 
 4160000   0.59080918   -8.0869153    770.95041  0.015443718    0.0144047            5 
 4161000   0.58419474   -8.0969182    771.01357  0.015441272  0.014400006            4 
 4162000   0.57599785   -8.0931897    770.97744  0.015436838  0.014395314            5 
 4163000   0.57477849   -8.0841035    772.22023  0.015458008  0.014390614            4 
 4164000   0.57413096   -8.0875544    770.41538  0.015418175  0.014385919            2 
 4165000   0.57859037   -8.0875365      770.342  0.015413005  0.014381225            4 
 4166000   0.57403955   -8.0904599    771.44395  0.015431348  0.014376528            5 
 4167000   0.58931785    -8.098634    770.20559   0.01540288   0.01437184            4 
 4168000   0.59203284   -8.1063012    771.11782  0.015417423  0.014367159            9 
 4169000   0.58777779   -8.1011291    770.92146    0.0154098  0.014362477            5 
 4170000   0.58152219   -8.0822218    770.80383  0.015403754  0.014357794            5 
 4171000   0.58234811   -8.1152806    770.70846  0.015398155   0.01435312           12 
 4172000    0.5733927    -8.095048    771.61837  0.015412639  0.014348439           14 
 4173000   0.58495224    -8.082005    771.24327  0.015401455  0.014343773            5 
 4174000   0.58966748   -8.0896134    771.28501  0.015398599  0.014339103            4 
 4175000   0.59045353   -8.0867963    771.67155  0.015402626  0.014334438            4 
 4176000   0.57311611   -8.1055732    771.37795  0.015393078  0.014329773            6 
 4177000   0.57909626   -8.0982718      772.363  0.015409046  0.014325105            6 
 4178000   0.57404924   -8.0988728    771.34619  0.015385076  0.014320438            4 
 4179000   0.58607109   -8.0633168    770.28653  0.015360264   0.01431577            5 
 4180000   0.58705051   -8.1014355    770.66306  0.015364096   0.01431111            3 
 4181000   0.57756101   -8.0916089     771.8573  0.015384224  0.014306446            3 
 4182000    0.5884794   -8.0972596    772.39202  0.015391201  0.014301787            5 
 4183000   0.56639698   -8.0875541    770.12069  0.015342272  0.014297136            3 
 4184000   0.58550638   -8.1026689    771.07529  0.015357618  0.014292485            2 
 4185000    0.5894829     -8.09968    770.11035  0.015334734  0.014287837            2 
 4186000   0.56536205   -8.0796637     771.6111  0.015360947  0.014283186            6 
 4187000   0.58966673   -8.0919466    770.69241  0.015338994  0.014278531            6 
 4188000   0.58687985   -8.1097893    770.48871  0.015331278  0.014273887            4 
 4189000   0.58277763   -8.1029897    770.41266  0.015326105  0.014269244            5 
 4190000   0.56588458   -8.0902254    770.58088  0.015325793  0.014264598            4 
 4191000   0.57508152   -8.0951605     770.7912  0.015326318  0.014259956            5 
 4192000   0.58554794   -8.1116643     770.5826  0.015318515  0.014255313            4 
 4193000   0.57833024   -8.0952811    770.50767  0.015313373  0.014250675            2 
 4194000   0.58405403   -8.0896469     770.7625  0.015314785  0.014246041            4 
 4195000   0.58499786   -8.0891057    770.01131  0.015296212  0.014241408            5 
 4196000   0.58764592   -8.0730039     771.5973  0.015324065  0.014236776            5 
 4197000   0.58446462   -8.0799875    769.70977  0.015282936  0.014232144            4 
 4198000   0.57439144   -8.0836282    771.40022  0.015312852  0.014227515            3 
 4199000   0.58003386   -8.1116269     771.5433  0.015312045  0.014222885            4 
 4200000   0.57649071   -8.0885228    771.46855  0.015306916  0.014218251            5 
 4201000   0.57875938   -8.1081404    770.33616  0.015280809  0.014213623            4 
 4202000   0.57374002   -8.0895011    770.57324  0.015281875  0.014208995            3 
 4203000   0.57283733   -8.0994052     771.8556  0.015303664  0.014204367            4 
 4204000   0.57419079   -8.1013033    771.46703  0.015292321  0.014199745            7 
 4205000   0.56977835   -8.1109476    768.97838  0.015239365  0.014195124            6 
 4206000   0.57516388   -8.0868069    770.05517  0.015257077   0.01419051            5 
 4207000   0.58237636   -8.1132598    772.36753  0.015299254  0.014185896            5 
 4208000   0.57671435   -8.1096049     770.3547  0.015255757   0.01418128            6 
 4209000   0.58287208   -8.0868169    770.96886  0.015264292   0.01417667            6 
 4210000   0.58516797   -8.0799669    770.81002  0.015257522  0.014172058            3 
 4211000   0.56939161   -8.0935479    771.24325  0.015262472   0.01416745            4 
 4212000   0.58127154   -8.1032962    770.98891  0.015253817  0.014162836            6 
 4213000    0.5810953   -8.0973134    767.86389  0.015188383  0.014158224            9 
 4214000   0.57653949   -8.1178594    769.76679  0.015222409  0.014153617            8 
 4215000   0.58247017    -8.088742    771.03404  0.015243852  0.014149015            4 
 4216000    0.5725849   -8.0913564    769.76898  0.015215231  0.014144406            3 
 4217000   0.56654061   -8.1117587    771.14732  0.015238861  0.014139809            8 
 4218000   0.57039356   -8.0893657    771.13876  0.015235079  0.014135209            4 
 4219000   0.57504916   -8.0985482     770.1309  0.015211561  0.014130607            8 
 4220000   0.59464832   -8.0877405    771.14797  0.015228041   0.01412601            7 
 4221000   0.57485801   -8.1035968    771.06557  0.015222806  0.014121416            6 
 4222000   0.58103098   -8.0895617    770.32926  0.015204667   0.01411682            5 
 4223000   0.59453369    -8.113176    770.49929  0.015204422  0.014112225            9 
 4224000   0.58367442   -8.0978868    772.69079  0.015244058  0.014107628            7 
 4225000   0.56825585   -8.1112145    769.82616  0.015183948  0.014103036            7 
 4226000   0.57304996   -8.1112384    770.49768  0.015193597  0.014098444            4 
 4227000   0.57703235   -8.1046431    771.33146   0.01520644  0.014093854            4 
 4228000   0.58082849   -8.1007025    770.75797   0.01519154   0.01408927            5 
 4229000   0.57610866   -8.1288596    769.95222   0.01517207  0.014084682           12 
 4230000   0.57124466   -8.1316233    770.44571  0.015178206  0.014080093            5 
 4231000   0.56558831   -8.1059159    769.04753   0.01514708  0.014075507           12 
 4232000   0.57651829   -8.1407599    769.75484  0.015157428  0.014070919            7 
 4233000   0.57790121   -8.1022727    770.53342  0.015169175  0.014066336           12 
 4234000   0.58946749    -8.100733    771.82798  0.015191072  0.014061761            9 
 4235000   0.58712606   -8.1120498    769.86432  0.015148845  0.014057183           11 
 4236000   0.57372482   -8.0934372    770.53401  0.015158444  0.014052609            4 
 4237000    0.5647809   -8.1170046    770.60383  0.015156239  0.014048039            7 
 4238000   0.56633876   -8.1091828    771.51671  0.015170613  0.014043469            4 
 4239000   0.57431608    -8.105071    771.25542  0.015161898  0.014038903           10 
 4240000   0.57094231   -8.1161844    769.77479  0.015129221  0.014034341            4 
 4241000   0.57859371   -8.1012896    770.07958  0.015131643   0.01402978            4 
 4242000    0.5726814   -8.1031281    769.93052  0.015125148  0.014025218            5 
 4243000   0.56791088   -8.1324631    771.15855  0.015145702  0.014020656            4 
 4244000   0.55785314   -8.1054582    770.00067  0.015119397  0.014016095            5 
 4245000   0.57580288   -8.1129214    770.54236   0.01512647  0.014011539            5 
 4246000   0.57201688    -8.105861    770.60843  0.015124204  0.014006981            5 
 4247000   0.57049817   -8.1446999    770.98458  0.015128023   0.01400242            6 
 4248000   0.56447856   -8.1145555    769.25646  0.015090561  0.013997862            6 
 4249000   0.57270144   -8.1086452    769.57395  0.015093237   0.01399331            2 
 4250000   0.57975697   -8.1040325    770.30097  0.015103941   0.01398876           10 
 4251000    0.5701274   -8.1171775    769.93459  0.015093205   0.01398421            7 
 4252000   0.57912873   -8.1027157    770.58293  0.015102362  0.013979666            8 
 4253000   0.57958793    -8.106483    771.11477  0.015109232   0.01397512            5 
 4254000   0.57694234   -8.1250812     771.7701  0.015118518  0.013970575            3 
 4255000   0.57564293   -8.1186116    769.71884  0.015074791  0.013966025           10 
 4256000   0.57391552   -8.1440458    769.90588  0.015074912   0.01396148            5 
 4257000   0.56601572   -8.1242236    770.49778  0.015082957  0.013956936           10 
 4258000   0.56914044    -8.116438    770.65143  0.015082422  0.013952397            2 
 4259000   0.58431431   -8.1214092    770.02525  0.015066629  0.013947857            5 
 4260000    0.5784505   -8.1183768    769.90109  0.015060663  0.013943315            6 
 4261000   0.55667689   -8.1344391    770.27853   0.01506451  0.013938768            6 
 4262000   0.56470675   -8.1176639    769.80632  0.015051743  0.013934232            7 
 4263000   0.56868058   -8.1254042    769.98221   0.01505165  0.013929686            6 
 4264000   0.57601254   -8.1254446    770.07192  0.015049873   0.01392515            5 
 4265000   0.56946408   -8.1239959    768.83587  0.015022194  0.013920612            4 
 4266000   0.57967347   -8.1112401    769.77912  0.015037098  0.013916079            4 
 4267000   0.57145889   -8.1400308    771.66352  0.015070376  0.013911547            5 
 4268000   0.56262145     -8.14137     769.8122  0.015030697  0.013907012            5 
 4269000   0.54606778   -8.1258145     770.5331  0.015041249  0.013902477            5 
 4270000   0.57171572   -8.1351774    769.32136  0.015014078  0.013897947            8 
 4271000   0.57526127   -8.1238065    770.17541  0.015027226  0.013893419            7 
 4272000   0.58207753   -8.1485151    769.24756  0.015005609  0.013888892            5 
 4273000   0.56603084   -8.1178293    769.09362  0.014999096  0.013884367            5 
 4274000   0.57448578   -8.1288243    769.90896  0.015011483  0.013879842            9 
 4275000   0.56684264   -8.1363553    768.90151  0.014988334  0.013875313            4 
 4276000   0.57566254   -8.1094082    769.87542  0.015003809  0.013870791            5 
 4277000   0.56816189   -8.1343067    770.81343  0.015018577  0.013866276           10 
 4278000   0.55701858   -8.1347838    769.38056  0.014987155  0.013861756            5 
 4279000    0.5734639   -8.1357383    769.10226  0.014978232  0.013857234            5 
 4280000    0.5727263   -8.1365062    770.21549  0.014996408  0.013852718            4 
 4281000   0.56090021   -8.1123638    770.28995  0.014994354  0.013848203            4 
 4282000   0.55826322   -8.1421539    770.62574  0.014997387  0.013843692            3 
 4283000   0.58386146   -8.1336179     769.8571   0.01497893  0.013839177            6 
 4284000   0.57277191   -8.1227493    768.56252  0.014950251  0.013834663            5 
 4285000   0.57325102   -8.1183739    769.86493  0.014972091  0.013830153            6 
 4286000   0.55901708   -8.1206718    768.81001  0.014948087  0.013825646            5 
 4287000   0.55894841    -8.135487    769.55477  0.014959077   0.01382114            4 
 4288000   0.56496387   -8.1382052    768.21157  0.014929485  0.013816636            7 
 4289000   0.57543669   -8.1324747    770.28598  0.014966309  0.013812134            3 
 4290000   0.56556181   -8.1253399    770.12121  0.014959619  0.013807633            4 
 4291000   0.56646426   -8.1372027    769.49645     0.014944  0.013803128            4 
 4292000   0.56396025   -8.1267005    770.22409  0.014954646   0.01379863            7 
 4293000   0.57065195   -8.1550984    769.81705  0.014943261  0.013794133            6 
 4294000     0.558136   -8.1387438    769.00342  0.014923991  0.013789639            5 
 4295000    0.5588581   -8.1244944    768.86804   0.01491789  0.013785137            7 
 4296000   0.56056189   -8.1414813    769.34619  0.014923692  0.013780639            6 
 4297000   0.56575829   -8.1483437    769.53146  0.014923812  0.013776151            5 
 4298000   0.56585954   -8.1302063    769.66771  0.014922982   0.01377166            4 
 4299000   0.56039449   -8.1287209    769.08326  0.014908181  0.013767165            5 
 4300000   0.56441916   -8.1299782    769.69901  0.014916648  0.013762673            3 
 4301000    0.5569052   -8.1173969    769.58712  0.014911011  0.013758189            8 
 4302000   0.56504528   -8.1366676    768.57706   0.01488798    0.0137537            4 
 4303000   0.56537216    -8.156458    770.51312  0.014922014  0.013749225            6 
 4304000   0.56622616   -8.1400443    770.23022   0.01491307  0.013744737            3 
 4305000    0.5563743   -8.1296528    769.94047  0.014903997  0.013740256            7 
 4306000   0.56529761   -8.1628963    769.65003  0.014894915  0.013735775            4 
 4307000   0.55971488   -8.1528527    770.32696  0.014904554    0.0137313            3 
 4308000   0.56693782    -8.152028    768.44402  0.014864671  0.013726829            5 
 4309000   0.56954205   -8.1479657    768.87649  0.014869585  0.013722355            4 
 4310000   0.55581317   -8.1462829    768.41724  0.014857255  0.013717886            7 
 4311000   0.56499008   -8.1357222    768.95801  0.014864262  0.013713417            7 
 4312000   0.55240753   -8.1582366    769.05399   0.01486267  0.013708941            6 
 4313000   0.56848845   -8.1472044    770.44721  0.014886143  0.013704468           12 
 4314000   0.57105979   -8.1515633    769.50142  0.014864422  0.013699995            8 
 4315000   0.55926955   -8.1524684    770.20398  0.014874546  0.013695523            7 
 4316000   0.55538881   -8.1393091    769.34292  0.014854474  0.013691057            7 
 4317000   0.56312035   -8.1598944    769.09329  0.014846214  0.013686586            9 
 4318000   0.55720888    -8.148589    769.60057  0.014852566  0.013682122            4 
 4319000   0.55655122    -8.136496    769.52596  0.014847688  0.013677657            3 
 4320000   0.56346273   -8.1467504     767.7269  0.014809547  0.013673195            4 
 4321000   0.56828577   -8.1379159    769.29137  0.014836291  0.013668741            4 
 4322000    0.5584097   -8.1564739    768.38766  0.014815434   0.01366428            6 
 4323000   0.56049554   -8.1476658    769.95611  0.014842241  0.013659818            5 
 4324000   0.56596405   -8.1469604    768.95248  0.014819467  0.013655358            6 
 4325000   0.56978029   -8.1556878    768.54874  0.014808261  0.013650894            3 
 4326000   0.55882857   -8.1574811    769.21085  0.014817592  0.013646435            9 
 4327000   0.56869937   -8.1596866     768.6317  0.014803014  0.013641983            8 
 4328000   0.55278509   -8.1452182    769.94048  0.014824794  0.013637535            6 
 4329000   0.56309218   -8.1608036    769.29414  0.014808927  0.013633083            3 
 4330000   0.55124966   -8.1645301     768.0882  0.014782298  0.013628636           10 
 4331000   0.56739489   -8.1637593    769.05251  0.014797439  0.013624185            8 
 4332000    0.5555053   -8.1543791    769.05487  0.014794069  0.013619737            9 
 4333000   0.56670186   -8.1365993    767.83416  0.014767177  0.013615293            3 
 4334000   0.57445893   -8.1583794    769.23003   0.01479061  0.013610854            5 
 4335000    0.5551787   -8.1533764     768.9125  0.014781094   0.01360641            7 
 4336000   0.55359416   -8.1619232    768.53271  0.014770386  0.013601971            6 
 4337000   0.57426575    -8.159978    769.73928  0.014790164  0.013597534            4 
 4338000    0.5515758   -8.1777565    768.98295  0.014772225  0.013593099            8 
 4339000   0.55493175    -8.142747    768.59547  0.014761379  0.013588668            7 
 4340000    0.5474847   -8.1516923    768.96829  0.014765136  0.013584232            8 
 4341000   0.56418555   -8.1667023    767.74529  0.014738257  0.013579802            8 
 4342000   0.56229051   -8.1664899     769.9323  0.014776837  0.013575369           14 
 4343000   0.55227895   -8.1591402    767.55227  0.014727766  0.013570945            3 
 4344000   0.53319237    -8.170059    769.02359  0.014752601  0.013566517            3 
 4345000   0.54501468   -8.1651681    767.98732  0.014729331  0.013562089            5 
 4346000   0.55540555   -8.1630768    768.88771  0.014743207  0.013557664            9 
 4347000   0.55471297   -8.1379215      768.352  0.014729545  0.013553245            4 
 4348000   0.55540059   -8.1406585    769.47609  0.014747702  0.013548824            7 
 4349000   0.55774385   -8.1676039    768.59034  0.014727339  0.013544404            8 
 4350000   0.56166623   -8.1664795    768.25153  0.014717462  0.013539986            5 
 4351000   0.55356914   -8.1589078    769.59769  0.014739862  0.013535565            5 
 4352000    0.5545402   -8.1708663    769.33168  0.014731382  0.013531151           10 
 4353000   0.56223882   -8.1711784    769.05134  0.014722631  0.013526739            5 
 4354000   0.55627131   -8.1632384    768.39011  0.014706594  0.013522324            9 
 4355000   0.54475819   -8.1673533    768.43012  0.014703982  0.013517908            3 
 4356000   0.54846013   -8.1566211    770.29082  0.014736203  0.013513495            6 
 4357000   0.54972365   -8.1312242    769.46028  0.014716936  0.013509093            6 
 4358000   0.55607495   -8.1492325    768.82162  0.014701347  0.013504693            5 
 4359000   0.54321586   -8.1540655    767.88084  0.014679989  0.013500299            4 
 4360000   0.55681093   -8.1814398    769.06936  0.014699338  0.013495905            9 
 4361000   0.55453521   -8.1581592    768.84544  0.014691689   0.01349151            7 
 4362000   0.55295717   -8.1621208    769.59047  0.014702554  0.013487117            6 
 4363000   0.55668575   -8.1659784    769.17365  0.014691223   0.01348272            5 
 4364000     0.550253   -8.1583393    769.46301  0.014693382  0.013478326            5 
 4365000   0.54507744   -8.1559928    768.25544  0.014666961  0.013473932            6 
 4366000   0.56131566   -8.1735147    768.16604  0.014661896  0.013469541            7 
 4367000    0.5690054   -8.1491921    770.14449  0.014696292   0.01346515            8 
 4368000   0.54722018   -8.1706555    769.40493  0.014678818  0.013460763            6 
 4369000   0.56298062   -8.1528106    770.61507   0.01469854  0.013456372            4 
 4370000   0.55340101   -8.1932837    768.56114   0.01465601  0.013451987           10 
 4371000   0.55404543   -8.1500856    768.06575  0.014643212  0.013447603            7 
 4372000   0.55074213   -8.1571153    768.32981  0.014644896  0.013443218            5 
 4373000   0.55494821   -8.1854184    768.08243  0.014636833  0.013438836            5 
 4374000   0.55830714   -8.1878845    770.04471  0.014670872  0.013434449            4 
 4375000   0.55703595   -8.1723867    768.73392  0.014642551  0.013430068            7 
 4376000   0.55335602   -8.1549689    769.23779    0.0146488  0.013425688            6 
 4377000   0.54421936   -8.1671268    768.74258  0.014636025  0.013421314            4 
 4378000   0.54984273   -8.1616673    767.65808  0.014612039  0.013416939           10 
 4379000   0.55657479   -8.1798922     768.0117  0.014615432  0.013412571            8 
 4380000   0.55251816   -8.1493657    769.20739  0.014634844  0.013408204            2 
 4381000   0.54488851    -8.154567     769.5106  0.014637271  0.013403839            8 
 4382000   0.54894164    -8.158872    768.94349  0.014623146  0.013399479            6 
 4383000    0.5441272   -8.1674071    769.18921  0.014624481  0.013395109            4 
 4384000   0.55038623   -8.1666018    769.23457  0.014622008  0.013390744           11 
 4385000   0.55823357   -8.1490894    769.55427  0.014624748  0.013386385            9 
 4386000   0.55225855    -8.145157    767.57378  0.014583785  0.013382021            7 
 4387000   0.55372279   -8.1615513    767.29638  0.014575191  0.013377656            3 
 4388000   0.54506695   -8.1557478    767.71292   0.01457978  0.013373297            6 
 4389000   0.55696945   -8.1500825    768.26416  0.014586925  0.013368943           10 
 4390000   0.55377547   -8.1567503    770.10833  0.014618609  0.013364588           11 
 4391000   0.54706758   -8.1638186    769.41253  0.014602075  0.013360234           10 
 4392000   0.54664921   -8.1789854    768.98836  0.014590702  0.013355884            5 
 4393000    0.5556989   -8.1671696    767.63965  0.014561796  0.013351533            6 
 4394000   0.53570239   -8.1758318    768.04575  0.014566184  0.013347177            8 
 4395000   0.55151205   -8.1675219    769.91078  0.014598233  0.013342831            9 
 4396000   0.55873497   -8.1571758    768.17391  0.014561986  0.013338485            9 
 4397000   0.55079126   -8.1781625    767.65092  0.014548763  0.013334136            6 
 4398000   0.54446815   -8.1780178    768.06026  0.014553211  0.013329785            6 
 4399000   0.55153801   -8.1680353    768.44467  0.014557185  0.013325437           12 
 4400000   0.54445344   -8.1719805     767.9084   0.01454372  0.013321092            6 
 4401000   0.53800213   -8.1860599     766.9332   0.01452195  0.013316746            7 
 4402000   0.53741848   -8.1779664    767.45293   0.01452849  0.013312397            8 
 4403000   0.54293784   -8.1906555    769.26161  0.014559422  0.013308054            6 
 4404000   0.53341844   -8.1784103    768.55048   0.01454266  0.013303714            5 
 4405000   0.55554155   -8.1581284    768.39197   0.01453636  0.013299378            6 
 4406000   0.54787532   -8.1709185    768.40168  0.014533244  0.013295043            3 
 4407000    0.5481971    -8.169379    769.53205  0.014551321  0.013290714            6 
 4408000   0.54016813     -8.18729    768.75296  0.014533291  0.013286379            4 
 4409000   0.55383465   -8.1619801    767.64165   0.01450899   0.01328205            4 
 4410000   0.54385313   -8.1751655    767.96913  0.014511888  0.013277723            7 
 4411000   0.55407844   -8.1830013      767.546  0.014500605  0.013273399            6 
 4412000   0.54254961   -8.1664595    767.50417  0.014496528  0.013269078            5 
 4413000   0.54439117   -8.1834673    767.21907  0.014487859   0.01326476            6 
 4414000   0.54774791   -8.1638805    768.05597  0.014500377  0.013260442            7 
 4415000   0.53712813   -8.1777754    768.31579  0.014501997   0.01325613            6 
 4416000   0.55808949   -8.1844992     768.4531  0.014501304  0.013251819            6 
 4417000   0.52330197   -8.1509184    769.21639  0.014512422  0.013247508            3 
 4418000   0.54587155    -8.173508    768.09803  0.014488042  0.013243194            7 
 4419000   0.54473472   -8.1870613    767.59482  0.014475274  0.013238884            5 
 4420000   0.54067208   -8.1766877    768.55133  0.014490033  0.013234571            7 
 4421000   0.54686968   -8.1643145    767.70068  0.014470721  0.013230259            8 
 4422000   0.55091832   -8.1743718    768.32759  0.014479263  0.013225949            7 
 4423000   0.54347696   -8.1910886     769.3932  0.014496066  0.013221645            5 
 4424000   0.53386353   -8.1647792    768.60028  0.014477853  0.013217344            8 
 4425000   0.53884136   -8.1887387    768.25515  0.014468082  0.013213036            5 
 4426000   0.54089548   -8.2061134    767.85977  0.014457369  0.013208733            4 
 4427000   0.55311576     -8.18685      768.414  0.014464536  0.013204428            7 
 4428000    0.5381526   -8.1694174    768.53823  0.014463607  0.013200126            3 
 4429000   0.54138905    -8.179549    767.72036  0.014444953  0.013195823            4 
 4430000   0.54853519   -8.1896519    768.09495  0.014448739  0.013191526            5 
 4431000   0.54986697   -8.1831246    768.26793  0.014448731  0.013187229            6 
 4432000   0.54092242   -8.1802858    767.66608  0.014434155  0.013182932            5 
 4433000   0.53626303   -8.1832506    766.74551  0.014413593  0.013178641            4 
 4434000   0.54696275   -8.1857439     768.7886  0.014448741  0.013174354            5 
 4435000   0.55065822   -8.1616049    768.17816  0.014434013  0.013170062            3 
 4436000   0.53628448   -8.1716629    766.49836  0.014399203  0.013165777            5 
 4437000   0.54154345   -8.1860856    767.65345  0.014417652  0.013161488            4 
 4438000   0.54276017   -8.1893245    766.94248  0.014401053  0.013157208            4 
 4439000    0.5445485   -8.1763956    767.41365  0.014406654  0.013152923            5 
 4440000   0.53393798   -8.1781761    767.13819  0.014398239   0.01314864            6 
 4441000   0.54644618   -8.1797145    766.38656  0.014380893   0.01314436            6 
 4442000   0.54596318   -8.1806876    767.02099  0.014389558  0.013140079            9 
 4443000    0.5481003   -8.1985918    767.09246   0.01438766  0.013135798            6 
 4444000   0.53590313   -8.1740955    767.85058  0.014398638  0.013131526            4 
 4445000    0.5458693   -8.1780581    767.91611  0.014396627  0.013127252            4 
 4446000   0.54197188   -8.1749533    768.15796  0.014397923   0.01312298            5 
 4447000   0.53420104   -8.1892018     768.6763  0.014404398  0.013118707            7 
 4448000   0.54080016   -8.1837885    768.20246  0.014392282  0.013114438            3 
 4449000   0.53756064   -8.1977866    768.78201  0.014399903  0.013110169            6 
 4450000   0.54668823   -8.1817224    767.13607  0.014365844  0.013105905            9 
 4451000   0.54303523   -8.1899291    767.66294  0.014372481  0.013101644            7 
 4452000   0.53257867   -8.1859504    767.27469  0.014361985  0.013097379            9 
 4453000   0.54852351   -8.1839989    767.86911  0.014369884  0.013093115            6 
 4454000   0.53775506   -8.1551528    766.55982  0.014342161  0.013088854            5 
 4455000   0.54161641    -8.170777     768.3692  0.014372787   0.01308459            6 
 4456000   0.54340369   -8.1825205    768.14633  0.014365394   0.01308033            4 
 4457000   0.54191952    -8.182843    767.04401   0.01434156  0.013076073            4 
 4458000   0.54219914   -8.2028983    766.38236  0.014325975  0.013071813            7 
 4459000   0.52175622   -8.1748093    767.21013  0.014338232  0.013067556            7 
 4460000   0.53731294   -8.2060084    767.63198  0.014342899  0.013063296            7 
 4461000   0.53585468   -8.1944597    766.61179  0.014320627  0.013059042            7 
 4462000     0.534347   -8.1978443    767.14346  0.014327347  0.013054795            4 
 4463000   0.53186272   -8.1898802    767.90465   0.01433835  0.013050539            5 
 4464000   0.52858939   -8.1684073    767.11581  0.014320412  0.013046293            4 
 4465000   0.53932248   -8.1867728    767.43064   0.01432308  0.013042043            4 
 4466000   0.54169094   -8.1940999     767.5321  0.014321766  0.013037799            3 
 4467000   0.52640107   -8.1881371    767.71024  0.014321883  0.013033559            5 
 4468000   0.53791628   -8.1972022    767.41903  0.014313247  0.013029313            7 
 4469000   0.53161988    -8.190884    767.67274  0.014314775  0.013025066            6 
 4470000   0.53818221   -8.1870888    766.26508   0.01428533  0.013020824            6 
 4471000   0.53969171   -8.1867178     767.4738  0.014304663  0.013016581            4 
 4472000   0.53144378   -8.1885946    768.24798  0.014315891  0.013012339            5 
 4473000   0.53790224   -8.1937518    767.24297  0.014293967  0.013008095            5 
 4474000   0.53952167   -8.2095536    766.35183  0.014274174  0.013003858            6 
 4475000   0.54057128   -8.2024713    766.76623  0.014278701  0.012999624            8 
 4476000   0.54680978    -8.184454    768.75303  0.014312501  0.012995393            5 
 4477000   0.52801615   -8.1798026    767.62397  0.014288288  0.012991161            5 
 4478000   0.54067305   -8.2067478    768.25318  0.014296806  0.012986927            5 
 4479000   0.53503634   -8.1974273    766.95326  0.014269429  0.012982698            7 
 4480000   0.53946306    -8.196079    766.87008  0.014264696  0.012978472            5 
 4481000   0.53125273   -8.1716419    768.42009  0.014290339  0.012974249            4 
 4482000   0.53394773   -8.1951885    767.12744  0.014263116  0.012970026            8 
 4483000   0.54282309   -8.2134559    766.94135  0.014256475  0.012965798            9 
 4484000   0.52232884   -8.1923619    767.34833  0.014260859  0.012961577            4 
 4485000   0.53295266   -8.1909419    767.24503  0.014255761  0.012957357            7 
 4486000   0.53250733   -8.1822611    766.78815  0.014244096   0.01295314            9 
 4487000   0.53719974    -8.224973     767.4332  0.014252901  0.012948922            6 
 4488000     0.533696   -8.2167643    767.16496  0.014244745  0.012944705            6 
 4489000   0.53173027   -8.1993097     766.2244  0.014224111  0.012940494            6 
 4490000   0.52623183    -8.198008      767.537  0.014245304  0.012936281            4 
 4491000   0.52146868   -8.2016815    767.20132  0.014235904  0.012932068            4 
 4492000   0.53069504   -8.1918788    767.66499  0.014241336  0.012927857            6 
 4493000   0.53055589   -8.1970652    766.75576  0.014221303  0.012923647            6 
 4494000   0.53811373   -8.2109586    766.86693    0.0142202  0.012919441            6 
 4495000    0.5294864   -8.1923087    768.42446  0.014245911  0.012915232            6 
 4496000   0.53452373   -8.1982887    767.46074   0.01422488  0.012911029            4 
 4497000   0.53278878   -8.2088145    766.35177  0.014201167  0.012906827            4 
 4498000   0.53064649   -8.2008954    767.21963  0.014214088  0.012902629            5 
 4499000   0.53240189   -8.1944272    768.17546  0.014228633  0.012898429            8 
 4500000   0.51864508   -8.2081809    767.24213  0.014208188  0.012894233            9 
 4501000   0.53255844   -8.1890124    767.92486  0.014217671   0.01289004            9 
 4502000   0.52315348   -8.1850913    766.54318  0.014188938  0.012885845            5 
 4503000   0.53328132    -8.211146    766.54183  0.014185762  0.012881646            5 
 4504000   0.51900399   -8.2156235    767.51275  0.014200576  0.012877453            9 
 4505000   0.53524336   -8.2081054    766.85546  0.014185266  0.012873262            6 
 4506000   0.53524162   -8.2086308     765.7412  0.014161511  0.012869072            5 
 4507000   0.53734184    -8.227512    765.50004  0.014153909  0.012864881           11 
 4508000   0.54040766   -8.2084931    766.97586  0.014178051  0.012860695            6 
 4509000    0.5311579   -8.2161534    766.93589  0.014174168  0.012856514            4 
 4510000   0.54102986    -8.192552    765.94774  0.014152767  0.012852333            6 
 4511000   0.53007997   -8.2123132    768.05237  0.014188509   0.01284815            6 
 4512000   0.53313897    -8.204483    766.83803  0.014162936   0.01284397            4 
 4513000   0.53117422   -8.2051848    766.93394  0.014161569  0.012839793            6 
 4514000    0.5182525   -8.2129006    766.59606  0.014152194  0.012835617            5 
 4515000   0.54341242   -8.1966113    766.52425  0.014147734  0.012831446            4 
 4516000   0.53093134   -8.2063041    765.94637  0.014133938  0.012827276            5 
 4517000   0.53909971   -8.2083418     767.0991  0.014152075  0.012823106            6 
 4518000   0.52078904   -8.1976534    767.41474  0.014154765  0.012818941           13 
 4519000   0.52810226   -8.2092287    766.65675  0.014137655  0.012814779            7 
 4520000   0.51937175   -8.2080527    767.57829  0.014151517   0.01281062            5 
 4521000   0.52354282   -8.2059192    767.04885  0.014138628  0.012806462            5 
 4522000   0.53658052   -8.1896658    766.88619  0.014132504  0.012802301            6 
 4523000   0.52836886   -8.1973386    767.35623  0.014138039  0.012798144            7 
 4524000   0.52734288   -8.2050876     767.0398  0.014129086   0.01279399            6 
 4525000   0.52650983    -8.206398    767.47737  0.014134021  0.012789835            5 
 4526000   0.53377191   -8.2166116    766.77739  0.014118011  0.012785686            6 
 4527000   0.52214713   -8.2028789      767.897  0.014135502  0.012781534            4 
 4528000   0.52239748   -8.2045567    767.41584  0.014123525  0.012777387            5 
 4529000   0.53122559   -8.2160704    766.77954  0.014108698  0.012773239            5 
 4530000   0.52590501   -8.2235496    767.66478  0.014121869  0.012769092            5 
 4531000   0.53054869   -8.2072259    767.16523  0.014109564  0.012764944            5 
 4532000   0.52880582   -8.2177904    766.15014  0.014087786  0.012760794            5 
 4533000   0.51238239   -8.2084487    766.74314  0.014095579  0.012756651            3 
 4534000   0.52349003   -8.1936749    766.95403  0.014096347  0.012752506            5 
 4535000   0.51747156   -8.2052481    768.61305  0.014123724  0.012748368            5 
 4536000   0.52982546   -8.2142346    766.44521  0.014080783  0.012744228            5 
 4537000   0.53713648   -8.2211487    766.94197  0.014086804  0.012740091            6 
 4538000   0.52524301   -8.2013067    767.15718  0.014087652  0.012735956            7 
 4539000   0.51452071   -8.1991201    766.73749  0.014076843  0.012731825            5 
 4540000   0.53053636    -8.209196    766.72988  0.014073603  0.012727697            5 
 4541000   0.52159417   -8.2187436    766.45659  0.014065488  0.012723571            6 
 4542000   0.52717849   -8.2074594    767.18748  0.014075801  0.012719439            4 
 4543000   0.53043846   -8.2027952    766.25687  0.014055633  0.012715309            6 
 4544000   0.52359853   -8.2188754    766.03988   0.01404856  0.012711182            4 
 4545000   0.53062829   -8.2072042     765.6701  0.014038689  0.012707058            5 
 4546000    0.5297713   -8.2019875     767.2227  0.014064062  0.012702937            4 
 4547000   0.51839996   -8.2380981    765.40758  0.014027703  0.012698813            3 
 4548000   0.52744611   -8.2135958    765.41284  0.014024715   0.01269469            5 
 4549000   0.52483622    -8.200103    767.30966   0.01405638  0.012690568            5 
 4550000   0.52155552   -8.2144941    766.58594  0.014040036  0.012686449            3 
 4551000    0.5178996   -8.2095905    767.80015  0.014059184  0.012682328            4 
 4552000   0.51647953   -8.2018499    768.02459  0.014060204  0.012678212            4 
 4553000   0.51346017   -8.2196172    766.91841   0.01403687  0.012674102            3 
 4554000   0.52517623   -8.2110881    767.35015  0.014041688  0.012669992            4 
 4555000   0.51299049    -8.213379    766.75663  0.014027747  0.012665877            4 
 4556000   0.52542677   -8.2101374    766.77833  0.014025065  0.012661769            4 
 4557000   0.52034838   -8.2004493    766.47099  0.014016367   0.01265766            8 
 4558000   0.52846116   -8.2249456    766.13528  0.014007154  0.012653555            5 
 4559000   0.52207681   -8.2074874    767.29921  0.014025357  0.012649451            3 
 4560000    0.5157623   -8.2110636    765.36475  0.013986929  0.012645348            9 
 4561000    0.5170684   -8.2065179     766.1884  0.013998911  0.012641243            6 
 4562000   0.52129588   -8.2154988    767.13357  0.014013108  0.012637148            3 
 4563000    0.5315221   -8.2238969    765.61963  0.013982388  0.012633054            5 
 4564000   0.52075777   -8.2071402    766.48695  0.013995161  0.012628955            5 
 4565000   0.51914767   -8.2090839    766.90992  0.013999816  0.012624862            7 
 4566000   0.51726694   -8.2142263     767.2088  0.014002205  0.012620766            4 
 4567000   0.52214353    -8.222077    766.22537  0.013981194  0.012616673            3 
 4568000   0.52523207   -8.2283656    766.03828   0.01397472   0.01261258            7 
 4569000   0.53431443    -8.201416    766.75365   0.01398471  0.012608491            3 
 4570000   0.52376127    -8.202691    766.51362  0.013977272  0.012604402            4 
 4571000   0.51124578   -8.2127978    766.36185  0.013971448  0.012600314            4 
 4572000   0.52622349    -8.202057    766.25231  0.013966395  0.012596229            4 
 4573000   0.51281718   -8.2269705    766.07756  0.013960157   0.01259214            4 
 4574000   0.52294849   -8.2158454    765.25143  0.013942053   0.01258806            4 
 4575000   0.52041708   -8.2153088    766.10134  0.013954487  0.012583976           12 
 4576000   0.52455954   -8.2380382    767.52931  0.013977442  0.012579893            3 
 4577000   0.52026559     -8.20192     765.8471   0.01394376  0.012575815            2 
 4578000   0.51664723    -8.219951    766.71756   0.01395656  0.012571737            7 
 4579000   0.52917977   -8.2246054    766.29822   0.01394588  0.012567661            4 
 4580000   0.51419205   -8.2390757    766.42685  0.013945176  0.012563587            4 
 4581000    0.5110626   -8.2262438    766.11293  0.013936421  0.012559516            4 
 4582000   0.51148797     -8.20967    766.71961  0.013944413  0.012555445            6 
 4583000   0.52061698   -8.2373505    767.84082  0.013961758  0.012551372            5 
 4584000   0.51913577   -8.2273954    766.25341  0.013929854  0.012547301            6 
 4585000   0.50629021   -8.2207749    767.46508  0.013948838  0.012543235            6 
 4586000   0.51001363   -8.2303489    765.48982  0.013909904  0.012539169            5 
 4587000   0.52550523   -8.2156664    766.18741  0.013919544  0.012535102            7 
 4588000   0.52465115    -8.218843    767.01486   0.01393154  0.012531036            3 
 4589000   0.51462345   -8.2251258    765.28464  0.013897084  0.012526978            3 
 4590000   0.52988621   -8.2267075    765.96372  0.013906386  0.012522919            5 
 4591000    0.5211808   -8.2322132    766.97203  0.013921659  0.012518859            4 
 4592000   0.52213775   -8.2216068    765.77232  0.013896855  0.012514798            5 
 4593000   0.53170189   -8.2310386    764.75472  0.013875367  0.012510742            6 
 4594000   0.52802299   -8.2348988    765.50791  0.013886009  0.012506685            5 
 4595000   0.52152473   -8.2219685    766.82789  0.013906926  0.012502632            5 
 4596000   0.51435491   -8.2268661    765.04395  0.013871554   0.01249858            4 
 4597000   0.50834947   -8.2441205    765.70726  0.013880561  0.012494526            6 
 4598000   0.51699318   -8.2370609    767.14051  0.013903518  0.012490475            6 
 4599000   0.50642065   -8.2288102    765.56957   0.01387203  0.012486428            3 
 4600000   0.51136682   -8.2236872     766.4719  0.013885361  0.012482382            3 
 4601000   0.50972449    -8.239928    766.27314  0.013878743   0.01247834            6 
 4602000   0.51583816   -8.2228498     765.1666   0.01385569    0.0124743            4 
 4603000   0.52202784    -8.237439    766.05628  0.013868786  0.012470263            5 
 4604000   0.51199789   -8.2196405    765.88915  0.013862749  0.012466223            9 
 4605000   0.50281751   -8.2290565    765.48977  0.013852511   0.01246219            3 
 4606000   0.51512358   -8.2183935    765.57683  0.013851079  0.012458155            5 
 4607000   0.52001503   -8.2208423    765.90571  0.013854021   0.01245412            3 
 4608000   0.50480258   -8.2120283    765.54582  0.013844506  0.012450088            7 
 4609000   0.50738665   -8.2330457    765.34223  0.013837821  0.012446056            6 
 4610000   0.50802443   -8.2328094    765.65154  0.013840411  0.012442026            6 
 4611000   0.51582056   -8.2179884    764.45337  0.013815755  0.012437996            4 
 4612000   0.50071171   -8.2204807    765.41847  0.013830198  0.012433966            3 
 4613000   0.51698863   -8.2401583    766.04747  0.013838563  0.012429946            4 
 4614000   0.51617764   -8.2324708    766.49398  0.013843628  0.012425921            3 
 4615000   0.51587425   -8.2272828    765.96121  0.013831008  0.012421897            5 
 4616000   0.51462481   -8.2220108    766.20563  0.013832424  0.012417878            5 
 4617000   0.50794623   -8.2249983    766.48435  0.013834459  0.012413858            6 
 4618000     0.513327   -8.2258454     766.1867  0.013826092  0.012409843            3 
 4619000   0.51447793   -8.2303932    764.97912  0.013801312   0.01240583            8 
 4620000   0.51620647   -8.2250418    766.81496  0.013831439  0.012401823            3 
 4621000   0.51283996   -8.2582735    765.44711  0.013803778  0.012397811            6 
 4622000   0.50611905   -8.2319023    766.12703   0.01381305    0.0123938            3 
 4623000   0.50083162   -8.2306369    764.96791  0.013789168  0.012389792            4 
 4624000   0.50488267   -8.2406395    764.49953  0.013777745  0.012385783            2 
 4625000   0.50638911   -8.2222064    765.90471  0.013800085  0.012381772            4 
 4626000   0.50700296   -8.2255028    765.40013  0.013788012  0.012377767            4 
 4627000    0.5126128   -8.2409932     766.6807  0.013808096  0.012373763            6 
 4628000    0.5139364   -8.2328919    765.08556  0.013776389  0.012369763            5 
 4629000   0.51489381   -8.2132617    765.91439  0.013788334  0.012365761            5 
 4630000   0.50692501   -8.2519491     767.2918  0.013810148  0.012361764            7 
 4631000   0.50749926   -8.2215651    765.31184  0.013771537  0.012357768            3 
 4632000   0.52132944   -8.2356076    765.74732  0.013776398  0.012353772            5 
 4633000   0.49817887   -8.2110159    766.94785  0.013795019  0.012349777            4 
 4634000   0.51339217   -8.2358382    766.12336  0.013777215  0.012345785            4 
 4635000   0.50545983   -8.2588831    766.25333  0.013776579  0.012341792            6 
 4636000   0.50365959    -8.229028    765.96278  0.013768385  0.012337801            7 
 4637000   0.50632968   -8.2437935    766.01598  0.013766372  0.012333814            3 
 4638000   0.50180229   -8.2396631     766.3831      0.01377  0.012329825            3 
 4639000   0.50787129   -8.2098428    764.95611  0.013741397  0.012325843            4 
 4640000    0.5093712   -8.2163956    765.50022  0.013748208  0.012321861            6 
 4641000   0.50214051   -8.2334543    765.94401  0.013753214  0.012317875            5 
 4642000   0.50827624   -8.2347296    765.03383  0.013733912  0.012313894            7 
 4643000    0.5171446   -8.2301465    765.76924  0.013744153  0.012309911            7 
 4644000    0.5087769   -8.2405926    765.84126  0.013742486  0.012305932            4 
 4645000   0.50907427   -8.2366495    766.07479  0.013743717  0.012301957            3 
 4646000   0.48815963   -8.2631668    765.70097  0.013734054  0.012297981            7 
 4647000   0.51633109   -8.2130719    766.46698  0.013744835  0.012294012            5 
 4648000   0.49935356   -8.2330236    765.36654  0.013722148  0.012290041            3 
 4649000   0.50256245    -8.234599    766.91107  0.013746882  0.012286066            3 
 4650000   0.50020901   -8.2287144    765.58633  0.013720185  0.012282095            5 
 4651000   0.51052657   -8.2208371    764.23751  0.013693068  0.012278128            4 
 4652000   0.51827388   -8.2511186    766.37858  0.013728479  0.012274162            7 
 4653000   0.51814721   -8.2411359    765.16939  0.013703872  0.012270195            5 
 4654000   0.50609238   -8.2360361    766.08307  0.013717287  0.012266229            4 
 4655000   0.50663061   -8.2389303    766.37127    0.0137195  0.012262264            4 
 4656000   0.50623951   -8.2536492    766.95943   0.01372708  0.012258302            5 
 4657000   0.50708472   -8.2428091    763.52125  0.013662609  0.012254343            5 
 4658000   0.52173802   -8.2291656    766.31191  0.013709602  0.012250388            6 
 4659000   0.50712051   -8.2326632    764.92161  0.013681792  0.012246431            7 
 4660000   0.50034548   -8.2453264    764.77827  0.013676292  0.012242473            4 
 4661000   0.49334647   -8.2373195    764.92299  0.013675946  0.012238516            6 
 4662000   0.49699908   -8.2243638    764.82995  0.013671349  0.012234559            4 
 4663000   0.50465709   -8.2537222     765.2806  0.013676471  0.012230607            7 
 4664000   0.49988808   -8.2422621    765.70089  0.013681048  0.012226655            4 
 4665000   0.50233402    -8.241897    766.76036  0.013697041  0.012222708            6 
 4666000   0.50661307   -8.2483975    765.32334  0.013668441  0.012218758            4 
 4667000   0.49743962   -8.2449861    765.01757  0.013660052  0.012214814            5 
 4668000   0.51399928   -8.2437467    765.56172   0.01366684  0.012210874            7 
 4669000   0.50675915   -8.2437294    765.74463  0.013667178  0.012206931            3 
 4670000   0.49961683   -8.2417981    764.83237  0.013647972  0.012202988            3 
 4671000   0.50346967   -8.2484774    765.89447  0.013663999   0.01219905            5 
 4672000   0.50243462    -8.252306     766.3817  0.013669765  0.012195113            4 
 4673000   0.50911889   -8.2402281    765.66535  0.013654065  0.012191178            8 
 4674000   0.50293836   -8.2430756    765.02608  0.013639746  0.012187242            8 
 4675000   0.50189254   -8.2526543    765.24656  0.013640759  0.012183308            4 
 4676000    0.4975664   -8.2466977    764.36016  0.013622044  0.012179376            4 
 4677000   0.50681341   -8.2521695     765.0196  0.013630882  0.012175446            4 
 4678000   0.49409643   -8.2499577    765.36539  0.013634128  0.012171517            3 
 4679000     0.512248   -8.2437551    765.22603  0.013628732  0.012167587            7 
 4680000   0.49263642   -8.2547353     764.7419  0.013617199  0.012163659            2 
 4681000   0.51295179   -8.2552376    764.67741  0.013613142  0.012159732            4 
 4682000   0.50572536   -8.2548319    764.91637  0.013614488  0.012155806            5 
 4683000   0.50350352     -8.25988    763.81552  0.013591991  0.012151883            4 
 4684000   0.49606484   -8.2455114     764.3252  0.013598157  0.012147964            4 
 4685000   0.50157796   -8.2543445    765.32619  0.013613059  0.012144048            8 
 4686000   0.49770313   -8.2591939    765.24637  0.013608735  0.012140129            2 
 4687000   0.49561571    -8.255343    764.81176  0.013598104  0.012136213            3 
 4688000   0.50084197   -8.2525667    766.28069  0.013621315  0.012132299            4 
 4689000   0.48472872   -8.2476134    765.81599  0.013610151  0.012128386            4 
 4690000     0.500202   -8.2533376    766.52692  0.013619881  0.012124474            6 
 4691000   0.49913397   -8.2401744    763.88867  0.013570111  0.012120561            5 
 4692000   0.49523957    -8.253722    765.95744  0.013603961  0.012116653            4 
 4693000    0.5031849   -8.2559768    765.01512   0.01358433  0.012112744            6 
 4694000   0.50646713   -8.2545559    764.35143  0.013569653  0.012108837            6 
 4695000   0.49942294   -8.2512147    765.74248  0.013591453   0.01210493            4 
 4696000   0.49528457   -8.2595038    765.15077  0.013578059  0.012101025            3 
 4697000   0.50352908   -8.2464336    763.89166  0.013552829  0.012097121            3 
 4698000   0.49305572   -8.2578174    765.11547  0.013571652  0.012093216            3 
 4699000   0.50190696   -8.2532771    765.38024   0.01357346  0.012089316            5 
 4700000   0.50166006   -8.2590253    766.30251  0.013586924  0.012085416            6 
 4701000   0.49609524   -8.2507413    765.72828  0.013573855  0.012081519            3 
 4702000   0.50909775   -8.2614619    764.53868  0.013549885  0.012077624            6 
 4703000   0.49864153   -8.2544724    765.11028  0.013557132  0.012073729            9 
 4704000   0.48886857   -8.2645768    765.56386  0.013562285  0.012069842            4 
 4705000   0.50312706   -8.2664557    765.71047  0.013561999  0.012065951            5 
 4706000   0.49185682   -8.2610159     765.6377  0.013557829  0.012062061            4 
 4707000   0.49686817   -8.2597199    764.38292  0.013532734  0.012058175            8 
 4708000   0.49853479   -8.2486057    763.83922  0.013520235  0.012054286            6 
 4709000   0.50584834   -8.2468603    764.66731  0.013532019  0.012050402            7 
 4710000   0.50073766   -8.2751651    764.69199  0.013529582  0.012046521            6 
 4711000   0.49366268   -8.2595546    764.29471  0.013519683  0.012042638            4 
 4712000   0.49770666    -8.250975    764.77747  0.013525351   0.01203876            7 
 4713000   0.49961846   -8.2625334    765.21487  0.013530216  0.012034881            7 
 4714000   0.49645692    -8.241343    763.17121  0.013491218  0.012031003            4 
 4715000   0.49236845   -8.2600448    765.42733  0.013528231  0.012027126            9 
 4716000   0.50069763   -8.2652438     766.1215  0.013537629  0.012023254            6 
 4717000   0.50810631   -8.2420134    766.11473  0.013534639  0.012019383            6 
 4718000    0.4938561    -8.249092    763.88667  0.013492417   0.01201551            4 
 4719000   0.50360826   -8.2764365    765.01492  0.013509482  0.012011637            4 
 4720000    0.5073759   -8.2665213    763.77166  0.013484669  0.012007772            4 
 4721000   0.49376063   -8.2670378    764.96807  0.013502931  0.012003902            6 
 4722000     0.494376   -8.2635961    764.86382  0.013498232  0.012000035            7 
 4723000   0.50047817   -8.2721387    765.04947   0.01349865  0.011996167            4 
 4724000   0.50304554   -8.2583617    763.62611  0.013470684  0.011992302            6 
 4725000   0.49534361   -8.2663963    764.96282  0.013491408   0.01198844            4 
 4726000   0.50405555   -8.2630841     765.2141  0.013492984  0.011984581            6 
 4727000   0.49289506   -8.2610314    764.57466  0.013478856  0.011980722            5 
 4728000   0.48836688   -8.2636133    765.56399  0.013493443  0.011976866            5 
 4729000   0.50427798   -8.2792125    765.71097   0.01349318   0.01197301            4 
 4730000   0.48572062   -8.2686621      764.627   0.01347123  0.011969153            4 
 4731000   0.50100988   -8.2543415    764.15115  0.013460001  0.011965297            4 
 4732000   0.50189377   -8.2588097    766.24925  0.013494105  0.011961445            5 
 4733000   0.48436656   -8.2445514    764.79821  0.013465706  0.011957593            8 
 4734000   0.49343893   -8.2783387    764.39239  0.013455717  0.011953745            7 
 4735000   0.48989223   -8.2602381      766.334  0.013487047  0.011949899            3 
 4736000   0.49225189   -8.2636233    764.44622  0.013450982  0.011946053            6 
 4737000   0.50403197   -8.2541771     764.1146  0.013442309  0.011942209            4 
 4738000   0.49033811   -8.2695808    764.84043  0.013452238  0.011938367            3 
 4739000   0.48965922   -8.2656337    765.63931  0.013463447  0.011934523            5 
 4740000    0.5001268   -8.2690389    764.04432  0.013432565  0.011930679            5 
 4741000   0.48105354   -8.2690748    764.06976  0.013430179  0.011926838            4 
 4742000   0.50492169   -8.2603406    763.77452  0.013422159  0.011922997            3 
 4743000   0.49387317   -8.2714118    764.09832  0.013425018  0.011919156            7 
 4744000   0.49166917    -8.275314    763.83768   0.01341761  0.011915318            5 
 4745000   0.49263138   -8.2486248    764.73072  0.013430466  0.011911483            4 
 4746000   0.49552503   -8.2669129    764.09517  0.013416477  0.011907649            4 
 4747000   0.48152337   -8.2709194    764.23817  0.013416161  0.011903821            5 
 4748000   0.48186546   -8.2787326     763.7543  0.013404842  0.011899987            3 
 4749000   0.49452727    -8.249502    764.56565  0.013416257  0.011896157            4 
 4750000   0.50696601    -8.270425    766.00946  0.013438762  0.011892331            7 
 4751000   0.47853176   -8.2721024    763.96383  0.013400053  0.011888505            6 
 4752000   0.49762002   -8.2624244    763.27989  0.013385239  0.011884684            6 
 4753000   0.48381093   -8.2710079    764.51372  0.013404056   0.01188086            9 
 4754000   0.50404732   -8.2802449    763.99577  0.013392157   0.01187704            6 
 4755000   0.50540441   -8.2684732    765.07813  0.013408309  0.011873222            4 
 4756000      0.48555   -8.2606653    763.60781  0.013379727  0.011869405            4 
 4757000   0.49983298   -8.2618715    764.85826   0.01339882  0.011865591            5 
 4758000   0.49535535   -8.2655106    764.20904  0.013384634  0.011861777            4 
 4759000   0.49821806   -8.2726158    763.68214  0.013372595   0.01185796            4 
 4760000   0.48854349   -8.2647336    764.15003  0.013377977  0.011854144            6 
 4761000   0.48585792     -8.26905    764.23708   0.01337669  0.011850333            4 
 4762000   0.48966359   -8.2692519    763.60345  0.013362793   0.01184652            5 
 4763000   0.48948573   -8.2741662    764.82844   0.01338142  0.011842709            4 
 4764000   0.49820854   -8.2873661    765.39926  0.013388596  0.011838901            5 
 4765000   0.50452754   -8.2762009    764.81264  0.013375527  0.011835096            5 
 4766000   0.48618334   -8.2731754    763.46235  0.013349111  0.011831292            5 
 4767000   0.48661085   -8.2734333     764.1862  0.013358964  0.011827486            4 
 4768000   0.48708132   -8.2737054    765.52625  0.013379584  0.011823684            6 
 4769000   0.48882605   -8.2658913     765.3911  0.013374416  0.011819885            5 
 4770000   0.48920961   -8.2686638    763.41449  0.013337081   0.01181609            7 
 4771000   0.48375176   -8.2832255    764.36011  0.013350802  0.011812294            5 
 4772000   0.48990539   -8.2697054    763.78721     0.013338    0.0118085            3 
 4773000   0.49936653   -8.2549071    765.08201  0.013357811   0.01180471            3 
 4774000   0.49263983   -8.2826624     763.4488  0.013326505  0.011800916            5 
 4775000   0.49076271   -8.2960103    765.06946  0.013351998  0.011797123            8 
 4776000   0.49405655   -8.2638753    764.92007  0.013346595  0.011793333            4 
 4777000    0.4811087   -8.2742966    764.30321   0.01333304   0.01178954            3 
 4778000   0.48778452    -8.275359    764.22592  0.013328902  0.011785754            5 
 4779000   0.49257973   -8.2650799    764.52609  0.013331347  0.011781971            3 
 4780000   0.47681825   -8.2659329    764.06146  0.013320458  0.011778186            7 
 4781000   0.48826572    -8.265827    764.64789  0.013327893  0.011774404            6 
 4782000   0.48165905   -8.2833125    764.63423  0.013324868  0.011770624            5 
 4783000   0.47809078   -8.2709483    765.37165   0.01333493  0.011766847            7 
 4784000   0.48181092   -8.2834228    764.14356   0.01331075  0.011763073            4 
 4785000   0.48410015   -8.2721248    764.19737  0.013308906  0.011759299            4 
 4786000   0.48988433   -8.2773584    764.13973  0.013305121  0.011755525            5 
 4787000   0.47681231   -8.2962443     764.4228   0.01330727  0.011751753            3 
 4788000   0.47669338   -8.2855583    763.77796  0.013293267  0.011747982            5 
 4789000   0.48233698     -8.27513    764.25773   0.01329884  0.011744212            5 
 4790000   0.48211158   -8.2833443    763.96689  0.013291004  0.011740443            4 
 4791000   0.48367133   -8.2688857     764.4263   0.01329622  0.011736673            5 
 4792000   0.48355563   -8.2739546     763.9531  0.013285217  0.011732904            5 
 4793000   0.48747307   -8.2651072    764.23292   0.01328731   0.01172914            6 
 4794000   0.48730204   -8.2830494    763.35402  0.013269261  0.011725373            3 
 4795000   0.48104932   -8.2742754    763.38462  0.013267025  0.011721614            5 
 4796000   0.49624575   -8.2647066     763.9239  0.013273629  0.011717853            3 
 4797000   0.47860459   -8.2752423    763.95298  0.013271367  0.011714095            5 
 4798000   0.47972672   -8.2715101    763.68774  0.013263994  0.011710335            4 
 4799000   0.48544352   -8.2808415    763.59966  0.013259701  0.011706575            5 
 4800000   0.49572488   -8.2730777    763.45417  0.013254413  0.011702819            4 
 4801000    0.4706734   -8.2668324    764.55789   0.01327081  0.011699066            4 
 4802000    0.4827769   -8.2880155    764.29053  0.013263406  0.011695316            2 
 4803000   0.47997622   -8.2898579    764.61011   0.01326619  0.011691561            4 
 4804000   0.49161766   -8.2601538    763.39732   0.01324239  0.011687809            9 
 4805000   0.47527168   -8.2751512    763.39333  0.013239565   0.01168406            6 
 4806000    0.4775722   -8.2916865    763.74226  0.013242861  0.011680311            4 
 4807000   0.47519121   -8.2753705    763.00266  0.013227284  0.011676563            4 
 4808000   0.46889826   -8.2860374    763.43735  0.013232067  0.011672815            4 
 4809000   0.48371222   -8.2683475    764.57279  0.013248991  0.011669073            4 
 4810000   0.47965643   -8.2625234    763.70917  0.013231275   0.01166533            7 
 4811000   0.48595133   -8.2682799    763.76379  0.013229471  0.011661594            5 
 4812000   0.48225127   -8.2629879    763.44033   0.01322112  0.011657857            4 
 4813000   0.48749913   -8.2900213    764.60177  0.013238482  0.011654123            4 
 4814000   0.47810296   -8.2872754    763.49993  0.013216659  0.011650389            4 
 4815000   0.47887412   -8.2919791    763.20258  0.013208767  0.011646657            5 
 4816000    0.4847148   -8.2857561    763.43633  0.013210069  0.011642927            8 
 4817000   0.48999148    -8.291132    764.51156  0.013225928  0.011639196            6 
 4818000   0.48498889   -8.2814228     763.4175   0.01320426  0.011635464            3 
 4819000   0.48186638   -8.2839185    764.63707   0.01322261  0.011631735            3 
 4820000    0.4727749   -8.2761666    762.26833  0.013178913   0.01162801            5 
 4821000   0.48047323   -8.2644233    764.13463  0.013208439  0.011624285            5 
 4822000   0.49064916   -8.2922278    764.12099  0.013205464  0.011620564            3 
 4823000   0.47685099   -8.2856482    763.97731  0.013200244  0.011616847            4 
 4824000   0.48049474   -8.2853428    764.36523  0.013204209   0.01161313            5 
 4825000    0.4845765   -8.2905698    763.70581  0.013190083  0.011609411            6 
 4826000   0.47296734   -8.2765843    763.87069  0.013190197    0.0116057            4 
 4827000    0.4763942   -8.2841885    762.96684   0.01317186  0.011601985            8 
 4828000   0.47529883   -8.2780087    762.90166  0.013168007  0.011598273            5 
 4829000   0.48436326   -8.2867175    764.83999   0.01319873  0.011594565            5 
 4830000   0.48155029   -8.2695571    763.15355    0.0131669  0.011590854            8 
 4831000   0.48188592   -8.2988164    764.34382  0.013184707  0.011587147            5 
 4832000   0.47142313    -8.272472    763.60563  0.013169247   0.01158344            5 
 4833000   0.48103592   -8.2750146    764.65132  0.013184553  0.011579735            2 
 4834000   0.46971198   -8.2841203    763.61554  0.013163969  0.011576028            3 
 4835000    0.4867717   -8.2888771    764.42465  0.013175192  0.011572324            6 
 4836000   0.47434847   -8.2790302    764.45073  0.013172917  0.011568623            4 
 4837000   0.46792199    -8.276501    764.98099  0.013179329  0.011564925            5 
 4838000   0.48105909   -8.2634651    764.04033  0.013160403   0.01156123            3 
 4839000   0.48172959   -8.2822487    763.88207  0.013154958  0.011557534            4 
 4840000   0.47727176   -8.2736894    764.45562  0.013162115  0.011553842            6 
 4841000   0.46240254   -8.2822965    764.39882  0.013158418  0.011550149            5 
 4842000   0.47320532   -8.2937394    764.25098  0.013153156  0.011546458            3 
 4843000   0.48580635   -8.2754693    764.46385  0.013154103  0.011542769            4 
 4844000   0.48046578   -8.2729479    763.07503  0.013127495  0.011539081            5 
 4845000   0.46414699   -8.3023733    765.09108  0.013159461  0.011535393            5 
 4846000   0.48066071   -8.2859618    764.21942  0.013141756  0.011531705            8 
 4847000   0.47682997   -8.2757987    764.27417  0.013139986   0.01152802            4 
 4848000   0.48091822   -8.2924878    764.16089  0.013135329  0.011524335            5 
 4849000   0.48322956   -8.2983875     763.1122  0.013114598  0.011520654            3 
 4850000   0.48189049   -8.2843464    764.09535  0.013128786  0.011516972            5 
 4851000   0.48099299   -8.2935277    763.84961  0.013121858  0.011513294            4 
 4852000   0.47352277   -8.2897929    765.12503  0.013141059  0.011509616            4 
 4853000   0.47758774   -8.2856594    763.48895  0.013110257  0.011505938            4 
 4854000   0.46865636   -8.2949802    763.24813  0.013103422  0.011502262            7 
 4855000   0.48674008   -8.2880816    764.21233  0.013117273  0.011498589            5 
 4856000   0.47335904   -8.3043821    763.58843  0.013103865  0.011494917            5 
 4857000   0.47544051   -8.2891773    764.16093   0.01311099  0.011491242            5 
 4858000   0.47900634   -8.3008794    763.32773  0.013093998  0.011487569            7 
 4859000   0.46511072   -8.3180311    763.80615  0.013099509  0.011483898            7 
 4860000   0.46610411    -8.287411    763.09566  0.013084631  0.011480231            4 
 4861000   0.48635402   -8.2856786     763.4837  0.013088591  0.011476563            5 
 4862000   0.47133695   -8.2881752    763.79714  0.013091271  0.011472896            5 
 4863000   0.47365842   -8.2964526    763.74819  0.013087741  0.011469232            4 
 4864000   0.46224469   -8.2806147    762.43858  0.013062613  0.011465569            5 
 4865000   0.47335693   -8.2800201    763.11641  0.013071538  0.011461912            3 
 4866000   0.47850993    -8.288241    763.64903  0.013077974  0.011458252            5 
 4867000   0.47931268   -8.3002682    764.20863  0.013084868   0.01145459            8 
 4868000    0.4582117   -8.2996901    763.45289  0.013069243  0.011450934            4 
 4869000     0.472951   -8.2876301    762.61132  0.013052155  0.011447279            6 
 4870000   0.46854073   -8.2769913    763.38561  0.013062724  0.011443625            5 
 4871000   0.47878657   -8.2860336    763.96187  0.013069901  0.011439974            6 
 4872000   0.47074526   -8.2883116    763.47684  0.013058922  0.011436326            5 
 4873000   0.46976386   -8.3023331    763.26196  0.013052568  0.011432676            3 
 4874000   0.46678613   -8.3077991    763.23814  0.013049483  0.011429028            5 
 4875000    0.4853874    -8.289776    762.82285  0.013039707  0.011425383           11 
 4876000   0.47682038   -8.2863219    763.70056  0.013052033  0.011421739            9 
 4877000   0.46964496   -8.2932464    762.99635  0.013037324  0.011418093            5 
 4878000    0.4624308   -8.2920475    764.22222  0.013055594  0.011414452            4 
 4879000   0.47157778    -8.287511    762.15438  0.013017599  0.011410812            5 
 4880000   0.46193778   -8.2988943    763.40657  0.013036314  0.011407175            4 
 4881000   0.47155052   -8.3059459    763.07559  0.013027993  0.011403537            4 
 4882000   0.46987501   -8.3071241    762.34988  0.013012937    0.0113999            5 
 4883000   0.46984972   -8.2796604     762.8737  0.013019211  0.011396264            4 
 4884000   0.47706589   -8.3091899    763.31622  0.013024096  0.011392629            3 
 4885000   0.47349221   -8.3139267    762.33199   0.01300464  0.011388996            6 
 4886000   0.46266568   -8.3028599    762.94361   0.01301241  0.011385363            4 
 4887000   0.47180119   -8.2929788    762.83207  0.013007845  0.011381731            4 
 4888000   0.46764607   -8.2984678    763.72766  0.013020453  0.011378106            3 
 4889000   0.47084814    -8.292246    764.65182  0.013033542  0.011374479            5 
 4890000   0.47411753   -8.2953997    762.83892  0.012999982  0.011370853            3 
 4891000   0.47847656   -8.2968287    763.60227   0.01301033  0.011367227            2 
 4892000   0.47417484   -8.3027326    762.82304  0.012994396  0.011363603            3 
 4893000   0.46860555    -8.291011    763.54298  0.013004002  0.011359977            4 
 4894000   0.46899092   -8.3041736    763.43498  0.012999506  0.011356358            4 
 4895000   0.45370044   -8.3170347    762.91603  0.012988015  0.011352737            4 
 4896000    0.4831951   -8.2953136    762.31892    0.0129752  0.011349117            4 
 4897000   0.47096352   -8.3140772    763.94861  0.013000283  0.011345503            3 
 4898000    0.4621238   -8.3066347    763.19321  0.012984776  0.011341888            5 
 4899000   0.46624795   -8.3025719    763.10086  0.012980555  0.011338273            3 
 4900000    0.4706948   -8.3024992    763.92157  0.012991863  0.011334662            4 
 4901000   0.45796897   -8.3038206    763.53265    0.0129826  0.011331049            4 
 4902000   0.47632645   -8.2982626    763.06962   0.01297208  0.011327436            4 
 4903000   0.47473812   -8.3050725    762.83184  0.012965393  0.011323828            2 
 4904000   0.46577879   -8.2949176    761.95404  0.012947832  0.011320221            2 
 4905000   0.47307025   -8.3032994    763.01695  0.012963251  0.011316617            8 
 4906000   0.46867681   -8.3121683    763.84437  0.012974663  0.011313014            4 
 4907000   0.46410663   -8.3094983    762.65657  0.012951847  0.011309414            2 
 4908000   0.46400649   -8.3049287    762.38287  0.012944561  0.011305812            4 
 4909000   0.47437635   -8.3059077    762.42588  0.012942654  0.011302215            3 
 4910000    0.4669166    -8.310968    763.10876  0.012951608  0.011298614            5 
 4911000   0.46604426   -8.3039655    763.55163  0.012956486  0.011295017            4 
 4912000   0.47294466    -8.318759    762.01065  0.012927705  0.011291419            2 
 4913000   0.47548733   -8.3057071    763.17084  0.012944753   0.01128782            6 
 4914000   0.46218213    -8.300296    763.07329  0.012940464  0.011284224            3 
 4915000   0.45860163    -8.298323    762.50786  0.012928244  0.011280628            6 
 4916000   0.46657162   -8.3066537    762.59342  0.012927065  0.011277037            4 
 4917000   0.46038821   -8.3043515    762.71539  0.012926503  0.011273445            4 
 4918000   0.46973057   -8.3197805    762.85339  0.012926213  0.011269855            5 
 4919000   0.46508507   -8.3036337    761.88446  0.012907171  0.011266269            5 
 4920000   0.45895881   -8.2999766    761.85785  0.012904096  0.011262684            5 
 4921000   0.46418277   -8.3109171    763.17416  0.012923765    0.0112591            5 
 4922000   0.46526762   -8.3186487    763.45505  0.012925895  0.011255521            4 
 4923000   0.46938127   -8.3121533    762.60208  0.012908831  0.011251939            3 
 4924000     0.460443   -8.3139896    762.95809  0.012912234  0.011248357            2 
 4925000   0.45869934   -8.3080673    762.08686  0.012894871  0.011244777            5 
 4926000   0.45766908   -8.3119482    762.57541  0.012900518  0.011241198            4 
 4927000   0.46171401   -8.3165428    762.12186  0.012890228  0.011237621            8 
 4928000   0.47052586   -8.3140151    761.89177  0.012883722  0.011234045            5 
 4929000   0.46541671   -8.3042763     762.6973  0.012894727  0.011230471            5 
 4930000   0.46583266   -8.3168368    763.27197  0.012901825  0.011226901            4 
 4931000   0.45829276   -8.3073117    764.11902  0.012913524  0.011223332            4 
 4932000   0.45436154   -8.3003727    762.54002  0.012884226  0.011219759            5 
 4933000   0.47072129   -8.2898288    761.40072  0.012862368   0.01121619            6 
 4934000   0.45506646   -8.3067144    763.29894  0.012891821  0.011212621            5 
 4935000   0.46585842   -8.3102527    762.30999  0.012872509  0.011209053            3 
 4936000   0.46641818   -8.3131755    761.39363  0.012854431  0.011205489            6 
 4937000   0.46381619   -8.3114568    762.69339  0.012873766  0.011201925            5 
 4938000   0.45715242   -8.3178818    762.27845  0.012864156  0.011198362            4 
 4939000   0.45754737   -8.3168642    762.21358  0.012860457  0.011194801            7 
 4940000   0.47287296   -8.3353284    763.71715  0.012883218  0.011191242            7 
 4941000   0.45632831   -8.3022683    762.66744  0.012862906  0.011187683            3 
 4942000   0.45999488   -8.3173719    762.97825  0.012865544  0.011184127            4 
 4943000    0.4624206    -8.314951     762.9462  0.012862401   0.01118057            6 
 4944000   0.45380322   -8.3111243    762.13646  0.012846151  0.011177016            3 
 4945000   0.46477307   -8.2997542    763.50797  0.012866666  0.011173464            7 
 4946000   0.46111476   -8.3133823    763.28687  0.012860339  0.011169912            3 
 4947000   0.46227119   -8.3066014    762.83875  0.012850191  0.011166362            6 
 4948000   0.46378948    -8.327799    762.52759  0.012842354  0.011162811            5 
 4949000   0.46023653   -8.3253755    762.97467  0.012847287  0.011159265            6 
 4950000   0.46477745   -8.3229498    762.35966  0.012834338   0.01115572            7 
 4951000   0.46944661   -8.3134884    763.03861  0.012843173  0.011152178            4 
 4952000   0.46030741   -8.3204342    762.14606   0.01282556  0.011148637            3 
 4953000   0.45818676   -8.3148315    763.15993  0.012840028  0.011145092            7 
 4954000   0.46092102   -8.3259566    762.26834  0.012822439  0.011141555            4 
 4955000   0.45683805   -8.3277863     762.6826  0.012826818  0.011138017            5 
 4956000   0.44871224   -8.3070856    762.05958  0.012813754  0.011134481            3 
 4957000    0.4621761   -8.3097753    762.93232  0.012825841  0.011130947            4 
 4958000    0.4547237   -8.3188787    763.17197  0.012827282  0.011127415            5 
 4959000   0.45730681   -8.3218617    762.67358   0.01281632  0.011123881            4 
 4960000   0.45092385   -8.3086366    762.19651  0.012805721  0.011120352            5 
 4961000   0.46149547   -8.3246511     762.8376  0.012813909  0.011116824            5 
 4962000   0.45978534   -8.3131124    761.87096  0.012795092  0.011113297            7 
 4963000   0.45294974   -8.3179926    761.10091  0.012779584  0.011109772            3 
 4964000   0.45686722   -8.3123957    762.59259  0.012802051  0.011106247            4 
 4965000   0.46705561   -8.3160694    762.44119  0.012796932  0.011102723            6 
 4966000   0.45834794   -8.3192826    762.66476  0.012798106  0.011099201            6 
 4967000   0.44883706    -8.304612    764.05041  0.012818777  0.011095678           11 
 4968000   0.46362018   -8.3311842    762.53829  0.012790833  0.011092159            3 
 4969000   0.45531879    -8.336588    762.08582   0.01278067   0.01108864            4 
 4970000   0.45915443   -8.3292884    761.58966   0.01276978  0.011085123            3 
 4971000   0.45989553   -8.3245262    762.89601   0.01278911  0.011081608            6 
 4972000   0.45803481   -8.3069586    762.75785  0.012784222  0.011078095            6 
 4973000   0.45230503   -8.3191558    762.95374  0.012784934  0.011074583            3 
 4974000   0.45258339   -8.3364789    762.01591  0.012766652  0.011071072            2 
 4975000   0.45989726   -8.3091161    762.05193  0.012764689  0.011067562            3 
 4976000   0.45526989   -8.3312815    761.71326  0.012756452  0.011064051            3 
 4977000   0.44653175   -8.3345469    763.46187  0.012783167  0.011060544            5 
 4978000   0.46131546   -8.3171109      762.518  0.012764798  0.011057039            4 
 4979000   0.45817364   -8.3155924    761.38644  0.012743296  0.011053535            4 
 4980000   0.45786308   -8.2959702    762.20982  0.012754515   0.01105003            3 
 4981000   0.45588526   -8.3230834    761.73245  0.012743968  0.011046524            4 
 4982000   0.44802061   -8.3125818     762.0166  0.012746163  0.011043023            4 
 4983000   0.45691554   -8.3282102    762.11507  0.012745252  0.011039524            2 
 4984000   0.46001834   -8.3188745    762.29221  0.012745656  0.011036027            6 
 4985000   0.45934512   -8.3317081    762.05528  0.012739139  0.011032531            4 
 4986000   0.45128457   -8.3253145    762.15679   0.01273828  0.011029038            3 
 4987000    0.4562117   -8.3347234    762.04325  0.012733829  0.011025546            8 
 4988000   0.45685294   -8.3264671    763.09897  0.012748914  0.011022052            7 
 4989000   0.45454705   -8.3270349    762.56085   0.01273737   0.01101856            2 
 4990000   0.45400168   -8.3193128    762.11978  0.012727451   0.01101507            4 
 4991000   0.44966863    -8.320232    762.82701   0.01273671  0.011011581            3 
 4992000   0.45845564   -8.3143074    761.88184   0.01271838  0.011008092            3 
 4993000   0.44843325   -8.3296695    760.65115  0.012695293  0.011004606            3 
 4994000   0.45423844   -8.3232097    762.47627  0.012723206  0.011001121            4 
 4995000   0.44606315   -8.3282202    762.93185  0.012728259  0.010997636            3 
 4996000   0.46336015   -8.3170869    762.53402  0.012719076  0.010994155            6 
 4997000   0.44120044   -8.3191431     762.2892  0.012712447  0.010990674            6 
 4998000   0.45723022   -8.3222116    763.59427  0.012731664  0.010987196            3 
 4999000   0.45119068   -8.3198426    761.24524  0.012689959  0.010983718            6 
 5000000   0.45984763    -8.318263     762.6294   0.01271049  0.010980242            2 
 5001000   0.45452695   -8.3358458    761.37546  0.012687054  0.010976768            5 
 5002000   0.45081942   -8.3322745    762.86269  0.012709294  0.010973294            2 
 5003000   0.44917487   -8.3237652    762.67251  0.012703586   0.01096982            5 
 5004000   0.45071607   -8.3231282    762.27043  0.012694352  0.010966346            3 
 5005000   0.44683753   -8.3264372    762.30327  0.012692362  0.010962878            4 
 5006000   0.46924843   -8.3254514    762.61916  0.012695085  0.010959409            6 
 5007000   0.44971042   -8.3158219    761.11221  0.012667469  0.010955944            3 
 5008000   0.43955026   -8.3293085    761.41653  0.012670003  0.010952476            4 
 5009000   0.44827874    -8.318373    761.85452  0.012674761  0.010949011            5 
 5010000   0.44368246   -8.3391766    761.66499  0.012669078  0.010945548            4 
 5011000    0.4504496   -8.3179094    761.89895  0.012670441  0.010942084            3 
 5012000   0.44674363   -8.3219976    761.11468  0.012654873  0.010938625            7 
Loop time of 11652.1 on 48 procs for 5000000 steps with 4000 atoms

Performance: 74149.867 tau/day, 429.108 timesteps/s
99.4% CPU use with 48 MPI tasks x no OpenMP threads

MPI task timing breakdown:
Section |  min time  |  avg time  |  max time  |%varavg| %total
---------------------------------------------------------------
Pair    | 734.03     | 781.28     | 825.89     |  86.1 |  6.71
Neigh   | 75.012     | 77.84      | 80.765     |  14.5 |  0.67
Comm    | 721.76     | 768.5      | 826.53     |  97.6 |  6.60
Output  | 13.451     | 13.456     | 13.534     |   0.3 |  0.12
Modify  | 9888.3     | 9903.6     | 9920.5     |   8.4 | 84.99
Other   |            | 107.4      |            |       |  0.92

Nlocal:        83.3333 ave          91 max          78 min
Histogram: 6 4 5 12 7 3 5 1 1 4
Nghost:        1954.31 ave        1978 max        1935 min
Histogram: 2 3 7 9 10 9 1 0 5 2
Neighs:        12442.8 ave       14043 max       11044 min
Histogram: 3 4 4 10 4 7 9 3 3 1
FullNghs:      24885.7 ave       27195 max       23125 min
Histogram: 6 5 6 8 8 4 1 4 1 5

Total # of neighbors = 1194515
Ave neighs/atom = 298.62875
Neighbor list builds = 268427
Dangerous builds = 0

#clear
#
#next RN
#
#jump SELF
Total wall time: 3:14:15
