
units lj                  # Use reduced LJ style units
atom_style atomic         # Uncharged point particles
atom_modify map hash      # Needed for indexing of clusters etc
                          # Used to be able to find where atoms are in relation to each other.

lattice fcc 1.0 spacing 1 1 1
Lattice spacing in x,y,z = 1.5874011 1.5874011 1.5874011
region box block 0 10 0 10 0 10 units lattice
create_box 2 box
Created orthogonal box = (0.0000000 0.0000000 0.0000000) to (15.874011 15.874011 15.874011)
  3 by 4 by 4 MPI processor grid
create_atoms 1 box
Created 4000 atoms
  using lattice units in orthogonal box = (0.0000000 0.0000000 0.0000000) to (15.874011 15.874011 15.874011)
  create_atoms CPU = 0.003 seconds
set type 1 type/fraction 2 0.95 78393
Setting atom values ...
  3802 settings made for type/fraction
mass 1 1.0
mass 2 1.0
pair_style lj/cut  3.5
pair_modify tail  yes
pair_coeff 1  1  1.0  1.0   # Intearaction between 1 and 1 set with epsilon = 1 and sigma = 1
pair_coeff 1  2  1.5  0.8
pair_coeff 2  2  0.5  0.88

write_data data.0
System init for write_data ...
Neighbor list info ...
  update every 1 steps, delay 10 steps, check yes
  max neighbors/atom: 2000, page size: 100000
  master list distance cutoff = 3.8
  ghost atom cutoff = 3.8
  binsize = 1.9, bins = 9 9 9
  1 neighbor lists, perpetual/occasional/extra = 1 0 0
  (1) pair lj/cut, perpetual
      attributes: half, newton on
      pair build: half/bin/atomonly/newton
      stencil: half/bin/3d
      bin: standard
WARNING: Not all mixed pair coeffs generated from mixing. Use write_data with 'pair ij' option to store all pair coeffs. (../write_data.cpp:312)


#############################
#   M E L T   S Y S T E M   #
#############################

velocity all create 2.4 5833274 mom yes dist gaussian # Assign velocities
                                                    # Temperature 2.4, random number seed, zero linear momentum
                                                                                # Gaussian distribution

timestep 0.002   # simulation timestep
thermo 1000       # output thermodynamic data every 1000 steps bf 100

# Define a fix  in this case with index 1 applied to all
# particles in the simulation. This fix is for simulations
# in the anisotropic NPT ensemble. Note that we use the MTK
# correction.
fix 1 all npt temp 2.4 2.4 0.1 iso 5.68 5.68 0.5 mtk yes tchain 5 pchain 5 # Use NPT ensemble
                                                                         # Set temperature and pressure and damping
                                                                         # Numbers of thermostats in chain and in barostat
run 10000          # run for 10000 steps
Per MPI rank memory allocation (min/avg/max) = 3.642 | 3.644 | 3.648 Mbytes
Step Temp E_pair E_mol TotEng Press Volume 
       0          2.4   -2.9371918            0   0.66190816   -2.1469233         4000 
    1000    2.4698269   -1.8040149            0    1.8997993    5.6551159    4164.4291 
    2000    2.4082911    -1.816504            0    1.7950296    5.7790059     4110.344 
    3000    2.4085451   -1.8256725            0    1.7862419    5.6292889    4144.6315 
    4000    2.3618798   -1.8580419            0    1.6838921     5.498909    4115.2818 
    5000    2.3705058   -1.8406629            0    1.7142068    5.2692451    4194.5304 
    6000    2.3595708   -1.8171148            0    1.7213565    5.6168352     4139.459 
    7000    2.3370043    -1.820456            0     1.684174     5.902446    4082.8975 
    8000    2.4130866    -1.820382            0     1.798343    5.6430714    4134.9351 
    9000    2.3063651   -1.8213496            0    1.6373331     5.522245    4143.6735 
   10000    2.3680617   -1.8303001            0    1.7209044    5.5726279    4137.7498 
Loop time of 2.41138 on 48 procs for 10000 steps with 4000 atoms

Performance: 716600.747 tau/day, 4146.995 timesteps/s
99.7% CPU use with 48 MPI tasks x no OpenMP threads

MPI task timing breakdown:
Section |  min time  |  avg time  |  max time  |%varavg| %total
---------------------------------------------------------------
Pair    | 1.0622     | 1.1145     | 1.181      |   2.8 | 46.22
Neigh   | 0.20517    | 0.21209    | 0.22282    |   0.8 |  8.80
Comm    | 0.75886    | 0.82674    | 0.88441    |   3.7 | 34.28
Output  | 0.0002433  | 0.00024918 | 0.00038864 |   0.0 |  0.01
Modify  | 0.2206     | 0.24292    | 0.26741    |   2.5 | 10.07
Other   |            | 0.01488    |            |       |  0.62

Nlocal:        83.3333 ave          94 max          75 min
Histogram: 3 6 6 4 9 8 5 3 3 1
Nghost:        1599.65 ave        1628 max        1571 min
Histogram: 2 4 5 7 6 8 3 8 4 1
Neighs:        9225.98 ave       10599 max        8012 min
Histogram: 3 8 3 2 8 10 4 6 2 2

Total # of neighbors = 442847
Ave neighs/atom = 110.71175
Neighbor list builds = 910
Dangerous builds = 227

# Equilibrate just above the melting temperature to avoid step fn in T

fix 1 all npt temp 1.25 1.25 0.1 iso 5.68 5.68 0.5 mtk yes tchain 5 pchain 5
run 2000
Per MPI rank memory allocation (min/avg/max) = 3.643 | 3.645 | 3.649 Mbytes
Step Temp E_pair E_mol TotEng Press Volume 
   10000    2.3680617   -1.8303001            0    1.7209044    5.5726279    4137.7498 
   11000     1.269092   -2.7554865            0  -0.85232437    5.5879853    3236.9193 
   12000     1.269292   -2.7687895            0   -0.8653275    5.8317396     3198.269 
Loop time of 0.585101 on 48 procs for 2000 steps with 4000 atoms

Performance: 590667.058 tau/day, 3418.212 timesteps/s
99.6% CPU use with 48 MPI tasks x no OpenMP threads

MPI task timing breakdown:
Section |  min time  |  avg time  |  max time  |%varavg| %total
---------------------------------------------------------------
Pair    | 0.26125    | 0.28191    | 0.30491    |   2.1 | 48.18
Neigh   | 0.037733   | 0.04035    | 0.042724   |   0.5 |  6.90
Comm    | 0.18695    | 0.21343    | 0.23809    |   2.7 | 36.48
Output  | 5.0846e-05 | 5.2288e-05 | 6.6743e-05 |   0.0 |  0.01
Modify  | 0.041323   | 0.044372   | 0.047146   |   0.8 |  7.58
Other   |            | 0.004987   |            |       |  0.85

Nlocal:        83.3333 ave          94 max          76 min
Histogram: 4 3 8 13 5 6 3 3 2 1
Nghost:        1908.75 ave        1925 max        1878 min
Histogram: 2 0 1 4 6 5 7 8 6 9
Neighs:        11953.7 ave       13858 max       10290 min
Histogram: 3 3 7 5 10 6 7 3 1 3

Total # of neighbors = 573779
Ave neighs/atom = 143.44475
Neighbor list builds = 142
Dangerous builds = 16

#############################
# L I N E A R  Q U E N C H  #
#############################

# Define solid atoms. This closely follows ten Wolde  Ruiz-Montero and Frenkel  Faraday Discuss  1996  104  93-110
# Compute components of the per-atom q6 vector
compute q6 all orientorder/atom degrees 1 6 components 6 nnn NULL cutoff 1.3 # compute the Q6 parameter.
                                                                             # Use all neighbours within 1.3 unit cell.

# get number of connections
compute coord_number all coord/atom orientorder q6 0.5

# An atom is solid if it has 8 or more connections (of a possible 14)
variable is_solid atom c_coord_number>=8
group solid dynamic all var is_solid    # Must be dynamic to update
dynamic group solid defined

# do clustering
compute cluster solid cluster/atom 1.3 # Create a cluster where all atoms within are solid and max 1.3 units from another member

# define chunks one chunk per cluster
compute clus_chunks solid chunk/atom c_cluster nchunk every compress yes  # Says which atoms are in which chunk

# count the size of each chunk
compute size_chunks solid property/chunk clus_chunks count


# Find the maximum entry in the vector of chunk sizes
variable max_n equal max(c_size_chunks)


# Thermo style which includes this variable
# thermo_style custom step temp pe vol v_max_n

thermo ${N}  # Print the thermo information every 100 steps
thermo 1000  

# Reset the npt fix at a lower temperature (below freezing)
fix 1  all npt temp  ${temp} ${temp}  0.1  iso  5.68  5.68  0.5  mtk yes tchain  5  pchain  5
fix 1  all npt temp  0.45 ${temp}  0.1  iso  5.68  5.68  0.5  mtk yes tchain  5  pchain  5
fix 1  all npt temp  0.45 0.45  0.1  iso  5.68  5.68  0.5  mtk yes tchain  5  pchain  5

dump dmp2 all dcd ${N} traj.dcd
dump dmp2 all dcd 1000 traj.dcd


compute msd all msd com yes
variable twopoint equal c_msd[4]/6/(step*dt+1.0e-6)
fix 9 all vector 10 c_msd[4]
variable fit equal slope(f_9)/6/(10*dt)
thermo_style custom step temp pe c_msd[4] v_twopoint v_fit v_max_n

fix 1 all npt temp 1.25 ${temp} 0.1 iso 5.68 5.68 0.5 mtk yes tchain 5 pchain 5
fix 1 all npt temp 1.25 0.45 0.1 iso 5.68 5.68 0.5 mtk yes tchain 5 pchain 5
run 2000000 # 5000000  # Run for this many steps
Neighbor list info ...
  update every 1 steps, delay 10 steps, check yes
  max neighbors/atom: 2000, page size: 100000
  master list distance cutoff = 3.8
  ghost atom cutoff = 3.8
  binsize = 1.9, bins = 8 8 8
  4 neighbor lists, perpetual/occasional/extra = 1 3 0
  (1) pair lj/cut, perpetual
      attributes: half, newton on
      pair build: half/bin/atomonly/newton
      stencil: half/bin/3d
      bin: standard
  (2) compute orientorder/atom, occasional
      attributes: full, newton on
      pair build: full/bin/atomonly
      stencil: full/bin/3d
      bin: standard
  (3) compute coord/atom, occasional
      attributes: full, newton on
      pair build: full/bin/atomonly
      stencil: full/bin/3d
      bin: standard
  (4) compute cluster/atom, occasional
      attributes: full, newton on
      pair build: full/bin/atomonly
      stencil: full/bin/3d
      bin: standard
Per MPI rank memory allocation (min/avg/max) = 9.816 | 9.822 | 9.827 Mbytes
Step Temp PotEng c_msd[4] v_twopoint v_fit v_max_n 
   12000     1.269292   -2.7687895 1.0744286e-30 7.4613091e-33 8.3333333e+20            3 
   13000    1.2267079   -2.7392216    1.1399292 0.0073072381   0.09769201            1 
   14000    1.2618231   -2.7590563    2.3397548  0.013927111  0.097837738            1 
   15000     1.253209   -2.7111082    3.5690272  0.019827928    0.1009997            2 
   16000    1.2829981   -2.7357072    4.8991702   0.02551651   0.10256783            1 
   17000     1.263743   -2.7401048    6.2246063  0.030512775   0.10480161            2 
   18000    1.2714528   -2.7386542    7.5114496  0.034775229   0.10586096            1 
   19000    1.2462586   -2.7589848    8.8855104  0.038971536   0.10660737            1 
   20000    1.2623909   -2.7516981    10.222221  0.042592585   0.10751002            2 
   21000    1.2662211    -2.771756    11.517607  0.045704787   0.10823399            5 
   22000    1.2297594   -2.7678532    12.766057  0.048356276   0.10810788            1 
   23000    1.2135943    -2.768558    13.836323  0.050131605   0.10764107            1 
   24000    1.2642158   -2.8018189    14.927477  0.051831517   0.10688721            4 
   25000    1.2275453    -2.737339    16.117843  0.053726143   0.10600714            2 
   26000    1.2510252   -2.7380258    17.299463  0.055446997   0.10522131            2 
   27000    1.2231617   -2.7616807    18.600988  0.057410455   0.10458506            1 
   28000     1.266617   -2.7510755    19.670918  0.058544399   0.10391314            3 
   29000    1.2505886   -2.7511724    20.690949  0.059456748   0.10338129            2 
   30000    1.2672047    -2.766148    21.849353  0.060692647   0.10274779            1 
   31000    1.2577932   -2.7491035    23.102171   0.06210261   0.10225865            3 
   32000    1.2484127   -2.7897355    24.390214  0.063516181   0.10191091            4 
   33000    1.2693487   -2.7600207    25.584396  0.064607059   0.10167477            2 
   34000    1.2558305   -2.7809508    26.743908  0.065548792   0.10139488            1 
   35000    1.2535682    -2.769581    27.731188  0.066026638   0.10116847            1 
   36000    1.2479476   -2.7565264    29.062773  0.067274937    0.1009676            1 
   37000    1.2613491   -2.7431666    30.504034  0.068702778   0.10086658            2 
   38000    1.2344001   -2.7747515    31.616899  0.069335303   0.10088932            3 
   39000    1.2578731   -2.7941678    32.802643  0.070091116   0.10087241            2 
   40000    1.2111687   -2.7690066    33.720133  0.070250276   0.10073275            3 
   41000    1.2427675   -2.7613002    35.083446  0.071307816   0.10058634            1 
   42000    1.2362554   -2.7538022     36.38334  0.072189166   0.10047831            1 
   43000    1.2249515   -2.7843286    37.286221  0.072260117   0.10034259            3 
   44000    1.2443986   -2.7769411     38.73406  0.073359961   0.10022497            1 
   45000    1.2434182   -2.7501487    39.867277   0.07382829   0.10014911            5 
   46000    1.2379875   -2.7608466    41.053437  0.074372167   0.10014124            3 
   47000    1.2174783   -2.7813963      42.3164  0.075029077   0.10014105            3 
   48000    1.2267793    -2.778506    43.794553   0.07603221   0.10011751            1 
   49000    1.2472903   -2.7931283    44.610476  0.075868156   0.10012067            1 
   50000    1.2277939   -2.7266961    45.704745  0.076174575   0.10007271            2 
   51000     1.233562   -2.7851525    46.865727  0.076577984   0.10005335            2 
   52000    1.2588154   -2.7993364    48.300097     0.077404  0.099955568            3 
   53000    1.2383604   -2.7962523    49.724772  0.078183603  0.099969926            2 
   54000    1.2508482    -2.801883    51.363673  0.079264927   0.10011175            1 
   55000    1.2295102   -2.7762252    52.766401  0.079949091   0.10029671            2 
   56000    1.2492287    -2.761057    53.830953  0.080105584   0.10048187            2 
   57000    1.2535903   -2.8031952    54.831987  0.080163722   0.10057767            2 
   58000    1.2192227   -2.7945582    55.994096  0.080451287   0.10068803            2 
   59000    1.2259337   -2.7804338    57.275732  0.080897926   0.10076354            2 
   60000    1.2497443   -2.7714895    58.835804  0.081716394   0.10084272            1 
   61000    1.2588433   -2.7457202    60.398207  0.082511211   0.10097994       -1e+20 
   62000    1.1991641   -2.8000378    61.374221  0.082492232   0.10114562            2 
   63000    1.2177861   -2.7903174     62.98515   0.08331369   0.10130971            2 
   64000    1.2350977   -2.7793377    64.262932  0.083675692    0.1014839            1 
   65000    1.2167309   -2.7699261    65.236835  0.083636967   0.10161034            1 
   66000    1.2383521   -2.7960734     66.49979  0.083964381   0.10169493            3 
   67000    1.2320507   -2.8074636    66.978003  0.083305974   0.10175902            1 
   68000    1.2303469   -2.7732796    68.233017  0.083618893   0.10173589            1 
   69000    1.2273183   -2.7833465    69.193125  0.083566575   0.10170226            3 
   70000    1.2011965   -2.7782877    70.567415  0.084008827   0.10166741            2 
   71000    1.2358751   -2.7764597    71.624144  0.084065896    0.1015901            2 
   72000    1.2296027   -2.7806701    72.651426  0.084087298   0.10151582            2 
   73000    1.2102764   -2.7772918    74.354288  0.084879324   0.10146606            2 
   74000    1.2161056   -2.7608138    75.127021    0.0846025    0.1014272            1 
   75000    1.2137393   -2.7763222    77.202334   0.08578037   0.10142268            3 
   76000    1.2158606     -2.80348    77.658041   0.08515136   0.10139797            1 
   77000     1.218377   -2.7784775    78.989046   0.08548598   0.10136134            1 
   78000    1.2060437   -2.8124479    79.816478  0.085274015   0.10130553            2 
   79000      1.22395   -2.7893748    81.026876  0.085471388   0.10125943            4 
   80000    1.2322209   -2.7862036    82.672178  0.086116851   0.10122528            1 
   81000     1.225768   -2.7955241    83.148424  0.085543645   0.10118901            2 
   82000    1.2125321   -2.7999533    84.532908  0.085907426   0.10114329            2 
   83000    1.2385233   -2.7860304    85.696332  0.086040493   0.10111297            4 
   84000    1.2294313   -2.7747778     86.56075   0.08587376   0.10104817            1 
   85000    1.2009112   -2.7828374    87.642599  0.085924116   0.10097741            3 
   86000    1.2626585   -2.7972039    88.595708  0.085848554   0.10090917            1 
   87000    1.2100965   -2.7984844    89.782257   0.08599833   0.10081968            1 
   88000    1.2242069   -2.7764853    91.390274   0.08654382   0.10073626            3 
   89000    1.2391635    -2.789512    92.583469   0.08668864   0.10066645            2 
   90000    1.2116433   -2.8061693     94.21307  0.087234324   0.10058936            2 
   91000    1.2196476   -2.7804614    94.742415  0.086760453    0.1005155            1 
   92000    1.2238889   -2.8129172    95.969993  0.086929341   0.10045313            1 
   93000    1.2083769    -2.797498    97.003361  0.086920574   0.10039047            1 
   94000    1.2169668   -2.8097243    98.307558   0.08715209   0.10033586            1 
   95000     1.250171    -2.775706    100.14684  0.087848106   0.10029091            2 
   96000     1.220202   -2.8141532    102.07147  0.088603707   0.10028197            1 
   97000    1.2101112   -2.7741314    103.40875  0.088839133    0.1003173            1 
   98000    1.2495133   -2.8223036    104.45238  0.088820049   0.10035078            3 
   99000    1.1943983   -2.7954992    105.44938  0.088762107   0.10040202            1 
  100000    1.1882474   -2.8090223    106.85085  0.089042372   0.10044211            2 
  101000    1.2171085   -2.7941381    107.72298  0.088880349   0.10046005            2 
  102000    1.2080499   -2.7934017    108.98262  0.089038088    0.1004729            1 
  103000    1.2375757   -2.7812961    109.91159  0.088925232   0.10048161            1 
  104000    1.2152444   -2.7994954    111.05959  0.088990058   0.10049208            1 
  105000    1.2249635   -2.8094355    112.58479  0.089353007   0.10049043            1 
  106000    1.1914806   -2.7800707    113.77724  0.089447513   0.10048806            1 
  107000    1.2046523   -2.7942988    115.09154  0.089635156   0.10050486            2 
  108000    1.2163101   -2.7850702    116.24955  0.089698725   0.10052471            1 
  109000    1.2134378   -2.7962811    117.93319  0.090162992   0.10054126            4 
  110000    1.2131988   -2.7777669    118.63602  0.089875771   0.10055131            2 
  111000    1.1910914   -2.8126363    119.59036  0.089782555   0.10055334            2 
  112000    1.2018016   -2.8100094    121.23175  0.090202195   0.10054439            1 
  113000    1.2329377   -2.7980995    122.23593  0.090144494   0.10054445            4 
  114000    1.1945637   -2.7737374    122.24703  0.089361866   0.10051205            4 
  115000    1.1910648   -2.8093499    123.36739   0.08939666   0.10046658            2 
  116000    1.2292278   -2.8059997    124.46996  0.089418075    0.1004136            1 
  117000    1.2140509   -2.7900291    125.21646  0.089185512   0.10035129            2 
  118000    1.2043571   -2.8236272     126.2311   0.08914626   0.10028914            1 
  119000    1.2081469   -2.8143542     128.1464  0.089738376   0.10023631            1 
  120000    1.2026782   -2.8063118    128.87957  0.089499702   0.10017635            1 
  121000    1.2291877   -2.7944845    130.49731  0.089874181   0.10011315            2 
  122000    1.2071025   -2.7934867    132.33397  0.090392055   0.10005651            1 
  123000    1.2066726    -2.777562    133.37167  0.090360211   0.10002391            2 
  124000    1.1946802   -2.7908408    133.94008  0.090013496  0.099988526            2 
  125000    1.1900883   -2.8175479    135.21454  0.090143026  0.099941945            2 
  126000    1.2227122   -2.7889243    136.58474  0.090333822  0.099902738            2 
  127000    1.2155091   -2.7873745    137.58922  0.090281637  0.099872925            4 
  128000    1.2067321   -2.8143462    138.66925  0.090279458  0.099835535            3 
  129000    1.1857208   -2.8187439    139.64212  0.090208087  0.099801782            2 
  130000    1.1907062    -2.817019    141.07366  0.090431832  0.099763106            2 
  131000    1.1932395   -2.8172986    141.32633  0.089902246  0.099732477            2 
  132000    1.1713484   -2.8116381    143.29929  0.090466721  0.099690297            2 
  133000    1.1960165   -2.7830955    144.73134  0.090683797  0.099658344            1 
  134000    1.2060941   -2.7956714    145.85884  0.090708235  0.099625998            1 
  135000    1.1958137   -2.8075933    147.26958  0.090907149  0.099599069            2 
  136000    1.2088398    -2.786951    147.89547  0.090622225  0.099562266            2 
  137000    1.1839699   -2.7915593    148.89858  0.090570912  0.099517271            1 
  138000     1.188619    -2.811468    149.39377  0.090213628   0.09947363            3 
  139000    1.2213921   -2.7980314     152.1015  0.091187948  0.099433373            2 
  140000    1.1988643   -2.7968002    152.44148  0.090738974  0.099400922            3 
  141000    1.2035871   -2.8315041    152.78572  0.090298887   0.09936481            3 
  142000    1.2066436   -2.7987553    154.87339   0.09088814  0.099324376            1 
  143000    1.2052335   -2.8211887    154.97926  0.090314254  0.099273752            2 
  144000    1.1903056   -2.8183568    156.08144  0.090324906  0.099222195            1 
  145000    1.1950895   -2.8169911    156.97616  0.090216184  0.099166627            1 
  146000    1.1808487   -2.8259038    158.15435  0.090270745  0.099109864            5 
  147000    1.1707458   -2.7863059    159.38028   0.09035163  0.099051787            1 
  148000    1.2317016   -2.8133461    160.23767  0.090223914  0.098994403            3 
  149000    1.2105334   -2.7987389    161.22299  0.090169457  0.098933642            1 
  150000    1.2114124   -2.8311476    161.62777  0.089793203  0.098864161            2 
  151000    1.2395941   -2.8316152    163.43491  0.090195866  0.098788996            1 
  152000    1.2009875   -2.7904329     164.3838  0.090122697  0.098711163            2 
  153000    1.1828821   -2.8228638    164.83997   0.08978212  0.098628845            2 
  154000    1.2052105   -2.8280212    165.66113  0.089643466  0.098546738            1 
  155000    1.1947158     -2.79221    168.45273  0.090565984  0.098485728            1 
  156000    1.2094694   -2.8104952    168.66273   0.09009761  0.098431061            2 
  157000    1.1748968   -2.8375212    170.92984  0.090727089  0.098373321            2 
  158000    1.1928647    -2.835781    171.89744  0.090663206  0.098333044            1 
  159000    1.1766266   -2.8083512     173.4518  0.090907651  0.098297193            1 
  160000    1.1518921   -2.8051816    175.25096  0.091276543  0.098262754            2 
  161000    1.1913746   -2.8497142    175.83427  0.091011526  0.098230024            1 
  162000    1.2027232   -2.8322872    176.25372  0.090665496  0.098192163            2 
  163000    1.1906114   -2.8120509    178.00714  0.091005693  0.098163074            3 
  164000    1.2037464   -2.7876527    179.58116  0.091250587  0.098137292            1 
  165000     1.188417   -2.8453716    180.18429  0.091002164  0.098110788            2 
  166000    1.2021226   -2.8342185    182.28174  0.091506896  0.098087525            1 
  167000    1.1958394   -2.8141756    182.42858  0.091032224  0.098062368            3 
  168000    1.1785534   -2.8304805    184.05597  0.091297603  0.098037938            1 
  169000    1.1732293   -2.8423505    184.20125  0.090829018  0.098017673            1 
  170000    1.1543112    -2.806572     186.2438  0.091295979   0.09799094            2 
  171000    1.1532379   -2.8278499    186.60883  0.090939976  0.097975022            3 
  172000    1.1951757   -2.8047272    188.72155   0.09143486  0.097956479            5 
  173000    1.1914843   -2.8343762     189.4326  0.091248842  0.097937909            1 
  174000     1.194629   -2.8295258    191.15645  0.091550025  0.097927054            1 
  175000    1.1881662    -2.874677    192.80738   0.09181304  0.097914165            3 
  176000    1.1653055   -2.8515929    192.89019  0.091330581  0.097910875            1 
  177000    1.1900338   -2.8162415    196.15609  0.092352209  0.097908816            3 
  178000    1.1909279   -2.8158474    196.50368  0.091996106  0.097901552            1 
  179000    1.1903822   -2.8540957    198.05533   0.09220453  0.097899751            1 
  180000    1.1761047   -2.8246082    199.17165  0.092209095  0.097902474            1 
  181000    1.1951872   -2.8413439    200.01699  0.092088852  0.097906219            1 
  182000     1.182509   -2.8508824    201.34192  0.092189525  0.097903196            3 
  183000    1.1835474    -2.827435    203.25106  0.092555128  0.097904084            2 
  184000    1.1944265   -2.8163886    204.91183  0.092804269  0.097913137            3 
  185000    1.1604868   -2.8084471     207.0893  0.093283466  0.097926147            2 
  186000    1.1803503   -2.8379157    207.41609  0.092928357   0.09793779            4 
  187000    1.1926009   -2.8241445    207.47145  0.092456081  0.097945484            2 
  188000    1.1630774   -2.8297735    208.63393  0.092479577  0.097947285            3 
  189000    1.1993569   -2.8415769    209.03081  0.092165258   0.09794678            1 
  190000    1.1847829   -2.8591651    211.17147  0.092619067  0.097942166            1 
  191000    1.1887311   -2.8250552    210.93645  0.092031611  0.097934071            2 
  192000    1.1809864   -2.8266611    212.10242   0.09205834  0.097919079            2 
  193000    1.1839436   -2.8252872    212.12238  0.091589975  0.097902138            3 
  194000    1.1756789   -2.8380681    214.09244  0.091964104  0.097876424            2 
  195000    1.1864384   -2.8311676    215.43554   0.09206647  0.097849442            2 
  196000    1.1782943   -2.8152938     215.0977  0.091453104   0.09781574            3 
  197000    1.1606765   -2.8310157     217.2007  0.091878467  0.097775346            2 
  198000     1.183586   -2.8557328    217.86068  0.091692207  0.097738663            2 
  199000    1.1717061   -2.8290139    219.06094   0.09173406  0.097701925            1 
  200000    1.1756933   -2.8531557    219.36829  0.091403453  0.097668862            2 
  201000       1.1759   -2.8651046    219.85803  0.091151755  0.097628775            2 
  202000    1.1464416   -2.8802173    221.00003  0.091171628  0.097587574            1 
  203000    1.1569053   -2.8189289    222.22967  0.091227285  0.097550657            3 
  204000    1.1770612   -2.8203574    223.01034  0.091098996  0.097508233            1 
  205000    1.1634252   -2.8300153     225.2889  0.091580853  0.097469847            3 
  206000    1.1619896   -2.8297171    225.26066   0.09112486  0.097434006            4 
  207000    1.1760884   -2.8686972    226.51712  0.091190469  0.097394749            1 
  208000    1.1355595   -2.8354051    228.09204  0.091383028  0.097353628            3 
  209000    1.1569724   -2.8525574    228.96185  0.091292604  0.097313146            2 
  210000    1.1712902   -2.8328716    230.03035  0.091281885  0.097274717            2 
  211000    1.1711101   -2.8619995    230.13888  0.090892134  0.097228861            3 
  212000     1.232528   -2.8618189    231.50228  0.090999324   0.09717393            3 
  213000    1.1765767   -2.8212137    231.62733   0.09062102  0.097122597            4 
  214000    1.1680743   -2.8675767    233.03696  0.090746479  0.097064104            2 
  215000    1.1417756   -2.8494048    232.92605  0.090281416   0.09700804            1 
  216000    1.1784208   -2.8339182    235.36768  0.090805434   0.09694993            1 
  217000    1.1712351   -2.8427177    235.64867  0.090494881  0.096885803            2 
  218000    1.1667213   -2.8261266    235.59829  0.090060507  0.096823361            2 
  219000    1.1919114   -2.8776193    237.26256  0.090282557  0.096755331            1 
  220000    1.1720181   -2.8812077    237.83334  0.090088386  0.096683644            1 
  221000    1.1700122   -2.8451214    238.56838   0.08995791  0.096612037            1 
  222000    1.1394728     -2.84769    240.16012  0.090150194  0.096538561            2 
  223000    1.1821953   -2.8486903    241.82659  0.090368681  0.096469327            1 
  224000    1.1642008   -2.8309998    241.89615  0.089991127  0.096400715            2 
  225000    1.1688617   -2.8259194    243.09016  0.090033392  0.096332551            2 
  226000    1.1485467   -2.8189428    244.14705  0.090024724  0.096263126            3 
  227000    1.1762978   -2.8531856    244.53583  0.089770863  0.096191229            2 
  228000    1.1584627   -2.8465582     246.2645  0.090008953  0.096119838            1 
  229000    1.1637862   -2.8637991    245.82005  0.089454167  0.096044847            2 
  230000    1.1692338   -2.8920535    245.61446  0.088990746  0.095965458            1 
  231000    1.1673336   -2.8518004    247.67813  0.089349974  0.095889209            1 
  232000    1.1550395   -2.8186656    249.29099  0.089544177  0.095815323            2 
  233000     1.171318   -2.8488469    249.88818  0.089373455  0.095737788            3 
  234000    1.1694185   -2.8550279    252.03693  0.089756741  0.095660542            4 
  235000    1.1649273   -2.8693067      251.317  0.089119503  0.095582851            1 
  236000    1.1314673   -2.8426628    251.53723  0.088819645  0.095503833            1 
  237000     1.143388   -2.8310812    253.51331  0.089139702  0.095422397            2 
  238000    1.1586908   -2.8657876    254.23025  0.089016195  0.095338689            1 
  239000    1.1794679   -2.8783129    254.88119  0.088870709   0.09525686            1 
  240000    1.1865776   -2.8531508    255.17143  0.088601191  0.095175007            2 
  241000    1.1425935   -2.8472813    257.14375  0.088915542  0.095097579            2 
  242000    1.1383756   -2.8762179    258.01591  0.088848455  0.095025806            2 
  243000     1.177079   -2.8566544    260.80238  0.089438401  0.094954384            2 
  244000    1.1532919   -2.8371359    260.96629   0.08912783  0.094884506            3 
  245000    1.1513679   -2.8953152    261.66333  0.089001133  0.094810408            2 
  246000    1.1485719   -2.8602416     262.8659  0.089046713  0.094739225            2 
  247000    1.1567138   -2.8613939    263.96877   0.08905829  0.094665252            1 
  248000    1.1500547   -2.8681619    264.87773  0.089004612  0.094597371            4 
  249000    1.1656152     -2.85962    265.41807     0.088828   0.09452909            1 
  250000    1.1685657   -2.8382252    265.61408  0.088538028  0.094464425            2 
  251000    1.1359377   -2.8707486    268.59958  0.089176488  0.094397466            1 
  252000    1.1640296   -2.8927203    267.72745  0.088534211  0.094327933            1 
  253000     1.151838   -2.8744928    270.27135  0.089022184  0.094258839            2 
  254000    1.1455262   -2.8772467    271.90683  0.089208278  0.094195779            3 
  255000    1.1446103   -2.8866302    271.67316  0.088782077  0.094133882            2 
  256000    1.1764708   -2.8764908    271.53527  0.088390388  0.094066611            1 
  257000    1.1807829   -2.8776193    273.57015  0.088706274  0.094001125            1 
  258000    1.1417786   -2.8848715     273.6756   0.08839651  0.093935973            2 
  259000    1.1267345   -2.8465589    275.22061  0.088552319  0.093868588            2 
  260000    1.1617015   -2.8519505    276.69905  0.088685593  0.093804915            3 
  261000    1.1331419   -2.8855518     277.1864  0.088501404   0.09373716            3 
  262000    1.1547371   -2.8407577    277.89562  0.088389193  0.093668542            3 
  263000    1.1384499   -2.8407418    278.17115  0.088140416  0.093600683            2 
  264000    1.1461967   -2.8594256    279.04415  0.088082118  0.093525969            2 
  265000    1.1668809    -2.860578    278.64364  0.087623785  0.093449063            1 
  266000    1.1601194   -2.8567594    279.72253  0.087632372  0.093369965            2 
  267000     1.163552   -2.8467893    282.18613  0.088073073  0.093295519            1 
  268000    1.1283218   -2.8784867    281.41535  0.087504774  0.093217724            1 
  269000    1.1500438   -2.8893338    282.75372  0.087594088  0.093138773            2 
  270000    1.1308307   -2.8607637    284.50853  0.087811274  0.093064235            2 
  271000    1.1252517   -2.8825495    286.07027  0.087967489  0.092991386            3 
  272000    1.1267469   -2.8605124    287.29499    0.0880193  0.092920374            3 
  273000    1.1452545   -2.8548493    287.24194  0.087680689   0.09284921            1 
  274000    1.1413012   -2.8490507    287.88742  0.087557002  0.092775837            4 
  275000    1.1281512   -2.8439346    289.72121  0.087794305  0.092701763            2 
  276000    1.1796926   -2.8919479    289.04975  0.087273475   0.09262553            2 
  277000    1.1377578   -2.8854753     289.5743  0.087116216   0.09254621            2 
  278000    1.1676623   -2.8691428    291.51129  0.087383481  0.092467487            2 
  279000    1.1236463   -2.8816549    291.52743  0.087075099  0.092392167            2 
  280000    1.1554471   -2.8836209     293.4148  0.087325833  0.092318636            3 
  281000    1.1335473   -2.8839186    293.55086  0.087055416  0.092247209            2 
  282000    1.1234288   -2.8678266    296.27127  0.087550611  0.092175926            2 
  283000    1.1348678    -2.870445    294.79891  0.086807688  0.092103237            3 
  284000    1.1258388   -2.8689467     297.9044  0.087413261   0.09202943            1 
  285000    1.1842817   -2.8747127    299.34841  0.087528774  0.091962729            1 
  286000    1.1411581   -2.8739801    299.88023  0.087377688  0.091894731            2 
  287000      1.13175    -2.896528    300.26743  0.087185666  0.091827779            1 
  288000    1.1249149    -2.878116    302.50733  0.087531056  0.091761685            2 
  289000    1.1201677   -2.8621715    301.57802  0.086960213  0.091695417            3 
  290000    1.1342429   -2.8543042    303.44217  0.087196026  0.091624263            2 
  291000    1.1180643   -2.8875321    303.49752  0.086912234  0.091552127            1 
  292000    1.1343779   -2.8851661       304.08  0.086780822  0.091483074            2 
  293000     1.139948    -2.899202    306.09917  0.087058922   0.09141559            1 
  294000    1.1189199   -2.8712873    307.11577  0.087050956  0.091348993            2 
  295000    1.1099175   -2.8758678    306.66073  0.086627324  0.091282812            1 
  296000    1.1088988   -2.8603168    308.19424  0.086766396  0.091215544            1 
  297000    1.1360273   -2.8517444    309.70363  0.086897763  0.091151382            1 
  298000    1.1333683    -2.858087    310.57752  0.086850536   0.09108497            4 
  299000    1.1261901   -2.8967758    311.62258  0.086851332  0.091022077            2 
  300000    1.1418462   -2.9018452    311.42931  0.086508143  0.090961943            1 
  301000    1.1417448   -2.8831343    312.72992   0.08658082   0.09090104            4 
  302000    1.1588061   -2.8978449    313.52832  0.086514436  0.090839018            1 
  303000    1.1225436   -2.8863974    314.99835  0.086633209  0.090779549            1 
  304000    1.1219118   -2.8987333    317.42449  0.087013293  0.090720673            2 
  305000    1.1542378   -2.8902847    315.61975  0.086234903  0.090658728            1 
  306000    1.1318948    -2.877121    317.49298  0.086463228  0.090597235            1 
  307000    1.1291158   -2.8908571    317.63465  0.086220045  0.090537008            3 
  308000    1.1208045   -2.9163666    320.42686  0.086695579  0.090479413            2 
  309000      1.12474   -2.8952809    322.03782  0.086849466  0.090421776            3 
  310000    1.1259491   -2.8966387    320.92823   0.08627103  0.090362071            2 
  311000    1.1668359   -2.8744973    323.45962  0.086671925  0.090298835            2 
  312000    1.1257086    -2.880704    322.81592  0.086222201  0.090240526            1 
  313000    1.1068926   -2.8938011    326.24108  0.086858647  0.090183217            3 
  314000    1.1313116   -2.9129732    326.40303  0.086625007  0.090130779            1 
  315000    1.1217369   -2.8893907    328.34926  0.086864882  0.090079368            2 
  316000    1.1274885   -2.8899612    329.25964  0.086830073  0.090028849            4 
  317000    1.1284949   -2.8861672    329.38038  0.086587903  0.089977535            2 
  318000    1.1354061   -2.8811072    330.40623  0.086584443  0.089924472            2 
  319000    1.1194971   -2.8893231    332.35681  0.086822573  0.089874206            1 
  320000    1.1478875   -2.9258725    331.29501  0.086274742  0.089822581            2 
  321000    1.1278506   -2.9162945    331.83598  0.086146413  0.089765037            1 
  322000    1.1513316   -2.9135926    334.47692  0.086562349  0.089708313            1 
  323000     1.139997   -2.8805578     335.7275  0.086617002  0.089654984            2 
  324000    1.1098384   -2.8872574    335.96885  0.086411742  0.089602943            3 
  325000    1.1234707   -2.9131916    335.91854  0.086132959  0.089550974            2 
  326000    1.1295445   -2.8884579    338.47414  0.086522019  0.089501076            1 
  327000    1.1089029   -2.9051664    339.19973  0.086442338   0.08945194            1 
  328000    1.1224018   -2.9096737    337.89334  0.085846885  0.089401654            1 
  329000    1.1011616   -2.8892013    339.93998  0.086104353  0.089352424            4 
  330000    1.1145059   -2.9065033    341.03278  0.086119388  0.089303421            2 
  331000    1.1246393   -2.8984908    342.49848  0.086228218  0.089255615            3 
  332000    1.1177864   -2.8819259    341.12876   0.08562469  0.089207374            2 
  333000     1.143844   -2.9049084    342.65061    0.0857484  0.089158867            2 
  334000    1.1137478   -2.9090563    344.36523  0.085919468  0.089109557            2 
  335000    1.1130846   -2.8802545    345.85454  0.086033468  0.089061998            2 
  336000    1.1465518   -2.8858039    348.72517  0.086489378  0.089018936            2 
  337000    1.1188207   -2.9201439    347.94145  0.086038935  0.088972713            3 
  338000    1.1113755   -2.9105661    350.22696  0.086347869  0.088928198            2 
  339000     1.137772   -2.9450792    349.57503  0.085932899  0.088885213            1 
  340000    1.1278914   -2.9029397    351.73594  0.086209788  0.088840495            2 
  341000    1.1051151    -2.917185    352.19539  0.086069255  0.088796945            1 
  342000    1.1221764   -2.8985708    352.71313  0.085943745  0.088753662            3 
  343000    1.1199858   -2.8977266    353.17266  0.085804825  0.088712955            1 
  344000    1.1033926   -2.8980245    355.98472  0.086236607  0.088668678            1 
  345000    1.0987984   -2.8989169    355.68116  0.085913323  0.088625438            1 
  346000    1.1056405    -2.930894    357.97967  0.086218611  0.088584194            2 
  347000    1.1188525   -2.9183291    358.87895  0.086186106  0.088544598            1 
  348000    1.1277101   -2.9332309    358.58717  0.085868575  0.088509515            1 
  349000    1.1133046   -2.9243075    360.73605  0.086135638  0.088472807            5 
  350000    1.0897871   -2.9293138    362.55349  0.086322259   0.08843986            2 
  351000    1.1157602   -2.8890641    363.44531   0.08628806  0.088407403            1 
  352000    1.1169528   -2.9337623    363.06432  0.085952728  0.088372904            2 
  353000    1.1264747   -2.9054841    364.22974  0.085984359  0.088337819            2 
  354000    1.1206469   -2.9200111    366.19119  0.086203199  0.088304843            2 
  355000    1.1033309   -2.9130417    366.93441  0.086134839  0.088272154            2 
  356000    1.1190922   -2.8986903    369.24545  0.086433861  0.088240604            1 
  357000    1.1119857   -2.8914499    368.23874  0.085956755  0.088208287            3 
  358000     1.122413   -2.9378457    371.21356  0.086409116  0.088173717            1 
  359000    1.1346234   -2.9312042    369.61383  0.085797083  0.088138412            2 
  360000    1.1269565   -2.9308616    368.98179  0.085412452   0.08810316            2 
  361000    1.0821237   -2.9295561     372.7742  0.086051294   0.08806207            4 
  362000    1.0983387   -2.9321201    370.77951  0.085354399  0.088021655            2 
  363000    1.0995999   -2.9223079    370.40401  0.085033059  0.087980277            2 
  364000    1.0865048   -2.9379896    373.06884  0.085409532  0.087939894            2 
  365000    1.1105566   -2.9401787    373.77603  0.085336993  0.087899903            2 
  366000    1.0808724   -2.8961836    376.37358  0.085695259  0.087861828            2 
  367000    1.0949846   -2.9066561    375.21343  0.085198327  0.087821967            2 
  368000    1.1032358   -2.9488371    376.87604  0.085343306  0.087781206            2 
  369000    1.1250845   -2.8917209    378.97749  0.085586605  0.087743647            1 
  370000    1.1029838   -2.9277596     379.6108  0.085497927  0.087706303            1 
  371000    1.1216165   -2.9318643    380.89752  0.085556496  0.087667412            2 
  372000    1.1334992   -2.9242834    381.53135  0.085468492  0.087626852            3 
  373000    1.1152627   -2.8983434    382.20812  0.085390554   0.08758744            1 
  374000     1.097728   -2.9320661      380.703  0.084826872  0.087545591            3 
  375000    1.1109166   -2.9332934    381.46193  0.084769318  0.087501661            3 
  376000    1.0885743   -2.9579463    381.80367  0.084619607  0.087458339            4 
  377000    1.1153473   -2.9539152    382.05257  0.084450171  0.087413221            3 
  378000    1.1131452   -2.9331184    385.20229  0.084921139   0.08736778            2 
  379000    1.1128763   -2.9122703    386.11756   0.08489832  0.087324778            1 
  380000    1.0982977   -2.9436403    386.86053  0.084837835  0.087279672            1 
  381000    1.0844951   -2.9202531    387.36892  0.084726361  0.087237341            2 
  382000    1.1034301   -2.9042723    388.60166  0.084773486  0.087194296            2 
  383000    1.1338504   -2.9648617    388.32914   0.08449285  0.087149904            2 
  384000    1.1134923   -2.9222135    390.27235   0.08469452   0.08710676            3 
  385000    1.0900915   -2.9227467    390.02505  0.084421007  0.087061248            3 
  386000    1.0959116   -2.9189127    390.74732   0.08435823  0.087015142            5 
  387000    1.0925197   -2.9337709     393.0847  0.084643562  0.086967443            5 
  388000    1.1011809   -2.9685577    391.66723  0.084120969  0.086918563            2 
  389000    1.0686196   -2.9412573    390.92393  0.083745485  0.086870148            4 
  390000     1.100013   -2.9403862    395.10365  0.084423857  0.086822046            1 
  391000    1.0853676   -2.9605995    394.33253  0.084043591  0.086775834            1 
  392000    1.1209243   -2.9398649    394.52821  0.083870793  0.086727971            3 
  393000    1.1071255   -2.9248002    396.22855  0.084017927   0.08668106            2 
  394000    1.0944523   -2.9564218     396.2676  0.083812943  0.086634015            2 
  395000    1.1232543    -2.915435    398.23484  0.084015788  0.086585952            5 
  396000    1.0975723   -2.9593921    399.58875  0.084088542  0.086539491            2 
  397000    1.1052584    -2.909168    401.59645  0.084298164  0.086494615            2 
  398000    1.1011618   -2.9443187    403.20973  0.084424148  0.086449375            3 
  399000    1.0847181   -2.8999607    403.16378  0.084202961  0.086406575            2 
  400000    1.1103509   -2.9355677    404.43116  0.084256491   0.08636374            3 
  401000    1.1034767   -2.9330274    405.28392   0.08422359  0.086323333            3 
  402000    1.1084293   -2.9103837    404.52647  0.083857063  0.086281417            1 
  403000    1.1009858   -2.9329163    405.99814  0.083953296  0.086241357            1 
  404000    1.0832721   -2.9567174    406.23406  0.083794155  0.086199435            4 
  405000    1.0869064   -2.9270612    408.53163  0.084060007  0.086157817            3 
  406000    1.1019473    -2.889475    408.29115  0.083803603  0.086114789            2 
  407000    1.1016521   -2.9358797    409.77274  0.083901053  0.086071468            3 
  408000    1.1062999   -2.9553222    410.48234  0.083840346  0.086030314            4 
  409000    1.0642187   -2.9521745    411.69867  0.083883185  0.085987401            3 
  410000    1.0899343   -2.9567477    411.51487  0.083641233   0.08594772            2 
  411000    1.1014232   -2.9272472     413.8526  0.083911719  0.085907326            2 
  412000    1.1089013   -2.9127989    414.06589  0.083751191  0.085866967            2 
  413000    1.1001272   -2.9613787    415.61177  0.083860325  0.085829148            3 
  414000    1.0814106   -2.9453222    416.96668  0.083930491   0.08579106            2 
  415000    1.0714843   -2.9443635    418.11318  0.083958471  0.085754405            1 
  416000    1.0822838   -2.9354241    418.51178  0.083836495   0.08571559            3 
  417000    1.0969189   -2.9192854    420.57418  0.084047598  0.085678512            1 
  418000     1.055369   -2.9395069    421.49229  0.084029563  0.085644476            2 
  419000    1.0853478   -2.9311205    420.86874  0.083704999  0.085607666            3 
  420000    1.0946238   -2.9214081    421.18545  0.083568541  0.085569708            2 
  421000    1.0775459   -2.9358249    423.84968  0.083897404  0.085535004            2 
  422000     1.079416   -2.9170146    422.27753  0.083388137  0.085496179            1 
  423000    1.0960423   -2.9545222    423.41938  0.083415954  0.085455437            5 
  424000    1.0833913    -2.935641    424.95597   0.08352122  0.085413725            1 
  425000     1.092626   -2.9392217    424.44634  0.083224773  0.085373821            1 
  426000    1.1060987   -2.9263136    427.91321  0.083707591  0.085333151            1 
  427000    1.0758104   -2.9525453    428.39775  0.083606118  0.085293021            2 
  428000    1.0694111   -2.9551113    427.20278  0.083178111  0.085251478            2 
  429000     1.106279   -2.9467101    432.39072  0.083991981   0.08521102            2 
  430000    1.0952092    -2.944373     429.7731  0.083289361  0.085170631            1 
  431000    1.0935762   -2.9583273    428.98038  0.082942842  0.085130147            2 
  432000    1.0696688   -2.9508781    430.78068  0.083098125  0.085088515            2 
  433000    1.0925187   -2.9730021    430.29601  0.082812935  0.085046875            1 
  434000    1.0843549   -2.9609748    431.58971  0.082870528  0.085003764            2 
  435000    1.0760409   -2.9409668    431.22865  0.082610852  0.084960749            2 
  436000    1.0851001   -2.9495319    435.20343  0.083181083  0.084918302            2 
  437000    1.0600813   -2.9349429    435.34246   0.08301725  0.084875291            2 
  438000    1.0842214   -2.9296798     432.6633  0.082317979  0.084832287            3 
  439000     1.075631   -2.9687091    436.05906  0.082775068  0.084788832            2 
  440000    1.0699504   -2.9631221    434.58065  0.082306941  0.084744696            2 
  441000    1.0770879   -2.9496092    436.41617  0.082467151   0.08470222            2 
  442000    1.0631101   -2.9616618    437.86636   0.08255399  0.084658027            3 
  443000    1.0841336    -2.942361    439.04162  0.082588717  0.084616168            2 
  444000    1.0804099   -2.9685067    439.48658  0.082486221  0.084573559            2 
  445000     1.091547   -2.9656487    440.41304  0.082474351   0.08453116            2 
  446000    1.0755614   -2.9520907    441.29608  0.082454425  0.084487634            2 
  447000    1.0575748   -2.9674293    440.82149  0.082181485  0.084444621            2 
  448000    1.0688988    -2.973798    441.39577  0.082104868  0.084399244            2 
  449000    1.0635095    -2.979237    441.99216  0.082032694  0.084353025            1 
  450000    1.0790229   -2.9715209    442.84786  0.082008863   0.08430857            1 
  451000    1.0823407   -2.9515504    445.34347  0.082288151  0.084262807            1 
  452000    1.0841519    -2.934981     446.5741  0.082332983  0.084219791            2 
  453000    1.0769688    -2.957497     446.7961  0.082192071   0.08417793            3 
  454000    1.0718144   -2.9384634    447.94056  0.082221101  0.084134336            1 
  455000    1.0641679   -2.9288532    449.79279  0.082379631  0.084091194            1 
  456000    1.0688787   -2.9725296    449.68756  0.082179743  0.084048041            2 
  457000    1.0765357    -2.965392    449.53211  0.081971574  0.084004924            1 
  458000    1.0767965   -2.9455965     450.9249  0.082046016  0.083962071            3 
  459000    1.0466164   -2.9715038    452.54712  0.082161787  0.083919975            2 
  460000    1.0838809   -2.9674285    453.74977  0.082201045  0.083877885            1 
  461000    1.0586497   -2.9922834    453.30781  0.081942844  0.083837479            2 
  462000    1.0716551   -2.9583189    455.24837  0.082115506   0.08379563            1 
  463000    1.0897642   -2.9280767    454.22833  0.081754559  0.083753393            3 
  464000    1.0886318   -2.9694973    455.71849  0.081845992  0.083710006            3 
  465000    1.0848443   -2.9431316    457.78712  0.082040702  0.083666773            5 
  466000    1.0972958   -2.9552884    459.03015  0.082086937  0.083624462            3 
  467000    1.0831985   -2.9357714    458.18028  0.081759507  0.083582559            3 
  468000    1.0735495   -2.9323847    458.83764   0.08170186  0.083540518            2 
  469000    1.0552052   -2.9670912    457.63894  0.081314667  0.083498458            1 
  470000    1.0709417   -2.9801242    460.15575  0.081587898  0.083453985            3 
  471000    1.0590672     -2.99084    460.93201  0.081552019  0.083410788            1 
  472000    1.0621387    -2.969036    459.29884  0.081090897  0.083366642            1 
  473000    1.0658026   -2.9952943    462.42864  0.081470867  0.083324817            2 
  474000    1.0430379   -2.9644154    463.18326  0.081431656  0.083281131            2 
  475000    1.0668364   -2.9939359    463.31751  0.081283774  0.083237598            1 
  476000    1.0901942   -2.9559659     463.3644  0.081121219  0.083194164            3 
  477000    1.0496381   -2.9612789    466.52599  0.081503492  0.083150489            2 
  478000    1.0535651   -2.9729947    465.45737  0.081146682  0.083108333            2 
  479000    1.0390716   -2.9806351    466.40483  0.081142107  0.083064401            3 
  480000    1.0783225   -2.9678887    467.93593  0.081238877  0.083021927            3 
  481000    1.0746337     -2.97202      468.762  0.081213098  0.082979861            2 
  482000    1.0797172   -2.9961244    470.50417   0.08134581  0.082937309            4 
  483000    1.0880293   -2.9788331    470.22487  0.081129204  0.082897671            3 
  484000    1.0643617   -3.0043621    471.93559  0.081256128  0.082856987            3 
  485000    1.0451796   -2.9631102      472.592  0.081201375  0.082814967            3 
  486000    1.0578094   -2.9942587    471.78665  0.080896202  0.082773739            1 
  487000    1.0578169   -2.9419311    473.46973  0.081018092  0.082731337            1 
  488000    1.0546962   -2.9732104    474.45722  0.081020699  0.082689708            3 
  489000    1.0479107   -2.9768719    473.83164  0.080748404  0.082648198            2 
  490000    1.0813871   -2.9966657      474.701  0.080731463  0.082607211            2 
  491000    1.0746123   -2.9590087    476.06076  0.080797822  0.082563666            1 
  492000    1.0537139   -3.0057305    476.82897  0.080763714  0.082520764            4 
  493000    1.0657116   -2.9896543    479.02504  0.080971102  0.082478474            2 
  494000    1.0596912   -2.9849752    478.27285  0.080680305  0.082437058            3 
  495000    1.0572869   -2.9896797    479.93945  0.080797887  0.082395022            3 
  496000    1.0405838   -2.9742013    480.15432  0.080671088  0.082353285            3 
  497000    1.0613658   -2.9941794    479.70009   0.08043261  0.082311531            3 
  498000    1.0555419   -2.9981434    481.52773  0.080576929  0.082269991            1 
  499000    1.0741744    -2.963606    484.51108  0.080913673  0.082231067            3 
  500000    1.0635103   -3.0043849    484.11093  0.080685154  0.082190627            1 
  501000    1.0391264   -2.9685002    487.89462  0.081153464  0.082149796            2 
  502000    1.0627953   -2.9564994    485.96933  0.080672199  0.082111188            2 
  503000    1.0664042   -3.0092523    485.09613  0.080367153  0.082071943            1 
  504000    1.0343493   -2.9621773    489.35153  0.080911298  0.082033492            1 
  505000    1.0335803   -2.9681391    489.85246   0.08083374  0.081996327            2 
  506000    1.0647032   -2.9880665    488.58493  0.080465239  0.081958689            4 
  507000    1.0462977   -2.9891351    490.03078  0.080544179   0.08191902            2 
  508000    1.0439122   -2.9843501    490.44618   0.08045377  0.081879111            1 
  509000    1.0645165   -2.9819769     491.3671  0.080446481  0.081840385            3 
  510000    1.0622916   -2.9776484    491.96307  0.080386122  0.081803638            1 
  511000    1.0533261   -2.9985845    493.01433  0.080400249  0.081764535            2 
  512000    1.0499405   -2.9731818    494.51441  0.080487371  0.081724946            2 
  513000    1.0527605   -2.9872717    495.07462  0.080421478  0.081685171            1 
  514000    1.0715452   -2.9936083    494.52704  0.080176239   0.08164598            4 
  515000    1.0417184   -2.9795182    496.31671  0.080310148  0.081606289            4 
  516000    1.0344179   -3.0059477    496.94133  0.080255383  0.081567412            2 
  517000    1.0373956    -2.997478    497.38572   0.08017178  0.081527762            1 
  518000    1.0533118   -2.9921135    498.29634  0.080163503  0.081487694            2 
  519000    1.0277187   -2.9968812    498.45837  0.080035063  0.081448863            7 
  520000    1.0641563   -2.9842224    500.69535   0.08023964  0.081410969            2 
  521000    1.0280217   -2.9911605    502.13722  0.080316255  0.081374399            2 
  522000    1.0587171   -2.9794987    501.20381  0.080013379  0.081337151            4 
  523000    1.0400973   -3.0094568      500.424  0.079736137  0.081299415            5 
  524000    1.0488211   -2.9849492    502.76325  0.079955988  0.081261036            1 
  525000    1.0712244   -2.9989406    503.98177  0.079997105  0.081223196            5 
  526000    1.0621217   -2.9922598    504.24391  0.079886551  0.081184109            3 
  527000     1.049067   -2.9926984    506.66314  0.080117511  0.081145412            3 
  528000     1.050315   -2.9801122    507.49411  0.080096924  0.081109486            7 
  529000    1.0136919   -3.0175321    507.39155  0.079929355  0.081072145            3 
  530000    1.0277165   -2.9911169    508.78319  0.079997357  0.081035625            2 
  531000    1.0512238   -3.0092175    508.67626  0.079829921  0.080999638            2 
  532000    1.0223016   -2.9996088    511.93108  0.080189705   0.08096499            2 
  533000    1.0275575   -2.9799807    513.59383  0.080299223  0.080932058            1 
  534000    1.0369559   -2.9736393    512.56076  0.079987634  0.080900405            6 
  535000    1.0469786    -2.958779     515.6024  0.080311901  0.080868184            1 
  536000    1.0372096   -3.0085222    516.68709  0.080330704  0.080835115            1 
  537000    1.0183161   -3.0201369    514.00665  0.079765154  0.080802197            2 
  538000    1.0383983   -3.0059386     517.4032  0.080142999  0.080771071            1 
  539000    1.0303411    -2.992594    517.69853   0.08003997  0.080738693            1 
  540000    1.0580184   -2.9769827    519.01921  0.080095557  0.080706428            2 
  541000    1.0293689   -3.0109386    519.22403  0.079979055   0.08067554            3 
  542000    1.0469713    -3.023757    519.79574  0.079919395  0.080643989            3 
  543000    1.0128876   -2.9973208    520.52975   0.07988486  0.080611534            2 
  544000     1.047942   -3.0032115    522.81456  0.080088015  0.080580129            3 
  545000    1.0457122   -2.9939216    520.16282    0.0795356  0.080547472            3 
  546000    1.0184464    -3.006526    521.49098   0.07959264  0.080514801            3 
  547000    1.0229948   -2.9875692    524.14234  0.079851058  0.080483004            1 
  548000    1.0439424   -2.9948058    524.78384  0.079802895  0.080451651            3 
  549000     1.050433   -2.9893945    524.54826  0.079621776  0.080419458            4 
  550000    1.0332406   -2.9944287    525.52539  0.079625058  0.080387752            5 
  551000    1.0145708   -3.0176808    525.05777  0.079409826  0.080354966            1 
  552000    1.0495315   -2.9952167    527.34377  0.079611076   0.08032336            4 
  553000    1.0207086   -2.9843348    529.28757  0.079760032  0.080291423            2 
  554000    1.0157337   -3.0089015    528.66034  0.079521711  0.080259473            1 
  555000    1.0468455   -2.9907676    528.18556   0.07930714  0.080226698            3 
  556000    1.0297519   -3.0144817    531.81236  0.079708087  0.080193204            4 
  557000    1.0432135   -2.9814295    531.37059  0.079498891  0.080161761            2 
  558000    1.0412752    -3.014513    531.62304  0.079394122  0.080128589            2 
  559000    1.0408541   -3.0023115    533.20974  0.079488632  0.080095503            2 
  560000    1.0332224   -3.0022413     533.4787  0.079386712  0.080063395            4 
  561000    1.0334657   -2.9969186    534.51648  0.079399358  0.080031736            1 
  562000    1.0162665   -3.0346769    534.80247  0.079300485  0.079999755            3 
  563000    1.0305929   -3.0045904    538.40289  0.079692554  0.079968805            1 
  564000    1.0162712   -3.0098456    536.71075  0.079301234  0.079937428            1 
  565000    1.0215073   -2.9908742    537.90828  0.079337504  0.079908043            4 
  566000    1.0420795   -3.0187122     540.3342  0.079554505  0.079878883            2 
  567000    1.0415809   -3.0000221    541.48898  0.079583918  0.079850712            1 
  568000     1.017615   -3.0229842    542.22297  0.079551492  0.079822059            4 
  569000     1.022031   -2.9851155    544.33128  0.079720456  0.079794838            2 
  570000    1.0221885   -3.0206698    544.47748  0.079601971  0.079765613            2 
  571000    1.0145785   -3.0073255    547.35608  0.079882673  0.079736771            3 
  572000    1.0243945   -3.0199048    544.22243  0.079286485  0.079708915            2 
  573000    1.0293048   -3.0081265    546.64855  0.079500952  0.079680171            2 
  574000    1.0308297   -3.0374172    544.92308  0.079111946  0.079652061            1 
  575000    1.0227349   -2.9960506    548.57824  0.079504092  0.079625085            2 
  576000   0.99213341   -3.0314162    548.37739  0.079337007  0.079597343            2 
  577000    1.0400668   -3.0265287    548.31007  0.079189785  0.079571186            4 
  578000    1.0295047   -3.0455681    550.87275  0.079422254  0.079544001            1 
  579000    1.0258642   -3.0328145    551.54138  0.079381316   0.07951927            2 
  580000    1.0292467    -3.014001    553.03445  0.079458973  0.079493681            1 
  581000    1.0302281   -3.0415821    554.99182  0.079602958  0.079470048            2 
  582000    1.0145544   -3.0189426    555.14639  0.079488314  0.079446294            3 
  583000    1.0132566    -3.018021    556.27838  0.079513776  0.079423721            3 
  584000    1.0229619   -3.0221055    558.26171  0.079660633  0.079399987            4 
  585000    1.0222155   -3.0433104    556.15345  0.079224138  0.079374879            1 
  586000    1.0288468   -3.0575913    556.31955  0.079112564  0.079349187            1 
  587000    1.0170499   -3.0263568    556.58999  0.079016182   0.07932345            1 
  588000     1.040162   -3.0163009    560.33668  0.079412794  0.079298963            3 
  589000     1.007656   -3.0500997    557.92626  0.078936936  0.079273774            2 
  590000    1.0264221   -3.0496413    562.87774  0.079502506  0.079247379            2 
  591000     1.045675   -3.0295512    563.28137  0.079424897  0.079222507            5 
  592000    1.0291543   -2.9955969    563.22425  0.079282693  0.079199704            1 
  593000    1.0032383   -3.0444735    565.80587  0.079511786  0.079177086            2 
  594000    1.0371504   -3.0481346     563.7368  0.079087655  0.079152708            5 
  595000    1.0210951   -3.0290766    565.19041  0.079158321   0.07912898            3 
  596000    1.0375411   -3.0306644    567.57562  0.079359007  0.079105386            1 
  597000    1.0247684   -3.0251677    570.28029  0.079603614  0.079082644            1 
  598000      1.01997   -3.0087036    567.70346  0.079111407  0.079059956            1 
  599000    1.0022022   -3.0263184    571.85058  0.079556286  0.079038016            3 
  600000     1.013999   -3.0406689    569.94448  0.079158956  0.079016605            2 
  601000   0.99602183    -3.024733     571.9411  0.079304091  0.078994649            3 
  602000    1.0277856     -3.03945    571.52162  0.079114288  0.078972098            4 
  603000    1.0229546   -3.0540197     573.1405  0.079206814  0.078948888            6 
  604000    1.0009359   -2.9856771    574.52366   0.07926651  0.078925883            4 
  605000    1.0050653   -3.0621211    573.74595  0.079028367    0.0789025            2 
  606000    1.0264074    -3.001262    575.24504  0.079104104   0.07887962            2 
  607000   0.99863871   -3.0295995    575.19864  0.078967413  0.078856732            3 
  608000     1.021482   -3.0374735    576.11353  0.078962928  0.078833262            2 
  609000    1.0068586   -3.0593983    574.81704  0.078655862  0.078810286            2 
  610000    1.0111244   -3.0379989    576.62593  0.078774035     0.078785            2 
  611000    1.0088269    -3.052178    578.69511  0.078927321  0.078760929            2 
  612000    1.0126094   -3.0521581    577.97627  0.078700473  0.078737172            3 
  613000   0.99923319     -3.05816    579.40242  0.078765963  0.078714044            2 
  614000    1.0127524   -3.0220293    581.07766  0.078865046  0.078690115            5 
  615000   0.99336841   -3.0733172    579.25742  0.078490165  0.078666048            3 
  616000     1.028005    -3.044833     582.9719  0.078865246  0.078641106            2 
  617000   0.99602896   -3.0351755    581.84491  0.078585212  0.078617551            3 
  618000    1.0289171    -3.024272    582.60876  0.078561052  0.078594006            5 
  619000    1.0070522   -3.0305198    585.64765  0.078843248  0.078570614            4 
  620000    1.0077211   -3.0604433    585.84682  0.078742853  0.078547473            1 
  621000    1.0151154   -3.0591597    584.05177  0.078375171  0.078523539            3 
  622000    1.0068679   -3.0356963    587.60174  0.078724777  0.078499904            2 
  623000   0.99188229    -3.037948    586.57208  0.078460685  0.078476853            3 
  624000    1.0206767   -3.0389467    587.53029  0.078462913  0.078453396            3 
  625000   0.99733681   -3.0452313    591.23282  0.078831043  0.078430392            2 
  626000     1.005295   -3.0568663    589.78376  0.078512216  0.078407247            3 
  627000    1.0016209    -3.048701    589.41464  0.078337937  0.078383534            3 
  628000   0.98246054   -3.0708718    591.35672  0.078470902  0.078359979            5 
  629000    1.0062549   -3.0780737    589.98402  0.078164284  0.078336396            2 
  630000   0.99215798   -3.0496691    594.55146  0.078644373   0.07831327            3 
  631000   0.99395799   -3.0641126    591.75056  0.078149836  0.078289142            3 
  632000    1.0049888   -3.0390507    596.09837  0.078599469  0.078265127            3 
  633000    1.0042418   -3.0715435    595.72085  0.078425599  0.078241786            4 
  634000    1.0270851   -3.0534055    596.02053  0.078341289  0.078218006            2 
  635000    0.9984485   -3.0581051    594.96575  0.078079495  0.078194889            2 
  636000   0.98895452    -3.040935     595.9021  0.078079416  0.078170421            2 
  637000   0.99727408   -3.0513795    599.32581  0.078404737  0.078145427            4 
  638000   0.99276443   -3.0461217    600.39198  0.078421105  0.078121548            3 
  639000    1.0005962   -3.0633354    601.00741  0.078378639  0.078098629            6 
  640000   0.99578934   -3.0602481     601.4691  0.078316289  0.078076116            3 
  641000    1.0004816   -3.0737811    601.02719  0.078136661  0.078052089            1 
  642000    1.0063778   -3.0502373    603.90092   0.07838797  0.078028989            1 
  643000    1.0143923    -3.079375    599.98297   0.07775829  0.078005675            4 
  644000    1.0024191   -3.0347476    603.40102  0.078079842  0.077981547            2 
  645000    0.9851802   -3.0394199    606.77558  0.078394777  0.077957989            1 
  646000   0.99701241   -3.0423085    606.34707  0.078218146  0.077934401            3 
  647000   0.99445359   -3.0494128    608.85027  0.078419664   0.07791257            1 
  648000   0.99950177   -3.0706177    605.10122  0.077816514   0.07788961            4 
  649000    0.9969735   -3.0636446    606.74152  0.077907232  0.077867245            3 
  650000    0.9897398   -3.0760019    609.63919   0.07815887  0.077845491            3 
  651000    1.0146358   -3.0504217    608.42765  0.077883724  0.077823613            3 
  652000   0.99478198   -3.0466157    612.37616  0.078268937  0.077801737            4 
  653000    0.9998675   -3.0573247    609.99764  0.077845539  0.077779293            2 
  654000   0.98168283   -3.0943032    611.60095  0.077930804  0.077757211            2 
  655000   0.99743176   -3.0638373    611.55055  0.077805413   0.07773471            4 
  656000   0.98100128   -3.0683158    614.71667  0.078089008  0.077712243            3 
  657000    1.0229738   -3.0627296     614.5561  0.077949784  0.077689059            2 
  658000    1.0066871   -3.0808939    614.18329  0.077784105  0.077665874            2 
  659000     1.002075   -3.0740331    612.81786  0.077493407  0.077642587            2 
  660000   0.98720473   -3.0620267     613.9388  0.077517526  0.077618879            3 
  661000    1.0252068   -3.0637378    615.64945  0.077615916  0.077596331            2 
  662000   0.99661658   -3.0910542    617.90123  0.077782128  0.077572842            3 
  663000   0.98877287   -3.0604016    620.15112  0.077947601   0.07754957            2 
  664000     1.000706   -3.0833002    615.74065  0.077276688  0.077525334            3 
  665000   0.96800537    -3.059498    621.66596  0.077903002  0.077501454            2 
  666000   0.97773023    -3.084878    619.47827  0.077512295  0.077477015            3 
  667000   0.99592857   -3.0382082    621.20951  0.077612382  0.077452727            2 
  668000   0.99238672   -3.0889193    621.17779  0.077492239  0.077428801            4 
  669000   0.99606857   -3.0847672    619.09695  0.077117208  0.077403853            2 
  670000   0.99046299   -3.0660855    624.52359  0.077677063  0.077379028            1 
  671000   0.97629069   -3.0897799    621.52779  0.077189244  0.077353666            4 
  672000   0.98821645   -3.0904021    623.45202  0.077312998  0.077328248            4 
  673000   0.95189621   -3.0980976     624.7132  0.077354284  0.077303029            3 
  674000   0.97510763   -3.0971557    622.58131  0.076975929  0.077277705            3 
  675000   0.98112903   -3.0439533    628.60873  0.077606016  0.077252171            1 
  676000    0.9556203   -3.0522812    626.36064  0.077214082  0.077227381            4 
  677000   0.98334577   -3.0482945    628.50351    0.0773638   0.07720259            3 
  678000   0.96868506   -3.0687857    626.07858  0.076951645  0.077176923            2 
  679000   0.99193085   -3.0692628    629.41901  0.077248283  0.077151461            3 
  680000   0.99096386   -3.0745378    627.44392  0.076892637  0.077125235            5 
  681000   0.98249854   -3.0792528    629.38812  0.077017635  0.077098356            2 
  682000   0.98369764   -3.0305963    631.05173  0.077107983  0.077072377            4 
  683000   0.98197245   -3.0887184    628.22915  0.076650702  0.077045416            4 
  684000   0.99415349   -3.0597251    628.32072  0.076549796  0.077017547            4 
  685000    0.9742522   -3.0752482    632.47204  0.076943071  0.076989965            2 
  686000   0.97151263   -3.0674293       631.84   0.07675413  0.076962799            2 
  687000    0.9754861   -3.0930856    631.17185  0.076561359  0.076933849            2 
  688000   0.96232649   -3.0780211    629.04099   0.07619198  0.076905626            2 
  689000   0.98044026    -3.064554    633.27592  0.076593605  0.076877024            3 
  690000    0.9907896   -3.0934893    633.46978  0.076506012   0.07684692            3 
  691000   0.98589144   -3.0876641    630.74271  0.076066414  0.076816745            2 
  692000   0.98063087   -3.1007167     630.9307  0.075979131  0.076786182            5 
  693000   0.98541364   -3.0784589    633.89126    0.0762255  0.076755752            3 
  694000   0.98201456   -3.0952223    635.85566  0.076351545  0.076725006            1 
  695000   0.96905189   -3.0776066    635.01914  0.076141383  0.076693963            2 
  696000   0.97276637   -3.0812588    632.08482  0.075680653  0.076663131            3 
  697000   0.97886946   -3.0944979    634.98985  0.075919399  0.076632274            1 
  698000   0.96490087   -3.0666265    637.94166  0.076163044  0.076602225            2 
  699000   0.95905149   -3.0702014    640.02079  0.076301954   0.07657315            1 
  700000   0.97838898   -3.0536334    639.52362  0.076133764  0.076543939            2 
  701000   0.97740244   -3.0455874    639.54151  0.076027283  0.076514268            3 
  702000    0.9539049   -3.1294329    641.20636  0.076116614  0.076483184            4 
  703000   0.99050537   -3.0820545    637.59687  0.075580473  0.076452341            2 
  704000   0.97022871   -3.1052037    639.03178  0.075642966  0.076419717            3 
  705000    0.9727815   -3.0685053    639.99777  0.075649855  0.076387167            3 
  706000   0.96680224   -3.1378746    638.68922  0.075388246   0.07635427            2 
  707000   0.97802775   -3.0991327     640.5414  0.075499929  0.076321261            1 
  708000   0.97586911   -3.1029717    639.99313  0.075328758  0.076288355            1 
  709000   0.96872752   -3.0799565    640.61207  0.075295259  0.076255599            3 
  710000   0.98402411   -3.0911214    641.74244  0.075321883  0.076222819            3 
  711000   0.94628741   -3.1087632    640.51291  0.075071836  0.076188697            4 
  712000   0.98172367   -3.0774069    643.86596  0.075358844  0.076155633            2 
  713000   0.98278553   -3.0781836    643.32219  0.075189596  0.076123424            4 
  714000   0.97597646    -3.116715    644.65672  0.075240047  0.076089935            3 
  715000    0.9756759   -3.1127543     646.2211  0.075317145   0.07605747            3 
  716000   0.96790631   -3.0832017    647.03496  0.075306676  0.076025122            3 
  717000   0.97878618   -3.1066667    647.09192  0.075208266  0.075994169            3 
  718000   0.99370344   -3.1162179    648.77964  0.075299401  0.075961784            2 
  719000   0.97138493   -3.0950975    650.15432  0.075354001  0.075930026            6 
  720000   0.97521758   -3.1014198    649.51606   0.07517547   0.07589883            4 
  721000   0.97188218   -3.1132509    650.57198  0.075193248  0.075866397            3 
  722000   0.95722581   -3.1083299    650.25138  0.075052098  0.075834569            3 
  723000   0.97759406   -3.1227921    649.95243  0.074913835  0.075802297            2 
  724000   0.96326062    -3.094209    650.28466  0.074848602  0.075770148            2 
  725000    0.9728243   -3.1143405    651.70001  0.074908047  0.075737141            3 
  726000   0.98233331   -3.1075288    653.60347  0.075023355  0.075704472            3 
  727000   0.94869996   -3.1004362    652.72592  0.074819569  0.075672397            5 
  728000   0.94469497   -3.1026616    653.62051  0.074819198  0.075639741            4 
  729000   0.95756378   -3.1028273    654.76806  0.074847743  0.075607408            2 
  730000   0.96017224   -3.1042327    653.95232  0.074652091  0.075574091            2 
  731000   0.95786466   -3.1007294    656.79976  0.074874574  0.075542566            2 
  732000   0.93956062    -3.099142    657.34021  0.074833812  0.075510006            4 
  733000   0.97580031   -3.1139762    660.74437  0.075118732   0.07547778            2 
  734000   0.98590164   -3.1073088    659.39703  0.074863423  0.075446696            5 
  735000   0.96914107   -3.0955324    659.05358  0.074722629  0.075414609            2 
  736000    0.9503126   -3.1126876    657.03758  0.074392842   0.07538252            2 
  737000   0.95149379   -3.1235233    660.32851   0.07466401  0.075349619            4 
  738000    0.9740617    -3.092293    662.77699  0.074839317    0.0753175            2 
  739000   0.95096286   -3.1284092    659.53669  0.074372654  0.075285008            5 
  740000    0.9585335    -3.095948    662.24027  0.074576607  0.075252615            2 
  741000   0.96153608   -3.1004136     662.6843    0.0745259  0.075221422            4 
  742000     0.976472   -3.1144739    663.19401  0.074482706  0.075189882            4 
  743000   0.96295627    -3.084238     664.9398  0.074578264   0.07515833            2 
  744000   0.94437627   -3.1297369    666.70153  0.074675351  0.075127243            3 
  745000   0.95677614   -3.1165169    665.01266  0.074386204  0.075095831            5 
  746000   0.93540479   -3.1007996     669.2717  0.074762255  0.075063554            3 
  747000   0.95255784   -3.0911708    666.73412  0.074379085  0.075031975            4 
  748000   0.97647598   -3.1198329    665.57733  0.074150773  0.075000133            4 
  749000   0.94844774   -3.1258919    669.39383  0.074476395  0.074969044            2 
  750000   0.97336819   -3.1114912    669.92753  0.074436392   0.07493789            3 
  751000   0.94170962   -3.1123462    671.75711  0.074540292  0.074907882            3 
  752000   0.95199529   -3.1063056    672.99855   0.07457874  0.074877196            2 
  753000   0.97655948   -3.1168783    673.01054  0.074481025  0.074847406            3 
  754000   0.96036954   -3.1212174    672.54742  0.074331059  0.074817657            3 
  755000   0.96462026   -3.1122772    675.61759  0.074571478  0.074787525            2 
  756000   0.95203699   -3.1152264    674.49615  0.074349223  0.074757499            2 
  757000   0.95209714   -3.1176437    673.91369  0.074186888    0.0747277            3 
  758000    0.9586409   -3.1064577    674.13766  0.074113639  0.074697476            3 
  759000   0.93863028   -3.1379675    674.98397  0.074108912  0.074667542            2 
  760000   0.94761575   -3.1208216    675.66786  0.074086388  0.074637037            2 
  761000   0.96305041   -3.1430045    679.26237  0.074382651  0.074606841            2 
  762000   0.95878595   -3.1178975    676.50454  0.073983436  0.074576551            2 
  763000   0.93437977   -3.1311508    677.69245  0.074016214  0.074545613            3 
  764000   0.94399444   -3.1102163    678.26417  0.073981694  0.074513527            7 
  765000   0.94834923   -3.1114227    677.91649  0.073847113   0.07448148            4 
  766000   0.96550463   -3.1276731    680.17913  0.073996859  0.074450183            5 
  767000   0.94644705   -3.1266291    678.40036  0.073707123  0.074418458            2 
  768000   0.94893029   -3.1227927    681.75878  0.073975562  0.074387634            2 
  769000   0.94386625   -3.1461221    678.66481  0.073544084  0.074356782            3 
  770000   0.93806329   -3.1310116    680.33332  0.073629147  0.074325873            3 
  771000   0.94738658   -3.1231137    683.06895  0.073829329  0.074295419            3 
  772000   0.95185452   -3.1352165     682.9845  0.073724579  0.074265978            5 
  773000   0.93629829    -3.119618     686.3262  0.073989457  0.074235344            3 
  774000   0.95770537   -3.1144021    685.61077  0.073816836  0.074205881            3 
  775000   0.94723607   -3.1416798    684.33395  0.073584295  0.074176281            2 
  776000   0.96640042   -3.1368362    686.30594   0.07370124  0.074145994            5 
  777000    0.9539178   -3.1050039    689.55245  0.073954575  0.074116518           10 
  778000    0.9487323   -3.1291075    686.54374  0.073537247  0.074086473            2 
  779000   0.93709557   -3.1077735    691.99063  0.074025528  0.074056421            2 
  780000    0.9586301   -3.1247576    688.46125  0.073553553  0.074026987            3 
  781000   0.95504359   -3.1225882    689.84582  0.073607108  0.073996693            4 
  782000   0.94949218   -3.1479476     689.3161  0.073456532   0.07396651            4 
  783000   0.94526461   -3.1338988    691.84719  0.073632098   0.07393701            2 
  784000   0.94145126   -3.0992555    691.97987  0.073552282  0.073907401            2 
  785000    0.9363364   -3.1280406    691.71205  0.073430154  0.073877405            1 
  786000   0.93209427   -3.1180697    693.57095  0.073533816   0.07384727            4 
  787000   0.94961046   -3.1155138    696.18561   0.07371724  0.073817655            1 
  788000   0.93121202   -3.1169923     695.6554  0.073567618  0.073788968            2 
  789000   0.95714078   -3.1369127    693.28979  0.073224523  0.073760211            3 
  790000   0.93605181   -3.1198405    697.39823  0.073565214  0.073730347            5 
  791000    0.9488872   -3.1354427    697.33064  0.073465091  0.073701045            2 
  792000   0.93318716   -3.1325918    696.17645  0.073250889  0.073671837            3 
  793000   0.92798775   -3.1275135    700.60842  0.073624256  0.073643324            1 
  794000   0.92897939   -3.1390731    699.79054  0.073445691   0.07361505            2 
  795000   0.93060202   -3.1459822    696.59573   0.07301842  0.073586087            6 
  796000   0.94031012   -3.1177745    700.14561  0.073298326  0.073556915            2 
  797000   0.95503584   -3.1714935    699.80109  0.073170336  0.073526756            3 
  798000   0.93073477   -3.1535059    702.72956  0.073384457  0.073497227            3 
  799000   0.95469592   -3.1341805    702.64777  0.073284081  0.073467555            2 
  800000   0.92873439   -3.1392779    700.70675  0.072990287  0.073437572            3 
  801000   0.93213672   -3.1401009    699.81907  0.072806811  0.073407751            3 
  802000   0.92465319   -3.1513747    702.67248  0.073012519  0.073377662            3 
  803000   0.93705417   -3.1302665     702.1893   0.07287145  0.073347457            3 
  804000   0.91408051   -3.1261016    705.69584  0.073144262  0.073317791            7 
  805000   0.93600368   -3.1482788    703.83024  0.072860273  0.073288319            3 
  806000   0.92299114   -3.1100757    707.77347  0.073177571  0.073258787            3 
  807000   0.93064582    -3.140701    705.40284  0.072842095  0.073229251            2 
  808000   0.93093774   -3.1198746    708.19953   0.07304038  0.073200121            1 
  809000   0.93992008   -3.1718086    707.94494  0.072923871    0.0731714            4 
  810000   0.92767275   -3.1380056    707.82074  0.072821064  0.073141958            3 
  811000   0.91969972    -3.123871    710.56443  0.073013197  0.073112879            3 
  812000   0.93431736   -3.1732783    706.10245  0.072465358  0.073083438            2 
  813000   0.92104259    -3.130481    710.47811  0.072824734  0.073053667            2 
  814000   0.93477174   -3.1493469    710.65338  0.072753212  0.073024147            2 
  815000   0.94152149   -3.1209633    709.80257   0.07257695   0.07299463            4 
  816000   0.92980344   -3.1370728    712.21551  0.072734427  0.072965288            3 
  817000   0.91404299   -3.1223526    712.61944  0.072686601  0.072935859            2 
  818000   0.94415226      -3.1539    713.50577  0.072688037  0.072906075            4 
  819000   0.91730096   -3.1482821    711.50525  0.072395732  0.072876814           10 
  820000   0.93255009   -3.1534696    712.20434   0.07237849  0.072846929            2 
  821000   0.93635551   -3.1508047     712.5984  0.072330329  0.072817746            2 
  822000    0.9288069   -3.1443886    713.31386  0.072314868  0.072787809            4 
  823000   0.92430644   -3.1560926    713.84472  0.072280753  0.072757625            3 
  824000   0.90140235   -3.1491784    717.24392  0.072536805  0.072727137            7 
  825000   0.92185969   -3.1388879    716.52108  0.072375866  0.072696905            2 
  826000   0.95841505   -3.1324746     719.4736  0.072586118  0.072666407            4 
  827000   0.92204388   -3.1588667    717.14106  0.072263307  0.072637059            2 
  828000   0.94254641   -3.1662786    717.59776  0.072221997  0.072606951            2 
  829000   0.90118886    -3.186206    718.67208  0.072242871  0.072575967            4 
  830000   0.92928928    -3.172677    715.66362  0.071853777  0.072545507            3 
  831000   0.91577055   -3.1477479     718.1898  0.072020637  0.072515263            1 
  832000   0.95299365   -3.1874176    720.15791  0.072131201  0.072484161            2 
  833000   0.90888078   -3.1345238    721.92667  0.072221556  0.072453636            3 
  834000   0.90246062   -3.1356824    719.65021  0.071907495  0.072423983            3 
  835000   0.89818093   -3.1677409    719.15743  0.071772199  0.072393553            2 
  836000   0.92923935   -3.1597142    720.70347  0.071840457   0.07236265            4 
  837000   0.91980957   -3.1587228    721.01007  0.071785152  0.072332178            2 
  838000   0.93016009    -3.186698    722.64991  0.071862561  0.072301206            2 
  839000   0.92589636   -3.1460317    722.63563  0.071775489  0.072270316            2 
  840000    0.9062076   -3.1806655    725.04165  0.071928735  0.072239525            3 
  841000    0.9357211   -3.1427084    728.58728  0.072194538  0.072209823            3 
  842000   0.91351672   -3.1587601     725.6801  0.071821071  0.072179864            3 
  843000   0.91140049    -3.173873    725.48843  0.071716927  0.072149575            3 
  844000   0.92506373   -3.1836927    728.53134  0.071932399  0.072120064            3 
  845000   0.90819211   -3.1519401    730.06938  0.071998952  0.072090196            2 
  846000   0.91464854   -3.1686553    727.79001  0.071689324  0.072060572            4 
  847000   0.91883883   -3.1705696    728.85659  0.071709622  0.072031338            7 
  848000   0.90727429   -3.1704782    729.92799  0.071730344  0.072001685            2 
  849000   0.93494062    -3.150831    734.46985  0.072091661  0.071972318            1 
  850000    0.9118633   -3.1426065    731.51869  0.071717519  0.071943132            3 
  851000    0.9017105   -3.1636727     731.2737  0.071609254  0.071913945            4 
  852000   0.92622767   -3.1453268    731.00949  0.071499364  0.071884906            1 
  853000   0.91988765   -3.1747213    732.16008  0.071527948  0.071855335            3 
  854000   0.92837735   -3.1682817    733.96224  0.071620047  0.071825497            5 
  855000   0.91467283   -3.1659197    733.08792  0.071451064  0.071795678            4 
  856000   0.90206142   -3.1783092    730.47669  0.071113385   0.07176542            2 
  857000   0.89890737   -3.1555667    733.33373  0.071308219  0.071734804            3 
  858000   0.91069605   -3.1805894     730.7989  0.070978914  0.071703857            2 
  859000    0.9255025   -3.1895727    736.47379  0.071446817  0.071673359            7 
  860000   0.93019065   -3.1778775     734.6268  0.071184768  0.071642553            2 
  861000   0.89828962   -3.1760673    736.51277  0.071284627  0.071612627            2 
  862000   0.92791764   -3.1462425    738.09991  0.071355366  0.071582312            3 
  863000   0.91788272   -3.1653549     736.8625  0.071153196  0.071552511            3 
  864000   0.91384809   -3.1877026    738.99168  0.071276203  0.071523215            3 
  865000   0.88997429   -3.1718385    739.71513    0.0712635  0.071493908            3 
  866000   0.91536797   -3.1818311    740.07295  0.071215642   0.07146445            2 
  867000   0.92318775   -3.1687707    740.53166  0.071177591  0.071435258            2 
  868000   0.89738156   -3.1961517    741.50228  0.071188774   0.07140611            4 
  869000   0.90469387    -3.198241    738.74465   0.07084241  0.071376772            7 
  870000   0.88810376   -3.1702074    743.81405  0.071246556  0.071347776            4 
  871000   0.90649407   -3.1825454    745.20508  0.071297845  0.071319523            4 
  872000   0.91143407   -3.1878539    742.23952  0.070932676  0.071290485            2 
  873000   0.89287768   -3.1764408    746.58044  0.071265792  0.071261688            4 
  874000   0.89335955   -3.1789236    743.51184  0.070891671  0.071232206            4 
  875000   0.90718926   -3.2029692    746.73485  0.071117605  0.071202987            2 
  876000   0.91302752     -3.18451    744.55675  0.070829219  0.071174111            5 
  877000    0.9421914   -3.1977194    744.80675  0.070772211  0.071144965           10 
  878000   0.88717136   -3.1864697    750.05655  0.071189878  0.071116493            4 
  879000   0.90828756   -3.1961756    748.94804  0.071003796  0.071087482            1 
  880000    0.9080552   -3.1840275    747.78598  0.070813066  0.071059045            4 
  881000   0.90713717   -3.1650289    751.70677  0.071103554  0.071030496            2 
  882000   0.91342754   -3.1835718    750.47579  0.070906632  0.071002222            4 
  883000   0.90655561   -3.1767501    755.13502  0.071266045  0.070974693            5 
  884000   0.88519893   -3.1967962     752.5585  0.070942544  0.070947618            3 
  885000   0.91202227   -3.1922506    753.55587  0.070956297  0.070920325            2 
  886000   0.89829931   -3.1966013    757.03969  0.071203883  0.070893276            2 
  887000   0.88045112   -3.1735237    753.81385  0.070820542  0.070865952            2 
  888000   0.88303242    -3.188093    754.75319  0.070828941  0.070838804            2 
  889000   0.89782889   -3.2228166    755.25937  0.070796717  0.070811625            3 
  890000   0.92056872   -3.1985054    759.67926  0.071131017  0.070784366            2 
  891000   0.89781342   -3.1804569    760.20407  0.071100268  0.070756885            3 
  892000   0.91663878   -3.1995263    755.03514  0.070537663  0.070729012            4 
  893000   0.88469413    -3.195976    755.60754  0.070512088  0.070701408            3 
  894000   0.92360428   -3.1659592    758.22669  0.070677357   0.07067326            6 
  895000   0.90303833   -3.1823854     760.1899  0.070781182  0.070646218            1 
  896000   0.89865593   -3.1990048    757.44223  0.070446636  0.070618576            3 
  897000   0.87643764   -3.1982253    759.78235  0.070585502  0.070590703            4 
  898000   0.89268395   -3.2038605    759.20873  0.070453669  0.070562412            6 
  899000   0.89083914   -3.1777239    762.55181  0.070685188  0.070534858            5 
  900000   0.90213024    -3.216801    761.39177  0.070499238   0.07050751            3 
  901000   0.89479375   -3.1898507    763.01631  0.070571246  0.070479711            5 
  902000   0.88508455   -3.2082468    762.88547  0.070480919  0.070451842            2 
  903000   0.88501177   -3.2046394    762.78975  0.070394034  0.070424031            2 
  904000   0.89249484   -3.2056873    761.20457  0.070170038   0.07039575            3 
  905000   0.90536324   -3.1871979     765.0983   0.07045104  0.070367961            3 
  906000   0.89803084   -3.1903007     764.3415   0.07030367  0.070340661            7 
  907000   0.89580518   -3.1843625    764.40096  0.070231621  0.070312434            4 
  908000    0.8846695   -3.1785589    764.62639  0.070174962  0.070283651            3 
  909000   0.87537576   -3.2166259    763.49858  0.069994369  0.070254792            4 
  910000   0.88023681   -3.2042602    765.02608  0.070057333  0.070225796            3 
  911000   0.89595614   -3.2086346    766.78735  0.070141543  0.070197416            2 
  912000   0.89100814   -3.2111173      766.471  0.070035727  0.070168855            2 
  913000    0.8833409   -3.2045575    766.16658  0.069931232  0.070140902            3 
  914000   0.88908151   -3.1799864    769.09304  0.070121539  0.070112523            2 
  915000   0.87611812    -3.204734    767.48399  0.069898359  0.070083768            2 
  916000   0.92198232   -3.2107476     766.5446   0.06973659  0.070055115            3 
  917000   0.88400984   -3.2061936    768.20392  0.069811334  0.070026679            7 
  918000   0.90125286   -3.1950432    769.44125  0.069847608  0.069998053            3 
  919000   0.87227271   -3.1874975     771.5755  0.069965134  0.069969491            5 
  920000   0.90005933   -3.1763349    770.61496   0.06980208  0.069941151            6 
  921000   0.88354741   -3.2136034    773.41453  0.069979599  0.069912339            3 
  922000   0.88474204   -3.2011834    770.86945  0.069673667  0.069883681            3 
  923000   0.86480233   -3.1954072    773.61242   0.06984583  0.069855158            4 
  924000   0.88208276    -3.202752    771.65732  0.069593914  0.069826498            3 
  925000   0.90135967   -3.1971736    775.35017  0.069851367   0.06979773            5 
  926000   0.89164093   -3.1959215    776.17938  0.069850556  0.069769572            3 
  927000   0.88230099   -3.2118376    774.17577  0.069595089  0.069740912            2 
  928000   0.89460068   -3.1798987    777.15679  0.069787786  0.069712665            2 
  929000   0.89663587   -3.2050306    775.49523   0.06956362  0.069684491            3 
  930000   0.90521638   -3.1968818     776.5774  0.069585789  0.069656282            3 
  931000   0.87732936   -3.1872506    777.48737  0.069592497  0.069627771            3 
  932000   0.89223057   -3.2173159    773.77385  0.069185788  0.069598819            5 
  933000   0.88535606   -3.2183767    778.62578  0.069544996  0.069569238            2 
  934000   0.88552165   -3.2154661     776.1672  0.069251178  0.069540371            3 
  935000   0.88276343   -3.2099496    777.99978  0.069340444  0.069511091            3 
  936000   0.89061511   -3.2359106     776.7497  0.069155066  0.069482402            6 
  937000   0.86364036   -3.1735086    780.47018  0.069412147  0.069453283            4 
  938000      0.86368   -3.1993213    781.16585  0.069399951  0.069424715            4 
  939000   0.88560932   -3.2082223    781.88155  0.069389559  0.069396318            2 
  940000   0.87785689   -3.2037353    783.19991  0.069432616  0.069367859            2 
  941000   0.87637777   -3.2316911    777.11205    0.0688197  0.069338882            2 
  942000   0.88765307   -3.2041533    783.15359  0.069281103  0.069310001            2 
  943000   0.85897144   -3.2196465    784.30614  0.069309486  0.069281714            2 
  944000   0.87047466   -3.2324508    781.83116  0.069017581  0.069252997            2 
  945000   0.87162481   -3.2087167    783.79175  0.069117438  0.069224349            4 
  946000   0.87470573   -3.2141677    784.13517  0.069074627  0.069195631            2 
  947000   0.88593611   -3.2218669    783.48893   0.06894482  0.069166185            4 
  948000    0.8813376   -3.2018358     786.6372   0.06914884  0.069136768            3 
  949000    0.8831352   -3.2362876    783.94466  0.068839538  0.069107133            3 
  950000   0.86696994   -3.2333934     783.7861  0.068753167   0.06907686            2 
  951000   0.88145971   -3.2062542    785.76507  0.068854282   0.06904722            5 
  952000   0.87982914   -3.2357316    786.81834  0.068874155  0.069017425            2 
  953000    0.8697981   -3.2130157    784.53222  0.068601978  0.068987945            9 
  954000   0.87352774   -3.2211601    786.20456  0.068676149   0.06895791            2 
  955000   0.88441405    -3.232379    786.52317  0.068632039  0.068927812            3 
  956000   0.88616381   -3.2253294      784.578  0.068390691  0.068897129            3 
  957000    0.8758874   -3.2011971    788.17876  0.068632772  0.068866998            7 
  958000   0.87163964   -3.2392564    791.95294  0.068889435  0.068836919            3 
  959000   0.86882204   -3.2241863    787.89735  0.068465185  0.068806926            6 
  960000   0.86435205   -3.2441244    787.21205  0.068334379  0.068776546            3 
  961000   0.84566304   -3.2175713    790.66169  0.068562408   0.06874623            3 
  962000   0.87682904   -3.2374275    789.94297  0.068428878  0.068716252            6 
  963000   0.86953054    -3.232765    790.57799  0.068412772   0.06868613            8 
  964000   0.87138342   -3.2213248     790.6964   0.06835204  0.068656383            3 
  965000   0.87395817   -3.2223611    793.17312  0.068495088  0.068626931            3 
  966000   0.88383852   -3.2544983    791.98333  0.068321543   0.06859751            4 
  967000   0.86864061   -3.2462476    791.94507  0.068247593  0.068567355            5 
  968000   0.86061605   -3.2100109    795.94326  0.068521286  0.068537375            2 
  969000   0.85398254   -3.2159547    789.38967  0.067886968   0.06850706            2 
  970000   0.85617495   -3.2370834    791.63182  0.068009607   0.06847629            3 
  971000   0.85702813   -3.2099511    794.28064  0.068166893  0.068445636            2 
  972000   0.86792102   -3.2408671    794.49937  0.068115515  0.068415703            4 
  973000   0.87142385   -3.2273998    795.00118  0.068088488  0.068385783            2 
  974000   0.86385658   -3.2216757    793.62726  0.067901032  0.068356017            5 
  975000   0.86785383   -3.2387755    798.11839  0.068215247  0.068326324            5 
  976000   0.85431989   -3.2345896    796.20999  0.067982411  0.068296863            2 
  977000   0.87274031   -3.2255402    798.82493  0.068135869  0.068267701            5 
  978000   0.85133517   -3.2241622    799.43537  0.068118215  0.068237944            3 
  979000   0.89376914   -3.2276138    796.74824  0.067819905  0.068208056            2 
  980000   0.86215863   -3.2419136    801.53521  0.068157756  0.068178366            2 
  981000    0.8822194   -3.2421999    801.48953  0.068084398  0.068149421            2 
  982000   0.86293852     -3.24213    802.53602  0.068103872  0.068119938            3 
  983000   0.85107998   -3.2068471     802.7621  0.068053755  0.068090643            3 
  984000   0.86154691   -3.2475803    799.80439  0.067734111  0.068061592            4 
  985000   0.86178581   -3.2620757    803.11289  0.067945253  0.068032567            3 
  986000   0.87168599   -3.2253037    806.13537  0.068131793  0.068003697            2 
  987000   0.85925217   -3.2608434    805.37156  0.067998274  0.067974791            5 
  988000   0.85074938    -3.258144    804.01504  0.067815034  0.067945774            4 
  989000   0.86846793   -3.2422766    803.85871  0.067733292   0.06791792            3 
  990000   0.84358985   -3.2610926    804.04302  0.067680389  0.067889105            5 
  991000    0.8550035   -3.2603699    804.88574  0.067682959  0.067860399            2 
  992000    0.8498722    -3.245686    806.14503  0.067720516  0.067831652            4 
  993000   0.85020059   -3.2548675    805.79278  0.067622757  0.067802746            5 
  994000   0.86637383   -3.2641752    804.70833   0.06746381  0.067774199            3 
  995000   0.86336773   -3.2394133     809.2614  0.067777336  0.067745105            5 
  996000   0.86199441   -3.2344718    808.34745  0.067632818  0.067716243            5 
  997000   0.87257532   -3.2452532    808.62912  0.067588526  0.067687547            3 
  998000   0.87279544   -3.2505607    811.42413  0.067754185  0.067658695            3 
  999000   0.87687593   -3.2658966     806.9562  0.067313664  0.067629667            5 
 1000000   0.84973459   -3.2393162    809.67152  0.067472626  0.067600383            6 
 1001000   0.87741999    -3.247951    809.85438  0.067420445  0.067571295            6 
 1002000    0.8480052   -3.2241332    813.31699  0.067641133  0.067542288            2 
 1003000   0.84650222   -3.2564819    810.68518  0.067355033  0.067513203            3 
 1004000   0.85577483   -3.2431833     810.8393  0.067300739  0.067484219            3 
 1005000   0.85706672   -3.2639908    809.04086  0.067084648  0.067454994            6 
 1006000   0.87241757   -3.2580938    809.03338  0.067017344  0.067425434            3 
 1007000   0.85044516   -3.2819056    812.31609  0.067222451  0.067395505            3 
 1008000   0.85211306    -3.257017    813.05753  0.067217057  0.067366062            3 
 1009000   0.86222915   -3.2593234    815.45892  0.067348771  0.067336907            4 
 1010000   0.85564183   -3.2794666    813.33147  0.067106557  0.067307008            3 
 1011000   0.84037462   -3.2578494    811.16645  0.066861725  0.067277177            3 
 1012000   0.86530068   -3.2779262    815.58476  0.067159482   0.06724767            4 
 1013000   0.83809464   -3.2599274       814.51  0.067004771  0.067217703            4 
 1014000   0.85061005   -3.2524103    813.21722  0.066832448  0.067187641            2 
 1015000   0.85274803   -3.2473587    812.86403  0.066737605  0.067157212            6 
 1016000   0.87470138   -3.2629168    811.77524  0.066582615  0.067127126            5 
 1017000   0.87343878   -3.2641036    812.39218  0.066567697  0.067097042            2 
 1018000   0.85878886   -3.2601468     814.3917  0.066665987  0.067066988            3 
 1019000   0.83614422   -3.2693677    814.29115  0.066592341  0.067036163            3 
 1020000   0.83952379   -3.2859488    813.36706  0.066451558  0.067004751            4 
 1021000   0.84181486   -3.2636266    813.69735   0.06641343  0.066973811            3 
 1022000    0.8533005   -3.2780975    810.51933  0.066089313  0.066942099            3 
 1023000   0.83763762   -3.2622959    810.88144  0.066054207  0.066911094            3 
 1024000   0.85211809   -3.2498201    816.45078  0.066442934  0.066880196            3 
 1025000   0.84635885   -3.2861334     814.7108   0.06623665  0.066849149            3 
 1026000   0.83545254   -3.2716586    815.67997   0.06625081  0.066817699            3 
 1027000   0.85267703   -3.2629919    816.30645  0.066237135  0.066786754            6 
 1028000   0.83929183   -3.2788351    817.72145  0.066287407  0.066755344            4 
 1029000   0.84395658   -3.2529522    818.15567  0.066258153  0.066724152            4 
 1030000   0.84772341   -3.2569228    817.49161  0.066140098  0.066692925            4 
 1031000   0.85961681   -3.2742257    818.53463  0.066160252  0.066661225            4 
 1032000    0.8412227   -3.2506391    819.45826  0.066170725  0.066629856            2 
 1033000   0.83838194   -3.2540914    818.04164  0.065992388  0.066598597            2 
 1034000   0.82978711   -3.2464461    819.45305  0.066042315  0.066567294            7 
 1035000   0.82598814   -3.2678318     819.9447  0.066018092  0.066535773            2 
 1036000   0.84053606   -3.2769876    823.73409  0.066259177   0.06650416            4 
 1037000   0.83042377   -3.2653253    819.34285  0.065842402  0.066472316            3 
 1038000   0.85739877   -3.2708494    821.63128  0.065962691  0.066440853            3 
 1039000   0.83354876      -3.2845    822.19633  0.065944524  0.066409034            3 
 1040000   0.84017198   -3.2790385    821.66406  0.065838466  0.066377689            3 
 1041000   0.85392031   -3.2621979    821.05997  0.065726862    0.0663461            6 
 1042000   0.84195233   -3.2578701    824.93023  0.065973307  0.066314495            4 
 1043000   0.82566448   -3.2908245    819.92537  0.065510177  0.066282892            5 
 1044000   0.82720077   -3.2966212    819.56541  0.065418695  0.066250787            6 
 1045000   0.83112734   -3.2755427    820.91232  0.065463503  0.066218811            2 
 1046000   0.82258452   -3.2704849    820.48222  0.065366652  0.066186761            4 
 1047000   0.82765036    -3.267789     825.1627  0.065676751  0.066154519            3 
 1048000   0.82550742   -3.2811992    822.75482  0.065422616  0.066122378            4 
 1049000    0.8372455   -3.2962262    822.36702  0.065329442  0.066090524            3 
 1050000   0.82167308   -3.2713316    827.07782  0.065641096  0.066058523            2 
 1051000    0.8441633   -3.2824043    827.38957   0.06560336  0.066026608            8 
 1052000   0.82650221   -3.2947705    824.05249  0.065276654   0.06599448            5 
 1053000   0.84000315   -3.2914383    827.09513  0.065455455  0.065962969            3 
 1054000    0.8322413   -3.2745797    827.61477  0.065434438  0.065931234            4 
 1055000   0.81168902   -3.2884478    828.42252  0.065436218   0.06589945            3 
 1056000   0.83787401   -3.2837479    828.65777  0.065392817  0.065867633            7 
 1057000   0.82230673    -3.314438    828.49637  0.065318225  0.065835879            4 
 1058000   0.85264988   -3.2693061    827.40749  0.065170723   0.06580393            6 
 1059000   0.82126608   -3.2820463    828.01447  0.065156946  0.065772268            7 
 1060000   0.83209108   -3.2824174    829.65749  0.065224646   0.06574054            3 
 1061000   0.83563693   -3.2801663    827.67231   0.06500725  0.065708562           12 
 1062000   0.82705728   -3.2889714    831.34882  0.065234527  0.065676527            5 
 1063000   0.83223123   -3.2993333    828.31737   0.06493551  0.065644831            2 
 1064000   0.81703944   -3.2949159    828.41869  0.064882416  0.065612645            3 
 1065000    0.8464969   -3.3071356    828.41766  0.064821413  0.065580765            2 
 1066000   0.82964009     -3.27777    834.93793   0.06527032  0.065548531            2 
 1067000   0.81281444   -3.2829654    832.43194  0.065013428  0.065516754            5 
 1068000   0.82274884   -3.2934224    834.19129  0.065089832  0.065484883            4 
 1069000   0.83518024   -3.2856944    835.79437  0.065153911  0.065453136            3 
 1070000   0.84246959   -3.2837007    831.55909  0.064763169  0.065421931            3 
 1071000   0.82100008   -3.2960928    834.82211  0.064956591  0.065390797            8 
 1072000   0.83488413   -3.2742533    835.92536   0.06498176  0.065359286            7 
 1073000   0.80878169   -3.2907835    835.04656  0.064852948  0.065328235            7 
 1074000   0.83639114   -3.2910971    835.64281  0.064838828  0.065297079            3 
 1075000   0.81320732   -3.3120166     833.4823  0.064611031  0.065265685            4 
 1076000   0.83366782   -3.2855301    835.31566  0.064692973  0.065234069            7 
 1077000   0.82279588   -3.3136394    832.69282  0.064429961  0.065202266            6 
 1078000   0.82030055    -3.297292    837.07438  0.064708904    0.0651704            6 
 1079000   0.84206762   -3.2896355    836.39428  0.064596407  0.065138881            3 
 1080000   0.82490216   -3.2972766    838.27759  0.064681912  0.065108304            2 
 1081000   0.82105192    -3.305692    837.01611  0.064524831  0.065077485            9 
 1082000   0.82678279   -3.2985244    836.98235  0.064462596   0.06504623            3 
 1083000   0.82745446   -3.3025078    837.43519  0.064437918  0.065014813            5 
 1084000   0.82770694   -3.3109316    838.71317   0.06447672  0.064983511            5 
 1085000   0.81727252   -3.3226178    838.18381  0.064376637  0.064952293            3 
 1086000   0.82130533   -3.2995949    837.75087  0.064284136  0.064920761            6 
 1087000   0.83278882   -3.2911497    842.65977  0.064601332  0.064889529            3 
 1088000   0.82008722   -3.2948537    838.74728  0.064242285  0.064858734            4 
 1089000   0.81509089   -3.3087729    843.10269  0.064516582  0.064827567            5 
 1090000   0.82288253   -3.2936693    843.22606  0.064466824  0.064796187            1 
 1091000   0.81897171   -3.3174426    840.29694  0.064184001  0.064765264            3 
 1092000   0.82333972   -3.3059068    844.27541  0.064428831  0.064734601            3 
 1093000    0.8151729    -3.333708    841.95074  0.064192646  0.064703866            2 
 1094000   0.83809237    -3.289848    846.34706   0.06446885  0.064673339            3 
 1095000   0.79270164   -3.3106163    849.00719  0.064612419  0.064643433            7 
 1096000   0.80960646   -3.3333929    845.62008  0.064295931  0.064612845            2 
 1097000   0.80592978   -3.3480148    844.35907  0.064141528  0.064582583            6 
 1098000   0.80939684   -3.3014632    848.61385   0.06440603  0.064552373            8 
 1099000   0.81537145   -3.3119947    848.10107  0.064308543  0.064522208            3 
 1100000    0.8073303   -3.2858185    846.11564  0.064099669  0.064491837            7 
 1101000   0.80785863   -3.3029439    850.37058  0.064363501  0.064461236            4 
 1102000   0.82111685   -3.3227385    849.36943  0.064229388  0.064430421            4 
 1103000   0.80776338   -3.3071559    850.92719  0.064288848  0.064400416            5 
 1104000   0.80972038   -3.2931091    850.34265  0.064186492  0.064370468            2 
 1105000   0.83478372   -3.3077809    850.33634  0.064127929  0.064340322            9 
 1106000   0.81633986    -3.284847    848.87525  0.063959859  0.064310177            3 
 1107000   0.79604627   -3.2995511     850.5528  0.064028365  0.064279621            2 
 1108000   0.80314367   -3.3057289    849.83186  0.063916355  0.064249259            2 
 1109000   0.80349246   -3.3171037    849.45803  0.063830631  0.064219254            5 
 1110000   0.81899309   -3.3089011    850.25271  0.063832786  0.064188433            5 
 1111000   0.81686129   -3.3009492     854.2942  0.064078473  0.064158241            3 
 1112000   0.82771142   -3.3214211    848.89852  0.063616496  0.064127844            4 
 1113000   0.81434999   -3.2997716    851.36155  0.063743752  0.064097597            3 
 1114000   0.80635284   -3.3049316    854.29736  0.063906146  0.064067544            3 
 1115000   0.80937393   -3.3175199    851.81001   0.06366293  0.064037638            4 
 1116000   0.80903034   -3.3204262    855.07362  0.063849583  0.064007664            3 
 1117000   0.79387154   -3.3325827    855.56678  0.063829214  0.063977926            4 
 1118000   0.82143684   -3.3127314    854.42651  0.063687128  0.063947817            3 
 1119000     0.809368   -3.3041409    854.86616  0.063662955  0.063917821            3 
 1120000   0.81253824   -3.3268902    853.82104  0.063528351  0.063887841            5 
 1121000   0.79528006   -3.3026018    856.24372  0.063651778  0.063857525            2 
 1122000    0.8041946   -3.3011793    859.95981   0.06387105  0.063828154            3 
 1123000   0.83273602   -3.3450782    857.72316  0.063648201  0.063798553            3 
 1124000   0.81222241    -3.335987    854.17554  0.063328554  0.063768789            4 
 1125000   0.81472901   -3.3125511    860.55938  0.063745139  0.063738884            4 
 1126000   0.82818334    -3.331731    859.22531  0.063589795  0.063708917            5 
 1127000    0.8142343   -3.3291354    860.82024  0.063651304  0.063679418            6 
 1128000   0.81282533   -3.3458113    863.79626  0.063814735  0.063650363            2 
 1129000    0.8031641   -3.3393719    862.22713  0.063642392  0.063621076            2 
 1130000   0.79115234   -3.3397485    863.98218    0.0637155  0.063591828            4 
 1131000   0.80546942   -3.2985241    862.79751  0.063571877  0.063563235            4 
 1132000   0.79128329   -3.3398149    862.93897  0.063526131  0.063534352            7 
 1133000   0.79868334   -3.3285999    859.33003  0.063204621  0.063504964            2 
 1134000    0.8236133   -3.3280034    862.10062  0.063352485  0.063475682            6 
 1135000   0.79157198   -3.3457594    863.32363  0.063386463  0.063446261            7 
 1136000   0.78741542   -3.3228719    864.79672  0.063438727  0.063416871            5 
 1137000   0.82255344   -3.3644212    864.83997  0.063386102  0.063387529            7 
 1138000   0.78624711   -3.3481843    862.01552  0.063123574  0.063357933            9 
 1139000   0.81051805     -3.34451     862.4607  0.063100724    0.0633287            5 
 1140000   0.78387271   -3.3352084    864.15863  0.063169491  0.063299314            2 
 1141000   0.79793054   -3.3400267    865.21241   0.06319109  0.063269832            3 
 1142000   0.79874187   -3.3282349    866.32729  0.063217111  0.063240188            5 
 1143000   0.79655173   -3.3152873    864.48022  0.063027138  0.063210627            6 
 1144000   0.79319572   -3.3346263     866.1304   0.06309225  0.063180992           10 
 1145000   0.78130955   -3.3308392    868.12093  0.063182018  0.063151215            2 
 1146000   0.79272761   -3.3278406      866.498  0.063008871  0.063121809            3 
 1147000   0.79466472   -3.3239341    866.28942  0.062938783  0.063092092            3 
 1148000   0.78987212   -3.3226114    867.16712  0.062947672  0.063062266            3 
 1149000   0.78869817   -3.3269849    865.67047  0.062784339  0.063032348            6 
 1150000   0.79433314   -3.3605565    866.86191   0.06281608  0.063002534            5 
 1151000   0.80464825   -3.3450849    866.84911  0.062760579  0.062972316            7 
 1152000   0.79037522   -3.3310911    867.70978  0.062768358  0.062942006            5 
 1153000   0.78929842   -3.3293853    869.23042  0.062823823  0.062912189            4 
 1154000   0.80309236   -3.3376286    868.12963  0.062689892   0.06288211            5 
 1155000   0.79321774   -3.3597301     867.0637  0.062558708  0.062852126            4 
 1156000   0.79387199   -3.3258676     869.5751  0.062685633  0.062822133            6 
 1157000   0.78992024   -3.3516635    869.05773   0.06259419  0.062792035            4 
 1158000   0.80164758   -3.3411727    867.57548  0.062433469  0.062761481            4 
 1159000   0.78816529   -3.3426908    869.24277   0.06249948   0.06273061            5 
 1160000   0.76872014   -3.3515058    867.95795  0.062353301  0.062700305            3 
 1161000   0.80241439    -3.336951    869.99174  0.062445574  0.062669738            2 
 1162000   0.78315731   -3.3521721    869.01495  0.062321783  0.062639564            5 
 1163000   0.80684002    -3.337226      872.166  0.062493981  0.062609316            4 
 1164000   0.80996584   -3.3388846    872.14921   0.06243909   0.06257918            2 
 1165000   0.77973999   -3.3483566    871.52704   0.06234099  0.062549379            4 
 1166000   0.77680463   -3.3674825    870.20764  0.062193228  0.062519836            3 
 1167000   0.76131448   -3.3570021    870.09499   0.06213189  0.062489841            3 
 1168000   0.78727337   -3.3357124    875.56281  0.062468808  0.062460156            5 
 1169000   0.79734564   -3.3685981    874.16772  0.062315919  0.062430874            5 
 1170000   0.78704308   -3.3283297    874.45107   0.06228284   0.06240111            4 
 1171000   0.78380673   -3.3687883    875.16581  0.062280516  0.062371431            3 
 1172000   0.78693306   -3.3357598    875.69634  0.062265098  0.062341607            3 
 1173000   0.78771978   -3.3540242     876.5478  0.062272506  0.062312005            4 
 1174000   0.77908459   -3.3339818    877.64459  0.062297316  0.062282697            4 
 1175000   0.78552031   -3.3726548    879.18684  0.062353677  0.062252851            6 
 1176000   0.79199955   -3.3466936    874.53755  0.061971199   0.06222292            2 
 1177000    0.7913796   -3.3394016    876.78022   0.06207733  0.062192743            1 
 1178000   0.78531634   -3.3415283    877.44265  0.062071495   0.06216296            3 
 1179000   0.79541682    -3.352928    878.40698  0.062087007     0.062133            2 
 1180000   0.78149873    -3.370219    876.52664  0.061901599  0.062103083            9 
 1181000   0.78103404   -3.3818467    877.50353  0.061918115  0.062073145            3 
 1182000   0.77069082   -3.3777767    875.32731  0.061712303  0.062043273            4 
 1183000   0.77259556   -3.3628401    878.72787  0.061899681   0.06201319            4 
 1184000   0.78367618   -3.3561356    876.29617  0.061676251  0.061983143            5 
 1185000   0.79385078   -3.3513606    880.56151  0.061924157  0.061953419            2 
 1186000   0.77554863   -3.3384462    881.83775  0.061961618  0.061923994            6 
 1187000   0.79092112   -3.3686747    879.85244  0.061770039   0.06189435            8 
 1188000   0.77332436   -3.3504416    878.61959  0.061631565  0.061864581            2 
 1189000   0.77827053   -3.3564883    882.11623  0.061824799   0.06183515            3 
 1190000    0.7884877   -3.3372942    884.07743  0.061910184  0.061805517            4 
 1191000   0.77473076   -3.3606076    882.93161   0.06177803  0.061775917           11 
 1192000   0.78491243   -3.3695322    883.84728  0.061790218  0.061746449            3 
 1193000   0.77676257   -3.3798477    882.11098   0.06161714  0.061717192            5 
 1194000   0.78440858   -3.3772467    884.28627  0.061717355  0.061687914            4 
 1195000   0.78631836   -3.3576083    882.20757  0.061520751  0.061658674           10 
 1196000    0.7866439   -3.3928032    881.33761  0.061408696  0.061629136            3 
 1197000    0.7771313    -3.375116    885.48234  0.061645944   0.06159996            7 
 1198000    0.7819152   -3.3567123    885.60225  0.061602828   0.06157091            4 
 1199000    0.7710155   -3.3874143    886.00393  0.061579366  0.061541961            7 
 1200000   0.76709853   -3.3952845     886.8746  0.061588514  0.061512821            3 
 1201000   0.78428542   -3.3480314    889.25102  0.061702125  0.061483815           10 
 1202000   0.77958067   -3.3719971    885.56069  0.061394945   0.06145519            7 
 1203000   0.77970241   -3.3610129    888.24599  0.061529925  0.061426204            6 
 1204000   0.77768794   -3.4064452    887.63079  0.061436239  0.061397347            7 
 1205000   0.77508547   -3.3639927    889.15464  0.061490639  0.061368513            4 
 1206000   0.76032848   -3.3702133    892.12982  0.061645234  0.061340074           11 
 1207000   0.75845426   -3.3736285    890.35659  0.061471733  0.061311757            4 
 1208000   0.77537322   -3.3868161    892.47902  0.061567262  0.061283354            6 
 1209000   0.79395129   -3.3722257     890.8148  0.061401626  0.061254804            3 
 1210000   0.77854663   -3.3861177    886.61669  0.061061755  0.061226336            6 
 1211000   0.76848309   -3.3886671    888.20236  0.061120449  0.061197686            3 
 1212000    0.7725502   -3.3635457    892.09099  0.061337389  0.061169076            4 
 1213000   0.77531446   -3.3749869    892.14567  0.061290579  0.061140919            4 
 1214000   0.75292289   -3.3599649    892.15442  0.061240693  0.061112404            3 
 1215000   0.76829622   -3.3837988    893.51312  0.061283479  0.061084363            5 
 1216000   0.77401662   -3.4133354    893.44904   0.06122869   0.06105589            2 
 1217000    0.7754168   -3.3774061    896.19357  0.061366308  0.061027323            5 
 1218000   0.78943613   -3.3849704    891.73191  0.061010667  0.060998873            3 
 1219000   0.77132459   -3.3683021     894.5823  0.061155476  0.060970151            7 
 1220000   0.77560832   -3.3918352    894.62532  0.061108287  0.060941723            4 
 1221000   0.76862533   -3.3615042    896.33131  0.061174673  0.060913615            4 
 1222000   0.77622413   -3.3865721    893.37817  0.060923225  0.060885024            2 
 1223000   0.77451785   -3.3712273    897.12084   0.06112843  0.060856819            5 
 1224000   0.75708761   -3.3911613    893.56593   0.06083646  0.060828454            5 
 1225000   0.76132761   -3.3912598    897.97256  0.061086569  0.060800409            3 
 1226000   0.75555598   -3.3693255    896.58862  0.060942674  0.060772056            8 
 1227000   0.76025824    -3.392999    898.54907  0.061026153  0.060743875            4 
 1228000   0.76301106   -3.3843226    897.35996  0.060895763  0.060715772            4 
 1229000   0.76998914   -3.4023788    895.83956  0.060743122  0.060687731            5 
 1230000   0.77387832   -3.4105247    900.48765  0.061008648  0.060659929            6 
 1231000   0.76175756   -3.3761504      899.465  0.060889859  0.060632053            9 
 1232000   0.75682498   -3.3921239    900.93983  0.060940194  0.060604534            5 
 1233000   0.77960077   -3.3756633    899.86381  0.060818046  0.060576811            3 
 1234000   0.75705627    -3.374754    903.48541  0.061013332  0.060549267            5 
 1235000   0.75444252   -3.3879522    901.61391  0.060837646  0.060521624            5 
 1236000   0.76051044   -3.4140144    900.29331  0.060699387   0.06049386            5 
 1237000   0.77446396   -3.4005914    899.15021   0.06057331   0.06046585            6 
 1238000   0.74960289   -3.3829768    901.42874  0.060677756   0.06043781            6 
 1239000   0.76098661   -3.3867824    902.29854  0.060687284   0.06040961            3 
 1240000   0.74842835   -3.3636661    904.15569  0.060763151  0.060381995            5 
 1241000   0.75814687   -3.4046133    900.05705  0.060438964  0.060354153            5 
 1242000   0.76058064   -3.4050513    903.12609  0.060596222  0.060326377           11 
 1243000   0.74938048   -3.3468711    904.89544  0.060666093  0.060298373            4 
 1244000   0.74559407   -3.3817198    905.31705  0.060645569  0.060270943            3 
 1245000   0.75087678   -3.4039719    903.82814  0.060497198  0.060243157            3 
 1246000    0.7698558   -3.3844256    901.76095   0.06031039  0.060215522            4 
 1247000   0.76551694   -3.3881886    904.61139  0.060452512  0.060187951            7 
 1248000   0.74267475   -3.4108455    904.35415  0.060386896  0.060160245            5 
 1249000   0.74550132    -3.377739    905.88362  0.060440594  0.060132246            7 
 1250000   0.76076386   -3.3761869    906.38369  0.060425579  0.060104828            3 
 1251000   0.73773483   -3.4299062    907.41555  0.060446013  0.060077277            5 
 1252000   0.74968931   -3.3888473    908.82356  0.060491451  0.060049631            4 
 1253000   0.74803311   -3.3929986    908.15855  0.060398946  0.060022282            3 
 1254000   0.75273954   -3.4037202    906.94382  0.060270057  0.059994739            3 
 1255000   0.74112496   -3.4045616    908.55341  0.060328912   0.05996715            4 
 1256000    0.7357269   -3.3932424    909.84847  0.060366804  0.059939198            3 
 1257000     0.762312   -3.4096943    908.02801  0.060198091  0.059911524           16 
 1258000   0.74343973   -3.4171527    910.25826  0.060297977  0.059884172            4 
 1259000    0.7593991   -3.4157445    909.90638  0.060226792  0.059856764            6 
 1260000   0.75084159   -3.3954776    910.22589  0.060200125  0.059829271            6 
 1261000   0.74836168   -3.4355721    910.78323  0.060189217  0.059801876            2 
 1262000   0.74675926   -3.4212986    907.99179  0.059957197  0.059774267            3 
 1263000   0.76111022   -3.4132864    908.31272    0.0599309  0.059746403            4 
 1264000   0.75361012   -3.4437994    907.86872  0.059854214  0.059718758            4 
 1265000   0.75454843    -3.390475    911.56889  0.060050652  0.059691006            5 
 1266000   0.74195466   -3.4274703    912.08372  0.060037106  0.059663196            3 
 1267000   0.75424188   -3.3912625      911.152   0.05992844  0.059635639            7 
 1268000   0.73727374   -3.4110534    909.29427  0.059759087  0.059608395            8 
 1269000   0.75002883   -3.4122947    914.57024  0.060058461  0.059581018            3 
 1270000   0.75929915   -3.4104305    915.02911   0.06004128  0.059553731            3 
 1271000   0.75500804   -3.3986714    912.32064   0.05981646  0.059526644            2 
 1272000   0.74319471   -3.4297166    913.42296  0.059841651  0.059499225           10 
 1273000   0.74562656   -3.4065216    915.35516  0.059921128  0.059471883            4 
 1274000   0.73989565   -3.4169755    916.16827  0.059927281  0.059444567            4 
 1275000   0.75317723   -3.4306377    915.00831  0.059804465  0.059417157            5 
 1276000   0.75431523    -3.453446    912.40099  0.059587317  0.059389347            6 
 1277000   0.73683021   -3.3916226    916.42604  0.059803317  0.059361682           13 
 1278000    0.7286305    -3.443604     912.5512   0.05950386   0.05933398            8 
 1279000   0.71143024   -3.4291148    913.43621  0.059514999  0.059306238            9 
 1280000   0.74301238   -3.4282816    918.44963  0.059794898   0.05927855            4 
 1281000   0.73848198   -3.4225941    916.55624  0.059625048  0.059250992            4 
 1282000   0.72601733   -3.3997993     917.5473   0.05964296  0.059223533            6 
 1283000   0.74391479    -3.454391    915.09715  0.059437331  0.059195689            6 
 1284000    0.7409833   -3.4458148    914.79327  0.059371318  0.059167962            3 
 1285000   0.74680193   -3.4198144    917.52159  0.059502049  0.059140423            4 
 1286000   0.74898946   -3.4567145    916.14211  0.059366389  0.059112987            6 
 1287000   0.73437847   -3.4267394    918.22608  0.059455198  0.059085407            3 
 1288000   0.73307936   -3.4236939    920.72526  0.059570733  0.059057631            6 
 1289000   0.73058881   -3.4187789    920.20716  0.059491024  0.059030081            6 
 1290000   0.72885706   -3.4446443    920.10804  0.059438504  0.059002383            4 
 1291000   0.75103587    -3.416884    920.03689   0.05938787  0.058974834            5 
 1292000   0.75108594   -3.3942705    919.57614  0.059312186  0.058947574            4 
 1293000   0.73757893   -3.4327062     918.4985  0.059196861   0.05892012            7 
 1294000    0.7454806   -3.4345329    919.45187  0.059212511  0.058892509            7 
 1295000   0.74930158   -3.4220362    918.71721  0.059119511  0.058864902            6 
 1296000    0.7305139   -3.4285853     919.7467  0.059140091  0.058837161            2 
 1297000   0.72944648   -3.4272709    921.39807  0.059200596  0.058809776            4 
 1298000   0.73925584   -3.4450256    920.41894  0.059092125  0.058782181            7 
 1299000   0.72553731   -3.4515895    921.38076  0.059108337  0.058754627            2 
 1300000   0.73235477   -3.4252459    922.18279  0.059114282  0.058727144            4 
 1301000   0.72471821   -3.4523258     920.6998  0.058973854  0.058699724            6 
 1302000   0.73173006   -3.4380946    922.08428  0.059017171  0.058672303            3 
 1303000   0.74376303   -3.4576646    922.53659  0.059000805  0.058644631            4 
 1304000    0.7509581   -3.4235759    924.30937  0.059068851  0.058616891            4 
 1305000   0.73846628   -3.4274286    922.92385  0.058935111  0.058589152           15 
 1306000   0.75411188    -3.459664    921.47006  0.058797222  0.058561514            6 
 1307000   0.73532871   -3.4336114    921.84274  0.058775997  0.058533385            4 
 1308000   0.73086098   -3.4310758    923.28253  0.058822791  0.058505555            3 
 1309000   0.73798056   -3.4573739    925.10765  0.058894044   0.05847796            5 
 1310000   0.73187985   -3.4288806    922.54317  0.058685952  0.058450215            3 
 1311000   0.73718804   -3.4246315    925.89856  0.058854472   0.05842227            6 
 1312000   0.73222739   -3.4451515    926.05409  0.058819493  0.058394514            5 
 1313000   0.72952601   -3.4378418    925.96414  0.058768986  0.058366866            4 
 1314000   0.72293259   -3.4397226    927.12492  0.058797876  0.058339255            2 
 1315000   0.73142272   -3.4599229    924.65968  0.058596938  0.058311482            4 
 1316000   0.72959842   -3.4475519    925.15507  0.058583781  0.058283538            5 
 1317000   0.73089109   -3.4479416     926.6538  0.058634131    0.0582558            7 
 1318000    0.7360609    -3.428184    925.13214  0.058493433  0.058228013            4 
 1319000   0.72243556     -3.43663     928.7514  0.058677748    0.0582005            9 
 1320000   0.73168911   -3.4538926    927.08073  0.058527824   0.05817297           10 
 1321000   0.73260233   -3.4355265    925.75926  0.058400155  0.058145695            5 
 1322000   0.71590559   -3.4629017    926.31362  0.058390924  0.058118151           10 
 1323000   0.72545428   -3.4438362    928.38828  0.058477468  0.058090707            3 
 1324000   0.72300918   -3.4390906    927.04619  0.058348829  0.058063595            8 
 1325000   0.72216182   -3.4506885    927.88908  0.058357804  0.058035968            3 
 1326000    0.7300901   -3.4553034    925.95233  0.058192077  0.058008269            7 
 1327000   0.70204357   -3.4412888     927.7061  0.058258358  0.057980472            3 
 1328000   0.71843564   -3.4465774    927.53305   0.05820363  0.057952932            5 
 1329000   0.72270181   -3.4512424    928.45885  0.058217887  0.057925401            5 
 1330000   0.71493549    -3.445423    930.21155  0.058283932  0.057897801            5 
 1331000   0.71152308   -3.4690626    928.30359  0.058120686  0.057869882            6 
 1332000   0.70870404   -3.4287933    930.54682  0.058217394  0.057842151            3 
 1333000   0.72463399   -3.4302999    931.47778  0.058231919  0.057814675            6 
 1334000   0.71087677   -3.4576462    934.17084  0.058356499  0.057786937            5 
 1335000   0.73054096   -3.4514289    932.93256   0.05823549  0.057759637            8 
 1336000   0.71518567   -3.4523211    931.45233  0.058099572  0.057732525            7 
 1337000   0.72647075   -3.4622138    930.07219  0.057970094  0.057704777            4 
 1338000   0.72227089   -3.4770658    931.19392  0.057996632   0.05767749            9 
 1339000   0.72937142   -3.4681389    933.44062  0.058093143  0.057649697            6 
 1340000   0.72329524   -3.4837691    931.40685  0.057923311  0.057622232            6 
 1341000   0.70411818   -3.4337862    930.28261  0.057810254  0.057594685            4 
 1342000   0.70945702   -3.4480938    932.49815  0.057904753  0.057567097            6 
 1343000   0.71272283   -3.4573482    932.35326  0.057852647  0.057539446            5 
 1344000   0.71724592   -3.4736283    931.40521  0.057750819  0.057511818            5 
 1345000    0.7198439   -3.4484459     930.7636  0.057668129  0.057484244           10 
 1346000    0.7317718   -3.4815233    934.33309  0.057846278  0.057456678            3 
 1347000   0.71215893   -3.4483257    937.34277  0.057989531  0.057429209            3 
 1348000   0.72682216   -3.4741828    932.86535  0.057669718  0.057401873            2 
 1349000   0.72067596   -3.4531188    932.46916  0.057602493  0.057374418            6 
 1350000   0.71517606   -3.4690364    931.52394  0.057501478  0.057346895            4 
 1351000   0.72104546   -3.4700872    936.13147  0.057743121   0.05731954            5 
 1352000   0.71456114   -3.4619307    932.40117  0.057470486  0.057291977            4 
 1353000   0.72659924   -3.4616366    936.10271  0.057655993  0.057264371            6 
 1354000    0.7079019   -3.4462762    936.72155  0.057651499  0.057236736            6 
 1355000    0.7048166   -3.4773751    936.55648  0.057598799  0.057209056           15 
 1356000   0.70819937   -3.4694512    936.48218  0.057551756  0.057181357            7 
 1357000   0.70819829    -3.472696    935.54844  0.057452004  0.057153835            6 
 1358000   0.71555731   -3.4785118     936.7709  0.057484714   0.05712613            5 
 1359000   0.69877362   -3.4812179    934.42541   0.05729859  0.057098481            7 
 1360000    0.7200272   -3.4500633     936.0088   0.05735348  0.057070621            5 
 1361000   0.70628939   -3.4495919    937.52045  0.057403897  0.057043061            3 
 1362000   0.70778892   -3.4815496    936.90291  0.057323967  0.057015273            3 
 1363000   0.70658212   -3.4635752    937.55588  0.057321832  0.056987642            9 
 1364000    0.7122564   -3.4834945    939.46627  0.057396522  0.056960154           13 
 1365000   0.72837756    -3.476227    938.32452  0.057284769   0.05693219            7 
 1366000   0.69328905   -3.4668085    935.37245  0.057062741  0.056904317            6 
 1367000   0.71735351   -3.4509507    937.95279  0.057178297  0.056876587            8 
 1368000   0.70470469   -3.4958288    935.53624  0.056989293  0.056848969            7 
 1369000   0.70422198   -3.4863605    938.54859  0.057131032  0.056820897            4 
 1370000   0.71659452   -3.4723624    938.03169  0.057057888  0.056793248            6 
 1371000   0.68788718   -3.4863631    937.69515  0.056995815  0.056765515            7 
 1372000   0.69660928   -3.4719448    940.79499  0.057142553  0.056738017            4 
 1373000   0.70744212   -3.4607297    940.44522  0.057079705  0.056710681            4 
 1374000   0.69896985   -3.4816142    941.85171  0.057123466  0.056683198            4 
 1375000   0.70729419   -3.5029137    938.84909  0.056899945  0.056655485            5 
 1376000   0.70871154   -3.4888266    939.68843  0.056909425  0.056627768            2 
 1377000   0.72330925   -3.4909874    939.59379  0.056862369  0.056600054            5 
 1378000   0.70407462   -3.4903136    940.57721  0.056880576  0.056572198            3 
 1379000   0.69994162   -3.4924097    939.78294  0.056791331  0.056544587           19 
 1380000   0.71003242   -3.4876559    941.98262  0.056883008  0.056516781            6 
 1381000   0.68652073   -3.4969235    938.00223  0.056601631  0.056488996            6 
 1382000    0.7083451   -3.4966711    940.82671  0.056730988  0.056461189            6 
 1383000   0.70209426   -3.5012838    941.99701  0.056760485  0.056433198            5 
 1384000   0.70747164    -3.484408    943.67988  0.056820802  0.056405391            4 
 1385000   0.70560656   -3.4693038     939.8408  0.056548785  0.056377511            4 
 1386000   0.73152045   -3.5090557    940.43173  0.056543514  0.056349342            5 
 1387000   0.70952671   -3.4894345     941.8574  0.056588404  0.056321299            7 
 1388000    0.6919408     -3.48495    943.99583  0.056676023   0.05629333            7 
 1389000    0.7176988   -3.5185419    942.95829  0.056572971  0.056265183            6 
 1390000    0.7010634    -3.513784    942.37608  0.056497367  0.056237155            4 
 1391000   0.70332324   -3.4815811    942.74549  0.056478882   0.05620922           14 
 1392000   0.70900689   -3.4955488    945.92414    0.0566286  0.056181847            5 
 1393000   0.68422947   -3.5210201    943.18832  0.056424284  0.056153872            6 
 1394000   0.68673613    -3.504009    945.29522  0.056509758  0.056126001            9 
 1395000   0.69183353   -3.4859078    942.63323  0.056310229  0.056098368            4 
 1396000   0.69873423   -3.4988849    944.15158  0.056360529  0.056070583            4 
 1397000   0.69000136   -3.4928292    944.29243  0.056328587  0.056042691            4 
 1398000   0.69996658   -3.4882007    944.60118  0.056306699  0.056014523            4 
 1399000   0.69977805   -3.5035608    940.86091  0.056043657  0.055986334           12 
 1400000   0.69973698   -3.5011379    944.55693  0.056223627  0.055957928            2 
 1401000   0.70704426   -3.4874324    944.21035  0.056162881  0.055929805            4 
 1402000   0.69796741   -3.5134177    940.82911  0.055921844   0.05590168            5 
 1403000   0.69544455   -3.4983673    946.03764  0.056191354  0.055873657            5 
 1404000   0.69541621   -3.4961491    941.67148  0.055892182  0.055845362            3 
 1405000   0.70130504   -3.4809398    947.24014  0.056182689  0.055817288            5 
 1406000   0.69992231    -3.512734     943.1889  0.055902614  0.055789065            6 
 1407000   0.69100228   -3.5153719    942.69797  0.055833805  0.055760653            6 
 1408000   0.69162319   -3.5281835    943.58527  0.055846666  0.055732254            5 
 1409000   0.67453776   -3.5136308    946.83773  0.055999392  0.055704242            7 
 1410000   0.69712174   -3.4921407    946.76369  0.055955301  0.055676137            5 
 1411000    0.6717482   -3.5124689    947.30884  0.055947841  0.055648114            3 
 1412000   0.70869833   -3.5199076    948.90601  0.056002479  0.055620001            6 
 1413000   0.68511876   -3.5257281    946.32844   0.05581083  0.055591909            8 
 1414000   0.67384372   -3.5040884    945.86725   0.05574418  0.055563765            6 
 1415000   0.66856124   -3.5025457     947.6891  0.055812079  0.055535881            8 
 1416000   0.69222462   -3.5193293    950.14876  0.055917417  0.055508192            6 
 1417000   0.68971842    -3.527842    948.89098  0.055803986  0.055480544            7 
 1418000   0.67739206   -3.5138811    951.17951  0.055899125  0.055452965            5 
 1419000   0.66916972   -3.5030143    949.19307  0.055743074  0.055425202            5 
 1420000   0.69205397   -3.4952293    948.63089  0.055670827  0.055397404            3 
 1421000   0.68828117   -3.5123523    947.68026  0.055575901  0.055369676           16 
 1422000   0.69157802   -3.5075391    949.74096  0.055657581  0.055342271            8 
 1423000   0.68661029    -3.517316    949.52108  0.055605592  0.055314657           10 
 1424000   0.68817834   -3.4684246    950.70515  0.055635835  0.055287437            5 
 1425000   0.66620502   -3.5008959    951.05308  0.055617139  0.055260288            6 
 1426000    0.6897414   -3.5351472    954.78258  0.055796083  0.055232911            8 
 1427000    0.6841845   -3.5064902    951.79746  0.055582659  0.055205785            7 
 1428000   0.67504535   -3.4987767    950.64934  0.055476735    0.0551787            4 
 1429000   0.68945951   -3.5423451    950.40249  0.055423518  0.055151519           11 
 1430000   0.67920703    -3.508171    953.63841  0.055573334  0.055124332            4 
 1431000   0.67781655   -3.5382129     954.6028  0.055590659  0.055097325            7 
 1432000   0.69197551   -3.5284026    955.49713  0.055603883  0.055070178            4 
 1433000   0.67883756   -3.5224926    954.55714  0.055510418  0.055043129            4 
 1434000   0.67743214   -3.5127866    956.48008  0.055583454  0.055016092            9 
 1435000    0.6795226   -3.5127217    955.56343  0.055491489  0.054989063            5 
 1436000   0.66597444   -3.5161757    956.28411  0.055494667  0.054961872           12 
 1437000   0.66535729   -3.5227178    955.03267  0.055383476  0.054934739           10 
 1438000    0.6728098   -3.5452542     954.0263  0.055286642  0.054907645            7 
 1439000   0.68341882   -3.4954664    955.57753  0.055338055  0.054880499            6 
 1440000   0.69964296    -3.535509    956.24628  0.055338326  0.054853268           13 
 1441000   0.67403314   -3.5144415    954.79247  0.055215849  0.054826061            3 
 1442000   0.66713477   -3.5270083    955.51294  0.055219195  0.054798785            8 
 1443000   0.68079404   -3.5215065    954.35823  0.055114243  0.054771583            6 
 1444000   0.68806136   -3.5316201    954.93177  0.055109174  0.054744516            9 
 1445000   0.67205193   -3.5301932    958.42676  0.055272593  0.054717228           15 
 1446000   0.68533479   -3.5341159    957.36352  0.055173094  0.054690099            7 
 1447000   0.66679319    -3.530198    956.47532  0.055083813  0.054662815            5 
 1448000   0.67263721   -3.4952883    957.54073  0.055107086  0.054635733            4 
 1449000   0.68402957   -3.5225332    960.55732  0.055242542  0.054608625            7 
 1450000   0.68420004    -3.527386    955.74243  0.054927726  0.054581389           10 
 1451000   0.67227613   -3.5393635    956.14411   0.05491294  0.054554243            5 
 1452000   0.68030391   -3.5167162    957.86279   0.05497376  0.054527205            4 
 1453000   0.66978499    -3.537191    958.44728  0.054969447  0.054500495            7 
 1454000   0.67889368   -3.5274813    956.25628  0.054806068  0.054473376           10 
 1455000   0.67510484   -3.5305615    956.95743  0.054808559  0.054446308            6 
 1456000   0.68379594   -3.5238016    959.17202  0.054897666  0.054419099            5 
 1457000   0.67213369   -3.5509444      957.872  0.054785633  0.054392062            8 
 1458000   0.65503289   -3.5422387    959.18476  0.054823089  0.054364763            7 
 1459000   0.67466542   -3.5129327    962.29481  0.054963149  0.054337795            7 
 1460000   0.67350812   -3.5299544    959.03732  0.054739573  0.054311051            5 
 1461000   0.67096632   -3.5288785    960.96208  0.054811891  0.054283979            7 
 1462000   0.67582581   -3.5243205    959.33874  0.054681871  0.054257131            5 
 1463000   0.66295534   -3.5408867    958.22584  0.054581103  0.054230142            8 
 1464000   0.67184659   -3.5434422    960.36024  0.054665314  0.054203285           11 
 1465000   0.67580774     -3.52956     962.4429  0.054746468  0.054176349            5 
 1466000   0.66287641   -3.5557266    962.64923  0.054720852  0.054149542            6 
 1467000   0.66119625   -3.5513792     961.4134  0.054613349  0.054122629            7 
 1468000   0.66858493   -3.5553782    962.06517  0.054613145  0.054095877           14 
 1469000   0.66254128   -3.5431369    964.55077  0.054716971  0.054069283           13 
 1470000    0.6690392   -3.5535523    962.29508  0.054551875  0.054042585           13 
 1471000   0.67162072   -3.5624231    962.48335  0.054525456  0.054015693            6 
 1472000   0.67347398    -3.567074    964.84767  0.054622264  0.053988821           16 
 1473000   0.66968667   -3.5382948    960.87426   0.05436039  0.053962234           12 
 1474000   0.66052683   -3.5498142      960.583  0.054307044  0.053935517           11 
 1475000   0.66673115   -3.5398883    965.25668  0.054534276  0.053908811            6 
 1476000   0.67059587   -3.5311225    964.82936  0.054473203  0.053882211            3 
 1477000   0.64008339   -3.5408478    964.82482  0.054436065  0.053855745            7 
 1478000   0.65529176   -3.5679297    964.71768  0.054393194  0.053829293            8 
 1479000   0.65688749   -3.5413442    964.15296  0.054324598  0.053802838            4 
 1480000    0.6806293   -3.5477306    965.28839  0.054351824  0.053776429           12 
 1481000   0.68151899   -3.5555448    965.23428   0.05431208  0.053750092            5 
 1482000   0.66878585   -3.5419884    964.02016  0.054207162  0.053723575           11 
 1483000   0.64872081    -3.546767    967.09916  0.054343626  0.053697146           11 
 1484000   0.66818942   -3.5478824    965.68744  0.054227731  0.053670582            3 
 1485000   0.66298155   -3.5731107    965.11229  0.054158939  0.053643693            6 
 1486000    0.6574034   -3.5462035    966.04989  0.054175072   0.05361716           12 
 1487000   0.65477588   -3.5717028    968.09991  0.054253526  0.053590521            4 
 1488000   0.67143029   -3.5706256    966.38357  0.054120943  0.053563798            7 
 1489000   0.65296839   -3.5543852    967.22742  0.054131823  0.053537049           13 
 1490000   0.65292327    -3.556076    965.84669  0.054018271  0.053510529           11 
 1491000   0.66304394   -3.5663133     963.5899  0.053855908  0.053483901            7 
 1492000   0.66466833   -3.5517609    966.80315  0.053999282  0.053457101            4 
 1493000   0.66514413   -3.5516763      968.012  0.054030587  0.053430523            5 
 1494000   0.64588378   -3.5869464    965.69031  0.053864922   0.05340387            7 
 1495000   0.65018368   -3.5575004    969.09582  0.054018719  0.053377141            5 
 1496000   0.65303764   -3.5541378    963.73765  0.053684138  0.053350376            6 
 1497000   0.65114443   -3.5605255    966.24094  0.053787628  0.053323662            6 
 1498000   0.65985931   -3.5737898    966.88269  0.053787422  0.053297138           14 
 1499000   0.65168826    -3.552038    967.59314  0.053791035  0.053270552            4 
 1500000   0.65073688   -3.5651876    969.84692  0.053880384   0.05324424            9 
 1501000   0.64267417   -3.5827696    969.39849  0.053819592  0.053217817            5 
 1502000   0.64636821   -3.5572344    969.12023  0.053768322  0.053191499            8 
 1503000   0.65228139   -3.5755307    968.09226  0.053675552  0.053164993            7 
 1504000    0.6504163   -3.5588235    971.99049  0.053855856  0.053138533           10 
 1505000   0.64850255   -3.5687003    968.57798  0.053631117  0.053111781           14 
 1506000   0.65206658   -3.5625048    968.32027  0.053581246  0.053085033           19 
 1507000   0.63976078    -3.570355    971.08722  0.053698696  0.053058449            7 
 1508000   0.64917508    -3.564745    971.46737  0.053684094  0.053031816            5 
 1509000   0.64732735   -3.5512172    972.02205   0.05367915   0.05300524            4 
 1510000   0.63777364   -3.5836137    971.03321  0.053589029  0.052978685            3 
 1511000    0.6517658    -3.585799    971.35624  0.053571379  0.052952243            5 
 1512000    0.6562084   -3.5457471    969.88358  0.053454783  0.052925813            4 
 1513000   0.64176344   -3.5671336    971.66053  0.053517324  0.052899438            5 
 1514000   0.64377667   -3.5747753    971.81778  0.053490631  0.052872976            8 
 1515000   0.65953241   -3.5723616    972.02196  0.053466554   0.05284658            6 
 1516000   0.64070188   -3.5743561    973.99754  0.053539882  0.052820221            7 
 1517000    0.6415951   -3.5617748    972.31946  0.053412407  0.052793872            5 
 1518000   0.63958091   -3.5697488    974.95491  0.053521899  0.052767425           11 
 1519000   0.64507696   -3.5771841    973.38088  0.053400311  0.052741123            7 
 1520000   0.63675503   -3.6053053    969.19449  0.053135663  0.052714635            4 
 1521000   0.65637935   -3.5842635    970.44287  0.053169125  0.052688009           16 
 1522000   0.64904278   -3.5705716    975.35333  0.053403052  0.052661652           10 
 1523000    0.6610523   -3.5871316    973.93884  0.053290591  0.052635488           10 
 1524000   0.64242173   -3.5797529    976.18983  0.053378709  0.052609081           10 
 1525000   0.65229689   -3.5594709    974.52078  0.053252502  0.052582802           17 
 1526000   0.64599042   -3.5919396    972.27707  0.053095078  0.052556566           13 
 1527000   0.64281656   -3.5857359    973.05177  0.053102585  0.052530312            6 
 1528000   0.62600326   -3.5975447     977.0578  0.053286311  0.052503925            7 
 1529000   0.63459646   -3.5934179     977.8925  0.053296954  0.052477689            5 
 1530000   0.65263906     -3.59061    975.15071  0.053112783  0.052451578            6 
 1531000   0.63957995   -3.5921911    976.75426  0.053165374  0.052425461            6 
 1532000   0.64320748    -3.571292    975.92887  0.053085774  0.052399333            4 
 1533000   0.64336693   -3.5848837    973.99624  0.052946088  0.052373376            7 
 1534000   0.64817526   -3.5695707    978.11942  0.053135562  0.052347498            5 
 1535000   0.63871104   -3.5711981    976.39031  0.053007074  0.052321453            9 
 1536000   0.64469034   -3.5723655    975.67687  0.052933858  0.052295565            7 
 1537000   0.63234166   -3.5767127    974.15174  0.052816728  0.052269424            5 
 1538000   0.64585519   -3.5929829    973.78566  0.052762552  0.052243547            6 
 1539000   0.62424685   -3.6098928    976.52113  0.052876388  0.052217186           10 
 1540000   0.64729676   -3.6200714    978.46047  0.052946995  0.052191058            4 
 1541000   0.63949168   -3.5994434    976.11788  0.052785955  0.052164955            8 
 1542000   0.61822199   -3.5849983    977.91874  0.052849045  0.052138804            5 
 1543000   0.62643541   -3.5830874    978.77652  0.052861121  0.052112681            7 
 1544000    0.6410203    -3.576999     978.9721  0.052837441  0.052086616            7 
 1545000   0.62812878   -3.5925919    977.48363  0.052722957  0.052060565           13 
 1546000   0.62456955   -3.5952843    972.59911  0.052425567  0.052034235            6 
 1547000   0.62677775   -3.5845325    980.29079  0.052806011  0.052007959            7 
 1548000   0.64245653   -3.5974082    975.86552  0.052533674  0.051981722            5 
 1549000   0.62805434   -3.5793396     978.1466  0.052622477   0.05195566           12 
 1550000   0.62819057    -3.583086    979.39588  0.052655692  0.051929454            5 
 1551000   0.63631199   -3.5917932    976.49773  0.052466029  0.051903355            9 
 1552000   0.64426267   -3.5899313    978.17095  0.052522066  0.051877346            5 
 1553000   0.64703529   -3.6164848    977.58721  0.052456923  0.051851167            7 
 1554000   0.63355257   -3.5951461    979.55401  0.052528637  0.051824815            9 
 1555000     0.633153   -3.5983353    976.17796  0.052313931  0.051798492            2 
 1556000    0.6239358   -3.5883362    979.66489  0.052467057  0.051772381           11 
 1557000   0.63451281   -3.5989024    979.38198  0.052418218   0.05174612            7 
 1558000   0.64615666   -3.6171265    977.99764  0.052310528  0.051719783            7 
 1559000   0.62264182    -3.613305    977.42165  0.052246186   0.05169351            6 
 1560000   0.63966475   -3.6006673     977.6852  0.052226773  0.051667194            7 
 1561000    0.6250685   -3.5948659      982.939  0.052473788  0.051640801            6 
 1562000   0.62081643   -3.5886545    980.80312  0.052326244   0.05161466            5 
 1563000   0.63095553   -3.6085703    978.58149  0.052174317  0.051588559           10 
 1564000   0.64125904   -3.5982382    982.57017  0.052353483  0.051562752           19 
 1565000   0.62686362   -3.5767803    981.60848  0.052268822  0.051536818            6 
 1566000   0.62676213   -3.5954725    981.78881  0.052245041   0.05151074            4 
 1567000   0.62894189   -3.6103731    979.65996  0.052098487  0.051484491            6 
 1568000   0.62466058   -3.5955143    981.84305  0.052181285  0.051458236           13 
 1569000   0.64050543   -3.6280385    977.37949  0.051910957  0.051431884           12 
 1570000   0.62444853    -3.628346    977.31279  0.051874352  0.051405428            4 
 1571000    0.6323398   -3.6245025    982.82219  0.052133577  0.051379029           14 
 1572000    0.6272895   -3.6205687    979.70506  0.051935171  0.051352634            5 
 1573000    0.6338644   -3.6003658    979.64865  0.051899165  0.051326277            8 
 1574000    0.6139983   -3.5983694    982.34563  0.052008981  0.051299881            5 
 1575000   0.61673115   -3.6129238    978.58285  0.051776871  0.051273569            8 
 1576000   0.62059703   -3.6139185    984.36286  0.052049643  0.051247117           17 
 1577000   0.62929485   -3.6486129    978.94178  0.051730172  0.051220698           10 
 1578000   0.62315258   -3.6128231    981.51055  0.051833046   0.05119442            6 
 1579000   0.61658665   -3.6174522    978.31113  0.051631366  0.051167977            9 
 1580000   0.62569548   -3.6354686    980.67976  0.051723616  0.051141642            6 
 1581000   0.63007238   -3.6293483    980.54361  0.051683724   0.05111537           11 
 1582000   0.61450438   -3.6086431    979.85323  0.051614688   0.05108898            8 
 1583000   0.63093127   -3.5978214    982.81196  0.051737838  0.051062521            5 
 1584000   0.63235652   -3.6144545    980.94251  0.051606824  0.051036202           17 
 1585000   0.62288095   -3.6167756    980.68775   0.05156087  0.051009951            5 
 1586000   0.62767448   -3.6449349    982.31776  0.051614006  0.050983721            4 
 1587000   0.63761162   -3.6186845    981.54379  0.051540842  0.050957268            6 
 1588000   0.61442659   -3.6396691    982.13311  0.051539311  0.050931052            7 
 1589000   0.62243006   -3.6172789    981.66208  0.051482173  0.050904879            4 
 1590000   0.62422131   -3.6125871    981.94551  0.051464649  0.050878712            4 
 1591000   0.62287196   -3.6126887    983.41082  0.051509052  0.050852544           16 
 1592000   0.59951131   -3.6205779    983.59398  0.051486285  0.050826226           10 
 1593000   0.61982673   -3.6064704    985.95711  0.051577585  0.050800168            8 
 1594000   0.61676114   -3.6186603     982.9681  0.051388964  0.050774095            5 
 1595000    0.6256261   -3.6364879    984.55464  0.051439637  0.050747942           10 
 1596000   0.62346796   -3.6249507    981.31737  0.051238376  0.050721739            7 
 1597000   0.61057772   -3.6399313    982.34083  0.051259697  0.050695443            9 
 1598000   0.62249948   -3.6483095    983.02759  0.051263433  0.050669302            9 
 1599000   0.61390423   -3.6416357    983.86834  0.051275189  0.050643135            6 
 1600000   0.60695165   -3.6292775    985.13864  0.051309304  0.050616857            6 
 1601000   0.62437603   -3.6370622    984.03417  0.051219767  0.050590653            7 
 1602000   0.61072774   -3.6412466    984.55311  0.051214789  0.050564462            5 
 1603000   0.61978852   -3.6402736     985.2992  0.051221626   0.05053835            9 
 1604000   0.62481356   -3.6363136    984.83841  0.051165753  0.050511991           21 
 1605000   0.60664182   -3.6403534    983.91099  0.051085721  0.050485723            8 
 1606000   0.61081019   -3.6291052    984.90797  0.051105644  0.050459406            5 
 1607000   0.61546482   -3.6359877    983.21869  0.050986242  0.050433256           16 
 1608000   0.60719672   -3.6211863    983.76469   0.05098283  0.050406881            4 
 1609000   0.61550673   -3.6186633     983.3859  0.050931526  0.050380603            5 
 1610000   0.60709628   -3.6321726    986.42158  0.051057018  0.050354489           12 
 1611000   0.61819751   -3.6313842    986.52745  0.051030801  0.050328285            6 
 1612000   0.61265018   -3.6433885    987.45973  0.051047339  0.050302064            4 
 1613000   0.60083223   -3.6448565    985.52597  0.050915787  0.050275937            7 
 1614000   0.61161584    -3.640921    987.90519  0.051007083  0.050249806           10 
 1615000    0.6080512   -3.6515207    985.09632  0.050830563  0.050223868           10 
 1616000   0.61762587   -3.6341286     987.4331  0.050919611  0.050197788           28 
 1617000   0.60514263   -3.6372387    987.75758  0.050904844  0.050171775            6 
 1618000   0.61788359   -3.6606584    984.13564  0.050686838  0.050145708            7 
 1619000   0.60770349   -3.6193993    985.30131   0.05071553  0.050119705            5 
 1620000   0.60528059   -3.6487512    986.43576   0.05074258   0.05009366            8 
 1621000   0.59838416   -3.6541734    988.40781  0.050812657  0.050067534            8 
 1622000   0.61054463   -3.6348547    986.91289  0.050704526  0.050041522            5 
 1623000   0.60075018   -3.6307254    986.38953  0.050646413  0.050015468            5 
 1624000   0.60283899   -3.6435067    986.57481  0.050624734  0.049989318            4 
 1625000   0.59358619   -3.6543249    986.75796  0.050602972   0.04996329           18 
 1626000   0.58954349   -3.6509395    989.20321  0.050697172  0.049937157           11 
 1627000   0.59651511   -3.6542836    985.43113  0.050472809  0.049911225           12 
 1628000   0.59488368   -3.6570013    986.54622  0.050498885  0.049885135           10 
 1629000    0.5989159   -3.6406686    988.69123  0.050577616  0.049859016            7 
 1630000   0.60650561   -3.6612111    986.70034  0.050444802  0.049833164            7 
 1631000   0.60342321   -3.6581003    988.59414  0.050510634  0.049807183           21 
 1632000   0.59534738   -3.6570611    988.64796  0.050482433  0.049781257           10 
 1633000   0.59455929   -3.6551016    987.73791  0.050405078    0.0497551           19 
 1634000    0.5983483   -3.6456742    987.11476   0.05034245  0.049729145           11 
 1635000   0.59567768   -3.6496616    987.40156  0.050326277  0.049702992           18 
 1636000   0.59664276    -3.619318    990.42277  0.050449408  0.049677032           10 
 1637000   0.60479256   -3.6265805    990.16821  0.050405631  0.049651272            8 
 1638000   0.61074141    -3.659858    989.95361   0.05036394  0.049625472            8 
 1639000   0.59289552   -3.6425319    992.26174  0.050450566  0.049599658            7 
 1640000   0.61239583   -3.6401569    990.47555  0.050329042  0.049574078           16 
 1641000   0.58408511   -3.6544759    992.48828  0.050400583  0.049548295            8 
 1642000   0.58656612   -3.6338137     989.9188  0.050239484  0.049522616            9 
 1643000   0.59618264   -3.6509285    990.64488  0.050245733  0.049496783            9 
 1644000   0.59536493   -3.6578398    987.71002  0.050066404  0.049470955            6 
 1645000   0.60235625   -3.6560985    990.67512  0.050186176  0.049445199           16 
 1646000   0.59692612   -3.6573017    992.04467  0.050225024  0.049419486            8 
 1647000   0.58500154   -3.6687242     988.5022  0.050015291  0.049393707            5 
 1648000   0.58249883   -3.6640062    990.58089  0.050090053  0.049367993            8 
 1649000    0.5876866   -3.6797841    989.96623  0.050028615  0.049342301            7 
 1650000   0.58722856   -3.6626924    993.85374  0.050194633  0.049316536           14 
 1651000   0.60638598   -3.6858205    993.97061   0.05017013  0.049291014           17 
 1652000   0.58944722   -3.6736527    989.90439  0.049934644  0.049265354           20 
 1653000   0.59848964   -3.6727301    990.15428  0.049917034  0.049239729            7 
 1654000   0.59133439   -3.6670178    991.78364  0.049968946  0.049214141            8 
 1655000   0.60780604   -3.6791649    989.17858  0.049807582  0.049188382           15 
 1656000   0.58908764   -3.6766547    993.73834  0.050006962  0.049162577           12 
 1657000   0.58274402   -3.6894978    991.01857  0.049840001  0.049136831           14 
 1658000   0.59986776   -3.6731727    992.73215  0.049896067  0.049111102           14 
 1659000   0.60027426   -3.6671622    994.11234  0.049935319  0.049085627            9 
 1660000   0.58875005   -3.6823516    992.43706  0.049821137  0.049060076            8 
 1661000   0.59592493   -3.6879511     990.5721  0.049697577    0.0490343           10 
 1662000   0.59172576   -3.6524048    993.45464  0.049812206   0.04900866           12 
 1663000   0.58530762   -3.6885889    992.04083  0.049711407  0.048983176            4 
 1664000   0.59373998   -3.6773736    991.52606  0.049655752  0.048957598            8 
 1665000   0.60820511   -3.6757459    992.33353  0.049666343  0.048931968            9 
 1666000    0.5776691   -3.6983954    992.51826  0.049645771  0.048906217            9 
 1667000   0.60220797   -3.6811226    992.04749  0.049592456  0.048880553           10 
 1668000   0.59070188   -3.6785453    993.64612  0.049642592  0.048855018           10 
 1669000   0.58385011   -3.7093049    991.81056  0.049521198  0.048829351           11 
 1670000   0.60189055   -3.6773825    992.62105  0.049531989  0.048803495            8 
 1671000   0.59121262    -3.682465     992.8847  0.049515494  0.048777776            7 
 1672000   0.59194803   -3.6816725    994.40578  0.049561691  0.048752177           12 
 1673000   0.58618043   -3.6737524    991.09474  0.049367142  0.048726559           13 
 1674000   0.58421935   -3.6785188    992.32124  0.049398708  0.048700806            9 
 1675000   0.58043064   -3.7163777    991.23945  0.049315395   0.04867508            8 
 1676000   0.57408646   -3.6853737    991.13822  0.049280938   0.04864946           31 
 1677000   0.58659658    -3.701205     992.9592  0.049342039  0.048623769            5 
 1678000   0.58592098   -3.6945632    991.96566  0.049263292   0.04859807           18 
 1679000   0.58619729   -3.6904365     995.1682  0.049392902  0.048572436            6 
 1680000   0.57276683   -3.7008958    996.81539  0.049445208  0.048546876            5 
 1681000   0.56727571   -3.6787928    995.24391   0.04933789   0.04852148            6 
 1682000   0.58920146   -3.6685227    993.39388  0.049216899   0.04849611           10 
 1683000   0.57193326    -3.694601    994.39921  0.049237434  0.048470615           14 
 1684000   0.57792888   -3.6886516     995.0252  0.049239172  0.048445021            5 
 1685000    0.5986873   -3.7098464    993.57704   0.04913833  0.048419557            6 
 1686000   0.58833332   -3.6907588    1000.2291  0.049437974  0.048394031            7 
 1687000   0.56883055   -3.7044656    995.40122  0.049170185  0.048368565           39 
 1688000   0.56187892   -3.7087917    996.30579  0.049185712  0.048342937           14 
 1689000   0.57089941   -3.7077652    996.32919  0.049157746  0.048317383            5 
 1690000   0.59173906   -3.7063773    992.93814  0.048961447    0.0482917            7 
 1691000   0.56859975   -3.7075246    995.84594   0.04907579  0.048266141           11 
 1692000   0.57435812   -3.6835694    994.43439  0.048977265  0.048240459           19 
 1693000   0.57405617   -3.7164368    993.66513  0.048910471  0.048214808           15 
 1694000   0.57975501   -3.6920858    993.83648  0.048890028  0.048189138            6 
 1695000   0.57451106   -3.6852222    997.76811   0.04905448  0.048163612           18 
 1696000   0.57233046   -3.7102993    993.91968  0.048836462  0.048138041           13 
 1697000   0.59132163    -3.684819    997.50735  0.048983861  0.048112555            5 
 1698000   0.58356666   -3.7247531    993.75673  0.048770943  0.048087048           12 
 1699000   0.58038096   -3.7086492    995.95699  0.048850156  0.048061411            5 
 1700000   0.58448358   -3.7122293    996.15032  0.048830898  0.048035986           13 
 1701000    0.5649642   -3.7015108    996.53105  0.048820843  0.048010537            6 
 1702000   0.57189163   -3.7035737    999.17199  0.048921465  0.047985076            4 
 1703000   0.56881848   -3.7068708    1000.6864  0.048966842  0.047959863            9 
 1704000    0.5849198   -3.7029105     997.2138   0.04876828   0.04793457           11 
 1705000   0.56027008   -3.6951918    997.56944   0.04875706  0.047909147           10 
 1706000   0.56956592   -3.7263737    997.16688  0.048708816  0.047883757           16 
 1707000   0.55209905   -3.7093468    996.77106  0.048660958  0.047858384           18 
 1708000   0.56469259   -3.7009532    999.73531  0.048777093  0.047832927            8 
 1709000   0.56500099   -3.7175165    997.77577  0.048653002  0.047807597            8 
 1710000   0.57448699   -3.7095646    996.48852  0.048561819  0.047782108            9 
 1711000   0.57447009   -3.7106187      998.241   0.04861879  0.047756704            6 
 1712000   0.57304573   -3.6991668    997.84262     0.048571  0.047731339           11 
 1713000   0.57035797   -3.7086701    995.74793  0.048440744  0.047705759           12 
 1714000   0.55426214   -3.6970499     995.6168  0.048406106  0.047680134           13 
 1715000    0.5638241   -3.7362084    996.97191  0.048443728  0.047654498           10 
 1716000   0.56940867   -3.6969398    996.52254  0.048393674  0.047628971            8 
 1717000   0.56189012   -3.6948365    997.33003   0.04840468  0.047603568            8 
 1718000   0.57515774   -3.7390515    995.15021  0.048270771  0.047577849            8 
 1719000   0.56889465   -3.7252125    997.19856   0.04834199  0.047552132           15 
 1720000   0.55365166   -3.7208146     995.8867  0.048250325   0.04752645           15 
 1721000   0.56461733   -3.7227023      998.944  0.048370328  0.047500834           15 
 1722000   0.56444804   -3.7272972    997.97751  0.048295466  0.047475207           11 
 1723000   0.56721748   -3.7066225     997.8609  0.048261796  0.047449703           12 
 1724000   0.54481127   -3.7098654    997.98071  0.048239593  0.047424155           18 
 1725000   0.57202241   -3.7294045    994.84093  0.048059948  0.047398474           15 
 1726000   0.56449958   -3.7192679    994.99449  0.048039518  0.047372776           13 
 1727000   0.56410985    -3.699873    997.58933   0.04813691  0.047347155            6 
 1728000   0.57141642   -3.7105513    997.82865  0.048120594  0.047321537            8 
 1729000   0.57395609    -3.741538    995.22506  0.047967277  0.047295861            8 
 1730000   0.55505793   -3.7114125    998.19489  0.048082606  0.047270314            5 
 1731000   0.56421105   -3.7311895    997.61554  0.048026937   0.04724484           14 
 1732000   0.55272098   -3.7280812    997.20828  0.047979613  0.047219428            4 
 1733000    0.5564317   -3.7226453    999.74316   0.04807382  0.047193747           13 
 1734000   0.54846779   -3.7350323    996.16934  0.047874344  0.047168225           10 
 1735000   0.55324148   -3.7249369    997.95697  0.047932611  0.047142628            9 
 1736000   0.56468378   -3.7225569    997.70606  0.047892956    0.0471171            6 
 1737000   0.56227813   -3.7285206    998.28475  0.047893147  0.047091573           28 
 1738000   0.55356051   -3.7051421    997.67376  0.047836295  0.047066015           43 
 1739000   0.57383982   -3.7356727    995.45554  0.047702489  0.047040464            8 
 1740000   0.55433782   -3.7357367      995.688  0.047686207  0.047014956           13 
 1741000   0.56473829   -3.7190987    998.18804  0.047778482  0.046989475            8 
 1742000   0.55850664   -3.7422112    997.57735   0.04772184  0.046964103           15 
 1743000   0.55186412   -3.7311747    997.28615  0.047680539  0.046938673           10 
 1744000   0.55169989   -3.7469511     1000.382  0.047801126   0.04691305           15 
 1745000   0.54652898   -3.7363881    999.41183  0.047727403  0.046887466           11 
 1746000   0.56240989   -3.7436719    999.14768  0.047687461  0.046861959           11 
 1747000   0.55501156   -3.7425474    1002.3067  0.047810854  0.046836636            8 
 1748000   0.55339974   -3.7350362    1001.9171  0.047764925  0.046811309            6 
 1749000   0.54933069   -3.7414337    1001.5864   0.04772186  0.046786141            8 
 1750000   0.56690885   -3.7310411    1000.1639  0.047626855  0.046760778           11 
 1751000   0.54639867   -3.7301348    998.49799  0.047520369  0.046735544           17 
 1752000   0.55282795   -3.7342654    1000.3117  0.047579514  0.046710067           16 
 1753000   0.56515637   -3.7537992    998.66138   0.04747392  0.046684648            9 
 1754000   0.56563777   -3.7393873    1001.2097  0.047567926  0.046659321            6 
 1755000    0.5488669   -3.7504447    996.39166  0.047312045  0.046634009           16 
 1756000   0.55648505   -3.7458228     1000.909  0.047499477  0.046608734            6 
 1757000   0.55047478   -3.7421332    999.81625  0.047420615  0.046583483            6 
 1758000   0.55865042   -3.7347021    1001.5659  0.047476577    0.0465583           16 
 1759000   0.55004769   -3.7445843    1002.6013  0.047498641  0.046533106            8 
 1760000   0.55351036   -3.7448813    1002.6236  0.047472708  0.046508086           13 
 1761000   0.55487887   -3.7330075    1000.7854  0.047358765  0.046483055           12 
 1762000   0.54647432   -3.7501342    1001.9968  0.047389178  0.046457878           16 
 1763000   0.54602769   -3.7114526     1001.183  0.047323831  0.046432777           19 
 1764000   0.55430113   -3.7497943    999.92842  0.047237737    0.0464076           15 
 1765000   0.54430816   -3.7561734    999.01215  0.047167712  0.046382413           17 
 1766000   0.55025024   -3.7483541    1002.1143  0.047287385  0.046357291           16 
 1767000   0.55413491   -3.7492744    999.95305  0.047158699  0.046332177            6 
 1768000   0.54149712   -3.7336575     1001.352  0.047197962  0.046306955           10 
 1769000   0.54712144   -3.7469094    1004.2937  0.047309861  0.046282032           17 
 1770000   0.54817141   -3.7544923    1002.2143  0.047185229  0.046257131            9 
 1771000   0.53477425   -3.7410311    1003.9133  0.047238532  0.046232074           10 
 1772000   0.55734966   -3.7604095     1002.398  0.047140611  0.046207092           19 
 1773000   0.55885378   -3.7447806    1002.5203  0.047119775  0.046182165           18 
 1774000   0.54719565   -3.7362755    1004.2972  0.047176681  0.046157346           15 
 1775000   0.54548467   -3.7552882     1005.109  0.047188215  0.046132507           10 
 1776000   0.53432572   -3.7642935     1004.605  0.047137997  0.046107527            8 
 1777000   0.54758479   -3.7576161    1002.8919  0.047031133  0.046082613           18 
 1778000    0.5453794   -3.7532864    1000.6889  0.046901432  0.046057628           14 
 1779000   0.52488622     -3.73603    1004.0993   0.04703482  0.046032715           15 
 1780000   0.53806061   -3.7489914    1003.0145  0.046957607  0.046007807           13 
 1781000    0.5480786   -3.7509121    1003.0992  0.046935203   0.04598283            7 
 1782000   0.54835304   -3.7727302    1002.2208  0.046867788   0.04595792            6 
 1783000   0.54631252   -3.7616247    1002.2708  0.046843841  0.045932992            8 
 1784000   0.54235895   -3.7765733    1000.9454  0.046755673  0.045908125           14 
 1785000   0.54686943    -3.777588    999.97114  0.046683993  0.045883111           12 
 1786000   0.54663172   -3.7687471    1005.0204   0.04689345  0.045858078           15 
 1787000   0.53273837   -3.7539674    1002.8209  0.046764637  0.045833151           13 
 1788000   0.54469185   -3.7481526    1002.9421   0.04674413  0.045808183           16 
 1789000   0.54313851   -3.7749855    1002.8003    0.0467114  0.045783144           13 
 1790000   0.53913157   -3.7668063    1002.4668  0.046669774  0.045758005            8 
 1791000   0.53233587   -3.7649619    1002.9181  0.046664716  0.045732897           15 
 1792000   0.53015854   -3.7439986    1004.3725  0.046706312    0.0457078            6 
 1793000   0.53833417   -3.7676419    1002.3434  0.046585955  0.045682704           10 
 1794000   0.54170061   -3.7858117    1002.2353  0.046554967  0.045657545            9 
 1795000    0.5219284   -3.7797504    1004.9212  0.046653722    0.0456324            9 
 1796000   0.53575108   -3.7877106    1001.2764  0.046458628  0.045607237            8 
 1797000   0.54027515   -3.7813975    1002.7827  0.046502628  0.045582105            8 
 1798000    0.5356482   -3.7691223    1002.6763  0.046471836  0.045557015           11 
 1799000   0.53944688   -3.7807977    1003.0735    0.0464644  0.045531975           22 
 1800000   0.52618476   -3.7733877     1002.318  0.046403611   0.04550692            9 
 1801000   0.53781215    -3.768356    1003.7617  0.046444646  0.045481939            9 
 1802000   0.53456427   -3.7867378    1005.1337  0.046482319  0.045456919           16 
 1803000   0.53865322   -3.7859696    1001.6401  0.046295069  0.045431873           16 
 1804000   0.53873706   -3.7913559    1005.3742  0.046441898   0.04540678           16 
 1805000   0.52504778   -3.7652205    1001.7026  0.046246657  0.045381782            8 
 1806000   0.54268322   -3.7661587    1002.1866  0.046243381  0.045356781            9 
 1807000   0.54396839   -3.7989715      998.467  0.046046255  0.045331601           20 
 1808000   0.53131531   -3.7818434    1002.2809  0.046196575  0.045306479           17 
 1809000   0.52667123   -3.7852001    1001.6037  0.046139844  0.045281326            8 
 1810000   0.52477735   -3.7838381    999.55198  0.046019888  0.045256292            7 
 1811000    0.5349762   -3.7922844     1005.112  0.046250322  0.045231202            9 
 1812000   0.52714304   -3.7766688    1002.9299  0.046124445   0.04520625            8 
 1813000   0.52994238   -3.7765059    1002.3098    0.0460705  0.045181402           11 
 1814000   0.52979324   -3.7910391    1001.6431  0.046014477   0.04515624           17 
 1815000   0.53281776   -3.7899362    1004.8637  0.046136994  0.045131195           22 
 1816000   0.53765725   -3.7914347    1002.8762  0.046020385  0.045106307           21 
 1817000   0.52736879   -3.7954606    1003.4543  0.046021571  0.045081504           13 
 1818000   0.53357415   -3.7950611     1001.075  0.045887193  0.045056564           19 
 1819000   0.53358635   -3.7903378    1001.9502  0.045902061  0.045031571            6 
 1820000   0.52290934    -3.770212    1005.7798  0.046052188  0.045006663           16 
 1821000   0.52991772   -3.7998434    1001.3163  0.045822638  0.044981741            6 
 1822000   0.52569724   -3.7908545    1001.5926  0.045810126  0.044956785           10 
 1823000   0.52587952   -3.8059116    1002.8336  0.045841727  0.044931783           15 
 1824000   0.51983955   -3.7781057    1004.6533  0.045899732  0.044906861           10 
 1825000   0.53918977   -3.8041136    1006.3037  0.045949939  0.044882008           10 
 1826000   0.52379114     -3.79258    1003.5195  0.045797715  0.044857091           13 
 1827000   0.51002498   -3.8049316    1002.0449  0.045705386  0.044832169           19 
 1828000   0.51937055   -3.7805898    1001.5061  0.045655823  0.044807243            8 
 1829000    0.5210011   -3.7948247    1002.5509  0.045678464   0.04478229           18 
 1830000   0.52580567   -3.7937092    1000.7547  0.045571707  0.044757357           16 
 1831000   0.52829803    -3.793601    1002.9237  0.045645535  0.044732485           12 
 1832000   0.51086263   -3.7931557    1004.9665  0.045713543  0.044707618            9 
 1833000   0.52381533   -3.8107503    1002.1806  0.045561948  0.044682631           26 
 1834000   0.51325256   -3.8305148    1001.4777  0.045505165  0.044657486           18 
 1835000   0.51294794   -3.8059161     1003.669   0.04557988  0.044632398           27 
 1836000   0.51685976   -3.7780814    1004.1313   0.04557604  0.044607466            8 
 1837000   0.52013475   -3.8012523    1003.5159  0.045523313    0.0445826            9 
 1838000   0.51987583   -3.7895854    1005.5655  0.045591471  0.044557824           11 
 1839000   0.52264388   -3.8074785    1003.8872  0.045490631  0.044532892           32 
 1840000   0.51424475   -3.8158482    1003.4826   0.04544758  0.044507978           13 
 1841000   0.52276776   -3.8014565    1003.8239  0.045438346  0.044483109           11 
 1842000   0.51433778   -3.8089559    1003.3473  0.045392116  0.044458066           17 
 1843000   0.51665033   -3.8151248    1001.5378  0.045285668  0.044433117           13 
 1844000   0.52127532   -3.7969995    1001.8195  0.045273837   0.04440832           23 
 1845000    0.5141551   -3.8037696    1003.3365  0.045317817  0.044383503           10 
 1846000   0.51961174   -3.8058856    1002.1763  0.045240896  0.044358688           14 
 1847000     0.503411   -3.8022867    1005.6683  0.045373952  0.044333894           12 
 1848000   0.50315554   -3.8073738    1004.6432  0.045303173  0.044309113            5 
 1849000   0.51962286   -3.8219125    1003.1847  0.045212941  0.044284417           16 
 1850000    0.5044118   -3.8207778    1003.4441  0.045200184  0.044259674           15 
 1851000   0.51370913   -3.8121268     1002.676  0.045141184  0.044234882           29 
 1852000   0.52283145    -3.819446    1004.6833  0.045207131  0.044210105            9 
 1853000   0.50377547   -3.8193244    1004.6557  0.045181496  0.044185364           14 
 1854000   0.50758945   -3.8084724    1004.5393  0.045151893  0.044160649           10 
 1855000   0.51870958   -3.8290785    1003.7244  0.045090945  0.044135914           29 
 1856000   0.50977033   -3.8266788    1006.2706  0.045180971  0.044111169            7 
 1857000   0.51201662   -3.8125577    1004.1337  0.045060749  0.044086486            7 
 1858000   0.51822836   -3.8201691    1004.4271  0.045049655  0.044061831           12 
 1859000   0.50698477   -3.8303702    1003.7405  0.044994645  0.044037146           17 
 1860000   0.50347744   -3.8228674    1005.9902  0.045071245  0.044012422           14 
 1861000   0.51457991   -3.8339902    1005.5179  0.045025878  0.043987774            8 
 1862000   0.51505402   -3.8205731    1004.1594  0.044940899  0.043963108           22 
 1863000   0.51372141   -3.7976836    1004.2597  0.044921259  0.043938544           50 
 1864000   0.51299714    -3.819321    1006.0153  0.044975647  0.043913979           46 
 1865000   0.51456973   -3.8297156      1002.86  0.044810545  0.043889396           19 
 1866000   0.50517818    -3.820816    1005.4363  0.044901584  0.043864863            8 
 1867000   0.51447431   -3.8175239    1003.5163  0.044791838  0.043840304           27 
 1868000   0.51087079   -3.8387425    1004.7201  0.044821561   0.04381561           15 
 1869000   0.52325351   -3.8281166    1003.7064   0.04475238  0.043790915            7 
 1870000   0.50090453   -3.8325601    1003.6122  0.044724252   0.04376615           14 
 1871000   0.51056745    -3.829116     1003.372  0.044689648  0.043741422           27 
 1872000    0.5089651   -3.8184584    1005.0904  0.044742271  0.043716708           12 
 1873000   0.49621019   -3.8339091    1004.5119  0.044692645  0.043692127            8 
 1874000   0.51063709   -3.8310975    1001.9265  0.044553828    0.0436675           22 
 1875000   0.51074636   -3.8284343    1005.2043  0.044675748  0.043642806           16 
 1876000   0.49739568   -3.8394335    1003.9068  0.044594297  0.043618098           18 
 1877000   0.49226057   -3.8242425    1004.2609  0.044586259  0.043593488           27 
 1878000   0.49669256   -3.8268597    1002.5096  0.044484806  0.043568778            7 
 1879000   0.50837431   -3.8366241     1005.264   0.04458329   0.04354396           10 
 1880000   0.50461672   -3.8528254    1002.6875  0.044445366  0.043519216           14 
 1881000    0.5029697   -3.8390754    1007.3379  0.044627766  0.043494555           22 
 1882000   0.50743179   -3.8285077    1006.4203   0.04456342  0.043469947           13 
 1883000   0.51355733   -3.8275182    1005.4024  0.044494706  0.043445432           30 
 1884000   0.48701741   -3.8165297    1003.8332  0.044401679  0.043420913           16 
 1885000   0.49760701    -3.833233    1006.8964  0.044513546  0.043396338           34 
 1886000   0.49859236   -3.8262595    1002.3514  0.044289122  0.043371852           22 
 1887000   0.50938071   -3.8424431    1003.7325  0.044326644  0.043347257           62 
 1888000   0.50198399   -3.8583719    1004.8375  0.044351936  0.043322617           13 
 1889000   0.49632893   -3.8609825    1000.5175  0.044137883  0.043297841           20 
 1890000   0.50326325   -3.8471925    1004.8023  0.044303451  0.043273142           47 
 1891000   0.49941563   -3.8580656    1004.1698  0.044252151  0.043248411           26 
 1892000   0.50604534   -3.8432993    1004.7459  0.044254134  0.043223755           40 
 1893000   0.48680463   -3.8382889    1005.1749  0.044249641  0.043199102           16 
 1894000   0.50303353   -3.8455995    1004.6202  0.044201874  0.043174394           23 
 1895000   0.49051315   -3.8676618    1002.4411  0.044082724  0.043149624           17 
 1896000   0.49975456   -3.8305418    1003.3419  0.044099063  0.043124959           11 
 1897000   0.49333456   -3.8308095    1005.4834  0.044169893  0.043100335           22 
 1898000   0.48204331   -3.8479139    1004.8768  0.044119985  0.043075649            8 
 1899000   0.49352091     -3.84811    1002.7437  0.044003144  0.043050882           16 
 1900000   0.48967045   -3.8694457    1002.3606  0.043963183  0.043026031           15 
 1901000   0.49627837   -3.8416582    1002.0461  0.043926272   0.04300126           16 
 1902000   0.49448101   -3.8524755    999.35915  0.043785452  0.042976499           13 
 1903000   0.48310471   -3.8470216    999.80155  0.043781816   0.04295183           19 
 1904000    0.5018167   -3.8499219    1003.8705  0.043936911  0.042927178           24 
 1905000   0.50376264   -3.8578759    1006.1897  0.044015298  0.042902516           15 
 1906000   0.47775282   -3.8467581    1003.7127  0.043883905  0.042877902            7 
 1907000   0.49745574   -3.8575145    1002.1086  0.043790797  0.042853245           10 
 1908000   0.48455585   -3.8509547    1002.7767  0.043797026  0.042828601           26 
 1909000   0.48947286   -3.8392244    1003.1822  0.043791785  0.042803905           17 
 1910000    0.5031612   -3.8498451    999.28283  0.043598727  0.042779173           13 
 1911000   0.48683433    -3.853057     1000.316  0.043620965  0.042754491           15 
 1912000   0.48236646   -3.8579469    1000.2638  0.043595877  0.042729816           11 
 1913000   0.48597132   -3.8549623    1001.7711  0.043638748  0.042705085           17 
 1914000   0.47878688   -3.8446917    1001.6089  0.043608887   0.04268036            9 
 1915000   0.48190399   -3.8495724    1002.1353   0.04360902  0.042655728           11 
 1916000   0.49136655   -3.8743442    1001.7948  0.043571453  0.042631054           17 
 1917000   0.48594864   -3.8690303    1003.9441  0.043642154  0.042606422           14 
 1918000    0.4833113   -3.8654018    1003.4075  0.043596084  0.042581809           24 
 1919000   0.48590776   -3.8647158    1001.8862  0.043507306  0.042557265           20 
 1920000   0.49898973   -3.8675593    1001.7856  0.043480279  0.042532763           15 
 1921000   0.48974702   -3.8637968    1002.9423  0.043507819  0.042508325           10 
 1922000   0.48018965   -3.8536347    1003.7108  0.043518503  0.042483889            9 
 1923000   0.47612193   -3.8657808    1005.3352  0.043566267  0.042459433           13 
 1924000   0.49249346   -3.8607288    1002.9898   0.04344204  0.042434909           20 
 1925000   0.49006781   -3.8544242    1004.0646  0.043465999  0.042410422            8 
 1926000   0.49056032   -3.8575808    1002.7862  0.043388117  0.042385895           15 
 1927000   0.48120855   -3.8543407    1003.9028  0.043413888  0.042361497           11 
 1928000   0.48609374   -3.8685009    1002.9841  0.043351666  0.042337048           22 
 1929000   0.47447599   -3.8519852    1003.7747  0.043363344  0.042312555            8 
 1930000   0.48744221   -3.8856618    1003.4826  0.043328264  0.042288116           11 
 1931000     0.483116   -3.8890783    1004.3369  0.043342694  0.042263681           13 
 1932000   0.49271989   -3.8805236    1003.5864  0.043287887  0.042239175           28 
 1933000    0.4820401   -3.8842151    1004.3414  0.043298044  0.042214674           21 
 1934000   0.48083309   -3.8693198      1001.82  0.043167011  0.042190197           13 
 1935000   0.48588182   -3.8765301     1000.491  0.043087468  0.042165617           38 
 1936000   0.47958053   -3.8686252    1001.9575  0.043128338  0.042141084           13 
 1937000   0.48968713   -3.8665492    1003.1028  0.043155344  0.042116572           27 
 1938000   0.47994788    -3.882931    1002.0148  0.043086293  0.042092096           42 
 1939000   0.47704282   -3.8804149    1004.0117  0.043149891  0.042067607           23 
 1940000   0.48379254   -3.8695153    1002.9639  0.043082642  0.042043234           35 
 1941000   0.46901667   -3.8798445    1002.6063  0.043045092  0.042018889           11 
 1942000   0.47039005   -3.8617585    1003.9605  0.043081037  0.041994542           29 
 1943000   0.46604726    -3.882114    1003.3563   0.04303295  0.041970166           30 
 1944000   0.48338619   -3.8908413    1003.2868  0.043007837  0.041945772           37 
 1945000   0.47418377   -3.8844187    1004.3577  0.043031606  0.041921427           74 
 1946000   0.47063056   -3.8891317    1003.4439  0.042970363  0.041897058           21 
 1947000   0.47688615   -3.8923409    1002.6813  0.042915652  0.041872608           30 
 1948000   0.47235246    -3.889001    1004.2165  0.042959296  0.041848175           60 
 1949000   0.47720798   -3.8857469    1003.2671  0.042896659  0.041823846           51 
 1950000   0.48172106   -3.8815014    1002.1373   0.04282638  0.041799556           50 
 1951000   0.47459381   -3.8620211    1004.8621  0.042920813   0.04177535           16 
 1952000   0.46779504   -3.8958553    1003.7471  0.042851227  0.041751092           15 
 1953000   0.47921888   -3.8723511    1006.4687  0.042945414  0.041726849           13 
 1954000   0.47664395   -3.8843484    1004.4549  0.042837549  0.041702692           20 
 1955000   0.47993395   -3.8886897    1002.2204  0.042720391  0.041678424           15 
 1956000   0.47233267   -3.8794847     1003.907  0.042770408  0.041654219           11 
 1957000   0.47523713   -3.8963105    1002.7491  0.042699248   0.04162999           25 
 1958000    0.4688828   -3.8947059    1004.8075  0.042765046  0.041605778           27 
 1959000   0.46358591   -3.8814191    1004.4329  0.042727281  0.041581605           23 
 1960000   0.46211151   -3.8944558     1002.657  0.042629974   0.04155738           26 
 1961000   0.47133999   -3.8901306    1003.6997  0.042652544  0.041533149           32 
 1962000   0.47611975   -3.8716427    1003.8412  0.042636816  0.041508861           13 
 1963000   0.47608916   -3.8934621    1003.4978  0.042600519  0.041484643           35 
 1964000    0.4736143   -3.8962386    1005.2164   0.04265175  0.041460414           60 
 1965000   0.46994827   -3.9006244    1001.1884  0.042459218  0.041436095           42 
 1966000   0.46509456   -3.8876601    1004.6702  0.042585205  0.041411779           34 
 1967000   0.47211767   -3.9064203    1002.8833  0.042487853  0.041387576           30 
 1968000   0.47917703   -3.8930516    1003.2475  0.042481687  0.041363418           35 
 1969000   0.47375049   -3.9102558    1002.9036  0.042445556   0.04133921           17 
 1970000   0.46423786   -3.8897326    1003.0151  0.042428726  0.041315058           11 
 1971000   0.46327806   -3.8946903    1003.2168  0.042415727   0.04129099           15 
 1972000   0.46366295   -3.9059986    1003.3539  0.042400011  0.041266847           10 
 1973000   0.47207138   -3.9036624    1001.4524   0.04229821  0.041242667           21 
 1974000   0.47021701   -3.9150234    1001.1812  0.042265333  0.041218357           30 
 1975000   0.45913199   -3.9173206     1001.299  0.042248903  0.041194082           28 
 1976000   0.46521378   -3.9103063    999.72003  0.042160933   0.04116986           21 
 1977000   0.46407331   -3.9102871    1002.4053  0.042252793  0.041145608           13 
 1978000   0.47048739   -3.8991385    1002.5102  0.042235853  0.041121389           38 
 1979000   0.46019787   -3.9033072    1004.3468  0.042291847  0.041097222           23 
 1980000   0.46251327   -3.9024199    1002.7369   0.04220273  0.041073065           15 
 1981000   0.44954763   -3.8988425     1002.844  0.042185933   0.04104896           19 
 1982000   0.46310238   -3.9124315      1003.45  0.042190128   0.04102481           29 
 1983000   0.47499047   -3.8986042    1003.8657  0.042186319  0.041000688           29 
 1984000   0.46164736   -3.9019263    1002.3681  0.042102156  0.040976656           47 
 1985000   0.46679212   -3.9136375    1000.5906  0.042006325  0.040952589           27 
 1986000   0.45307839   -3.9082011    1003.7053  0.042115865   0.04092842           30 
 1987000      0.46037   -3.9111852    1004.5166  0.042128693  0.040904351           23 
 1988000   0.45898662   -3.9191931    1001.4376  0.041978437  0.040880249           29 
 1989000   0.46058594   -3.9212558     1001.896  0.041976538  0.040856149           43 
 1990000   0.45420465   -3.9278517    1000.7781  0.041908629  0.040832031           53 
 1991000   0.46118019   -3.9247071    1002.3346   0.04195273  0.040807885           29 
 1992000   0.44980857    -3.910639    1002.5471  0.041940556  0.040783744           16 
 1993000   0.45233582   -3.9267615    1003.1733  0.041945699  0.040759632           33 
 1994000   0.45366612   -3.9402674    1002.3298  0.041889408    0.0407356           12 
 1995000   0.44943868    -3.926165    1002.3381  0.041868759  0.040711501           24 
 1996000   0.46811277    -3.924783    1003.1788  0.041882883  0.040687427           45 
 1997000   0.45600232   -3.9200546    1001.1323  0.041776509  0.040663445           42 
 1998000   0.44829564   -3.9252664     1000.252  0.041718886  0.040639357           16 
 1999000   0.45597455   -3.9418601    1001.3331  0.041743084  0.040615316           19 
 2000000   0.44658519   -3.9103668    1000.3114  0.041679643  0.040591351           17 
 2001000   0.46305872   -3.9317479    1000.4694  0.041665394  0.040567389           23 
 2002000   0.45902241   -3.9333142    1002.6141  0.041733853  0.040543419           10 
 2003000   0.45209784   -3.9383012    1003.6215  0.041754928  0.040519537           17 
 2004000   0.44615396   -3.9144164    1003.7254  0.041738416  0.040495702           17 
 2005000   0.44618491   -3.9343081    1002.8617  0.041681701   0.04047189           10 
 2006000    0.4594477   -3.9428454    1001.2676  0.041594698  0.040448008           44 
 2007000   0.45545249   -3.9357847    999.75139  0.041511019  0.040424126           22 
 2008000   0.46409591   -3.9385287     1002.163  0.041590431  0.040400172           22 
 2009000   0.45041893   -3.9292239    1002.7145  0.041592604   0.04037631           40 
 2010000   0.44461424   -3.9321313    1002.9057  0.041579837  0.040352479           30 
 2011000   0.43996849   -3.9299988    1002.8223  0.041555707   0.04032868           31 
 2012000   0.45316481   -3.9474657    1002.7966  0.041533986  0.040304869           56 
Loop time of 4891.22 on 48 procs for 2000000 steps with 4000 atoms

Performance: 70657.238 tau/day, 408.896 timesteps/s
99.4% CPU use with 48 MPI tasks x no OpenMP threads

MPI task timing breakdown:
Section |  min time  |  avg time  |  max time  |%varavg| %total
---------------------------------------------------------------
Pair    | 318.19     | 336.13     | 358.21     |  53.9 |  6.87
Neigh   | 32.843     | 34.143     | 35.547     |  12.1 |  0.70
Comm    | 305.08     | 331.02     | 353.17     |  58.9 |  6.77
Output  | 4.18       | 4.1821     | 4.2214     |   0.3 |  0.09
Modify  | 4132.4     | 4141.6     | 4153.6     |   7.4 | 84.67
Other   |            | 44.18      |            |       |  0.90

Nlocal:        83.3333 ave          90 max          77 min
Histogram: 3 2 3 9 7 6 14 2 1 1
Nghost:        2201.38 ave        2226 max        2182 min
Histogram: 2 5 5 8 9 7 8 1 2 1
Neighs:        14669.5 ave       16538 max       13286 min
Histogram: 2 6 6 5 12 10 3 1 2 1
FullNghs:      29339.5 ave       31996 max       26857 min
Histogram: 3 2 3 8 8 8 8 6 0 2

Total # of neighbors = 1408297
Ave neighs/atom = 352.07425
Neighbor list builds = 108452
Dangerous builds = 2

#clear
#
#next RN
#
#jump SELF
Total wall time: 1:21:34
