
units lj                  # Use reduced LJ style units
atom_style atomic         # Uncharged point particles
atom_modify map hash      # Needed for indexing of clusters etc
                          # Used to be able to find where atoms are in relation to each other.

lattice fcc 1.0 spacing 1 1 1
Lattice spacing in x,y,z = 1.5874011 1.5874011 1.5874011
region box block 0 10 0 10 0 10 units lattice
create_box 2 box
Created orthogonal box = (0.0000000 0.0000000 0.0000000) to (15.874011 15.874011 15.874011)
  3 by 4 by 4 MPI processor grid
create_atoms 1 box
Created 4000 atoms
  using lattice units in orthogonal box = (0.0000000 0.0000000 0.0000000) to (15.874011 15.874011 15.874011)
  create_atoms CPU = 0.003 seconds
set type 1 type/fraction 2 0.61 78393
Setting atom values ...
  2454 settings made for type/fraction
mass 1 1.0
mass 2 1.0
pair_style lj/cut  3.5
pair_modify tail  yes
pair_coeff 1  1  1.0  1.0   # Intearaction between 1 and 1 set with epsilon = 1 and sigma = 1
pair_coeff 1  2  1.5  0.8
pair_coeff 2  2  0.5  0.88

write_data data.0
System init for write_data ...
Neighbor list info ...
  update every 1 steps, delay 10 steps, check yes
  max neighbors/atom: 2000, page size: 100000
  master list distance cutoff = 3.8
  ghost atom cutoff = 3.8
  binsize = 1.9, bins = 9 9 9
  1 neighbor lists, perpetual/occasional/extra = 1 0 0
  (1) pair lj/cut, perpetual
      attributes: half, newton on
      pair build: half/bin/atomonly/newton
      stencil: half/bin/3d
      bin: standard
WARNING: Not all mixed pair coeffs generated from mixing. Use write_data with 'pair ij' option to store all pair coeffs. (../write_data.cpp:312)


#############################
#   M E L T   S Y S T E M   #
#############################

velocity all create 2.4 5833274 mom yes dist gaussian # Assign velocities
                                                    # Temperature 2.4, random number seed, zero linear momentum
                                                                                # Gaussian distribution

timestep 0.002   # simulation timestep
thermo 1000       # output thermodynamic data every 1000 steps bf 100

# Define a fix  in this case with index 1 applied to all
# particles in the simulation. This fix is for simulations
# in the anisotropic NPT ensemble. Note that we use the MTK
# correction.
fix 1 all npt temp 2.4 2.4 0.1 iso 5.68 5.68 0.5 mtk yes tchain 5 pchain 5 # Use NPT ensemble
                                                                         # Set temperature and pressure and damping
                                                                         # Numbers of thermostats in chain and in barostat
run 10000          # run for 10000 steps
Per MPI rank memory allocation (min/avg/max) = 3.642 | 3.644 | 3.648 Mbytes
Step Temp E_pair E_mol TotEng Press Volume 
       0          2.4   -4.6675525            0   -1.0684525   -4.0420614         4000 
    1000    2.4033814   -4.4093482            0  -0.80517733    5.6522998    3618.7834 
    2000    2.3957816   -4.3346039            0  -0.74182983    5.7257336    3644.7464 
    3000    2.3810777   -4.3681928            0   -0.7974691     5.621986    3628.4124 
    4000    2.4386477   -4.4041217            0  -0.74706465    5.9816566    3603.5092 
    5000    2.4423318   -4.4328223            0  -0.77024047    6.0972061    3573.1597 
    6000    2.4078846   -4.4151164            0  -0.80419242    5.7870253    3595.2093 
    7000    2.3858504   -4.4239237            0  -0.84604275    5.5727208    3616.1075 
    8000    2.3424534   -4.4133852            0  -0.90058357    5.7174349     3612.489 
    9000    2.3714283   -4.4031049            0   -0.8468517    5.8802984     3602.364 
   10000    2.4150695   -4.3849542            0  -0.76325564    6.0044652    3607.2964 
Loop time of 2.75366 on 48 procs for 10000 steps with 4000 atoms

Performance: 627527.558 tau/day, 3631.525 timesteps/s
99.5% CPU use with 48 MPI tasks x no OpenMP threads

MPI task timing breakdown:
Section |  min time  |  avg time  |  max time  |%varavg| %total
---------------------------------------------------------------
Pair    | 1.2286     | 1.2706     | 1.3479     |   2.2 | 46.14
Neigh   | 0.2186     | 0.22404    | 0.23418    |   0.7 |  8.14
Comm    | 0.77806    | 0.87736    | 0.9344     |   3.3 | 31.86
Output  | 0.00024302 | 0.00025077 | 0.00040809 |   0.0 |  0.01
Modify  | 0.31387    | 0.36596    | 0.39776    |   2.6 | 13.29
Other   |            | 0.01548    |            |       |  0.56

Nlocal:        83.3333 ave          94 max          74 min
Histogram: 2 2 5 9 7 8 5 5 4 1
Nghost:        1752.96 ave        1787 max        1716 min
Histogram: 2 2 4 6 9 5 9 6 3 2
Neighs:        10592.9 ave       12103 max        9168 min
Histogram: 3 3 3 11 5 9 4 3 4 3

Total # of neighbors = 508457
Ave neighs/atom = 127.11425
Neighbor list builds = 909
Dangerous builds = 219

# Equilibrate just above the melting temperature to avoid step fn in T

fix 1 all npt temp 1.25 1.25 0.1 iso 5.68 5.68 0.5 mtk yes tchain 5 pchain 5
run 2000
Per MPI rank memory allocation (min/avg/max) = 3.644 | 3.646 | 3.650 Mbytes
Step Temp E_pair E_mol TotEng Press Volume 
   10000    2.4150695   -4.3849542            0  -0.76325564    6.0044652    3607.2964 
   11000    1.2316323   -6.3960943            0   -4.5491078    5.7105743     2782.119 
   12000    1.2446227   -6.5115453            0   -4.6450779    5.5725077     2759.267 
Loop time of 0.646881 on 48 procs for 2000 steps with 4000 atoms

Performance: 534256.212 tau/day, 3091.760 timesteps/s
99.7% CPU use with 48 MPI tasks x no OpenMP threads

MPI task timing breakdown:
Section |  min time  |  avg time  |  max time  |%varavg| %total
---------------------------------------------------------------
Pair    | 0.29916    | 0.32176    | 0.35305    |   2.3 | 49.74
Neigh   | 0.041298   | 0.04367    | 0.048258   |   0.7 |  6.75
Comm    | 0.19735    | 0.23474    | 0.26022    |   3.1 | 36.29
Output  | 5.211e-05  | 5.3429e-05 | 6.7883e-05 |   0.0 |  0.01
Modify  | 0.039397   | 0.042011   | 0.044772   |   0.8 |  6.49
Other   |            | 0.004645   |            |       |  0.72

Nlocal:        83.3333 ave          91 max          75 min
Histogram: 2 3 1 8 3 13 11 3 2 2
Nghost:        2113.46 ave        2141 max        2091 min
Histogram: 3 2 4 11 13 4 5 1 4 1
Neighs:        13835.2 ave       15287 max       11863 min
Histogram: 2 0 3 6 5 10 9 4 3 6

Total # of neighbors = 664090
Ave neighs/atom = 166.02250
Neighbor list builds = 144
Dangerous builds = 16

#############################
# L I N E A R  Q U E N C H  #
#############################

# Define solid atoms. This closely follows ten Wolde  Ruiz-Montero and Frenkel  Faraday Discuss  1996  104  93-110
# Compute components of the per-atom q6 vector
compute q6 all orientorder/atom degrees 1 6 components 6 nnn NULL cutoff 1.3 # compute the Q6 parameter.
                                                                             # Use all neighbours within 1.3 unit cell.

# get number of connections
compute coord_number all coord/atom orientorder q6 0.5

# An atom is solid if it has 8 or more connections (of a possible 14)
variable is_solid atom c_coord_number>=8
group solid dynamic all var is_solid    # Must be dynamic to update
dynamic group solid defined

# do clustering
compute cluster solid cluster/atom 1.3 # Create a cluster where all atoms within are solid and max 1.3 units from another member

# define chunks one chunk per cluster
compute clus_chunks solid chunk/atom c_cluster nchunk every compress yes  # Says which atoms are in which chunk

# count the size of each chunk
compute size_chunks solid property/chunk clus_chunks count


# Find the maximum entry in the vector of chunk sizes
variable max_n equal max(c_size_chunks)


# Thermo style which includes this variable
# thermo_style custom step temp pe vol v_max_n

thermo ${N}  # Print the thermo information every 100 steps
thermo 1000  

# Reset the npt fix at a lower temperature (below freezing)
fix 1  all npt temp  ${temp} ${temp}  0.1  iso  5.68  5.68  0.5  mtk yes tchain  5  pchain  5
fix 1  all npt temp  0.45 ${temp}  0.1  iso  5.68  5.68  0.5  mtk yes tchain  5  pchain  5
fix 1  all npt temp  0.45 0.45  0.1  iso  5.68  5.68  0.5  mtk yes tchain  5  pchain  5

dump dmp2 all dcd ${N} traj.dcd
dump dmp2 all dcd 1000 traj.dcd


compute msd all msd com yes
variable twopoint equal c_msd[4]/6/(step*dt+1.0e-6)
fix 9 all vector 10 c_msd[4]
variable fit equal slope(f_9)/6/(10*dt)
thermo_style custom step temp pe c_msd[4] v_twopoint v_fit v_max_n

fix 1 all npt temp 1.25 ${temp} 0.1 iso 5.68 5.68 0.5 mtk yes tchain 5 pchain 5
fix 1 all npt temp 1.25 0.45 0.1 iso 5.68 5.68 0.5 mtk yes tchain 5 pchain 5
run 500000 # 5000000  # Run for this many steps
Neighbor list info ...
  update every 1 steps, delay 10 steps, check yes
  max neighbors/atom: 2000, page size: 100000
  master list distance cutoff = 3.8
  ghost atom cutoff = 3.8
  binsize = 1.9, bins = 8 8 8
  4 neighbor lists, perpetual/occasional/extra = 1 3 0
  (1) pair lj/cut, perpetual
      attributes: half, newton on
      pair build: half/bin/atomonly/newton
      stencil: half/bin/3d
      bin: standard
  (2) compute orientorder/atom, occasional
      attributes: full, newton on
      pair build: full/bin/atomonly
      stencil: full/bin/3d
      bin: standard
  (3) compute coord/atom, occasional
      attributes: full, newton on
      pair build: full/bin/atomonly
      stencil: full/bin/3d
      bin: standard
  (4) compute cluster/atom, occasional
      attributes: full, newton on
      pair build: full/bin/atomonly
      stencil: full/bin/3d
      bin: standard
Per MPI rank memory allocation (min/avg/max) = 9.847 | 9.851 | 9.857 Mbytes
Step Temp PotEng c_msd[4] v_twopoint v_fit v_max_n 
   12000    1.2446227   -6.5115453 1.0389298e-30 7.2147901e-33 8.3333333e+20            2 
   13000    1.2476882    -6.596991   0.47960511 0.0030743916  0.040132863            2 
   14000    1.2143621   -6.5248373   0.94116387 0.0056021657  0.038023219            1 
   15000    1.2276824   -6.5749628    1.3890495 0.0077169412  0.037704641            1 
   16000    1.2348552   -6.6159144    1.7846199  0.009294895  0.037098393            1 
   17000    1.2311771   -6.5853172    2.2226258  0.010895224  0.036444213            2 
   18000    1.2429853   -6.5779369    2.6673883   0.01234902  0.036372832            2 
   19000    1.2351432   -6.5576345    3.0732035  0.013478962  0.036155242            2 
   20000    1.2096358   -6.6025912    3.5164166  0.014651736  0.036009307            1 
   21000    1.2533275    -6.590288    3.9281165  0.015587764  0.035950745            2 
   22000    1.2147542   -6.6270148    4.3400535  0.016439596  0.035755941            2 
   23000    1.2237553   -6.6073173    4.7050383   0.01704724  0.035541711            4 
   24000    1.2391771   -6.5868857    5.0273939  0.017456229  0.035071943            2 
   25000    1.2067558   -6.6290809    5.3887961  0.017962653  0.034650212            3 
   26000    1.2612443   -6.5921553    5.8445353  0.018732485  0.034350995            3 
   27000    1.2208824   -6.5617838    6.2879415  0.019407227  0.034236501            3 
   28000     1.207295   -6.5745171    6.6445061  0.019775316  0.034143838            1 
   29000     1.231195   -6.6439948    7.0879659  0.020367718   0.03402452            1 
   30000    1.2252712   -6.6379993     7.475999  0.020766663  0.033968415            1 
   31000    1.2318633   -6.6289005    7.9208176   0.02129252  0.033953707            3 
   32000    1.2196737   -6.6198994    8.3901542  0.021849359  0.034010057            3 
   33000    1.1978476   -6.6218047    8.8020955  0.022227514  0.034108508            2 
   34000    1.2227952   -6.6136387    9.1771502  0.022493015  0.034146159            5 
   35000    1.2336724   -6.6587226    9.6249974   0.02291666  0.034184519            2 
   36000    1.2469671   -6.6692234    9.9483364  0.023028556  0.034215087            4 
   37000    1.2075756   -6.6211872    10.322243  0.023248294  0.034157555            2 
   38000    1.1912977   -6.6622386    10.732363  0.023535884  0.034109592            3 
   39000    1.1784856   -6.6879331    11.150588  0.023826043  0.034071002            2 
   40000    1.2119148   -6.6622849    11.574609  0.024113768  0.034041117            2 
   41000    1.2258758   -6.6649915     11.91463  0.024216727  0.034001497            1 
   42000    1.1845394   -6.7358404    12.369705  0.024543065  0.033963699            3 
   43000    1.2231048   -6.6502419    12.745102   0.02469981  0.033954813            3 
   44000    1.2059962   -6.7121702    13.194595  0.024989763  0.033930615            2 
   45000     1.175427   -6.7020977    13.529003  0.025053709  0.033924117            2 
   46000    1.2122065   -6.7190661    13.937085  0.025248342  0.033897206            2 
   47000    1.1587371   -6.7032403    14.308396  0.025369496  0.033849877            2 
   48000    1.2004063   -6.7082182    14.778137  0.025656487   0.03383677            2 
   49000    1.1895499   -6.6564147    15.254123  0.025942386  0.033838093            4 
   50000    1.1905464   -6.6829127     15.56735  0.025945584  0.033843507            4 
   51000    1.1744363   -6.6716345    15.858503  0.025912587  0.033802984            2 
   52000    1.1823396   -6.7356086    16.244623  0.026033049  0.033751849            2 
   53000    1.1838436   -6.6783085    16.809983   0.02643079  0.033730427            4 
   54000    1.1788103    -6.723643    17.220328   0.02657458  0.033721923            4 
   55000    1.1834756    -6.715621    17.594977  0.026659056  0.033725248            3 
   56000    1.1875842   -6.7104899    17.951033  0.026712846  0.033729223            3 
   57000    1.1732929   -6.7236867    18.346152   0.02682186  0.033711289            4 
   58000     1.132349   -6.7264031    18.704676  0.026874534  0.033688161            3 
   59000    1.1814435   -6.7613001    18.982696  0.026811717  0.033650864            3 
   60000    1.1676545   -6.7507532    19.325082  0.026840391  0.033605189            2 
   61000    1.1578599   -6.7083446    19.780148   0.02702206  0.033556358            2 
   62000    1.1922122   -6.8098051    20.164937   0.02710341  0.033509247            1 
   63000    1.2102974   -6.7416768    20.506414  0.027124887  0.033462252            4 
   64000    1.1997375   -6.7515787    20.783325   0.02706162  0.033410908            6 
   65000    1.1878087    -6.746298    21.056042  0.026994926  0.033343135            2 
   66000    1.1661331   -6.7643579    21.416652  0.027041228  0.033270094            4 
   67000    1.1831596   -6.7869931     21.74522  0.027046294   0.03318665            3 
   68000    1.1571129   -6.7320377    22.163716  0.027161416    0.0331118            2 
   69000    1.1724649   -6.7683767    22.399253  0.027052237  0.033033424            4 
   70000    1.1583438    -6.779653    22.698206  0.027021674  0.032944554            2 
   71000    1.1534958   -6.7448505    23.054604  0.027059394  0.032853726            2 
   72000    1.1754502   -6.8179437    23.267549  0.026930034   0.03276194            4 
   73000    1.1794215   -6.7470948    23.592091   0.02693161  0.032662975            2 
   74000    1.1422298   -6.7666872    23.809099  0.026812048  0.032558659            4 
   75000    1.1203582   -6.7991138    24.056766   0.02672974  0.032443398            4 
   76000    1.1723866   -6.8037237    24.447773  0.026806769  0.032329945            2 
   77000    1.1459157    -6.808585    24.739825  0.026774702  0.032218253            3 
   78000    1.1271144   -6.8070521    24.909922  0.026613165  0.032098718            2 
   79000    1.1546027   -6.8610822    25.321677   0.02671063  0.031980005            2 
   80000    1.1474056   -6.8267514     25.55441  0.026619177  0.031870254            1 
   81000    1.1300916   -6.8378665    25.820639  0.026564443  0.031748259            3 
   82000    1.1271373   -6.8600998    26.119595  0.026544304  0.031628476            3 
   83000     1.157709   -6.8588499    26.383323   0.02648928  0.031513006            1 
   84000    1.1393172   -6.8669322     26.64977  0.026438264   0.03140017            4 
   85000    1.1505664   -6.8434289    26.950302  0.026421865  0.031281573            2 
   86000    1.1237431   -6.8415712     27.24937  0.026404428  0.031167431            1 
   87000    1.1154948   -6.8177462    27.725335  0.026556834  0.031060448            5 
   88000     1.137106   -6.8205012    27.906787  0.026426882  0.030953289            4 
   89000    1.1275258   -6.8631722    28.086253   0.02629799  0.030841205            2 
   90000    1.1400921   -6.8434954    28.389095  0.026286199  0.030727577            3 
   91000    1.1187793   -6.8475376    28.564833  0.026158272  0.030616202            2 
   92000    1.1268269   -6.8841202    28.774614  0.026063962  0.030500667            4 
   93000    1.1250257   -6.9091395    29.116052  0.026089652   0.03038393            5 
   94000    1.1153663    -6.875966    29.460223  0.026117219  0.030272506            2 
   95000    1.1060698   -6.9193711    29.811773  0.026150678  0.030168071            2 
   96000    1.0864893   -6.9309069    30.093854  0.026123137  0.030066051            3 
   97000    1.1133781   -6.8863863    30.416479  0.026130996  0.029967602            3 
   98000    1.1279387   -6.8651767    30.638271  0.026052952  0.029868965            3 
   99000    1.0987313   -6.9014166    30.737828  0.025873593  0.029759831            2 
  100000    1.1065412   -6.8607455    30.970875  0.025809063  0.029646042            3 
  101000    1.1124661   -6.8491987     31.38671  0.025896625  0.029539422            5 
  102000    1.1083252   -6.9149898    31.491687  0.025728503  0.029436559            5 
  103000    1.1137978   -6.9218988    31.749745  0.025687496  0.029335126            3 
  104000    1.1119673   -6.9197798    32.067016  0.025694724  0.029233566            3 
  105000    1.1120033   -6.9680054    32.402977  0.025716648  0.029130542            4 
  106000    1.1045576   -6.9949307    32.405699  0.025476178  0.029028423            2 
  107000    1.0702788   -7.0115715     32.57293  0.025368326  0.028921088            4 
  108000    1.1069775   -6.9209926    32.969765  0.025439633  0.028815556            2 
  109000    1.1086035    -6.963554     33.19953  0.025381904  0.028713058            2 
  110000    1.1033759   -6.9377397    33.608353  0.025460874    0.0286163            3 
  111000    1.0931338   -6.9737324    33.841831   0.02540678  0.028525451            3 
  112000    1.0699656   -6.9890625    33.813415  0.025158791    0.0284257            2 
  113000    1.0794208   -7.0155324    34.027891  0.025094315  0.028320836            6 
  114000    1.1184392   -6.9162504    34.529663  0.025240982  0.028222862            4 
  115000    1.0815475   -6.9905371    34.721224  0.025160307  0.028130082            4 
  116000    1.0645987   -6.9616337    34.909454   0.02507863   0.02803889            3 
  117000    1.0744881   -7.0486625    35.020476  0.024943359  0.027942635            3 
  118000    1.0871478   -7.0066992    35.421582  0.025015242   0.02784872            3 
  119000    1.0539809   -7.0004382    35.632257  0.024952561   0.02775684            4 
  120000    1.0475402   -7.0075241    35.827541  0.024880237  0.027666763            4 
  121000    1.0911492   -7.0224432    36.137194  0.024887874  0.027578719            1 
  122000    1.0619758   -7.0010686     36.25947  0.024767398  0.027490549            2 
  123000     1.080581   -7.0020588    36.562352  0.024771241   0.02740431            2 
  124000    1.0825869   -7.0315605    36.746307  0.024695098  0.027317258            3 
  125000    1.0841718   -6.9970232    36.959487  0.024639658  0.027231616            3 
  126000     1.057503   -7.0081615    37.339686   0.02469556  0.027146235            4 
  127000    1.0493025   -7.0310532    37.452225  0.024574951  0.027061659            3 
  128000    1.0849731   -7.0767088    37.676312  0.024528849  0.026976914            5 
  129000     1.081848   -7.0638152    37.965104  0.024525261  0.026893702            7 
  130000    1.0862155   -7.0111483    38.391905  0.024610196  0.026813695            5 
  131000    1.0426312   -7.0152229    38.586905  0.024546377  0.026738533            7 
  132000    1.0681036   -7.0417881    38.806323  0.024498941  0.026662864            7 
  133000     1.050211   -7.0871188    38.950205   0.02440489  0.026585425            2 
  134000    1.0409593   -7.0440385    39.114737  0.024325085  0.026504448            2 
  135000     1.060103   -7.0354345    39.335793  0.024281354  0.026424913            4 
  136000    1.0368363   -7.0477283    39.656299  0.024299203  0.026347497            3 
  137000     1.064175   -7.0469991    39.753725  0.024181098  0.026269456            7 
  138000    1.0497058   -7.0650616    39.920184  0.024106391  0.026192854            1 
  139000    1.0538758   -7.0855489    40.124156  0.024055249  0.026115613            2 
  140000    1.0500581   -7.0769323     40.49192  0.024102333  0.026041729            4 
  141000    1.0365155   -7.0305179    40.784187  0.024104129  0.025970559            3 
  142000    1.0490828   -7.1159385    40.749465  0.023914005  0.025897889            2 
  143000    1.0536049   -7.1098083    41.107813  0.023955602  0.025825758            3 
  144000    1.0332539    -7.084085    41.276779  0.023887025  0.025750597            2 
  145000    1.0413833   -7.0905668      41.5705  0.023891092   0.02567522            2 
  146000    1.0466146   -7.1013945    41.538498  0.023709188  0.025600437            2 
  147000    1.0177767   -7.1259656    41.959841  0.023786758  0.025528866            7 
  148000    1.0058081   -7.1372606    41.923207  0.023605409  0.025456151            4 
  149000    1.0352435   -7.0966231    42.186831  0.023594424  0.025383931            3 
  150000    1.0541429   -7.0960779    42.576253  0.023653474  0.025311358            2 
  151000    1.0504794   -7.1203867     42.72333  0.023577997  0.025237852            4 
  152000    1.0403498   -7.1084776    42.993444  0.023570967  0.025167974            2 
  153000    1.0182192   -7.1411149    43.141095  0.023497328  0.025100767            3 
  154000    1.0297568   -7.1086744    43.588639  0.023586926   0.02503466            3 
  155000    1.0273089   -7.1727435    43.674542  0.023480937  0.024968274            5 
  156000    1.0231646   -7.2102839    43.511178  0.023243151  0.024901475            5 
  157000    1.0186934   -7.1894191      44.0009  0.023355042  0.024834902            5 
  158000    1.0192329   -7.2108689     44.18452  0.023304072  0.024771202            2 
  159000    1.0235514    -7.204545    44.320277  0.023228657  0.024704253            2 
  160000     1.020386   -7.1766145    44.469416  0.023161154  0.024639001            6 
  161000    1.0111922   -7.1893982    44.493844   0.02302994  0.024574041            2 
  162000    1.0023735    -7.180777     44.73306  0.023010833  0.024506074            9 
  163000    1.0309288   -7.2219973    44.941989  0.022976477  0.024438585            7 
  164000   0.99676147   -7.2373347    45.081754  0.022907395  0.024370479            5 
  165000   0.99867809   -7.2181632    45.162657  0.022809423  0.024302018            2 
  166000    1.0009758   -7.2169861    45.621089  0.022902153  0.024234085            2 
  167000    1.0090157   -7.2275962    45.544148  0.022726621  0.024168833            4 
  168000   0.98948385   -7.1902542    45.804777  0.022720623   0.02410199            3 
  169000   0.98923632   -7.1844104    46.088076  0.022725876   0.02403616            3 
  170000   0.96061256   -7.2561083    46.171619  0.022633146  0.023968439            5 
  171000   0.98575979   -7.2376773    46.233256  0.022530827  0.023899246            7 
  172000     1.012197   -7.2049619     46.41235  0.022486604  0.023831406            3 
  173000    1.0067952   -7.2320727    46.398797  0.022350095  0.023761929            4 
  174000   0.97430362   -7.2647591    46.721895  0.022376386  0.023693113            5 
  175000   0.99855065   -7.3012273    46.830949  0.022300452    0.0236233            6 
  176000   0.98763505   -7.2580393    47.072278   0.02228801  0.023554791            4 
  177000   0.97311702   -7.2590624    47.196007  0.022220342   0.02348476            6 
  178000    1.0084661   -7.2448546     47.32063  0.022153853  0.023415055            4 
  179000   0.99883933   -7.2672584    47.320212  0.022029894  0.023345066            6 
  180000   0.97274109    -7.269879    47.404964  0.021946743  0.023272696            6 
  181000   0.94799074   -7.3072788    47.406516  0.021826204  0.023200235            3 
  182000   0.97932469   -7.2892891    47.555152  0.021774337  0.023127392            6 
  183000    0.9756558   -7.2819794    47.822176  0.021776947  0.023055342           10 
  184000    0.9493675   -7.3273497    47.917995   0.02170199  0.022982237            9 
  185000   0.97953236   -7.2856389    48.233064  0.021726606  0.022911377            4 
  186000   0.96637965   -7.3104325     48.13569  0.021566169   0.02283998           11 
  187000   0.95026486   -7.3145763    48.146954  0.021455862  0.022766771            8 
  188000   0.98233618   -7.2822732    48.384104  0.021446855  0.022693124            4 
  189000   0.98613747   -7.2898329    48.284553  0.021289485  0.022619998            6 
  190000   0.98171647   -7.3310426    48.553779  0.021295517  0.022545655            3 
  191000   0.97517985   -7.2719384    48.908966   0.02133899  0.022473533            6 
  192000   0.96695157   -7.3171632    48.928762  0.021236442  0.022402181            2 
  193000   0.94689602   -7.3186601    48.927267  0.021125763  0.022330087            5 
  194000   0.96939334   -7.3837625    48.993818  0.021045454  0.022258271            9 
  195000   0.95174622   -7.3458439    49.210326  0.021030054  0.022187055            6 
  196000   0.95602664   -7.3505092     49.46145  0.021029528  0.022117654            3 
  197000   0.97080136   -7.3848819    49.252732  0.020834489  0.022048227            4 
  198000   0.96418979   -7.4007886      49.6127  0.020880766  0.021977539            6 
  199000   0.94873479   -7.3455462    50.003784  0.020939608  0.021908646            5 
  200000   0.92410539   -7.3685109    49.865875  0.020777448  0.021840214            7 
  201000   0.94003346   -7.3296977    50.366158  0.020881492  0.021771659            3 
  202000   0.96071924   -7.3932745     50.21196  0.020714505   0.02170414            7 
  203000   0.97073104   -7.3854844    50.280383  0.020640551  0.021637864            7 
  204000   0.93556469   -7.3548684    50.638222  0.020685548   0.02157166            3 
  205000   0.94203516   -7.3691612    50.534423  0.020542448  0.021504857            7 
  206000   0.93088418   -7.3692735    50.727957  0.020521018  0.021437083            9 
  207000   0.97171398   -7.3872768    50.732258  0.020423614  0.021369509            3 
  208000   0.94414639   -7.4019013    50.719782  0.020320425  0.021301288           12 
  209000   0.93606636   -7.4002951    50.804797  0.020257096   0.02123287            9 
  210000   0.93613456   -7.4171402    50.996102  0.020236548  0.021164268            6 
  211000   0.91703677   -7.4206759    50.966872  0.020129096  0.021095454           10 
  212000   0.92311934   -7.4125298    51.131115  0.020098709  0.021026211            5 
  213000   0.93857829   -7.4422082    51.219169  0.020038799  0.020957544           15 
  214000    0.9161037   -7.4467921    51.420488  0.020023555  0.020889199            5 
  215000   0.95640916   -7.4477458    51.351812  0.019903803  0.020820001            3 
  216000   0.92120581   -7.4242986    51.615649  0.019913445  0.020752242            6 
  217000   0.90972475   -7.4702182    51.496836  0.019776051  0.020684295            5 
  218000   0.92523191   -7.4423748    51.617726  0.019731546  0.020615668            7 
  219000   0.91768304   -7.4825117    51.737398  0.019686985  0.020547393           14 
  220000   0.90550911   -7.4653975    51.799465   0.01962101  0.020478234            6 
  221000   0.92443074    -7.496359    51.795013  0.019530548  0.020408998            4 
  222000   0.91598897   -7.4750458     51.99087  0.019516092   0.02034042            9 
  223000   0.92640394   -7.4688298    51.920649  0.019402335  0.020272807            6 
  224000   0.91668376   -7.4890134    52.075673   0.01937339  0.020204902            6 
  225000   0.89100562   -7.5195545    52.057965  0.019280728   0.02013665            8 
  226000   0.91678979   -7.4910927    52.125133  0.019220182  0.020067903            7 
  227000   0.91581738   -7.4880795    52.279937  0.019192341  0.019998921            6 
  228000   0.90663045    -7.518668     52.27961  0.019108045  0.019929763           15 
  229000   0.90489496   -7.5296609    52.394105  0.019066268  0.019861647            4 
  230000   0.89573422   -7.4904315    52.681336   0.01908744  0.019793326            5 
  231000   0.89005416   -7.4916482    52.580393  0.018968396  0.019725801           11 
  232000   0.87316798   -7.5115659     52.59323  0.018891246  0.019658557            4 
  233000   0.90887138   -7.5699761    52.637113  0.018825863  0.019591047            7 
  234000   0.90091375   -7.5206298    52.856703  0.018823612  0.019523595            9 
  235000   0.88945846    -7.516619     52.95913  0.018779833  0.019455796            5 
  236000   0.90017947    -7.525058    52.930936  0.018690302  0.019388584            8 
  237000   0.87936672   -7.5397676    52.991195  0.018632628  0.019321356            8 
  238000   0.86987544   -7.5473707    52.823027  0.018495457  0.019253233            4 
  239000   0.87430464    -7.573905    52.835128   0.01842229  0.019184594            8 
  240000   0.90081998   -7.5389423    53.140471  0.018451552  0.019116052            8 
  241000   0.89518434   -7.5420158    53.103651  0.018362258  0.019047537            7 
  242000   0.87936747   -7.5854035    53.104369  0.018286628  0.018979185            9 
  243000    0.8780509   -7.5977833    53.148914  0.018226651  0.018911138           13 
  244000   0.88792266   -7.5595902    53.479005  0.018264687  0.018844204            6 
  245000   0.91032515   -7.6221078    53.207099  0.018097653  0.018777206            7 
  246000   0.88126337   -7.5477742    53.507587  0.018125876  0.018710457            4 
  247000   0.86406339   -7.6032428     53.53175  0.018060644  0.018644007           10 
  248000   0.86685225   -7.6142844    53.521329  0.017984317   0.01857753            8 
  249000   0.87315933    -7.630251    53.566001  0.017927042  0.018511009           11 
  250000    0.8826217   -7.6627776    53.564716  0.017854905  0.018444667            8 
  251000   0.86816117   -7.5921884    53.688066  0.017824723  0.018378764            4 
  252000   0.88843226   -7.6473841    53.694679  0.017756177  0.018312727            7 
  253000   0.85846566   -7.6596376    53.738662  0.017700482  0.018246821           16 
  254000   0.85758614   -7.6412102    53.888485  0.017679949  0.018181045            8 
  255000   0.86185616   -7.6621036    53.797143  0.017580766  0.018115852           14 
  256000   0.84975124   -7.6652855    54.000029  0.017578134   0.01805124            7 
  257000   0.85137629   -7.6394797    54.109944  0.017545377  0.017986949           14 
  258000   0.85529359   -7.6753155    53.912647  0.017413646  0.017922303            8 
  259000   0.85379657   -7.6453995    54.114837  0.017411466  0.017857301            5 
  260000   0.83455209   -7.7011993    54.138961  0.017352231  0.017792944           12 
  261000   0.86307292    -7.739431    53.910403  0.017212772  0.017728352           19 
  262000   0.85590456   -7.6787333    54.078456  0.017200527  0.017663418           20 
  263000   0.85984285   -7.7051309    54.123768  0.017149483  0.017598702           23 
  264000   0.85244975   -7.6906059    54.057946  0.017063746  0.017533398           13 
  265000   0.86164225   -7.7072793    54.186416  0.017039754   0.01746924           18 
  266000    0.8426979   -7.6861395    54.229942   0.01698933  0.017405167           12 
  267000   0.85008524    -7.715601    54.318786  0.016953429  0.017341279           19 
  268000   0.83679673   -7.7527705    54.368071  0.016905495   0.01727803           15 
  269000   0.85698582   -7.7291227    54.335911  0.016832686  0.017215425           17 
  270000   0.84146969   -7.7587153    54.329028  0.016768219  0.017152963           13 
  271000   0.86236387   -7.7305694    54.493763     0.016757  0.017090187           26 
  272000   0.82877272   -7.7263771       54.485  0.016692708  0.017027377           25 
  273000   0.83538735   -7.7691392     54.39129  0.016602958   0.01696481           19 
  274000   0.82117812   -7.7519502    54.710556  0.016639463  0.016902752           17 
  275000   0.82644316   -7.7753692    54.606153  0.016547319  0.016840979            6 
  276000   0.83461027   -7.7369773    54.714574  0.016520101  0.016779428           10 
  277000   0.84051681   -7.7759934    54.708402  0.016458605  0.016718097            8 
  278000   0.81003541   -7.7460648    54.799835  0.016426809  0.016657543           14 
  279000   0.82083007   -7.7887913    54.853692  0.016384018  0.016596909           16 
  280000   0.83961909   -7.7768316    54.843238  0.016322392  0.016537027           10 
  281000   0.80636084   -7.7620456     54.98892  0.016307509  0.016476754           32 
  282000   0.81888423   -7.7992269    54.975414   0.01624569   0.01641697           12 
  283000    0.8168837   -7.7998576    54.942264  0.016178523  0.016357459            9 
  284000    0.8045938   -7.8224816    54.969507   0.01612955  0.016297914            5 
  285000   0.81239733   -7.8350713    55.025202   0.01608924  0.016238157           11 
  286000   0.81155212   -7.8039391    55.028092  0.016033826  0.016178517           10 
  287000   0.81208848    -7.841401    54.953288  0.015956239  0.016119178           17 
  288000    0.8032799   -7.7716792    55.074338  0.015935862  0.016060004           12 
  289000   0.82706856   -7.8113112     55.08772  0.015884579  0.016001366           16 
  290000   0.81346873   -7.8135345    55.146821  0.015846788  0.015942622           12 
  291000   0.81146661   -7.8342023    55.242611  0.015819763  0.015883968           11 
  292000   0.80587195   -7.8491954     55.28054   0.01577641   0.01582625           33 
  293000   0.79853211   -7.8712687    55.157416  0.015687547  0.015768586           25 
  294000   0.80727036   -7.8425197    55.381671  0.015697753  0.015711014           11 
  295000    0.8001833   -7.8522647     55.40106  0.015650017   0.01565388           12 
  296000   0.79388517   -7.8384971    55.359468  0.015585436  0.015596827            7 
  297000   0.79592743   -7.8705706    55.273428  0.015508818  0.015539656           11 
  298000    0.7815621    -7.890219    55.261235  0.015453366  0.015482579            7 
  299000   0.79497768   -7.8687734    55.522346  0.015474455  0.015425527           17 
  300000   0.79772626   -7.8723391    55.394491  0.015387359   0.01536871           15 
  301000   0.77385656   -7.9033673     55.34428  0.015322337   0.01531168           16 
  302000   0.80052872   -7.9317231    55.247541  0.015244906  0.015255216            9 
  303000   0.77701795   -7.9285952    55.315281  0.015213224  0.015198844           21 
  304000    0.7925496   -7.8981721    55.291029  0.015156532   0.01514244           13 
  305000   0.76132964   -7.8924852    55.389743   0.01513381  0.015086222           11 
  306000     0.782949   -7.9380305      55.3036  0.015060893  0.015029938           33 
  307000   0.77139823   -7.9115088    55.333134  0.015019852  0.014973723           17 
  308000   0.77275097   -7.9493645    55.311271  0.014965171  0.014917678           23 
  309000   0.77248521   -7.9020019    55.376052   0.01493421  0.014861923           17 
  310000   0.78133752   -7.9296993    55.499822  0.014919307  0.014806271           29 
  311000   0.76509594   -7.9691674    55.405664  0.014846105  0.014750995           23 
  312000   0.77018534   -7.9536016    55.378859  0.014791362  0.014695906           17 
  313000   0.75795772   -7.9646634    55.423998  0.014756123   0.01464098           19 
  314000   0.76432414   -7.9236874    55.443418  0.014714283  0.014585956           26 
  315000    0.7649514   -7.9519554    55.571482   0.01470145  0.014531526           15 
  316000   0.75097507   -7.9536097    55.547524  0.014648609  0.014477368           23 
  317000   0.74669887   -7.9524698    55.380394  0.014558463   0.01442351           21 
  318000   0.75788508   -7.9751824    55.575926  0.014563922  0.014369541           24 
  319000   0.75274676   -7.9815255    55.310141  0.014448835  0.014315624           44 
  320000    0.7532428   -8.0005249    55.562013  0.014469274  0.014261794           16 
  321000   0.77046516     -8.00378    55.486462  0.014404585  0.014208332           30 
  322000    0.7563171   -7.9939038    55.376045  0.014331275  0.014154956           27 
  323000   0.76452136   -7.9860582    55.447719  0.014305397  0.014101723           32 
  324000   0.76345621   -8.0053009    55.517985  0.014279317  0.014048761           60 
  325000   0.75126252   -8.0098017    55.553916  0.014244594  0.013995977           33 
  326000   0.74225651   -8.0052343    55.596277  0.014211727  0.013943643           22 
  327000   0.75296571   -8.0222078    55.668091  0.014186568  0.013891584           54 
  328000   0.74196293   -8.0247603    55.506565  0.014102278   0.01383972           24 
  329000   0.73421087   -8.0482436    55.625285  0.014089485  0.013787685           49 
  330000   0.74472358   -8.0390048    55.652869  0.014053755  0.013735873           51 
  331000   0.73883088   -8.0409176    55.637097  0.014007326    0.0136841           37 
  332000   0.72959107   -8.0495545    55.664747  0.013972075  0.013632802           44 
  333000   0.73878856   -8.0688326    55.535305  0.013897724  0.013581556           32 
  334000   0.71572518   -8.0670091    55.528143  0.013854327  0.013530546           64 
  335000   0.73738035   -8.0464936    55.672666  0.013848922  0.013479352           36 
  336000   0.72357592   -8.0588055    55.652338  0.013802663   0.01342845           27 
  337000   0.72220573   -8.0854305    55.448101  0.013711202  0.013377596           73 
  338000   0.73162814   -8.1026959    55.475005  0.013677269   0.01332689           53 
  339000   0.73013245   -8.0726984    55.444384  0.013629396  0.013276277           31 
  340000     0.706642    -8.098862    55.537768  0.013612198  0.013226052           40 
  341000   0.72007904   -8.1045377    55.555963  0.013576726  0.013175889           51 
  342000   0.70870481   -8.0975357    55.550035  0.013535583  0.013126025           57 
  343000   0.73420832   -8.0829699    55.558205  0.013498106  0.013076333           27 
  344000   0.72117467   -8.0987303    55.441885  0.013430689  0.013026783           24 
  345000   0.71854144   -8.1074002    55.555454  0.013419192  0.012977513           29 
  346000   0.70893245   -8.0873739    55.621033  0.013396203  0.012928361           75 
  347000   0.71990274   -8.1256542    55.539312  0.013337971   0.01287947           51 
  348000   0.72001229   -8.1308481    55.387477  0.013263285  0.012830434           39 
  349000   0.71008768   -8.1370897    55.437046  0.013237117  0.012781442           57 
  350000   0.70022319   -8.1408912    55.498357  0.013213895  0.012732658           34 
  351000   0.71026783   -8.1337536    55.523625  0.013182247   0.01268406           27 
  352000   0.71136134    -8.131369    55.401259  0.013115828  0.012635766           90 
  353000   0.71165758   -8.1476477    55.448114  0.013089734  0.012587642           75 
  354000    0.6985374   -8.1611263    55.457177  0.013054891  0.012539512           94 
  355000   0.69707676   -8.1504367    55.467877  0.013020628  0.012491711           79 
  356000    0.7077679   -8.1317066    55.373627  0.012961991  0.012444043           36 
  357000   0.70026802   -8.1632192    55.383539  0.012927997   0.01239659           63 
  358000   0.69428235   -8.1827439    55.366782  0.012887985  0.012349236           36 
  359000   0.70818614   -8.1668674    55.463985  0.012874648   0.01230202           64 
  360000   0.69778899   -8.1821915    55.439893  0.012833309  0.012255185           34 
  361000   0.68865945   -8.2011856    55.337215  0.012774057   0.01220864          111 
  362000   0.69878662   -8.1910178    55.451318  0.012765036  0.012162072           47 
  363000   0.67933727   -8.1808482    55.438122  0.012726841  0.012115568           75 
  364000   0.69570281   -8.1933795    55.413875  0.012686327  0.012069171           93 
  365000   0.68441613    -8.180702    55.266859  0.012618004  0.012023025           66 
  366000   0.68662087   -8.1894174    55.356209  0.012603873  0.011977048          117 
  367000   0.66987083   -8.2155118    55.306603  0.012558266  0.011931193           94 
  368000   0.69070947   -8.2003841     55.36416  0.012537174  0.011885455          120 
  369000   0.68718825   -8.2220286    55.298002  0.012488257  0.011840115           66 
  370000   0.67111392   -8.2207752    55.311159  0.012457468  0.011794974           70 
  371000   0.68725164   -8.2209111    55.456208  0.012456471  0.011750025           38 
  372000   0.67126466   -8.2233104    55.499864  0.012432765  0.011705304          113 
  373000   0.67813185   -8.2306361    55.330634  0.012361625  0.011660664           80 
  374000   0.67151018   -8.2376584    55.413766  0.012347096   0.01161615           80 
  375000   0.66704658   -8.2286668    55.411019   0.01231356  0.011571899           69 
  376000   0.66710169   -8.2259151    55.364755  0.012270557  0.011527888           67 
  377000   0.66371253   -8.2389914    55.294783  0.012222543  0.011484074           72 
  378000   0.67533991   -8.2173378    55.292285  0.012189657  0.011440257           83 
  379000   0.66569059   -8.2259903    55.315285  0.012162552  0.011396771           75 
  380000    0.6660583   -8.2582825    55.261029  0.012118647  0.011353257          112 
  381000   0.67883736   -8.2822531     55.15548  0.012063753  0.011309916          100 
  382000   0.66480741   -8.2465794    55.295107  0.012062632  0.011266808           69 
  383000   0.65334846   -8.2382243    55.343532  0.012041674  0.011223911          110 
  384000   0.65262726   -8.2580368    55.192975  0.011977642  0.011181154          102 
  385000   0.65123814   -8.2640791    55.159368  0.011939257  0.011138451          177 
  386000   0.64900383    -8.264023    55.225778  0.011922664  0.011096009           97 
  387000   0.64435043   -8.2625277    55.217981  0.011890177  0.011053707           89 
  388000   0.65957263   -8.2853029    55.222242  0.011860447  0.011011462          127 
  389000   0.63578549   -8.2667142    55.217075  0.011828851  0.010969259          141 
  390000   0.63440135   -8.2565843    55.295228   0.01181522  0.010927482           81 
  391000   0.63193245   -8.2614786    55.205528  0.011765884  0.010885926           96 
  392000   0.63238423   -8.2861277    55.174184  0.011729206  0.010844483          139 
  393000   0.62919777   -8.2794365    55.253868  0.011716257  0.010803162           99 
  394000   0.62593269   -8.2902062    55.087169  0.011651262  0.010761977          112 
  395000   0.63266586   -8.3054113    55.118866  0.011628453  0.010720854           89 
  396000    0.6309281   -8.2901437    55.118392  0.011598988  0.010680013           60 
  397000   0.62242498   -8.3046891    54.982637  0.011541276  0.010639373           50 
  398000   0.62858031   -8.3000401    54.997147  0.011515316  0.010598807          118 
  399000   0.63271032   -8.2915934    54.960455  0.011478792  0.010558325           47 
  400000    0.6343082   -8.3298559    54.991435  0.011456549  0.010518117           79 
  401000   0.62523764   -8.3224601    55.078685  0.011446111  0.010478069          160 
  402000   0.61075837   -8.3120327    55.139252  0.011430193  0.010438174          106 
  403000    0.6380542   -8.3293696    55.075644  0.011388677  0.010398539          114 
  404000   0.63069745   -8.3323327    54.994809  0.011343814   0.01035921          176 
  405000   0.61432559   -8.3146998    54.933004  0.011303087  0.010319966          128 
  406000   0.62148429    -8.313313     54.98401  0.011285716  0.010280841           93 
  407000   0.61027727   -8.3535538    54.970705  0.011255263  0.010241837           69 
  408000   0.62063544   -8.3354251    55.013726  0.011236464  0.010203073          161 
  409000   0.62774123   -8.3473975    54.885859  0.011182938  0.010164533           55 
  410000    0.6201003   -8.3494978    55.007039  0.011180292  0.010126111           73 
  411000   0.61910311   -8.3232852    55.007878   0.01115326  0.010087862          108 
  412000   0.60970935   -8.3362428    54.956879  0.011115874  0.010049769           91 
  413000   0.60725171   -8.3785944    55.095621  0.011116953  0.010011815          110 
  414000   0.60840454   -8.3520325    55.058368  0.011082602  0.009974074          190 
  415000   0.60533577    -8.373804    54.993112  0.011042794 0.0099364589          149 
  416000   0.59953301    -8.367626    54.836774  0.010984931 0.0098990965          222 
  417000   0.59368605   -8.3620514    55.034044   0.01099801 0.0098618413           72 
  418000   0.59929284   -8.3663685    55.018567  0.010968614  0.009824877          100 
  419000   0.60390956   -8.3713298    55.016793  0.010942083 0.0097879415          125 
  420000   0.59693006   -8.3859541    54.867052   0.01088632 0.0097512289          162 
  421000   0.59342205   -8.4060933    54.886956  0.010864401 0.0097146562           90 
  422000   0.60212373   -8.3785804    54.872363  0.010835775 0.0096782988          100 
  423000   0.58716829    -8.404649    54.837841  0.010803357 0.0096420171          124 
  424000   0.58310549   -8.4239912    54.765637  0.010763686 0.0096058992          166 
  425000   0.58634271    -8.385569    54.840192  0.010752979 0.0095698696          107 
  426000   0.58335266   -8.4015801    54.835572  0.010726833 0.0095339708          279 
  427000   0.58163007    -8.402471      54.8315  0.010700917 0.0094982311          109 
  428000   0.58914659   -8.4125801    54.885016  0.010686335 0.0094627415           54 
  429000   0.57772324    -8.393941    54.828156   0.01065038 0.0094274078          113 
  430000   0.58177153   -8.4182041    54.804724   0.01062107 0.0093922516           79 
  431000   0.56516906   -8.4055238     54.86393  0.010607875 0.0093573554           69 
  432000   0.57606715   -8.4124958    54.727607  0.010557023 0.0093225622          103 
  433000   0.57969115   -8.4235832    54.789015   0.01054446 0.0092879332          132 
  434000   0.56997348   -8.4318401    54.735895  0.010509965 0.0092534765          103 
  435000   0.57666975   -8.4270619    54.756539  0.010489758 0.0092190952          156 
  436000   0.57799804   -8.4445841     54.73223  0.010461053 0.0091848928          134 
  437000   0.57483688   -8.4221274    54.820563  0.010453959 0.0091508846          165 
  438000    0.5578634   -8.4322482    54.761538  0.010418862 0.0091170633           93 
  439000   0.56860265   -8.4201203    54.758687  0.010394587 0.0090833962          106 
  440000   0.56816741   -8.4338439    54.786306  0.010376194 0.0090498617           71 
  441000   0.55868385   -8.4372906    54.741412  0.010344182 0.0090164864           95 
  442000   0.55035286   -8.4334147    54.763316  0.010324909 0.0089832247          148 
  443000   0.54275929   -8.4360088    54.652226  0.010280705  0.008950085          169 
  444000   0.55537515   -8.4463073    54.811123  0.010287373 0.0089171673          213 
  445000   0.56176614   -8.4577674     54.67034  0.010237891 0.0088844491           93 
  446000   0.54958259   -8.4444206    54.664101  0.010213771 0.0088518489           91 
  447000   0.56528509   -8.4375347    54.649556   0.01018821 0.0088194126          141 
  448000   0.54888867    -8.478455     54.68585  0.010172219 0.0087870501          110 
  449000   0.55555006   -8.4633155    54.697632   0.01015175 0.0087549194          133 
  450000   0.54919009   -8.4563421    54.731656  0.010135492 0.0087229093           83 
  451000   0.53991665   -8.4693917    54.624214  0.010093166  0.008691119          159 
  452000    0.5433833   -8.4728834    54.657651  0.010077001 0.0086594271          106 
  453000   0.54939938   -8.4460603    54.650296  0.010053402 0.0086279353          193 
  454000   0.54189093   -8.4787356    54.693316  0.010039155 0.0085965528           72 
  455000   0.54500744   -8.4754237    54.728345  0.010023506 0.0085653054           97 
  456000   0.54099509   -8.4857499    54.689513 0.0099944286 0.0085341974          132 
  457000   0.53696717   -8.4827268    54.545412 0.0099462822  0.008503228          109 
  458000   0.53439723   -8.4873254    54.662579 0.0099458841 0.0084724008           82 
  459000   0.52604679   -8.4795969    54.625058 0.0099174034 0.0084416787           90 
  460000    0.5391588   -8.4895222    54.730505 0.0099149465 0.0084111153          161 
  461000   0.53042768   -8.4953033    54.601477 0.0098701151 0.0083807763           75 
  462000   0.53231927   -8.4926431     54.64272 0.0098561905 0.0083505352          145 
  463000   0.51514811   -8.4902452      54.6222 0.0098312095 0.0083204252          148 
  464000   0.52432259   -8.5107381    54.623689  0.009810289  0.008290455          155 
  465000   0.52614754   -8.5069648    54.689691 0.0098010198 0.0082606567          132 
  466000   0.52385402   -8.5121007      54.6526 0.0097733547  0.008230961          159 
  467000   0.53299071   -8.5086512    54.580132 0.0097394953 0.0082014209          150 
  468000   0.52205993   -8.5153467     54.61342 0.0097246118  0.008171958          111 
  469000   0.51752717    -8.489164    54.555965 0.0096936682 0.0081426546           79 
  470000    0.5262258   -8.5029387    54.554428 0.0096727709 0.0081134342           82 
  471000   0.51565799   -8.5156096    54.586219 0.0096578591 0.0080843504          176 
  472000   0.51237013      -8.5087    54.600426 0.0096399057 0.0080554252           77 
  473000    0.5129814   -8.5277269    54.499406 0.0096017276 0.0080265995          116 
  474000   0.52190538   -8.5327302     54.52999 0.0095868478  0.007997828          158 
  475000   0.51585496   -8.5163979    54.576293 0.0095747883 0.0079692166          179 
  476000   0.50636912   -8.5436227    54.526669 0.0095459855 0.0079408079          124 
  477000    0.5102472   -8.5329827    54.514553 0.0095238562 0.0079124699          143 
  478000   0.49573712   -8.5436329    54.500876 0.0095015473 0.0078842825          129 
  479000   0.49442442   -8.5542921    54.494972  0.009480684 0.0078562262          137 
  480000   0.50734866   -8.5234387     54.45931 0.0094547414 0.0078282548           88 
  481000   0.50271201   -8.5475543    54.527748 0.0094469418 0.0078005009           76 
  482000   0.49419997   -8.5638493    54.473284  0.009417926 0.0077728652           86 
  483000   0.49687289   -8.5460586    54.518235 0.0094061826 0.0077453271          130 
  484000   0.49599972   -8.5529435    54.516823 0.0093865053  0.007717956          113 
  485000   0.49378464   -8.5513122    54.479843 0.0093607978 0.0076906635          230 
  486000   0.48658064   -8.5436232    54.481567 0.0093418324 0.0076635064           58 
  487000   0.48820623   -8.5653587    54.437853 0.0093151699 0.0076365031           70 
  488000   0.49124755   -8.5588263    54.408303 0.0092910353 0.0076095944          158 
  489000    0.4805875   -8.5582045    54.556145 0.0092972299  0.007582817          115 
  490000   0.48289625   -8.5682369    54.368862  0.009246405 0.0075561404          136 
  491000   0.47880205   -8.5714202    54.389568 0.0092310876 0.0075295649          185 
  492000    0.4822226   -8.5641432    54.440152 0.0092208929 0.0075031049          110 
  493000    0.4860411   -8.5659317    54.466214 0.0092065946 0.0074768002           82 
  494000   0.47604621   -8.5692255    54.415865 0.0091794644 0.0074505909           94 
  495000   0.48990548   -8.5845263    54.322793 0.0091452513 0.0074244792          184 
  496000   0.46855969   -8.5889303    54.350659  0.009131495 0.0073984844          140 
  497000   0.48270893   -8.5977279    54.382195 0.0091184096 0.0073726239          105 
  498000   0.47618298   -8.5992035    54.362979 0.0090968841 0.0073468633          103 
  499000   0.46472907   -8.5854619    54.328309 0.0090728638 0.0073212383          118 
  500000   0.47503236   -8.6072522    54.377266 0.0090628776 0.0072957083          240 
  501000   0.47432545   -8.5896097    54.335441 0.0090378311 0.0072702538          167 
  502000   0.46090074   -8.6037171    54.286324  0.009011674 0.0072449458          130 
  503000   0.45634934   -8.5934647    54.255345 0.0089886258 0.0072197284           89 
  504000   0.45720063   -8.6076906    54.371393  0.008989979 0.0071946333          170 
  505000    0.4606162   -8.6184361    54.318733 0.0089634873 0.0071696745           69 
  506000   0.45812357   -8.6152857    54.343368   0.00894983 0.0071448252          129 
  507000   0.46495237    -8.616714    54.307724 0.0089263188 0.0071200805          161 
  508000   0.46157124   -8.6161351    54.212825 0.0088931799 0.0070954619           75 
  509000   0.46147151   -8.6176052    54.347235 0.0088977137 0.0070709457          144 
  510000   0.44959307   -8.6222257    54.224001 0.0088601309 0.0070465614          171 
  511000   0.46254136   -8.6357921    54.325673 0.0088593727 0.0070223128           66 
  512000   0.44993943   -8.6232743    54.206739 0.0088227114 0.0069981399           73 
Loop time of 1317.66 on 48 procs for 500000 steps with 4000 atoms

Performance: 65570.819 tau/day, 379.461 timesteps/s
99.4% CPU use with 48 MPI tasks x no OpenMP threads

MPI task timing breakdown:
Section |  min time  |  avg time  |  max time  |%varavg| %total
---------------------------------------------------------------
Pair    | 93.595     | 100.78     | 108.27     |  34.5 |  7.65
Neigh   | 9.1558     | 9.5222     | 9.9016     |   6.4 |  0.72
Comm    | 82.051     | 90.77      | 97.455     |  40.3 |  6.89
Output  | 1.0436     | 1.0444     | 1.0674     |   0.3 |  0.08
Modify  | 1095.7     | 1102.3     | 1108.6     |   9.9 | 83.66
Other   |            | 13.2       |            |       |  1.00

Nlocal:        83.3333 ave          89 max          77 min
Histogram: 2 0 4 2 9 16 8 4 1 2
Nghost:        2418.46 ave        2433 max        2406 min
Histogram: 4 4 5 4 10 9 3 5 3 1
Neighs:        16743.5 ave       19058 max       14794 min
Histogram: 5 6 6 5 3 4 9 4 4 2
FullNghs:      33486.7 ave       35910 max       30890 min
Histogram: 2 0 4 8 6 13 9 3 2 1

Total # of neighbors = 1607361
Ave neighs/atom = 401.84025
Neighbor list builds = 26634
Dangerous builds = 0

#clear
#
#next RN
#
#jump SELF
Total wall time: 0:22:01
