
units lj                  # Use reduced LJ style units
atom_style atomic         # Uncharged point particles
atom_modify map hash      # Needed for indexing of clusters etc
                          # Used to be able to find where atoms are in relation to each other.

lattice fcc 1.0 spacing 1 1 1
Lattice spacing in x,y,z = 1.5874011 1.5874011 1.5874011
region box block 0 10 0 10 0 10 units lattice
create_box 2 box
Created orthogonal box = (0.0000000 0.0000000 0.0000000) to (15.874011 15.874011 15.874011)
  3 by 4 by 4 MPI processor grid
create_atoms 1 box
Created 4000 atoms
  using lattice units in orthogonal box = (0.0000000 0.0000000 0.0000000) to (15.874011 15.874011 15.874011)
  create_atoms CPU = 0.003 seconds
set type 1 type/fraction 2 0.85 78393
Setting atom values ...
  3394 settings made for type/fraction
mass 1 1.0
mass 2 1.0
pair_style lj/cut  3.5
pair_modify tail  yes
pair_coeff 1  1  1.0  1.0   # Intearaction between 1 and 1 set with epsilon = 1 and sigma = 1
pair_coeff 1  2  1.5  0.8
pair_coeff 2  2  0.5  0.88

write_data data.0
System init for write_data ...
Neighbor list info ...
  update every 1 steps, delay 10 steps, check yes
  max neighbors/atom: 2000, page size: 100000
  master list distance cutoff = 3.8
  ghost atom cutoff = 3.8
  binsize = 1.9, bins = 9 9 9
  1 neighbor lists, perpetual/occasional/extra = 1 0 0
  (1) pair lj/cut, perpetual
      attributes: half, newton on
      pair build: half/bin/atomonly/newton
      stencil: half/bin/3d
      bin: standard
WARNING: Not all mixed pair coeffs generated from mixing. Use write_data with 'pair ij' option to store all pair coeffs. (../write_data.cpp:312)


#############################
#   M E L T   S Y S T E M   #
#############################

velocity all create 2.4 5300450 mom yes dist gaussian # Assign velocities
                                                    # Temperature 2.4, random number seed, zero linear momentum
                                                                                # Gaussian distribution

timestep 0.002   # simulation timestep
thermo 1000       # output thermodynamic data every 1000 steps bf 100

# Define a fix  in this case with index 1 applied to all
# particles in the simulation. This fix is for simulations
# in the anisotropic NPT ensemble. Note that we use the MTK
# correction.
fix 1 all npt temp 2.4 2.4 0.1 iso 5.68 5.68 0.5 mtk yes tchain 5 pchain 5 # Use NPT ensemble
                                                                         # Set temperature and pressure and damping
                                                                         # Numbers of thermostats in chain and in barostat
run 10000          # run for 10000 steps
Per MPI rank memory allocation (min/avg/max) = 3.642 | 3.644 | 3.648 Mbytes
Step Temp E_pair E_mol TotEng Press Volume 
       0          2.4   -3.4381692            0   0.16093083   -2.9520202         4000 
    1000    2.3634486   -2.6058452            0   0.93844134    5.8564299    3893.5282 
    2000     2.379627   -2.6790801            0   0.88946806    5.1880786    3925.3346 
    3000    2.4205385   -2.6375005            0   0.99239953    5.7271443    3898.2934 
    4000    2.4262723   -2.6647771            0   0.97372158    5.5080895      3903.55 
    5000    2.4218999    -2.598836            0    1.0331056    6.1120303    3859.5828 
    6000    2.4307475   -2.6323484            0    1.0128613     5.797356    3873.8964 
    7000    2.4077383   -2.6483511            0   0.96235353     5.967471    3844.4812 
    8000     2.440964   -2.6429303            0    1.0176003    5.9521142    3874.2991 
    9000     2.451261   -2.6743448            0    1.0016275    5.8419288    3845.0077 
   10000    2.4082591   -2.6412088            0   0.97027671    6.0626192    3834.1244 
Loop time of 2.56326 on 48 procs for 10000 steps with 4000 atoms

Performance: 674142.319 tau/day, 3901.287 timesteps/s
99.6% CPU use with 48 MPI tasks x no OpenMP threads

MPI task timing breakdown:
Section |  min time  |  avg time  |  max time  |%varavg| %total
---------------------------------------------------------------
Pair    | 1.1111     | 1.1934     | 1.3336     |   3.4 | 46.56
Neigh   | 0.21248    | 0.2198     | 0.2376     |   1.1 |  8.57
Comm    | 0.73621    | 0.88203    | 0.99576    |   4.6 | 34.41
Output  | 0.00025389 | 0.00026018 | 0.00032689 |   0.0 |  0.01
Modify  | 0.22398    | 0.25178    | 0.27724    |   2.9 |  9.82
Other   |            | 0.01597    |            |       |  0.62

Nlocal:        83.3333 ave          92 max          75 min
Histogram: 2 6 6 4 7 7 5 5 4 2
Nghost:        1684.83 ave        1715 max        1661 min
Histogram: 4 0 11 10 7 4 2 5 3 2
Neighs:        9967.02 ave       11569 max        8714 min
Histogram: 3 5 7 10 7 1 9 4 1 1

Total # of neighbors = 478417
Ave neighs/atom = 119.60425
Neighbor list builds = 907
Dangerous builds = 210

# Equilibrate just above the melting temperature to avoid step fn in T

fix 1 all npt temp 1.25 1.25 0.1 iso 5.68 5.68 0.5 mtk yes tchain 5 pchain 5
run 2000
Per MPI rank memory allocation (min/avg/max) = 3.643 | 3.645 | 3.649 Mbytes
Step Temp E_pair E_mol TotEng Press Volume 
   10000    2.4082591   -2.6412088            0   0.97027671    6.0626192    3834.1244 
   11000    1.2302261   -3.9258567            0   -2.0809788    5.6848616    2995.6296 
   12000    1.2521267   -3.8733476            0   -1.9956271    5.4603852    3032.8161 
Loop time of 0.626237 on 48 procs for 2000 steps with 4000 atoms

Performance: 551867.907 tau/day, 3193.680 timesteps/s
99.6% CPU use with 48 MPI tasks x no OpenMP threads

MPI task timing breakdown:
Section |  min time  |  avg time  |  max time  |%varavg| %total
---------------------------------------------------------------
Pair    | 0.27004    | 0.30674    | 0.33266    |   2.1 | 48.98
Neigh   | 0.041053   | 0.043435   | 0.049146   |   0.6 |  6.94
Comm    | 0.19609    | 0.2268     | 0.2689     |   2.8 | 36.22
Output  | 5.3632e-05 | 5.4863e-05 | 7.0324e-05 |   0.0 |  0.01
Modify  | 0.040689   | 0.044326   | 0.047914   |   1.0 |  7.08
Other   |            | 0.004884   |            |       |  0.78

Nlocal:        83.3333 ave          92 max          77 min
Histogram: 5 4 5 10 7 4 2 4 6 1
Nghost:        1989.29 ave        2013 max        1968 min
Histogram: 2 0 6 10 8 11 5 3 2 1
Neighs:        12620.7 ave       14506 max       10981 min
Histogram: 3 2 4 9 9 9 7 1 2 2

Total # of neighbors = 605794
Ave neighs/atom = 151.44850
Neighbor list builds = 144
Dangerous builds = 11

#############################
# L I N E A R  Q U E N C H  #
#############################

# Define solid atoms. This closely follows ten Wolde  Ruiz-Montero and Frenkel  Faraday Discuss  1996  104  93-110
# Compute components of the per-atom q6 vector
compute q6 all orientorder/atom degrees 1 6 components 6 nnn NULL cutoff 1.3 # compute the Q6 parameter.
                                                                             # Use all neighbours within 1.3 unit cell.

# get number of connections
compute coord_number all coord/atom orientorder q6 0.5

# An atom is solid if it has 8 or more connections (of a possible 14)
variable is_solid atom c_coord_number>=8
group solid dynamic all var is_solid    # Must be dynamic to update
dynamic group solid defined

# do clustering
compute cluster solid cluster/atom 1.3 # Create a cluster where all atoms within are solid and max 1.3 units from another member

# define chunks one chunk per cluster
compute clus_chunks solid chunk/atom c_cluster nchunk every compress yes  # Says which atoms are in which chunk

# count the size of each chunk
compute size_chunks solid property/chunk clus_chunks count


# Find the maximum entry in the vector of chunk sizes
variable max_n equal max(c_size_chunks)


# Thermo style which includes this variable
# thermo_style custom step temp pe vol v_max_n

thermo ${N}  # Print the thermo information every 100 steps
thermo 1000  

# Reset the npt fix at a lower temperature (below freezing)
fix 1  all npt temp  ${temp} ${temp}  0.1  iso  5.68  5.68  0.5  mtk yes tchain  5  pchain  5
fix 1  all npt temp  0.45 ${temp}  0.1  iso  5.68  5.68  0.5  mtk yes tchain  5  pchain  5
fix 1  all npt temp  0.45 0.45  0.1  iso  5.68  5.68  0.5  mtk yes tchain  5  pchain  5

dump dmp2 all dcd ${N} traj.dcd
dump dmp2 all dcd 1000 traj.dcd


compute msd all msd com yes
variable twopoint equal c_msd[4]/6/(step*dt+1.0e-6)
fix 9 all vector 10 c_msd[4]
variable fit equal slope(f_9)/6/(10*dt)
thermo_style custom step temp pe c_msd[4] v_twopoint v_fit v_max_n

fix 1 all npt temp 1.25 ${temp} 0.1 iso 5.68 5.68 0.5 mtk yes tchain 5 pchain 5
fix 1 all npt temp 1.25 0.45 0.1 iso 5.68 5.68 0.5 mtk yes tchain 5 pchain 5
run 2000000 # 5000000  # Run for this many steps
Neighbor list info ...
  update every 1 steps, delay 10 steps, check yes
  max neighbors/atom: 2000, page size: 100000
  master list distance cutoff = 3.8
  ghost atom cutoff = 3.8
  binsize = 1.9, bins = 8 8 8
  4 neighbor lists, perpetual/occasional/extra = 1 3 0
  (1) pair lj/cut, perpetual
      attributes: half, newton on
      pair build: half/bin/atomonly/newton
      stencil: half/bin/3d
      bin: standard
  (2) compute orientorder/atom, occasional
      attributes: full, newton on
      pair build: full/bin/atomonly
      stencil: full/bin/3d
      bin: standard
  (3) compute coord/atom, occasional
      attributes: full, newton on
      pair build: full/bin/atomonly
      stencil: full/bin/3d
      bin: standard
  (4) compute cluster/atom, occasional
      attributes: full, newton on
      pair build: full/bin/atomonly
      stencil: full/bin/3d
      bin: standard
Per MPI rank memory allocation (min/avg/max) = 9.830 | 9.834 | 9.839 Mbytes
Step Temp PotEng c_msd[4] v_twopoint v_fit v_max_n 
   12000    1.2521267   -3.8733476 2.0358528e-30 1.4137866e-32 8.3333333e+20            1 
   13000    1.2468685   -3.8830838   0.90601119 0.0058077638   0.07644707            3 
   14000    1.2669955   -3.9068597    1.8791886  0.011185646  0.078799751            1 
   15000    1.2492397   -3.8880609     2.922888  0.016238266  0.081391567            3 
   16000    1.2422435    -3.900953    3.8667013  0.020139069  0.081835778            4 
   17000    1.2714465   -3.9352941    4.8615406   0.02383108  0.081658386            3 
   18000    1.2420767   -3.9295958    5.7748082  0.026735223  0.081408284            3 
   19000    1.2567425   -3.9097573    6.6452757  0.029145945  0.080637415            1 
   20000    1.2349047   -3.9135978    7.5488843  0.031453684  0.079669407            6 
   21000    1.2568648   -3.9079595    8.5718587  0.034015312  0.079372035            3 
   22000    1.2524152   -3.9375994    9.5785068  0.036282222  0.079568834            1 
   23000    1.2859374   -3.9214101    10.491601  0.038013045   0.07971117            1 
   24000    1.2561452   -3.9457904    11.274956  0.039149151  0.079466167            2 
   25000    1.2370261   -3.9163926    12.212447  0.040708155  0.078978672            1 
   26000    1.2413553   -3.9210398    13.303055  0.042637995  0.078850378            1 
   27000    1.2324206   -3.9095682    14.193773  0.043807942  0.078840796            2 
   28000    1.2705819   -3.9326822    15.222238  0.045304277  0.078789976            1 
   29000    1.2290633    -3.937135     16.36782  0.047033966   0.07893744            3 
   30000    1.2622062   -3.9380112    17.339728  0.048165909  0.079250329            2 
   31000    1.2447373   -3.8934414    18.190082  0.048898068  0.079445521            1 
   32000    1.2389502   -3.9224316    19.041084  0.049586155  0.079508134            1 
   33000    1.2731797   -3.9090494    19.992931  0.050487199  0.079538079            4 
   34000    1.2619445   -3.9430827    21.007911  0.051489978  0.079610702            5 
   35000    1.2421363   -3.9228349    21.978733  0.052330316  0.079689724            1 
   36000    1.2434824   -3.9491779    23.127386  0.053535615  0.079830508            8 
   37000    1.2359465   -3.9367279    24.221159   0.05455216  0.080070416            2 
   38000    1.2502288   -3.9289643     25.05809   0.05495195  0.080265826            2 
   39000    1.2395442     -3.93216    25.988322  0.055530602  0.080325831            2 
   40000    1.2481325   -3.8866922    26.862563  0.055963671  0.080332852            6 
   41000    1.2517975   -3.9270404    27.986117  0.056882352  0.080341787            3 
   42000    1.2463249   -3.9263915    28.890778  0.057322971   0.08036233            2 
   43000    1.2204013   -3.9365652     29.64888   0.05745907  0.080365683            2 
   44000    1.2658165    -3.907486    30.839116  0.058407416  0.080348509            2 
   45000     1.243344   -3.9350744    31.715361  0.058732149  0.080324171            2 
   46000    1.2484745   -3.9017282    32.544769  0.058957915  0.080265141            4 
   47000    1.2441236   -3.9123501    33.421669  0.059258278  0.080155233            1 
   48000    1.2398293   -3.9083255    34.147053  0.059283078  0.080007842            3 
   49000    1.2488366    -3.947804    34.856387  0.059279569  0.079851725            2 
   50000    1.2603041   -3.9756541    35.819437  0.059699062   0.07970614            2 
   51000    1.2375529   -3.9136138    37.114655   0.06064486  0.079583824            2 
   52000    1.2282029   -3.9359178    37.876435  0.060699415  0.079489645            4 
   53000    1.2463151   -3.9596603    38.994339  0.061311853  0.079419274            1 
   54000    1.2255684   -3.9732676    39.611319  0.061128577  0.079334975            1 
   55000    1.2079541   -3.9211859    41.056094  0.062206202  0.079295491            2 
   56000    1.2252035   -3.9481219    42.010514  0.062515645   0.07929828            1 
   57000    1.2093545   -3.9557181    42.914672  0.062740749  0.079320036            3 
   58000    1.2416409   -3.9496681    44.002253  0.063221627  0.079345773            2 
   59000    1.2223792   -3.9089345     44.81677  0.063300521  0.079371075            1 
   60000     1.246126   -3.9419096    45.875224  0.063715589  0.079373008            1 
   61000    1.2332039   -3.9561195    46.976693   0.06417581  0.079387469            1 
   62000    1.2451162   -3.9451347    47.922894  0.064412491  0.079432111            2 
   63000    1.2495525   -3.9505981    48.796778  0.064546003  0.079481923            1 
   64000    1.2144532   -3.9389462    50.246288  0.065424853  0.079547445            2 
   65000    1.2329372   -3.9471791    50.782143  0.065105311  0.079617221            3 
   66000    1.2462827   -3.9518031     51.87046  0.065493004  0.079640604            1 
   67000    1.2070134   -3.9335561    52.759485  0.065621249  0.079670225            6 
   68000    1.2391989   -3.9354535    53.787046  0.065915497  0.079697005            2 
   69000    1.2239814   -3.9731539    54.433808  0.065741313  0.079696928            1 
   70000    1.2098999   -3.9410108    55.151132  0.065656109  0.079665066            2 
   71000    1.2226178    -3.941456    56.187368  0.065947615  0.079630023            1 
   72000     1.250196   -3.9459776    57.037202   0.06601528  0.079591768            2 
   73000    1.2296149   -3.9749706    57.526447  0.065669459  0.079503666            1 
   74000    1.2525819   -3.9503794    58.625635  0.066019859   0.07942102            1 
   75000    1.2580737    -3.992522    58.957388  0.065508209  0.079341894            2 
   76000    1.1973332   -3.9599177     60.13146  0.065933617  0.079253392            2 
   77000    1.2330173   -3.9659022    61.238114  0.066275014  0.079155047            2 
   78000     1.219905   -3.9555049    61.796272  0.066021658  0.079054043            2 
   79000    1.2342546   -3.9715526    62.731464   0.06617243  0.078956439            5 
   80000    1.2322152   -3.9771388    63.694886  0.066348839  0.078867991            2 
   81000    1.2060396   -3.9593948    64.851815  0.066719974  0.078798632            9 
   82000    1.2106563   -3.9472953    66.060705  0.067134862  0.078739966            2 
   83000    1.2447524    -3.931417    66.396893  0.066663547  0.078661914            1 
   84000    1.2059786   -3.9489486    67.236067  0.066702447  0.078583207            2 
   85000    1.2081345   -3.9823731    68.114162   0.06677859  0.078503423            2 
   86000    1.1948469   -3.9732163    68.749955  0.066618173  0.078411939            2 
   87000    1.2253265   -3.9525716    69.541113  0.066610261  0.078294268            3 
   88000    1.1901608   -3.9584368    69.908314  0.066201055  0.078164309            2 
   89000    1.2013707   -3.9644809    71.011746  0.066490399   0.07803574            1 
   90000    1.2124995   -3.9684564    71.858376  0.066535533  0.077904573            4 
   91000      1.23019   -3.9782256    72.508396   0.06639963  0.077775327            2 
   92000    1.2117475   -3.9541534    73.266979  0.066365017  0.077633777            1 
   93000    1.1819474   -3.9487538     73.96618  0.066277938  0.077478747            2 
   94000    1.2165096   -3.9531897    74.955586  0.066449987  0.077316636            5 
   95000    1.2131795   -3.9792021    75.661211  0.066369483   0.07717459            4 
   96000    1.2245636   -3.9549066    76.819664  0.066683736  0.077048397            2 
   97000      1.24838   -3.9638294    77.930219   0.06695036  0.076934848            2 
   98000    1.2037154    -3.960434     79.07402  0.067239813  0.076837686            2 
   99000    1.2009603   -3.9489789     79.70982  0.067095807  0.076743483            2 
  100000    1.2088804   -3.9671998    80.566544  0.067138786  0.076647733            1 
  101000    1.2394335   -3.9909274    81.715285  0.067421852  0.076576133            1 
  102000    1.2196044   -3.9547119    82.733254  0.067592527  0.076516815            3 
  103000    1.2220953   -3.9579907    83.730717  0.067743299  0.076465259            2 
  104000    1.2601953   -3.9977601    83.971057    0.0672845  0.076413571            1 
  105000    1.2094582    -4.005052    85.458319  0.067824063   0.07635676            2 
  106000    1.2050855   -3.9617695    86.464843  0.067975505  0.076300711            2 
  107000    1.2299149   -3.9590264    87.001723  0.067758351  0.076255712            1 
  108000    1.2127509   -3.9680702    88.286805  0.068122534  0.076196871            2 
  109000    1.1956437   -3.9621724    88.376844  0.067566394  0.076142132            1 
  110000    1.2256577   -4.0013076     89.18391  0.067563568  0.076073061            1 
  111000     1.216083   -3.9542652    89.684872  0.067330985  0.076003441            2 
  112000    1.2249369   -3.9949809    90.449846  0.067298992  0.075920057            2 
  113000    1.1857898   -3.9862183    92.026505  0.067866153  0.075850517            2 
  114000    1.2134072   -3.9761667    92.427856  0.067564222   0.07578698            1 
  115000    1.2077267   -3.9596658    94.100613   0.06818885  0.075730039            2 
  116000    1.1994991   -3.9794941    95.022399  0.068263218  0.075685458            1 
  117000     1.193667   -3.9648902     96.02602  0.068394601  0.075656328            1 
  118000    1.2022277   -3.9540041    96.261461  0.067981258  0.075635825            2 
  119000     1.221428    -3.951322    97.964864  0.068602845  0.075610716            1 
  120000    1.1978182   -3.9821692    98.853767  0.068648449  0.075582226            1 
  121000    1.1978793   -3.9871476    99.656272  0.068633796  0.075559472            2 
  122000    1.1980114   -3.9818628    100.63542  0.068740042  0.075538866            3 
  123000    1.1848625   -3.9902571    101.22236  0.068578835   0.07551693            3 
  124000    1.2010189   -3.9979161    101.96731  0.068526415  0.075488124            4 
  125000    1.2099209   -3.9583294    103.48024  0.068986828  0.075468821            1 
  126000    1.2037702   -3.9886135    103.69345  0.068580327  0.075436152            1 
  127000    1.2021447   -3.9571962    104.31637  0.068449061  0.075399946            5 
  128000    1.2071125   -3.9898282    105.07762  0.068409909  0.075359641            2 
  129000    1.1906714   -3.9733413    106.05505  0.068511017   0.07531319            3 
  130000    1.1803518   -3.9820167    107.11356   0.06866254  0.075266523            1 
  131000    1.2227244   -4.0093507     107.4284  0.068338679  0.075226038            3 
  132000    1.1790975   -3.9607275    108.80074  0.068687334  0.075190679            2 
  133000    1.1978833   -4.0116317    109.43074  0.068565629  0.075158058            3 
  134000    1.1976001   -4.0194374    110.69447  0.068839844  0.075120995            1 
  135000    1.1789586   -3.9823066    111.76482  0.068990628  0.075090865            3 
  136000    1.1964222    -3.953514    113.02036  0.069252671  0.075070642            2 
  137000    1.1973724   -3.9836319    113.45312  0.069010413  0.075049951            1 
  138000     1.185296   -3.9904989    113.97262  0.068824045  0.075026637            4 
  139000     1.202647    -4.000416    114.65051  0.068735317  0.074995147            4 
  140000    1.2254324   -3.9786952    115.50761  0.068754529   0.07494944            2 
  141000    1.1913218   -3.9709886     116.2139  0.068684339  0.074910491            4 
  142000      1.18854   -3.9976313    116.90783   0.06860788  0.074870953            3 
  143000    1.2430317   -3.9990619    118.45595  0.069030275  0.074836315            2 
  144000    1.2117035   -3.9576788    118.91961  0.068819219  0.074801697            3 
  145000    1.1960803   -3.9524979    120.00039  0.068965738  0.074764593            2 
  146000    1.2393283   -3.9945875    120.20383  0.068609492  0.074728872            2 
  147000    1.1956772   -3.9584206    121.41641  0.068830167  0.074693437            1 
  148000    1.2366683   -3.9856041    122.65448  0.069062206  0.074662466            1 
  149000    1.2127591   -3.9772093    123.95696  0.069327156  0.074636558            2 
  150000     1.179892   -4.0190152    124.77442  0.069319123  0.074615446            2 
  151000    1.1898418   -3.9924102    125.35285  0.069179276  0.074595387            2 
  152000    1.1830057   -3.9908434    126.17614  0.069175513   0.07457552            1 
  153000    1.1722962   -3.9820087    127.45054  0.069417506  0.074553351            2 
  154000    1.1851716   -4.0383558    127.58331  0.069038585  0.074526974            2 
  155000     1.170659   -4.0076537    128.23419  0.068943114  0.074495512            5 
  156000    1.1948783   -4.0165821    128.96996   0.06889421   0.07446347            2 
  157000    1.1885814   -3.9867053    129.81067  0.068901632  0.074428164            3 
  158000    1.1832982     -3.99351    131.22337  0.069210636  0.074389698            3 
  159000    1.1881607    -4.031482    131.63734  0.068992315  0.074357543            2 
  160000    1.1968419   -3.9913411     132.9422  0.069240727  0.074320993            1 
  161000    1.1796894   -4.0090453    133.07754  0.068880715   0.07429196            2 
  162000    1.1785792   -4.0125574    134.29631  0.069082466  0.074262774            2 
  163000    1.1780521   -4.0296761    134.96927  0.069002693  0.074232059            4 
  164000    1.1838122   -4.0210731    135.99812  0.069104737  0.074206092            3 
  165000    1.1769397   -4.0247235    136.58825  0.068983962  0.074181537            2 
  166000    1.1797848   -4.0013257    138.28332  0.069419338  0.074156453            3 
  167000    1.1917977    -4.023333    139.40077  0.069561264  0.074128471            2 
  168000    1.1979655   -3.9976971    141.01914  0.069949969  0.074114296            1 
  169000    1.1792953   -4.0123431    141.31253  0.069680734  0.074104761            2 
  170000    1.1919063   -4.0462549    140.71157  0.068976259  0.074088477            2 
  171000    1.1747216   -4.0486036    142.04969  0.069224993  0.074064729            2 
  172000    1.1751327   -4.0471202    142.50665  0.069043921  0.074043647            4 
  173000    1.2159817   -4.0285705    144.03312  0.069380114  0.074021487            2 
  174000    1.1972399   -3.9764269    145.33929   0.06960694  0.073997312            2 
  175000    1.1847668   -4.0131405    145.13807  0.069113365  0.073975009            2 
  176000    1.1883626   -4.0545728    145.95668  0.069108278  0.073951308            1 
  177000    1.1725289   -4.0422696    147.47032  0.069430473  0.073929482            3 
  178000    1.1927221   -4.0399203    148.61323  0.069575483  0.073911249            3 
  179000    1.2142992   -4.0133969    149.63514  0.069662544  0.073893615            4 
  180000    1.1801526   -4.0346696    149.70685  0.069308726  0.073874689            2 
  181000    1.1869314   -4.0596755    150.04695  0.069082389  0.073849376            6 
  182000    1.1835553    -4.023726    152.15247   0.06966688  0.073830724            1 
  183000     1.142792    -4.024187    152.40493   0.06940115  0.073813955            3 
  184000    1.1843425   -4.0343658    152.43892  0.069039365  0.073791372            1 
  185000    1.1795187   -3.9947746    154.25744  0.069485335  0.073765029            6 
  186000    1.1824978   -4.0219389    154.96307  0.069427898  0.073744723            2 
  187000    1.1688725   -4.0293667    155.61676  0.069347933  0.073715023            1 
  188000    1.1944383   -4.0240674    156.46655  0.069355738  0.073694884            2 
  189000    1.1670071   -4.0145544    157.45491  0.069424563  0.073668861            3 
  190000    1.1749152   -3.9987239    158.53295  0.069531995  0.073647254            2 
  191000    1.1756988   -4.0096403    158.55573  0.069177894  0.073623963            1 
  192000    1.1675018   -3.9837522    159.93798  0.069417525  0.073594053            1 
  193000    1.1678918    -4.061658    159.55263  0.068891463  0.073566423            2 
  194000     1.202841   -4.0187605    160.89523  0.069113073  0.073532849            2 
  195000    1.2136723   -4.0197677    161.50121  0.069017612  0.073494905            3 
  196000    1.2158921   -4.0270514    162.13114  0.068933307  0.073462197            4 
  197000    1.1565476   -4.0030535    163.48242  0.069155001  0.073429156            2 
  198000    1.1639667   -4.0132259     164.0013  0.069024116  0.073395338            4 
  199000    1.2034377   -4.0243675    165.38223  0.069255539  0.073364972            2 
  200000     1.193352   -4.0282245     166.2394  0.069266415  0.073339509            1 
  201000    1.1523239   -4.0301794    166.95966  0.069220422  0.073312118            2 
  202000    1.1775604   -4.0351731    167.54611  0.069119684  0.073283886            1 
  203000    1.1680108   -4.0197564    168.39907  0.069129338  0.073248589            2 
  204000    1.1852778   -4.0271757    169.05752  0.069059444  0.073209411            2 
  205000    1.1569891   -4.0100128    169.73474  0.068997861   0.07317646            1 
  206000    1.1861204   -4.0697418    169.69071  0.068645107  0.073140429            2 
  207000    1.1920495   -4.0387531    171.40901  0.069005238  0.073105577            2 
  208000    1.1610357   -4.0513174    172.79725  0.069229667  0.073077154            4 
  209000    1.1867021   -4.0255618    173.54285  0.069195713  0.073051707            3 
  210000    1.1917257   -4.0416844    174.19037  0.069123162   0.07302901            2 
  211000    1.1533099   -4.0285401    175.65002  0.069372047  0.072999564            2 
  212000    1.1819492   -4.0483522    175.95415  0.069164367  0.072975388            1 
  213000     1.181888   -4.0390237    176.51125  0.069057609  0.072948801            4 
  214000    1.1717136   -4.0264393    176.85959  0.068870557  0.072922982            2 
  215000      1.12984   -4.0636997    178.04393  0.069009274  0.072894696            2 
  216000     1.195504   -4.0423113    179.64031  0.069305673  0.072868336            2 
  217000    1.1793127   -4.0220585    180.48713  0.069311493  0.072843523            2 
  218000    1.1552364   -4.0382339    180.47923  0.068990532   0.07282081            1 
  219000    1.1798581   -4.0244381    181.44808  0.069044172  0.072799633            1 
  220000    1.1884507   -4.0414145    182.00456  0.068941122  0.072773613            3 
  221000    1.2056443   -3.9967846    184.07343  0.069409286  0.072749499            1 
  222000    1.1654215   -4.0582457    183.84036  0.069009145  0.072720487            3 
  223000    1.1622043   -4.0398764    184.51784  0.068952854  0.072693633            2 
  224000    1.1905173    -4.036424    185.59107  0.069044297   0.07266403            1 
  225000    1.1848849   -4.0441487    186.15008  0.068944473  0.072634812            3 
  226000      1.15948   -4.0537145    187.13181  0.069001405   0.07260243            3 
  227000    1.1682607   -4.0255704    187.32889  0.068769784  0.072567251            1 
  228000    1.1594194   -4.0577254    187.35444    0.0684775  0.072530358            1 
  229000    1.1579949   -4.0339662    189.68228  0.069025574  0.072496862            5 
  230000    1.1647249    -4.024773    189.90468  0.068806045   0.07245992            1 
  231000    1.1732877   -4.0269542    190.66565  0.068782702  0.072424935            3 
  232000    1.1282917   -4.0710372    190.32688   0.06836454  0.072389765            3 
  233000    1.1367679   -4.0706295    191.79862  0.068597503  0.072357612            3 
  234000     1.177846   -4.0395507    192.95974  0.068717855  0.072322742            2 
  235000    1.1476139   -4.0438284    193.44134  0.068596219  0.072291124            5 
  236000    1.1492471   -4.0716693    193.66552  0.068384716  0.072259069            2 
  237000     1.138923   -4.0313077    195.71991  0.068818535  0.072224591            3 
  238000      1.15355   -4.0813838    194.81915  0.068213987   0.07218616            4 
  239000    1.1616774   -4.0521422    195.63856   0.06821428  0.072145629            1 
  240000    1.1698685   -4.0407954    195.93848  0.068034195  0.072101532            3 
  241000    1.1564604   -4.0568031    197.46554  0.068279925  0.072053161            3 
  242000    1.1600609    -4.061294    197.00489   0.06783915  0.072006023            1 
  243000    1.1720105   -4.0643319    197.37693  0.067687562  0.071957095            6 
  244000        1.161   -4.0516589     198.7502  0.067879168  0.071911881            2 
  245000    1.1582735   -4.0549931     199.7415  0.067939286  0.071864122            1 
  246000    1.1551526   -4.0803522    200.49187    0.0679173  0.071818456            3 
  247000    1.1583006   -4.0318224    201.05451  0.067832156  0.071774179            3 
  248000    1.1321614   -4.0172897     203.2012  0.068279974  0.071729905            2 
  249000    1.1457929   -4.0605347    202.86773  0.067894152  0.071687058            3 
  250000    1.1482198   -4.0647079    203.98183  0.067993942   0.07164431            3 
  251000    1.1312068   -4.0981424    204.04463  0.067743902  0.071600696            2 
  252000    1.1629936   -4.0420315       206.06  0.068141535  0.071560836            6 
  253000    1.1285578   -4.0400846    207.05587   0.06820022  0.071522229            4 
  254000    1.1749115   -4.0751168    206.83986  0.067860846  0.071482092            4 
  255000    1.1542578   -4.0479096    207.12331  0.067687355  0.071439821            2 
  256000     1.158692   -4.0591609    209.49175   0.06819393   0.07139834            2 
  257000     1.147918   -4.0753087    209.65205   0.06798056  0.071360275            2 
  258000    1.1486067   -4.0496069    210.66488  0.068044211  0.071324526            2 
  259000    1.1303829   -4.0523918    210.48845  0.067724727   0.07128681            2 
  260000    1.1712004   -4.0772721    211.80046  0.067884762  0.071249064            3 
  261000    1.1840694     -4.06055    212.65359  0.067897061  0.071209378            2 
  262000    1.1197632   -4.0563095    213.68579  0.067966219  0.071169928            3 
  263000    1.1193948   -4.0589925    213.91822  0.067781439  0.071128872            1 
  264000    1.1379539   -4.0897397      213.734  0.067466542  0.071083902            2 
  265000     1.148936   -4.0926165    214.85291  0.067563809  0.071043294            4 
  266000    1.1623939    -4.056933    216.49163  0.067823191  0.071005155            5 
  267000    1.1297757   -4.0596574    216.92355   0.06770398  0.070964666            6 
  268000    1.1428351   -4.0380566     217.4836  0.067625498  0.070927702            2 
  269000    1.1320179   -4.0873454    218.03754  0.067545707  0.070892209            3 
  270000    1.1411123    -4.089591    218.94596  0.067575913  0.070852844            3 
  271000    1.1508307   -4.0427536    220.53351  0.067814734  0.070816994            3 
  272000    1.1496024    -4.083646    221.35864   0.06781821  0.070779094            2 
  273000    1.1720022   -4.0842209    222.15656  0.067813357  0.070740782            3 
  274000    1.1465611   -4.0598848    222.31136  0.067612945  0.070705012            2 
  275000    1.1780352    -4.074087     222.5964  0.067453454  0.070668782            2 
  276000     1.138712    -4.118116    223.66544  0.067531834  0.070632145            2 
  277000    1.1685124   -4.0407042    225.07842  0.067713123  0.070597002            4 
  278000    1.1367824   -4.1080313    225.16366  0.067495101  0.070561207            3 
  279000    1.1322914   -4.0914817    226.69648  0.067711015   0.07052884            3 
  280000    1.1436487   -4.0595083     226.8947  0.067528184  0.070496052            3 
  281000    1.1512237   -4.1017275    227.72622  0.067534465  0.070465075            2 
  282000    1.1524614   -4.0766278    228.92039   0.06764787  0.070432277            3 
  283000    1.1545425   -4.0649597    229.44588  0.067563569   0.07040222            3 
  284000    1.1530836   -4.0889387    230.44035  0.067617472  0.070368582            3 
  285000    1.1214155   -4.0488272    231.00287  0.067544699   0.07033432            1 
  286000    1.1324614   -4.0902319    231.98508  0.067594719  0.070302642            2 
  287000    1.1189611   -4.0563928    233.72614  0.067864733  0.070269984            2 
  288000    1.1334707   -4.0828092     233.2164  0.067481598  0.070240881            2 
  289000    1.1336379   -4.1041757    234.72762  0.067683858   0.07020749            2 
  290000    1.1509756   -4.0848973    235.44152  0.067655609  0.070175867            2 
  291000    1.1298754   -4.0839271    235.33922  0.067393819  0.070145414            3 
  292000    1.1474483   -4.0840459    236.92057  0.067614318  0.070116013            2 
  293000    1.1196949   -4.0499949    238.42535  0.067811533  0.070089346            1 
  294000    1.1309218   -4.0667168    237.96574  0.067450605  0.070061736            5 
  295000    1.1387917   -4.0938055    238.07144  0.067251818  0.070031651            4 
  296000    1.1551618   -4.0733015    239.15938  0.067330907  0.070002282            3 
  297000    1.1600578    -4.098285    240.64777  0.067521822  0.069970987            2 
  298000    1.1105639   -4.0782142    240.92377  0.067372419  0.069938522            2 
  299000    1.1395136   -4.1002109     240.6678  0.067075753  0.069905215            1 
  300000    1.1382601   -4.0799002     241.5178  0.067088277  0.069870864            2 
  301000    1.1247258   -4.1076403    243.01218  0.067279119  0.069838745            2 
  302000    1.0993686   -4.1175225    242.90541  0.067026879  0.069804532            3 
  303000     1.136311   -4.1039249    244.16114  0.067151028  0.069774425            2 
  304000    1.1129549   -4.1045723    246.45797  0.067559752  0.069747065            2 
  305000    1.1297792   -4.0969143    246.82917  0.067439663  0.069721165            6 
  306000    1.1130347   -4.0778327    247.15217  0.067307236  0.069693023            6 
  307000    1.1603466   -4.0996859    247.21215  0.067104276  0.069663833            2 
  308000    1.1424654   -4.1048599    248.03322  0.067108554  0.069634693            4 
  309000    1.1341292   -4.0880017    248.85495  0.067112984  0.069604678            1 
  310000    1.1120599   -4.0769889    249.85255  0.067164664   0.06957125            1 
  311000     1.145288   -4.1402451    249.10787  0.066749162  0.069539542            1 
  312000    1.1226968   -4.1119279    250.50509  0.066908412  0.069505369            2 
  313000    1.1398396   -4.1123174    250.70701  0.066748406  0.069472458            2 
  314000    1.1349942   -4.1125477    252.27235   0.06695126  0.069437297            2 
  315000    1.1426584    -4.093935    251.99284  0.066664773  0.069404679            5 
  316000    1.1380294    -4.099676    254.03446   0.06699221  0.069371712            3 
  317000    1.1331426    -4.130472    253.49739  0.066639693  0.069339092            2 
  318000    1.1381226   -4.1090465    255.09776  0.066849519  0.069306143            2 
  319000    1.1423919   -4.1179411    255.32514  0.066699358  0.069273136            3 
  320000    1.1046015   -4.1013721    256.24809  0.066731274  0.069240604            1 
  321000    1.1266034   -4.0723173    257.95227  0.066965801  0.069209601            2 
  322000    1.1199954   -4.1382717    256.57112  0.066400394  0.069176212            2 
  323000    1.1373302   -4.0807081    258.52651  0.066699306  0.069143391            5 
  324000    1.1196183   -4.1333856    257.66621  0.066272173  0.069108839            2 
  325000    1.1197092   -4.0839022    259.77595  0.066609219   0.06907368            2 
  326000    1.1285113    -4.099271    259.97461  0.066455677  0.069039005            3 
  327000    1.1370726   -4.1295108    260.20837  0.066312021  0.069006824            2 
  328000    1.1085792   -4.1188233    261.39157   0.06641046  0.068972303            2 
  329000    1.1337065   -4.0938913    262.71588  0.066544041  0.068938124            2 
  330000    1.1057241   -4.0901484    263.81281  0.066619396  0.068905678            1 
  331000    1.1053743   -4.1091348    264.87189  0.066684765  0.068875757            2 
  332000    1.1319004   -4.1275021    264.23175  0.066323231  0.068844175            2 
  333000    1.1250216   -4.0705626    266.12024  0.066596657  0.068812907            1 
  334000    1.1156967   -4.1179812    266.48334  0.066487859  0.068782568            6 
  335000      1.12836   -4.1123599    268.33323  0.066749559  0.068752263            3 
  336000     1.120741   -4.1134591    268.00558  0.066469639  0.068724075            3 
  337000    1.1325124    -4.099381    269.25989  0.066582565  0.068694031            4 
  338000    1.1122871    -4.147264    269.05649  0.066335426  0.068664221            3 
  339000    1.1212298   -4.1359367    270.54183  0.066504875  0.068633417            5 
  340000    1.1469433   -4.1200995     271.5135  0.066547427  0.068603742            3 
  341000    1.1131006   -4.1146788    272.78613  0.066663276  0.068573736            3 
  342000    1.1268686   -4.1017073    273.84826  0.066727158  0.068545255            2 
  343000    1.1152949   -4.1242848    272.96513  0.066318058  0.068517896            1 
  344000    1.1117843   -4.1186838    273.69296   0.06630159  0.068487329            2 
  345000    1.1110398   -4.1048445    274.63105  0.066336002  0.068457806            1 
  346000    1.1091695   -4.1105563    275.26136  0.066296088  0.068424934            1 
  347000    1.1070153   -4.1476546    275.26547  0.066106021  0.068392761            3 
  348000    1.1128731   -4.1330921    275.94408  0.066078564  0.068359372            3 
  349000    1.1256365   -4.1548874    276.49498  0.066020769  0.068326929            1 
  350000    1.1081215   -4.1264013    277.26319  0.066015045  0.068294868            4 
  351000    1.1333059   -4.1220692    278.08966  0.066023185  0.068263095            2 
  352000    1.1081662   -4.0905741    278.01257  0.065817369  0.068228579            4 
  353000    1.1064645    -4.158385    279.69693  0.066028549  0.068195836            1 
  354000    1.1166074   -4.1376956    280.02821  0.065920011  0.068161128            5 
  355000    1.1094052   -4.1056182    282.16468  0.066235841  0.068126669            4 
  356000    1.1215175   -4.1057924    281.45711  0.065884156  0.068091634            2 
  357000    1.1185654   -4.1181241    281.61923  0.065737448  0.068055371            1 
  358000    1.1237949   -4.1181162    282.47526  0.065753087  0.068020463            3 
  359000    1.0991738   -4.1276063    283.80999  0.065879756  0.067985305            4 
  360000     1.126351   -4.1334329     284.3523  0.065822292   0.06795274            2 
  361000    1.0993095   -4.1024467    286.40306  0.066113356  0.067920671            5 
  362000    1.1000013   -4.1450618    284.96869  0.065600527  0.067886881            3 
  363000    1.1056335   -4.1270832    285.43569  0.065527018  0.067852545            6 
  364000    1.1072426   -4.1603691    285.78851  0.065427773  0.067818742            2 
  365000    1.1032299   -4.1135794    287.48898  0.065636754  0.067785233            2 
  366000    1.1049146   -4.1491409    287.98609  0.065570603  0.067752594            4 
  367000    1.1046509   -4.1490906     288.6223  0.065536399  0.067718702            3 
  368000    1.1356894   -4.1541262    289.06669  0.065458943  0.067685744            3 
  369000    1.0959461   -4.1502221    290.56177  0.065619188  0.067652408            2 
  370000    1.1171225   -4.1262894    291.84644   0.06573118  0.067620995            3 
  371000    1.1099295   -4.1218308    292.16482  0.065625522  0.067589021            3 
  372000    1.1113256   -4.1201196    291.32379  0.065260707  0.067554938            1 
  373000     1.113882   -4.1525611    291.10488  0.065036837  0.067516952            3 
  374000    1.1222897   -4.1673488    291.21137  0.064886669  0.067480397            3 
  375000    1.1039043   -4.0979077    293.87267  0.065305038  0.067445461            3 
  376000    1.0844385   -4.1407388    294.23317  0.065211252  0.067410959            2 
  377000     1.110096   -4.1226173    295.04321  0.065217333  0.067374025            1 
  378000    1.0984787   -4.1252041    296.61076   0.06539038  0.067337822            2 
  379000    1.1059939   -4.1098138     295.3203  0.064934104   0.06730342            3 
  380000    1.0972758   -4.1218922    297.39517  0.065218238  0.067267996            3 
  381000    1.1164604   -4.1166056    297.20606  0.065005701  0.067233824            2 
  382000    1.1244961   -4.1465833    298.92547  0.065210618  0.067201395            2 
  383000    1.1073993   -4.1619165    297.15724  0.064655621  0.067165327            2 
  384000    1.1023406   -4.1659008    297.86741  0.064641364  0.067128561            4 
  385000    1.0889215   -4.1476403    300.89069  0.065127855  0.067092629            5 
  386000    1.0816535   -4.1724917    300.69279  0.064916404  0.067057681            3 
  387000    1.0941018   -4.1390315    301.15917  0.064849089  0.067021234            4 
  388000    1.1053088   -4.1792259    301.77577  0.064814384  0.066987783            3 
  389000    1.0807684   -4.1646863     303.5832  0.065034962  0.066954009            3 
  390000    1.0816845   -4.1246755    304.64533  0.065095156  0.066921975            2 
  391000    1.0813702   -4.1500055    305.64833   0.06514244  0.066889914            2 
  392000    1.1013276   -4.1361826    305.97659  0.065046045  0.066858819            6 
  393000    1.0935066   -4.1654583    306.96556  0.065090236  0.066826379            2 
  394000    1.0775349   -4.1605925    306.86139  0.064903002  0.066793965            2 
  395000    1.0880563   -4.1394814    308.10528  0.065001113   0.06676185            3 
  396000    1.1089636   -4.1326029    309.26392  0.065080792   0.06673115            3 
  397000    1.0855971   -4.1392831    309.93918  0.065058602  0.066701746            1 
  398000    1.0998647   -4.1311759    308.78851   0.06465421  0.066669865            1 
  399000    1.1056618   -4.1226547    310.82647  0.064917809  0.066637122            1 
  400000     1.101994   -4.1340265    311.45838  0.064887163  0.066604751            2 
  401000    1.0887345   -4.1311939    311.49935  0.064733862  0.066571568            2 
  402000    1.0808163   -4.1385448    311.42964  0.064558382  0.066539026            3 
  403000    1.0832646   -4.1919395    311.53678  0.064420343  0.066504392            3 
  404000    1.1021371     -4.14921    314.06233  0.064781834  0.066473157            4 
  405000    1.0899123   -4.1665186     314.9946  0.064813703  0.066443084            1 
  406000    1.1176205   -4.1501694    315.51288  0.064760443  0.066411422            3 
  407000    1.0713963   -4.1493258    315.97479  0.064695904  0.066381227            3 
  408000    1.1100808     -4.18916    316.09372  0.064561627   0.06635099            6 
  409000     1.115051    -4.146748    316.31922  0.064449718  0.066318258            3 
  410000    1.0902501   -4.1583962    315.97295  0.064222144  0.066285731            3 
  411000    1.0744114    -4.154709    318.11422  0.064500044   0.06625207            2 
  412000    1.0905127   -4.1813838    318.35619  0.064392433  0.066218902            4 
  413000    1.0978138   -4.1358445    319.74659  0.064517068   0.06618635            3 
  414000    1.1026036   -4.1797113    319.80298   0.06437258  0.066154528            1 
  415000    1.0974173   -4.1933561    319.95599   0.06424819  0.066121359            1 
  416000    1.0890719   -4.1652801    320.41339  0.064185375  0.066088465            2 
  417000    1.0798422   -4.1416624    321.50382  0.064249363  0.066055202            3 
  418000    1.0893274   -4.1331025    322.80491  0.064355047  0.066022059            2 
  419000    1.0724811   -4.1969279    321.17162  0.063876615  0.065990768            1 
  420000     1.073552   -4.1416413    322.06617  0.063902017   0.06595604            5 
  421000    1.1093662   -4.1444264    324.09977  0.064152765  0.065923648            2 
  422000    1.1146782   -4.1372893     325.1703  0.064212144  0.065891151            2 
  423000     1.084127   -4.1765196    325.10285  0.064047054  0.065859357            2 
  424000    1.0734722    -4.151986    326.99896  0.064268664  0.065827487            3 
  425000    1.0607877   -4.1470551    327.74208  0.064263153  0.065796892            3 
  426000    1.1025822    -4.150089     327.6379  0.064091921  0.065765049            3 
  427000     1.075148   -4.1867422    328.05597  0.064023413  0.065732347            2 
  428000    1.0849246   -4.1874394    328.46934  0.063954311  0.065700214            4 
  429000     1.084896   -4.1477163    329.95566  0.064093951  0.065668343            2 
  430000    1.0779364   -4.1566617    331.11426   0.06416943  0.065636631            1 
  431000    1.0697199   -4.1794621    330.88761  0.063976723   0.06560468            3 
  432000    1.0988418    -4.167448    331.13021  0.063875426  0.065573347            1 
  433000    1.0820896   -4.1754601     331.1525  0.063732198  0.065540644            4 
  434000    1.0824372   -4.1807954    331.77712  0.063705285  0.065509382            3 
  435000    1.0966108   -4.1667609    332.77588  0.063750169  0.065477162            3 
  436000    1.0745929   -4.2189672    333.56846   0.06375544  0.065442805            2 
  437000    1.0674631   -4.2066357    332.47738  0.063401484  0.065407454            2 
  438000    1.0787856   -4.1792222    335.56429  0.063844043  0.065374266            2 
  439000    1.0802047   -4.1737633     334.0638  0.063413781  0.065342065            3 
  440000    1.0848737   -4.2141189    334.87024  0.063422395  0.065307823            1 
  441000    1.0660823    -4.167336    335.68978  0.063433443  0.065273211            3 
  442000    1.0889624   -4.1650789    336.27176  0.063399654  0.065238934            3 
  443000    1.0642068   -4.1995564    337.68707  0.063522775  0.065204775            2 
  444000      1.07464   -4.2182094    338.48159  0.063528827  0.065170269            3 
  445000    1.0700322   -4.1932904    338.69032  0.063425153  0.065135909            2 
  446000    1.0631379    -4.200772    339.40907  0.063417241  0.065103471            1 
  447000    1.0608578    -4.157926    341.93327  0.063745949  0.065071328            4 
  448000    1.0361272   -4.1674133    340.28337  0.063296757  0.065037727            5 
  449000    1.0611788   -4.1907515    341.81466   0.06343999  0.065004923            3 
  450000    1.0842428   -4.1616246    343.79402  0.063665559  0.064972842            3 
  451000    1.0792483   -4.1790478    343.78562  0.063522841   0.06494223            3 
  452000    1.0705541   -4.1772057    344.57665  0.063528144  0.064912359            3 
  453000    1.0651802   -4.2318905    344.32349  0.063341333  0.064882816            3 
  454000    1.0532213   -4.1758598    345.69947  0.063454381  0.064853936            3 
  455000    1.0630741   -4.1914639    346.19352  0.063405406  0.064824468            2 
  456000    1.1016067   -4.1933229    346.73635  0.063365562  0.064795215            5 
  457000    1.0800461   -4.2022288    346.58467  0.063199247  0.064766315            3 
  458000    1.0780442    -4.189319    348.71123  0.063448185  0.064737994            2 
  459000     1.082471     -4.17778    349.43632  0.063441597  0.064709675            2 
  460000      1.07459   -4.1807799    350.69036  0.063530862  0.064680553            3 
  461000    1.0517912   -4.1979666    350.87027  0.063425572  0.064652512            1 
  462000     1.058165   -4.1868294    350.36066  0.063196368  0.064623555            3 
  463000     1.064082   -4.1706911    352.27064  0.063403643  0.064593913            3 
  464000    1.0375592   -4.2065857    352.01122  0.063220405  0.064564582            4 
  465000    1.0790207   -4.1946989    353.06048  0.063272487  0.064535313            3 
  466000    1.0384465   -4.2207189    352.61707  0.063057417  0.064504937            2 
  467000    1.0796688   -4.2028278    353.63957  0.063104848  0.064474974            4 
  468000    1.0584253   -4.1982788     355.7743  0.063350125  0.064446106            1 
  469000    1.0537363   -4.2089609    355.98398  0.063252307  0.064416651            1 
  470000     1.062692   -4.1694521    356.94391  0.063287927  0.064387716            5 
  471000    1.0703099   -4.2239079    355.36342  0.062873925  0.064358036            2 
  472000    1.0706591   -4.2110354    356.75338  0.062986119  0.064328632            3 
  473000    1.0795938   -4.1919354    357.30731  0.062950548  0.064300169            3 
  474000    1.0589491   -4.1612829    358.47719  0.063023416  0.064272688            2 
  475000    1.0722044   -4.2262817    357.51667  0.062722223  0.064242881            3 
  476000    1.0537053   -4.2324408    359.19576  0.062884411  0.064213028            4 
  477000    1.0546094   -4.2097957     360.1925  0.062926712   0.06418415            2 
  478000    1.0898444   -4.2356389       358.37  0.062477337  0.064155249            3 
  479000    1.0773272   -4.2323472    360.54882   0.06272596  0.064124937            1 
  480000    1.0456845   -4.1915713    361.99704  0.062846708  0.064094552            2 
  481000    1.0341592   -4.2378912    361.27708  0.062591317  0.064063886            4 
  482000    1.0760793   -4.2074533    362.42588  0.062660075  0.064034381            3 
  483000    1.0712883   -4.1883166    364.53281  0.062893859  0.064005302            2 
  484000    1.0459916    -4.205372    365.70123  0.062965088   0.06397728            6 
  485000    1.0641675   -4.2197003    365.98826   0.06288458  0.063949401            3 
  486000     1.071685   -4.1991102    366.31045  0.062810433  0.063923351            3 
  487000    1.0765541    -4.197657    365.77865   0.06259046  0.063896141            2 
  488000     1.051727     -4.20851    366.80809  0.062637994  0.063870172            2 
  489000    1.0555285    -4.216902     368.8655  0.062860515  0.063843326            5 
  490000     1.061838   -4.2088601    369.87649  0.062904165  0.063817111            3 
  491000    1.0654689    -4.228486    368.62348  0.062563387  0.063789767            4 
  492000    1.0462188   -4.2157899    369.71919  0.062621814  0.063763071            4 
  493000    1.0722381   -4.1904123    372.20564  0.062915084  0.063735801            1 
  494000    1.0474252   -4.2100207    372.85808  0.062897787  0.063708585            3 
  495000    1.0808978   -4.2017173    372.85905  0.062770884  0.063681454            4 
  496000    1.0584094   -4.2242475    372.19412  0.062532615  0.063653813            4 
  497000    1.0529209   -4.2019357    374.57357  0.062805763  0.063627298            1 
  498000    1.0437178   -4.2198654    374.20148  0.062617384  0.063599914            3 
  499000    1.0662647   -4.2124748    376.09149  0.062807529   0.06357354            2 
  500000    1.0650424   -4.2367242    373.70124   0.06228354  0.063545629            4 
  501000    1.0511933   -4.2656788     373.7664   0.06217006  0.063517035            6 
  502000    1.0830867   -4.2584886    375.09169  0.062266217  0.063489108            3 
  503000    1.0332987   -4.2145784    377.22068  0.062495143  0.063461503            2 
  504000    1.0694562   -4.2024096     378.1191  0.062519693  0.063434669            1 
  505000    1.0545689   -4.2165718      378.511  0.062460562  0.063407688            4 
  506000    1.0524393   -4.2063295    378.71406  0.062370563  0.063380746            4 
  507000    1.0824105   -4.2259579    379.14575  0.062318499  0.063353945           10 
  508000    1.0597435   -4.2337296    378.48891  0.062088075  0.063325825            2 
  509000    1.0428483   -4.2131279    379.78034  0.062177528  0.063298418            3 
  510000     1.051704   -4.2534627    379.87705  0.062071413  0.063268915            4 
  511000    1.0260293   -4.2056556    381.07727  0.062145674  0.063240724            2 
  512000    1.0445582   -4.2429888    381.30627  0.062061567  0.063213257            1 
  513000    1.0567595   -4.2489124    381.83869  0.062027077  0.063185429            5 
  514000      1.06831   -4.2131541    382.36473  0.061991687  0.063157582            3 
  515000    1.0299929   -4.2246788    383.80906  0.062105026  0.063130783            2 
  516000    1.0232557   -4.2114838    385.73882  0.062296321  0.063104673            1 
  517000    1.0592897   -4.2341974    385.71119  0.062171372  0.063079376            3 
  518000    1.0604958   -4.2746081    385.32954  0.061989952  0.063053576            3 
  519000    1.0421335   -4.2308093    387.14539  0.062162074  0.063026182            3 
  520000    1.0609443   -4.2238225    386.93342  0.062008561  0.062998743            2 
  521000    1.0585085   -4.2185899    386.60955   0.06183774  0.062969751            7 
  522000     1.025531   -4.2551273      385.484  0.061539591  0.062940706            1 
  523000    1.0213492   -4.2344838    386.60786  0.061600997  0.062910589            3 
  524000    1.0264848   -4.2499223    387.48912  0.061623588  0.062881236            2 
  525000    1.0513438   -4.2595673    389.65782  0.061850448  0.062851689            2 
  526000    1.0657284   -4.2729091    389.62756  0.061728066  0.062821358            2 
  527000    1.0199352    -4.228684    389.59139  0.061605217  0.062792087            6 
  528000    1.0540619   -4.2480713    390.04947  0.061560838   0.06276341            2 
  529000    1.0386454   -4.2622108    389.53985  0.061364186   0.06273604            3 
  530000    1.0572375   -4.2075886     390.4339  0.061388977  0.062706702            3 
  531000    1.0238061   -4.2400001    390.59089  0.061298005  0.062678163            7 
  532000    1.0530951   -4.2174142     392.7417  0.061519689  0.062647731            5 
  533000     1.042116   -4.2247678    393.19145  0.061474586  0.062618652            4 
  534000    1.0532196   -4.2587811    393.86213  0.061464128  0.062590057            3 
  535000    1.0448155    -4.254551    394.35034  0.061425287  0.062561373            2 
  536000     1.048999    -4.198205    396.68725  0.061674012  0.062533471            3 
  537000    1.0364584   -4.2414593    395.73432  0.061411285  0.062505598            4 
  538000    1.0347373   -4.2545569    396.37746  0.061396757   0.06247725            3 
  539000    1.0500602   -4.2137274    397.93318  0.061523373  0.062449227            2 
  540000    1.0257014   -4.2574073    397.20744  0.061297444  0.062420015            1 
  541000    1.0596848   -4.2800784    396.21145  0.061030723  0.062389973            3 
  542000     1.051314   -4.2260192    398.61146  0.061287125  0.062361285            2 
  543000    1.0446672   -4.2528436    398.85874  0.061212207  0.062332255            4 
  544000    1.0305621   -4.2658678    399.63719  0.061218933  0.062303612            3 
  545000     1.057928   -4.2349724    401.87197  0.061448314  0.062275808            4 
  546000    1.0183494   -4.2600225    399.37059  0.060953997  0.062247342            3 
  547000    1.0458306   -4.2250123    401.47962  0.061163867  0.062218344            5 
  548000    1.0131154   -4.2432638    401.97437  0.061127489  0.062189812            3 
  549000    1.0273309   -4.2822269    401.15183  0.060891291  0.062160266            4 
  550000    1.0268331   -4.2569687    404.06313  0.061221686  0.062131157            3 
  551000     1.049929   -4.2352372    404.67306  0.061202822   0.06210413            6 
  552000    1.0423154   -4.2390471    403.91749  0.060977882  0.062076118            3 
  553000    1.0378235   -4.2513478    404.47806  0.060952088  0.062047239            5 
  554000    1.0366182   -4.2590927    404.31147  0.060817008  0.062017399            2 
  555000    1.0190581   -4.2568895    405.97399  0.060957056  0.061988794            5 
  556000    1.0241521   -4.2767538    405.14762  0.060723564  0.061960365            6 
  557000    1.0322274   -4.2564493    405.49774  0.060666927  0.061930746            5 
  558000    1.0358921   -4.2563552    406.91741  0.060770222  0.061901551            3 
  559000    1.0414726   -4.2611241    409.04058  0.060978023  0.061872972            4 
  560000    1.0438362   -4.2582359    407.31626  0.060612539  0.061843885            5 
  561000    1.0305896   -4.2781267    407.29655  0.060501567  0.061814336            2 
  562000     1.043266   -4.2534389    410.16904  0.060819846  0.061785411            3 
  563000    1.0325421   -4.2558685    410.38264  0.060743435  0.061756454            2 
  564000    1.0133265   -4.2439234    411.58957  0.060814062  0.061725999            4 
  565000    1.0750504   -4.2760805    411.61373  0.060709989  0.061697098            3 
  566000    1.0195163   -4.2699582    411.05246  0.060520091  0.061667701            3 
  567000    1.0299564     -4.25244    412.23434  0.060587057  0.061639157            2 
  568000    1.0244508   -4.2582374    411.68597  0.060399937  0.061608532            4 
  569000    1.0202888   -4.2828167    412.45493  0.060406404  0.061577068            2 
  570000    1.0241668   -4.2814967    411.97337  0.060230025   0.06154521            1 
  571000    1.0306756   -4.3013894    410.67116  0.059934494  0.061513892            3 
  572000    1.0051498   -4.2853028    413.58555  0.060254305  0.061481083            3 
  573000    1.0327925   -4.2769045    413.74423  0.060172226  0.061448977            3 
  574000     1.010035   -4.3228611    413.47432  0.060028212  0.061416244            2 
  575000    1.0401866    -4.284756    414.78929   0.06011439  0.061383636            9 
  576000    1.0287188   -4.2725853    414.04656   0.05990257  0.061351916            5 
  577000    1.0359586   -4.2533708    416.88371  0.060208508  0.061319387            2 
  578000    1.0192666   -4.2134483    420.73243  0.060659231  0.061288102            2 
  579000    1.0280527    -4.279233    417.47415  0.060085514   0.06125613            2 
  580000    1.0255943   -4.2703989    417.94815  0.060050022  0.061224763            4 
  581000    1.0212283    -4.271593    418.51892  0.060028531  0.061193246            2 
  582000    1.0340322   -4.2806192    420.37318  0.060190891  0.061162289            2 
  583000    1.0130823   -4.3044397    418.79866  0.059862587  0.061132034            4 
  584000     1.032863   -4.3035394    419.95247  0.059924724  0.061101369            2 
  585000    1.0250478   -4.2688498    423.01344  0.060258325  0.061072501            4 
  586000    1.0286163   -4.2690822    424.34657  0.060345076  0.061043404            3 
  587000    1.0171427   -4.2962773     423.5154  0.060124276  0.061015009            2 
  588000     1.046281   -4.2945391    423.35084  0.059998701  0.060987457            3 
  589000    1.0347591   -4.2771917    424.44296  0.060051353  0.060960184            2 
  590000    1.0158999   -4.2595168    425.95496   0.06016313   0.06093315            3 
  591000    1.0246214   -4.2882754    424.86124  0.059907112  0.060905684            3 
  592000    1.0413136   -4.2862331    426.69837  0.060064523  0.060877423            2 
  593000    1.0154513    -4.271793    428.85249  0.060265949   0.06084884            2 
  594000    1.0128444   -4.2581267    426.24659  0.059798904  0.060821004            2 
  595000    1.0036855   -4.2998976     428.9517   0.06007727  0.060793605            4 
  596000    1.0034883   -4.2798648    428.53526  0.059918241  0.060766409            3 
  597000    1.0301616   -4.2807573    426.66046  0.059556179  0.060738416            3 
  598000    1.0113453   -4.2868614    429.55747  0.059860295  0.060709942            5 
  599000    1.0005965    -4.283067    429.32513  0.059728037  0.060681508            3 
  600000    1.0193929   -4.2659493    429.76094   0.05968902  0.060653713            2 
  601000   0.99312292   -4.3019655    430.54617  0.059698582  0.060625675            3 
  602000    1.0367921   -4.3187987    430.62249   0.05960998  0.060597044            3 
  603000     1.002249   -4.3160356    430.31021  0.059467968  0.060568696            3 
  604000     1.018515   -4.3268177    432.46278  0.059666498  0.060539224            2 
  605000    1.0215648   -4.2952084    431.86972  0.059486187  0.060509676            4 
  606000    1.0115355   -4.2973156     432.5103  0.059476114  0.060481127            4 
  607000    1.0342115   -4.2949174    434.64494  0.059671189  0.060453295            2 
  608000   0.99835369   -4.3085908     434.8729   0.05960429  0.060425873            4 
  609000    1.0165509   -4.2715364    435.76235  0.059628127  0.060398624            2 
  610000    1.0120004   -4.2647587    437.48221  0.059765329  0.060371397            2 
  611000   0.99268825   -4.3188419    436.86204   0.05958293  0.060344178            5 
  612000   0.99958029    -4.312626    436.92297  0.059493869   0.06031607            2 
  613000    1.0077214   -4.2984045    436.50521  0.059340023  0.060288556            4 
  614000    1.0109143   -4.3061996    437.05627  0.059318169  0.060260607            4 
  615000     1.000581   -4.2942093    440.67752  0.059712401  0.060233752            2 
  616000   0.98247964   -4.2897661    439.30574   0.05942989  0.060207336            2 
  617000     1.035396   -4.3000445    440.52464  0.059498195  0.060180384            4 
  618000    1.0093805   -4.3016682    440.90011   0.05945255  0.060154002           10 
  619000    1.0105864   -4.3229798    440.89054  0.059355216  0.060127668            5 
  620000    1.0308118   -4.3047075    441.34719  0.059320859  0.060101171            5 
  621000    1.0253921   -4.3173844    442.61799  0.059395866  0.060075122            3 
  622000    1.0101199   -4.2743513    443.40627  0.059405985  0.060048211            2 
  623000    1.0001132   -4.3366447    442.54085   0.05919487   0.06002005            3 
  624000    1.0177914   -4.3030159    444.15819  0.059315997  0.059991852            3 
  625000   0.98045548   -4.3165574    443.64498  0.059152664  0.059965647            2 
  626000   0.99434611   -4.3053104    444.50079  0.059172096  0.059939431            3 
  627000    1.0056387   -4.2837964    447.55748  0.059483982  0.059913197            3 
  628000    1.0056642   -4.3007523    446.03521  0.059187263  0.059886304            5 
  629000    1.0232076   -4.3114767    446.32418  0.059131449  0.059860193            3 
  630000    1.0007822     -4.31242    446.77342  0.059097014  0.059833914            3 
  631000    1.0254806   -4.3452082    446.57683  0.058977394  0.059806702            2 
  632000    1.0075057   -4.2982485    448.12434  0.059088125   0.05977968            4 
  633000     1.024456   -4.2891762    449.79811  0.059215128  0.059753628            4 
  634000    1.0234757   -4.2944694     450.4969  0.059213577  0.059727752            3 
  635000    1.0008374   -4.3324112     447.1994  0.058687585  0.059700463            3 
  636000    0.9837695   -4.2793026    450.62444  0.059044083   0.05967326            3 
  637000    1.0019638   -4.3190298    448.98116  0.058736415  0.059645975            2 
  638000    1.0111311    -4.309245    451.12727   0.05892467  0.059617964            3 
  639000    1.0146051   -4.3146489    450.21098   0.05871296  0.059590374            3 
  640000    1.0121933   -4.3022612    451.38684  0.058774328  0.059562387            4 
  641000   0.99177772   -4.3426795     450.0155  0.058504355  0.059534324            2 
  642000    1.0035737   -4.2874235     453.2113   0.05882805  0.059506386            2 
  643000    0.9781443   -4.2736826    453.25464  0.058742177  0.059478125            5 
  644000     1.000138   -4.3530152    452.85732   0.05859955  0.059449537            4 
  645000    1.0055021   -4.3178288     453.2091  0.058554147  0.059420898            2 
  646000   0.99606248   -4.3324118    453.52493  0.058504248  0.059393183            3 
  647000   0.99431972   -4.2966479    455.15328  0.058623554  0.059364951            2 
  648000    1.0065013   -4.3314012    453.30346  0.058295198  0.059334994            5 
  649000   0.99001138   -4.3534175    452.75729  0.058135246  0.059305482            5 
  650000   0.98169833   -4.3406568    456.39762  0.058512516  0.059275637            4 
  651000   0.98279766   -4.3184352    457.22679  0.058528776  0.059246927            2 
  652000   0.99637642   -4.3716947     456.0721  0.058291424  0.059219142            2 
  653000   0.98952534   -4.3233947    457.62199  0.058399948  0.059190163            4 
  654000    1.0021445   -4.3521459    456.56035  0.058175376  0.059161861            1 
  655000   0.98153013   -4.3321555    458.07701  0.058279517  0.059133269            4 
  656000    1.0116901   -4.3054871    459.74418  0.058402462  0.059105311            2 
  657000   0.98881381   -4.3188339    459.29952  0.058257169  0.059077872            3 
  658000    1.0212161   -4.3396402    459.68684  0.058217685  0.059050156            4 
  659000   0.98723426   -4.3443622    459.90147  0.058156483  0.059021957            3 
  660000    1.0065225   -4.2894987    462.80949  0.058435542  0.058994745            2 
  661000   0.97613735   -4.3481291    461.81884  0.058222244  0.058966769            3 
  662000   0.97706374   -4.3070426    460.75829  0.058000791  0.058938562            1 
  663000   0.97051509   -4.3383657    461.31501  0.057983284  0.058909683            4 
  664000    1.0158825   -4.3443787    461.38947  0.057905305  0.058881376            4 
  665000   0.97663712   -4.3405434    462.13662  0.057911857  0.058853344            3 
  666000   0.99712488   -4.3274806    462.94976  0.057926646  0.058825768            1 
  667000    1.0117588    -4.329939     463.8376  0.057950725   0.05879704            4 
  668000   0.99965277   -4.3226381    463.94883  0.057877848  0.058768616            4 
  669000     0.991173   -4.3242039    466.08234  0.058057093   0.05873968            3 
  670000   0.99818023   -4.3082184    465.50255  0.057898328  0.058710949            3 
  671000   0.98218959   -4.3656117    464.08909  0.057636499  0.058681931            3 
  672000   0.97249641        -4.31    467.11507  0.057925976  0.058652644            4 
  673000   0.99983055   -4.3467892    467.34452  0.057868316  0.058623703            3 
  674000   0.97327549   -4.3308383    467.41392  0.057791038   0.05859449            7 
  675000   0.98830993   -4.3563618    466.38196   0.05757802  0.058566472            2 
  676000   0.96509612   -4.3563224    468.51188  0.057755409  0.058537775            2 
  677000   0.97273105   -4.2976814    469.57581   0.05780106  0.058508867            4 
  678000   0.96527839   -4.3466581    468.08325  0.057532356  0.058480443            4 
  679000   0.96607345   -4.3357241    469.15357  0.057578984  0.058452317            3 
  680000   0.99902192   -4.3760609    470.29578  0.057634287  0.058424347            2 
  681000    1.0200202   -4.3446837    471.36493  0.057680485  0.058395805            6 
  682000     0.990685   -4.3121808    471.43403  0.057604354   0.05836724            4 
  683000   0.96260451   -4.3412982    470.43448  0.057398058  0.058337748            3 
  684000   0.96886617   -4.3592406    470.82767  0.057362045  0.058308805            5 
  685000   0.99359151   -4.3042727    475.03425  0.057790055  0.058280543            2 
  686000   0.97594868   -4.3367059    473.38905  0.057505958  0.058252296            8 
  687000   0.99493665   -4.3636916    474.65442  0.057575742  0.058224418            3 
  688000   0.97234024   -4.3144162    474.90623  0.057522556   0.05819564            2 
  689000   0.98880884   -4.3332198    476.55079  0.057637977  0.058167531            4 
  690000   0.97023039   -4.3745162    474.33748  0.057287135  0.058138936            8 
  691000   0.99769911   -4.3674824    474.53449  0.057227989  0.058109776            4 
  692000   0.98001521   -4.3462539    476.68714  0.057404521  0.058081698            2 
  693000   0.95258901   -4.3524414     476.4789  0.057296644   0.05805298            2 
  694000   0.99629647    -4.363939    476.70341  0.057241043  0.058024967            7 
  695000   0.95934923   -4.3644634    478.43604  0.057366431  0.057996956            2 
  696000   0.96998115   -4.3512573      477.735  0.057200072  0.057968613            2 
  697000   0.98216194   -4.3776406    476.16072  0.056929785  0.057939577            4 
  698000   0.99034427   -4.3581283    477.84548  0.057049365  0.057910649            4 
  699000   0.97347175   -4.3258831    478.95835  0.057100424  0.057881784            3 
  700000   0.98456635   -4.3733153    478.09402  0.056915954  0.057852893            5 
  701000   0.98663927   -4.3577197    479.68357  0.057023725   0.05782422            3 
  702000   0.97409487   -4.3366104    482.27066  0.057249604  0.057796683            6 
  703000   0.97647829   -4.3588802    481.42165  0.057067526  0.057768636            3 
  704000    1.0049902   -4.3831166      481.411  0.056985204  0.057739539            4 
  705000    0.9621179   -4.3924697    483.34974  0.057133539  0.057711473            3 
  706000   0.98048442   -4.3329479    483.66634  0.057089984  0.057684306            3 
  707000   0.96688655     -4.40921    483.14552  0.056947845  0.057657364            6 
  708000   0.95676304   -4.3658654    483.83722  0.056948825  0.057630139            2 
  709000   0.96855956   -4.3647148    484.68193  0.056967787  0.057602977            4 
  710000   0.98787506    -4.351822    486.06964  0.057050427  0.057576086            2 
  711000   0.97035839   -4.3823808    484.72218  0.056812258  0.057548977            2 
  712000   0.95753766   -4.3412758    487.11903  0.057012995  0.057521424            3 
  713000   0.95498205   -4.3719904     488.1586  0.057054535  0.057494246            4 
  714000    0.9576489   -4.3500262    488.69172  0.057036849  0.057466531            3 
  715000   0.96168566   -4.3761328    487.21171  0.056784582   0.05743936            6 
  716000   0.98385012   -4.3438387    488.53088  0.056858808   0.05741282            4 
  717000   0.97501182   -4.3548478    488.76839  0.056807111  0.057386181            4 
  718000   0.92949158   -4.3789276     488.1512   0.05665636  0.057359484            3 
  719000    0.9494544     -4.35177     491.1614  0.056926449  0.057333217            4 
  720000   0.97246649   -4.3910023    490.25227  0.056742161  0.057307168            5 
  721000   0.97772556    -4.382965    490.61176  0.056705012  0.057280343            3 
  722000   0.95248306   -4.3584585     491.9566  0.056781695   0.05725356            5 
  723000   0.96474563   -4.3752824    492.39534  0.056753727  0.057227041            4 
  724000   0.95642632   -4.3766597    492.84005  0.056726525  0.057199953            4 
  725000   0.96173978   -4.3578924    494.24822  0.056810141  0.057173311            4 
  726000   0.96087918   -4.3465574    493.65113  0.056663352  0.057145947            6 
  727000    0.9856638   -4.3731133    492.26824  0.056426896  0.057118445            4 
  728000   0.94441827   -4.3760136    493.30913  0.056468536  0.057089981            2 
  729000   0.98314711   -4.3682654    493.37812  0.056398963  0.057062227            3 
  730000    0.9559201   -4.3892833    493.27989   0.05631049  0.057034404            6 
  731000   0.96810463   -4.3664934    495.09372  0.056440232  0.057007256            1 
  732000   0.95320957   -4.3234367    495.49538  0.056408855  0.056979958            4 
  733000   0.98462436    -4.378801    493.90646  0.056151258  0.056951711            3 
  734000   0.95149361   -4.3859906    494.14638  0.056101995  0.056922908            4 
  735000    0.9645111   -4.3830221     495.5488  0.056184671  0.056894633            4 
  736000   0.95307035   -4.3723287    497.50751  0.056330108   0.05686663            4 
  737000   0.94007101     -4.39276    497.26336  0.056226069   0.05683739            5 
  738000    0.9641658   -4.3775187    497.12829   0.05613463  0.056808444            2 
  739000   0.97094199   -4.3958799    496.33419  0.055969124  0.056779471            6 
  740000   0.93407049   -4.3745874    496.96841  0.055964912  0.056750815            6 
  741000   0.93737651   -4.3918306    497.94231   0.05599891  0.056721855            5 
  742000   0.95425056   -4.3981584    497.74488  0.055901267  0.056693137            2 
  743000   0.96534572   -4.3828933     499.6315  0.056037629  0.056664835            4 
  744000   0.95467426   -4.3657035    501.98597  0.056226027  0.056636667            7 
  745000   0.96467668   -4.3746297    502.29777  0.056185433  0.056608608            2 
  746000   0.96176521   -4.3787425    500.66741  0.055927995  0.056580425            2 
  747000   0.95160313   -4.3794831    502.98744  0.056111941  0.056552822            4 
  748000   0.96048195   -4.3747311    502.27665  0.055957737  0.056524784            4 
  749000   0.93598823   -4.3801817    502.68027  0.055927934  0.056496717            4 
  750000   0.93586904   -4.4210947    502.48009  0.055831121  0.056468061            2 
  751000   0.95469712   -4.3771086    502.13727  0.055718738  0.056439532            3 
  752000   0.92965783   -4.4156171    502.44415  0.055678651  0.056411008            4 
  753000   0.96752547    -4.404122    503.53741  0.055725698  0.056382785            7 
  754000   0.94986391    -4.399591    502.03748  0.055486017  0.056354191            3 
  755000   0.95834434   -4.4033932     504.7606  0.055713091  0.056326152            5 
  756000   0.95075627   -4.4366423    502.88407  0.055432548  0.056297135            3 
  757000   0.92718908   -4.3803766    506.13195  0.055716859  0.056268216            8 
  758000   0.94518545   -4.3811772    504.29983  0.055441933  0.056239512            5 
  759000   0.95969331    -4.390964    504.60936  0.055402872  0.056210152            5 
  760000   0.96538166    -4.373092    505.87421  0.055468663  0.056180796            3 
  761000   0.95044316   -4.3980534    507.49772  0.055573557  0.056151945            2 
  762000   0.93778242   -4.3685833    506.61248  0.055403815  0.056122861            3 
  763000   0.96316064   -4.4057996    506.58866  0.055328599  0.056093587            4 
  764000   0.95340551    -4.417559    507.35489  0.055339757  0.056064664            4 
  765000   0.95540998   -4.3870902    507.83018  0.055319192  0.056036577            2 
  766000   0.94312955   -4.3944491    509.44707  0.055422876  0.056008012            3 
  767000   0.94134999   -4.3823326    510.60441  0.055476359  0.055979948            2 
  768000     0.964211   -4.3650465    510.74228  0.055419085  0.055951929            4 
  769000    0.9381047    -4.376516     511.5463  0.055434146  0.055924031            3 
  770000    0.9412387   -4.4245441    509.84476  0.055178004  0.055895782            8 
  771000   0.94896362   -4.4534739    509.00036  0.055015171  0.055867033            2 
  772000    0.9314332   -4.4160697    509.62721  0.055011573  0.055838161            2 
  773000   0.96124187   -4.4361231     510.3555  0.055018919   0.05580923            3 
  774000   0.93147025   -4.3840944    512.71113  0.055201457  0.055780568            2 
  775000    0.9454557   -4.4033384    512.61586  0.055119985  0.055752672            3 
  776000   0.94411207   -4.3837149    512.94282  0.055084066  0.055724426            2 
  777000   0.94017306   -4.4285422    512.57569  0.054973798  0.055695925            9 
  778000    0.9552194   -4.4203506    512.57291   0.05490284  0.055667063            3 
  779000   0.92133286   -4.4222978    512.22819  0.054795485  0.055637605            3 
  780000   0.93750185   -4.4040315    513.46261  0.054857116  0.055608281            5 
  781000    0.9465216   -4.4300832    513.49844    0.0547907  0.055578193            2 
  782000   0.94398563   -4.4028088    512.25352  0.054587971  0.055548123            2 
  783000   0.95065728   -4.4127852    513.38692   0.05463888  0.055518396            5 
  784000   0.94813469   -4.3948516    515.25637  0.054767896  0.055488642            2 
  785000   0.93887187   -4.3890414    514.57367  0.054625655  0.055458783            5 
  786000   0.93767695   -4.4294208    516.11329   0.05471939  0.055429092            3 
  787000   0.94164447   -4.4010385    518.56469  0.054909433   0.05539991            6 
  788000   0.92961293   -4.4314144    516.58862  0.054630776  0.055370939            3 
  789000   0.94016623   -4.4349916    515.63128  0.054460422  0.055341835            4 
  790000   0.91368514   -4.4190568    517.60245  0.054599414  0.055312868            1 
  791000   0.92746921   -4.4160574    519.63525  0.054744548  0.055284289            5 
  792000   0.90403274   -4.4001688    518.29211  0.054534103  0.055255611            4 
  793000    0.9370781     -4.43122    519.12177  0.054552519  0.055226936            2 
  794000   0.90664253   -4.4148436    517.45083  0.054308441  0.055197752            3 
  795000   0.92777187   -4.4174199    518.84008  0.054385753  0.055169218            3 
  796000   0.93503744   -4.4315088    518.29217  0.054260068  0.055140174            4 
  797000   0.94379747   -4.4107875    521.11113  0.054486734  0.055110849            7 
  798000   0.92934247   -4.3983893    521.48534  0.054457533  0.055081818            8 
  799000   0.95791583   -4.4321517    520.09197  0.054244052  0.055052571            2 
  800000   0.93331314   -4.4164371    522.46328  0.054423258  0.055023365            4 
  801000   0.92180204    -4.411845    521.33072  0.054237487  0.054994163            3 
  802000    0.9421967   -4.4103862    524.34933  0.054483513  0.054965233            3 
  803000   0.91107307   -4.4486986    523.98649  0.054378008  0.054936251            3 
  804000   0.93323789   -4.4407746    521.95774  0.054100098  0.054906821            6 
  805000   0.95116638   -4.4309262    522.56718  0.054095981  0.054877333            5 
  806000   0.92202284   -4.4172082    523.04458  0.054078223  0.054848448            7 
  807000   0.93762027   -4.4737207    523.74612  0.054083656  0.054818751            2 
  808000   0.92998124   -4.4135166    524.96476  0.054142405  0.054789424            4 
  809000   0.96040412   -4.4452665    525.30262  0.054110282  0.054760039            3 
  810000   0.92123464   -4.4336054    524.31801  0.053942182  0.054730739            3 
  811000   0.93905358   -4.4557163    523.69871  0.053812033   0.05470103            5 
  812000   0.91607509   -4.4358006    525.20437  0.053900284  0.054671546            4 
  813000   0.91502534   -4.4442302    525.96513  0.053911964  0.054641763            3 
  814000    0.9111491   -4.4345407    526.21604  0.053871421  0.054611694            4 
  815000   0.91115895   -4.4438523    525.10545  0.053691764  0.054581776            5 
  816000   0.92934596   -4.4774538    526.62358  0.053781003  0.054551465            3 
  817000   0.91534933   -4.4273432    526.59377  0.053712135  0.054521699            2 
  818000   0.92826822   -4.4042136     528.4716  0.053837775  0.054491889            5 
  819000   0.93201201   -4.4300205    528.93188  0.053818872  0.054462186            2 
  820000   0.91779416   -4.4403336    528.18918  0.053677762  0.054432561            3 
  821000   0.92051825   -4.4252607    528.61469  0.053655571  0.054402876            5 
  822000   0.92459845   -4.4518315     528.2054  0.053548804  0.054373676            4 
  823000   0.92811199   -4.4391617    529.41346  0.053606061  0.054343574            3 
  824000   0.91844832   -4.4523479    529.19949  0.053519366  0.054313808            4 
  825000   0.92140359   -4.4359407    530.31243  0.053566912  0.054284456            4 
  826000    0.9285602   -4.4451976    531.33957  0.053605688  0.054255628            5 
  827000   0.94830051   -4.3796562    533.38027    0.0537465  0.054226773            3 
  828000   0.91554844   -4.4569147      532.505  0.053593499  0.054197838            3 
  829000    0.9057771   -4.4763442    532.41529  0.053519832   0.05416863            5 
  830000   0.94170359   -4.4376743    532.97864  0.053511912  0.054139691            5 
  831000   0.91932873   -4.4425988     535.3283  0.053683143  0.054110701            5 
  832000   0.91484737    -4.455279    532.72015  0.053357387  0.054081871            4 
  833000   0.94603465   -4.4267008    535.83605  0.053605047   0.05405314            9 
  834000   0.92947347      -4.4277    535.39537   0.05349674  0.054024784            6 
  835000   0.90764478   -4.4456763    534.64263  0.053357548  0.053996249            3 
  836000   0.92393129   -4.4271224    536.03395  0.053432411  0.053967467            3 
  837000   0.89902908   -4.4520062    534.62731  0.053228525  0.053938229            5 
  838000   0.93427801   -4.4506614    536.14803  0.053316232  0.053908768            1 
  839000    0.9280277   -4.4786899    534.81484  0.053120266   0.05387981            5 
  840000   0.90556609   -4.4633721    535.61798  0.053136704   0.05385031            3 
  841000   0.92684086   -4.4884019    537.84072  0.053293769  0.053820646            4 
  842000   0.88233842   -4.4729848    536.03855  0.053052113  0.053790844            4 
  843000   0.91156039   -4.4647968    536.68701  0.053053282  0.053761218            3 
  844000   0.92070374    -4.474079     537.4603  0.053066776  0.053732419            2 
  845000   0.93636474   -4.4615652    537.81009   0.05303847  0.053703292            2 
  846000   0.92106124   -4.4658102    536.62773  0.052859311  0.053674279            3 
  847000   0.91532752   -4.4734019    538.01583  0.052933474  0.053645054            3 
  848000   0.91328512   -4.4630945    538.52215  0.052920809  0.053616255            2 
  849000   0.90558481   -4.4884496    538.97444   0.05290287  0.053587102            6 
  850000   0.89780148   -4.4355486    542.01615  0.053138838  0.053558179            2 
  851000   0.91025155   -4.4622215     541.7194  0.053047337  0.053529055            4 
  852000   0.91441545    -4.454746    541.02708  0.052917359  0.053500423            6 
  853000   0.91984501   -4.4749246    540.99726  0.052852409  0.053471737            6 
  854000   0.92127901    -4.471406    542.07116  0.052895312  0.053442565            4 
  855000    0.9042319    -4.440646    541.18682  0.052747253  0.053413931            2 
  856000   0.91289203   -4.4520857    542.60937  0.052824121   0.05338463            2 
  857000   0.91382066   -4.4922004    541.15196  0.052620766  0.053355251            5 
  858000   0.89906078   -4.4646767    543.11901  0.052750486   0.05332603            3 
  859000    0.8842941   -4.4743935    541.76975  0.052558183  0.053296798            3 
  860000   0.91693426   -4.4640508    544.14632  0.052727357   0.05326764            3 
  861000   0.88754978   -4.4944242    543.29534  0.052583753   0.05323844            4 
  862000    0.9016109   -4.4713492    543.64761  0.052556807  0.053209174            2 
  863000   0.92404378   -4.4934522    543.37201  0.052469294  0.053179628            3 
  864000   0.90351899   -4.4603697     545.6357    0.0526269  0.053150445            4 
  865000    0.9042617   -4.4795436    544.16007  0.052423899  0.053121125            3 
  866000   0.91139676   -4.4892201    544.29847  0.052376681  0.053091304            3 
  867000   0.91653243   -4.4821629    544.98782  0.052382528  0.053061546            3 
  868000    0.9076735   -4.4713804    545.72369  0.052392827  0.053031753            3 
  869000   0.89618452    -4.481565      544.305  0.052196491    0.0530021            7 
  870000   0.92671353   -4.4728872    545.79387  0.052279107  0.052972104            2 
  871000   0.90351444   -4.4477378    547.36033  0.052368957  0.052942315            5 
  872000   0.92428204   -4.4859032    546.07763  0.052186318   0.05291266            4 
  873000   0.90439355   -4.4889811    547.17091    0.0522309  0.052882446            2 
  874000   0.87675181   -4.5005943     545.6601  0.052027088  0.052852436            5 
  875000   0.88495215   -4.4902871    547.30289  0.052124085  0.052822649            5 
  876000   0.91075468   -4.4786715    545.90092  0.051931214  0.052792984            3 
  877000   0.88800256     -4.47856    546.33408  0.051913159  0.052763068            4 
  878000   0.90315911   -4.4792584    547.39217  0.051954458  0.052733299            6 
  879000   0.93568225   -4.4683774     546.9055  0.051849213  0.052703623            6 
  880000   0.90216334   -4.5031957     549.8656  0.052070606  0.052673734            4 
  881000   0.91284996   -4.5020908    549.56875  0.051983423  0.052643818            4 
  882000   0.93188261   -4.5292469    548.21198  0.051796294  0.052613788           10 
  883000   0.90007187   -4.4748306    549.42832  0.051852427   0.05258418            4 
  884000   0.92028583   -4.4646649    552.27715  0.052062325  0.052554132            4 
  885000   0.89729499   -4.4720375    550.12088  0.051800459  0.052524048            7 
  886000   0.91761201   -4.4801931    549.05947  0.051642162   0.05249396            4 
  887000   0.90065586   -4.5320986    549.53293  0.051628422  0.052463893            3 
  888000   0.91233567    -4.467479    551.97134  0.051799112  0.052433777            7 
  889000    0.9114503     -4.48558    552.49638  0.051790062  0.052404286            4 
  890000   0.89544793    -4.485066    552.79874  0.051760181  0.052374659            2 
  891000   0.87897105   -4.4870203    552.64264   0.05168749  0.052345029            6 
  892000   0.87604807    -4.464338    552.63644  0.051628965  0.052315422            3 
  893000   0.90877544    -4.508348    553.11304  0.051615625  0.052286264            4 
  894000   0.90859414   -4.4999462    554.67097   0.05170311  0.052257179            4 
  895000   0.88307616   -4.4953631    556.34644  0.051801345  0.052228162            4 
  896000   0.91270554    -4.519832    555.10059  0.051627659  0.052199132            2 
  897000   0.90173428   -4.4686762    556.70223  0.051718899  0.052170301            4 
  898000   0.91382811   -4.5181998    556.00136  0.051596266  0.052140841            4 
  899000   0.89649334   -4.4945588    556.09108   0.05154719  0.052111951            6 
  900000   0.89349747   -4.4746026    557.00162  0.051574224  0.052083414            4 
  901000   0.89299055   -4.5154499    555.08084   0.05133933  0.052054317            3 
  902000    0.8992481   -4.5299902    556.24429  0.051389901  0.052025361            4 
  903000   0.88575759   -4.4824426    556.64309  0.051369794  0.051996246            2 
  904000   0.87190542   -4.5046915    558.58533   0.05149201  0.051967052            5 
  905000   0.88752557   -4.4720686    556.52503  0.051245398  0.051937969           10 
  906000   0.90052638   -4.5241836    557.94547  0.051319488  0.051908961            6 
  907000   0.89696673   -4.4754879    558.79534   0.05134099  0.051879242            6 
  908000    0.9108209   -4.4926115    558.79574  0.051284485   0.05184959            7 
  909000   0.89375609   -4.5310495    555.94173  0.050966422  0.051819876            8 
  910000   0.87577845   -4.5479532    556.63611  0.050974003  0.051790073            4 
  911000   0.88591975   -4.4953441    562.50156  0.051454588  0.051760832            3 
  912000   0.89588675   -4.4832532    559.68244  0.051140574  0.051732178            3 
  913000   0.91520914   -4.4940799    562.23009  0.051317095  0.051703468            2 
  914000   0.88968445   -4.5286718    560.88082   0.05113793  0.051674658            5 
  915000   0.88284271   -4.4963003     562.1384  0.051196576  0.051645763           11 
  916000   0.88482791   -4.4922493    562.72509  0.051194059  0.051617123            6 
  917000   0.86625395   -4.4986804    562.60405  0.051127231  0.051588509            6 
  918000   0.89955935    -4.494609    563.61923  0.051163692  0.051560123            2 
  919000   0.90850631   -4.5280029    562.06665  0.050967233  0.051531415            3 
  920000   0.88458896   -4.5473464    561.84138  0.050891429  0.051502882            4 
  921000   0.89769074   -4.5187457    563.74115  0.051008066  0.051474179            4 
  922000   0.88250179   -4.5223703    564.88966  0.051056549  0.051446017            3 
  923000   0.89305879   -4.5229053    564.47581  0.050963869  0.051417828            3 
  924000   0.89756346   -4.5009599    565.30797  0.050983764  0.051389698            3 
  925000     0.902663   -4.5428541    565.63651  0.050958245  0.051361231            4 
  926000   0.89117866   -4.5169602    566.29695  0.050962649  0.051333424            3 
  927000    0.8988768   -4.5184933    566.67015  0.050941221  0.051305027            6 
  928000   0.90102953   -4.4877044    567.86123  0.050993286  0.051277168            2 
  929000    0.8820994   -4.5448728    567.23904  0.050882584  0.051248886            3 
  930000   0.91296091   -4.5623623    567.20058  0.050824425  0.051220365           11 
  931000   0.86702932   -4.4842011    568.75544  0.050909008  0.051192733            2 
  932000   0.88625267   -4.5141783    566.81105   0.05068053  0.051164618            4 
  933000   0.89209007   -4.5343394    569.46561  0.050863309  0.051137225            4 
  934000   0.88322199   -4.5283915    569.14036  0.050779832  0.051108942            3 
  935000   0.88231616   -4.5128582    569.00631  0.050713575  0.051080859            4 
  936000   0.86746776   -4.4959883    570.71472  0.050811496  0.051053207            4 
  937000   0.89548475   -4.5505987    570.23196  0.050714333  0.051025762            2 
  938000   0.88422185   -4.5082994    572.50666  0.050862354  0.050998322            7 
  939000   0.91019813   -4.5155103    569.43167  0.050535292  0.050971108            5 
  940000   0.87926847   -4.5457456    571.92192  0.050702298  0.050943954            3 
  941000   0.88551841   -4.5412761    572.57818  0.050706534  0.050916722            4 
  942000   0.86994694   -4.5318688    571.75668  0.050580031  0.050889534            3 
  943000   0.87111326   -4.5450172    572.91591  0.050628836  0.050862458            9 
  944000   0.88260759   -4.5113238    574.17064  0.050685968  0.050835311            4 
  945000   0.87058246   -4.5170265    572.01414  0.050442164   0.05080818            4 
  946000   0.89796386   -4.5297573    573.52545  0.050521974  0.050781326            5 
  947000   0.87177896   -4.5608601    571.73543  0.050311108  0.050754232            5 
  948000   0.87622574   -4.5138874    575.56908  0.050595032  0.050727415            3 
  949000   0.87069441    -4.557495      576.235  0.050600193  0.050700717            6 
  950000   0.87511846   -4.5442302    576.03399  0.050529297   0.05067439            3 
  951000    0.8975838   -4.5113938     577.1493  0.050573896  0.050647908            2 
  952000   0.88274834   -4.5154318    576.36869  0.050452442  0.050621652            2 
  953000   0.86670993   -4.5333483    575.89369  0.050357965  0.050594579            4 
  954000   0.86854787    -4.559959     576.4117  0.050350428  0.050567755            8 
  955000   0.87491791   -4.4980577    577.53483   0.05039571   0.05054132            3 
  956000   0.88371555   -4.5409351    577.61551  0.050350027  0.050514857            3 
  957000    0.8570676   -4.5523941    578.46816  0.050371661  0.050488028            6 
  958000   0.86198103   -4.5428086    578.08182  0.050285475  0.050461214            4 
  959000   0.88783966   -4.5634267    577.38882  0.050172821  0.050434393            4 
  960000   0.86401945   -4.5400896    577.51391  0.050131416  0.050408009            5 
  961000   0.86712863   -4.5559529    578.24606  0.050142738  0.050381219            4 
  962000    0.8658308   -4.5574014     578.3538  0.050099948  0.050354427            5 
  963000   0.86136888   -4.5275642    579.45096  0.050142866  0.050328017            1 
  964000   0.87388673   -4.5476706    578.41612  0.050001394  0.050301345            7 
  965000   0.88118118   -4.5390535    581.05073  0.050177092  0.050275009            4 
  966000   0.87379799   -4.5309645    579.55718  0.049996306  0.050247984            5 
  967000   0.86279332   -4.5510758    580.92563  0.050062533  0.050221318            3 
  968000   0.86675715   -4.5725028    578.83752  0.049831054  0.050193829            4 
  969000   0.86732781    -4.527087    581.82487  0.050036539  0.050166825            3 
  970000   0.86278177   -4.5581162    582.75325  0.050064712  0.050140348            2 
  971000   0.86372723   -4.5517823    582.94544  0.050029647    0.0501135            5 
  972000   0.86513649   -4.5448924    581.97132  0.049894661  0.050086566           10 
  973000   0.87256474   -4.5582561    581.04455  0.049764007   0.05005978            4 
  974000   0.84909561   -4.5722035    580.82886  0.049694461  0.050032544            7 
  975000   0.85996718   -4.5579946    583.58165  0.049878774  0.050005386            6 
  976000   0.86903232   -4.5607913    584.55918  0.049911132  0.049978525            4 
  977000   0.85831524   -4.5535268    583.66398   0.04978369  0.049951433            5 
  978000   0.87060245   -4.5888225    581.46229  0.049545185  0.049924737            3 
  979000   0.85283455   -4.5595908    582.47121  0.049580457  0.049897757            4 
  980000   0.84985641   -4.5529299    584.07959  0.049666632  0.049871132            2 
  981000   0.86688938   -4.5486079    582.85032   0.04951158  0.049844175            5 
  982000    0.8586095   -4.5729566    584.05272  0.049563198  0.049817387            3 
  983000   0.84277632   -4.5569956     584.9037  0.049584919  0.049790265            4 
  984000   0.84896609   -4.5566832    586.33178  0.049655469  0.049763471            3 
  985000   0.85797332    -4.557581    585.35075   0.04952206  0.049736551            3 
  986000   0.86513085   -4.5553217    587.13076  0.049622276  0.049709713            5 
  987000   0.86134833   -4.5602795    586.97648  0.049558973    0.0496827            6 
  988000   0.87315948   -4.5809786    585.59578  0.049392357  0.049655516            4 
  989000   0.86414655   -4.5819826    585.86182  0.049364831  0.049628254            4 
  990000   0.84532293   -4.5889421    584.67648  0.049215192  0.049601008            3 
  991000   0.86285467   -4.6082706    586.22463  0.049295714  0.049573778            6 
  992000   0.85690257   -4.6082033    585.98369   0.04922578  0.049546554            2 
  993000   0.85659275   -4.5835781    587.03029  0.049264039  0.049519337            4 
  994000   0.87770131   -4.5758115    587.34067  0.049240498  0.049492265            4 
  995000   0.85359805    -4.556997    590.72811  0.049474716  0.049465693            3 
  996000   0.84899016    -4.550799    588.80831  0.049264417  0.049438685            6 
  997000   0.85862042    -4.585832    589.69296  0.049288947  0.049411786            4 
  998000   0.86819091   -4.5831033     587.7167  0.049074541  0.049384785            7 
  999000   0.85875092   -4.5924671    590.07247  0.049221928  0.049357759            3 
 1000000   0.85362887   -4.5671371    590.52794  0.049210662   0.04933076            7 
 1001000   0.85587344   -4.5777851    589.63553  0.049087207  0.049303573            4 
 1002000    0.8540419   -4.5448658    588.79208   0.04896807  0.049276199           10 
 1003000   0.83623861   -4.5913363    588.87151  0.048925849  0.049249062            3 
 1004000   0.84451092    -4.587707    589.32756   0.04891497  0.049221505            2 
 1005000   0.86248401   -4.5651173    590.30101  0.048947016    0.0491944            7 
 1006000   0.84347192   -4.5771795    590.54957  0.048918951  0.049166939            8 
 1007000   0.87160786   -4.5780208    591.37404    0.0489386  0.049140132            8 
 1008000   0.85287118     -4.59063    591.28781  0.048882921  0.049113067            3 
 1009000   0.84654529   -4.5785159    592.89028  0.048966822  0.049085947            5 
 1010000    0.8748952   -4.5671573      591.831  0.048830941   0.04905901            3 
 1011000   0.84560531   -4.5756733    593.82113   0.04894668   0.04903231            4 
 1012000    0.8675696   -4.5679781    591.66318  0.048720618  0.049005248            7 
 1013000   0.84363756   -4.5680153    594.22464  0.048883238  0.048977972            6 
 1014000   0.85707063   -4.5750906    593.12394  0.048744571  0.048951335            5 
 1015000   0.84638544   -4.6173082    593.17864  0.048701038   0.04892425            5 
 1016000   0.81592103   -4.5863613    595.92377  0.048878262  0.048897428            3 
 1017000   0.84978223   -4.5613339    596.85185  0.048906248  0.048870675            4 
 1018000   0.85568728   -4.5538993     594.9554  0.048702963  0.048844194            6 
 1019000   0.83980392   -4.6095102    594.68891  0.048633375  0.048817906            3 
 1020000   0.85761845    -4.596747    595.35402  0.048640034  0.048790876            5 
 1021000   0.84246362   -4.5379096    595.78234  0.048627354  0.048763985            4 
 1022000   0.83851706   -4.5675189     595.3382  0.048543558  0.048737413            7 
 1023000   0.84923618    -4.585442    597.96069  0.048709733  0.048710669            3 
 1024000   0.85808121   -4.5896516    597.13662  0.048595102   0.04868394            4 
 1025000     0.836546   -4.5905723    597.69275  0.048592906  0.048657498            4 
 1026000   0.84309609   -4.6036294    596.48895   0.04844777  0.048631272            4 
 1027000   0.84009554   -4.6051166    599.33073  0.048631185  0.048604754           10 
 1028000   0.82702744   -4.5783926    598.44839  0.048512353  0.048578376            4 
 1029000   0.84244258   -4.5959208    598.34274  0.048456652  0.048551728            4 
 1030000   0.85878622   -4.5996023    597.61327  0.048350588  0.048525213            4 
 1031000   0.84915988   -4.5729325    599.01972  0.048417371  0.048498996            5 
 1032000   0.84334056   -4.6104047    601.52317  0.048572607  0.048473016            6 
 1033000   0.81270389   -4.5982058    599.88693  0.048393589  0.048446925            4 
 1034000   0.85643191   -4.5737685    601.06606  0.048441816  0.048420559           11 
 1035000   0.86136236    -4.608235    600.56331  0.048354534  0.048394463            5 
 1036000   0.82801451   -4.5736795    600.94059  0.048338207  0.048368068            3 
 1037000   0.85936086   -4.5893397    601.49167  0.048335878  0.048341616           10 
 1038000   0.84869949   -4.5875614    601.36413  0.048279073  0.048315177            3 
 1039000    0.8376523   -4.6095129    601.16474  0.048216613  0.048288619            4 
 1040000   0.83459921   -4.5972923     601.3715  0.048186819    0.0482619            8 
 1041000   0.82872033   -4.6255134    599.52413  0.047992646  0.048235293            6 
 1042000   0.83476451    -4.622213    601.19555  0.048080258  0.048208654            4 
 1043000   0.82950265   -4.6032483    601.90778  0.048091066  0.048181739            4 
 1044000    0.8348259   -4.6065823    600.72518  0.047950605  0.048154983            3 
 1045000   0.86059177    -4.584352    601.04411  0.047930152  0.048128192            5 
 1046000   0.82890959   -4.5957402    604.38845  0.048150769  0.048101441            4 
 1047000   0.83720988   -4.6162871    603.87901  0.048064232  0.048075049            4 
 1048000   0.82099919   -4.5930252    600.88387  0.047780206  0.048048153            3 
 1049000   0.82882075   -4.6198961    604.41697   0.04801533  0.048021616            7 
 1050000   0.81611883   -4.6285685    603.29399  0.047880476  0.047995228            3 
 1051000   0.82550022    -4.606248    608.59474  0.048255212  0.047968858            7 
 1052000   0.84254027   -4.5849036    605.37616  0.047954385  0.047942522            9 
 1053000   0.84197852   -4.5976307    606.46455  0.047994979  0.047916179            2 
 1054000   0.83385196    -4.600592    605.51061  0.047874021  0.047889816            5 
 1055000   0.83518598   -4.6150101    605.12371  0.047798081  0.047863597            5 
 1056000   0.81787482   -4.6023297    606.77052  0.047882775  0.047837205            2 
 1057000   0.83603771   -4.6144044    606.11883  0.047786095  0.047810567            7 
 1058000   0.83234978   -4.6134492    606.66773  0.047784163   0.04778406            2 
 1059000   0.82740967   -4.6249264    605.59973  0.047654999  0.047757742            5 
 1060000   0.83926295   -4.6356914    605.56374  0.047607212  0.047731157            7 
 1061000    0.8298339   -4.6173351    606.59347  0.047643219   0.04770463            4 
 1062000   0.84206653   -4.6264072    608.08186  0.047715149  0.047678048            3 
 1063000   0.84211746    -4.616278    606.94961  0.047581499  0.047651666            8 
 1064000    0.8217094   -4.6027759    608.72345  0.047675709  0.047625311            6 
 1065000   0.82778986   -4.6118779    610.57671  0.047775955  0.047599299            3 
 1066000   0.81112639   -4.6338383    607.32024  0.047476567  0.047573209            9 
 1067000   0.82553461   -4.6331147    608.16511  0.047498056  0.047546845            4 
 1068000   0.82591382   -4.6223442    608.33697  0.047466992   0.04752049            3 
 1069000    0.8152459   -4.6014354    609.81543  0.047537841  0.047494256            7 
 1070000   0.81999801   -4.6493535    608.42855  0.047385401  0.047467753            5 
 1071000   0.84146872    -4.598586    610.33928  0.047489829  0.047441304            5 
 1072000   0.82185395   -4.6038428    610.77904  0.047479714  0.047415128           10 
 1073000   0.84653195   -4.6191139    608.76009  0.047278665  0.047388572            5 
 1074000   0.83196312   -4.6198804    608.86895  0.047243091  0.047362238            3 
 1075000   0.84746846   -4.6720504    610.47819  0.047323891  0.047336129            9 
 1076000   0.84427305   -4.6123954    612.33037  0.047423356  0.047309888            5 
 1077000   0.82804424   -4.6361825     611.0668  0.047281554  0.047284143            8 
 1078000   0.83040931   -4.6354062    611.98182  0.047308427  0.047258328            5 
 1079000   0.84340194   -4.6369843    613.48139  0.047380397  0.047232636            8 
 1080000   0.82063432   -4.6206507    612.57398  0.047266511  0.047206887            6 
 1081000   0.82294235    -4.666543    612.99192  0.047255005  0.047181061            5 
 1082000   0.83074665   -4.6070975    614.20169  0.047304505   0.04715545            4 
 1083000   0.81996721   -4.6590248    610.79097  0.046998382  0.047129197            4 
 1084000   0.79717316   -4.6130119    612.94115  0.047120322  0.047103339            3 
 1085000    0.8031656   -4.6551176    612.38273  0.047034004  0.047077494            2 
 1086000   0.82363694   -4.6363785      613.003   0.04703829  0.047051565            8 
 1087000   0.81652213   -4.6444819    613.98537  0.047070329  0.047025285            3 
 1088000   0.81926891   -4.6442838     611.1344  0.046808701  0.046999139           11 
 1089000   0.82769371   -4.6433986    611.87006  0.046822013   0.04697289           11 
 1090000   0.83011584   -4.6211778    615.22811  0.047035788  0.046946738            5 
 1091000   0.82622543   -4.6307688    615.13733  0.046985742   0.04692056            4 
 1092000     0.815623   -4.6681327    611.57896  0.046671166  0.046894469            3 
 1093000   0.82583586   -4.6714694    611.68565    0.0466366  0.046868104            5 
 1094000   0.82574376   -4.6346475    616.46148  0.046957761  0.046842026            3 
 1095000   0.80081723   -4.6528115    617.82412  0.047018578  0.046816158            4 
 1096000   0.80827891   -4.6633266    614.69613  0.046737844  0.046790366            5 
 1097000   0.81018367   -4.6591017    616.00293   0.04679451  0.046764455            8 
 1098000   0.80692792   -4.6395733    617.92634   0.04689787  0.046738762            5 
 1099000   0.81292043   -4.6329366    615.84802  0.046697605  0.046713476            4 
 1100000   0.81739659    -4.639731    616.70838  0.046720332  0.046687741            4 
 1101000   0.81331321    -4.653258    618.70544  0.046829053  0.046661799            4 
 1102000   0.81409497   -4.6532802    617.07002  0.046662887  0.046636053            3 
 1103000   0.84380444   -4.6625903    616.88128  0.046606322  0.046610191            2 
 1104000   0.80410429   -4.6321762    617.78153   0.04663206  0.046584639            3 
 1105000   0.80789465   -4.6587625    619.39637  0.046711642  0.046559309            6 
 1106000   0.80950244   -4.6408065    619.23111  0.046656955  0.046533762            3 
 1107000   0.80025963   -4.6559937    618.46802  0.046557364  0.046508038            5 
 1108000   0.80213326   -4.6471269    618.86883  0.046545489  0.046482223            3 
 1109000   0.81304688   -4.6479582    619.05499  0.046517507  0.046456702            5 
 1110000   0.82350039   -4.6622577    621.36709  0.046649181  0.046431436            2 
 1111000   0.79829261   -4.6566638     619.3668  0.046457156  0.046405855            4 
 1112000   0.81138004   -4.6641296    618.94934  0.046384093  0.046380509            6 
 1113000   0.79966827   -4.6910613    621.96715   0.04656837  0.046355077            4 
 1114000    0.8123055   -4.6681606    622.87548  0.046594515  0.046330109            5 
 1115000   0.79894184   -4.6353913    621.64272  0.046460592  0.046304886            5 
 1116000   0.82075467    -4.672623    622.41829  0.046476874  0.046279978            4 
 1117000   0.80872621    -4.647752    620.62084  0.046301167  0.046254875            4 
 1118000   0.80448839    -4.659999    621.30943  0.046311079  0.046229603            4 
 1119000   0.80299236   -4.6708988    621.15432  0.046258141  0.046204598            6 
 1120000   0.80471117    -4.646888    621.76572   0.04626233    0.0461797            5 
 1121000   0.80876753   -4.6583528    625.34269  0.046486967  0.046155043            6 
 1122000   0.80961198   -4.6302513    625.94378   0.04649018  0.046130218            3 
 1123000   0.81117852   -4.6339585    624.35043  0.046330545  0.046105689            5 
 1124000   0.81207388   -4.6758295    626.43491   0.04644387  0.046081444            6 
 1125000   0.82155558   -4.6942472    625.92065  0.046364493  0.046056891           11 
 1126000   0.81810097   -4.7039446    625.74933  0.046310637  0.046032226            4 
 1127000   0.79421218    -4.692096    625.32731   0.04623834  0.046007749            8 
 1128000   0.81209806    -4.682607    627.42946  0.046352649  0.045983304            4 
 1129000   0.77523692    -4.674123    627.95094  0.046350084  0.045958704            5 
 1130000   0.80508537   -4.6856127    628.54174  0.046352636  0.045934086            5 
 1131000   0.79693847   -4.6337169    628.62722   0.04631795  0.045909607            4 
 1132000   0.79562941   -4.6485545    629.67812  0.046354397   0.04588543            4 
 1133000   0.79979077   -4.6768365    627.87488  0.046180853  0.045861329            5 
 1134000   0.79467881   -4.6684697    628.57632  0.046191676  0.045837001            7 
 1135000   0.80402157   -4.6919242    626.85295  0.046024446  0.045812469            4 
 1136000     0.808035    -4.677597    627.46026  0.046028481  0.045788004            7 
 1137000   0.80085137   -4.6861144     627.1801  0.045967466   0.04576338            6 
 1138000   0.78411617   -4.7100211    627.35676  0.045940009  0.045738496            4 
 1139000   0.79708835   -4.6382749    629.23385   0.04603701  0.045713983            6 
 1140000   0.79401856   -4.6642002    628.87194  0.045970171  0.045689145            5 
 1141000   0.79771636   -4.6753022    628.98517  0.045938152  0.045664372            9 
 1142000   0.79641702   -4.6741213    629.90614   0.04596513   0.04563987            6 
 1143000   0.79558018   -4.6767144    629.63373  0.045905055  0.045615375            4 
 1144000     0.805578   -4.6961779    630.40129   0.04592084  0.045590812            7 
 1145000    0.8072301   -4.7049807    628.98698  0.045777801  0.045566564            9 
 1146000   0.78887675   -4.6701565     633.1407    0.0460399  0.045542394            8 
 1147000   0.78999631   -4.6810167    631.41716   0.04587454  0.045517901            4 
 1148000   0.78545637   -4.6672404    632.80796  0.045935537  0.045493826            7 
 1149000    0.7926493   -4.6510988    633.09061  0.045916058  0.045469586            3 
 1150000   0.79677238   -4.6804056    634.28494  0.045962677  0.045445713           10 
 1151000   0.77987031   -4.6862905    633.79733  0.045887441  0.045421824            4 
 1152000   0.78749771   -4.6722188     633.8682  0.045852734  0.045398001           10 
 1153000   0.79166779   -4.7083646       633.78  0.045806591  0.045374064            5 
 1154000   0.80890457   -4.6990452    633.49795   0.04574653  0.045350014            4 
 1155000   0.79760152   -4.7244228    631.50795  0.045563344  0.045326125            4 
 1156000   0.79854598   -4.6972586    633.03356  0.045633907  0.045302043            8 
 1157000   0.80173452   -4.7137469    633.49737  0.045627872  0.045278022           21 
 1158000   0.80773103   -4.7057836    632.94406  0.045548651  0.045253923           14 
 1159000   0.81128865   -4.6847598    635.95458  0.045725811  0.045230104            4 
 1160000   0.78953778   -4.6962761    634.76023  0.045600591   0.04520636           13 
 1161000   0.79619962   -4.7088106    633.41939  0.045465073  0.045182375            3 
 1162000   0.76901364   -4.6684892    636.10082  0.045618246  0.045158417            6 
 1163000   0.78348296   -4.6834859    636.28377  0.045592131  0.045134836            5 
 1164000    0.7842468   -4.7004521    637.33073  0.045627916  0.045111153            7 
 1165000   0.80843852   -4.6792399     635.8714  0.045484363  0.045087411            5 
 1166000   0.79862375   -4.7181224    634.56755  0.045352169  0.045063316            6 
 1167000   0.78382763   -4.7319842    637.32213  0.045510006  0.045039481            8 
 1168000   0.80517383   -4.6993278    636.82295  0.045435427  0.045015749            8 
 1169000   0.77151377   -4.7084611     637.5233  0.045446486  0.044991895            6 
 1170000    0.7895429   -4.7081175      636.267  0.045318163  0.044968252           11 
 1171000   0.78602506   -4.6904525    639.11076  0.045481836  0.044944881            7 
 1172000   0.78017648   -4.6794613    640.40623  0.045535141  0.044921504            7 
 1173000   0.78726144   -4.6894768    639.14189    0.0454065  0.044898048            4 
 1174000   0.78518134   -4.6980805    638.74107  0.045339372  0.044874457            6 
 1175000    0.7724716   -4.7011163    638.92828  0.045314062  0.044851028            7 
 1176000   0.77234627   -4.7047917    638.69919  0.045259296  0.044827585            4 
 1177000   0.76784124   -4.7144536    638.79472  0.045227607  0.044803808            5 
 1178000   0.77690237   -4.7185917    638.51607  0.045169501  0.044779968           16 
 1179000   0.78072841   -4.7188145    638.96963  0.045163247  0.044756287            8 
 1180000   0.76997986   -4.7063681    638.90239  0.045120226  0.044732436            6 
 1181000   0.77412816   -4.7044128    638.15819  0.045029508  0.044708453            7 
 1182000   0.77662979   -4.7209739    637.80359  0.044966412  0.044684463            7 
 1183000    0.7813594   -4.7232732    638.56758  0.044982219    0.0446603            7 
 1184000   0.77519468   -4.6895743    639.38388  0.045001681   0.04463649            5 
 1185000   0.77027756   -4.7032071    641.46621  0.045110141  0.044612795            7 
 1186000   0.77592939    -4.691602    639.76005  0.044952224  0.044588857            7 
 1187000   0.78142434   -4.7157445    642.16145  0.045082944  0.044565043            6 
 1188000   0.77603745   -4.7236303    641.58528  0.045004579  0.044541112            8 
 1189000   0.78322514   -4.7193044     638.4629   0.04474789  0.044516838            4 
 1190000   0.76241992    -4.699965     642.5324  0.044995266  0.044492787            6 
 1191000   0.76618135    -4.674914    642.60993  0.044962911  0.044469036            6 
 1192000    0.7800022     -4.73541    640.15181  0.044753342  0.044444889           11 
 1193000   0.77842595   -4.7355334    640.10594  0.044712625  0.044420574            6 
 1194000   0.78979049   -4.7098483     643.0894  0.044883403  0.044396278            8 
 1195000   0.76965227    -4.713968    642.00033  0.044769898  0.044371786           11 
 1196000   0.76092338   -4.7247105    639.98926  0.044592339   0.04434758            5 
 1197000   0.77257992   -4.7104591    641.03164  0.044627655  0.044322981            7 
 1198000   0.77789968   -4.6971324    642.64109  0.044702358  0.044298713           12 
 1199000   0.77357024   -4.7311041    641.00847  0.044551604  0.044274299            5 
 1200000   0.78730649   -4.7196814    639.02045   0.04437642  0.044249659            7 
 1201000   0.77505001   -4.7519499    642.14756   0.04455645  0.044224931            4 
 1202000     0.780159   -4.7540651    641.46197   0.04447185  0.044200362            9 
 1203000   0.77189846   -4.7306014    641.93479  0.044467636  0.044175946            6 
 1204000   0.76270863   -4.7465212    641.83163  0.044423562   0.04415147            9 
 1205000   0.76298914   -4.7160404    643.01053  0.044468225  0.044127112            6 
 1206000   0.77403649   -4.7308007    640.86599  0.044283167  0.044102796            6 
 1207000   0.78562415    -4.730883    641.58945  0.044296427  0.044078396           10 
 1208000    0.7598243   -4.7323418    642.84566  0.044346417  0.044054064           11 
 1209000   0.76048947    -4.751767    641.95747  0.044248516  0.044029614            5 
 1210000   0.74106397   -4.7684321    643.78073  0.044337516  0.044005191            7 
 1211000   0.77512296   -4.7409882    644.16347  0.044327242  0.043980673            5 
 1212000   0.76632207   -4.7301443    642.55149  0.044179833  0.043956324            9 
 1213000   0.77125152   -4.7321977    644.05702  0.044246841  0.043932112           10 
 1214000     0.764833   -4.7217159    645.05362  0.044278805  0.043907587            3 
 1215000   0.77433715   -4.7307915    645.17279  0.044250534   0.04388318            5 
 1216000   0.76022567   -4.7249868    644.13981  0.044143353  0.043858634           10 
 1217000   0.77991074   -4.7305618    643.62315  0.044071703  0.043834356           11 
 1218000   0.79268331   -4.7536047    645.09695  0.044136354  0.043810111            6 
 1219000   0.75425769    -4.756123     646.5557   0.04419987  0.043785785            5 
 1220000   0.75780341   -4.7769073    644.04508   0.04399215  0.043761245            8 
 1221000   0.76681235   -4.7327815      644.857  0.044011534  0.043736878            6 
 1222000   0.75521921   -4.7582899    645.28065  0.044004409  0.043712934           14 
 1223000   0.76475272   -4.7440383    648.14811  0.044163812  0.043688748            8 
 1224000   0.75960436   -4.7545695    646.95072  0.044046209  0.043665061            6 
 1225000   0.77507504   -4.7743094    646.81315  0.044000894  0.043640894            7 
 1226000   0.77455514   -4.7422931    646.12056  0.043917928   0.04361692            4 
 1227000   0.77204469   -4.7574569    646.48909  0.043907164  0.043592845            6 
 1228000   0.75614822   -4.7503673    646.78825  0.043891711  0.043568389            5 
 1229000   0.76038228   -4.7003995    647.49514  0.043903928  0.043544169            3 
 1230000   0.77101707   -4.7442842    648.40431  0.043929831  0.043519974            6 
 1231000   0.76733479   -4.7224481    649.70798  0.043982398  0.043495913            5 
 1232000   0.75782552   -4.7554605    645.55733  0.043665945  0.043471587            4 
 1233000   0.75740729    -4.761768    648.06878  0.043800269  0.043447027            5 
 1234000   0.75279998   -4.7551552    647.56088  0.043730476  0.043422724            6 
 1235000   0.75047221   -4.7682435    648.82316   0.04378024  0.043398439            4 
 1236000   0.75869874   -4.7661942    647.98761  0.043688485  0.043374231            4 
 1237000   0.74944729   -4.7315744     647.1114  0.043594139  0.043349975            8 
 1238000   0.76884493   -4.7611422    648.28322  0.043637804  0.043325688            5 
 1239000   0.75655311   -4.7463859    649.24352  0.043667173  0.043301506            4 
 1240000   0.75968428   -4.7284893    649.20112  0.043629108  0.043277358            6 
 1241000   0.75905649   -4.7320727    652.00388  0.043782157  0.043253367            6 
 1242000     0.774091   -4.7523658    649.95917  0.043609714  0.043229279           12 
 1243000   0.77270415    -4.746789    649.98137  0.043576118  0.043205014            5 
 1244000   0.74882528   -4.7773706    648.49177  0.043441303  0.043180669           11 
 1245000   0.77155144   -4.7495101    650.23141  0.043522852  0.043156317           10 
 1246000   0.75432586   -4.7614549    648.99567  0.043405275  0.043132014            5 
 1247000   0.74947887   -4.7549573    648.80721  0.043357873  0.043107882            8 
 1248000   0.75593649   -4.7690169    649.20583  0.043349748  0.043083539            5 
 1249000   0.76557234   -4.7824532    652.39964  0.043528132  0.043059083            4 
 1250000   0.76790076   -4.7525404    651.49059  0.043432706  0.043034736            7 
 1251000    0.7444851   -4.7646177    652.49768  0.043465073  0.043010443           18 
 1252000   0.75959008   -4.7759834    652.09553  0.043403589   0.04298623           11 
 1253000   0.74351727   -4.7717869    649.80091  0.043216341  0.042962079            7 
 1254000   0.75404004   -4.7903953    652.37704  0.043353073  0.042937929            4 
 1255000   0.76121699   -4.7792627    653.66982  0.043404371   0.04291379            5 
 1256000   0.74725462   -4.7829453    652.96545  0.043323079   0.04288982            8 
 1257000   0.74525953   -4.7718764     654.4422  0.043386516  0.042865903            8 
 1258000    0.7445526   -4.7919801    653.46552  0.043287329  0.042841932            3 
 1259000   0.75568932   -4.7466969    653.58687  0.043260979  0.042818112            5 
 1260000   0.75560997   -4.7573378    655.72617  0.043368133  0.042794153            7 
 1261000   0.77549288   -4.7679911     652.2703  0.043105359  0.042770039            7 
 1262000   0.75636078   -4.7616014    653.31288  0.043140048   0.04274615            7 
 1263000   0.74883636   -4.7819133    653.00638  0.043085667  0.042722015            7 
 1264000   0.75091715   -4.7674005    653.58968  0.043090037  0.042698077            4 
 1265000   0.74664332   -4.7649948    655.64626  0.043191453  0.042674132           16 
 1266000   0.76122025   -4.7943217    654.52508  0.043083536  0.042650271           13 
 1267000   0.74128855   -4.7670503    654.71986  0.043062343   0.04262656            6 
 1268000   0.76232262   -4.7330993    657.90836  0.043237931  0.042603038            6 
 1269000   0.75804793   -4.7768982    656.08225  0.043083941  0.042579234            7 
 1270000   0.74138765   -4.7643178     656.7313  0.043092605  0.042555392            3 
 1271000   0.74789138   -4.8139736    653.89646  0.042872834  0.042531528           11 
 1272000   0.73430561   -4.8066587    656.12251  0.042984965   0.04250783            7 
 1273000   0.74945031   -4.8002118    655.10381  0.042884512  0.042483968            7 
 1274000   0.75906238    -4.799203    655.82547  0.042898056  0.042460077            6 
 1275000   0.74068005    -4.788279     657.9258  0.043001686  0.042436287            3 
 1276000   0.72449956   -4.7577834    655.51908  0.042810807  0.042412527            3 
 1277000   0.73516775   -4.8053853    655.86702  0.042799988  0.042388799            6 
 1278000   0.74462353   -4.7958748    655.81538  0.042763131   0.04236505            3 
 1279000    0.7464931   -4.7774987    656.51036  0.042774978  0.042341022            6 
 1280000   0.75271153   -4.8020666    655.46977  0.042673813  0.042317148            5 
 1281000   0.74385943   -4.8089508    656.18384  0.042686953  0.042293228            7 
 1282000   0.76150427   -4.7847625    655.75125  0.042625536  0.042269254            8 
 1283000   0.74848976   -4.7795981    656.49737  0.042640775  0.042245175            8 
 1284000   0.74022758   -4.8134358    655.76763  0.042560204   0.04222129           11 
 1285000   0.73970443   -4.8174848    655.27658  0.042495238  0.042197307           11 
 1286000   0.73946111   -4.7915202     657.1068  0.042580793  0.042173361            3 
 1287000    0.7395943   -4.7896838    656.45837  0.042505722  0.042149435            7 
 1288000   0.74594544   -4.7988261    659.24458  0.042652988  0.042125574            3 
 1289000   0.74389656   -4.7664035    657.10296  0.042481443    0.0421016            8 
 1290000   0.72212333   -4.8034948    657.41042  0.042468374  0.042077516            4 
 1291000   0.73792542   -4.7938418    657.80378  0.042460869  0.042053406            7 
 1292000   0.73812855   -4.8042254    657.10662  0.042383038  0.042029628            7 
 1293000    0.7186047   -4.7874972     657.8916  0.042400851   0.04200588           11 
 1294000   0.72511509   -4.7935806    659.86776  0.042495348  0.041982025           12 
 1295000   0.75129984   -4.7943524    658.09946  0.042348742  0.041958127           15 
 1296000   0.74019434   -4.7955744    658.95702  0.042371208  0.041934318            3 
 1297000   0.76309291   -4.7814254    660.50379   0.04243792  0.041910592           12 
 1298000   0.70805007    -4.847588    657.29342  0.042199116  0.041886751            9 
 1299000   0.72597416   -4.8096645    660.40419  0.042366191  0.041862856            8 
 1300000   0.72834321   -4.8390643    657.45553  0.042144585  0.041838538            8 
 1301000   0.73564882   -4.7631856    658.67891  0.042190553  0.041814332            5 
 1302000   0.73105967    -4.820964    658.62633  0.042154783  0.041790108            9 
 1303000   0.73997631    -4.804414    657.10587   0.04202519  0.041765927           11 
 1304000   0.72886343   -4.8158917    659.27279  0.042131441   0.04174152            9 
 1305000   0.72192969   -4.7877305    658.86965  0.042073413  0.041717183            8 
 1306000   0.72286341   -4.8055011     658.9202  0.042044423  0.041693101            4 
 1307000   0.72891295   -4.8226837    657.88462  0.041946226  0.041668775            4 
 1308000    0.7457137   -4.8338426    656.58652  0.041831455   0.04164439            8 
 1309000   0.72858146   -4.8131281    657.94222  0.041885804  0.041620279            4 
 1310000   0.72504876   -4.8361047    658.60525  0.041896008  0.041596028           13 
 1311000   0.76121463   -4.8060855    660.14786  0.041962107  0.041571701            9 
 1312000   0.73201034   -4.8159713    659.52007  0.041890248  0.041547491            8 
 1313000   0.74105525   -4.8000853    659.66484  0.041867532  0.041523368            7 
 1314000   0.72057161   -4.8326689    658.04927  0.041733211  0.041499206            6 
 1315000   0.73767265   -4.8017563    660.85742  0.041879431  0.041475133            8 
 1316000   0.74659797   -4.8238012    660.94112  0.041852908   0.04145115           10 
 1317000   0.73038802   -4.7991565      660.696  0.041805619  0.041427244           12 
 1318000   0.72836813   -4.8024918    661.27181  0.041810306  0.041403291           10 
 1319000   0.72819759   -4.8243382    661.24053  0.041776632  0.041379451            8 
 1320000   0.73036615    -4.841121    659.65955  0.041645173  0.041355539            6 
 1321000   0.71871681   -4.7862454    661.11548  0.041705493  0.041331391           22 
 1322000   0.72921824   -4.8440348    661.75149  0.041714038  0.041307343            3 
 1323000   0.74164312   -4.8123292    661.61975  0.041674209  0.041283361            7 
 1324000   0.73495145   -4.8093924    661.99968  0.041666647  0.041259638           10 
 1325000    0.7250919   -4.8541826    661.07621   0.04157712   0.04123561            9 
 1326000   0.73463645   -4.8372552    662.96116  0.041664226  0.041211631           16 
 1327000   0.72660289   -4.8454779    662.05759  0.041576086  0.041187667            6 
 1328000   0.71494483   -4.8393319    661.43077  0.041505445  0.041163694            6 
 1329000   0.71872978   -4.8425351    661.65557   0.04148831  0.041139413            8 
 1330000   0.70164976   -4.8449944    660.58615   0.04139011  0.041115127            4 
 1331000    0.7353251   -4.8356317    663.22944  0.041524508  0.041091131            7 
 1332000   0.70599754   -4.8357074    663.38472  0.041503048  0.041067183            6 
 1333000   0.72860045   -4.8236678    663.25731  0.041463948  0.041043181            9 
 1334000   0.73944881   -4.8717325    660.72875  0.041274909  0.041019041           11 
 1335000   0.71409859   -4.8659531    661.82367  0.041312339  0.040994811           13 
 1336000   0.71300648   -4.8316196    663.21408  0.041368144  0.040970822           13 
 1337000   0.70950907   -4.8476237    662.68695  0.041304347  0.040947018            5 
 1338000   0.70591845   -4.8124315    664.09198  0.041360985   0.04092298            6 
 1339000   0.72376625   -4.8503252    663.10859  0.041268894  0.040898971           10 
 1340000   0.72070075   -4.8006911    665.12976  0.041363791  0.040875093           15 
 1341000   0.72435055   -4.8423464    662.97448   0.04119901  0.040851176           14 
 1342000   0.70474696   -4.8442962     664.1235  0.041239661  0.040827252            8 
 1343000   0.71531683   -4.8506992    662.35019   0.04109892  0.040803406            9 
 1344000   0.71643401   -4.8465054    662.76797  0.041094244  0.040779781            6 
 1345000   0.71381197   -4.8295412    666.11787  0.041271243  0.040756055           10 
 1346000   0.70699622   -4.8615148    664.45387   0.04113756  0.040732328           10 
 1347000   0.70704524   -4.8542646    666.29866  0.041221149  0.040708751           17 
 1348000   0.70799513   -4.8502911    664.71136  0.041092443  0.040685129            9 
 1349000   0.71486826   -4.8470797     664.9528  0.041076896  0.040661336            6 
 1350000   0.71512523   -4.8477183    665.18877  0.041061035  0.040637683           12 
 1351000   0.72368261    -4.839618    663.61422   0.04093352  0.040614008            7 
 1352000   0.70004998   -4.8503897    665.53163  0.041021427  0.040590155           10 
 1353000   0.71370502   -4.8602449    665.58709  0.040994524  0.040566253            9 
 1354000   0.70393584   -4.8473263     665.8253  0.040978908  0.040542291           10 
 1355000   0.71254089   -4.8638693    667.53445  0.041053779  0.040518499           12 
 1356000   0.70660366   -4.8254134    665.39929  0.040892286  0.040494764            3 
 1357000   0.70703525   -4.8526141    665.88126   0.04089175  0.040470906            7 
 1358000   0.71813301   -4.8403035    667.04487  0.040933043  0.040447059            6 
 1359000   0.71193064   -4.8366294    667.81931  0.040950411  0.040423358           12 
 1360000   0.71476021   -4.8611788    666.58805  0.040844856  0.040399584            5 
 1361000    0.7127973   -4.8517993    666.61198   0.04081631  0.040375612            7 
 1362000   0.70122699   -4.8375257    666.57453  0.040784051  0.040351716            5 
 1363000   0.70734458   -4.8652752    666.36031  0.040741032  0.040327934            9 
 1364000   0.72343652    -4.838603    665.80813  0.040677427  0.040304035            8 
 1365000   0.70402471   -4.8537211     667.9848  0.040780513  0.040280288            7 
 1366000   0.70520309   -4.8606958    666.19701  0.040641594  0.040256365            7 
 1367000   0.70330012   -4.8521023    667.02679  0.040662448  0.040232627            7 
 1368000    0.7059285   -4.8499411    666.54011  0.040603077  0.040208803            6 
 1369000    0.7100578   -4.8626218    667.30834  0.040620182  0.040185029            8 
 1370000   0.71146867   -4.8855165    667.26198  0.040587712  0.040161273            8 
 1371000   0.70798165   -4.8920802    665.31582  0.040439814  0.040137408            8 
 1372000   0.70805177   -4.8863913    667.39689   0.04053674  0.040113563            5 
 1373000   0.70616296   -4.8815048     665.9261  0.040417947  0.040089794            3 
 1374000   0.72098059   -4.8975834    666.72448  0.040436953  0.040066172            7 
 1375000    0.7068509   -4.8890596    667.97673  0.040483438  0.040042463            5 
 1376000    0.6882261   -4.8547338    668.30318  0.040473788  0.040018714            5 
 1377000    0.6989292   -4.8861063    669.14176  0.040495144   0.03999509            5 
 1378000   0.70646875   -4.8720181    668.66528  0.040436943  0.039971395           10 
 1379000   0.69283057   -4.8770471    668.25355  0.040382738  0.039947733            7 
 1380000   0.69958202    -4.873837    668.45808  0.040365826  0.039923952           18 
 1381000   0.70189602   -4.8786661    668.77967  0.040356002  0.039900231           12 
 1382000   0.70776746   -4.8664479    668.51673  0.040310946  0.039876481           12 
 1383000   0.70411652   -4.8426316    671.04556  0.040434175  0.039852799            7 
 1384000   0.71886964   -4.8550451    671.16237  0.040411993  0.039829211            5 
 1385000   0.70136161   -4.8761905    669.24307  0.040267333  0.039805586            9 
 1386000   0.68835503   -4.8697216    668.97576  0.040222208  0.039781848            4 
 1387000   0.69955088   -4.8972022    667.50375  0.040104767  0.039758181            4 
 1388000   0.70313686   -4.8521462    670.14336  0.040234351  0.039734446            5 
 1389000   0.68651922   -4.8832291    668.02931  0.040078552  0.039710736           32 
 1390000    0.6871609    -4.878414    668.58215  0.040082863  0.039686969           14 
 1391000   0.68419495   -4.8795829    666.88553  0.039952404  0.039663134           10 
 1392000   0.68875152   -4.8864777    668.95896   0.04004783  0.039639536           12 
 1393000   0.69152947   -4.8794753    672.41626  0.040225907  0.039615836           10 
 1394000   0.69701163    -4.877924    669.73171  0.040036568  0.039592422            7 
 1395000   0.70242082   -4.9069813    670.39206  0.040047315  0.039568981           17 
 1396000   0.70141421   -4.8793799      669.655   0.03997463  0.039545432            5 
 1397000   0.68260157   -4.8798889    671.25265  0.040041318  0.039522075            6 
 1398000   0.68915367   -4.8696685    671.23804  0.040011805  0.039498869            4 
 1399000   0.69537533   -4.8830635    673.31399  0.040106861  0.039475588            9 
 1400000    0.6859243   -4.8923273    670.73723  0.039924835  0.039452395            6 
 1401000   0.70567312   -4.8910949    669.61094  0.039829345  0.039428943           20 
 1402000   0.69387918   -4.9040197     670.5646   0.03985762  0.039405416            8 
 1403000   0.68505875   -4.8747607    671.72751  0.039898284  0.039381829            4 
 1404000   0.69434892   -4.9047125    671.10503   0.03983292   0.03935827           13 
 1405000   0.70171756   -4.9110461    669.58575  0.039714457  0.039334791            8 
 1406000   0.69816276   -4.8877262    670.61335  0.039747116  0.039311102           13 
 1407000   0.68178518     -4.90989     670.9801  0.039740589  0.039287607            8 
 1408000   0.69076331   -4.8809958    670.40553  0.039678357  0.039264041           12 
 1409000   0.68961739   -4.8815214    672.43981  0.039770512  0.039240646            4 
 1410000   0.67673378   -4.9103451     670.5687   0.03963172  0.039217281           31 
 1411000   0.68925341   -4.8941883    673.54133  0.039779195  0.039193785           11 
 1412000   0.69594804   -4.9193894    671.82906  0.039649968    0.0391705            6 
 1413000    0.6808129   -4.9049983    672.24299  0.039646319  0.039147095            8 
 1414000   0.69632368   -4.9084232    673.99313  0.039721424  0.039123778            8 
 1415000   0.68704653   -4.8830989    669.44109  0.039425271  0.039100475           18 
 1416000    0.6775173   -4.8925599    673.05533   0.03961013  0.039077149           19 
 1417000   0.67110352   -4.9211604      672.474  0.039547989   0.03905387           11 
 1418000   0.68395858   -4.9043243    673.42153  0.039575783  0.039030666            6 
 1419000   0.68008202   -4.8970143    673.10785  0.039529472  0.039007567            5 
 1420000   0.67819584   -4.8985697    673.67105  0.039534686  0.038984311           10 
 1421000   0.69790603   -4.8987539    672.65648  0.039447365  0.038961086           10 
 1422000   0.68389362    -4.928562    673.78188  0.039485576  0.038937853            4 
 1423000   0.68465361   -4.8918604    674.09943  0.039476425  0.038914717            6 
 1424000   0.67296158   -4.9080814    674.11665  0.039449711  0.038891728            5 
 1425000    0.6887931   -4.8930961    674.04841  0.039418036  0.038868685            4 
 1426000   0.67812078    -4.919506    674.83188  0.039436178  0.038845541           10 
 1427000   0.68574598   -4.9035727    674.40159  0.039383414  0.038822304           19 
 1428000    0.6947513    -4.905957    675.98103  0.039448006  0.038799238           12 
 1429000   0.70372078   -4.9115481    674.90454  0.039357624  0.038776395            5 
 1430000    0.6874632   -4.9115479    674.92407   0.03933124  0.038753529            2 
 1431000   0.67824097   -4.9397338     672.3097  0.039151508   0.03873028            8 
 1432000   0.70069952    -4.900161    675.53764  0.039312014  0.038707045           11 
 1433000   0.66724676   -4.9046772    676.92119  0.039365038  0.038684145            7 
 1434000   0.67591973   -4.9296958    676.13616  0.039291967  0.038661026            6 
 1435000   0.67880977   -4.9497857    674.46891  0.039167765  0.038638054            6 
 1436000   0.68111449   -4.9146976    675.06992  0.039175367  0.038615014            5 
 1437000   0.69347642   -4.9389772    674.01021  0.039086651  0.038591919            8 
 1438000   0.67880503   -4.9457521    675.67855  0.039156152  0.038568887            6 
 1439000    0.6752217   -4.9168037    675.69399  0.039129835  0.038545927           14 
 1440000   0.68306381   -4.9451768    675.70732  0.039103433     0.038523           12 
 1441000   0.66605331   -4.9335596    675.55215  0.039067323  0.038500055           14 
 1442000   0.67593748   -4.9110904     676.7484  0.039109362  0.038477048            7 
 1443000   0.66944868    -4.924372    676.65038  0.039076599  0.038454152           15 
 1444000   0.67117529   -4.9362243    676.11806  0.039018817  0.038431309            4 
 1445000   0.66885323   -4.9235974     676.5242  0.039015236  0.038408475           15 
 1446000   0.67050555    -4.916646    677.25334  0.039030275  0.038385737           14 
 1447000   0.66701628   -4.9252855    676.55598  0.038963141  0.038362827           21 
 1448000   0.66759303   -4.9218964    677.24876  0.038976103  0.038340023            5 
 1449000   0.66534767   -4.9300265     675.5722  0.038852784  0.038317252            9 
 1450000   0.66780283   -4.9254941    677.01603  0.038908967  0.038294362            9 
 1451000    0.6759643   -4.9164009    677.59768  0.038915557  0.038271452            8 
 1452000   0.67053733   -4.9209216    677.06798  0.038858355  0.038248581            9 
 1453000   0.67165894   -4.9102105    677.07305  0.038831903  0.038225869            5 
 1454000   0.66812319   -4.9594947    678.32815  0.038877129  0.038203102           13 
 1455000   0.67871753   -4.9076949    679.54136  0.038919895  0.038180327            4 
 1456000    0.6787208   -4.9387018    677.66739  0.038785909  0.038157502           11 
 1457000   0.67517484   -4.9537317    677.68307  0.038760185  0.038134498            6 
 1458000   0.66310324    -4.934704    676.34981  0.038657396   0.03811166            6 
 1459000   0.67833995   -4.9494205    677.91156  0.038720103  0.038088856           11 
 1460000   0.67023945   -4.9323949    680.40319  0.038835798  0.038066086            8 
 1461000      0.66815   -4.9396494    679.81669  0.038775763  0.038043417            4 
 1462000   0.67516774   -4.9349573    681.58167  0.038849844  0.038020837            9 
 1463000   0.67070238   -4.9192202    680.13683  0.038740991  0.037998317            7 
 1464000    0.6714414   -4.9512158    678.07197  0.038596993  0.037975678            9 
 1465000   0.67787917   -4.9465892    678.59585  0.038600446  0.037952964            6 
 1466000   0.68858498   -4.9106624    679.29118  0.038613641  0.037930509           11 
 1467000   0.66278581   -4.9374587    678.66378  0.038551681  0.037908027           13 
 1468000    0.6627621   -4.9173268    679.00653  0.038544876  0.037885556            8 
 1469000   0.68029587   -4.9463944    680.10748  0.038581092  0.037862948           19 
 1470000   0.66460798   -4.9725993    677.82884  0.038425671  0.037840319           13 
 1471000   0.68245359   -4.9448173    682.12466  0.038642911  0.037817843           10 
 1472000   0.66299246   -4.9443039    678.87363   0.03843261  0.037795289            5 
 1473000   0.66471673   -4.9569754    677.80263  0.038345928  0.037772619           10 
 1474000   0.66155311   -4.9288115    681.44362  0.038525759  0.037750028            7 
 1475000   0.66247554   -4.9327695    679.85312  0.038409781  0.037727498            5 
 1476000   0.66092869   -4.9355898    678.44436  0.038304221  0.037705049            8 
 1477000   0.66231517   -4.9798597    679.55073  0.038340709  0.037682539            7 
 1478000   0.65563617   -4.9539686    680.83197  0.038387008  0.037660006            8 
 1479000    0.6593169    -4.957404     682.3314  0.038445538  0.037637446           18 
 1480000   0.66641466   -4.9743119    679.13594  0.038239636  0.037614765           18 
 1481000    0.6574307   -4.9255941    683.39728  0.038453594  0.037592268            5 
 1482000   0.67538014   -4.9603449    680.21709  0.038248824  0.037569637           17 
 1483000   0.65623043   -4.9601926    680.00754  0.038211258  0.037547105           15 
 1484000   0.65983932   -4.9410162    679.44528  0.038153935   0.03752441           11 
 1485000   0.66169246   -4.9537273    680.15126   0.03816786  0.037501725            4 
 1486000   0.65718872   -4.9694709     681.2969  0.038206421  0.037479187           10 
 1487000   0.65619751   -4.9752793    680.75343  0.038150271  0.037456677            9 
 1488000   0.66092143   -4.9783719    677.87517  0.037963439  0.037433807           10 
 1489000   0.65809579   -4.9663704    679.82585  0.038047115  0.037411069            6 
 1490000   0.65748406   -4.9989151    679.38961  0.037997182  0.037388411            7 
 1491000   0.65199077   -4.9761185    681.44548  0.038086602  0.037365917           11 
 1492000   0.66022772   -4.9654873    681.64023  0.038071952  0.037343552            8 
 1493000   0.65805349   -4.9610393    679.40734   0.03792182  0.037321129           10 
 1494000   0.66657339   -4.9684344    681.66217  0.038022209  0.037298642            6 
 1495000   0.66047802   -4.9577742    684.20346  0.038138431  0.037276275           11 
 1496000   0.65846533   -4.9884041    679.91909  0.037874281  0.037253904           12 
 1497000   0.65580205   -4.9766105      682.677  0.038002505  0.037231331           11 
 1498000   0.66416242   -4.9709325    680.99873  0.037883775  0.037208952           14 
 1499000   0.66522108   -4.9829412    682.14245  0.037922084  0.037186564           13 
 1500000   0.65260765   -4.9852509    681.72905  0.037873836  0.037164133            8 
 1501000     0.658528   -4.9729123     683.8304  0.037965268  0.037141805            7 
 1502000   0.67195536   -4.9800148    682.44045  0.037862874   0.03711948           11 
 1503000   0.63860688   -4.9803894    682.46047  0.037838793  0.037097146           21 
 1504000   0.64544902   -4.9843829    681.23722  0.037745857  0.037074669            8 
 1505000   0.65521488   -4.9828868    681.43119  0.037731516  0.037052242            9 
 1506000   0.66010541   -4.9828892    682.23069  0.037750702  0.037029802           12 
 1507000   0.65959748    -4.948424    683.81886  0.037813474   0.03700748            5 
 1508000    0.6465564   -4.9860028    683.27885  0.037758557  0.036985205            9 
 1509000   0.64514406   -4.9770993     684.3065  0.037790286   0.03696289            6 
 1510000   0.65478105   -4.9896585    682.56328  0.037669055   0.03694076            7 
 1511000   0.64343279   -4.9808147    681.22486   0.03757031  0.036918423           10 
 1512000   0.65707095   -4.9987372    683.18178  0.037653317  0.036895996           15 
 1513000   0.63077848    -4.976215    683.77716  0.037661223  0.036873708           12 
 1514000   0.65331724   -4.9780617    684.22728  0.037661123  0.036851501           16 
 1515000   0.65556164   -4.9974081    683.33392  0.037587124  0.036829143           26 
 1516000   0.65894997   -4.9883366     684.2847  0.037614594  0.036806808           10 
 1517000   0.63936354   -4.9546966    684.09352  0.037579297  0.036784565            9 
 1518000   0.64485039   -4.9615819    683.65633  0.037530541  0.036762384            9 
 1519000   0.64635994   -5.0117426    682.77313  0.037457381  0.036740119            5 
 1520000   0.64731051   -5.0044537     683.9776  0.037498772  0.036717672           10 
 1521000   0.63858543   -4.9940307    681.74566  0.037351833  0.036695181            9 
 1522000   0.64832993    -4.994904    681.81865  0.037331288  0.036672713           24 
 1523000   0.64530209   -5.0111817    682.12228   0.03732339  0.036650359            7 
 1524000   0.65031725     -4.98987    683.41406  0.037369535  0.036627918           10 
 1525000   0.63957791   -4.9973374    683.04364  0.037324789  0.036605516           49 
 1526000   0.63357457   -4.9757425    683.35156  0.037317145  0.036583203            7 
 1527000   0.64622786   -4.9899762    682.53617  0.037248208  0.036560865           10 
 1528000   0.63300535   -4.9774874    682.42199  0.037217604    0.0365385            7 
 1529000   0.62892295   -5.0011124    681.87589    0.0371635  0.036516005            8 
 1530000   0.64412991   -4.9927009    682.58439  0.037177799  0.036493486            9 
 1531000   0.63693111   -5.0183108    680.92335  0.037063104  0.036470902            8 
 1532000   0.64591649   -4.9759948     683.0925  0.037156903  0.036448356           17 
 1533000   0.65948938   -4.9845983    683.91576  0.037177417  0.036425896           11 
 1534000   0.63381335   -5.0109589    681.98048  0.037048049   0.03640341           21 
 1535000   0.63077651    -4.997371    682.72267  0.037064206  0.036380966           21 
 1536000   0.64428429   -4.9953537    680.51656  0.036920386  0.036358442            8 
 1537000   0.63071957    -5.020843    682.15447  0.036985169  0.036335824           15 
 1538000   0.63926082   -5.0018634    681.91227  0.036947999  0.036313268           11 
 1539000   0.63986233   -5.0026439    682.34881  0.036947629  0.036290574           11 
 1540000   0.62082833   -5.0209497    682.72016  0.036943731  0.036267966            9 
 1541000   0.65139482   -5.0166681    680.56477    0.0368032  0.036245387            9 
 1542000   0.63559465   -5.0070267    681.61756  0.036836228   0.03622268            8 
 1543000    0.6319977   -4.9851257    683.18273  0.036896885  0.036200117            8 
 1544000   0.62452356   -4.9996082    684.19291   0.03692751  0.036177678           17 
 1545000   0.64646923   -5.0065779    682.16377  0.036794162  0.036155272           13 
 1546000   0.64469446   -5.0274493    684.63594  0.036903619  0.036132717           19 
 1547000   0.63729557   -4.9977702    679.96858  0.036628344  0.036110238            9 
 1548000   0.63318604    -5.024134    681.96524  0.036712168  0.036087655            8 
 1549000   0.63952649   -5.0201792    682.15277  0.036698557  0.036065114            7 
 1550000   0.64384508   -5.0170632    683.18847  0.036730563  0.036042608           10 
 1551000   0.63593769   -5.0078406    682.82011  0.036687089  0.036020123           10 
 1552000   0.63227371   -5.0099359     684.7029  0.036764546  0.035997652           12 
 1553000   0.63156121   -5.0179536    681.38516  0.036562844  0.035975123            9 
 1554000   0.63313596     -4.99948    682.82401  0.036616474  0.035952528            8 
 1555000   0.63454879   -5.0392453    682.47851  0.036574411  0.035929986            8 
 1556000   0.63508893   -4.9954485    683.00564  0.036579137  0.035907397           17 
 1557000   0.63978944   -5.0269581    684.22125  0.036620705   0.03588491           12 
 1558000   0.62469569   -5.0160659     683.7137  0.036570052  0.035862227            4 
 1559000     0.628097   -5.0410626    683.68941  0.036545297  0.035839609            9 
 1560000   0.62648318   -5.0149161     683.9045   0.03653336  0.035817118            9 
 1561000   0.62453411   -4.9913874    682.19696    0.0364188  0.035794654            5 
 1562000   0.62762438   -5.0038888    683.34128  0.036456534  0.035772194           18 
 1563000    0.6337383   -5.0167983    684.93534  0.036518199  0.035749805           12 
 1564000   0.62058943   -5.0341576    683.09261  0.036396665  0.035727323           11 
 1565000   0.61783958   -5.0392466    683.71448  0.036406522  0.035704873           12 
 1566000   0.62508497   -5.0227434    682.79632  0.036334415  0.035682477           11 
 1567000   0.62694301   -5.0417603    683.84948  0.036367235  0.035659991           18 
 1568000   0.63399388   -5.0229969    684.71533  0.036390058  0.035637609            7 
 1569000   0.62622491    -5.030422    683.66979  0.036311334  0.035615286           10 
 1570000   0.63527949   -5.0333793    683.79384   0.03629479   0.03559297            7 
 1571000   0.62754075   -5.0259452    686.02108   0.03638983  0.035570608            8 
 1572000   0.63059733   -5.0480321    682.33145   0.03617109  0.035548254           11 
 1573000   0.62113889    -5.020339    685.17867  0.036298934   0.03552594            9 
 1574000    0.6220419   -5.0309374    684.57505  0.036243914  0.035503703            9 
 1575000   0.63021036   -5.0305008    685.07297  0.036247247  0.035481459           15 
 1576000   0.62485419    -5.042708    682.02173  0.036062909  0.035459034            6 
 1577000    0.6205982   -5.0244419    685.48267  0.036222927  0.035436715           12 
 1578000   0.60641957   -5.0323614    684.27998  0.036136459  0.035414365           27 
 1579000   0.61814988   -5.0379267    684.46121  0.036123137  0.035392092            8 
 1580000   0.62384572   -5.0460684    684.27227   0.03609031   0.03536986            8 
 1581000    0.6265447    -5.033614    684.20553  0.036063964  0.035347591            7 
 1582000   0.63565283   -5.0325676    686.20247  0.036146359  0.035325365            5 
 1583000   0.62333001   -5.0470423    684.80405  0.036049908  0.035303227           14 
 1584000   0.61145953   -5.0403033    684.26443   0.03599876  0.035281109            9 
 1585000   0.63363789   -5.0447015    683.89453    0.0359566  0.035258877           17 
 1586000   0.61315868   -5.0572343    684.11274  0.035945394  0.035236544           15 
 1587000   0.61844266   -5.0352543    685.53321  0.035997333  0.035214372            5 
 1588000   0.61411725   -5.0444974    685.03916  0.035948738  0.035192171           10 
 1589000   0.62557404   -5.0452257     686.1274  0.035983187   0.03516988           21 
 1590000   0.61786415   -5.0647481    684.93733  0.035898183  0.035147573            5 
 1591000   0.61801751   -5.0357071    684.07355  0.035830376  0.035125246           20 
 1592000   0.61329638   -5.0495116    686.27881  0.035923304  0.035102911           27 
 1593000   0.60843661    -5.032083    684.65697  0.035815912  0.035080735            9 
 1594000   0.63567452   -5.0627455    684.24956  0.035772143  0.035058439           19 
 1595000     0.623507   -5.0541305    682.89787  0.035679094   0.03503617           11 
 1596000   0.62056681   -5.0563889    685.56945  0.035796233   0.03501386           16 
 1597000   0.61018703   -5.0531433    684.43966  0.035714865  0.034991631            6 
 1598000   0.62088511   -5.0431914    685.15972  0.035730065  0.034969438           12 
 1599000   0.60104326   -5.0485207    684.06053  0.035650434  0.034947279           14 
 1600000   0.60808152   -5.0719042    683.49436  0.035598664  0.034924862           11 
 1601000   0.60716647   -5.0679335    685.58737  0.035685372  0.034902606           21 
 1602000   0.59525534   -5.0766672    684.20337  0.035591103  0.034880343           23 
 1603000   0.62451127   -5.0757908    684.62276  0.035590703   0.03485808           30 
 1604000   0.60356943    -5.040281    687.33307  0.035709324  0.034835951           10 
 1605000    0.6035444   -5.0387097    686.49887  0.035643763  0.034813878           13 
 1606000   0.60816211   -5.0468771    685.79315   0.03558495  0.034791872            5 
 1607000   0.62268719   -5.0600123     684.9841  0.035520851  0.034769898           12 
 1608000   0.61762404   -5.0627261      686.654  0.035585302  0.034747966            6 
 1609000   0.61123282   -5.0538089     686.0794  0.035533427  0.034725918            5 
 1610000   0.60432435   -5.0772291    684.79848  0.035445056  0.034703807           10 
 1611000   0.60870324   -5.0415357    685.36243  0.035452226  0.034681737            9 
 1612000   0.61433219   -5.0850416    686.44715  0.035486309  0.034659816           10 
 1613000   0.60837646   -5.0522177    686.93773  0.035489653  0.034637921           10 
 1614000   0.60864575   -5.0627596    685.83062  0.035410503  0.034616056           16 
 1615000    0.6121386   -5.0568327    687.21144  0.035459827  0.034594227            9 
 1616000    0.6067322   -5.0769507    686.94859  0.035424329  0.034572323           22 
 1617000   0.59468971   -5.0510907    687.09358  0.035409894  0.034550449           13 
 1618000   0.60810487   -5.0337058    686.82473  0.035374162  0.034528625            5 
 1619000   0.61225594   -5.0828062    686.81438   0.03535178  0.034506886           11 
 1620000   0.60391701   -5.0713446    686.59276  0.035318558  0.034485073           13 
 1621000    0.5946195   -5.0580895    688.55909  0.035397856  0.034463212           12 
 1622000   0.61535147   -5.0784916    684.96556  0.035191408  0.034441476            7 
 1623000   0.60786061   -5.0831694    687.56463  0.035303175   0.03441968            9 
 1624000   0.60120198   -5.0754348    686.17829  0.035210298  0.034397826           10 
 1625000   0.61488483   -5.0804604    687.69511  0.035266416  0.034376014           14 
 1626000   0.60361941   -5.0736773    687.90661  0.035255566   0.03435417           14 
 1627000   0.59888598   -5.0721111    688.10044  0.035243825  0.034332374           16 
 1628000   0.61216468   -5.0826255    684.81762  0.035054137  0.034310627           12 
 1629000   0.60709826   -5.0616685    688.50782  0.035221394  0.034288852           13 
 1630000   0.60291716   -5.0923073    685.84125  0.035063459  0.034267088            8 
 1631000   0.61040604   -5.0860872    686.10796  0.035055588  0.034245287           11 
 1632000    0.5852757   -5.0927774    685.62987  0.035009695  0.034223453           15 
 1633000   0.60210331   -5.0995004    688.71307  0.035145595  0.034201705           14 
 1634000   0.59509909   -5.0951901    686.56166  0.035014364  0.034180021           15 
 1635000   0.60618997   -5.0963433    686.51723  0.034990684  0.034158401           14 
 1636000   0.58881497   -5.0973623    687.67564  0.035028303  0.034136768            8 
 1637000   0.58782955   -5.0912568    687.61869  0.035004006  0.034115067           13 
 1638000    0.5980546   -5.0888249    687.67219  0.034985358  0.034093345            6 
 1639000   0.59817805   -5.0994881    687.90722  0.034975962  0.034071653           19 
 1640000   0.58988374    -5.091639    686.91084  0.034904006  0.034049941            8 
 1641000   0.59829777   -5.1208174    688.21733  0.034949082   0.03402817           20 
 1642000   0.60079268   -5.0891404    687.63049  0.034898015  0.034006568           13 
 1643000    0.5967046   -5.0955552    688.20841  0.034906087  0.033984999           10 
 1644000   0.60219275   -5.0956754    686.74765  0.034810809  0.033963539            7 
 1645000    0.5903895   -5.0928498     688.0305  0.034854635  0.033941887           19 
 1646000   0.59776971   -5.0730692    689.30551  0.034898011  0.033920336            5 
 1647000   0.59266376   -5.1089108    687.76135  0.034798692  0.033898686           10 
 1648000   0.58310026   -5.0962075    689.00673   0.03484055  0.033877093           12 
 1649000   0.59000249   -5.1045468    687.07047  0.034721572  0.033855433           12 
 1650000   0.59484929   -5.0884396    688.40525  0.034767942  0.033833899           11 
 1651000   0.61625828   -5.0849711    688.00359   0.03472661  0.033812467            7 
 1652000   0.59059992   -5.0866468    687.48473  0.034679415   0.03379107           14 
 1653000   0.58914339   -5.1174473     686.1021  0.034588733  0.033769596           10 
 1654000   0.59862717   -5.1033083    688.24344  0.034675707  0.033747972            8 
 1655000   0.58186216   -5.1087048    685.45143  0.034514171  0.033726342           11 
 1656000   0.58619911   -5.0981009    688.56173  0.034649845  0.033704704           24 
 1657000   0.59226809   -5.1051923    687.72916  0.034587063   0.03368329            9 
 1658000   0.60070285   -5.1078458    687.80832  0.034570181  0.033661786            7 
 1659000   0.59015066   -5.1176435    688.43944  0.034581045  0.033640305           12 
 1660000   0.59450346   -5.1309379     685.5459  0.034414955  0.033618702           11 
 1661000   0.58384634   -5.1274294    687.38386  0.034486447  0.033597173           28 
 1662000   0.57968812   -5.1230178    687.40183  0.034466598  0.033575634           13 
 1663000   0.59214292   -5.1273159     686.7397  0.034412693  0.033554197           13 
 1664000   0.59407939   -5.1343739    686.26827  0.034368403  0.033532682           12 
 1665000   0.60345162   -5.1053697    689.28859  0.034498928  0.033511228           12 
 1666000   0.58446082   -5.1033102    688.43685  0.034435617  0.033489769           20 
 1667000   0.59628348   -5.1028737    689.14255  0.034450238  0.033468306           16 
 1668000   0.58971552   -5.1065111    688.03118   0.03437406  0.033446922           18 
 1669000    0.5796085   -5.1047398    688.53367  0.034378553  0.033425617           11 
 1670000   0.58426303   -5.1179218    688.69987  0.034366261  0.033404238           10 
 1671000   0.58221177   -5.1188673    688.29161  0.034325335  0.033382868            8 
 1672000   0.57029783    -5.118851    688.00939  0.034290739  0.033361581           14 
 1673000   0.57490431   -5.1345779    687.27928  0.034233875  0.033340261            8 
 1674000   0.58307102   -5.1038926    688.28846  0.034263663  0.033318914            9 
 1675000   0.57561283   -5.1042435    690.50126  0.034353296  0.033297829            9 
 1676000   0.59225697   -5.1300977    689.89397  0.034302604  0.033276693           18 
 1677000   0.57794326   -5.1106011    688.16051   0.03419601  0.033255544           10 
 1678000   0.58262237   -5.1172013    688.15733  0.034175473   0.03323441           19 
 1679000   0.57829697    -5.098012    688.40558   0.03416744  0.033213221           26 
 1680000   0.58758922   -5.1244347     688.5995  0.034156721  0.033191897           12 
 1681000   0.58791684   -5.1328127    686.27302   0.03402107  0.033170494           10 
 1682000    0.5873214   -5.1436529    688.65302  0.034118759  0.033149059           12 
 1683000   0.58489849     -5.16362    686.54986  0.033994349   0.03312756           14 
 1684000   0.57496379   -5.1292129    687.60953    0.0340266  0.033106056           24 
 1685000   0.58481846   -5.1362639    688.19037  0.034035132  0.033084601           28 
 1686000   0.58760873   -5.1493903    687.32197  0.033972023  0.033063207           24 
 1687000   0.59067177   -5.1457888    688.61609  0.034015812  0.033041783           14 
 1688000   0.57407789   -5.1496986    686.94491  0.033913157  0.033020372           10 
 1689000   0.58346455    -5.144205    687.64262  0.033927503  0.032998998           10 
 1690000   0.58550159   -5.1277835    687.55355  0.033903035  0.032977587           12 
 1691000   0.57944699   -5.1127492    689.38542  0.033973261  0.032956304            8 
 1692000   0.58054185   -5.1095926    689.31002  0.033949469  0.032935078           12 
 1693000   0.57944019    -5.131868    688.50026  0.033889558  0.032913744           24 
 1694000   0.58964899   -5.1477081    688.01763   0.03384581  0.032892519           23 
 1695000   0.57509046   -5.1346889    687.30615  0.033790863  0.032871185           14 
 1696000   0.56284712    -5.138703     686.6729  0.033739824  0.032849858           23 
 1697000   0.58311774   -5.1441975    687.05444  0.033738678  0.032828575           11 
 1698000   0.57044589   -5.1337947    689.69973  0.033848632  0.032807251           20 
 1699000   0.57829129   -5.1290895    687.00172  0.033696376  0.032786055           15 
 1700000   0.56693827   -5.1439007    687.64305  0.033707993  0.032764712           25 
 1701000    0.5745287   -5.1336502    687.37678  0.033675131  0.032743324           15 
 1702000   0.57845771   -5.1587059    688.76834  0.033723479  0.032722046           28 
 1703000   0.56716396   -5.1446847    687.20511  0.033627183  0.032700784           25 
 1704000   0.57046398   -5.1505688    687.64676  0.033629047  0.032679601            8 
 1705000   0.58001433   -5.1397751    688.67688  0.033659672    0.0326585           19 
 1706000   0.57335526   -5.1203222    689.13154   0.03366215  0.032637283           13 
 1707000   0.56567031   -5.1380118    688.73364  0.033623005   0.03261612           17 
 1708000   0.57551276   -5.1533744    686.32417  0.033485762  0.032594893           20 
 1709000    0.5648312   -5.1417544    687.48687  0.033522863  0.032573702           12 
 1710000   0.57998942   -5.1386516     687.1557   0.03348712  0.032552449           16 
 1711000   0.57892316   -5.1612371    687.50239  0.033484433  0.032531259           19 
 1712000    0.5613048   -5.1447353    689.37925  0.033556233  0.032510071           16 
 1713000   0.57403712    -5.159267    687.67222  0.033453601  0.032488908           17 
 1714000   0.57453264   -5.1597955    688.16037  0.033457817  0.032467762           45 
 1715000   0.57815305   -5.1750422    686.98214  0.033381056  0.032446611           19 
 1716000   0.56412206   -5.1485209    689.01801  0.033460471    0.0324255           12 
 1717000    0.5717631    -5.153753    685.29759  0.033260415  0.032404316           22 
 1718000   0.55388296   -5.1255606    688.74746  0.033408395  0.032383194           11 
 1719000   0.56815117    -5.145658     688.2641  0.033365527  0.032362105           12 
 1720000   0.56526062   -5.1585817    687.21957  0.033295522  0.032340925           17 
 1721000   0.58370353   -5.1549464    687.17097  0.033273822  0.032319711            9 
 1722000   0.57759725   -5.1538222    686.44879   0.03321955  0.032298489           10 
 1723000   0.56789891   -5.1756798    689.28826  0.033337602  0.032277281           11 
 1724000   0.57638977   -5.1667819    687.87846  0.033250119   0.03225605           21 
 1725000   0.56790443   -5.1601275    688.17668   0.03324525  0.032234851           21 
 1726000   0.55962652   -5.1797912     688.6736  0.033249981  0.032213653            8 
 1727000   0.54907837   -5.1724651    687.25936  0.033162486  0.032192477           25 
 1728000   0.57274368   -5.1763929    685.31537  0.033049545  0.032171278           10 
 1729000   0.56333632   -5.1611784    684.81393  0.033006262  0.032149956           12 
 1730000   0.56807186   -5.1921949    687.38278  0.033110924  0.032128653           11 
 1731000    0.5696192   -5.1761349     686.2665  0.033038056  0.032107372           39 
 1732000   0.56157518   -5.1718086     687.6614  0.033086095  0.032086155           12 
 1733000   0.55938304   -5.1737568    687.19213  0.033044438   0.03206494           34 
 1734000   0.56638928   -5.1797483    685.28077  0.032933524  0.032043647           12 
 1735000   0.55611219    -5.190697    685.47329  0.032923789  0.032022199           45 
 1736000    0.5557024   -5.1957737    685.41379  0.032901968  0.032000842           21 
 1737000   0.56458069   -5.1775373     685.5306   0.03288863  0.031979618           19 
 1738000   0.56057545   -5.1850841    686.71333  0.032926416  0.031958344           38 
 1739000   0.55698605   -5.1751235    687.53744  0.032946973  0.031937127           24 
 1740000   0.55844263   -5.1707774    687.29796  0.032916569  0.031916038           24 
 1741000     0.568616   -5.1908547    685.33556  0.032803732   0.03189486           38 
 1742000   0.55276179     -5.18501    688.45113  0.032933942  0.031873662           17 
 1743000   0.57117023   -5.1973421    685.32564  0.032765617  0.031852412           51 
 1744000   0.56096852    -5.188737    687.49199  0.032850343   0.03183123           21 
 1745000   0.56193166   -5.1914175    686.94688  0.032805486  0.031810063           19 
 1746000   0.55589986   -5.1930504    686.32506  0.032757019  0.031788878           16 
 1747000   0.55593639   -5.1846071    686.69993   0.03275615  0.031767744           18 
 1748000   0.55100325   -5.1771842     686.8878  0.032746367  0.031746706            9 
 1749000   0.56002885   -5.1820641    687.58094   0.03276067  0.031725708            9 
 1750000   0.55877298   -5.2021255     687.3346  0.032730219  0.031704656           23 
 1751000   0.55192593   -5.2010717    687.39878  0.032714581  0.031683636            8 
 1752000   0.55461435   -5.2064067    687.81278    0.0327156  0.031662613           21 
 1753000    0.5551784   -5.1760853    687.70409  0.032691771   0.03164165           19 
 1754000   0.55790177   -5.1508111    688.17303  0.032695412  0.031620777            9 
 1755000    0.5497313   -5.1975758    686.31333  0.032588477  0.031599858           13 
 1756000    0.5475243   -5.1876536    687.61838  0.032631852  0.031578882           11 
 1757000   0.55347075   -5.2107083    687.36164  0.032601102   0.03155796           10 
 1758000   0.55567328   -5.1915858    686.61246  0.032547045  0.031537015           29 
 1759000   0.55758561   -5.2000542    686.65412  0.032530516  0.031516092           14 
 1760000    0.5500559   -5.1958075    686.34509    0.0324974  0.031495213           22 
 1761000   0.55346805   -5.2042454    687.64751  0.032540579  0.031474319           27 
 1762000   0.55716517   -5.1998737    688.14857  0.032545808  0.031453522           20 
 1763000   0.55264438   -5.1985571    687.69518  0.032505917  0.031432719           10 
 1764000   0.54609498   -5.1891897    687.44414   0.03247563  0.031411948           37 
 1765000   0.55235298   -5.1807153    688.40305  0.032502505  0.031391201           14 
 1766000   0.53970641   -5.1915198    687.61925  0.032447114  0.031370495           25 
 1767000   0.54204639    -5.192583    686.85266  0.032392598  0.031349768           20 
 1768000   0.55733746    -5.191675    688.37036  0.032445812  0.031329042           18 
 1769000   0.54879629   -5.2132941    686.51053  0.032339859  0.031308379           35 
 1770000   0.53866915     -5.20206    688.00515  0.032391956  0.031287692           14 
 1771000   0.55202283   -5.2104869    687.56219  0.032352823  0.031267068            9 
 1772000   0.54626861   -5.2023312    687.98185  0.032354301  0.031246345           12 
 1773000   0.54700125   -5.2028122    687.97287   0.03233563  0.031225638           16 
 1774000   0.54029307   -5.2032137    687.09661   0.03227624  0.031204968           14 
 1775000   0.54016876   -5.2241298    688.63134   0.03233011  0.031184322           30 
 1776000   0.54760256   -5.2279096    686.95293  0.032233152  0.031163632            9 
 1777000   0.54586402   -5.2256954    687.44799  0.032238229  0.031143013           15 
 1778000   0.54080597   -5.2061952    687.07601  0.032202663  0.031122386           18 
 1779000   0.54287979   -5.2050446    689.23586  0.032285734  0.031101817           15 
 1780000    0.5355409   -5.2038252    688.79691  0.032247046  0.031081253           65 
 1781000   0.54105469   -5.2165504    688.28483   0.03220498  0.031060664           28 
 1782000   0.54165419   -5.2145285    686.61839  0.032108978  0.031040092           13 
 1783000   0.53614423   -5.2081092    687.32001  0.032123762  0.031019522           13 
 1784000   0.54221525   -5.1996512    688.02115  0.032138507  0.030998924            8 
 1785000   0.55639324   -5.2077929    687.72822  0.032106826  0.030978376           41 
 1786000   0.53533522    -5.216986    690.72459  0.032228658  0.030957809           55 
 1787000   0.54617348   -5.2236647    686.98138  0.032036065  0.030937274           34 
 1788000   0.54361992   -5.2247805    689.92716  0.032155442  0.030916807           27 
 1789000   0.52967474    -5.230709    686.88122  0.031995585  0.030896342           27 
 1790000   0.53544444   -5.2131908    687.72226  0.032016865  0.030875857           61 
 1791000   0.52968858   -5.2260378    686.76286  0.031954349  0.030855393           27 
 1792000   0.54319709   -5.2151473    688.03986  0.031995901  0.030834877           30 
 1793000   0.53884004    -5.212744    687.56301  0.031955894   0.03081439           27 
 1794000   0.54073502   -5.2211955    687.85262  0.031951534  0.030793927           15 
 1795000   0.54353346   -5.2360996    687.22716  0.031904696  0.030773479           21 
 1796000   0.53320326   -5.2234784    687.86421  0.031916491   0.03075299           13 
 1797000   0.52994816    -5.218705    686.58672  0.031839488  0.030732463           24 
 1798000   0.52970747   -5.2260274    689.28926  0.031947037  0.030712038           30 
 1799000   0.53113259   -5.2296188     686.8706  0.031817241  0.030691616           30 
 1800000   0.53348363   -5.2419837    685.43426  0.031733068   0.03067118           41 
 1801000    0.5415568   -5.2294353    685.99791  0.031741528  0.030650775           35 
 1802000    0.5366508   -5.2177507    687.82304  0.031808317   0.03063045           45 
 1803000   0.52670287   -5.2167981    687.95089  0.031796584  0.030610092           49 
 1804000   0.54012042   -5.2378369    687.50307  0.031758272  0.030589688           31 
 1805000   0.53271701    -5.235141     686.8431  0.031710208  0.030569252           26 
 1806000   0.52944936   -5.2505888    687.41362  0.031718975  0.030548825           69 
 1807000   0.52472188   -5.2457224    686.15395  0.031643329  0.030528359           19 
 1808000   0.53161223   -5.2507683    687.15112  0.031671789  0.030507928           19 
 1809000   0.53221354   -5.2450564    685.83428  0.031593619  0.030487499           28 
 1810000   0.52805062   -5.2414075    686.77494  0.031619472  0.030467064           38 
 1811000   0.53681904    -5.236172    688.51263  0.031681973   0.03044673           15 
 1812000    0.5425322   -5.2422429    686.76968  0.031584331  0.030426446           20 
 1813000   0.53657066   -5.2239143    687.04384  0.031579511  0.030406205           16 
 1814000   0.52950032   -5.2312118    688.73633  0.031639854   0.03038596           19 
 1815000    0.5287782   -5.2237108    687.84314  0.031581411  0.030365735           18 
 1816000   0.52537217    -5.248429    687.88113  0.031565764  0.030345553           22 
 1817000   0.53157055   -5.2473076    687.23273  0.031518654  0.030325332           21 
 1818000   0.52086831   -5.2420096    687.93597  0.031533552  0.030305176           19 
 1819000   0.51792148   -5.2343667    687.71089  0.031505905  0.030284978           34 
 1820000   0.53199349   -5.2412445    685.88543  0.031405011  0.030264801           20 
 1821000   0.51983316   -5.2573927    687.28234   0.03145169  0.030244593           22 
 1822000   0.52651755   -5.2612238    685.37162  0.031347037  0.030224348           15 
 1823000   0.53909477   -5.2616792    687.45912  0.031425266  0.030204085           20 
 1824000   0.52286419   -5.2542006    684.07808  0.031253567  0.030183818           16 
 1825000    0.5172818   -5.2636501    686.54874  0.031349258  0.030163522           44 
 1826000   0.52582285   -5.2664269    686.66104  0.031337214  0.030143229           14 
 1827000   0.52081169   -5.2492147    687.62685  0.031364115  0.030123023           29 
 1828000   0.50701705   -5.2572928    686.52416  0.031296689  0.030102875           12 
 1829000   0.51644873   -5.2572984    687.37239  0.031318224  0.030082706           13 
 1830000   0.52726031   -5.2611259    687.51397  0.031307558  0.030062552           13 
 1831000   0.51925621   -5.2492387    684.78962  0.031166467  0.030042342           13 
 1832000   0.52568481   -5.2585323    687.68543  0.031281178  0.030022103            6 
 1833000   0.53170229   -5.2620314    685.43462  0.031161785  0.030001922           26 
 1834000   0.50775349   -5.2515696    687.84913  0.031254504  0.029981726           55 
 1835000   0.51871291   -5.2658202    685.58549  0.031134673  0.029961533           16 
 1836000   0.52091946   -5.2753314    686.14746  0.031143222  0.029941417           33 
 1837000   0.52453448   -5.2615939    687.51998  0.031188531   0.02992134           28 
 1838000    0.5200262   -5.2565857    685.66899   0.03108764  0.029901249           37 
 1839000   0.52378271   -5.2850688    687.49271  0.031153376  0.029881144           38 
 1840000   0.53510831   -5.2393424    687.77599  0.031149275  0.029861091           31 
 1841000   0.52913298   -5.2582248     686.6467  0.031081238  0.029841068           69 
 1842000   0.53115491   -5.2594496     686.3813  0.031052357  0.029821031           70 
 1843000   0.52128479   -5.2673014    686.91821  0.031059785  0.029801046           46 
 1844000   0.52485262   -5.2778171    687.16614  0.031054146  0.029781062           25 
 1845000   0.51601811   -5.2768654    687.54967  0.031054637  0.029761021           35 
 1846000   0.50340064    -5.273778    686.89197  0.031008124  0.029740979           25 
 1847000    0.5046184   -5.2754111     687.0029  0.030996341  0.029720971           13 
 1848000   0.51317895    -5.272003    686.24726  0.030945493  0.029700961           12 
 1849000   0.51812064   -5.2732978     686.2591  0.030929291  0.029680955           11 
 1850000   0.52068524   -5.2665447     685.9732  0.030899693  0.029660999           22 
 1851000   0.50926207   -5.2491128    686.22429  0.030894304  0.029641075           12 
 1852000   0.51821257    -5.275728    686.28451  0.030880333  0.029621104           21 
 1853000   0.51938553    -5.258888    686.90101  0.030891393  0.029601173           15 
 1854000   0.52388124   -5.2804028    688.50989  0.030947047  0.029581264           15 
 1855000   0.53179309   -5.2839279    686.80803   0.03085391  0.029561352           15 
 1856000   0.51533408   -5.2712894    686.04365  0.030802966  0.029541457           26 
 1857000   0.49924653   -5.2713347    687.39033  0.030846811   0.02952156           26 
 1858000   0.50889846   -5.2692912    686.63845  0.030796486  0.029501735           32 
 1859000   0.51032722    -5.282129    687.24162  0.030806958  0.029481977           17 
 1860000    0.5100656    -5.292389    688.51322  0.030847366   0.02946213           18 
 1861000   0.51134112    -5.274404    686.69123  0.030749204  0.029442291           36 
 1862000   0.49993278   -5.2845193    687.36015  0.030762627  0.029422511           26 
 1863000   0.51469437   -5.2891579    687.05164  0.030732315  0.029402729           19 
 1864000   0.51492853   -5.2916035    686.93548  0.030710635  0.029382964           42 
 1865000   0.51543383   -5.2881573    686.72628  0.030684821  0.029363178           25 
 1866000   0.51355226   -5.3052412    685.71393  0.030623166  0.029343431           12 
 1867000   0.50772738   -5.2901303    686.68778  0.030650231  0.029323706           25 
 1868000   0.50017476   -5.2824997    686.45348  0.030623371  0.029303931           49 
 1869000   0.49751561   -5.2994503    687.50277  0.030653771  0.029284189           33 
 1870000   0.51239923   -5.2830529    686.49781  0.030592594   0.02926445           25 
 1871000   0.50367925   -5.2916369    685.54778  0.030533929  0.029244725           34 
 1872000   0.49663682   -5.2930729    686.79259  0.030573032  0.029225046           22 
 1873000   0.50294334   -5.2743085    687.34946  0.030581485  0.029205355           27 
 1874000   0.50573254   -5.3045904    685.85281  0.030498613  0.029185647           21 
 1875000   0.51291789   -5.3099498    684.64706  0.030428758  0.029165937           21 
 1876000   0.50795545    -5.312798    686.03168  0.030474044  0.029146158           31 
 1877000   0.50854367    -5.288105    687.12082  0.030506163  0.029126416           29 
 1878000   0.49772227   -5.2989609    685.41729  0.030414328  0.029106732           18 
 1879000   0.50222307   -5.2903322    686.16043    0.0304311  0.029086997           33 
 1880000   0.50525184   -5.3014705    686.51715  0.030430725  0.029067271           11 
 1881000   0.49914396    -5.317175    685.75533  0.030380796  0.029047527           18 
 1882000   0.50341999   -5.3014656    686.07322  0.030378729  0.029027817           44 
 1883000    0.5040238   -5.3186589    686.74934  0.030392518  0.029008127           28 
 1884000    0.5059975   -5.3117772    686.17782  0.030351107  0.028988432           23 
 1885000   0.50301627   -5.2971084    686.36656  0.030343349  0.028968759           25 
 1886000   0.50647059   -5.3061484    685.15958   0.03027393  0.028949138           43 
 1887000   0.49898066   -5.3171456     686.8932  0.030334446  0.028929528           27 
 1888000   0.50536085   -5.3133035    685.45851  0.030255054   0.02890988           28 
 1889000   0.50052724   -5.3155997    684.34041  0.030189713  0.028890248           93 
 1890000   0.50038299   -5.3265309    685.24245  0.030213512  0.028870578           35 
 1891000   0.50588596   -5.3234249    685.05933  0.030189465  0.028850891           39 
 1892000   0.50052196   -5.3182901     685.8193  0.030206981  0.028831255           35 
 1893000   0.49342329   -5.3379216    685.71648  0.030186498  0.028811592           28 
 1894000   0.48084593   -5.3330251    684.12559  0.030100563  0.028791963           52 
 1895000   0.49650357   -5.3135365    684.16273  0.030086312  0.028772364           25 
 1896000   0.49544122   -5.3189041    684.23157  0.030073469  0.028752784           30 
 1897000   0.50076429   -5.3296963    685.46112  0.030111629  0.028733184           19 
 1898000   0.49457856   -5.3243028    686.52144  0.030142318  0.028713626           22 
 1899000   0.49152093   -5.3304067    684.69052  0.030046099  0.028694122           60 
 1900000   0.49584122   -5.3215489    684.97962  0.030042966  0.028674621           22 
 1901000   0.49221872   -5.3124311    684.75015  0.030017103  0.028655102           30 
 1902000   0.49002236   -5.3076322    686.76749  0.030089708  0.028635579           11 
 1903000   0.48492473   -5.3595641    683.88004  0.029947453  0.028615998           25 
 1904000   0.49473057   -5.3244642    685.13244  0.029986539  0.028596488           19 
 1905000   0.48371796   -5.3094177    686.08016  0.030012256  0.028577026           48 
 1906000   0.48362584   -5.3088139    686.83856  0.030029668  0.028557547           27 
 1907000   0.48884233   -5.3427813     685.5113  0.029955921  0.028538089           23 
 1908000   0.49439387   -5.3328307    683.32182  0.029844594  0.028518684           40 
 1909000    0.4926109    -5.320479    684.24917  0.029869442  0.028499237           27 
 1910000   0.48818924   -5.3269167    685.72626  0.029918249  0.028479794           35 
 1911000   0.48380766   -5.3288966    684.75075  0.029860054  0.028460356           79 
 1912000   0.48581641   -5.3538861    684.22951  0.029821719  0.028440858           48 
 1913000   0.48933586   -5.3370769    683.81326  0.029787997  0.028421358           79 
 1914000     0.493457    -5.334698    683.40878  0.029754823  0.028401893           55 
 1915000   0.47649668   -5.3378824    685.40509  0.029826157  0.028382456           31 
 1916000   0.49339267   -5.3306437    683.86003   0.02974339   0.02836302           34 
 1917000   0.49525937   -5.3409567     685.6918  0.029807503    0.0283436           91 
 1918000   0.47915309   -5.3452041    684.18765   0.02972661   0.02832419           75 
 1919000   0.47864124   -5.3424305    683.94083  0.029700401  0.028304811           42 
 1920000   0.49456596    -5.339915    684.18941  0.029695721  0.028285423           45 
 1921000   0.48424871   -5.3409586    684.15941  0.029678961  0.028266017           25 
 1922000   0.49512453    -5.356043     684.1944  0.029665036  0.028246566           81 
 1923000   0.48183121   -5.3565077    683.70975  0.029628608  0.028227107           48 
 1924000   0.48750432   -5.3477341     682.8873  0.029577586  0.028207731           50 
 1925000   0.49460418   -5.3653509    683.15518  0.029573817  0.028188343           38 
 1926000   0.48880148   -5.3391276    684.43417  0.029613801  0.028168968           32 
 1927000   0.49007743   -5.3736784    681.93929  0.029490542  0.028149666           56 
 1928000   0.48719852   -5.3517955    683.81647  0.029556383  0.028130369          128 
 1929000   0.47933217   -5.3360926    684.49781  0.029570495  0.028111087           77 
 1930000   0.48184425   -5.3411053     683.7213  0.029521645  0.028091821           37 
 1931000   0.48306701    -5.332701    684.76975  0.029551603  0.028072568          102 
 1932000   0.48116151    -5.345683    683.57721  0.029484869  0.028053372           78 
 1933000   0.48549277   -5.3468328    684.44218  0.029506905  0.028034181          107 
 1934000   0.48448651   -5.3517562    684.03557  0.029474128  0.028014979          130 
 1935000    0.4889605   -5.3339608    683.79659  0.029448604  0.027995771          195 
 1936000   0.47950538   -5.3693504    683.54919  0.029422744  0.027976558           34 
 1937000   0.47383334   -5.3577192    683.87887  0.029421738  0.027957354           61 
 1938000   0.47395096   -5.3486581    684.72484  0.029442932  0.027938178           59 
 1939000   0.48677132   -5.3725486    684.88743  0.029434736  0.027919031           82 
 1940000   0.48300564   -5.3459945    682.86528  0.029332701    0.0278999           52 
 1941000    0.4721214    -5.362873    684.32464  0.029380244  0.027880778           62 
 1942000   0.48087222   -5.3742717    683.39841  0.029325369  0.027861635           87 
 1943000   0.48280049   -5.3665895    685.49165  0.029400053  0.027842512           87 
 1944000   0.46879409   -5.3353873    684.25594  0.029331959  0.027823441          163 
 1945000   0.47503839   -5.3616468    683.83475  0.029298832  0.027804405          120 
 1946000   0.46962141   -5.3585537    683.98707  0.029290299  0.027785359          147 
 1947000   0.48139224   -5.3624966    683.83868  0.029268904  0.027766284          108 
 1948000   0.48895026   -5.3645725    683.71039  0.029248391  0.027747219          135 
 1949000   0.47177372   -5.3626282    684.52103  0.029268045   0.02772819          122 
 1950000   0.47461053   -5.3572802    684.21191  0.029239825  0.027709179          167 
 1951000   0.47101303   -5.3606063    685.00367  0.029258657  0.027690176          131 
 1952000   0.47252894   -5.3710727     683.2686  0.029169595  0.027671133          181 
 1953000   0.47256588   -5.3755643    683.25183  0.029153944  0.027652122          273 
 1954000   0.47433546   -5.3810253    681.86339   0.02907981   0.02763309          295 
 1955000   0.46312745   -5.3811631    682.04653  0.029072742  0.027614036          180 
 1956000   0.47178852   -5.3831232    683.05997  0.029101055  0.027594993          332 
 1957000   0.46745212   -5.3943422    682.60112  0.029066646  0.027575901          291 
 1958000    0.4574588   -5.3809219    682.31169  0.029039483  0.027556866          203 
 1959000   0.47240047   -5.3920793    682.73093  0.029042493  0.027537836          202 
 1960000   0.46968827   -5.3890705    683.15168  0.029045565  0.027518827          177 
 1961000   0.45917395   -5.3640522    683.17907  0.029031917  0.027499867          232 
 1962000   0.46651406   -5.3811817    681.77497  0.028957482  0.027480906          169 
 1963000   0.47498783   -5.4003237    683.37508  0.029010659   0.02746193          194 
 1964000    0.4734471    -5.389699     681.8245  0.028930096  0.027442943          174 
 1965000   0.47170134   -5.3908058    682.25162  0.028933487  0.027423962          307 
 1966000   0.47441972   -5.3928292    681.87546  0.028902826  0.027404962          379 
 1967000   0.46274108   -5.4112444     682.1226  0.028898602  0.027385938          341 
 1968000   0.47014964   -5.3735866    682.50992  0.028900319  0.027366939          343 
 1969000   0.48136109   -5.4112413    681.51439  0.028843507  0.027347951          307 
 1970000   0.47508963   -5.4011344    681.94662   0.02884715  0.027328967          376 
 1971000   0.46994792   -5.3727593    680.09025  0.028754027  0.027310026          382 
 1972000   0.46131866   -5.3937678    680.93021  0.028774941  0.027291093          391 
 1973000   0.45614311   -5.4101467    682.10475  0.028809966  0.027272144          379 
 1974000   0.46507057   -5.3857222    682.73337  0.028821909  0.027253217          376 
 1975000   0.46735469   -5.4064317    682.35832   0.02879149  0.027234322          404 
 1976000   0.45633652   -5.3896442    681.67683  0.028748179  0.027215418          326 
 1977000   0.45290337   -5.4013853    680.62803   0.02868943  0.027196534          424 
 1978000   0.47481165   -5.4079908    682.32576  0.028746451  0.027177669          242 
 1979000   0.45890139   -5.3908738    681.60176  0.028701438  0.027158754          462 
 1980000   0.46643875   -5.4063428    679.82419  0.028612129  0.027139822          392 
 1981000   0.46028245   -5.3905984    682.17383  0.028696527  0.027120936          398 
 1982000   0.46356565   -5.4013651    681.32178  0.028646223  0.027102113          394 
 1983000   0.46313668   -5.4009109    683.27182  0.028713726  0.027083305          345 
 1984000   0.44998407   -5.4183929     680.0322   0.02856318  0.027064484          382 
 1985000   0.45109456     -5.40138    682.54068  0.028654101  0.027045616          360 
 1986000   0.46535954   -5.4034093    680.67337   0.02856132  0.027026785          216 
 1987000    0.4630171   -5.4037105    680.73816  0.028549663  0.027007986          257 
 1988000   0.47039303   -5.4125223    681.16025  0.028552995  0.026989203          352 
 1989000   0.46433958   -5.4133114    681.48601  0.028552288  0.026970434          357 
 1990000   0.46406195   -5.4069854    681.46804  0.028537188  0.026951665          350 
 1991000   0.45063335   -5.4119839    680.26716  0.028472592  0.026932899          156 
 1992000   0.45927784   -5.4241462     681.4714  0.028508676  0.026914166          341 
 1993000   0.45457087   -5.4165124    681.45162  0.028493545  0.026895447          178 
 1994000   0.46123901   -5.4146548    681.46253  0.028479711  0.026876771          222 
 1995000   0.45572795   -5.4072997    681.30206  0.028458733  0.026858068          363 
 1996000   0.45719563   -5.4242295    681.54484  0.028454611  0.026839394          371 
 1997000   0.45608012   -5.4279805     680.3965  0.028392443  0.026820717          415 
 1998000   0.44935762    -5.413965    681.50618  0.028424515  0.026802048          370 
 1999000    0.4484624   -5.4054888     681.0199  0.028390024  0.026783455          483 
 2000000    0.4536105   -5.4171861    680.79966  0.028366652  0.026764825          434 
 2001000    0.4599119    -5.413873    680.18054  0.028326692  0.026746206          491 
 2002000   0.44697884   -5.4234628    679.32157  0.028276789  0.026727598          472 
 2003000   0.44875664   -5.4226646     680.9665  0.028331107  0.026708958          549 
 2004000   0.46000167   -5.4249311    680.11388  0.028281515  0.026690335          451 
 2005000    0.4490783   -5.4519876    680.59935  0.028287587   0.02667172          454 
 2006000   0.44713364   -5.4272682    680.25782  0.028259298  0.026653139          467 
 2007000   0.45686474   -5.4453641    679.71469  0.028222666  0.026634567          337 
 2008000   0.45611841   -5.4265683    679.69943  0.028207978   0.02661597          613 
 2009000   0.45340427   -5.4394731     680.0734  0.028209449  0.026597387          576 
 2010000   0.45200763   -5.4260321     679.8773  0.028187285  0.026578826          472 
 2011000   0.44349642   -5.4257524    680.06183  0.028180915  0.026560255          499 
 2012000   0.44748232   -5.4316316    681.49318  0.028226192  0.026541708          558 
Loop time of 4994.61 on 48 procs for 2000000 steps with 4000 atoms

Performance: 69194.552 tau/day, 400.431 timesteps/s
99.4% CPU use with 48 MPI tasks x no OpenMP threads

MPI task timing breakdown:
Section |  min time  |  avg time  |  max time  |%varavg| %total
---------------------------------------------------------------
Pair    | 333.18     | 361.55     | 385.3      |  62.9 |  7.24
Neigh   | 33.886     | 35.262     | 36.946     |  14.0 |  0.71
Comm    | 314.72     | 344.73     | 371.4      |  64.3 |  6.90
Output  | 4.4337     | 4.4364     | 4.5008     |   0.4 |  0.09
Modify  | 4192.2     | 4203.2     | 4213.9     |   8.9 | 84.15
Other   |            | 45.48      |            |       |  0.91

Nlocal:        83.3333 ave          90 max          75 min
Histogram: 2 0 5 4 8 5 8 9 4 3
Nghost:        2310.69 ave        2334 max        2284 min
Histogram: 2 2 6 5 5 8 6 5 5 4
Neighs:        15640.5 ave       17318 max       13506 min
Histogram: 2 1 2 2 14 9 7 4 2 5
FullNghs:      31281.0 ave       34053 max       28002 min
Histogram: 2 1 5 4 9 6 9 9 0 3

Total # of neighbors = 1501490
Ave neighs/atom = 375.37250
Neighbor list builds = 107784
Dangerous builds = 0

#clear
#
#next RN
#
#jump SELF
Total wall time: 1:23:18
