
units lj                  # Use reduced LJ style units
atom_style atomic         # Uncharged point particles
atom_modify map hash      # Needed for indexing of clusters etc
                          # Used to be able to find where atoms are in relation to each other.

lattice fcc 1.0 spacing 1 1 1
Lattice spacing in x,y,z = 1.5874011 1.5874011 1.5874011
region box block 0 10 0 10 0 10 units lattice
create_box 2 box
Created orthogonal box = (0.0000000 0.0000000 0.0000000) to (15.874011 15.874011 15.874011)
  3 by 4 by 4 MPI processor grid
create_atoms 1 box
Created 4000 atoms
  using lattice units in orthogonal box = (0.0000000 0.0000000 0.0000000) to (15.874011 15.874011 15.874011)
  create_atoms CPU = 0.005 seconds
set type 1 type/fraction 2 0.13 78393
Setting atom values ...
  541 settings made for type/fraction
mass 1 1.0
mass 2 1.0
pair_style lj/cut  3.5
pair_modify tail  yes
pair_coeff 1  1  1.0  1.0   # Intearaction between 1 and 1 set with epsilon = 1 and sigma = 1
pair_coeff 1  2  1.5  0.8
pair_coeff 2  2  0.5  0.88

write_data data.0
System init for write_data ...
Neighbor list info ...
  update every 1 steps, delay 10 steps, check yes
  max neighbors/atom: 2000, page size: 100000
  master list distance cutoff = 3.8
  ghost atom cutoff = 3.8
  binsize = 1.9, bins = 9 9 9
  1 neighbor lists, perpetual/occasional/extra = 1 0 0
  (1) pair lj/cut, perpetual
      attributes: half, newton on
      pair build: half/bin/atomonly/newton
      stencil: half/bin/3d
      bin: standard
WARNING: Not all mixed pair coeffs generated from mixing. Use write_data with 'pair ij' option to store all pair coeffs. (../write_data.cpp:312)


#############################
#   M E L T   S Y S T E M   #
#############################

velocity all create 2.4 2750902 mom yes dist gaussian # Assign velocities
                                                    # Temperature 2.4, random number seed, zero linear momentum
                                                                                # Gaussian distribution

timestep 0.002   # simulation timestep
thermo 1000       # output thermodynamic data every 1000 steps bf 100

# Define a fix  in this case with index 1 applied to all
# particles in the simulation. This fix is for simulations
# in the anisotropic NPT ensemble. Note that we use the MTK
# correction.
fix 1 all npt temp 2.4 2.4 0.1 iso 5.68 5.68 0.5 mtk yes tchain 5 pchain 5 # Use NPT ensemble
                                                                         # Set temperature and pressure and damping
                                                                         # Numbers of thermostats in chain and in barostat
run 10000          # run for 10000 steps
Per MPI rank memory allocation (min/avg/max) = 3.642 | 3.644 | 3.648 Mbytes
Step Temp E_pair E_mol TotEng Press Volume 
       0          2.4     -7.50335            0     -3.90425   -3.2182506         4000 
    1000    2.3377246   -4.6602019            0   -1.1544916    5.7093684    4725.9508 
    2000    2.3740372   -4.6985247            0   -1.1383592    5.6416629    4726.7135 
    3000    2.3638109   -4.6748277            0   -1.1299977    5.6052709    4744.5566 
    4000    2.4105976   -4.6462048            0   -1.0312124    5.7394099    4733.9593 
    5000    2.4244775   -4.7267348            0   -1.0909277    5.6801524    4710.8214 
    6000    2.3851452   -4.6797324            0    -1.102909    5.3461461    4767.0715 
    7000    2.4342459   -4.6486872            0  -0.99823114    5.7943159    4737.1871 
    8000    2.4393119   -4.7027719            0   -1.0447188    5.8745607    4697.8701 
    9000    2.4145825    -4.696795            0   -1.0758268    5.6398476    4721.4009 
   10000    2.4060609   -4.6698205            0   -1.0616315    5.8211367    4725.2887 
Loop time of 2.23695 on 48 procs for 10000 steps with 4000 atoms

Performance: 772479.242 tau/day, 4470.366 timesteps/s
99.6% CPU use with 48 MPI tasks x no OpenMP threads

MPI task timing breakdown:
Section |  min time  |  avg time  |  max time  |%varavg| %total
---------------------------------------------------------------
Pair    | 0.91161    | 0.9806     | 1.0807     |   3.3 | 43.84
Neigh   | 0.19129    | 0.20036    | 0.22003    |   1.4 |  8.96
Comm    | 0.698      | 0.78237    | 0.8684     |   4.2 | 34.97
Output  | 0.0002364  | 0.00024129 | 0.00030227 |   0.0 |  0.01
Modify  | 0.22308    | 0.25896    | 0.30921    |   4.5 | 11.58
Other   |            | 0.01442    |            |       |  0.64

Nlocal:        83.3333 ave          94 max          74 min
Histogram: 2 2 4 8 7 12 5 5 2 1
Nghost:        1469.77 ave        1504 max        1448 min
Histogram: 7 6 3 8 10 6 4 2 1 1
Neighs:        8063.33 ave        9185 max        7141 min
Histogram: 3 7 1 10 7 8 4 4 3 1

Total # of neighbors = 387040
Ave neighs/atom = 96.760000
Neighbor list builds = 905
Dangerous builds = 196

# Equilibrate just above the melting temperature to avoid step fn in T

fix 1 all npt temp 1.25 1.25 0.1 iso 5.68 5.68 0.5 mtk yes tchain 5 pchain 5
run 2000
Per MPI rank memory allocation (min/avg/max) = 3.642 | 3.644 | 3.648 Mbytes
Step Temp E_pair E_mol TotEng Press Volume 
   10000    2.4060609   -4.6698205            0   -1.0616315    5.8211367    4725.2887 
   11000    1.2531996    -6.257701            0   -4.3783714     5.749121    3898.4566 
   12000    1.2436157   -6.3228909            0   -4.4579337    5.6839767    3878.4433 
Loop time of 0.48029 on 48 procs for 2000 steps with 4000 atoms

Performance: 719565.093 tau/day, 4164.150 timesteps/s
99.7% CPU use with 48 MPI tasks x no OpenMP threads

MPI task timing breakdown:
Section |  min time  |  avg time  |  max time  |%varavg| %total
---------------------------------------------------------------
Pair    | 0.20336    | 0.22829    | 0.25561    |   1.8 | 47.53
Neigh   | 0.031776   | 0.033641   | 0.037615   |   0.6 |  7.00
Comm    | 0.14154    | 0.16436    | 0.18609    |   2.7 | 34.22
Output  | 5.3679e-05 | 5.518e-05  | 6.8855e-05 |   0.0 |  0.01
Modify  | 0.036978   | 0.049581   | 0.060884   |   3.4 | 10.32
Other   |            | 0.004364   |            |       |  0.91

Nlocal:        83.3333 ave          93 max          75 min
Histogram: 1 2 5 14 5 9 6 3 2 1
Nghost:        1671.29 ave        1695 max        1650 min
Histogram: 2 3 6 6 9 7 8 4 1 2
Neighs:        9834.58 ave       11076 max        8807 min
Histogram: 2 1 9 10 8 7 7 2 0 2

Total # of neighbors = 472060
Ave neighs/atom = 118.01500
Neighbor list builds = 143
Dangerous builds = 14

#############################
# L I N E A R  Q U E N C H  #
#############################

# Define solid atoms. This closely follows ten Wolde  Ruiz-Montero and Frenkel  Faraday Discuss  1996  104  93-110
# Compute components of the per-atom q6 vector
compute q6 all orientorder/atom degrees 1 6 components 6 nnn NULL cutoff 1.3 # compute the Q6 parameter.
                                                                             # Use all neighbours within 1.3 unit cell.

# get number of connections
compute coord_number all coord/atom orientorder q6 0.5

# An atom is solid if it has 8 or more connections (of a possible 14)
variable is_solid atom c_coord_number>=8
group solid dynamic all var is_solid    # Must be dynamic to update
dynamic group solid defined

# do clustering
compute cluster solid cluster/atom 1.3 # Create a cluster where all atoms within are solid and max 1.3 units from another member

# define chunks one chunk per cluster
compute clus_chunks solid chunk/atom c_cluster nchunk every compress yes  # Says which atoms are in which chunk

# count the size of each chunk
compute size_chunks solid property/chunk clus_chunks count


# Find the maximum entry in the vector of chunk sizes
variable max_n equal max(c_size_chunks)


# Thermo style which includes this variable
# thermo_style custom step temp pe vol v_max_n

thermo ${N}  # Print the thermo information every 100 steps
thermo 1000  

# Reset the npt fix at a lower temperature (below freezing)
fix 1  all npt temp  ${temp} ${temp}  0.1  iso  5.68  5.68  0.5  mtk yes tchain  5  pchain  5
fix 1  all npt temp  0.45 ${temp}  0.1  iso  5.68  5.68  0.5  mtk yes tchain  5  pchain  5
fix 1  all npt temp  0.45 0.45  0.1  iso  5.68  5.68  0.5  mtk yes tchain  5  pchain  5

dump dmp2 all dcd ${N} traj.dcd
dump dmp2 all dcd 1000 traj.dcd


compute msd all msd com yes
variable twopoint equal c_msd[4]/6/(step*dt+1.0e-6)
fix 9 all vector 10 c_msd[4]
variable fit equal slope(f_9)/6/(10*dt)
thermo_style custom step temp pe c_msd[4] v_twopoint v_fit v_max_n

fix 1 all npt temp 1.25 ${temp} 0.1 iso 5.68 5.68 0.5 mtk yes tchain 5 pchain 5
fix 1 all npt temp 1.25 0.45 0.1 iso 5.68 5.68 0.5 mtk yes tchain 5 pchain 5
run 500000 # 5000000  # Run for this many steps
Neighbor list info ...
  update every 1 steps, delay 10 steps, check yes
  max neighbors/atom: 2000, page size: 100000
  master list distance cutoff = 3.8
  ghost atom cutoff = 3.8
  binsize = 1.9, bins = 9 9 9
  4 neighbor lists, perpetual/occasional/extra = 1 3 0
  (1) pair lj/cut, perpetual
      attributes: half, newton on
      pair build: half/bin/atomonly/newton
      stencil: half/bin/3d
      bin: standard
  (2) compute orientorder/atom, occasional
      attributes: full, newton on
      pair build: full/bin/atomonly
      stencil: full/bin/3d
      bin: standard
  (3) compute coord/atom, occasional
      attributes: full, newton on
      pair build: full/bin/atomonly
      stencil: full/bin/3d
      bin: standard
  (4) compute cluster/atom, occasional
      attributes: full, newton on
      pair build: full/bin/atomonly
      stencil: full/bin/3d
      bin: standard
Per MPI rank memory allocation (min/avg/max) = 9.756 | 9.761 | 9.766 Mbytes
Step Temp PotEng c_msd[4] v_twopoint v_fit v_max_n 
   12000    1.2436157   -6.3228909 2.5111415e-30 1.7438482e-32 8.3333333e+20            3 
   13000    1.2388937   -6.3402481   0.54117626 0.0034690784  0.044736129            2 
   14000    1.2580354   -6.3379954    1.0891468 0.0064830164  0.044138354            3 
   15000    1.2340812    -6.323457    1.6204505 0.0090025027  0.045103297            1 
   16000    1.2428145    -6.332155    2.1225067  0.011054722  0.044200638            3 
   17000    1.2652918   -6.3746552    2.6843957  0.013158802  0.044291923            5 
   18000    1.2529104   -6.3509504     3.219275   0.01490405  0.044413353            3 
   19000     1.249172   -6.3297826    3.7621238  0.016500543  0.044513256            2 
   20000    1.2765996   -6.3326793    4.2876518  0.017865215  0.044625783            2 
   21000    1.2518914   -6.3362473    4.8220548  0.019135138  0.044669518            3 
   22000     1.256831   -6.3393089    5.2587807  0.019919623  0.044480842            2 
   23000     1.215506   -6.3179861    5.7298693  0.020760395  0.044002679            1 
   24000    1.2395854   -6.3210248    6.2135475  0.021574817  0.043465456            4 
   25000    1.2288435   -6.3183432    6.7049557  0.022349852   0.04313656            1 
   26000    1.2366896    -6.358306    7.2046519  0.023091833  0.042881747            1 
   27000    1.2249186    -6.305912    7.6582032  0.023636429  0.042642774            3 
   28000    1.2318956    -6.414304    8.2359018  0.024511612  0.042477759            2 
   29000    1.1976652    -6.331881    8.7954746  0.025274352  0.042462128            4 
   30000    1.2189339   -6.3747085    9.3367238  0.025935343  0.042536722            4 
   31000    1.2178567   -6.3882465    9.9157819  0.026655327  0.042662587            3 
   32000    1.2262933   -6.3723041    10.433937   0.02717171  0.042816399            2 
   33000    1.2045513    -6.355327    10.882821  0.027481871  0.042861083            2 
   34000    1.2060651   -6.3545463    11.441366  0.028042564  0.042879934            4 
   35000    1.2080459   -6.3783128     11.76979  0.028023309  0.042846152            3 
   36000    1.2083548   -6.3657015    12.018765  0.027821216   0.04264266            3 
   37000     1.208512   -6.4011324    12.466806  0.028078392  0.042340163            2 
   38000    1.2254414   -6.3956442    13.025479  0.028564648  0.042118537            3 
   39000    1.2002542   -6.3652181    13.524328  0.028898135  0.041934118            2 
   40000     1.211755   -6.4112717    13.933602  0.029028337  0.041770392            3 
   41000     1.191639   -6.3648762    14.555952  0.029585268  0.041628854            4 
   42000    1.2189952    -6.383984    14.882405  0.029528581  0.041515536            2 
   43000    1.1671452   -6.3767016      15.2637  0.029580813  0.041357889            2 
   44000    1.2106371   -6.4063486    15.677178  0.029691624  0.041161084            3 
   45000    1.1823585   -6.3933944    16.181476  0.029965696  0.041002803            3 
   46000    1.1966619   -6.4223124    16.633804  0.030133703  0.040847099            3 
   47000      1.20042   -6.4275521    17.051634  0.030233393  0.040719315            3 
   48000    1.1769612   -6.4091103    17.425299  0.030252255  0.040564516            2 
   49000    1.1950301    -6.428539    17.935505  0.030502559  0.040415931            9 
   50000    1.1984476   -6.3917504    18.308259  0.030513765  0.040265129            4 
   51000    1.1950445   -6.4282177    18.702171  0.030559103  0.040122287            5 
   52000     1.190646   -6.4274599    19.231047  0.030818985  0.039988825            5 
   53000    1.2071529   -6.4236863    19.759086  0.031067745  0.039881795            2 
   54000     1.193894   -6.4316142    20.275584  0.031289481  0.039801219            3 
   55000    1.1912005   -6.4746774    20.858272  0.031603443  0.039744248            3 
   56000    1.1809146   -6.4439312    21.509171  0.032007695  0.039733931            3 
   57000    1.1812286   -6.4681025    21.965597  0.032113446  0.039756712            2 
   58000     1.189347   -6.4562308    22.699863  0.032614745  0.039798841            7 
   59000    1.1709077   -6.4517359    23.055424  0.032564158   0.03984541            1 
   60000    1.1484966   -6.4373321    23.558874  0.032720658   0.03988096            2 
   61000    1.1864928   -6.4285826    24.069231  0.032881463  0.039919478            1 
   62000    1.1772955   -6.4524959    24.513673  0.032948485  0.039941856            1 
   63000    1.1464855    -6.466497    24.935807  0.032983872  0.039958312            1 
   64000     1.167407   -6.5013841    25.528178  0.033239814  0.039982645            5 
   65000    1.1617358   -6.4235281    26.034377  0.033377406  0.040016905            2 
   66000    1.1494359   -6.4932958    26.371886  0.033297835  0.040020569            3 
   67000    1.1750207   -6.4704536    26.770859  0.033297088  0.040019473            5 
   68000    1.1468462   -6.4797158    27.252583  0.033397773  0.040015548            2 
   69000    1.1421792   -6.4732383    27.579618  0.033308717  0.039990708            3 
   70000    1.1784577    -6.474075    27.883219  0.033194308  0.039944994            2 
   71000    1.1653339   -6.4828256    28.223676   0.03312638  0.039887903            2 
   72000    1.1477457   -6.4326698    28.625185  0.033131001  0.039820869            3 
   73000    1.1456498   -6.4438099    29.092503  0.033210619  0.039746996            2 
   74000    1.1400035   -6.4693238    29.393956  0.033101302  0.039660008            8 
   75000    1.1398916   -6.5207272    29.593847  0.032882052  0.039562388            3 
   76000     1.155301    -6.512035    29.971783  0.032863797  0.039459008            2 
   77000    1.1242699   -6.5250209    30.318139  0.032811838  0.039353618            2 
   78000    1.1301201   -6.5074979     30.71643  0.032816698  0.039239068            3 
   79000    1.1712055   -6.5285792    31.071625  0.032775975  0.039130387            4 
   80000    1.1258704   -6.5222706    31.532902  0.032846773  0.039018579            3 
   81000     1.143609    -6.537215    31.687845  0.032600664  0.038897264            3 
   82000    1.1220066   -6.5054039    32.187523  0.032710897  0.038776584            2 
   83000    1.1267239   -6.5075712    32.317802  0.032447592  0.038645284            3 
   84000    1.1121626   -6.5110722    32.805238  0.032544879  0.038515468            2 
   85000    1.1345694   -6.5189502     33.22099  0.032569598  0.038390468            3 
   86000    1.1708593   -6.5312308    33.545686  0.032505509  0.038270714            8 
   87000     1.138543   -6.5076829      33.9655  0.032534004  0.038160422            2 
   88000    1.1261452   -6.5101243      34.3321  0.032511458  0.038045819            2 
   89000    1.1462992   -6.5444793    34.679185  0.032471147  0.037927774            2 
   90000     1.133646   -6.5550266    35.004947  0.032411987  0.037811223            3 
   91000     1.129088   -6.5148983    35.526847  0.032533742  0.037700275            2 
   92000    1.1051486   -6.5412136    35.840293  0.032464033  0.037593279            6 
   93000    1.1103484   -6.5066498    36.432334   0.03264546  0.037489001            3 
   94000     1.106747   -6.5444674    36.723468  0.032556266  0.037393406            9 
   95000    1.1060725    -6.557254    36.900195  0.032368592  0.037295414            4 
   96000    1.1311361   -6.5782301    37.313706   0.03239037  0.037200936            4 
   97000    1.1276188   -6.5461109     37.79028  0.032465876  0.037104612            2 
   98000    1.0866813   -6.5908416    38.113839  0.032409727  0.037008055            3 
   99000     1.124889   -6.5442057    38.293188  0.032233323  0.036915054            4 
  100000    1.1116116   -6.5719225    38.681236  0.032234364  0.036818514            2 
  101000    1.1170321   -6.5716843    39.230711  0.032368573  0.036721046            2 
  102000    1.1085967   -6.5828563     39.46084  0.032239248   0.03662675            2 
  103000    1.1362057   -6.5424452    39.900884  0.032282269  0.036536354            3 
  104000     1.096851   -6.6066872      40.0898  0.032123237  0.036444059            4 
  105000    1.0899835    -6.580503    40.486445  0.032132099  0.036350276            2 
  106000    1.1174289   -6.5359643    40.936061  0.032182438  0.036255453            2 
  107000    1.0862491   -6.5740622    41.065808  0.031982716  0.036161135            4 
  108000    1.0742847   -6.5708811    41.363133  0.031915997  0.036059069            4 
  109000     1.088639   -6.5507603    41.703173  0.031883159  0.035960824            2 
  110000    1.0910085   -6.6148694     41.79319  0.031661507   0.03585597            3 
  111000    1.0904815   -6.5974863    41.989171  0.031523402  0.035746458            3 
  112000    1.0784279   -6.5973119    42.432729  0.031571971  0.035639684            2 
  113000    1.0920288   -6.6248701    42.740841  0.031519794  0.035533899            1 
  114000    1.0873442   -6.5978379    43.014369  0.031443252  0.035429997            6 
  115000    1.0713355   -6.6145683    43.554917  0.031561534  0.035325941            3 
  116000    1.1080808    -6.614885    43.823296  0.031482253  0.035224574            3 
  117000    1.0743518   -6.6527879    44.033731  0.031363056  0.035122743            3 
  118000     1.077798   -6.5898012    44.142933  0.031174387   0.03501792            4 
  119000    1.0686459    -6.657069    44.501516  0.031163526  0.034915515           10 
  120000    1.0806155   -6.6335656    45.051187  0.031285546  0.034815684            3 
  121000    1.0764798   -6.6249526    45.352195  0.031234294  0.034720555           10 
  122000    1.0859454   -6.6221262    45.593991  0.031143436  0.034625474            5 
  123000    1.0838819   -6.5983234    46.151329  0.031267838  0.034536099            1 
  124000    1.0651257   -6.6569401    46.295477  0.031112551  0.034446111            6 
  125000    1.0561735   -6.6505383     46.72804  0.031152026  0.034358283            1 
  126000    1.0919267   -6.6433849    47.199971  0.031216912  0.034274391            1 
  127000    1.0868569   -6.6613958    47.446561  0.031132914  0.034193249            2 
  128000    1.0593744   -6.6650148     47.68563  0.031045332  0.034110606            4 
  129000    1.0468806   -6.6724682    48.071167  0.031053726   0.03402802            3 
  130000    1.0570463   -6.6897897    48.403631  0.031027968  0.033945803            3 
  131000    1.0974687   -6.6691129    48.692546  0.030974902  0.033869397            3 
  132000    1.0591797   -6.6532336    49.173435  0.031043835  0.033793058            6 
  133000    1.0527988   -6.6463426    49.349526  0.030920756  0.033717819            3 
  134000    1.0483866   -6.6522381    49.850952  0.031001836  0.033643911            5 
  135000    1.0674122   -6.6898803    50.174802    0.0309721  0.033573427            3 
  136000    1.0591309   -6.6486101    50.489758  0.030937352  0.033502112            3 
  137000    1.0523267   -6.6737719    50.881853  0.030950032  0.033432343            7 
  138000    1.0671833   -6.6731801     50.93799  0.030759656  0.033359911            4 
  139000    1.0287591   -6.6737662    51.137376  0.030657899  0.033285786            3 
  140000    1.0467199   -6.7074455     51.46084  0.030631452  0.033212532            4 
  141000    1.0514785   -6.7259997    51.925638  0.030688911  0.033139954            3 
  142000     1.043539   -6.6911472    52.348927  0.030721201  0.033070974            4 
  143000    1.0523191   -6.6845441    52.656989  0.030685891  0.033004863            4 
  144000    1.0465989   -6.6519474    52.884704  0.030604574  0.032936973            3 
  145000    1.0239297   -6.6957521     53.13581  0.030537822  0.032869252            2 
  146000    1.0424261   -6.7276308    53.464343  0.030516177  0.032802074            3 
  147000    1.0299886   -6.7012388    53.878819  0.030543548  0.032738382            5 
  148000    1.0246723   -6.7087012     54.45517  0.030661695  0.032676514            2 
  149000    1.0275699   -6.6840005    54.855629  0.030679882  0.032619941            3 
  150000    1.0380833   -6.7411659    55.140264   0.03063348  0.032564552            6 
  151000    1.0125026   -6.7264671    55.454266    0.0306039  0.032512339            2 
  152000    1.0002922   -6.7463379    55.792905  0.030588215  0.032457691            3 
  153000     1.018177   -6.7449675     56.21854   0.03062012  0.032402923            2 
  154000    1.0353713   -6.7490683    56.106752  0.030360796  0.032348613            4 
  155000    1.0368916   -6.7409308     56.35724  0.030299592  0.032289383            4 
  156000   0.98657786   -6.6758703    56.530981  0.030198174  0.032227182            3 
  157000     1.012379   -6.7343753    56.901309  0.030202393  0.032167262            4 
  158000    1.0162424   -6.7578091     56.97115  0.030048075  0.032104171            5 
  159000    1.0462726   -6.7343623    57.416847  0.030092687  0.032041135            3 
  160000    1.0290873   -6.7576459    57.667858  0.030035343  0.031980472            4 
  161000    1.0106543   -6.7698305    57.769837  0.029901572  0.031918362            3 
  162000     1.006621   -6.7524646    58.189597   0.02993292  0.031854589            3 
  163000   0.99775958   -6.7702923    58.467076  0.029891143  0.031792373            3 
  164000    1.0093498   -6.7621267    58.698138  0.029826289  0.031731484            5 
  165000   0.99832837   -6.7911501     58.88647  0.029740641   0.03166765            3 
  166000   0.99020365    -6.815783    59.103714  0.029670539   0.03160256            6 
  167000    1.0021374   -6.7763784    59.391511  0.029636483  0.031539452            3 
  168000   0.98558901   -6.7716235    59.871444  0.029698137  0.031477893            1 
  169000    1.0014798   -6.7888797    59.924338   0.02954849  0.031414785            5 
  170000    1.0109644   -6.7866926    60.204107  0.029511817  0.031350213            4 
  171000    1.0165206   -6.7876582    60.355249  0.029412889  0.031284839            3 
  172000   0.99252113   -6.7768373    60.351618  0.029240125  0.031217718            3 
  173000    1.0047576   -6.8045629    60.586529  0.029184262  0.031147469            4 
  174000    1.0241007   -6.8020024    60.681405  0.029061976  0.031075779            3 
  175000    1.0077686   -6.7698979     60.95142  0.029024486  0.031002636            3 
  176000   0.98669204   -6.7993545    61.056206  0.028909188  0.030929999            9 
  177000     0.995355   -6.8129312    61.388295   0.02890221  0.030856413            4 
  178000   0.98212026   -6.7602505    61.563071  0.028821663  0.030783024            2 
  179000   0.96721219   -6.8007394    61.921531  0.028827528  0.030710677            1 
  180000   0.95338428   -6.8217056     61.94745  0.028679375  0.030636609            6 
  181000   0.97966442   -6.8278767    62.154436  0.028616223  0.030562601            3 
  182000   0.97178666   -6.7834276    62.432046  0.028586101  0.030488535            4 
  183000   0.97500953    -6.822242    62.721537   0.02856172  0.030416138            4 
  184000   0.98147554   -6.8251028    63.189215  0.028618304  0.030344441            5 
  185000   0.97157092   -6.8340722    63.336101  0.028529775  0.030275237            5 
  186000   0.96894411   -6.8280267    63.688297  0.028534183  0.030205832            3 
  187000   0.95039013   -6.8589325     63.71877  0.028395174  0.030136262            3 
  188000   0.96589367   -6.8361527    63.812515  0.028285689  0.030064077            4 
  189000   0.97706412   -6.8303233    64.176486  0.028296511  0.029993331            5 
  190000   0.95922429   -6.8299374    64.220522  0.028166895   0.02992173            8 
  191000   0.96637466   -6.8491258    64.488492   0.02813634  0.029851341            9 
  192000   0.96693353   -6.8792657    64.627014  0.028049919  0.029779338            3 
  193000   0.95615731    -6.862131    64.887746  0.028017161  0.029706704            6 
  194000   0.96218142   -6.8185141    65.037343  0.027937003  0.029633992            6 
  195000   0.93143455   -6.8719794    64.938335  0.027751425  0.029559589            3 
  196000   0.96893374   -6.8403934    65.414778  0.027812405  0.029485808            7 
  197000    0.9429245   -6.8635965    65.616046  0.027756365  0.029411844            5 
  198000   0.95093605   -6.8616081    65.789519  0.027689191  0.029337955            3 
  199000   0.95394246   -6.8803971     65.91159  0.027601168  0.029265421            5 
  200000   0.93747925   -6.8537338    66.121848   0.02755077  0.029193673            4 
  201000    0.9418596   -6.9023878    66.141586  0.027421885  0.029120639            2 
  202000   0.92815639   -6.9058398    66.457518  0.027416468  0.029046549            2 
  203000   0.93284489   -6.8929397    66.546847  0.027318082  0.028971889            3 
  204000   0.95855316   -6.8630385     67.15509  0.027432635  0.028898206            5 
  205000   0.93797141   -6.8881448    67.165315  0.027302973  0.028827432            4 
  206000   0.94194198   -6.9011614    67.198012  0.027183662  0.028755885           10 
  207000   0.94244107   -6.9150711    67.510451  0.027178121  0.028685668            5 
  208000   0.95677323   -6.9191026    67.834456  0.027177266  0.028615955            4 
  209000   0.94145827   -6.8891747    68.181844  0.027185743  0.028546461            9 
  210000   0.91535117   -6.9315894    68.366305  0.027129486   0.02847848            4 
  211000   0.93140702   -6.9214129    68.620467   0.02710129    0.0284099            5 
  212000   0.94750116   -6.9439637    68.540038  0.026941839   0.02834015            4 
  213000   0.93266598    -6.923631     68.66557  0.026864464  0.028269803            5 
  214000   0.94007668   -6.9452648     68.83151  0.026803548  0.028200063            5 
  215000   0.94426384   -6.9022285    69.581247  0.026969475   0.02813307            5 
  216000   0.92354216   -6.9519234    69.323279  0.026745092  0.028066609            4 
  217000   0.92432752   -6.9499972    69.512252  0.026694413  0.027998458            3 
  218000   0.92187763   -6.9141042    69.695079   0.02664185  0.027931159            4 
  219000   0.92470248   -6.9540369    69.846344  0.026577757  0.027862948            4 
  220000   0.92481876   -6.9379467    69.642061  0.026379569  0.027793419            3 
  221000   0.90902341   -6.9863964    69.654921  0.026265053   0.02772161            6 
  222000   0.92647571   -6.9649827    69.722268  0.026172022  0.027647392            6 
  223000   0.91009814   -6.9403251    70.073659  0.026185971  0.027574204            5 
  224000   0.92385685   -6.9529548    69.946388  0.026021722  0.027499231            5 
  225000   0.90256452   -6.9817559    70.252498  0.026019444  0.027425514            7 
  226000   0.92271612   -6.9550528    70.575354  0.026023361  0.027352928            4 
  227000   0.90895873   -6.9999882    71.025274  0.026073889  0.027282288            5 
  228000   0.90152873   -6.9677626       71.171  0.026012792  0.027212108            4 
  229000   0.90384702   -6.9848889    71.176103  0.025901056  0.027141918            6 
  230000    0.9090709   -7.0108106     71.18629  0.025792134  0.027070807            2 
  231000   0.89400211    -6.987423    71.478803  0.025786004  0.026999044            3 
  232000   0.90210922   -6.9676112     71.46871  0.025671232  0.026927654            5 
  233000   0.90121537   -6.9521007    71.826125  0.025688886  0.026855982            3 
  234000   0.89969408   -7.0011523     71.68906  0.025530292  0.026784633            3 
  235000   0.88202847   -7.0125496    71.812707  0.025465499  0.026712397           10 
  236000   0.89728716   -6.9891472    71.937978  0.025401828  0.026639817            4 
  237000   0.87112133   -7.0024609    72.128586  0.025361669   0.02656704            7 
  238000   0.89765843   -7.0187845    72.221482  0.025287634  0.026495001           12 
  239000   0.89220192   -6.9981133    72.523305  0.025287066  0.026424379            2 
  240000   0.88961939   -6.9853046    72.486179  0.025168812   0.02635471            4 
  241000   0.90968585    -7.018335     72.65854  0.025123976  0.026284662            4 
  242000   0.90794092   -7.0195355    72.774717  0.025060164  0.026213243            5 
  243000   0.88898493   -6.9900607    73.011479   0.02503823  0.026142703            4 
  244000   0.88042933    -7.016512    73.327238  0.025043455  0.026072345            9 
  245000   0.88611831   -6.9870709    73.621814  0.025041433  0.026003033            6 
  246000   0.87454098   -7.0290608    73.491438  0.024895474  0.025933643            3 
  247000   0.88115513   -7.0182774    73.958382  0.024952221  0.025865827            6 
  248000   0.86544577   -7.0379593    73.890224  0.024828704  0.025798696            4 
  249000   0.87274592   -7.0690789    73.984508  0.024760545  0.025731613            9 
  250000   0.87861063   -7.0607832    74.157503  0.024719168  0.025665354            3 
  251000   0.85187868   -7.0304442    74.098891  0.024601225  0.025598091            7 
  252000    0.8589911   -7.0553176    74.245994  0.024552247  0.025530398           12 
  253000   0.86448006   -7.0576376    74.338884  0.024485798  0.025462882            3 
  254000    0.8761527   -7.0945702    74.581925  0.024469136  0.025395072            6 
  255000   0.85643189   -7.0738437    74.591205  0.024376211  0.025328116            5 
  256000   0.86546602   -7.0560823    75.011256  0.024417727  0.025261642            4 
  257000   0.84025811   -7.0744387     75.09863  0.024351047  0.025195679            6 
  258000   0.87331128   -7.0892852    75.050335  0.024241064  0.025130062            6 
  259000   0.84512667   -7.0594679    75.496696  0.024291086  0.025064743            8 
  260000   0.87078669    -7.070597    75.580598  0.024224551  0.024999438            4 
  261000   0.85900906   -7.0408521       75.723  0.024177203  0.024935601            4 
  262000   0.84910957   -7.0882674     75.86908  0.024131387  0.024871271            4 
  263000   0.85592608   -7.0951602    75.908578  0.024052147  0.024807792            7 
  264000   0.85901948   -7.0879525    75.792422  0.023924376  0.024743869            6 
  265000   0.84832204   -7.1088516    75.984726  0.023894568  0.024680024            7 
  266000   0.84284397   -7.0869632    76.270619  0.023894304   0.02461608            5 
  267000   0.83730062   -7.0541283    76.309759  0.023817028  0.024552387            5 
  268000    0.8486801   -7.0577582    76.525243  0.023795163  0.024488556            5 
  269000    0.8251491   -7.1009573    76.611703  0.023733489    0.0244252            6 
  270000   0.85283661   -7.1203023    76.745047  0.023686743  0.024361229            9 
  271000   0.81935813   -7.1295651    76.728034  0.023594106   0.02429696            4 
  272000    0.8058059   -7.1253547     76.82902  0.023538303  0.024232327            2 
  273000   0.82712295   -7.1359801    76.853706  0.023459617  0.024167428            3 
  274000   0.84243984   -7.1806311    76.864702  0.023377342  0.024102854            8 
  275000   0.82601997   -7.1465065    76.837576  0.023284114  0.024037963            4 
  276000   0.83399511   -7.1475487    77.129498  0.023287892  0.023971897            5 
  277000   0.82937545   -7.1300266     77.18816  0.023221468  0.023907019            5 
  278000   0.82188292   -7.1395872      77.3906  0.023198621   0.02384264            5 
  279000   0.83004509   -7.1312446    77.540955  0.023160381  0.023779027            9 
  280000   0.82440153   -7.1324134    77.605704  0.023096936  0.023715803            6 
  281000   0.82267117   -7.1479939    77.733205  0.023052552  0.023651989            5 
  282000   0.82519288   -7.1699114    78.054255  0.023065678  0.023588853            7 
  283000   0.80833915   -7.1561868    77.801313  0.022909692  0.023526303            5 
  284000     0.794523    -7.179649    77.941993  0.022870303  0.023462495           10 
  285000   0.79746643   -7.1484809    78.162212  0.022854448  0.023398964            6 
  286000   0.81500342   -7.1965137    78.069472  0.022747515  0.023336801            6 
  287000   0.81493802   -7.1502896    78.136129   0.02268761    0.0232747            6 
  288000   0.80314561   -7.1451755    78.242575  0.022639634  0.023212577            5 
  289000   0.79075932   -7.1520019    78.518921  0.022640981  0.023150451           13 
  290000   0.82304571   -7.1718756    78.620011  0.022591957  0.023088598            5 
  291000    0.8139032   -7.1624678    78.684054  0.022532661  0.023027365            6 
  292000    0.7956858   -7.1840242    78.739543  0.022471331  0.022965788            7 
  293000   0.80628795   -7.2092947    78.854251  0.022427261  0.022904692            5 
  294000   0.80937054   -7.1884922    78.788615  0.022332374  0.022843283            9 
  295000   0.80357151     -7.19234    78.717757  0.022236654   0.02278185            7 
  296000   0.79236919   -7.2070866    79.110192  0.022272013  0.022719693            8 
  297000   0.78993514   -7.1898513    79.093984  0.022192476  0.022657675            7 
  298000   0.79040179   -7.2119015    79.137488   0.02213017  0.022595789            7 
  299000   0.78879401   -7.2132705    79.241365  0.022085107   0.02253448            3 
  300000   0.80687385   -7.2145962     79.07425  0.021965069  0.022472932            6 
  301000   0.79075891   -7.2406442     79.23831  0.021937517  0.022411099           11 
  302000   0.80029258   -7.2172121     79.48302  0.021932401  0.022349324            6 
  303000   0.77555502   -7.2095069    79.558556  0.021880791  0.022288565           11 
  304000   0.80233492   -7.2278209    79.753297  0.021862197  0.022228302            5 
  305000   0.78269067   -7.2307077    79.851072  0.021817233  0.022168259            5 
  306000   0.77012167   -7.2553778    80.009163  0.021788988  0.022108631            9 
  307000   0.78770938   -7.2070155    79.927981  0.021695977  0.022049153            5 
  308000   0.78379684   -7.2271802     80.00639  0.021646751  0.021989194            7 
  309000   0.78988809   -7.2512672    79.952297  0.021562108  0.021929416           18 
  310000   0.78863247   -7.2418288    80.370597  0.021604999  0.021870368           12 
  311000   0.76009606   -7.2646465    80.303628  0.021517585  0.021811481            5 
  312000   0.76523272   -7.2254789    80.529375  0.021508914  0.021753027            7 
  313000   0.77154562    -7.265927    80.443098  0.021417225  0.021694899            6 
  314000   0.77892229   -7.2623048     80.83595  0.021453278  0.021637225            6 
  315000   0.76741855   -7.2839699    80.737228  0.021359055  0.021579796            8 
  316000   0.77989623   -7.2595684    80.759713  0.021297393  0.021522632            5 
  317000   0.75198995   -7.2647219    80.891082  0.021264743   0.02146495            7 
  318000   0.75197487   -7.2776306    80.859256  0.021189532  0.021407352            9 
  319000   0.76829671   -7.2834611    80.824144  0.021113935  0.021349441            9 
  320000   0.76067851   -7.2902451    80.655503  0.021004037  0.021291734           11 
  321000   0.75400909   -7.3035408    81.073414  0.021047096  0.021234095           13 
  322000   0.74408534   -7.2865217    81.084738  0.020984663  0.021176643           14 
  323000   0.76564952   -7.2981978    81.170451  0.020941809   0.02111911           10 
  324000   0.74629677   -7.3222634    81.134991  0.020868053   0.02106154            7 
  325000   0.77225829   -7.2816838    81.152791  0.020808408  0.021004214            7 
  326000   0.73483827   -7.3064016    81.078513  0.020725591  0.020946891            4 
  327000    0.7365939   -7.2980346    81.200198  0.020693221  0.020889161            5 
  328000   0.73888968   -7.3119863    81.251386  0.020643137   0.02083107            4 
  329000   0.74222622   -7.3119059    81.374442  0.020611561   0.02077326           10 
  330000   0.74715817   -7.3049582    81.226665  0.020511784  0.020715661            6 
  331000   0.74097392   -7.3025542    81.260033  0.020458216   0.02065806           10 
  332000   0.74825803   -7.3265361    81.272102  0.020399624  0.020600389           15 
  333000   0.72683293   -7.3143308    81.531813  0.020403356  0.020542804           18 
  334000   0.73897719    -7.301102    81.586312  0.020355866  0.020485881            6 
  335000   0.75088333   -7.3267676    81.710537  0.020326004  0.020429034           14 
  336000   0.73072338   -7.3335889    81.747578  0.020274697  0.020371719           11 
  337000   0.73541295   -7.3347883     81.54725  0.020164998  0.020314261            7 
  338000   0.72685801   -7.3345174    81.839212   0.02017732   0.02025722            6 
  339000   0.73216821   -7.3326875    81.818806  0.020112784  0.020200768            9 
  340000    0.7283445   -7.3325351    81.844624  0.020059957   0.02014436           11 
  341000   0.71785055   -7.3619434    81.805337  0.019991529  0.020087525           15 
  342000   0.71255975   -7.3451624    81.760727  0.019922204  0.020030785            8 
  343000   0.72514338    -7.350678    81.833571   0.01988182  0.019974295           13 
  344000   0.70790828   -7.3572885    81.854184  0.019829017  0.019917827            9 
  345000   0.72312614   -7.3510558    82.082527  0.019826697  0.019861245            8 
  346000   0.72578381   -7.3575707    81.828499  0.019708213  0.019804916           12 
  347000   0.71159063   -7.3880117    82.031146  0.019700083  0.019748629            8 
  348000   0.71223279    -7.369063     81.85577  0.019601477   0.01969265            8 
  349000   0.69744048   -7.3878424    82.068356  0.019596073  0.019636418           10 
  350000   0.71453502   -7.3872493    81.989691  0.019521355  0.019580344           10 
  351000   0.70498912   -7.3904784     82.09578  0.019490926  0.019524702            6 
  352000   0.68868367   -7.4169994    82.068327  0.019429055  0.019469315            9 
  353000   0.70890334   -7.4025622    82.171841  0.019398452  0.019413314            8 
  354000   0.69998105   -7.3892962    82.089385  0.019324243  0.019357554            5 
  355000   0.70382579   -7.4222217    82.239272  0.019304993  0.019301803            8 
  356000   0.68805415   -7.4015318    82.198719  0.019241273  0.019246452            9 
  357000   0.70199684   -7.4202631    82.307327  0.019212728  0.019191002           10 
  358000   0.69599051   -7.3984616    82.335699  0.019165665  0.019135689            4 
  359000   0.69775317   -7.3885075    82.408833  0.019129256  0.019080391            8 
  360000   0.69262295   -7.4150732    82.270035   0.01904399  0.019025337            9 
  361000   0.70603544   -7.4096684     82.34291  0.019008059  0.018970523           13 
  362000   0.68979591   -7.4011312      82.4791  0.018986902  0.018915764            7 
  363000   0.69236282   -7.4119553    82.369476   0.01890943  0.018861141            6 
  364000    0.6834469   -7.4115757    82.182256  0.018814619  0.018806542            6 
  365000   0.65643259   -7.4287108    82.459497  0.018826369  0.018752156           10 
  366000    0.6807061   -7.4289479    82.639744  0.018815971  0.018697969           12 
  367000   0.68290618    -7.439613    82.687964   0.01877565   0.01864416            8 
  368000   0.67603875   -7.4363469    82.530973  0.018689079  0.018590209            8 
  369000   0.69400416    -7.455192    82.502782  0.018632065  0.018536249           12 
  370000   0.68023637   -7.4897342    82.388581  0.018555987  0.018482226            5 
  371000   0.67967682   -7.4559256     82.58072  0.018549128  0.018428175           12 
  372000    0.6733226   -7.4499129    82.519076  0.018485456  0.018374587           16 
  373000   0.67061893   -7.4696655    82.401902  0.018409719  0.018321092           11 
  374000   0.65727966   -7.4723408    82.739669  0.018435755  0.018267629            7 
  375000   0.68977486   -7.4804892     82.66593  0.018370207   0.01821447            8 
  376000   0.66571665   -7.4913949    82.780804  0.018346809  0.018161511           14 
  377000   0.66104812   -7.5029957    82.685591  0.018277098  0.018108479           19 
  378000   0.65664904   -7.4954876    82.971452  0.018291766  0.018055497           13 
  379000   0.66255482   -7.5022725    82.617152  0.018165601  0.018002746           13 
  380000    0.6629489   -7.4871848    82.810872  0.018160279  0.017949868           16 
  381000   0.66422964   -7.4907251    82.849953  0.018121162  0.017897368            9 
  382000   0.64212771   -7.4956306    82.684455  0.018037621   0.01784476           17 
  383000   0.66644806   -7.5105032    82.854652  0.018027557   0.01779257           16 
  384000   0.66956358   -7.5041483    82.884778  0.017987148  0.017740677           10 
  385000   0.66219696   -7.5369287     82.72962  0.017906844  0.017688647           12 
  386000   0.65373251   -7.5204925    82.923853  0.017902386  0.017636645            8 
  387000   0.63661894   -7.5236852    82.729651  0.017814309  0.017584508           15 
  388000   0.65740657   -7.5142323    82.708946  0.017763949  0.017532654           28 
  389000   0.64063574   -7.5229654    82.864155  0.017751533  0.017480639           11 
  390000   0.64275749   -7.5248263    82.902405  0.017714189   0.01742888            8 
  391000    0.6479188   -7.5008272    82.682204  0.017621953  0.017377022           10 
  392000   0.62842922   -7.5283354    82.655599  0.017571343  0.017324934           10 
  393000   0.64097944   -7.5465337     82.67414  0.017530564  0.017272994           13 
  394000   0.65842986   -7.5503566    82.537651  0.017457202  0.017221034           12 
  395000   0.64107066   -7.5558284    82.536854  0.017412838  0.017169001           14 
  396000   0.63357909   -7.5426875    82.653199   0.01739335  0.017117286           11 
  397000   0.61862873   -7.5499743    82.537775   0.01732531  0.017065599           12 
  398000   0.63082706   -7.5525509    82.553259  0.017285021  0.017014118           12 
  399000    0.6318016   -7.5605386    82.686817  0.017269594  0.016962542           13 
  400000   0.63280707   -7.5617882    82.649054  0.017218553  0.016911207            8 
  401000   0.62754622   -7.5421841    82.551941  0.017155432  0.016860129           11 
  402000   0.62280218   -7.5678963    82.673258  0.017137906  0.016809038           11 
  403000   0.62070125   -7.5670004     82.64292  0.017089107  0.016758082            7 
  404000   0.61571317   -7.5702593    82.738515  0.017066525    0.0167073           11 
  405000   0.62352533    -7.565166    82.681303  0.017012614  0.016656644           17 
  406000   0.61522033    -7.588263    82.671421  0.016968683  0.016606088           19 
  407000   0.61240025    -7.569333    82.558576  0.016903885  0.016555829           17 
  408000   0.63056729   -7.5906637    82.543368  0.016859348  0.016505573           14 
  409000   0.60733627   -7.5883741    82.737702  0.016857723  0.016455678           11 
  410000   0.61463741   -7.5901362    82.747139  0.016818524  0.016405755            9 
  411000   0.62578694   -7.5856109    82.621238  0.016752076  0.016355933           18 
  412000   0.59998922   -7.6074742     82.59797  0.016706709  0.016306165           14 
  413000   0.61232076   -7.5774274    82.519935  0.016650512  0.016256359           20 
  414000   0.59309947   -7.6078912    82.654959  0.016637472  0.016206676           11 
  415000   0.59450796   -7.5956718    82.446057  0.016555433  0.016157135           18 
  416000     0.602743   -7.6096423    82.594204  0.016545313  0.016107454           18 
  417000   0.60613123     -7.63042    82.347149  0.016456265  0.016057984           28 
  418000    0.5804268   -7.6005485    82.552752  0.016457885  0.016008638           16 
  419000   0.60400785   -7.6267718     82.63215  0.016434397  0.015959595           24 
  420000   0.61208975    -7.633539    82.372567  0.016343763  0.015910717           15 
  421000   0.58795928    -7.634972    82.684737  0.016366733  0.015861911           10 
  422000   0.57873936   -7.6555556    82.609148  0.016313023  0.015813231           18 
  423000   0.59739253   -7.6210925    82.562302  0.016265229  0.015764621           17 
  424000   0.59099594   -7.6270943    82.503006  0.016215213  0.015716111           26 
  425000   0.59036593   -7.6368258     82.47612  0.016171788  0.015667799           17 
  426000   0.58757907   -7.6368962    82.417478  0.016122355  0.015619708           16 
  427000   0.58021252   -7.6350851    82.459834  0.016092864  0.015571598           17 
  428000   0.58874082   -7.6487213    82.513578  0.016065728  0.015523665           24 
  429000   0.57884633   -7.6518338    82.538879  0.016033193  0.015475887           14 
  430000   0.58759029    -7.665674    82.385525  0.015966187  0.015428104           16 
  431000   0.58191953   -7.6578388    82.439882  0.015939652  0.015380418           20 
  432000   0.59220462    -7.659852    82.439446  0.015902671   0.01533285           21 
  433000   0.57343024   -7.6581345    82.292786  0.015837719  0.015285491           10 
  434000    0.5608818   -7.6635003    82.295668   0.01580178  0.015238298           11 
  435000   0.57617641   -7.6628689    82.339893  0.015773926  0.015191149           14 
  436000   0.57079657   -7.6762787    82.311771  0.015732372  0.015144264           19 
  437000    0.5686871   -7.6806626    82.454832  0.015723652  0.015097423           26 
  438000   0.56176018   -7.6853282    82.389572  0.015675337  0.015050737           24 
  439000   0.56735585   -7.6973276     82.27767  0.015618388  0.015004186           18 
  440000   0.56571922   -7.6691868    82.256256  0.015578836  0.014957771           16 
  441000   0.55457014   -7.6832479    82.206562   0.01553412  0.014911464           17 
  442000   0.55775544   -7.6960578    82.203269  0.015498354  0.014865236           17 
  443000   0.56198852   -7.6913109    82.186318   0.01546018  0.014819145           18 
  444000   0.56617046   -7.7033651    82.125231  0.015413895  0.014773218           15 
  445000   0.56574114   -7.6794182    82.255809   0.01540371  0.014727455            9 
  446000   0.54631027   -7.7022402    82.287824  0.015375154  0.014681966           11 
  447000   0.55217841   -7.6972911    82.107465  0.015307134  0.014636548           16 
  448000    0.5474487    -7.701058    82.206328  0.015291356  0.014591272           23 
  449000    0.5390359   -7.7130013    82.355907  0.015285061  0.014546151           11 
  450000   0.55129297   -7.6964158    82.273652  0.015235862  0.014501201           14 
  451000   0.56393517   -7.7214807    82.400651  0.015225545  0.014456499            9 
  452000   0.53897088   -7.7213336    82.270575  0.015167879  0.014411891           12 
  453000   0.56123996   -7.6982635    82.365261  0.015151814  0.014367531           18 
  454000   0.55455602   -7.7306587    82.171882  0.015082944  0.014323279           11 
  455000   0.55346615   -7.7384011    82.278815   0.01506938  0.014279167           15 
  456000   0.54309261   -7.7209911    82.198304   0.01502162  0.014235067           16 
  457000   0.54620276   -7.7263134    82.286487   0.01500483  0.014191313           13 
  458000   0.52899564   -7.7252592    82.169663  0.014950812  0.014147622           22 
  459000   0.53903155    -7.738454     82.24859  0.014932569  0.014104202           14 
  460000   0.53762084   -7.7437354    82.152761  0.014882747  0.014060938           20 
  461000   0.54155509   -7.7428276    82.421929  0.014899119  0.014017776           10 
  462000   0.53777144   -7.7406407    82.362448  0.014856141  0.013974833           10 
  463000   0.53526391   -7.7514266    82.350649  0.014821931  0.013931973           12 
  464000   0.52710455   -7.7544622    82.464571  0.014810447  0.013889314           16 
  465000    0.5306877   -7.7600919    82.184188  0.014728349  0.013846781           22 
  466000   0.52219135   -7.7699557    82.238204  0.014706403   0.01380431           18 
  467000   0.51692681   -7.7693787    82.203226   0.01466867  0.013761934           15 
  468000   0.52342078   -7.7644001    82.268419  0.014648935  0.013719679           13 
  469000   0.51910073   -7.7495001    82.037378  0.014576649  0.013677499           14 
  470000    0.5219933   -7.7679851    82.139183  0.014563685  0.013635477           28 
  471000    0.5241447    -7.770088    82.228708  0.014548604  0.013593521           21 
  472000   0.51841163   -7.7761782     82.22906  0.014517843  0.013551744           19 
  473000   0.51019342   -7.7732277     82.22724  0.014486829  0.013510074           15 
  474000   0.49106461   -7.7916033    82.083268  0.014430954  0.013468525           15 
  475000   0.51783968   -7.7718886    82.154352  0.014413044  0.013427155           20 
  476000   0.50784826   -7.7967128    82.073193  0.014368556  0.013385868           19 
  477000   0.50758725   -7.7981801    82.047252  0.014333901  0.013344644           22 
  478000   0.49803856   -7.7842049    82.018556  0.014298911   0.01330361           29 
  479000   0.49914703   -7.7700023    81.994211  0.014264825  0.013262707           21 
  480000   0.50745559   -7.7876196     81.97797  0.014232286  0.013221956           19 
  481000   0.51127996   -7.7969569    82.120402  0.014227374  0.013181329           15 
  482000   0.49769548   -7.8066709    81.908939  0.014161296  0.013140845            9 
  483000   0.50422128   -7.7974485    81.828316  0.014118067  0.013100437           16 
  484000   0.49887921   -7.8100927    81.963652  0.014112199  0.013060265           22 
  485000   0.48932497   -7.8029339    81.904688   0.01407297  0.013020284           25 
  486000   0.49720603   -7.8050033    81.978211   0.01405662  0.012980344           17 
  487000   0.49930017   -7.8033027    81.890906  0.014012818  0.012940621           23 
  488000    0.4823488   -7.8129856    81.946564  0.013993607  0.012901037           21 
  489000   0.49545865   -7.8289273    81.997597  0.013973687  0.012861539           14 
  490000    0.4956503   -7.8159183    81.955889  0.013938076  0.012822204           48 
  491000    0.4757079   -7.8156084    82.039705  0.013923915  0.012783149           31 
  492000   0.48603875   -7.8139836    82.013177  0.013891121  0.012744203           17 
  493000    0.4755749   -7.8251576     81.98107  0.013857517  0.012705327           24 
  494000   0.48061465    -7.832097    81.989403  0.013830871  0.012666625           22 
  495000   0.48189314   -7.8344448    81.948729  0.013796082  0.012628059           30 
  496000   0.48293061   -7.8258529    81.906967  0.013761251  0.012589533           17 
  497000   0.47676954   -7.8362269    81.823953  0.013719643  0.012551098           13 
  498000   0.46425759   -7.8357617     81.76822  0.013682768  0.012512828           15 
  499000   0.46454127    -7.847284    81.890941  0.013675842  0.012474671           24 
  500000   0.47694478   -7.8464718    81.886767  0.013647795  0.012436744           13 
  501000    0.4617003   -7.8403814    81.873176  0.013618293  0.012398907           15 
  502000   0.46499412    -7.841455     81.85709  0.013588494  0.012361241           17 
  503000   0.46622029   -7.8457069    81.951551  0.013577129  0.012323688           31 
  504000    0.4617885   -7.8581437    81.832419  0.013530493  0.012286246           18 
  505000   0.46092074   -7.8644499    81.837768  0.013504582  0.012249032           23 
  506000   0.45512439   -7.8384579    81.816673  0.013474419  0.012211868           11 
  507000   0.45555729   -7.8684023    81.863422  0.013455526  0.012174822           20 
  508000   0.45437525    -7.848601    81.711643  0.013404141  0.012137899           29 
  509000   0.45165922   -7.8613198    81.812839  0.013394374  0.012101122           18 
  510000   0.45628119   -7.8638069    81.753817  0.013358467  0.012064492           17 
  511000   0.44816751   -7.8693391    81.880894  0.013353049  0.012027942           13 
  512000   0.45389741   -7.8732851    81.757022  0.013306807    0.0119915           21 
Loop time of 1101.06 on 48 procs for 500000 steps with 4000 atoms

Performance: 78470.151 tau/day, 454.110 timesteps/s
99.4% CPU use with 48 MPI tasks x no OpenMP threads

MPI task timing breakdown:
Section |  min time  |  avg time  |  max time  |%varavg| %total
---------------------------------------------------------------
Pair    | 69.41      | 73.356     | 79.168     |  29.0 |  6.66
Neigh   | 6.8714     | 7.1476     | 7.7194     |   5.3 |  0.65
Comm    | 61.831     | 67.447     | 73.213     |  28.9 |  6.13
Output  | 0.80666    | 0.80713    | 0.81622    |   0.1 |  0.07
Modify  | 932.42     | 940.68     | 946.02     |   7.9 | 85.43
Other   |            | 11.62      |            |       |  1.06

Nlocal:        83.3333 ave          91 max          76 min
Histogram: 3 0 9 6 8 2 10 4 2 4
Nghost:        1837.83 ave        1867 max        1814 min
Histogram: 3 2 8 7 7 8 8 4 0 1
Neighs:        11412.9 ave       12876 max        9895 min
Histogram: 2 1 7 6 7 6 8 6 2 3
FullNghs:      22825.7 ave       25311 max       20351 min
Histogram: 2 2 6 7 7 7 8 4 2 3

Total # of neighbors = 1095634
Ave neighs/atom = 273.90850
Neighbor list builds = 26929
Dangerous builds = 0

#clear
#
#next RN
#
#jump SELF
Total wall time: 0:18:24
