
units lj                  # Use reduced LJ style units
atom_style atomic         # Uncharged point particles
atom_modify map hash      # Needed for indexing of clusters etc
                          # Used to be able to find where atoms are in relation to each other.

lattice fcc 1.0 spacing 1 1 1
Lattice spacing in x,y,z = 1.5874011 1.5874011 1.5874011
region box block 0 10 0 10 0 10 units lattice
create_box 2 box
Created orthogonal box = (0.0000000 0.0000000 0.0000000) to (15.874011 15.874011 15.874011)
  3 by 4 by 4 MPI processor grid
create_atoms 1 box
Created 4000 atoms
  using lattice units in orthogonal box = (0.0000000 0.0000000 0.0000000) to (15.874011 15.874011 15.874011)
  create_atoms CPU = 0.003 seconds
set type 1 type/fraction 2 0.25 78393
Setting atom values ...
  1031 settings made for type/fraction
mass 1 1.0
mass 2 1.0
pair_style lj/cut  3.5
pair_modify tail  yes
pair_coeff 1  1  1.0  1.0   # Intearaction between 1 and 1 set with epsilon = 1 and sigma = 1
pair_coeff 1  2  1.5  0.8
pair_coeff 2  2  0.5  0.88

write_data data.0
System init for write_data ...
Neighbor list info ...
  update every 1 steps, delay 10 steps, check yes
  max neighbors/atom: 2000, page size: 100000
  master list distance cutoff = 3.8
  ghost atom cutoff = 3.8
  binsize = 1.9, bins = 9 9 9
  1 neighbor lists, perpetual/occasional/extra = 1 0 0
  (1) pair lj/cut, perpetual
      attributes: half, newton on
      pair build: half/bin/atomonly/newton
      stencil: half/bin/3d
      bin: standard
WARNING: Not all mixed pair coeffs generated from mixing. Use write_data with 'pair ij' option to store all pair coeffs. (../write_data.cpp:312)


#############################
#   M E L T   S Y S T E M   #
#############################

velocity all create 2.4 5833274 mom yes dist gaussian # Assign velocities
                                                    # Temperature 2.4, random number seed, zero linear momentum
                                                                                # Gaussian distribution

timestep 0.002   # simulation timestep
thermo 1000       # output thermodynamic data every 1000 steps bf 100

# Define a fix  in this case with index 1 applied to all
# particles in the simulation. This fix is for simulations
# in the anisotropic NPT ensemble. Note that we use the MTK
# correction.
fix 1 all npt temp 2.4 2.4 0.1 iso 5.68 5.68 0.5 mtk yes tchain 5 pchain 5 # Use NPT ensemble
                                                                         # Set temperature and pressure and damping
                                                                         # Numbers of thermostats in chain and in barostat
run 10000          # run for 10000 steps
Per MPI rank memory allocation (min/avg/max) = 3.642 | 3.644 | 3.648 Mbytes
Step Temp E_pair E_mol TotEng Press Volume 
       0          2.4   -6.7340002            0   -3.1349002   -3.8290783         4000 
    1000    2.4002248   -4.9127591            0    -1.313322    5.7708479    4299.3539 
    2000    2.4321982     -4.93851            0   -1.2911247    5.9456805    4272.2505 
    3000    2.3850828   -4.9447579            0   -1.3680281    5.7144782    4289.3743 
    4000    2.3859908    -4.949343            0   -1.3712515    5.5592592    4303.0105 
    5000    2.4028362   -4.9534663            0   -1.3501131    5.6362004    4293.8179 
    6000     2.383372   -4.9593808            0   -1.3852166    5.4797761    4303.2986 
    7000    2.4062253   -4.8904257            0   -1.2819901    5.6783837    4319.9347 
    8000    2.4339994   -4.9088693            0   -1.2587829    5.6720863    4327.2421 
    9000    2.4225778   -4.9061362            0    -1.273178    5.8582909      4299.99 
   10000    2.4689617    -4.977762            0   -1.2752453     5.625476    4296.9295 
Loop time of 2.38822 on 48 procs for 10000 steps with 4000 atoms

Performance: 723550.062 tau/day, 4187.211 timesteps/s
99.6% CPU use with 48 MPI tasks x no OpenMP threads

MPI task timing breakdown:
Section |  min time  |  avg time  |  max time  |%varavg| %total
---------------------------------------------------------------
Pair    | 1.0096     | 1.0742     | 1.2156     |   3.8 | 44.98
Neigh   | 0.20076    | 0.20906    | 0.22929    |   1.3 |  8.75
Comm    | 0.69544    | 0.84099    | 0.93749    |   5.4 | 35.21
Output  | 0.00024118 | 0.00024442 | 0.00030872 |   0.0 |  0.01
Modify  | 0.21534    | 0.24854    | 0.29709    |   4.1 | 10.41
Other   |            | 0.01519    |            |       |  0.64

Nlocal:        83.3333 ave          92 max          75 min
Histogram: 3 2 11 1 7 8 5 5 2 4
Nghost:        1561.60 ave        1592 max        1530 min
Histogram: 2 2 5 8 5 10 6 3 3 4
Neighs:        8873.60 ave       10003 max        7865 min
Histogram: 4 2 6 12 4 4 7 2 3 4

Total # of neighbors = 425933
Ave neighs/atom = 106.48325
Neighbor list builds = 908
Dangerous builds = 228

# Equilibrate just above the melting temperature to avoid step fn in T

fix 1 all npt temp 1.25 1.25 0.1 iso 5.68 5.68 0.5 mtk yes tchain 5 pchain 5
run 2000
Per MPI rank memory allocation (min/avg/max) = 3.643 | 3.645 | 3.649 Mbytes
Step Temp E_pair E_mol TotEng Press Volume 
   10000    2.4689617    -4.977762            0   -1.2752453     5.625476    4296.9295 
   11000    1.2489741   -6.6860255            0   -4.8130326    5.7090514    3498.5927 
   12000    1.2566631   -6.7116644            0   -4.8271409    5.5364064    3499.2468 
Loop time of 0.545193 on 48 procs for 2000 steps with 4000 atoms

Performance: 633904.335 tau/day, 3668.428 timesteps/s
99.6% CPU use with 48 MPI tasks x no OpenMP threads

MPI task timing breakdown:
Section |  min time  |  avg time  |  max time  |%varavg| %total
---------------------------------------------------------------
Pair    | 0.23102    | 0.26137    | 0.29208    |   2.4 | 47.94
Neigh   | 0.035026   | 0.038275   | 0.042863   |   0.7 |  7.02
Comm    | 0.16506    | 0.19335    | 0.23226    |   3.1 | 35.46
Output  | 5.4509e-05 | 5.6169e-05 | 7.0619e-05 |   0.0 |  0.01
Modify  | 0.040524   | 0.047495   | 0.052718   |   1.5 |  8.71
Other   |            | 0.004652   |            |       |  0.85

Nlocal:        83.3333 ave          95 max          76 min
Histogram: 4 4 9 11 8 3 5 2 1 1
Nghost:        1799.67 ave        1827 max        1778 min
Histogram: 1 6 6 8 13 3 5 2 2 2
Neighs:        10929.5 ave       13013 max        8900 min
Histogram: 1 2 5 10 7 9 5 6 2 1

Total # of neighbors = 524615
Ave neighs/atom = 131.15375
Neighbor list builds = 143
Dangerous builds = 10

#############################
# L I N E A R  Q U E N C H  #
#############################

# Define solid atoms. This closely follows ten Wolde  Ruiz-Montero and Frenkel  Faraday Discuss  1996  104  93-110
# Compute components of the per-atom q6 vector
compute q6 all orientorder/atom degrees 1 6 components 6 nnn NULL cutoff 1.3 # compute the Q6 parameter.
                                                                             # Use all neighbours within 1.3 unit cell.

# get number of connections
compute coord_number all coord/atom orientorder q6 0.5

# An atom is solid if it has 8 or more connections (of a possible 14)
variable is_solid atom c_coord_number>=8
group solid dynamic all var is_solid    # Must be dynamic to update
dynamic group solid defined

# do clustering
compute cluster solid cluster/atom 1.3 # Create a cluster where all atoms within are solid and max 1.3 units from another member

# define chunks one chunk per cluster
compute clus_chunks solid chunk/atom c_cluster nchunk every compress yes  # Says which atoms are in which chunk

# count the size of each chunk
compute size_chunks solid property/chunk clus_chunks count


# Find the maximum entry in the vector of chunk sizes
variable max_n equal max(c_size_chunks)


# Thermo style which includes this variable
# thermo_style custom step temp pe vol v_max_n

thermo ${N}  # Print the thermo information every 100 steps
thermo 1000  

# Reset the npt fix at a lower temperature (below freezing)
fix 1  all npt temp  ${temp} ${temp}  0.1  iso  5.68  5.68  0.5  mtk yes tchain  5  pchain  5
fix 1  all npt temp  0.45 ${temp}  0.1  iso  5.68  5.68  0.5  mtk yes tchain  5  pchain  5
fix 1  all npt temp  0.45 0.45  0.1  iso  5.68  5.68  0.5  mtk yes tchain  5  pchain  5

dump dmp2 all dcd ${N} traj.dcd
dump dmp2 all dcd 1000 traj.dcd


compute msd all msd com yes
variable twopoint equal c_msd[4]/6/(step*dt+1.0e-6)
fix 9 all vector 10 c_msd[4]
variable fit equal slope(f_9)/6/(10*dt)
thermo_style custom step temp pe c_msd[4] v_twopoint v_fit v_max_n

fix 1 all npt temp 1.25 ${temp} 0.1 iso 5.68 5.68 0.5 mtk yes tchain 5 pchain 5
fix 1 all npt temp 1.25 0.45 0.1 iso 5.68 5.68 0.5 mtk yes tchain 5 pchain 5
run 500000 # 5000000  # Run for this many steps
Neighbor list info ...
  update every 1 steps, delay 10 steps, check yes
  max neighbors/atom: 2000, page size: 100000
  master list distance cutoff = 3.8
  ghost atom cutoff = 3.8
  binsize = 1.9, bins = 8 8 8
  4 neighbor lists, perpetual/occasional/extra = 1 3 0
  (1) pair lj/cut, perpetual
      attributes: half, newton on
      pair build: half/bin/atomonly/newton
      stencil: half/bin/3d
      bin: standard
  (2) compute orientorder/atom, occasional
      attributes: full, newton on
      pair build: full/bin/atomonly
      stencil: full/bin/3d
      bin: standard
  (3) compute coord/atom, occasional
      attributes: full, newton on
      pair build: full/bin/atomonly
      stencil: full/bin/3d
      bin: standard
  (4) compute cluster/atom, occasional
      attributes: full, newton on
      pair build: full/bin/atomonly
      stencil: full/bin/3d
      bin: standard
Per MPI rank memory allocation (min/avg/max) = 9.801 | 9.808 | 9.815 Mbytes
Step Temp PotEng c_msd[4] v_twopoint v_fit v_max_n 
   12000    1.2566631   -6.7116644 7.6263128e-31 5.2960503e-33 8.3333333e+20            1 
   13000    1.2494285   -6.6953235   0.55296807  0.003544667  0.046123276            1 
   14000    1.2521803    -6.716704    1.0366365 0.0061704554  0.042934507            1 
   15000    1.2726763    -6.733273    1.6219067 0.0090105926   0.04351512            4 
   16000     1.268355   -6.7747818    2.1002708   0.01093891  0.044145569            1 
   17000    1.2266662   -6.7332462    2.5523827  0.012511679  0.043016681            1 
   18000    1.2305509   -6.7781944    2.9864141  0.013825991   0.04187315            4 
   19000    1.2251405   -6.7717573    3.4698197  0.015218507  0.040950862            2 
   20000    1.2335702   -6.7945765    3.8936505  0.016223543  0.040344806            1 
   21000    1.2581354   -6.7198263     4.392949  0.017432337  0.040037832            2 
   22000    1.2358718   -6.7744423    4.8669671  0.018435481  0.039827043            2 
   23000    1.2358571    -6.770233    5.3536868  0.019397415  0.039760256            3 
   24000    1.2177082   -6.7787369    5.9176026  0.020547231  0.039863476            2 
   25000    1.2250996   -6.7660984    6.3111525  0.021037174  0.039943202            1 
   26000    1.2177667   -6.7330839     6.697285  0.021465657  0.039768946            2 
   27000    1.2241536   -6.7937259    7.1977785  0.022215365  0.039606769            2 
   28000    1.2086064   -6.7337583    7.7180647   0.02297043  0.039542839            1 
   29000    1.2255191   -6.7665051    8.2164319  0.023610436  0.039586316            2 
   30000    1.2290131   -6.7537572    8.6881303  0.024133695  0.039582854            2 
   31000    1.2205025   -6.7620027    9.1301229  0.024543341  0.039568667            2 
   32000    1.1880504   -6.7723068    9.6235311  0.025061278  0.039529909            2 
   33000    1.2389689   -6.7935413    10.028447  0.025324361  0.039466869            3 
   34000    1.2096734    -6.793309    10.562664  0.025888881  0.039457086            1 
   35000    1.1783922   -6.8507006    11.018547  0.026234635  0.039473593            2 
   36000     1.224649   -6.7862492    11.522836  0.026673231  0.039464075            1 
   37000    1.2266011   -6.7949887     11.89893  0.026799391  0.039427854            2 
   38000    1.2213566   -6.8493743    12.374184  0.027136367  0.039365001            1 
   39000    1.1995422   -6.8406394    12.849809  0.027456857  0.039326273            1 
   40000    1.2059311   -6.8623739    13.366729  0.027847352    0.0393213            7 
   41000     1.210208   -6.8099598    13.938701  0.028330693  0.039345798            1 
   42000     1.214505   -6.8226259    14.315376  0.028403524  0.039366689            2 
   43000    1.2042503   -6.8279809    14.614322   0.02832233  0.039317681            1 
   44000    1.2252487   -6.8124182    15.147579  0.028688597  0.039220631            2 
   45000     1.167555   -6.8702522     15.64387  0.028970129  0.039202439            2 
   46000    1.1780078   -6.8182159    16.125312  0.029212521  0.039208573            1 
   47000    1.2164676   -6.8239519    16.497786  0.029251394  0.039172938            1 
   48000    1.2021046   -6.8578156       16.922  0.029378472  0.039107723            2 
   49000    1.2193746   -6.7764136    17.392183  0.029578542  0.039055109            2 
   50000    1.1988885   -6.8287352    17.790371  0.029650618  0.039004776            2 
   51000    1.1842802   -6.8623469    18.151829  0.029659851  0.038929382            3 
   52000    1.1888026   -6.8520303    18.693674   0.02995781  0.038869543            2 
   53000    1.1826114     -6.84239    19.034781    0.0299289  0.038793873            2 
   54000    1.2110042    -6.897944    19.380723  0.029908523  0.038684487            1 
   55000    1.1584363   -6.8870224    19.866258   0.03010039  0.038594032            2 
   56000    1.1834178   -6.8642522    20.351167  0.030284475  0.038523793            2 
   57000    1.1553684    -6.880206    20.889492  0.030540192  0.038472162            2 
   58000    1.1806952   -6.8836921    21.209698  0.030473703  0.038416343            3 
   59000    1.1950913   -6.8933878    21.566618  0.030461325  0.038349031            1 
   60000    1.1723098   -6.8731626    22.092021  0.030683363   0.03828323            1 
   61000     1.161573   -6.8548925    22.473308   0.03070124  0.038219426            2 
   62000    1.1487223   -6.9059196    22.727127  0.030547213  0.038133337            2 
   63000    1.1459128   -6.8845875    23.333693  0.030864674  0.038046577            1 
   64000    1.1524375   -6.8669161    23.575878  0.030697758  0.037955817            1 
   65000    1.1434861   -6.8991957    23.982743  0.030747106  0.037862467            2 
   66000    1.1699002   -6.9396287    24.312227  0.030697257  0.037771786            3 
   67000    1.1705279   -6.9135527    24.622897  0.030625493  0.037660797            1 
   68000    1.1531353   -6.8661376    25.175162  0.030851914  0.037563587            2 
   69000    1.1758737    -6.878912    25.388822  0.030662829  0.037455778            3 
   70000    1.1595349   -6.9403782    25.701686  0.030597245  0.037337673            1 
   71000    1.1523439   -6.9553825      25.9548   0.03046338  0.037211669            3 
   72000    1.1831465   -6.9116387    26.417138  0.030575391  0.037086374            2 
   73000    1.1513908   -6.8986708    26.911924  0.030721374   0.03696851            3 
   74000    1.1483016   -6.9104478    27.344217  0.030793037  0.036867086            2 
   75000     1.141649   -6.9331646    27.726389  0.030807098  0.036772836            1 
   76000    1.1301279   -6.9462895    28.233642   0.03095794  0.036688053            1 
   77000    1.1240018   -6.8928508    28.669626  0.031027733  0.036613883            5 
   78000    1.1294412   -6.9906545    28.874606  0.030848938  0.036534177            2 
   79000    1.1112065   -6.9440371    29.217873  0.030820541   0.03644271            1 
   80000    1.1517346   -6.9425863    29.396508  0.030621362  0.036338432            1 
   81000    1.1450158   -6.9295984    29.881024  0.030741795  0.036234964            2 
   82000    1.1441426   -6.9434376    30.242919  0.030734674  0.036138258            1 
   83000    1.1405546    -6.943486    30.603964  0.030726871  0.036042876            2 
   84000    1.1381291   -6.9789131    30.804241  0.030559763    0.0359445            4 
   85000    1.1489316   -6.9736649    31.285196   0.03067176  0.035843875            1 
   86000    1.1413895   -6.9433918    31.689904  0.030707271  0.035745196            3 
   87000    1.1266917   -6.9463586    32.078202  0.030726247  0.035653086            1 
   88000    1.1089947   -6.9418953    32.333162  0.030618525  0.035553084            1 
   89000     1.122273   -6.9327982    32.664628  0.030584858  0.035457016            1 
   90000    1.1236047   -6.9688958    33.004105  0.030559356  0.035358061            2 
   91000    1.1237484   -6.9748785    33.269385   0.03046647  0.035264237            2 
   92000    1.1116188   -6.9865138    33.490874  0.030335936   0.03516842            2 
   93000    1.1441225   -6.9979392    34.068928  0.030527713  0.035072504            5 
   94000     1.141566   -6.9705644    34.428256  0.030521504  0.034983132            4 
   95000    1.0818224   -7.0069165    34.872837  0.030590208  0.034902104            1 
   96000    1.1007322   -6.9984413    35.200441  0.030555938  0.034819238            1 
   97000    1.0904784   -7.0375269    35.502605   0.03050052  0.034743576            1 
   98000    1.1018136   -6.9961277    35.940326  0.030561502  0.034667606            2 
   99000    1.1317415    -7.044964    36.467671  0.030696692  0.034596657            1 
  100000    1.1162428   -7.0128024    36.844085  0.030703404  0.034530081            3 
  101000     1.104314   -6.9741988    37.295857  0.030772159  0.034466573            2 
  102000    1.1256726   -6.9782736    37.645503   0.03075613   0.03440796            1 
  103000    1.0956053   -7.0103968    38.170654  0.030882406  0.034353746            1 
  104000     1.092955   -7.0367157    38.304112  0.030692397  0.034301974            2 
  105000    1.0861048   -7.0381722    38.615392  0.030647136  0.034243025            3 
  106000    1.0928859   -7.0161106    38.997225  0.030658196  0.034181462            2 
  107000    1.1150145   -7.0390985    39.529294  0.030786054  0.034128952            2 
  108000    1.0876258   -7.0316824    39.588174   0.03054643  0.034074646            4 
  109000    1.0998273   -7.0441974     39.97601  0.030562699  0.034014403            2 
  110000    1.0959308   -7.0393765    40.279102  0.030514471  0.033954872            2 
  111000    1.0705565   -7.0155207    40.627947  0.030501462  0.033893777            2 
  112000    1.0889025   -7.0728284    40.982196  0.030492705  0.033833326            1 
  113000    1.0794509   -7.0276096    41.275265  0.030438986  0.033770676            2 
  114000    1.0852901   -7.0223769    41.600312  0.030409585  0.033707348            3 
  115000    1.0734559   -7.0857834    41.889755  0.030354895  0.033640137            1 
  116000    1.0992171    -7.077233    42.036044  0.030198307  0.033567489            3 
  117000    1.0738253   -7.0492254    42.250916  0.030093245  0.033497119            3 
  118000    1.0730066   -7.0510911    42.812871  0.030235078  0.033427598            1 
  119000    1.0738126   -7.0717112    42.871341  0.030021947  0.033357783            2 
  120000    1.0643146   -7.0853659    43.161598  0.029973332  0.033283205            1 
  121000    1.0687838   -7.0751244    43.501526  0.029959729  0.033202866            1 
  122000    1.0901378   -7.0698442     43.67182  0.029830478  0.033122855            1 
  123000    1.0659619   -7.0494344    44.082598  0.029866259  0.033045724            2 
  124000    1.0724704   -7.0976962    44.273068  0.029753406  0.032968043            4 
  125000    1.0750218   -7.0696024     44.56768  0.029711787  0.032887363            2 
  126000    1.0412448   -7.0790835    44.919261  0.029708506  0.032809979            1 
  127000    1.0750697    -7.160605    45.073063  0.029575501  0.032733065            4 
  128000    1.0780998   -7.1202148    45.459045  0.029595732  0.032654437            2 
  129000    1.0860055   -7.1067259    45.736357   0.02954545  0.032574582            3 
  130000    1.0579653   -7.0673572    45.990599  0.029481153   0.03249684            2 
  131000    1.0698488   -7.1068319    46.389489  0.029509853  0.032420888            2 
  132000    1.0659118   -7.0771791    46.686384  0.029473727  0.032345506            3 
  133000    1.0488831   -7.1544784    46.656865  0.029233624   0.03226585            3 
  134000    1.0594902   -7.0948496    47.062203  0.029267539  0.032183633            3 
  135000    1.0681807   -7.1083093    47.150867  0.029105473  0.032101443            3 
  136000    1.0513868   -7.1469211    47.607811  0.029171453  0.032019083            2 
  137000    1.0482331   -7.1431142      47.9583  0.029171715  0.031937443            3 
  138000     1.046647   -7.1286083    47.938284  0.028948239  0.031853023            6 
  139000    1.0529376   -7.1430898    48.224395  0.028911508  0.031765921            2 
  140000     1.009495   -7.1572063    48.273059  0.028733964  0.031676377            3 
  141000    1.0392123   -7.1512358    48.635802  0.028744564  0.031586477            1 
  142000    1.0418409    -7.204916    48.769334  0.028620501   0.03149862            2 
  143000    1.0604639   -7.1703371    49.115918  0.028622329  0.031413426            1 
  144000    1.0482241   -7.1828092     49.45014  0.028616979  0.031326823            3 
  145000    1.0401936   -7.1677576    49.843218  0.028645528  0.031243439            1 
  146000    1.0207094   -7.1665358    50.151011  0.028625006   0.03116554            3 
  147000    1.0345536    -7.175241    50.555173  0.028659395  0.031086794            2 
  148000    1.0243402   -7.1591792    50.645778  0.028516767  0.031010712            3 
  149000    1.0241805   -7.1959526    51.092233  0.028575074   0.03093431            2 
  150000    1.0329969   -7.1758681    51.189768   0.02843876  0.030860088            2 
  151000    1.0392891   -7.2097444    51.593767  0.028473381  0.030785598            1 
  152000       1.0466   -7.1846701    51.833442  0.028417457  0.030710907            2 
  153000    1.0162276   -7.1837766    51.961517   0.02830148  0.030636451            2 
  154000    1.0378556   -7.1829248    52.280661  0.028290401  0.030561822            3 
  155000    1.0151639   -7.1758175    52.585998  0.028272042  0.030486796            6 
  156000    1.0324659   -7.2020258    52.764922   0.02818639  0.030411043            2 
  157000    1.0074498   -7.2207214    52.871515  0.028063437  0.030337333            6 
  158000    1.0092301   -7.2082157    53.434543  0.028182776  0.030263858            1 
  159000    1.0180326   -7.1996063    53.799489  0.028196797  0.030194418            2 
  160000    0.9976776   -7.1559913    53.909284  0.028077752  0.030125576            5 
  161000    1.0104492    -7.197437    54.129797  0.028017493  0.030055897            1 
  162000   0.99775809   -7.2017697    54.315217  0.027939926  0.029987868            2 
  163000    1.0123095   -7.2062333    54.644776  0.027937002  0.029919108            2 
  164000   0.99040424   -7.2465924     54.60092   0.02774437  0.029844996            2 
  165000     0.998809     -7.23845    54.700036  0.027626281  0.029769438            2 
  166000   0.98351759   -7.2191682    55.106796  0.027664054  0.029694067            1 
  167000    1.0095864   -7.2595286     55.28631  0.027587979  0.029620621            1 
  168000    1.0144622    -7.241012    55.440216  0.027500107  0.029547072            2 
  169000    1.0088991   -7.2552919     55.44729  0.027340873  0.029472081            2 
  170000   0.99712549   -7.2399148    55.647344   0.02727811  0.029395846            2 
  171000    1.0174001   -7.2570102    56.243606  0.027409165  0.029320441            3 
  172000   0.99983736   -7.2285913    56.223771  0.027240199  0.029243853            1 
  173000   0.99104106   -7.2603757    56.364266  0.027150417  0.029166636            1 
  174000   0.98959411   -7.2470693    56.657979  0.027135047  0.029088196            1 
  175000   0.98016788   -7.2906191    56.673678  0.026987465  0.029009963            4 
  176000   0.98692704   -7.2797581    57.091698  0.027032054  0.028933979            3 
  177000   0.99056121   -7.2935946    57.094724  0.026880755  0.028857471            3 
  178000    1.0057857    -7.311535    57.451174  0.026896617  0.028780162            1 
  179000   0.99091315   -7.2889229    57.868623    0.0269407  0.028705079            2 
  180000   0.99041313   -7.3051302    57.763114  0.026742182  0.028629529            2 
  181000     1.000931   -7.2945033    58.001943  0.026704394  0.028553212            2 
  182000    0.9895325   -7.2394276    58.202762  0.026649616  0.028476452            1 
  183000   0.96544971   -7.2933814    57.967351   0.02639679  0.028397723            3 
  184000   0.96387445   -7.3257436    58.633937  0.026555225  0.028319615            1 
  185000   0.95896527    -7.323416    58.753733  0.026465646  0.028243718            2 
  186000   0.96693959   -7.3328917    58.853822    0.0263682  0.028167012            2 
  187000   0.98863918   -7.2948902    59.089965  0.026332426  0.028090224            4 
  188000   0.98817235   -7.2940969    59.167848  0.026226883  0.028012121            2 
  189000   0.96210148   -7.3178083    59.270184  0.026133238  0.027934504            3 
  190000   0.93378604   -7.3232299    59.368589  0.026038855   0.02785675            3 
  191000    0.9581666   -7.3170512    59.863255  0.026118349  0.027778576            3 
  192000   0.96295551   -7.3383446    60.063989   0.02606944   0.02770221            2 
  193000   0.96156655   -7.3284236    59.910796  0.025868219  0.027624268            3 
  194000   0.94895774   -7.3517152    60.041376  0.025790969  0.027544477            2 
  195000   0.94162303   -7.3710226    60.279139  0.025760316  0.027464713            1 
  196000   0.96153698   -7.3488281     60.48775  0.025717581  0.027386351            2 
  197000   0.96254148   -7.3581565    60.744094  0.025695471  0.027309464            3 
  198000   0.95189094   -7.3550424    60.761917  0.025573197  0.027233393            3 
  199000   0.95700096   -7.4133582     60.68917  0.025414225   0.02715528            2 
  200000   0.96514857   -7.3887935    61.133942  0.025472476  0.027077482            2 
  201000   0.94482728   -7.3773676    61.256709  0.025396645  0.027001781            3 
  202000   0.94971036   -7.3505349      61.3497  0.025309282  0.026924689            3 
  203000   0.92282415   -7.3615009    61.575218  0.025277183  0.026848495            2 
  204000   0.95317695   -7.3894464    61.766721  0.025231504  0.026772027            2 
  205000   0.93475527   -7.3886124    61.960432  0.025187167  0.026695734            4 
  206000   0.94627674   -7.3747174    62.237261  0.025176885  0.026620788            2 
  207000   0.93799026   -7.3789552    62.539175  0.025176801  0.026547534            3 
  208000   0.93235552   -7.3762526    62.656258  0.025102667  0.026475476            4 
  209000   0.94724798   -7.3761049    62.744903  0.025017904  0.026402765            2 
  210000   0.93386019   -7.3930733    62.620244  0.024849303  0.026329011            2 
  211000   0.92813184   -7.4144422    62.843985  0.024819899   0.02625572            1 
  212000    0.9319196   -7.3988163    63.360398  0.024905817  0.026183918            3 
  213000   0.91421023   -7.3997709    63.668302  0.024909351  0.026112697            2 
  214000   0.92529261    -7.392534    63.415675  0.024694578  0.026041142            4 
  215000    0.9177276   -7.4451152    63.760656  0.024713432  0.025969007            2 
  216000   0.91165665    -7.388936    63.991634  0.024688131   0.02589848            3 
  217000   0.93048127   -7.4186356    64.132361  0.024628403  0.025827894            3 
  218000   0.92697734   -7.4185703    64.272817   0.02456912  0.025757099            2 
  219000   0.92815923   -7.4412607    64.179639  0.024421476  0.025685809            4 
  220000   0.89761389   -7.4300139    64.207007  0.024320836  0.025613341            3 
  221000   0.90242986   -7.4386553    64.574708  0.024349437   0.02554078            4 
  222000   0.92099398   -7.4594986    64.460106  0.024196736     0.025468            3 
  223000   0.92522748   -7.4597134    64.552209  0.024122649  0.025395709            3 
  224000     0.923668   -7.4215764    64.845163  0.024123945  0.025324069            2 
  225000   0.91650756    -7.480332    64.941168  0.024052284  0.025251533            5 
  226000   0.90170845   -7.4618606    65.197717  0.024040456  0.025180023            3 
  227000   0.91722123   -7.4353957    65.504532  0.024047185  0.025108706            2 
  228000    0.8942611   -7.4938655     65.58136  0.023969795   0.02503846            5 
  229000   0.89730919    -7.430284    65.841649  0.023959843  0.024970235            3 
  230000   0.89337168   -7.4492541    65.814093  0.023845686  0.024901056            3 
  231000   0.90539054   -7.5303213     66.16013  0.023867291  0.024832256            5 
  232000   0.89686397    -7.489263    66.151411  0.023761283  0.024764707            1 
  233000    0.9082022   -7.4855811    66.357374  0.023732966  0.024697783            6 
  234000   0.88534327    -7.499358    66.614291  0.023723038   0.02463084            4 
  235000   0.86519689   -7.4698157    66.834893  0.023700316  0.024565573            2 
  236000   0.89375116   -7.5013951    66.727679  0.023562033  0.024499076            2 
  237000   0.90433019   -7.4780143    66.860459  0.023509303  0.024432032            5 
  238000   0.90544689   -7.4754677    66.805537  0.023391295  0.024364704            3 
  239000    0.8913282   -7.4804461    67.038462  0.023374638  0.024297091            4 
  240000   0.88642639   -7.5054064    67.044182   0.02327923  0.024228336            2 
  241000   0.88966696   -7.5052562    67.092283  0.023199268  0.024159166            2 
  242000   0.89400378   -7.4899354    67.137079  0.023118829  0.024090049            1 
  243000   0.88447796   -7.5006296    67.367427  0.023102684  0.024021572            2 
  244000   0.88239774   -7.5070145    67.506175  0.023055388  0.023953207            3 
  245000   0.87684883   -7.5200694    67.398079  0.022924517  0.023884335            1 
  246000   0.88646131    -7.581275      67.3871  0.022827608   0.02381573            5 
  247000   0.86339069   -7.5268509    67.819021  0.022880911  0.023747589            2 
  248000   0.85556774   -7.5291634    67.908284  0.022818644  0.023680124            3 
  249000   0.87414553   -7.5298462    67.935595  0.022736143  0.023613263            5 
  250000   0.86615355   -7.5484606    68.090431   0.02269681   0.02354673            2 
  251000   0.87014661   -7.5384958    68.257398  0.022661819  0.023480553            2 
  252000   0.88199351   -7.5434106    68.283272  0.022580447  0.023414012            5 
  253000   0.86435429     -7.55147    68.380499  0.022523221  0.023347285            3 
  254000   0.86769333   -7.5632374    68.555441  0.022491943  0.023280115            3 
  255000   0.86367042   -7.5975995    68.615351  0.022423317  0.023213705            3 
  256000   0.85739697   -7.5413488    68.900284  0.022428478  0.023148453            3 
  257000   0.85856158     -7.58141    68.907671  0.022343603    0.0230829            2 
  258000    0.8499912   -7.5843635    68.903825  0.022255758  0.023017242            3 
  259000   0.84813585   -7.5812806     69.23027  0.022274862  0.022951947            1 
  260000   0.84852854   -7.6199217    69.134122  0.022158372  0.022886992            2 
  261000   0.85101151    -7.577159    69.492001   0.02218774  0.022822474            2 
  262000   0.84346277   -7.5513576    69.760055  0.022188313  0.022759674            2 
  263000   0.84353365   -7.5640282    69.878509  0.022141479  0.022697427            3 
  264000   0.82304486   -7.6001999    69.818608  0.022038702   0.02263546            3 
  265000   0.83813839   -7.5823083    69.950383  0.021996976  0.022573041            3 
  266000   0.83816887    -7.621564    70.180242  0.021986291  0.022510632            2 
  267000   0.84853744   -7.6063119    70.331188  0.021951057  0.022449464            3 
  268000   0.83153817   -7.5700056    70.501855  0.021922219  0.022389197            2 
  269000    0.8538666   -7.6050973    70.564304  0.021860069  0.022329396            2 
  270000   0.83815586    -7.614703    70.925644  0.021890631  0.022269765            4 
  271000   0.85925417   -7.6206208    70.946874  0.021816382  0.022210429            2 
  272000   0.81919308   -7.5994862    70.849891  0.021706462  0.022150481            5 
  273000   0.83271949   -7.5973732    70.897633  0.021641524  0.022089506            3 
  274000   0.83068893   -7.6080844    71.028782  0.021602427  0.022029141            2 
  275000   0.84016481   -7.6079797    71.083452   0.02154044  0.021968853            4 
  276000   0.80621592   -7.6545413    70.919605  0.021412924  0.021907635            2 
  277000   0.84919527   -7.6768502    71.296324  0.021448954  0.021847394            2 
  278000   0.84295923   -7.6395396    71.351229  0.021388258  0.021787846            6 
  279000   0.82261271   -7.6299362    71.400059  0.021326182  0.021727863            2 
  280000   0.81003249   -7.6829169    71.318749  0.021225818  0.021667279            3 
  281000   0.82722707   -7.6616274    71.528937  0.021212615  0.021606758           10 
  282000   0.80369337   -7.6935165    71.545803  0.021142377  0.021546312            3 
  283000   0.81544428   -7.6968093    71.524498  0.021061395  0.021485725            2 
  284000   0.81697913   -7.6895741    71.581972    0.0210041  0.021425464            4 
  285000   0.81114282    -7.654806    71.826188  0.021001809  0.021365535            4 
  286000   0.80315719   -7.6946144    71.753977  0.020907336  0.021305928            2 
  287000   0.80362765   -7.6735971    71.768199  0.020838617  0.021246073            2 
  288000   0.79895672   -7.6905514    71.889793  0.020801445  0.021186184            3 
  289000   0.79302998   -7.7201081    71.918389  0.020737713  0.021125595            3 
  290000   0.79949675   -7.7326156    71.997128   0.02068883   0.02106546            3 
  291000   0.79448331    -7.683353    72.141938  0.020659203  0.021005438            4 
  292000    0.8053312   -7.6759006    72.212388  0.020608558   0.02094564            3 
  293000   0.78510695   -7.6947843    72.147486  0.020519763  0.020885262            3 
  294000   0.80059651   -7.7178688    72.263589  0.020482877   0.02082494            3 
  295000   0.80774499   -7.7227393    72.519156  0.020485637  0.020765299            4 
  296000   0.78522386   -7.7012751    72.434698  0.020392651  0.020706141            2 
  297000   0.80004415    -7.735809     72.63605  0.020380485  0.020646695            3 
  298000   0.79455975   -7.7058494    72.559032  0.020290557  0.020587808            2 
  299000   0.78231197   -7.7146051    72.645327  0.020246747  0.020529009            2 
  300000   0.77756363   -7.7025678    72.927357  0.020257599  0.020471014            3 
  301000   0.78047977     -7.70741    72.941052   0.02019409  0.020413469            4 
  302000   0.76674879   -7.7383476    73.134035  0.020180473  0.020355924            4 
  303000   0.78573541    -7.741324    72.943948  0.020061592  0.020298516            3 
  304000   0.77744399   -7.7630697     73.18252  0.020060998  0.020240675            6 
  305000   0.76790093   -7.7571416    73.035556   0.01995507  0.020182721            6 
  306000   0.75806109    -7.737593    73.083097  0.019902804  0.020124484            5 
  307000   0.75961301    -7.769404    73.078321  0.019836678  0.020066128            2 
  308000   0.78528055   -7.7387081    73.140709  0.019789153  0.020007847            2 
  309000   0.75158325   -7.7694894    73.023765  0.019693572  0.019949435            4 
  310000   0.77928711   -7.7527173    73.253825  0.019691888  0.019891201            2 
  311000   0.79956859   -7.7713452    73.231053  0.019622469  0.019833229            4 
  312000    0.7630465   -7.7652751    73.459345  0.019620552   0.01977515            4 
  313000   0.75277645   -7.8154114    72.905993  0.019410541  0.019716524            2 
  314000   0.77398587   -7.7793748    73.236682  0.019436487  0.019658003            3 
  315000   0.78950682   -7.7896296    73.290984  0.019389149  0.019599923            1 
  316000   0.78340212   -7.7963617     73.35872  0.019345654  0.019541681            3 
  317000   0.75573534   -7.7987773    73.501397  0.019322134  0.019483495            2 
  318000    0.7732813   -7.8197255    73.233038  0.019191048  0.019424999            3 
  319000   0.76666494   -7.8228037    73.291175  0.019146075  0.019366795            2 
  320000   0.75003814   -7.8302543    73.478679  0.019135073  0.019308579            1 
  321000   0.75494885    -7.818786    73.667905  0.019124586  0.019250454            2 
  322000   0.74791012     -7.84025    73.655286  0.019061927  0.019192866            1 
  323000   0.74372977   -7.8087877    73.622875   0.01899455  0.019135606            2 
  324000   0.76857122   -7.8448779    73.648265  0.018942455  0.019078306            3 
  325000   0.74821872   -7.8355318     73.70775  0.018899423  0.019021028            5 
  326000   0.74903365   -7.8251522    73.628646  0.018821229  0.018963587            2 
  327000   0.73320154   -7.8203835    73.780189  0.018802291  0.018906599            2 
  328000   0.75111722   -7.8731424    73.702811  0.018725308  0.018849585            3 
  329000    0.7466696   -7.8241748    73.787934  0.018689953  0.018792522            4 
  330000   0.73304568   -7.8610894    73.793866  0.018634815   0.01873564            3 
  331000   0.73323027   -7.8580673    73.888975  0.018602461  0.018678633            3 
  332000   0.74271288   -7.8505326    73.999387  0.018574143  0.018621956            2 
  333000    0.7424569   -7.8637936    73.810065  0.018470987  0.018565399            2 
  334000   0.73208355   -7.8771817    73.892653  0.018436291  0.018508882            2 
  335000   0.74492248   -7.8457481    74.127206  0.018439604  0.018452851            1 
  336000   0.73389173   -7.8456234    74.151033  0.018390633  0.018396422            2 
  337000   0.72583639   -7.8868922    74.071946  0.018316505  0.018340137            5 
  338000   0.73286831   -7.8826936    73.880353  0.018215077  0.018283696            4 
  339000   0.72740435   -7.8785734    73.922752  0.018171768  0.018227237            5 
  340000   0.72519772   -7.8894186    74.020635  0.018142312  0.018171175            4 
  341000   0.73344278   -7.9086377    73.878042  0.018054262  0.018114559            2 
  342000   0.71908901   -7.9085218    73.934093   0.01801513  0.018058289            4 
  343000   0.71761964   -7.9047457    73.996621  0.017977799  0.018001881            3 
  344000   0.72249382   -7.9108542    74.099875  0.017950551  0.017945643            1 
  345000   0.70815761   -7.9344026    74.199852  0.017922669  0.017889596            3 
  346000   0.70479433   -7.9150633    73.961999  0.017813584  0.017833651            5 
  347000   0.71687735   -7.9243997    74.009048  0.017773547  0.017778118            4 
  348000   0.70456755   -7.9418697     74.15137  0.017756554   0.01772269            5 
  349000   0.70953786   -7.9365565    74.103516  0.017694249  0.017667306            3 
  350000    0.7101149   -7.9289313    74.227472  0.017673207  0.017612324            4 
  351000    0.6944992   -7.9285459    74.112061  0.017595456  0.017557594            3 
  352000   0.70902308   -7.9359646    74.379369  0.017608752   0.01750301            2 
  353000    0.7179639   -7.9169466    74.354456  0.017552988   0.01744884            2 
  354000   0.69214729   -7.9133544      74.3909  0.017511982  0.017394728            2 
  355000   0.70194564   -7.9375486     74.41319  0.017467885  0.017340778            3 
  356000   0.70637729   -7.9394157    74.443393  0.017425888  0.017286925            4 
  357000   0.70347599   -7.9801937    74.408634  0.017368962   0.01723328            3 
  358000   0.68616368    -7.921826    74.511801   0.01734446  0.017179717            3 
  359000   0.68969656   -7.9571282    74.545308  0.017303925  0.017126536            4 
  360000   0.69072931   -7.9354796    74.563471  0.017260063  0.017073533            3 
  361000   0.69777974   -7.9649942    74.523714  0.017203073  0.017020904            4 
  362000   0.69070823   -7.9721462    74.521407   0.01715502  0.016968344            2 
  363000    0.6827007   -7.9573747     74.54458  0.017113081  0.016915894            3 
  364000   0.69499038   -7.9841342    74.659023  0.017092267  0.016863477            5 
  365000   0.68731994   -7.9891891    74.651753  0.017043779  0.016811377            2 
  366000   0.68991278   -7.9871443    74.604415  0.016986433  0.016759526            3 
  367000   0.68402442   -7.9908514    74.772063  0.016978216  0.016707653            6 
  368000   0.68736891   -8.0089194    74.753184  0.016927804  0.016656172            2 
  369000   0.67263304   -8.0133649    74.748468  0.016880865  0.016604655            2 
  370000   0.67120767   -8.0013919    74.730387  0.016831168  0.016553115            2 
  371000   0.67440301   -8.0328803    74.670991   0.01677246  0.016501715            2 
  372000   0.66550835   -8.0180298    74.701584  0.016734226  0.016450622            2 
  373000   0.65984855   -7.9852276    74.895293  0.016732639  0.016399881            4 
  374000   0.66476474   -7.9884967     74.80064  0.016666809  0.016349361            3 
  375000   0.66942167   -8.0135081    74.774743   0.01661661  0.016298881            3 
  376000   0.65490386   -8.0149511      74.9277  0.016606316  0.016248521            5 
  377000   0.65785636   -8.0272791    74.842133  0.016543354  0.016198506            4 
  378000   0.66352847   -8.0110374    74.902823  0.016512968  0.016148584            3 
  379000   0.66127245   -8.0426299     74.86583  0.016461264  0.016098607            3 
  380000   0.65659964   -8.0248743    74.926935  0.016431345  0.016048597            5 
  381000   0.65185583   -8.0435317    74.829036  0.016366806  0.015998963            4 
  382000   0.65192308   -8.0448118    74.859386  0.016330582   0.01594931            2 
  383000    0.6509941   -8.0363712     74.91629  0.016300324  0.015899783            2 
  384000   0.64903592   -8.0405378    74.936625  0.016262288  0.015850301            2 
  385000   0.64396262   -8.0455554    74.889775  0.016209908  0.015801175            3 
  386000   0.64957558   -8.0487106    74.957108   0.01618245  0.015752322            6 
  387000   0.64390063   -8.0525042    75.012868  0.016152642  0.015703664            4 
  388000   0.65160651   -8.0662191    74.932717  0.016093797   0.01565494            5 
  389000   0.63032795   -8.0811356     74.96732  0.016059837   0.01560632            5 
  390000   0.64283064   -8.0470795    75.024239   0.01603082  0.015557694            3 
  391000   0.64029275   -8.0613212    75.203712  0.016028072  0.015509367            2 
  392000   0.65113986   -8.0839139    74.844577  0.015910837  0.015461095            4 
  393000   0.63487334   -8.0559667    74.820404  0.015865226  0.015412888            5 
  394000   0.63669709   -8.0784337    75.036785  0.015870724  0.015364762            5 
  395000    0.6287642    -8.087118    74.990664  0.015820815  0.015316923            3 
  396000   0.63222649   -8.1094173    74.926339  0.015767327  0.015269076            6 
  397000   0.63321857   -8.1005689    74.898147  0.015721693  0.015221286            3 
  398000   0.63258704   -8.1045088    74.977555  0.015698818  0.015173532            4 
  399000   0.63063932   -8.1135864    74.930396  0.015649623  0.015126012            2 
  400000   0.63475554   -8.1247665    75.087242  0.015643175  0.015078638            5 
  401000   0.62732369   -8.1030326    74.855572  0.015556021  0.015031168            2 
  402000   0.64692922   -8.1089177    74.779999  0.015501658  0.014983866            3 
  403000   0.61962607    -8.140427    74.761728  0.015459414  0.014936748            2 
  404000   0.61657185   -8.1335286    74.951376  0.015460267  0.014889533            2 
  405000    0.6211365   -8.1078005    74.821582  0.015395387   0.01484249            2 
  406000   0.62791727    -8.113313    74.771798  0.015347249  0.014795795            2 
  407000    0.6070241   -8.1337761     74.90746  0.015337318  0.014749194            2 
  408000   0.61075533   -8.1473526    74.738775  0.015265273  0.014702763            5 
  409000   0.61672646   -8.1443892    74.886866  0.015258123  0.014656459            5 
  410000   0.62503749   -8.1348684    75.046594  0.015253373  0.014610199            6 
  411000   0.60739399   -8.1495711    74.887704  0.015184044  0.014564168            2 
  412000   0.59833815   -8.1750636    74.826697   0.01513485  0.014518156            4 
  413000   0.62678871   -8.1516244    74.755953  0.015083929  0.014472205            5 
  414000   0.59884108   -8.1414771    74.919497  0.015080414  0.014426433            5 
  415000    0.6086423    -8.159205    74.869165  0.015033969  0.014380839            5 
  416000    0.5966598   -8.1687841     74.82546  0.014989074  0.014335474            3 
  417000   0.60989477   -8.1488975    74.809285  0.014949897  0.014290272            2 
  418000   0.61016926   -8.1642125    74.814983  0.014915268   0.01424513            2 
  419000   0.60940882   -8.1783337     74.70819  0.014858431  0.014200211            6 
  420000   0.60284064   -8.1731581    74.854562  0.014852096  0.014155338            3 
  421000   0.59239209   -8.1848337     74.76938  0.014799956  0.014110602            3 
  422000   0.59894392   -8.1941553    74.744893   0.01476005    0.0140659            4 
  423000   0.59858105   -8.1983068    74.796817  0.014735385    0.0140213            3 
  424000   0.58133006   -8.1992455    74.796815  0.014700632  0.013976782            3 
  425000   0.59388775   -8.2126817    74.771985  0.014661174  0.013932385            2 
  426000   0.58759883   -8.1961674    74.708223  0.014614285  0.013888058            2 
  427000   0.58645041   -8.2139629    74.702384   0.01457892  0.013843862            3 
  428000   0.58639639   -8.2073672    74.774605  0.014558918  0.013799909            7 
  429000   0.58289455   -8.1975033    74.623283  0.014495587  0.013756172            2 
  430000   0.57251465   -8.2178727    74.720045  0.014480629  0.013712373            4 
  431000   0.58496753   -8.2224494      74.8832  0.014478577  0.013668879            3 
  432000   0.57171505   -8.2238567    74.707822  0.014411231  0.013625515            4 
  433000   0.57521908   -8.2348733    74.751646  0.014386383  0.013582288            2 
  434000   0.57972191   -8.2275048    74.738769  0.014350762  0.013539157            3 
  435000   0.56624687   -8.2245227    74.733711  0.014316803  0.013496176            3 
  436000   0.56776404   -8.2131332    74.840432  0.014304364  0.013453421            6 
  437000   0.55817329   -8.2194383    74.723777  0.014249385   0.01341091            4 
  438000   0.56903475   -8.2314422    74.825002  0.014236111  0.013368455            2 
  439000   0.55980178    -8.235594    74.561498  0.014153663  0.013326194            3 
  440000   0.55485244   -8.2347283    74.586576  0.014126245  0.013283947            3 
  441000   0.56492481   -8.2460199    74.817963  0.014137937  0.013241831            4 
  442000   0.55023422   -8.2453294    74.674662  0.014078933  0.013199928            2 
  443000   0.56481095   -8.2581995    74.622113  0.014037267  0.013158013            3 
  444000   0.54828208    -8.240526    74.672617  0.014015131   0.01311632            2 
  445000   0.55911745   -8.2560469    74.648356  0.013979093  0.013074713            5 
  446000   0.55192089   -8.2494547    74.596016   0.01393797  0.013033267            7 
  447000   0.55748476   -8.2358968    74.594392  0.013906486  0.012991993            2 
  448000   0.55359749   -8.2489376    74.568967  0.013870716  0.012950797            5 
  449000   0.54369495   -8.2633583    74.584796  0.013842761  0.012909782            3 
  450000   0.54021644   -8.2460387     74.50019  0.013796331  0.012868879            3 
  451000   0.53991808   -8.2866265    74.532623  0.013771734  0.012828087            5 
  452000   0.55147369   -8.2745883    74.611179  0.013755748  0.012787559            2 
  453000   0.55242778   -8.2857335    74.699573  0.013741643  0.012747123            3 
  454000    0.5324038   -8.2770702    74.448924  0.013665368  0.012706706            3 
  455000   0.54248632   -8.2744701    74.633938  0.013669219  0.012666485            2 
  456000   0.54009857   -8.2847109    74.461441  0.013607719  0.012626385            4 
  457000   0.52855508    -8.272327    74.550429   0.01359417   0.01258647            2 
  458000   0.52850629   -8.2816124    74.498046  0.013554957  0.012546668            2 
  459000   0.53999454   -8.2962386    74.475957  0.013521416   0.01250701            5 
  460000   0.54795946   -8.3036003    74.528623  0.013501562  0.012467466            2 
  461000   0.52680546   -8.2911656    74.345225  0.013439122  0.012428006            7 
  462000   0.53250824   -8.2814128    74.366836  0.013413932  0.012388769            5 
  463000   0.53465761   -8.2701952    74.491291   0.01340736   0.01234954            3 
  464000   0.52367971   -8.3027474    74.430896  0.013367618  0.012310504            7 
  465000   0.52992978   -8.3073208     74.50445  0.013352052  0.012271577            2 
  466000   0.53210042   -8.3151849    74.431525  0.013310359  0.012232712            3 
  467000   0.52580649   -8.3215725    74.332766  0.013264234  0.012193971            5 
  468000   0.51521993   -8.3126714    74.447646  0.013256347  0.012155412            7 
  469000   0.52202429   -8.3209446    74.340942  0.013209123   0.01211698            4 
  470000   0.53341027   -8.3431555    74.447532  0.013199917   0.01207869            4 
  471000   0.51485818   -8.3100716    74.365858  0.013157441  0.012040496            6 
  472000    0.5152105   -8.3043853    74.423304  0.013139708  0.012002488            3 
  473000   0.50423252   -8.3161878    74.313471  0.013092578  0.011964649            4 
  474000   0.51090731   -8.3293298    74.237159   0.01305154  0.011926962            5 
  475000   0.51400215    -8.329857    74.407203  0.013053895  0.011889357            3 
  476000   0.50835909    -8.333854    74.396997  0.013024684  0.011851924            3 
  477000   0.50618647   -8.3528668     74.41782  0.013001017  0.011814666            4 
  478000   0.50423667   -8.3252715    74.206763  0.012937023  0.011777472            6 
  479000   0.51041883   -8.3353963    74.291199  0.012924704  0.011740461            4 
  480000   0.49928668   -8.3440268    74.380454  0.012913273  0.011703583            4 
  481000   0.49195227   -8.3466709    74.255875  0.012864843  0.011666754            4 
  482000   0.49481662   -8.3311164    74.294705  0.012844866  0.011630133            2 
  483000   0.50595801   -8.3416376    74.354538  0.012828595  0.011593582            2 
  484000   0.49472444   -8.3440803    74.360416  0.012803102  0.011557192            6 
  485000   0.48920427   -8.3554088    74.280097  0.012762903  0.011521003            6 
  486000   0.49983118   -8.3633867    74.136885  0.012712086  0.011484899            4 
  487000   0.49212725   -8.3670443    74.301837  0.012714209  0.011448869            7 
  488000   0.49203204   -8.3763857    74.284437  0.012685184  0.011412954            4 
  489000   0.47611046   -8.3565851    74.144077  0.012635323  0.011377262            5 
  490000   0.48914194   -8.3585203    74.279477  0.012632564  0.011341664            3 
  491000   0.48482932   -8.3581805    74.250399  0.012601901   0.01130624            2 
  492000   0.47821641    -8.373414    74.253248   0.01257677  0.011270936            5 
  493000   0.48537643    -8.379404    74.285352  0.012556686  0.011235744            4 
  494000   0.47641756   -8.3701475    74.111875  0.012502003  0.011200687            4 
  495000   0.48301752   -8.3743071    74.228972   0.01249646  0.011165786            2 
  496000   0.48475059   -8.4033678     74.14601  0.012457327  0.011130996            2 
  497000   0.47480698   -8.3750396    74.171832  0.012436592  0.011096311            2 
  498000   0.47041555   -8.3875682    74.212613  0.012418443  0.011061787            5 
  499000   0.45781319   -8.4056937     74.17804  0.012387782  0.011027407            4 
  500000   0.46611781   -8.3868683    74.177923  0.012362987   0.01099313            4 
  501000   0.46664833   -8.3904074    74.256678   0.01235141  0.010958985            5 
  502000   0.47433884   -8.3917462    74.178593  0.012313843  0.010924978            7 
  503000   0.45387466   -8.3892903     74.18752  0.012290842  0.010891109            3 
  504000   0.46283166    -8.400219    74.159659  0.012261848  0.010857386            3 
  505000   0.45743781   -8.3940452    74.161284  0.012237836  0.010823746            4 
  506000   0.46532631    -8.408457    74.256595  0.012229347  0.010790275            2 
  507000   0.45592332   -8.4180584    74.145489  0.012186964   0.01075699            4 
  508000   0.45425786   -8.4103518    74.094985  0.012154689  0.010723791            4 
  509000   0.44221262   -8.4163537    74.164358  0.012142167  0.010690755           10 
  510000   0.45289088   -8.4086461    74.041672  0.012098312  0.010657786            2 
  511000   0.45893678   -8.4092827    74.076702  0.012080349  0.010624921            4 
  512000   0.45377545   -8.4266026    74.120427  0.012063872   0.01059223            4 
Loop time of 1166.91 on 48 procs for 500000 steps with 4000 atoms

Performance: 74041.696 tau/day, 428.482 timesteps/s
99.4% CPU use with 48 MPI tasks x no OpenMP threads

MPI task timing breakdown:
Section |  min time  |  avg time  |  max time  |%varavg| %total
---------------------------------------------------------------
Pair    | 71.218     | 77.36      | 83.415     |  36.9 |  6.63
Neigh   | 7.6265     | 8.0093     | 8.4504     |   6.5 |  0.69
Comm    | 70.888     | 78.218     | 84.831     |  40.4 |  6.70
Output  | 0.85128    | 0.85169    | 0.86034    |   0.1 |  0.07
Modify  | 988.79     | 992.68     | 995.55     |   4.8 | 85.07
Other   |            | 9.789      |            |       |  0.84

Nlocal:        83.3333 ave          89 max          77 min
Histogram: 1 1 5 9 7 9 2 5 4 5
Nghost:        1992.46 ave        2017 max        1977 min
Histogram: 4 4 8 8 11 5 5 1 1 1
Neighs:        12746.6 ave       14083 max       11563 min
Histogram: 2 7 4 7 5 10 6 1 3 3
FullNghs:      25493.0 ave       27283 max       23341 min
Histogram: 1 1 4 10 7 8 3 5 3 6

Total # of neighbors = 1223666
Ave neighs/atom = 305.91650
Neighbor list builds = 26846
Dangerous builds = 0

#clear
#
#next RN
#
#jump SELF
Total wall time: 0:19:30
