
units lj                  # Use reduced LJ style units
atom_style atomic         # Uncharged point particles
atom_modify map hash      # Needed for indexing of clusters etc
                          # Used to be able to find where atoms are in relation to each other.

lattice fcc 1.0 spacing 1 1 1
Lattice spacing in x,y,z = 1.5874011 1.5874011 1.5874011
region box block 0 10 0 10 0 10 units lattice
create_box 2 box
Created orthogonal box = (0.0000000 0.0000000 0.0000000) to (15.874011 15.874011 15.874011)
  3 by 4 by 4 MPI processor grid
create_atoms 1 box
Created 4000 atoms
  using lattice units in orthogonal box = (0.0000000 0.0000000 0.0000000) to (15.874011 15.874011 15.874011)
  create_atoms CPU = 0.015 seconds
set type 1 type/fraction 2 0.05 78393
Setting atom values ...
  207 settings made for type/fraction
mass 1 1.0
mass 2 1.0
pair_style lj/cut  3.5
pair_modify tail  yes
pair_coeff 1  1  1.0  1.0   # Intearaction between 1 and 1 set with epsilon = 1 and sigma = 1
pair_coeff 1  2  1.5  0.8
pair_coeff 2  2  0.5  0.88

write_data data.0
System init for write_data ...
Neighbor list info ...
  update every 1 steps, delay 10 steps, check yes
  max neighbors/atom: 2000, page size: 100000
  master list distance cutoff = 3.8
  ghost atom cutoff = 3.8
  binsize = 1.9, bins = 9 9 9
  1 neighbor lists, perpetual/occasional/extra = 1 0 0
  (1) pair lj/cut, perpetual
      attributes: half, newton on
      pair build: half/bin/atomonly/newton
      stencil: half/bin/3d
      bin: standard
WARNING: Not all mixed pair coeffs generated from mixing. Use write_data with 'pair ij' option to store all pair coeffs. (../write_data.cpp:312)


#############################
#   M E L T   S Y S T E M   #
#############################

velocity all create 2.4 6229865 mom yes dist gaussian # Assign velocities
                                                    # Temperature 2.4, random number seed, zero linear momentum
                                                                                # Gaussian distribution

timestep 0.002   # simulation timestep
thermo 1000       # output thermodynamic data every 1000 steps bf 100

# Define a fix  in this case with index 1 applied to all
# particles in the simulation. This fix is for simulations
# in the anisotropic NPT ensemble. Note that we use the MTK
# correction.
fix 1 all npt temp 2.4 2.4 0.1 iso 5.68 5.68 0.5 mtk yes tchain 5 pchain 5 # Use NPT ensemble
                                                                         # Set temperature and pressure and damping
                                                                         # Numbers of thermostats in chain and in barostat
run 10000          # run for 10000 steps
Per MPI rank memory allocation (min/avg/max) = 3.642 | 3.644 | 3.648 Mbytes
Step Temp E_pair E_mol TotEng Press Volume 
       0          2.4   -8.0440018            0   -4.4449018    -2.648783         4000 
    1000    2.3996174   -4.5183278            0  -0.91980162    5.4995516    5042.6351 
    2000    2.4027378   -4.4293635            0  -0.82615773    5.7544975     5064.142 
    3000    2.3867844    -4.448494            0  -0.86921242    5.3328775    5104.8234 
    4000    2.3479737   -4.4597084            0  -0.93862839    5.6542945     5046.393 
    5000     2.366991   -4.4808309            0   -0.9312321    5.6162377    5050.5394 
    6000    2.3841813   -4.5297299            0  -0.95435205    5.4916309    5035.0247 
    7000    2.3704523   -4.4960869            0  -0.94129738    5.5470089     5045.244 
    8000     2.393484   -4.4441047            0  -0.85477619    5.9256089    5025.9942 
    9000     2.423214   -4.4515493            0  -0.81763696    5.8597399    5027.2111 
   10000    2.4181331   -4.5398654            0  -0.91357263     5.360442    5050.0431 
Loop time of 2.16555 on 48 procs for 10000 steps with 4000 atoms

Performance: 797950.087 tau/day, 4617.767 timesteps/s
99.6% CPU use with 48 MPI tasks x no OpenMP threads

MPI task timing breakdown:
Section |  min time  |  avg time  |  max time  |%varavg| %total
---------------------------------------------------------------
Pair    | 0.86929    | 0.9461     | 1.0631     |   4.2 | 43.69
Neigh   | 0.16916    | 0.17968    | 0.20283    |   1.6 |  8.30
Comm    | 0.63308    | 0.76196    | 0.86657    |   5.9 | 35.19
Output  | 0.00024931 | 0.00025347 | 0.00031334 |   0.0 |  0.01
Modify  | 0.20922    | 0.26298    | 0.32522    |   6.3 | 12.14
Other   |            | 0.01457    |            |       |  0.67

Nlocal:        83.3333 ave          95 max          76 min
Histogram: 3 3 10 11 10 3 5 2 0 1
Nghost:        1414.46 ave        1437 max        1376 min
Histogram: 1 0 4 6 3 4 8 8 9 5
Neighs:        7553.40 ave        8888 max        6691 min
Histogram: 2 6 12 7 8 3 5 3 1 1

Total # of neighbors = 362563
Ave neighs/atom = 90.640750
Neighbor list builds = 908
Dangerous builds = 238

# Equilibrate just above the melting temperature to avoid step fn in T

fix 1 all npt temp 1.25 1.25 0.1 iso 5.68 5.68 0.5 mtk yes tchain 5 pchain 5
run 2000
Per MPI rank memory allocation (min/avg/max) = 3.643 | 3.646 | 3.650 Mbytes
Step Temp E_pair E_mol TotEng Press Volume 
   10000    2.4181331   -4.5398654            0  -0.91357263     5.360442    5050.0431 
   11000    1.2645253   -6.0335747            0    -4.137261    5.5596405    4170.8652 
   12000    1.2511986   -5.9988883            0   -4.1225595    5.9335696    4154.7376 
Loop time of 0.474252 on 48 procs for 2000 steps with 4000 atoms

Performance: 728726.996 tau/day, 4217.170 timesteps/s
99.6% CPU use with 48 MPI tasks x no OpenMP threads

MPI task timing breakdown:
Section |  min time  |  avg time  |  max time  |%varavg| %total
---------------------------------------------------------------
Pair    | 0.20605    | 0.21973    | 0.24549    |   1.5 | 46.33
Neigh   | 0.031608   | 0.033      | 0.036884   |   0.5 |  6.96
Comm    | 0.14492    | 0.16408    | 0.18044    |   2.0 | 34.60
Output  | 5.6697e-05 | 5.8268e-05 | 7.2211e-05 |   0.0 |  0.01
Modify  | 0.042315   | 0.05277    | 0.064933   |   2.3 | 11.13
Other   |            | 0.004614   |            |       |  0.97

Nlocal:        83.3333 ave          92 max          75 min
Histogram: 1 1 6 5 12 12 5 4 1 1
Nghost:        1605.60 ave        1627 max        1583 min
Histogram: 2 1 5 10 4 8 7 7 1 3
Neighs:        9164.88 ave       10372 max        8344 min
Histogram: 3 4 6 11 9 6 7 1 0 1

Total # of neighbors = 439914
Ave neighs/atom = 109.97850
Neighbor list builds = 142
Dangerous builds = 15

#############################
# L I N E A R  Q U E N C H  #
#############################

# Define solid atoms. This closely follows ten Wolde  Ruiz-Montero and Frenkel  Faraday Discuss  1996  104  93-110
# Compute components of the per-atom q6 vector
compute q6 all orientorder/atom degrees 1 6 components 6 nnn NULL cutoff 1.3 # compute the Q6 parameter.
                                                                             # Use all neighbours within 1.3 unit cell.

# get number of connections
compute coord_number all coord/atom orientorder q6 0.5

# An atom is solid if it has 8 or more connections (of a possible 14)
variable is_solid atom c_coord_number>=8
group solid dynamic all var is_solid    # Must be dynamic to update
dynamic group solid defined

# do clustering
compute cluster solid cluster/atom 1.3 # Create a cluster where all atoms within are solid and max 1.3 units from another member

# define chunks one chunk per cluster
compute clus_chunks solid chunk/atom c_cluster nchunk every compress yes  # Says which atoms are in which chunk

# count the size of each chunk
compute size_chunks solid property/chunk clus_chunks count


# Find the maximum entry in the vector of chunk sizes
variable max_n equal max(c_size_chunks)


# Thermo style which includes this variable
# thermo_style custom step temp pe vol v_max_n

thermo ${N}  # Print the thermo information every 100 steps
thermo 1000  

# Reset the npt fix at a lower temperature (below freezing)
fix 1  all npt temp  ${temp} ${temp}  0.1  iso  5.68  5.68  0.5  mtk yes tchain  5  pchain  5
fix 1  all npt temp  0.45 ${temp}  0.1  iso  5.68  5.68  0.5  mtk yes tchain  5  pchain  5
fix 1  all npt temp  0.45 0.45  0.1  iso  5.68  5.68  0.5  mtk yes tchain  5  pchain  5

dump dmp2 all dcd ${N} traj.dcd
dump dmp2 all dcd 1000 traj.dcd


compute msd all msd com yes
variable twopoint equal c_msd[4]/6/(step*dt+1.0e-6)
fix 9 all vector 10 c_msd[4]
variable fit equal slope(f_9)/6/(10*dt)
thermo_style custom step temp pe c_msd[4] v_twopoint v_fit v_max_n

fix 1 all npt temp 1.25 ${temp} 0.1 iso 5.68 5.68 0.5 mtk yes tchain 5 pchain 5
fix 1 all npt temp 1.25 0.45 0.1 iso 5.68 5.68 0.5 mtk yes tchain 5 pchain 5
run 2000000 # 5000000  # Run for this many steps
Neighbor list info ...
  update every 1 steps, delay 10 steps, check yes
  max neighbors/atom: 2000, page size: 100000
  master list distance cutoff = 3.8
  ghost atom cutoff = 3.8
  binsize = 1.9, bins = 9 9 9
  4 neighbor lists, perpetual/occasional/extra = 1 3 0
  (1) pair lj/cut, perpetual
      attributes: half, newton on
      pair build: half/bin/atomonly/newton
      stencil: half/bin/3d
      bin: standard
  (2) compute orientorder/atom, occasional
      attributes: full, newton on
      pair build: full/bin/atomonly
      stencil: full/bin/3d
      bin: standard
  (3) compute coord/atom, occasional
      attributes: full, newton on
      pair build: full/bin/atomonly
      stencil: full/bin/3d
      bin: standard
  (4) compute cluster/atom, occasional
      attributes: full, newton on
      pair build: full/bin/atomonly
      stencil: full/bin/3d
      bin: standard
Per MPI rank memory allocation (min/avg/max) = 9.740 | 9.744 | 9.748 Mbytes
Step Temp PotEng c_msd[4] v_twopoint v_fit v_max_n 
   12000    1.2511986   -5.9988883 3.2777171e-30 2.2761923e-32 8.3333333e+20            2 
   13000    1.2576233   -6.0309462   0.58020958  0.003719292  0.048401839            3 
   14000    1.2431673   -6.0571119    1.1192755  0.006662354  0.046411746            3 
   15000    1.2367361   -5.9973882    1.6684225 0.0092690137  0.045344211            3 
   16000    1.2643114   -6.0160915    2.2721652  0.011834193  0.046409892            4 
   17000    1.2305369     -6.07159    2.8038485  0.013744355  0.046818797            4 
   18000    1.2378913   -6.0372988    3.3167195  0.015355182  0.046487857            3 
   19000     1.230513    -6.043469    3.8619577  0.016938411  0.045969253            5 
   20000    1.2526936    -6.038136    4.4261339  0.018442224  0.045951843            1 
   21000     1.257771   -6.0368934     4.919998  0.019523801  0.045631336            3 
   22000    1.2577602   -6.0253361    5.4399041  0.020605697  0.045290114            2 
   23000    1.2465922   -6.0325588    5.9182661  0.021442993  0.045118101            6 
   24000    1.2611512   -6.0325189    6.4702918   0.02246629  0.044896239            1 
   25000    1.2252699   -6.0707501    7.0633754  0.023544584  0.044798627            2 
   26000    1.2511808   -6.0454765    7.6470115  0.024509652  0.044835112            5 
   27000    1.2411944   -6.0367455    8.3036632   0.02562859  0.045044543            3 
   28000    1.2378245   -6.0271193    8.7847299  0.026145029  0.045267296            2 
   29000    1.2533775   -6.0293655    9.3435615  0.026849314  0.045380955            3 
   30000    1.2452085   -6.0053445     9.847316  0.027353655  0.045480479            2 
   31000     1.224592    -6.038754    10.452495  0.028098104  0.045478343            3 
   32000    1.2343163    -6.060255    11.029161  0.028721774  0.045495378            3 
   33000    1.2322803   -6.0528842    11.573065  0.029224912  0.045558675            2 
   34000    1.2501379   -6.0520192    12.197162  0.029895004  0.045663819            3 
   35000    1.2465195   -6.0651923    12.726758  0.030301805  0.045741819            2 
   36000    1.2496505   -6.0288952    13.383582  0.030980514  0.045863593            2 
   37000    1.2329322    -6.057784    13.955282  0.031430814  0.045984946            2 
   38000     1.237041   -6.0628169    14.453196  0.031695606   0.04610931            3 
   39000    1.2394642   -6.0456674    14.946848  0.031937709  0.046153392            2 
   40000    1.2240808   -6.0606844    15.488831  0.032268397  0.046162546            3 
   41000    1.2417794   -6.0528158    16.032547  0.032586477  0.046158841            3 
   42000    1.2683326   -6.0242207    16.729233  0.033192922  0.046165422            2 
   43000    1.2583397   -6.0574656    17.107582  0.033154228  0.046202232            2 
   44000    1.2676543   -6.0607489    17.570228  0.033276947  0.046202621            4 
   45000    1.2465343   -6.0335725      18.2003  0.033704258  0.046189121            3 
   46000    1.2140663   -6.0094132    18.747004  0.033961964  0.046152673            6 
   47000    1.2479582   -6.0270997    19.304696  0.034228184  0.046124703            2 
   48000    1.2233931   -6.0542043    19.779695  0.034339748  0.046090738            3 
   49000    1.2309895   -6.0103868    20.302399  0.034527889  0.046050957            2 
   50000    1.2301369   -6.0629522    20.652359  0.034420598  0.045992218            2 
   51000    1.2446753   -6.0100959    21.183618  0.034613755   0.04589547            2 
   52000     1.249492   -6.0439473    21.651593  0.034698066  0.045797115            3 
   53000    1.2405329   -6.0515886    22.351932  0.035144546  0.045712052            2 
   54000    1.2431733    -6.060253    22.805163  0.035193152  0.045639634            3 
   55000    1.2649174   -6.0762659    23.437139  0.035510816  0.045575499            3 
   56000    1.2747386   -6.0325526    23.859634  0.035505407  0.045510492            3 
   57000    1.2395038   -6.0309415    24.481205  0.035791235   0.04544852            4 
   58000    1.2228161    -6.050261     24.98945  0.035904382  0.045409254            2 
   59000    1.2301857    -6.047192    25.592658  0.036147822  0.045379582            2 
   60000    1.1999379   -6.0210433      26.0982  0.036247499  0.045340522            2 
   61000    1.2369654   -6.0603352    26.615809  0.036360395  0.045301074            3 
   62000    1.1968263    -6.078567    27.152011  0.036494638  0.045277332            3 
   63000    1.2204791   -6.0800407    27.630744  0.036548603  0.045252243            6 
   64000    1.2258266   -6.0452426    28.259963  0.036796826   0.04522692            3 
   65000    1.2025676   -6.0611381    28.820153  0.036948914  0.045216526            3 
   66000    1.1877147   -6.0812206    29.255553  0.036938829  0.045197156            3 
   67000    1.2147503   -6.0608687    29.882666  0.037167495   0.04517508            7 
   68000    1.2086304    -6.043524    30.443136  0.037307764  0.045161898            2 
   69000    1.2286831   -6.0539375    30.837666  0.037243558  0.045134956            3 
   70000    1.2158824   -6.0312388    31.364302  0.037338454  0.045102749            3 
   71000    1.2352706   -6.0382713    31.857003  0.037390849  0.045071614            3 
   72000      1.26444    -6.058462    32.362624   0.03745674  0.045038527            3 
   73000     1.215941   -6.0290571     32.82747  0.037474281  0.045008214            3 
   74000    1.2025706   -6.0940004    33.316905  0.037519037  0.044977723            5 
   75000    1.2198647   -6.0457356    33.953633  0.037726259  0.044936968            3 
   76000    1.2342942   -6.0657032    34.221086   0.03752312   0.04488243            5 
   77000    1.2229704   -6.0227522    34.888158  0.037757747   0.04482764            2 
   78000    1.2305095   -6.0398906     35.66401  0.038102574  0.044796751            3 
   79000    1.2216015   -6.0681851      36.0594  0.038037342  0.044781851            2 
   80000      1.22458   -6.0767679    36.605535  0.038130766  0.044766613            3 
   81000    1.2209458   -6.0960238    37.129391  0.038198962  0.044748375            2 
   82000    1.2405987   -6.0179658    37.648978  0.038261156  0.044727786            3 
   83000    1.2250571   -6.1086369    38.037073  0.038189832   0.04470503            3 
   84000    1.2273124   -6.0835573    38.765149  0.038457489  0.044691852            3 
   85000    1.2145857    -6.076461     39.36941  0.038597461  0.044693115            4 
   86000    1.2362468    -6.064325    40.054232   0.03881224  0.044701267            2 
   87000    1.2158009   -6.1057144    40.602419  0.038891206  0.044703396            2 
   88000     1.207438   -6.1029371    41.006416  0.038831833  0.044707565            4 
   89000    1.1921866   -6.0441789    41.636489  0.038985476  0.044709352            3 
   90000    1.2038567   -6.0289934    42.098161  0.038979779  0.044703377            3 
   91000    1.2049846   -6.0704785    42.540627  0.038956618  0.044699552            3 
   92000    1.2373036   -6.1054507    42.909463  0.038867267  0.044690731            2 
   93000    1.2294561   -6.0711548    43.478655  0.038959368    0.0446764            2 
   94000    1.2113136   -6.0845691    44.039123  0.039041775  0.044660054            2 
   95000    1.2185654   -6.0855268    44.837954  0.039331538  0.044655551            2 
   96000    1.2107905   -6.0967516     45.38137   0.03939355  0.044659495            5 
   97000    1.2468106   -6.0854009    45.470868  0.039064319   0.04465581            3 
   98000    1.2294461   -6.1062047    46.041008  0.039150517  0.044639013            2 
   99000    1.1968283   -6.0815433    46.280054  0.038956274  0.044611026            7 
  100000    1.2272399   -6.0520338    46.978788   0.03914899  0.044578774            2 
  101000    1.2165109   -6.0939359    47.363339  0.039078662   0.04454725            2 
  102000     1.207711   -6.1053383    47.873806  0.039112587  0.044518467            5 
  103000    1.2379537   -6.0464489    48.563723  0.039291037   0.04448571            2 
  104000    1.2202724   -6.0733332    49.019129  0.039278148   0.04445771            3 
  105000    1.2203693   -6.0522353    49.551884  0.039326892  0.044427645            4 
  106000    1.2291692   -6.1066434    49.959872  0.039276629  0.044403988            2 
  107000    1.2176686   -6.0749109    50.435049  0.039279633  0.044381181            2 
  108000    1.2104472   -6.0892196    50.910973  0.039283158  0.044354287            2 
  109000    1.2079104   -6.0916083    51.283332   0.03920744  0.044324682            4 
  110000    1.2060846   -6.0884019    51.998348  0.039392688  0.044299969            2 
  111000    1.1989604   -6.0765731    52.450177  0.039377009  0.044275893            2 
  112000    1.2203694   -6.0970359    52.967325  0.039410212   0.04424166            1 
  113000    1.2353903   -6.1329931     53.51549  0.039465701  0.044211759            4 
  114000    1.2221327   -6.0754605    54.012125  0.039482547    0.0441852            3 
  115000    1.2114335   -6.1223654    54.272428  0.039327847  0.044153955            4 
  116000    1.2201929   -6.1001847    54.923909  0.039456831  0.044120785            3 
  117000    1.2182995    -6.094394    55.220656  0.039330952  0.044087334            2 
  118000    1.2087313   -6.1131288    55.428264  0.039144254  0.044049469            4 
  119000    1.2167225   -6.1059221    56.049215   0.03925015  0.044005705            6 
  120000    1.1901287   -6.0913027    56.693847  0.039370727  0.043962705            2 
  121000    1.2319422   -6.1335686    57.160233  0.039366552  0.043923987            2 
  122000     1.186901   -6.0973604     57.82271  0.039496387  0.043888096            3 
  123000    1.2289585   -6.1183344    58.086675  0.039354116  0.043857873            2 
  124000    1.2331453   -6.1094352    58.545895   0.03934536  0.043821982            3 
  125000     1.196028   -6.0534243    59.601027  0.039734018  0.043794247            4 
  126000    1.2023013   -6.0896633    59.928295  0.039635116  0.043770427            7 
  127000     1.206681     -6.07178    60.389986  0.039625975  0.043747219            6 
  128000    1.1913355   -6.0846721    61.124963  0.039794897  0.043728461            4 
  129000    1.2233645   -6.0781676    61.488838  0.039721471   0.04370804            2 
  130000    1.2052494   -6.1103422    61.965026   0.03972117  0.043690193            6 
  131000    1.1999082   -6.0899932    62.161374  0.039542859  0.043662433            3 
  132000    1.2104431   -6.1349422    62.896163  0.039707173  0.043637653            3 
  133000    1.2002029   -6.0849678    63.430548  0.039743451  0.043616061            3 
  134000    1.1697551   -6.0774073    63.670546   0.03959611  0.043592761            4 
  135000    1.2079763   -6.1054293     64.17408  0.039613629  0.043563003            3 
  136000    1.2249779   -6.1083104    64.592353  0.039578647  0.043533858            6 
  137000    1.2090438   -6.0987287    65.314227  0.039728848  0.043504272            2 
  138000    1.2145779   -6.1096803    65.548192  0.039582241  0.043480169            4 
  139000    1.1941785   -6.0839053    66.269898  0.039730155    0.0434564            4 
  140000    1.2040345   -6.0875876    66.669919  0.039684475  0.043430978            4 
  141000    1.2062679   -6.0818492      67.1393  0.039680437  0.043405186            3 
  142000     1.193189   -6.1231004    67.591879  0.039666596  0.043377636            4 
  143000    1.2202568   -6.0833323    68.000998  0.039627621  0.043350666            3 
  144000    1.2003326   -6.0929679    68.474751  0.039626592   0.04331973            4 
  145000    1.2193305   -6.1125569    68.541682  0.039391771  0.043288604            4 
  146000    1.1845612   -6.0707607    69.328334  0.039570967  0.043258611            4 
  147000    1.2135645   -6.1249647    69.837397  0.039590361  0.043230865            2 
  148000    1.1655633   -6.1046592    70.472202  0.039680294  0.043205217            6 
  149000    1.2087459   -6.0790858    70.821969  0.039609602  0.043179922            6 
  150000    1.1859971   -6.1146187    71.423597  0.039679776  0.043152599            3 
  151000    1.1614313    -6.116764    71.933572  0.039698439    0.0431291            3 
  152000    1.1800694   -6.1101951    72.232039  0.039600899  0.043101631            3 
  153000    1.2033248   -6.1316673     72.81567  0.039659951  0.043075223            5 
  154000    1.2050152   -6.0865997    72.963757  0.039482553  0.043048411            5 
  155000    1.2019963   -6.1244087    73.837906  0.039697799  0.043023185            3 
  156000    1.1575033   -6.1151986    74.217487  0.039646093  0.042997475            6 
  157000    1.1723814   -6.0895153    74.907746   0.03975995  0.042974566            5 
  158000    1.1751184   -6.1225017    75.258462  0.039693281  0.042953913            6 
  159000     1.186216   -6.1222006    75.938228   0.03979991  0.042933569            2 
  160000    1.1901754   -6.1591693    76.921546  0.040063305  0.042917783            3 
  161000      1.22462   -6.1353774    76.892192  0.039799271  0.042900625            5 
  162000     1.199085   -6.1024404    77.279201  0.039752676  0.042882469            3 
  163000    1.2011934   -6.1313908    78.230107  0.039994942  0.042866707            3 
  164000    1.2091891   -6.1202395    78.731898  0.040006046  0.042853475            3 
  165000    1.1755647   -6.1319304    79.407076  0.040104584  0.042842214            5 
  166000    1.1740837    -6.108158    79.573716  0.039946644  0.042828686            4 
  167000    1.2200089    -6.133984    79.959831  0.039900115  0.042810504            5 
  168000    1.1904738   -6.1222643    80.432401  0.039897024  0.042798005            3 
  169000    1.1668115   -6.1216931    81.030665  0.039955949  0.042784521            3 
  170000    1.1703407   -6.1618349    81.748732  0.040072908  0.042770536            2 
  171000    1.1865287   -6.1377416    81.682717  0.039806392  0.042754881            2 
  172000    1.1924329   -6.0942783    82.347112  0.039896856  0.042737392            4 
  173000    1.1856036   -6.1130534    82.480322  0.039730406  0.042713406            3 
  174000    1.1736326    -6.091495    82.979368  0.039741076  0.042690866            3 
  175000    1.2028453    -6.162815    83.369582  0.039699801  0.042663331            2 
  176000    1.1629704    -6.148738      83.6727  0.039617755  0.042640997            2 
  177000    1.1858781   -6.1031401    84.486015  0.039776843    0.0426173            1 
  178000    1.1714647   -6.1587361    84.722948  0.039664302  0.042595668            3 
  179000     1.197181   -6.0968214     85.07125  0.039604865  0.042572532            3 
  180000    1.2020236   -6.1495892    85.703557  0.039677573   0.04254632            3 
  181000    1.1581471   -6.1510808    86.275218  0.039721555  0.042519545            5 
  182000    1.1784494   -6.1106149    86.784013  0.039736269  0.042494905            2 
  183000    1.1803869    -6.124326    87.097268   0.03966178  0.042471978            4 
  184000    1.1930313   -6.1117714     87.31597  0.039545276  0.042449358            4 
  185000    1.2007359   -6.1348623     87.98348  0.039632198  0.042422021            4 
  186000    1.1750074   -6.1647239    87.763719  0.039320663  0.042391159            3 
  187000    1.1631654   -6.1390041    88.485356  0.039431977  0.042358888            2 
  188000    1.1473926    -6.133283    89.086287  0.039488602  0.042328125            5 
  189000    1.1734605   -6.1259593    89.637267  0.039522604   0.04229825            2 
  190000    1.1650221   -6.1427138    89.763756  0.039370068  0.042267807            3 
  191000      1.18437    -6.146053    90.239752  0.039371619  0.042237182            2 
  192000    1.1953325   -6.1272962    91.153144  0.039562996  0.042210032            3 
  193000    1.1663565   -6.1673069    91.342519  0.039439775  0.042185398            5 
  194000    1.1686444   -6.1584061     91.86784   0.03946213  0.042157884            5 
  195000    1.1790226   -6.1488615    92.392936  0.039484161  0.042130922            2 
  196000     1.173183    -6.154148    92.745786  0.039432732  0.042103967            2 
  197000    1.1915401   -6.1548733    93.301592  0.039467678  0.042076993            2 
  198000    1.1802234    -6.134643    93.519878  0.039360218   0.04204943            2 
  199000    1.1689467   -6.1343093    94.082416  0.039397997  0.042021015            2 
  200000    1.1937803   -6.1565825    94.746642  0.039477767  0.041993898            3 
  201000    1.1510176   -6.1310678    95.141953  0.039445254  0.041968691            3 
  202000    1.1726521   -6.1936152    95.570873  0.039426928  0.041943571            3 
  203000    1.1634237   -6.1351039    96.160691  0.039474832  0.041919158            2 
  204000     1.199305   -6.1402936    96.733895   0.03951548  0.041895811            2 
  205000     1.193552   -6.1410509    96.608101  0.039271586  0.041870808            2 
  206000    1.1800001     -6.14432    97.307651  0.039363936  0.041845828            4 
  207000     1.156127   -6.1284199    97.856189  0.039394601  0.041821527            7 
  208000    1.1505985   -6.1151388    98.504502  0.039464945  0.041796849            3 
  209000     1.183008   -6.1258212    98.774736  0.039383866   0.04177301            2 
  210000    1.1798243   -6.1515492    99.048625   0.03930501  0.041748588            2 
  211000    1.1448553   -6.1627071    99.512323  0.039301865  0.041722697            3 
  212000     1.135966   -6.1873469    99.862988  0.039254319  0.041697543            4 
  213000    1.1813861   -6.1666458    100.49259  0.039316351  0.041670574            5 
  214000    1.1943164   -6.1247727       101.11  0.039373051  0.041644622            3 
  215000    1.1626855   -6.1921806    101.18535  0.039219129  0.041619225            4 
  216000    1.1706751   -6.1429341    101.65743  0.039219686  0.041595303            4 
  217000    1.1264299   -6.1949481    102.28621  0.039280418   0.04157085            2 
  218000    1.1677681   -6.1624941    102.66819  0.039246251  0.041546387            2 
  219000    1.1444453   -6.1325911    103.44458  0.039362473   0.04152372            2 
  220000    1.1644269   -6.1310165     103.4525  0.039186552   0.04150249            5 
  221000    1.1419452   -6.1319417    104.33606  0.039342405  0.041479588            3 
  222000    1.1627523   -6.1408983    104.85109  0.039358517  0.041458601            7 
  223000    1.1589567   -6.1629641    104.85388  0.039183063  0.041437604            4 
  224000    1.1669418   -6.1547764    105.69512  0.039321102  0.041415435            5 
  225000    1.1829469   -6.1680504    105.44004  0.039051867  0.041391347            3 
  226000    1.1637749   -6.1762907    106.53587  0.039283139  0.041368081            2 
  227000    1.1959255   -6.1605889    106.90183   0.03924443   0.04134773            5 
  228000    1.1706849   -6.1738685    107.26351  0.039204501  0.041326854            3 
  229000    1.1570386   -6.1686344    107.76933   0.03921737  0.041303614            3 
  230000    1.1744821   -6.1707485    108.30622  0.039241385  0.041281561            2 
  231000    1.1573839   -6.1814356    108.81118  0.039253671  0.041262044            3 
  232000    1.1740883   -6.1850795    109.27571  0.039251334  0.041241254            3 
  233000     1.209365   -6.1274689    110.32113  0.039456772  0.041223587            5 
  234000    1.1578609    -6.135856     110.1754  0.039236252  0.041205335            5 
  235000    1.1828603   -6.2079324    110.12751  0.039052309  0.041184778            3 
  236000    1.1786257   -6.1559092    110.79268  0.039121708  0.041163483            4 
  237000    1.1584144   -6.1990371    111.14239  0.039079604  0.041142623            3 
  238000    1.1752636   -6.2082101    111.61529  0.039080985   0.04111932            2 
  239000    1.1354087   -6.1949552    111.74946  0.038964247  0.041094697            1 
  240000    1.1714749   -6.1818355    111.71801  0.038790976  0.041068181            4 
  241000    1.1468002   -6.1900669    112.05433   0.03874631  0.041040389            6 
  242000    1.1553158   -6.1939647    112.72473  0.038817054  0.041013928            2 
  243000     1.162472   -6.1778488    113.31962  0.038861322  0.040987463            3 
  244000    1.1500744   -6.2017368    113.57083  0.038787851  0.040958587            4 
  245000    1.1706714   -6.1509516    114.48797  0.038941485  0.040930639            4 
  246000    1.1415996   -6.1705877    114.91303  0.038927178  0.040906137            3 
  247000    1.1762712   -6.1695968    114.99423  0.038796973  0.040881926            6 
  248000    1.1638622   -6.2406201    115.44085  0.038790607  0.040854753            6 
  249000    1.1679717   -6.2307866    115.32096  0.038594698  0.040826884            4 
  250000    1.1438589   -6.2054054    116.09627  0.038698756  0.040798054            3 
  251000    1.1678491     -6.16877    116.35714  0.038631189  0.040769939           12 
  252000    1.1667887   -6.1977155    116.78069  0.038617954  0.040741803            4 
  253000    1.1668088   -6.1674428    116.99493  0.038535879  0.040713413            3 
  254000    1.1278601   -6.2100313    117.66526  0.038604089  0.040685675            5 
  255000    1.1536519   -6.1733041    118.12168  0.038601857  0.040659363            5 
  256000    1.1872924   -6.2017637    118.30928  0.038512134  0.040632065            3 
  257000    1.1484711   -6.2129912    118.70277  0.038489872  0.040602858            2 
  258000    1.1611391    -6.230861    119.13139  0.038479132  0.040574087            3 
  259000     1.170543   -6.1632581    119.91721  0.038583402  0.040547102            2 
  260000    1.1598859   -6.1745646    120.49957  0.038621656  0.040521377            8 
  261000    1.1278344   -6.2129105    120.48664  0.038469552  0.040495339            4 
  262000    1.1744484    -6.186664    120.72807  0.038399513  0.040468384            5 
  263000    1.1282466   -6.1966939    121.34702  0.038449627  0.040441493            6 
  264000    1.1277941   -6.2076078    121.97086  0.038500902  0.040415003            5 
  265000    1.1455444   -6.1831835    122.86584  0.038637057  0.040389664            3 
  266000    1.1612513   -6.1853717    123.44707  0.038673894  0.040366783            4 
  267000    1.1378677   -6.1725917    123.58258  0.038571342  0.040344479            8 
  268000    1.1420931   -6.1980364    124.63852   0.03875576  0.040324564            2 
  269000    1.1484486   -6.1917864    124.24938  0.038491133  0.040303665            3 
  270000    1.1524825   -6.1789096    125.04725   0.03859483  0.040281497            2 
  271000    1.1448425   -6.1907751    125.06911  0.038459135  0.040259816            2 
  272000    1.1473892   -6.1963313    126.02006  0.038609087  0.040238801            7 
  273000    1.1254505      -6.2445    125.50282  0.038309773  0.040215125            4 
  274000    1.1485871   -6.2108911     126.5912  0.038500972  0.040191648            3 
  275000    1.1307308   -6.2105014    126.88738  0.038450722  0.040169112           10 
  276000     1.155881   -6.1692831    126.93464  0.038325677  0.040146785            4 
  277000     1.126265    -6.215824    128.00978  0.038510763  0.040124778            3 
  278000     1.149963    -6.213372    128.74148  0.038591571  0.040103377            3 
  279000    1.1389905   -6.2028291    128.96005  0.038518533  0.040082548            4 
  280000    1.1533654   -6.2013062    129.13804   0.03843394  0.040063086            4 
  281000    1.1499784   -6.2201907    129.78846  0.038490052  0.040042169            2 
  282000    1.1185559   -6.1900729     130.2459   0.03848874  0.040024136            5 
  283000    1.1175088   -6.2027241    131.31073  0.038666293  0.040006239            6 
  284000    1.1460618    -6.231122    131.62568  0.038622559  0.039990453            2 
  285000     1.108018   -6.2211564    132.31604  0.038688901  0.039974109            4 
  286000    1.1189258    -6.197836    132.99538  0.038751567   0.03995981            2 
  287000    1.1352437   -6.2362822    133.05967  0.038635212  0.039944114            3 
  288000    1.1503906   -6.2392474    133.97304  0.038765347  0.039929739            3 
  289000    1.1305278   -6.2462983     133.9999  0.038638955  0.039914037            5 
  290000    1.1473004   -6.2120452    135.07578   0.03881488  0.039900031           10 
  291000    1.1514217   -6.2050666    135.17139  0.038708874   0.03988757            5 
  292000    1.1213491   -6.2235412    135.38082  0.038636079   0.03987472            6 
  293000    1.1293528   -6.2412132    136.07769  0.038702414  0.039861455            4 
  294000    1.1526507   -6.2235737    136.40323  0.038663047  0.039848475            6 
  295000    1.1499538   -6.2289164    137.30004  0.038785321  0.039834303            4 
  296000    1.1339817   -6.2009781    137.31181  0.038657605  0.039820789            2 
  297000    1.1408204    -6.232293    137.60084  0.038608541  0.039807492            5 
  298000    1.1452958   -6.2466313    138.32288  0.038680895  0.039793476            6 
  299000    1.1360509   -6.2311333    138.96774  0.038731253  0.039779576            3 
  300000    1.1227723   -6.2390279    138.77918  0.038549772  0.039765856            8 
  301000    1.1228351   -6.2171366    139.51645  0.038625816  0.039753046            3 
  302000    1.1340533   -6.1913021    140.12344  0.038665407  0.039740163            3 
  303000    1.1412479   -6.2074094    140.70838  0.038698674  0.039726631            2 
  304000    1.1448018   -6.1855155    140.85912  0.038612697  0.039713324            3 
  305000    1.1266533   -6.2038379    140.97245  0.038517064   0.03969829            2 
  306000    1.1425066   -6.2625992    140.73411  0.038326283  0.039683225            4 
  307000    1.1318826   -6.1956281    141.78753  0.038487385  0.039668055            7 
  308000    1.1240039   -6.2504152    142.21429  0.038477891  0.039652659            6 
  309000    1.1591511   -6.2227617    142.44177  0.038414718  0.039636105            2 
  310000    1.1393969    -6.217435    142.83935  0.038397673  0.039620095            3 
  311000    1.1327838   -6.2298713    142.84155  0.038274798   0.03960279            2 
  312000    1.1277132   -6.2358267    143.31411  0.038278342  0.039585271            4 
  313000    1.1175185   -6.2374799    144.18957  0.038389129  0.039567968            4 
  314000    1.1453831   -6.2260866    144.29472  0.038294778  0.039551709            4 
  315000     1.121473   -6.2500225    144.83887  0.038317161  0.039536004            5 
  316000    1.1038116    -6.227121    145.61779  0.038401317  0.039520305            7 
  317000    1.1216261   -6.1897899    146.23872  0.038443408  0.039505262            3 
  318000    1.1393118   -6.2141114    146.50461  0.038392193  0.039490524            3 
  319000    1.1248417   -6.2510742    146.90391  0.038376151  0.039476309            6 
  320000     1.129954   -6.2232093    147.37336  0.038378478   0.03946223            4 
  321000    1.1092086   -6.2283166    147.68284  0.038339264  0.039448337            3 
  322000    1.1556504   -6.2790669    147.75151  0.038237968  0.039433059            7 
  323000     1.119022   -6.2020934    148.57823  0.038332877  0.039418134            2 
  324000    1.1489648   -6.2429566    148.82127  0.038277076  0.039403596            3 
  325000    1.1338521   -6.2357634    148.82354  0.038159882  0.039388066            2 
  326000    1.0958636    -6.252672    149.63978  0.038251479  0.039372252            3 
  327000    1.1159016   -6.2239457    149.64758  0.038136488  0.039354847            6 
  328000    1.1273107   -6.2153412    149.99143  0.038107578  0.039338036            6 
  329000    1.1320571    -6.220262    150.29302  0.038068141  0.039319953            2 
  330000    1.1175274   -6.2056231    151.17624  0.038175819  0.039302965            6 
  331000    1.1013957   -6.2810104    151.17971  0.038061356  0.039284589            3 
  332000    1.1398462   -6.2576912    151.27614  0.037970918  0.039265584            2 
  333000    1.1164844   -6.2741346    151.84163  0.037998406  0.039246451            6 
  334000    1.1165841   -6.2565118     152.2605  0.037989147  0.039227967            6 
  335000    1.1123784   -6.2319134    152.29018  0.037883128  0.039209569            3 
  336000     1.115708   -6.2403126    152.65899  0.037861853  0.039190757            4 
  337000    1.1062878   -6.2688378    153.80934  0.038033962  0.039172614            4 
  338000    1.1171309   -6.2911184    153.81264  0.037922249   0.03915453            2 
  339000    1.1288015   -6.2318985    154.72848  0.038035517  0.039136371            3 
  340000    1.1323989   -6.2479959    154.62797  0.037899013  0.039118609            3 
  341000    1.1375956   -6.2821444    154.63426  0.037789409  0.039099117            4 
  342000    1.1285674   -6.1996884    155.46517  0.037881377  0.039080362            5 
  343000    1.0921675   -6.2134631    155.29096  0.037728609    0.0390607            4 
  344000    1.1115119   -6.2315764    155.85308  0.037755105  0.039041933            5 
  345000    1.1210105   -6.2569561    156.03907  0.037690598  0.039021687            5 
  346000    1.0963577   -6.2550149    156.54118  0.037702597  0.039001593            6 
  347000    1.0991382   -6.2655694    156.87344  0.037673736  0.038981821            3 
  348000    1.1065896   -6.2864536    157.34223  0.037677737  0.038961259            5 
  349000    1.1188453   -6.2495709    157.66132  0.037645969   0.03894064            4 
  350000    1.1134731   -6.2656616    157.58903  0.037521198  0.038919545            3 
  351000    1.1094025   -6.2524041    158.06082   0.03752631  0.038897928            4 
  352000    1.1108605   -6.2437125    158.52674  0.037530005  0.038875793            3 
  353000     1.099773   -6.2392911    158.87184  0.037505157  0.038853734            5 
  354000    1.1020554   -6.2641357    158.91208  0.037408682   0.03883175            4 
  355000    1.0848283   -6.3179701    159.62398  0.037470417  0.038810166            4 
  356000    1.1268616   -6.3043701    160.07028  0.037469635  0.038789216            4 
  357000    1.1218197   -6.2309247    160.90414  0.037559323  0.038768301            3 
  358000    1.1210895   -6.2423783    161.56311    0.0376078  0.038748928            3 
  359000    1.1223199   -6.2681578    161.59711  0.037510936  0.038729061            4 
  360000    1.0906305   -6.2559794    162.40089  0.037592799  0.038709806            1 
  361000    1.1134785   -6.2544705    162.71334  0.037560789  0.038689602            3 
  362000    1.1126084   -6.2590295    162.92806  0.037506458  0.038669542            1 
  363000    1.1031808   -6.2286254    163.37217   0.03750509  0.038649187            5 
  364000    1.1082946   -6.3031357    163.55241  0.037443317  0.038628779            6 
  365000    1.1303509   -6.2802544     163.9935  0.037441438  0.038608948            3 
  366000    1.1023033    -6.238611    164.04625   0.03735115  0.038589013            4 
  367000    1.1164617   -6.2673067    164.21678  0.037288097  0.038569023            2 
  368000    1.1085814   -6.2746632     165.0261   0.03737004   0.03854909            5 
  369000    1.1036512   -6.2309179    165.19328  0.037306523  0.038529661            5 
  370000    1.1172743   -6.3085169    165.56892  0.037290298  0.038508882            3 
  371000    1.1135205   -6.2453393    166.20512  0.037332686  0.038487871            4 
  372000      1.10391   -6.2930874    166.71864  0.037347366  0.038467491            4 
  373000    1.1088404   -6.2094306    167.03443   0.03731779  0.038448443            3 
  374000    1.0933114   -6.2967597     167.2655  0.037269497  0.038428703            4 
  375000    1.0939039   -6.2436336    167.95779  0.037323954  0.038408901            9 
  376000    1.0982819   -6.2652341    167.81865  0.037193851  0.038387621            3 
  377000    1.0836583   -6.2834758     167.9303  0.037119872  0.038367084            4 
  378000    1.1291512   -6.2580653    168.33077  0.037109958  0.038346683            4 
  379000    1.0969867   -6.3091192    168.94066  0.037146143  0.038325913            3 
  380000    1.0866231   -6.2998705    168.76805  0.037010538  0.038305176            6 
  381000    1.0847213   -6.2449467    169.52366  0.037078665  0.038284105            2 
  382000    1.0971616   -6.2615072    170.30919  0.037152965  0.038263295            3 
  383000    1.1007501   -6.2936411    170.23665  0.037040177  0.038242677            4 
  384000    1.0897961   -6.2448001    170.72991  0.037050761  0.038222039            2 
  385000    1.0916925   -6.2828774    171.76321  0.037178184  0.038201608            3 
  386000    1.1251618   -6.2860515    171.73549  0.037075883   0.03818177            4 
  387000    1.1202485   -6.2718627    171.54634  0.036939349  0.038161875            4 
  388000    1.0879731   -6.2692676    172.46392  0.037041219  0.038140961            2 
  389000    1.1158617   -6.2667871    172.48492  0.036950497  0.038119767            4 
  390000    1.0838866   -6.2761097    172.82105  0.036927575   0.03809805            5 
  391000    1.1148064   -6.2841897    172.84343    0.0368379  0.038075901            5 
  392000    1.0961479   -6.2896864    173.51029   0.03688569  0.038054847            3 
  393000    1.0942838   -6.3001175    173.31018  0.036749403   0.03803415            4 
  394000    1.1190726   -6.2689065     174.0321  0.036808819  0.038011858            3 
  395000    1.0891674   -6.2975114    174.54925  0.036824737  0.037989825            3 
  396000    1.1106599   -6.3098309    174.60228  0.036742904  0.037967288            2 
  397000    1.0980196   -6.3035742    175.03176  0.036740503  0.037944352            3 
  398000    1.0757869   -6.2940943    174.78871  0.036597302   0.03792135            4 
  399000    1.0720779     -6.27842    175.11974  0.036574716  0.037897985            4 
  400000     1.081416   -6.3077675    175.75453  0.036615526  0.037875203            6 
  401000    1.0906216   -6.2796558    176.34159  0.036646216  0.037851134            4 
  402000    1.1334528   -6.2756811    176.81183  0.036652536  0.037828133            6 
  403000    1.1109252   -6.3010031    176.79755  0.036558633   0.03780544            2 
  404000    1.0903376   -6.3124253    177.23159  0.036557671  0.037782667            6 
  405000    1.0910573   -6.2641312     177.1126  0.036442921  0.037759071            5 
  406000      1.07855   -6.2825577    176.88654   0.03630676  0.037734767            4 
  407000    1.1020521   -6.3253737    177.68967  0.036381996  0.037709817            5 
  408000    1.0935187   -6.3314556    177.99097  0.036354366  0.037684919            2 
  409000     1.103625   -6.3111563    178.12723  0.036293241  0.037659938            8 
  410000    1.0976381   -6.3302495    177.63875  0.036105437  0.037634639            4 
  411000     1.094311    -6.270479    178.19543  0.036130461  0.037607239            7 
  412000    1.0821845   -6.2845815    178.07501  0.036018409  0.037579468            3 
  413000    1.1001905   -6.3192432    178.38267  0.035993275  0.037552139            1 
  414000    1.0723725   -6.3108677    178.62888  0.035955894  0.037523449            2 
  415000    1.0916641   -6.3002503    179.54335  0.036052881  0.037494722            2 
  416000    1.0963757   -6.2940178    179.54167  0.035965879  0.037466227            6 
  417000    1.0783107   -6.3085258    179.86766  0.035944776   0.03743817            3 
  418000    1.0849247    -6.309336     179.8314  0.035851555  0.037410446            4 
  419000    1.0904681   -6.2853575    180.94325  0.035987122  0.037383007            3 
  420000    1.0912608   -6.3075574     180.9855  0.035909822  0.037356336            4 
  421000    1.0760261   -6.3211499    180.56314  0.035740923  0.037328555            6 
  422000    1.0945931   -6.2936248    181.99796  0.035939566   0.03730085            4 
  423000    1.1034884   -6.2954958    182.52858  0.035959137   0.03727389            6 
  424000    1.0816349   -6.2805768    182.77136  0.035922045  0.037248454            6 
  425000    1.1063273   -6.2957648    182.93137  0.035868896  0.037222702            4 
  426000    1.0883214   -6.3167474    183.49881  0.035895698  0.037197213            5 
  427000    1.0841371   -6.2837808    183.79916  0.035870249  0.037171745           12 
  428000    1.0659122   -6.3176455    184.24722   0.03587368  0.037145967            3 
  429000    1.0795704   -6.3341469    185.02331  0.035940814  0.037120654            3 
  430000    1.0734857   -6.3164247     184.3013  0.035717306   0.03709491            4 
  431000    1.0865217   -6.2819325    185.64829  0.035894874   0.03706935            3 
  432000    1.0684939   -6.3068763    185.17782   0.03572103  0.037042915            4 
  433000    1.0842257    -6.291059    185.68201  0.035735568  0.037016282            8 
  434000    1.0970764   -6.3406465    185.54075  0.035626104  0.036990164            3 
  435000    1.0899022   -6.2966569    186.15421  0.035661726  0.036964705            6 
  436000    1.0861089   -6.3138653    186.83411  0.035709884  0.036938184            5 
  437000    1.0757691   -6.2850604    187.92222  0.035835663  0.036912984            3 
  438000    1.0955316   -6.3219104    187.42952  0.035660107  0.036887407            8 
  439000    1.0686612    -6.297334    187.66365   0.03562332  0.036861801            4 
  440000    1.0792004    -6.330704    187.89183  0.035585574   0.03683712            7 
  441000    1.0867903   -6.3486336    187.68677  0.035466131  0.036812287            3 
  442000    1.0769224   -6.3076261    189.72574  0.035770313  0.036787594           11 
  443000    1.0663678   -6.2986876    189.65895  0.035677004  0.036763454            2 
  444000    1.0948286   -6.3204456    188.91036  0.035456149  0.036738692            3 
  445000    1.0634367   -6.2999408    189.35922  0.035460529  0.036713291            5 
  446000    1.0763977   -6.2926271    189.34633  0.035378611  0.036687902            5 
  447000    1.0717427   -6.3036809    190.05888  0.035432304  0.036662126            4 
  448000    1.0671549   -6.3385483    190.26812  0.035392135  0.036636459            3 
  449000    1.0844347   -6.3296063    190.96069  0.035441851  0.036610207            3 
  450000      1.07921   -6.3414105    191.16867  0.035401606  0.036584648            5 
  451000    1.0707146   -6.3262943    191.28524  0.035344648  0.036558543            2 
  452000    1.0754107   -6.3565397    191.12208  0.035236372  0.036532756            4 
  453000    1.0702936   -6.2841398    191.99251  0.035318711  0.036507187            3 
  454000    1.0590281   -6.2705915    192.73939  0.035378008  0.036481953            4 
  455000    1.0752663   -6.3416874    192.02495  0.035169404   0.03645612            4 
  456000    1.0565185    -6.311322     193.9522  0.035444481  0.036430917            4 
  457000    1.0698041   -6.2913591    193.11692   0.03521461  0.036405215            2 
  458000    1.0441575   -6.2847044    193.62163  0.035229555  0.036380241            2 
  459000    1.0906884   -6.3621192    193.73787  0.035173906  0.036355258            5 
  460000    1.0589018   -6.3547741    194.66458  0.035265323  0.036329839            3 
  461000    1.0876412   -6.3470396     194.0414  0.035076175  0.036304132            4 
  462000    1.0806178   -6.3498574    194.48801  0.035080809  0.036278189            5 
  463000    1.0559107    -6.313412     195.2412  0.035140605  0.036253008            8 
  464000     1.066662   -6.3369002    195.59098  0.035127691  0.036227866            9 
  465000     1.087147   -6.3483956      195.886  0.035105017  0.036202878            2 
  466000    1.0784701   -6.3661503    195.45425  0.034952476  0.036178184            8 
  467000      1.07161   -6.3119225    197.69423  0.035277343  0.036154199            2 
  468000    1.0818727   -6.3565391    197.01753  0.035081468  0.036130309            5 
  469000    1.0787433   -6.3620427    196.93346  0.034991731  0.036105394            4 
  470000      1.06012   -6.3340341    196.90461  0.034912164  0.036080347            3 
  471000    1.0555205   -6.3244461    197.85677  0.035006506  0.036055219            3 
  472000    1.0456702   -6.3144564    197.61359  0.034889405  0.036030261            5 
  473000    1.0880088   -6.3648733    197.50936   0.03479728   0.03600517            3 
  474000    1.0624713   -6.3341135    197.58593  0.034737329  0.035979577            3 
  475000    1.0648904   -6.3460371     198.6166  0.034845017  0.035954134            4 
  476000    1.0687045   -6.3546706     198.5756  0.034764637  0.035928349            3 
  477000    1.0481726    -6.340699    199.37012  0.034830558  0.035902686            7 
  478000    1.0835302   -6.3558466    198.99225  0.034691814  0.035877485            6 
  479000    1.0536861   -6.3599641    199.81121  0.034761866  0.035852253            3 
  480000    1.0349901   -6.3404301    199.76217  0.034680933  0.035827213            6 
  481000    1.0541147   -6.3823534    200.17596  0.034680519   0.03580156            5 
  482000    1.0673775   -6.3425711    201.15623  0.034778049  0.035777208           11 
  483000    1.0638889   -6.3428241    201.68552  0.034797363  0.035753963            5 
  484000    1.0679245   -6.3608364    202.17577  0.034809878  0.035730476            3 
  485000    1.0529341    -6.361743    201.83237  0.034679101  0.035706983            3 
  486000    1.0577131   -6.3030009    202.01963  0.034639855  0.035683138            4 
  487000    1.0578743   -6.3681698    202.55693  0.034660666  0.035658654            6 
  488000    1.0630626   -6.3763475    202.59515  0.034596166  0.035634762            2 
  489000    1.0501414   -6.3538407    203.60439  0.034697408  0.035610767            4 
  490000    1.0650216   -6.3716963    203.24358  0.034565235  0.035586477            8 
  491000    1.0390847   -6.3634411     203.5442  0.034545858  0.035562614           11 
  492000    1.0579147   -6.3135648    204.91306  0.034707496  0.035539289            6 
  493000    1.0456586   -6.3614147     204.8351  0.034623919  0.035516376            4 
  494000     1.073067   -6.3385526    205.14992  0.034606937  0.035493436            6 
  495000    1.0723466    -6.366179    205.08101  0.034525422  0.035470179            9 
  496000    1.0600475   -6.3543459     206.0063  0.034611274  0.035447756            3 
  497000    1.0557774   -6.3802139    206.31305  0.034593066  0.035425932            5 
  498000    1.0288707    -6.382649    207.10323  0.034655829  0.035403947            5 
  499000     1.052859   -6.4141145     206.8835  0.034549682  0.035381469            4 
  500000    1.0384925   -6.3355956    207.84453  0.034640755  0.035359938            3 
  501000    1.0760173    -6.395414    208.43842  0.034670396  0.035338874            5 
  502000    1.0578046   -6.3854134    208.17103  0.034556944  0.035317321            4 
  503000    1.0588327   -6.3153908    208.97878  0.034622064  0.035295662            6 
  504000    1.0442605    -6.344311    208.82218  0.034527477  0.035274343            3 
  505000     1.040299   -6.3768285     208.6786  0.034435412  0.035252781            8 
  506000    1.0526672   -6.3522187    209.60396  0.034519756  0.035231542            3 
  507000    1.0505323   -6.4104335    209.38517  0.034415708  0.035209967           11 
  508000    1.0661593   -6.3474253    208.89776  0.034268005  0.035188307            7 
  509000    1.0365084   -6.3929405    209.88121  0.034361691  0.035166339            6 
  510000    1.0382735   -6.3328822    210.74167  0.034434914  0.035145293            3 
  511000    1.0476666   -6.3583658    211.33338  0.034464022  0.035124598            3 
  512000    1.0374648   -6.3524573    212.10586  0.034522438   0.03510416            3 
  513000    1.0556394   -6.3468829    212.56657  0.034529983  0.035084434            3 
  514000    1.0325094   -6.3437435    212.86128  0.034510584  0.035064407            2 
  515000    1.0394113   -6.3535821    213.07555  0.034478244  0.035044748            3 
  516000    1.0696454   -6.4272692    213.37847  0.034460347  0.035024955            6 
  517000     1.048252   -6.3673814    213.70714   0.03444667  0.035004814            2 
  518000    1.0261233   -6.3688517    213.13116   0.03428751  0.034984951            6 
  519000    1.0411499   -6.3787524      213.639  0.034302986  0.034964759            5 
  520000    1.0569621   -6.4002322    214.05537  0.034303745  0.034944337            6 
  521000    1.0487672   -6.3821113    214.02217  0.034232592  0.034924012            2 
  522000    1.0640973   -6.3823522    214.68677  0.034273112   0.03490405            3 
  523000    1.0349791   -6.4046863    215.54118  0.034343719  0.034884438            3 
  524000    1.0284028   -6.3901949    215.33853   0.03424595  0.034865066            6 
  525000    1.0554888   -6.3950449    216.05407  0.034294298  0.034845582            3 
  526000    1.0430199    -6.356668    215.94567  0.034211926  0.034826081            3 
  527000    1.0458648   -6.3939639    217.35686  0.034370155  0.034806599            5 
  528000    1.0409971   -6.3958357    216.93269  0.034238113  0.034786871            7 
  529000    1.0500884   -6.3970919    217.33943  0.034237465   0.03476739            4 
  530000    1.0437807    -6.370049    217.63495  0.034219332  0.034747436            5 
  531000    1.0152028   -6.4262428    217.71888   0.03416806  0.034727341            4 
  532000    1.0589708   -6.3451594    218.39573  0.034209858  0.034707893            4 
  533000     1.050428   -6.3612409    217.79105  0.034051133  0.034688652            3 
  534000    1.0706043   -6.4107586    218.93816  0.034166379  0.034669234           11 
  535000    1.0492033   -6.4047822    219.25185  0.034151379  0.034650248            5 
  536000    1.0279621   -6.3652806    219.56444  0.034136262  0.034631568            4 
  537000     1.024417   -6.3566235    219.69622  0.034093144  0.034612848            2 
  538000    1.0574027   -6.4147798     220.1726  0.034103562  0.034594206            4 
  539000    1.0518478   -6.4026046    220.61682   0.03410897  0.034575463            5 
  540000    1.0540555   -6.4207468    220.06621  0.033960835  0.034556414            9 
  541000     1.052681   -6.3866962     221.1103  0.034058888  0.034537457            6 
  542000    1.0283796   -6.3529592    221.82174  0.034105433  0.034519071           10 
  543000    1.0515573   -6.4052031    221.62438  0.034012336  0.034500673            4 
  544000    1.0359922   -6.3797022    222.35303  0.034061432  0.034481996            3 
  545000    1.0263056   -6.3897517    221.97989   0.03394188  0.034463136            5 
  546000    1.0446385   -6.3824393    222.29404  0.033927661  0.034444419            2 
  547000    1.0236611    -6.406282    222.73783  0.033933246  0.034425576            6 
  548000    1.0556471    -6.379469    223.16832  0.033936789  0.034406427           10 
  549000    1.0011669   -6.3869974    222.40593  0.033759248  0.034386619            7 
  550000    1.0388209   -6.3878605    223.14101  0.033809244   0.03436678            3 
  551000    1.0321026   -6.4039834    223.50077  0.033802294  0.034346821            4 
  552000    1.0417994   -6.3753774    224.26355  0.033856212  0.034326863            5 
  553000    1.0391386   -6.3491874    223.72504   0.03371384  0.034307063            4 
  554000     1.036896   -6.3958752    224.40183  0.033754787  0.034286838           13 
  555000    1.0329913    -6.411991    223.89943  0.033618532  0.034266984            3 
  556000    1.0381603   -6.4112592    224.73661  0.033683544  0.034246732            3 
  557000    1.0419017   -6.3982894    225.25235  0.033700232  0.034226437            3 
  558000    1.0519236   -6.3749385    226.25944   0.03379024  0.034206422            4 
  559000    1.0288131   -6.3802545     225.8444  0.033667919  0.034186798            4 
  560000    1.0042648   -6.3911458    226.02138  0.033634134   0.03416705            4 
  561000    1.0307033   -6.3875612    226.24774  0.033607805  0.034147224            4 
  562000    1.0232423   -6.3991518    226.07979  0.033523101  0.034126984            5 
  563000     1.035311   -6.4273496    226.67997  0.033552394  0.034106538           12 
  564000    1.0257177   -6.4093116    226.53091   0.03347088  0.034085971            3 
  565000    1.0341341   -6.4193029    226.74266   0.03344287  0.034065401            5 
  566000    1.0248074   -6.3711661    227.92628   0.03355805  0.034045226            3 
  567000    1.0308007   -6.4385057    227.43669   0.03342691   0.03402519            4 
  568000    1.0352896   -6.4115642    228.68006  0.033550478  0.034005184           12 
  569000    1.0394986   -6.4125162    228.85454  0.033517069  0.033985207            3 
  570000    1.0192821   -6.4213951    228.94056  0.033470842  0.033965549            3 
  571000    1.0191585    -6.415128    228.92087  0.033409351   0.03394607            4 
  572000    1.0506237   -6.4347532    229.03608  0.033367727  0.033926441            4 
  573000    1.0205277   -6.4158188    229.21779   0.03333592  0.033906633            3 
  574000    1.0241523    -6.438606    229.78343  0.033359963  0.033886398            5 
  575000   0.99552066   -6.3884779    230.76077   0.03344359  0.033866258            2 
  576000    1.0182574   -6.4397634    230.20448  0.033305046  0.033845796            2 
  577000    1.0226023   -6.4037338    230.41429  0.033277627  0.033825291            2 
  578000    1.0343861   -6.3823245      230.566  0.033241926  0.033805277            3 
  579000     0.996062   -6.4118538    231.52003  0.033321824  0.033785284            6 
  580000    1.0145124   -6.4331729    231.44159  0.033253102  0.033765122            3 
  581000    1.0066515    -6.396503    231.81855  0.033249935  0.033745008            6 
  582000    1.0204309   -6.4151662    232.23926  0.033253045  0.033725071            2 
  583000    1.0178147    -6.437497    232.53942  0.033238911  0.033705286            8 
  584000    1.0233781   -6.4128799    232.96698  0.033243005  0.033685747            3 
  585000    1.0011657   -6.4248737    233.39269  0.033246822  0.033665959            5 
  586000    1.0275152   -6.4525163    232.49228  0.033062043  0.033645965            5 
  587000     1.022645   -6.4349121    233.50743  0.033149834  0.033625966            4 
  588000    1.0426204   -6.4489949    233.73125  0.033125177  0.033606106            2 
  589000     1.014703   -6.4614108    233.64664  0.033056967  0.033586161            4 
  590000    1.0240334   -6.4275211    234.42369  0.033110691  0.033566581            5 
  591000     1.020299   -6.4406417    235.15112  0.033157236  0.033546649            8 
  592000    1.0228096   -6.4404034     235.0416  0.033085811  0.033526991            6 
  593000    1.0035541   -6.4178602    234.97224   0.03302027  0.033507296            3 
  594000    1.0214031   -6.4420509    235.09296  0.032981616  0.033487447            7 
  595000    1.0025062   -6.4407913    235.05457  0.032920808  0.033466902            5 
  596000    1.0047058   -6.4094171    235.31937  0.032902596  0.033446557            8 
  597000    1.0266933   -6.4191363    236.48069  0.033009588  0.033426027            5 
  598000    1.0147796   -6.4499221    235.65241  0.032838965  0.033405451            4 
  599000    1.0164817   -6.4709959    235.33022  0.032739319  0.033384857            6 
  600000     1.025716   -6.4430162    235.44173   0.03270024  0.033364263            8 
  601000    1.0238814   -6.4363703    236.88049  0.032845326  0.033343545            3 
  602000    1.0169632   -6.4732363    236.46965  0.032733894  0.033323111            5 
  603000    1.0056853   -6.4351954    236.97174  0.032748997  0.033302344            5 
  604000     1.001547   -6.4320124    236.97947  0.032695843  0.033281706            6 
  605000    1.0106358   -6.4351424    237.08817  0.032656773  0.033261019            7 
  606000    1.0248075   -6.4335746    237.05175  0.032597875  0.033240002            7 
  607000    1.0110456   -6.4320442    237.84141  0.032652582  0.033218932            5 
  608000   0.99818652   -6.4390515    237.97301  0.032616915  0.033198054            5 
  609000    0.9947968   -6.4382836    238.58133  0.032646596  0.033177238            3 
  610000   0.99916436   -6.4427382    238.42318  0.032571473  0.033156342            5 
  611000    1.0002501   -6.4589419      238.263  0.032496317  0.033135307            7 
  612000    1.0234979   -6.4489876    238.65188   0.03249617  0.033113931            5 
  613000    1.0105084   -6.4610518    238.55196  0.032429575   0.03309256            4 
  614000    1.0179217   -6.4420863    239.82914  0.032550101  0.033071586            7 
  615000     1.020236   -6.4318093     240.1383  0.032539065  0.033050686            6 
  616000    1.0299715   -6.4460182    240.22566   0.03249806  0.033029859            4 
  617000   0.99792507   -6.4743226    240.12335  0.032431571  0.033008857            4 
  618000    1.0381263   -6.4722061    240.04822  0.032368962  0.032987706            3 
  619000    1.0013665    -6.473223    239.84013  0.032288656  0.032966165            3 
  620000    1.0142902   -6.4671699    239.79549  0.032230577    0.0329446           11 
  621000    1.0042442   -6.4673191    239.95684  0.032200327   0.03292256            4 
  622000   0.99505103     -6.45314    240.59148  0.032233585  0.032900479            9 
  623000    1.0051099   -6.4550294    240.76509  0.032205068  0.032878464            4 
  624000    1.0332815   -6.4274995    240.96636  0.032180337  0.032856487            8 
  625000    1.0093221   -6.4612089    241.12313   0.03214975  0.032834599            4 
  626000    1.0191154   -6.4370089    242.18679  0.032239988  0.032812553            4 
  627000   0.99782869   -6.4511532    241.26717  0.032066343  0.032790446            7 
  628000    1.0020322   -6.4477585    242.20906  0.032140268  0.032767929            7 
  629000    1.0189487   -6.4675272    242.38054  0.032111889   0.03274581            2 
  630000    1.0085004   -6.4698938    242.09621  0.032023308  0.032723444            6 
  631000   0.99004827   -6.4872951    242.65612  0.032046503  0.032701198            5 
  632000   0.99756122   -6.4425694    242.58881  0.031986921  0.032678885            2 
  633000   0.99205318   -6.4893494    243.01119  0.031991995  0.032656795            3 
  634000      1.01185    -6.438208    242.80587  0.031914547  0.032634394           10 
  635000   0.99186347   -6.4212554    243.71934  0.031984165  0.032611964           10 
  636000    1.0214676   -6.4858378    242.92016  0.031829161    0.0325896            3 
  637000    1.0207804   -6.4568357    244.15365  0.031940562  0.032567406            6 
  638000   0.97715085   -6.4574076    244.04846  0.031876758  0.032545302            7 
  639000     1.000643   -6.4583599    243.97335  0.031817078   0.03252291            7 
  640000    1.0073996   -6.4524921    243.77955  0.031742128  0.032499944            5 
  641000    1.0154733   -6.4934678    244.53623  0.031790982  0.032476969            9 
  642000   0.98039409   -6.4680934     244.9115  0.031790174  0.032454312            6 
  643000   0.98998302   -6.4742855    244.55212  0.031694158  0.032431753            5 
  644000    1.0109172   -6.4844897    244.62261  0.031654065  0.032408729            5 
  645000   0.98945437   -6.4611792    244.80618  0.031628706   0.03238599            5 
  646000    1.0029805   -6.4970053     245.4819  0.031666911  0.032363332            5 
  647000    1.0045037   -6.4837737    245.67667  0.031643054  0.032340799            2 
  648000    1.0086723    -6.472479    245.71423  0.031599052   0.03231816            5 
  649000   0.95531313   -6.5161842    245.86056  0.031569153   0.03229559            3 
  650000   0.98231385   -6.5060678     246.5966  0.031614949  0.032273246            3 
  651000     0.982407   -6.4850243    246.80695  0.031593311  0.032251057            6 
  652000     0.977481   -6.4976666     247.7333  0.031663254  0.032229259            7 
  653000   0.97417886   -6.4567072    247.94872  0.031642256  0.032207536            7 
  654000   0.96908742   -6.5220888    248.15388  0.031620015  0.032185924            6 
  655000   0.98210558   -6.5016883    248.08492  0.031562967  0.032164351            6 
  656000   0.99930705   -6.5135094    248.88143  0.031616035  0.032142814            6 
  657000   0.97718777     -6.48463    249.23493  0.031612752  0.032121514            5 
  658000    0.9874606   -6.4448668     249.5843  0.031608954  0.032100487            7 
  659000    1.0114029   -6.4995728    250.35448  0.031658381   0.03207959            5 
  660000   0.98066735     -6.52476    250.07773  0.031575471  0.032058576            6 
  661000   0.98758524   -6.4938508    250.39548  0.031567761   0.03203752            8 
  662000    1.0031012   -6.4617359    250.80714  0.031571895  0.032016746            5 
  663000   0.98978924   -6.4499221    251.05191  0.031555042  0.031996139            3 
  664000    1.0112991   -6.5142104    251.13034  0.031517362  0.031975055           14 
  665000    1.0083134   -6.4777791    251.06709  0.031462042  0.031954096            4 
  666000   0.99108566   -6.4886305    251.14253  0.031424241  0.031933048            4 
  667000    1.0017566    -6.487941    251.50561   0.03142249  0.031912191           10 
  668000   0.97799063   -6.4483627    251.99492  0.031436492  0.031891119            6 
  669000   0.98733447   -6.4513567    251.75333  0.031359409  0.031870231            4 
  670000   0.97024737   -6.4842387    251.54127  0.031286228  0.031848696            4 
  671000   0.98139218   -6.4734966    251.42753  0.031225475  0.031827109            7 
  672000    1.0087622   -6.5017779    251.53013  0.031191732  0.031805417            7 
  673000   0.98088712   -6.5048594    251.78274  0.031176664  0.031783488            4 
  674000    0.9900598   -6.4677792    252.63381  0.031235634  0.031761702            5 
  675000   0.97480282   -6.4899317    252.20137  0.031135972  0.031740387            5 
  676000   0.97509739   -6.5017915    252.50604   0.03112747  0.031718903            7 
  677000   0.98590708   -6.4840312    253.65971    0.0312235  0.031697519            6 
  678000   0.99092855    -6.502108    252.73948  0.031064341  0.031676182            5 
  679000   0.98505355   -6.4858917    254.20288  0.031198194  0.031654526            3 
  680000   0.97047654   -6.5376938    253.99515  0.031126857  0.031633243           12 
  681000   0.99014616   -6.4731029    255.08939  0.031215051  0.031612193            8 
  682000   0.98483221   -6.5039522    254.79961  0.031133873  0.031591379            8 
  683000    0.9833493   -6.5200178    255.91546  0.031224434  0.031570491            9 
  684000   0.98278675   -6.4738787    255.26737  0.031099826  0.031549945            7 
  685000   0.97466999    -6.477471     256.2776  0.031177323   0.03152976            4 
  686000   0.99839995   -6.5019041    256.16909  0.031118694  0.031509705            7 
  687000   0.97907399   -6.4732977     256.9476  0.031167831  0.031489621            6 
  688000   0.97997569   -6.5056506    256.91667  0.031118782  0.031469764           16 
  689000   0.98059228   -6.5121776    257.01968  0.031086077  0.031449847            7 
  690000   0.97292615   -6.4946189    257.05841  0.031045701  0.031429763            6 
  691000   0.96775471   -6.5153698    256.93536  0.030985934  0.031409468           11 
  692000   0.98665367    -6.522764    256.59608  0.030900299  0.031389205            5 
  693000   0.97854905   -6.5209973    258.11017  0.031037778  0.031368795           10 
  694000   0.97194622   -6.4715415    258.05982  0.030987011  0.031348312            2 
  695000   0.99575744   -6.4939121    258.21759  0.030961342  0.031328135            5 
  696000   0.97621986   -6.5064623    257.36464  0.030814732  0.031307765            7 
  697000    0.9836189   -6.5137747    258.66913  0.030926486  0.031287843            5 
  698000   0.96797737   -6.5495072    258.58453  0.030872079   0.03126792            5 
  699000   0.98546001   -6.5088975    260.60892  0.031069256  0.031248126            4 
  700000   0.98937734   -6.5206109    259.45457  0.030887449  0.031228378            3 
  701000   0.96742596   -6.5154528    260.38258  0.030953707   0.03120862            7 
  702000   0.97764106    -6.521518    260.30804  0.030900764  0.031188973            6 
  703000   0.97621363   -6.5110799    260.49124  0.030878526  0.031169402            3 
  704000   0.96782145   -6.5187473    260.31464   0.03081376  0.031149551            5 
  705000   0.97778719   -6.4854958    260.82571  0.030830462  0.031129998           10 
  706000    0.9732771   -6.5138457    260.50826  0.030749323  0.031110099            8 
  707000   0.99170079   -6.5255969     260.9634  0.030759477  0.031090429            4 
  708000   0.98276843    -6.501625    261.43722  0.030771801  0.031070766            5 
  709000   0.97305084   -6.5201749    261.54803  0.030741423  0.031051287           10 
  710000   0.97923917   -6.5227795    261.83736  0.030732084  0.031031234            4 
  711000   0.97956146   -6.5078433    261.89487  0.030695601  0.031011366            4 
  712000   0.95370922   -6.5456419    262.40744  0.030712481   0.03099169            7 
  713000   0.95257821   -6.4879656    262.47718  0.030677557  0.030972074            5 
  714000   0.96458266   -6.5214896    262.77385  0.030669216  0.030952812            5 
  715000   0.94934437   -6.5410023    262.30984  0.030572242  0.030933206           13 
  716000   0.96383615   -6.5314356    262.74479  0.030580166  0.030913506            7 
  717000   0.97021898   -6.5031437    264.13697  0.030699322  0.030894161            6 
  718000   0.96142503   -6.4665082    263.56711  0.030590426  0.030874797            6 
  719000   0.97383487   -6.5266599    263.54826  0.030545695  0.030855286           14 
  720000   0.97809579   -6.5257343    264.50208  0.030613667  0.030835838           13 
  721000   0.96757019   -6.5254455    264.57862  0.030580054  0.030816595            6 
  722000   0.97834372   -6.5208856    264.64229  0.030545047   0.03079712            5 
  723000   0.94105843   -6.5002942    264.83409  0.030524906  0.030777919            9 
  724000   0.94074015   -6.5720414    264.69838  0.030467125  0.030758472            8 
  725000   0.96352869   -6.5603006    264.87196  0.030445053  0.030739003            3 
  726000   0.95295889   -6.5302434    265.46095  0.030470725  0.030719418            9 
  727000   0.93593012   -6.5435546    265.78176  0.030465585  0.030700246            8 
  728000   0.95170983   -6.5430759    266.89518  0.030551188   0.03068109           10 
  729000   0.96426713   -6.5455641    266.04071  0.030411604  0.030662315            4 
  730000   0.93913977   -6.5447206    266.49492  0.030421794  0.030643438            6 
  731000   0.98652464   -6.5719068    266.62518  0.030395027  0.030624423           10 
  732000   0.97319906   -6.4839334    267.13791  0.030411875  0.030605508            5 
  733000   0.97299713   -6.5268451    266.99964  0.030354665  0.030586621            9 
  734000   0.96833503   -6.5028301    267.32833  0.030350628  0.030567654            4 
  735000   0.97922809   -6.5244152    267.24315  0.030299677  0.030548393            8 
  736000    0.9358452   -6.5094206    267.74408  0.030315226  0.030529347            6 
  737000   0.93945421   -6.5381081    267.12243  0.030203803  0.030509949           10 
  738000   0.94066555   -6.5948589    267.23389  0.030175462  0.030490581            7 
  739000   0.94788058   -6.5257156    268.30284  0.030255169  0.030471369            2 
  740000   0.97405798   -6.5462008    268.79738  0.030269975  0.030452459            5 
  741000   0.95651563   -6.5295949    269.07065  0.030259857  0.030433513            5 
  742000   0.95694424   -6.5224479    268.97453   0.03020828  0.030414863            3 
  743000   0.95170228   -6.5411747    269.31965  0.030206332  0.030396049            4 
  744000   0.97572413   -6.5573736    270.31637  0.030277372  0.030377377           10 
  745000   0.95551895   -6.5235121      269.858  0.030185459  0.030358528            4 
  746000    0.9510247   -6.5363832    270.02406  0.030163545  0.030339707            4 
  747000   0.95690216   -6.5308598     270.5027  0.030176562  0.030321028            3 
  748000   0.97851496   -6.5224172    270.71301  0.030159649  0.030302512            8 
  749000   0.97018597   -6.5192689    270.27769   0.03007095   0.03028418            8 
  750000   0.93223188   -6.5323616    271.51588  0.030168431  0.030265574            6 
  751000    0.9518895   -6.5681386    270.75838  0.030044206  0.030246875            4 
  752000   0.95782447    -6.551543    271.51378  0.030087964  0.030228571            3 
  753000   0.94860015   -6.5430255    272.28646  0.030133517  0.030210111            8 
  754000   0.94435117   -6.5283814    271.21884  0.029975558  0.030191806            6 
  755000   0.95767517   -6.5578278    272.40983   0.03006731  0.030173609            4 
  756000   0.94136882   -6.5468274    272.34602  0.030020505  0.030155327            6 
  757000    0.9641186   -6.5662314    272.52677  0.030000745  0.030136939            7 
  758000   0.96180706   -6.5683158    273.20795  0.030036054  0.030118461           11 
  759000   0.95965221    -6.540879     273.6615  0.030046278  0.030099936            4 
  760000   0.93840261   -6.5136724    274.02943  0.030047087  0.030081548            5 
  761000   0.94301261   -6.6159837    273.12882  0.029908981  0.030063305            5 
  762000   0.95202149   -6.5510922    273.80902  0.029944118  0.030044771            8 
  763000   0.95416992   -6.5494732    274.15604  0.029942774  0.030026625            3 
  764000   0.96050123    -6.542834    273.90372   0.02987606  0.030008629            8 
  765000   0.91455356   -6.5587554    274.86144  0.029941334   0.02999047           10 
  766000   0.94985889   -6.5699735    275.15812  0.029934522  0.029972599            7 
  767000   0.95519597   -6.5713094    274.79466  0.029856004  0.029954711            7 
  768000   0.94352318   -6.5633362    275.19929  0.029861034   0.02993682           11 
  769000   0.95355948   -6.5899288     275.4217  0.029846305  0.029918878            8 
  770000   0.95006782   -6.5605368    275.32075  0.029796618  0.029900839            8 
  771000   0.95315999   -6.5568545    275.49668  0.029776987  0.029882839            9 
  772000   0.93415851    -6.582287    275.79499  0.029770617  0.029864768            6 
  773000   0.93667275   -6.6146799    275.91871  0.029745441  0.029846634           13 
  774000   0.97014793   -6.5916448     275.9159  0.029706708  0.029828228            9 
  775000   0.95219571   -6.5756935    276.00242   0.02967768  0.029810168            5 
  776000   0.96637357   -6.5669326    276.62984  0.029706813  0.029792243            7 
  777000   0.94903997   -6.5811334    277.55249  0.029767535  0.029774363            7 
  778000   0.94912657   -6.5783458    277.72578  0.029747834  0.029756704            5 
  779000   0.94409863   -6.6085234    277.75155  0.029712404  0.029739139            8 
  780000   0.93179686   -6.5822076    277.11164  0.029605945  0.029721535            7 
  781000    0.9414768   -6.6018244    278.45321  0.029711184  0.029703792            9 
  782000   0.94203829   -6.5687337    279.04101  0.029735828  0.029686397            6 
  783000   0.94767129   -6.5609939    278.95473  0.029688668   0.02966897           11 
  784000   0.93135622   -6.5785075    278.84344  0.029638971  0.029651343            5 
  785000   0.95108646   -6.5983246    278.66744  0.029582531  0.029633669            3 
  786000   0.95114332   -6.5801275    279.14468  0.029595492  0.029615933           11 
  787000   0.92058737   -6.5958144    279.84073  0.029631589  0.029598123            7 
  788000   0.94503522   -6.5897022    279.96215  0.029606826  0.029580464            3 
  789000   0.96054468   -6.5768524    279.82787  0.029555119   0.02956303            7 
  790000   0.92769221   -6.5661168    280.00975  0.029536894  0.029545662            8 
  791000   0.93961324    -6.561156    280.19339  0.029518899  0.029528202            5 
  792000   0.93515474   -6.5572065    280.37702  0.029500949  0.029510981           10 
  793000   0.94483193    -6.599132    280.48541  0.029475138  0.029493559            6 
  794000    0.9491541   -6.5881061    280.62932   0.02945312  0.029476106            7 
  795000   0.94450691    -6.564197    281.90077  0.029549347  0.029458576            5 
  796000   0.96134711   -6.6113928    281.47036  0.029467165  0.029441209            7 
  797000   0.96090214   -6.5593816    281.73496  0.029457858  0.029423862            7 
  798000   0.93031783   -6.5795592    281.44535    0.0293907  0.029406626           12 
  799000   0.94157837   -6.6081497     281.4248  0.029351773  0.029389409            2 
  800000   0.93696216   -6.5713817    282.53007  0.029430216  0.029372381            8 
  801000   0.92851834   -6.5484063    283.32759  0.029476445  0.029355474            5 
  802000   0.94179674   -6.5926499     282.0483  0.029306765  0.029338193            6 
  803000   0.94711031   -6.6087661    283.19569  0.029389341  0.029320861            6 
  804000    0.9161681   -6.6051599    282.70997  0.029302443  0.029303572            5 
  805000   0.91083833   -6.5778987    283.39672  0.029337135  0.029286259           11 
  806000   0.91594777    -6.607034    282.47876  0.029205827  0.029268868            6 
  807000   0.94152864   -6.5647498    283.05938  0.029229593  0.029251173            9 
  808000   0.92791652    -6.597977    283.08718  0.029196285  0.029233666            9 
  809000   0.92841769   -6.6069315    283.43902  0.029196438  0.029215876           10 
  810000   0.93687066   -6.5858799     284.1131  0.029229743  0.029198247            5 
  811000     0.933398   -6.5929748    283.75568  0.029156975  0.029180546            5 
  812000   0.93076218   -6.5776827     285.1016  0.029259195  0.029162877            9 
  813000   0.92546444   -6.6120643      283.972  0.029107421  0.029145388            7 
  814000   0.95531186   -6.5906519    284.66251  0.029142353  0.029127981            4 
  815000    0.9095324   -6.5703747    285.72349  0.029215081  0.029110614            4 
  816000   0.92920657   -6.6131152    285.21966  0.029127825  0.029093144            5 
  817000   0.92195589   -6.5960648    285.12287    0.0290823  0.029075818            5 
  818000   0.94535485   -6.6220679    285.19298  0.029053889  0.029058308            4 
  819000   0.93812835   -6.6142456    284.91977  0.028990615  0.029040832           18 
  820000   0.91997025    -6.661296    285.14477  0.028978127  0.029023197            6 
  821000   0.90946301   -6.6211597    285.57566  0.028986568  0.029005343            4 
  822000   0.93698305   -6.6164753    285.71733  0.028965666  0.028987571            8 
  823000   0.90636118   -6.5484562    286.56534  0.029016336  0.028970197            4 
  824000   0.92894937   -6.5825121    287.15094  0.029040346  0.028952763            8 
  825000   0.93063725    -6.612257    286.35545  0.028924793  0.028935217            4 
  826000   0.95581124   -6.6346538    286.29709  0.028883887  0.028917652            9 
  827000   0.91798383   -6.6167743    285.73067  0.028791885  0.028899964            8 
  828000   0.92248037   -6.6151581    286.33167  0.028817599  0.028882224            5 
  829000    0.9399233   -6.6049094     287.0065  0.028850674   0.02886446            4 
  830000   0.92358015   -6.6252229    286.73886  0.028789042  0.028846842            8 
  831000   0.89526664   -6.5922263    287.25187  0.028805843  0.028829039            6 
  832000   0.91537749   -6.5760065    287.76027  0.028822143  0.028811229           11 
  833000   0.93317554   -6.6082999    288.84381  0.028895939   0.02879373            7 
  834000   0.91809318   -6.6008094    288.32428  0.028809381  0.028776267            8 
  835000   0.90317492   -6.5966842    288.20427  0.028762901  0.028758471            8 
  836000     0.901213    -6.625302    288.31754  0.028739786  0.028740813           17 
  837000   0.93035031    -6.580239    289.43618  0.028816824  0.028723407            3 
  838000   0.91405084   -6.6357342    289.70048  0.028808719  0.028706374            4 
  839000   0.91870042   -6.6210909    290.05828  0.028809921  0.028689367            5 
  840000   0.92618341   -6.6289261    289.34721   0.02870508    0.0286723           10 
  841000     0.911482   -6.5929695     290.0574   0.02874132  0.028655247            6 
  842000    0.9072952   -6.5823702    290.84195  0.028784833  0.028638248           10 
  843000   0.91302272   -6.5787903    290.43753  0.028710709  0.028621388            6 
  844000   0.89856442   -6.6224734    291.05556  0.028737714  0.028604343            6 
  845000   0.92571544   -6.6114832    290.56932  0.028655752  0.028587324            7 
  846000   0.92014852   -6.6216762    290.50916  0.028615953  0.028570514            5 
  847000   0.92748292   -6.6138965    291.04005    0.0286344  0.028553817            5 
  848000   0.91146466    -6.605452    292.15182  0.028709888  0.028536982            5 
  849000   0.92509691   -6.6312378    290.99106  0.028562137  0.028519884            8 
  850000   0.89137452   -6.6406268    291.41245  0.028569848  0.028502971            4 
  851000   0.91903951   -6.6551583    291.57036  0.028551739  0.028485928           15 
  852000   0.94061184   -6.5918367    291.53155  0.028514432  0.028468814            9 
  853000   0.92344252   -6.6223657    291.26179  0.028454649   0.02845164            4 
  854000   0.91972894   -6.6482635    291.95929  0.028489392  0.028434679            5 
  855000   0.91403714   -6.6207988    292.28435  0.028487754  0.028417845            9 
  856000   0.92626217   -6.6542909    293.87641  0.028609464  0.028400908            9 
  857000   0.91088585   -6.6614605    293.75365  0.028564143  0.028384308            4 
  858000   0.92913583   -6.6263785    292.71422  0.028429897  0.028367862            6 
  859000    0.9171894   -6.6138413    293.93425  0.028515158  0.028351269            5 
  860000   0.92205557   -6.6677126    293.46441  0.028436473  0.028334394           16 
  861000    0.8952216    -6.638136    294.33243  0.028487459  0.028317767            7 
  862000   0.92442317   -6.6219067    294.32791  0.028453974  0.028301334            6 
  863000   0.90114311   -6.6246498    294.40033  0.028427996  0.028285008            8 
  864000   0.88938645   -6.6448297    294.69714  0.028423721  0.028268483            7 
  865000   0.91366424   -6.6484599    294.89555  0.028409976  0.028252168           11 
  866000   0.90275417   -6.6350535    294.93438  0.028380907  0.028235695            8 
  867000   0.89938359   -6.6146078    295.20941  0.028374607  0.028219047            6 
  868000   0.90734788   -6.6361034    295.12128  0.028333456  0.028202375           10 
  869000   0.89568196   -6.6535028    294.93353  0.028282847  0.028185973           11 
  870000   0.91188304   -6.6413803     296.0527  0.028357539  0.028169253            6 
  871000   0.90076592   -6.6292557    296.05146  0.028324862  0.028152355            8 
  872000   0.91061808    -6.678193    296.05702  0.028292911  0.028135425            3 
  873000   0.88384109   -6.6524619    296.11103  0.028265657  0.028118668            5 
  874000   0.91215963   -6.6237834    296.28719  0.028250114  0.028101911           10 
  875000   0.94509095   -6.6240765    296.15262  0.028205011  0.028085164            4 
  876000   0.87500614   -6.6250195    297.12399   0.02826522  0.028068389           10 
  877000   0.90900081   -6.6476146    295.99363  0.028125583  0.028051678           13 
  878000   0.90346296   -6.6249225    296.45639  0.028137471  0.028034893            7 
  879000   0.90137755   -6.6503406     296.6138  0.028120383  0.028018053            6 
  880000    0.8909528    -6.611242    297.10394  0.028134842  0.028001261            6 
  881000   0.91287714   -6.6469815    297.20217  0.028112199  0.027984536           14 
  882000   0.89270572   -6.6603673    296.88915  0.028050751  0.027967885            6 
  883000   0.90586988    -6.654203    296.71675  0.028002713  0.027951011            5 
  884000   0.91131068   -6.6881627    297.03318  0.028000866  0.027934009            9 
  885000   0.91212251   -6.7006232    297.10536  0.027976022  0.027916863            7 
  886000   0.89504087   -6.6702195    296.86514  0.027921853  0.027899558            9 
  887000   0.90355505    -6.649334    298.18341  0.028014225  0.027882322           18 
  888000   0.90663532   -6.6595638    297.73654  0.027940742  0.027865124            7 
  889000   0.90417037   -6.6620473    298.84366  0.028013092  0.027848177           13 
  890000   0.91180372   -6.6369889    298.33617  0.027934098  0.027831193            7 
  891000   0.90701196   -6.6379964     298.9162  0.027956996  0.027814365            5 
  892000   0.91023918   -6.6726586    298.19387  0.027858171  0.027797472            9 
  893000   0.90990617   -6.6521838    298.89242  0.027892163  0.027780583           15 
  894000   0.89160042   -6.6580455    298.71015  0.027843974  0.027763836            5 
  895000   0.89688045   -6.6777387    298.78932  0.027820235  0.027746686            6 
  896000   0.88680352   -6.6459915    299.10645   0.02781868  0.027729476            4 
  897000   0.88031192   -6.6804415    297.98839  0.027683797  0.027712276            6 
  898000   0.86090168   -6.6540143    299.04444  0.027750969  0.027695146           12 
  899000   0.90167621   -6.6712316    299.79105  0.027789308  0.027678011           12 
  900000   0.91326865   -6.6761739    299.43084  0.027725078  0.027660836           22 
  901000   0.88935914   -6.6473342    299.52234   0.02770277  0.027643777           13 
  902000   0.89059612   -6.7114784    299.48587  0.027668687   0.02762654            6 
  903000   0.89199113   -6.6827097    299.47423  0.027636972  0.027609298            5 
  904000   0.90697395   -6.6778808    300.42271  0.027693834  0.027592355           10 
  905000     0.888172   -6.6544697    300.68768  0.027687632  0.027575464            6 
  906000   0.87307281   -6.6617109    301.00047  0.027685841  0.027558577           10 
  907000    0.8805498   -6.6706717    300.83802  0.027640391  0.027541854            6 
  908000   0.88766299   -6.6403095    301.76898  0.027695391  0.027525209            7 
  909000   0.88869451   -6.6783774     302.7839  0.027757967   0.02750867            4 
  910000   0.88956845   -6.6894726    301.65159  0.027623772   0.02749212            6 
  911000   0.88142197   -6.6974509    301.53385  0.027582679  0.027475336            8 
  912000   0.89654779   -6.6882961    302.17706  0.027611208  0.027458553           10 
  913000   0.88639262   -6.6784625    301.42736  0.027512538   0.02744181           11 
  914000   0.87487533   -6.6475203    302.00776  0.027535354  0.027424997           10 
  915000   0.87900544   -6.6909111    302.08982  0.027512734  0.027408173           12 
  916000   0.88205504   -6.6352982    301.43218  0.027422869  0.027391294            7 
  917000   0.88680939   -6.6907244    301.77583  0.027424194  0.027374266           14 
  918000   0.88013162   -6.6985809    301.76272   0.02739313  0.027356977            7 
  919000   0.86317645   -6.6674288    302.61203  0.027440336  0.027339608           11 
  920000   0.89027327   -6.6794482    302.74742  0.027422774   0.02732256            3 
  921000    0.8771533   -6.6730188    302.16314  0.027340132  0.027305514           15 
  922000   0.90285963   -6.6598729     303.2442  0.027408189  0.027288454           12 
  923000   0.89492955   -6.6640576    303.40665  0.027393161  0.027271652           11 
  924000   0.87226526    -6.686358    303.08511  0.027334515  0.027254733            8 
  925000   0.88182111   -6.6979642    304.04468  0.027391413  0.027237962           15 
  926000   0.87828011   -6.7091161    302.88717  0.027257664  0.027221006            8 
  927000   0.90358337   -6.6839871    303.48037  0.027281586   0.02720399           11 
  928000   0.87932358   -6.6904533    304.21834  0.027318457   0.02718709            9 
  929000   0.88540585   -6.6679679    304.43266  0.027308276  0.027170134            6 
  930000   0.87130754   -6.6857958    303.85658  0.027227292  0.027153254            4 
  931000   0.89126575   -6.7304343     304.2521   0.02723345  0.027136254            7 
  932000    0.8814043   -6.7000547    304.27364  0.027206155  0.027119361            8 
  933000   0.89839876   -6.6807635    304.18281  0.027168883  0.027102507            5 
  934000   0.87870637   -6.6681004    304.60885  0.027177806  0.027085605            6 
  935000   0.89138735   -6.6850107    305.55087  0.027232698  0.027068752            6 
  936000   0.88238438   -6.7320493    304.77652  0.027134662   0.02705161            8 
  937000   0.85894644   -6.7286679    303.73503  0.027013076  0.027034388            6 
  938000   0.87417292   -6.7187768    304.75956  0.027075298  0.027017046           21 
  939000   0.87390196   -6.6866056    305.06057  0.027073178  0.026999909            9 
  940000   0.87667345   -6.7239978    303.66635  0.026920775  0.026982722            5 
  941000   0.86707999   -6.6841059    304.76888  0.026989805  0.026965442           10 
  942000   0.86640207   -6.6563369    305.68456  0.027042158  0.026948353            8 
  943000   0.89010932   -6.7284668    305.27236  0.026977055  0.026931363            5 
  944000     0.884948   -6.7016866    304.69768  0.026897747  0.026914216           13 
  945000   0.87861659   -6.6968672     305.2548  0.026918412  0.026896888           11 
  946000   0.86636292   -6.6837484     306.1803  0.026971485  0.026879638            8 
  947000   0.87557098   -6.7361776    305.51457  0.026884422  0.026862389            8 
  948000   0.88516911   -6.6807396    306.68846  0.026959253  0.026845278            8 
  949000   0.87063273   -6.6896981    306.18574    0.0268867   0.02682818           14 
  950000   0.87627211   -6.7065107     306.1133  0.026852044  0.026811013           11 
  951000   0.90024578   -6.7215304    306.67749  0.026873247  0.026793818           10 
  952000   0.87066521   -6.6981965    306.58489  0.026836912   0.02677664            5 
  953000    0.8717002   -6.7015231    306.33966  0.026787308  0.026759236            3 
  954000    0.8663387   -6.7272069    306.80994   0.02680031   0.02674185            7 
  955000   0.88153949   -6.7076455    307.50885  0.026833233  0.026724606           20 
  956000   0.86787658   -6.7129035    307.39817  0.026795516  0.026707276           16 
  957000   0.85115743   -6.7141922    307.40716  0.026768301  0.026689993            5 
  958000   0.86781252   -6.7136829    307.55409  0.026753139  0.026672723           13 
  959000   0.88505894    -6.684827    307.57393  0.026726966  0.026655429            5 
  960000   0.87474853   -6.7106909    306.82912  0.026634472  0.026638106           21 
  961000   0.86104891   -6.7100081    307.58302  0.026672132  0.026620883           19 
  962000    0.8920154    -6.699154    307.49308  0.026636615  0.026603666            8 
  963000    0.8747911   -6.6880515    308.55622  0.026700954  0.026586462            7 
  964000   0.87972337   -6.7432266    307.41252  0.026574388  0.026569263            4 
  965000   0.87180034   -6.7159722    307.96068  0.026594186  0.026552114            4 
  966000   0.86590689   -6.6904941    308.90437  0.026648065  0.026534947            8 
  967000   0.87355161   -6.6996751    308.71112  0.026603854   0.02651766            6 
  968000   0.87553969   -6.7260695    308.28129  0.026539367   0.02650033            8 
  969000   0.87456651   -6.7122271    309.62269  0.026627339  0.026483017           19 
  970000   0.85388096   -6.7225886    308.74954  0.026524875  0.026465927            7 
  971000   0.85424118   -6.7239656    309.18128   0.02653461  0.026448778            5 
  972000   0.87589327   -6.7328237    309.34826  0.026521627  0.026431533           22 
  973000   0.87118146   -6.7047639    309.48766  0.026506308  0.026414237           13 
  974000   0.86906415   -6.7202696    310.18613  0.026538854  0.026397135            8 
  975000   0.86076932   -6.7177255    309.67307  0.026467783   0.02637983           19 
  976000   0.89163855   -6.7361382    309.38532  0.026416096   0.02636251            4 
  977000   0.87089157   -6.7096282     309.5214  0.026400665  0.026344941            5 
  978000   0.85157594    -6.725769    308.87901  0.026318934  0.026327571            8 
  979000   0.86729444   -6.7456674    308.96223  0.026299134  0.026310078            9 
  980000   0.87130822   -6.7546305    309.97768  0.026358646  0.026292555           15 
  981000    0.8679729   -6.7306526    310.04863  0.026337804  0.026275199           11 
  982000   0.85582736   -6.7131805     310.4272  0.026343109  0.026258012            7 
  983000   0.87292063   -6.6999495    310.24966   0.02630126  0.026240803            7 
  984000   0.86721324   -6.7450803    310.29761  0.026278592  0.026223522           16 
  985000   0.85670548   -6.7134274    310.59953  0.026277456  0.026206274           17 
  986000   0.85879991   -6.7333716    310.84269  0.026271357  0.026189179            7 
  987000   0.86241519   -6.7598349    310.43349   0.02621019  0.026172163           16 
  988000   0.84657932   -6.7472651    310.42479  0.026182928  0.026155113           22 
  989000   0.85444219   -6.7515706    311.89858  0.026280636  0.026137939           13 
  990000   0.86352585   -6.7612009     310.9773   0.02617654  0.026120881           17 
  991000   0.85993379   -6.7718469     311.2263  0.026171065  0.026103568           11 
  992000   0.85314514   -6.7616194    311.54085  0.026171107  0.026086149            6 
  993000   0.86018287   -6.7463417    311.53977   0.02614466  0.026069054            7 
  994000   0.85979021   -6.7247466    312.46414  0.026195853  0.026052025           11 
  995000    0.8508073   -6.7543952    312.43155  0.026166796  0.026035046           14 
  996000   0.84146281   -6.7293826     312.5522  0.026150619  0.026018072           12 
  997000   0.86353803   -6.7535467    312.59304  0.026127804  0.026001155           12 
  998000   0.85892808     -6.75569    312.77078  0.026116465  0.025984229            7 
  999000   0.85987027   -6.7453257    312.16272  0.026039599  0.025967292            9 
 1000000    0.8453142   -6.7775188    312.02227  0.026001856  0.025950234            7 
 1001000   0.85994775   -6.7321056    313.41107  0.026091497  0.025933174           12 
 1002000   0.86756635   -6.7399254      313.094  0.026039088  0.025916279            9 
 1003000   0.85793228   -6.7448587     313.1216   0.02601542  0.025899376            9 
 1004000   0.86114478   -6.7841661    313.28182  0.026002807  0.025882453           14 
 1005000   0.84569518   -6.8003325    312.58102  0.025918824  0.025865455           21 
 1006000   0.86706186   -6.7520562    313.27233  0.025950326  0.025848403            4 
 1007000   0.83381556   -6.7576691    312.75357  0.025881626  0.025831455            6 
 1008000    0.8492269    -6.740309    313.69323  0.025933633  0.025814489            8 
 1009000   0.83831768   -6.7455244    314.12463   0.02594356  0.025797565           13 
 1010000   0.86341078   -6.7612447    314.17606  0.025922117  0.025780609            8 
 1011000   0.83772204    -6.741046    314.22826  0.025900779   0.02576367           16 
 1012000   0.86592866   -6.7289281    314.02771  0.025858672  0.025746865           13 
 1013000   0.85366541   -6.7542171    314.57018  0.025877771  0.025729999           15 
 1014000   0.86550789   -6.7473321    313.94756  0.025801082  0.025713129            8 
 1015000   0.83881835    -6.734617      315.281   0.02588514  0.025696226           14 
 1016000   0.83884368   -6.7692436    313.97346  0.025752416  0.025679403            6 
 1017000   0.84760074   -6.7609048    314.81488  0.025796041  0.025662651            7 
 1018000   0.85281885    -6.792116    314.00052  0.025704037  0.025645755            8 
 1019000   0.85525428   -6.7739279    314.77412  0.025742078  0.025628806            7 
 1020000   0.83263977   -6.7403049    315.34675  0.025763623  0.025611959           11 
 1021000   0.84500276   -6.7509784    315.51007   0.02575172  0.025594972           18 
 1022000   0.83748118   -6.7398152    315.48456  0.025724443  0.025578086           13 
 1023000   0.85252285   -6.7424759    315.14514  0.025671647  0.025561187           11 
 1024000   0.84417488   -6.7733827    315.12521  0.025644956  0.025544279           12 
 1025000   0.84861561   -6.7457168    316.20361  0.025707611  0.025527546            6 
 1026000   0.85973406   -6.7563465    315.83434  0.025652562  0.025510737            8 
 1027000    0.8389287   -6.7540158    316.48296  0.025680214  0.025494073           13 
 1028000    0.8628837   -6.7319085    316.95891  0.025693816  0.025477519           11 
 1029000   0.83617782   -6.7626269    316.52324  0.025633563  0.025460994            9 
 1030000   0.86458594   -6.7504151    316.23953  0.025585722  0.025444375            7 
 1031000   0.85078658   -6.7812966    316.43018  0.025576316  0.025427794            9 
 1032000   0.85545307   -6.7691053    316.02816   0.02551907     0.025411            5 
 1033000   0.85967166   -6.7721976    316.69807  0.025548408  0.025394344            7 
 1034000   0.84696932   -6.7692925    316.76798  0.025529334  0.025377806            8 
 1035000   0.82558391   -6.7701616    317.49098  0.025562881  0.025361191           21 
 1036000   0.83617895   -6.7603011    317.85568  0.025567542  0.025344613           15 
 1037000   0.84482353   -6.7768549    317.18728  0.025489174  0.025328054           15 
 1038000   0.83256459   -6.7573039     317.5925   0.02549715  0.025311619           13 
 1039000   0.84055429   -6.8020152    316.56864   0.02539049  0.025295113            4 
 1040000   0.85971318   -6.7469923    318.50192  0.025520987  0.025278695           10 
 1041000   0.83607574   -6.7632455    318.65435  0.025508674  0.025262391            8 
 1042000   0.84785569   -6.7716976    318.36479  0.025461035  0.025246093            6 
 1043000   0.83665744   -6.7523566    319.63661   0.02553824  0.025229899           15 
 1044000    0.8210254   -6.7838555     318.8065  0.025447517  0.025213856           11 
 1045000   0.85660091   -6.7614679     319.3706   0.02546815  0.025197729            8 
 1046000   0.83490308   -6.7580312     319.2911  0.025437469  0.025181633            5 
 1047000   0.83702828   -6.7576048    318.63677  0.025361093  0.025165463           11 
 1048000   0.84759707   -6.7790497     319.8405   0.02543261  0.025149342            7 
 1049000   0.83339379   -6.7891378    319.88405  0.025411824  0.025133184            5 
 1050000   0.81943306   -6.8024254    319.72088  0.025374673   0.02511704           15 
 1051000   0.83926619   -6.8036982    319.81624  0.025358091  0.025100834           12 
 1052000   0.83788601    -6.766895    320.58286  0.025394714  0.025084822            6 
 1053000    0.8395328   -6.7757003     320.2947  0.025347792  0.025068948            9 
 1054000   0.84388569   -6.7612102    320.23438  0.025318974  0.025053022            8 
 1055000   0.82996662   -6.7593012    319.89689  0.025268317  0.025037001           12 
 1056000   0.83623151   -6.7973376    319.98844  0.025251613  0.025020983           11 
 1057000   0.82248073    -6.795942    320.15516  0.025240867  0.025004931           10 
 1058000   0.82187066   -6.7910034    320.42246  0.025238064  0.024988773           22 
 1059000   0.83338115    -6.791396    320.78475   0.02524274   0.02497263            6 
 1060000   0.83956455   -6.8066373    321.10908  0.025244425  0.024956653           13 
 1061000   0.81994879   -6.8047715    321.54887  0.025255174  0.024940757           17 
 1062000   0.82409761   -6.7936652    321.30925  0.025212591   0.02492487           12 
 1063000   0.84056435    -6.829589    320.75529  0.025145445   0.02490885           16 
 1064000   0.83147131   -6.7942394    321.26205  0.025161502  0.024892776           40 
 1065000   0.83726543   -6.7812516    320.54745   0.02508196  0.024876519            9 
 1066000   0.84248867   -6.8065298    320.76738  0.025075624  0.024860281           15 
 1067000   0.83239463   -6.8012348    321.05611  0.025074673  0.024843945           14 
 1068000   0.81432441   -6.8275466    319.28557  0.024913044  0.024827474           11 
 1069000   0.82935579   -6.8075887    320.38994   0.02497583  0.024811038           13 
 1070000   0.80535449    -6.788347     321.0795  0.025006192  0.024794786           11 
 1071000   0.82753388   -6.8487476     321.2534  0.024996374  0.024778599            8 
 1072000   0.82213251   -6.8192281    321.82686  0.025017635  0.024762406           11 
 1073000   0.82474039   -6.8108535    321.43579  0.024963947  0.024746354            7 
 1074000   0.83319923   -6.8093247    321.85451  0.024973193  0.024730326            8 
 1075000   0.82285298   -6.8263049     322.2297  0.024979047  0.024714198            8 
 1076000   0.80925338   -6.8271722    322.45738  0.024973465  0.024698293           10 
 1077000   0.82306975    -6.811873    322.54157  0.024956791  0.024682338            5 
 1078000   0.81712754   -6.7846137    323.34846  0.024996016  0.024666354            5 
 1079000   0.81419053   -6.7813294    323.40155   0.02497695  0.024650473           11 
 1080000   0.84138639   -6.7696127    322.87354  0.024913082  0.024634563           13 
 1081000    0.8302956    -6.838961    322.41871  0.024854973  0.024618616           40 
 1082000   0.83843256   -6.8188817    322.73482  0.024856348  0.024602609           14 
 1083000   0.81557343   -6.8177183    322.87033  0.024843824  0.024586456            9 
 1084000   0.82781265   -6.8153835    323.60069  0.024877052  0.024570383            7 
 1085000   0.82505721   -6.8104872    322.61108  0.024778116  0.024554204           16 
 1086000   0.83622582   -6.7975181    323.56743  0.024828686  0.024538076           18 
 1087000   0.83167022   -6.8170713      323.642   0.02481156  0.024521947           15 
 1088000   0.83328219    -6.819218     323.1297  0.024749518  0.024505788           13 
 1089000   0.79400755   -6.8020345     323.7752  0.024776186  0.024489841            7 
 1090000    0.8195567   -6.8100625     324.1505  0.024782148  0.024473839            9 
 1091000   0.80323535   -6.8172309    322.77366  0.024654266  0.024457745            6 
 1092000   0.82106828   -6.8099309    323.26747  0.024669373  0.024441562           14 
 1093000   0.82446687   -6.7930385    323.62412  0.024673995  0.024425496           12 
 1094000   0.83230991   -6.8150739    323.47822  0.024640327  0.024409316           19 
 1095000   0.82613935   -6.8089215     323.6521  0.024631058  0.024393199           13 
 1096000   0.80694503   -6.8230586    323.52823  0.024599166  0.024377049           26 
 1097000   0.81327012    -6.845623     323.6159  0.024583402  0.024360901           22 
 1098000     0.817865   -6.8128674    323.98676  0.024589159  0.024344713            8 
 1099000    0.8317579   -6.8242008    324.16263   0.02458012  0.024328594            8 
 1100000   0.80416585   -6.7998998    324.77399   0.02460409  0.024312609            7 
 1101000   0.82214137   -6.8117835    324.49824  0.024560872  0.024296549            9 
 1102000    0.8170881   -6.8236324    325.39058  0.024606064  0.024280524           12 
 1103000   0.79609474   -6.8205986    325.45159  0.024588364  0.024264652            9 
 1104000   0.81533614   -6.8286756    324.66314  0.024506577  0.024248799           36 
 1105000    0.8304471   -6.7882858    325.64333   0.02455832  0.024232937            6 
 1106000   0.81566042    -6.806543    324.33324  0.024437405   0.02421709            8 
 1107000   0.82776653   -6.8268128    325.68404  0.024517016  0.024201232           22 
 1108000   0.81382131   -6.8231175    325.69594  0.024495784  0.024185448           26 
 1109000    0.7893417   -6.8213682    325.55081   0.02446279  0.024169732           12 
 1110000   0.80861583   -6.8344174    325.39386  0.024428969  0.024153996           24 
 1111000   0.81895658   -6.8235703    325.82548  0.024439355  0.024138167           15 
 1112000   0.81993646   -6.8560962    326.01095  0.024431276  0.024122492           30 
 1113000   0.80231236   -6.8255904    324.95493  0.024330258  0.024106621            6 
 1114000   0.80482382   -6.8653372    325.87301  0.024377096  0.024090783            6 
 1115000   0.81318454   -6.8419411    325.54995  0.024331087  0.024074902            9 
 1116000   0.80128213   -6.8387661     326.3338  0.024367817  0.024059036            9 
 1117000   0.80674705   -6.8268613    326.39607  0.024350647  0.024043251           10 
 1118000    0.7999362   -6.8597525    326.18323  0.024313002  0.024027373           10 
 1119000   0.80917234   -6.8204437    325.98948  0.024276845  0.024011456            9 
 1120000   0.81037754   -6.8399671    326.35045  0.024282027   0.02399554           17 
 1121000   0.81599057   -6.8405876    325.67699  0.024210303   0.02397966           24 
 1122000   0.81575138   -6.8333476    327.21456  0.024302923  0.023963878           13 
 1123000    0.7945938   -6.8150628    327.56124  0.024307008  0.023948153            9 
 1124000   0.80503873   -6.8239615    327.36216  0.024270623  0.023932444           11 
 1125000   0.81368722   -6.8801257    326.70499   0.02420037  0.023916676            8 
 1126000   0.80145707   -6.8408934    327.23792  0.024218319  0.023900932           15 
 1127000   0.82261284    -6.816174    326.88116  0.024170449  0.023885171           43 
 1128000   0.80941205   -6.8543846    327.23547  0.024175197  0.023869405           15 
 1129000     0.790348   -6.8517534    326.87853  0.024127438   0.02385352           25 
 1130000   0.78373104   -6.8552392    326.87723   0.02410599  0.023837666           37 
 1131000   0.81830195   -6.8509607    327.88044  0.024158594  0.023821935           19 
 1132000   0.82483043   -6.8518338    328.08112  0.024152026  0.023806261           31 
 1133000   0.79845616   -6.8578336    327.18998  0.024065165  0.023790542           21 
 1134000   0.79791642   -6.8414718    328.07503  0.024108982  0.023774857            7 
 1135000   0.78101277   -6.8600267    328.22962  0.024099091  0.023759193           10 
 1136000   0.79353635   -6.8184424    328.09641  0.024068105  0.023743488            7 
 1137000   0.79258371   -6.8736077    327.84803  0.024028733  0.023727735           16 
 1138000   0.79826959   -6.8565812    327.34874  0.023971056  0.023711894           14 
 1139000   0.79912259   -6.8578481    327.93015  0.023992548  0.023696042           18 
 1140000   0.79854847   -6.8249218    328.08285  0.023982664  0.023680216           11 
 1141000   0.80128128   -6.8702047    327.71441  0.023934736  0.023664507            9 
 1142000      0.80837   -6.8404076    327.53066  0.023900369  0.023648633            8 
 1143000   0.79295062   -6.8534654    329.27223  0.024006432  0.023632829            9 
 1144000   0.81544507   -6.8417213    328.46478   0.02392663  0.023616963            8 
 1145000   0.79447755   -6.8652678    329.37982   0.02397233  0.023601099            6 
 1146000   0.79555396    -6.858247     328.1789  0.023864085  0.023585248           12 
 1147000   0.79013987   -6.8692324    328.47114  0.023864512  0.023569265           12 
 1148000   0.79558808    -6.877628    328.52334  0.023847513  0.023553257           36 
 1149000   0.79362359   -6.8865715    328.73062  0.023841791  0.023537464           16 
 1150000   0.78864231    -6.878615    329.15998  0.023852172  0.023521668           14 
 1151000   0.79999184   -6.9091031    328.19867   0.02376185  0.023505737           10 
 1152000   0.78894923   -6.8757502    328.06517  0.023731566  0.023489721           12 
 1153000   0.78972265   -6.8721347    328.03915  0.023709103  0.023473781           14 
 1154000   0.79358238   -6.8611804    328.64367  0.023732212  0.023457814           24 
 1155000   0.78373792   -6.8756246    328.78517  0.023721874  0.023441896           10 
 1156000   0.79635749   -6.9014812    328.54802  0.023684257  0.023425966           20 
 1157000   0.80068175   -6.8628941    328.50358  0.023660586  0.023410019           28 
 1158000   0.78927113   -6.8603416    328.27723  0.023623865  0.023393988            6 
 1159000   0.80984146   -6.8722157    329.20672  0.023670314  0.023378022           11 
 1160000   0.79238365   -6.8783579    329.06289  0.023639576  0.023361976           32 
 1161000    0.7906536   -6.8781999    329.39205   0.02364284  0.023345898           22 
 1162000   0.80193314   -6.9011508    329.01298  0.023595308   0.02332986           35 
 1163000   0.78040277   -6.8611767    329.41635  0.023603923  0.023313799           12 
 1164000   0.79750521   -6.8631113    329.17631   0.02356646   0.02329789           22 
 1165000   0.79590786   -6.8680997    328.87432  0.023524629  0.023282001           17 
 1166000   0.77941564   -6.9265044    329.44591  0.023545305  0.023266059           25 
 1167000   0.79503665   -6.8735201    329.39316  0.023521362  0.023250219           20 
 1168000   0.78563679   -6.8866989     329.1098  0.023481007  0.023234384           25 
 1169000   0.78020401   -6.8867272    329.42593  0.023483457  0.023218436           14 
 1170000   0.77109099   -6.8596528    329.85613  0.023494026  0.023202636            8 
 1171000   0.79480802   -6.8817271    329.94859  0.023480543  0.023186848            6 
 1172000   0.78310419   -6.8817385    331.14726  0.023545738  0.023171056           12 
 1173000    0.7736633   -6.8726882    330.75774  0.023497993  0.023155403            7 
 1174000    0.7787274   -6.9051467    330.84323  0.023484045  0.023139723           13 
 1175000   0.78776414   -6.9102761    331.33169  0.023498701   0.02312402           13 
 1176000   0.78056557   -6.8881663    330.94477  0.023451302  0.023108368            9 
 1177000   0.78838861   -6.8746673    330.26923  0.023383548  0.023092797           12 
 1178000   0.77242067   -6.8846632    330.74353   0.02339725  0.023077226           15 
 1179000   0.78682742   -6.8815735    330.84389  0.023384499  0.023061667           20 
 1180000   0.79221927   -6.8930775    331.35259  0.023400606  0.023046146           12 
 1181000   0.76448485    -6.878151    331.46109  0.023388448  0.023030599           14 
 1182000    0.7786544   -6.9139589    331.28628  0.023356337  0.023015004           20 
 1183000   0.76573002   -6.8688247    331.26914  0.023335386  0.022999412           11 
 1184000   0.77668145   -6.8673199    331.25391  0.023314605   0.02298389           15 
 1185000   0.77610541     -6.85056    331.47693  0.023310614   0.02296832           12 
 1186000   0.79505119    -6.918916     331.3294  0.023280593  0.022952679            6 
 1187000   0.76534998   -6.8714063    331.78844  0.023293207  0.022937061           17 
 1188000   0.78172589   -6.9052692    330.59244  0.023189705  0.022921453            9 
 1189000   0.78182092   -6.8900427    331.27461  0.023218013  0.022905793           10 
 1190000   0.77743994   -6.8573708    331.95764  0.023246334  0.022890254           14 
 1191000   0.76601629   -6.9019947    331.63255  0.023204068  0.022874683            7 
 1192000   0.78486464   -6.9016076    332.41991  0.023239647  0.022859077           12 
 1193000    0.7733587   -6.8975885    332.27749  0.023210218  0.022843562           20 
 1194000    0.7905285   -6.8896447    332.37796  0.023197792  0.022828003           16 
 1195000   0.77866694   -6.9106856    332.15382  0.023162749  0.022812501           22 
 1196000   0.76981731   -6.9122094    332.15368  0.023143372  0.022797007            8 
 1197000   0.77558468   -6.9184403    332.81379  0.023169994  0.022781541           10 
 1198000   0.75003818   -6.8937623    332.43847  0.023124546  0.022766067           20 
 1199000   0.76583102   -6.8997576    332.82645  0.023132225  0.022750678            5 
 1200000    0.7844543   -6.8957607    332.49788  0.023090131  0.022735207           12 
 1201000   0.78041706   -6.9073228     332.5452  0.023074188  0.022719772            9 
 1202000   0.79121468   -6.8993032    332.61777  0.023060023  0.022704337           11 
 1203000   0.78028211   -6.8564371    332.43263  0.023028029  0.022688915           36 
 1204000   0.77398438   -6.9357075    332.92467  0.023042959   0.02267345            8 
 1205000   0.75804851   -6.9004982    332.29774   0.02298048  0.022657935           12 
 1206000   0.77163224   -6.9068487    332.71357  0.022990159  0.022642453            9 
 1207000   0.74923603   -6.8999146    332.77404  0.022975286  0.022626941           18 
 1208000   0.79131772   -6.9107766    332.46685  0.022935075  0.022611326           20 
 1209000   0.77790833   -6.9035994    332.98323  0.022951698  0.022595777           18 
 1210000   0.77765268   -6.9281337    333.45467  0.022965197  0.022580159           12 
 1211000   0.78313363   -6.9602625    331.98183  0.022844883  0.022564557           43 
 1212000   0.76586971   -6.9235494    332.21842  0.022842301  0.022548887           18 
 1213000   0.77995916    -6.932285    331.77058  0.022792703  0.022533139           25 
 1214000   0.75163148   -6.9144569     332.5551   0.02282778  0.022517378           32 
 1215000   0.75975147   -6.9308072    333.48063  0.022872471  0.022501675           15 
 1216000   0.76098156   -6.9177963    332.48695  0.022785564  0.022486008           28 
 1217000   0.77562275    -6.912652    332.83169  0.022790447  0.022470403           27 
 1218000   0.76682772   -6.9174152    333.25889  0.022800964  0.022454726           14 
 1219000   0.75043134   -6.9170198    333.67098  0.022810431  0.022439141           16 
 1220000   0.76565814    -6.926124    333.37494  0.022771512  0.022423543           11 
 1221000   0.75403973   -6.9250515    333.17099  0.022738943  0.022407996           10 
 1222000   0.77194361   -6.8968988    332.21408  0.022655079    0.0223924           14 
 1223000   0.76185759   -6.8983296     333.3442   0.02271356  0.022376828           14 
 1224000   0.75704488   -6.9158876    333.24307  0.022688118  0.022361255           17 
 1225000   0.75306315   -6.9297978     333.4854  0.022686082  0.022345654           12 
 1226000   0.76708307   -6.9183553    333.45179  0.022665293  0.022330138           13 
 1227000   0.77233151   -6.9365861    333.67484   0.02266197   0.02231462           15 
 1228000   0.74577218   -6.9041643    333.19355  0.022610854   0.02229911           21 
 1229000   0.75449117   -6.9010484    333.74892  0.022630114  0.022283616           13 
 1230000      0.76648   -6.9326822    332.75319  0.022544254  0.022268137           23 
 1231000   0.76658041   -6.9408305    333.59345  0.022582823   0.02225257           38 
 1232000   0.76079416   -6.9133623    333.26267  0.022542118  0.022236998           13 
 1233000   0.76220239   -6.9109741    334.11499   0.02258144  0.022221504           18 
 1234000   0.75528624   -6.9346837    333.70387  0.022535377   0.02220594           23 
 1235000   0.77155898   -6.9172496    333.98391  0.022536026  0.022190396           14 
 1236000   0.75775226   -6.9170857    334.09563  0.022525325  0.022174869           12 
 1237000   0.75669106   -6.9156759    334.00694  0.022501141  0.022159323           18 
 1238000   0.74865258    -6.940245     333.8248  0.022470705  0.022143864           13 
 1239000    0.7702301   -6.9373963    334.19696    0.0224776  0.022128377           11 
 1240000   0.76659081   -6.9311268     334.3896  0.022472419  0.022112874           19 
 1241000   0.74722943   -6.9624545    334.08322  0.022433738  0.022097444           12 
 1242000   0.74248901   -6.9217809    334.61978  0.022451676  0.022081988           22 
 1243000   0.75835913   -6.9441317    334.22313  0.022407021  0.022066506           17 
 1244000   0.74103408   -6.9326813    335.07184  0.022445863  0.022051105           12 
 1245000   0.76083632   -6.9256061    335.42562  0.022451514  0.022035759           22 
 1246000   0.76879085   -6.9398223      335.055  0.022408708  0.022020435           40 
 1247000   0.73736217   -6.9458322    334.72349  0.022368584  0.022005168           19 
 1248000   0.75632164   -6.9590642    335.01288  0.022369984  0.021989856           17 
 1249000   0.75166114   -6.9332991      334.986   0.02235028  0.021974582           10 
 1250000   0.76993957   -6.9386974    335.75483  0.022383655  0.021959406            7 
 1251000   0.74023181   -6.9064895     335.3888   0.02234138  0.021944257           19 
 1252000   0.75762664   -6.9175236    335.05943  0.022301613  0.021929097           12 
 1253000   0.73732047   -6.9320315    336.48141  0.022378386  0.021913916           11 
 1254000   0.74804932   -6.9628988    335.89122   0.02232132  0.021898816           17 
 1255000   0.75431582   -6.9437255    335.57423  0.022282485  0.021883644           12 
 1256000   0.75726219   -6.9534498    335.14678  0.022236384  0.021868358           25 
 1257000   0.73943755   -6.9656136      335.578  0.022247282  0.021853066           14 
 1258000   0.76008865   -6.9562803    335.98805   0.02225676  0.021837861           13 
 1259000   0.75623846   -6.9448484    334.94668  0.022170153  0.021822631           25 
 1260000   0.73046469   -6.9574847    336.38169  0.022247467   0.02180746           23 
 1261000   0.73761903   -6.9532512    335.83795   0.02219389   0.02179229           14 
 1262000   0.75108748   -6.9709346    335.77808  0.022172351  0.021777184           53 
 1263000   0.75852358   -6.9448186     336.4908  0.022201821  0.021762165           33 
 1264000   0.77282694   -6.9506358    337.21709  0.022232139  0.021747161           18 
 1265000   0.73805909     -6.95311    336.82533  0.022188757  0.021732202           15 
 1266000   0.75913884   -6.9595954    336.77466  0.022167895  0.021717254            9 
 1267000   0.75294276    -6.938369    337.16427  0.022176024  0.021702296           15 
 1268000   0.73961782   -6.9301713    336.84973  0.022137863  0.021687439           14 
 1269000   0.74486317   -6.9408839    336.23912   0.02208032  0.021672535           18 
 1270000   0.74653074   -6.9842417     336.5722   0.02208479   0.02165761           19 
 1271000   0.76072789   -6.9562844    336.98764  0.022094653  0.021642728           17 
 1272000   0.75003951   -6.9499906    337.23005  0.022093164  0.021627839           10 
 1273000   0.72916273   -6.9834441    337.23273  0.022075984  0.021612956           18 
 1274000   0.74012088   -6.9793568    337.41834  0.022070797  0.021598124           24 
 1275000   0.73530269   -6.9741328     336.9738  0.022024431  0.021583237           15 
 1276000   0.74001839   -6.9724138    337.29743  0.022028307  0.021568297           11 
 1277000    0.7548194   -6.9872522     337.2881  0.022010448  0.021553328           20 
 1278000   0.74268629   -6.9762239    337.20886  0.021988058  0.021538274           34 
 1279000   0.74565861   -7.0077819    337.12751  0.021965566  0.021523192           22 
 1280000   0.75271472   -6.9689091    337.52665  0.021974391  0.021508246            9 
 1281000   0.74655502   -6.9785158     337.5575  0.021959244  0.021493331           19 
 1282000   0.73689721   -6.9721003    338.09993  0.021977375  0.021478422            8 
 1283000   0.73203349   -6.9612384     337.5857  0.021926845   0.02146356           16 
 1284000   0.73854998   -6.9739627    336.93543  0.021867564   0.02144872           10 
 1285000   0.74537854   -6.9584904    337.90129  0.021913183  0.021433849            6 
 1286000   0.73108704    -6.958362     338.4074   0.02192894  0.021419044           16 
 1287000    0.7449518   -6.9732686    338.04313  0.021888314  0.021404273            8 
 1288000   0.72475416   -6.9493845    338.53622  0.021903223  0.021389544           11 
 1289000   0.73008549   -6.9980273     338.1196  0.021859297  0.021374716           11 
 1290000   0.73116835   -6.9692118    337.97782  0.021833192  0.021359892           13 
 1291000   0.73353085   -6.9746548    338.66115  0.021860389  0.021345135           12 
 1292000   0.74014066   -6.9740794    338.29615  0.021819927  0.021330414           20 
 1293000   0.73656517   -6.9790226    339.19497   0.02186098  0.021315609            7 
 1294000   0.72751412   -6.9861027    337.91147  0.021761429  0.021300807           36 
 1295000    0.7349605   -6.9635214    338.45175  0.021779392  0.021285999           20 
 1296000   0.72689988   -6.9713274    338.08418  0.021738952  0.021271277            8 
 1297000   0.73846565    -6.975416    337.95451   0.02171386  0.021256474           19 
 1298000    0.7139117    -6.975884     338.1266  0.021708179  0.021241739           20 
 1299000   0.73129101   -6.9758886    338.58508   0.02172088  0.021227001           15 
 1300000   0.73806198   -6.9883288    339.10794  0.021737689   0.02121226           12 
 1301000    0.7216989   -6.9819342    338.32809  0.021671028  0.021197483           14 
 1302000   0.73949833   -7.0010137    338.50893  0.021665958  0.021182638           20 
 1303000   0.74095013   -6.9776378    338.76064  0.021665429  0.021167779           16 
 1304000   0.74217259   -6.9976322    338.81111  0.021652039   0.02115298           22 
 1305000   0.72513021    -6.964156    338.83183  0.021636771  0.021138217           26 
 1306000   0.73374042   -6.9700039    338.53764  0.021601432  0.021123443           30 
 1307000    0.7225406   -6.9824298    338.67229  0.021593489  0.021108691           43 
 1308000   0.73776727   -6.9900961    338.86709  0.021589391  0.021093963           18 
 1309000   0.71383264   -6.9845042     338.9706  0.021579488  0.021079239           19 
 1310000   0.71813347    -6.995984    338.71104  0.021546504  0.021064496           17 
 1311000   0.74262434   -6.9709026    339.44144  0.021576496  0.021049844           23 
 1312000     0.729198   -7.0070435    339.26643  0.021548935  0.021035181           12 
 1313000   0.74096494   -7.0129963    339.46164  0.021544912  0.021020422           10 
 1314000   0.74332666   -6.9941839    339.96057  0.021560158  0.021005737           14 
 1315000    0.7258645   -7.0128602     338.7357  0.021466141  0.020990993           13 
 1316000   0.73196967    -7.009109    338.76684  0.021451801  0.020976268           20 
 1317000   0.72105839   -6.9733279    340.05411  0.021516965  0.020961603           22 
 1318000   0.72553021   -6.9898731    340.33185    0.0215182  0.020946982           25 
 1319000   0.71944546   -6.9825375    339.02933  0.021419594  0.020932377           17 
 1320000   0.72477572   -6.9898429    338.76504  0.021386682  0.020917757           16 
 1321000   0.71095471    -7.000344    339.83873  0.021438224  0.020903037           28 
 1322000   0.72645522   -6.9879067    339.10385  0.021375684  0.020888279           30 
 1323000   0.72364321   -7.0188444    339.06123  0.021356842  0.020873538           15 
 1324000   0.73963015   -7.0292164    339.11085  0.021343835  0.020858792           29 
 1325000   0.71924095   -7.0092948    338.87822  0.021313096  0.020844118           25 
 1326000   0.70397346   -6.9959624    338.58909  0.021278852  0.020829382           28 
 1327000   0.72959525   -6.9892716    339.25411  0.021304579  0.020814645           30 
 1328000   0.72916052   -7.0279889    340.05187  0.021338596  0.020800013           24 
 1329000   0.71489349   -6.9853367    340.14639  0.021328467  0.020785361           14 
 1330000    0.7244301   -7.0077919    339.46921      0.02127  0.020770762           23 
 1331000   0.73360431   -6.9960666    339.75584  0.021271966  0.020756206           13 
 1332000   0.72936473   -7.0009515    339.95102  0.021268207  0.020741606           26 
 1333000   0.72394078   -7.0072172    339.42876  0.021219602  0.020727096           23 
 1334000   0.73189192   -7.0213533    339.63741   0.02121673  0.020712565           21 
 1335000   0.73494472   -7.0410321    339.58431  0.021197523  0.020698055           31 
 1336000    0.7359248   -7.0319362    339.92466  0.021202886  0.020683463           26 
 1337000   0.72089943   -7.0078475    340.35411  0.021213794  0.020668932           24 
 1338000   0.73064451   -7.0002783    340.10939  0.021182697  0.020654415            6 
 1339000   0.73561351   -7.0240651    340.36041    0.0211825  0.020639839           18 
 1340000   0.72821312   -7.0141995    340.76757  0.021192013  0.020625315           15 
 1341000   0.70369431   -7.0357858    340.58697  0.021164987  0.020610727           16 
 1342000   0.71148153   -7.0289415    340.27657  0.021129941  0.020596159           32 
 1343000   0.71521204   -7.0323028    340.39909   0.02112181  0.020581666           46 
 1344000   0.71939215     -7.02717     340.4835  0.021111328  0.020567165           39 
 1345000   0.70788595   -7.0217642    340.21617  0.021079069   0.02055268           39 
 1346000   0.70609143   -7.0142929    340.23472  0.021064557  0.020538164           63 
 1347000   0.72742804   -7.0417649    340.08123  0.021039423  0.020523616           65 
 1348000   0.72338949   -7.0488697    340.74739  0.021064997  0.020509158           54 
 1349000   0.71963995   -7.0418046    340.51695  0.021035146  0.020494726           47 
 1350000   0.71589358   -7.0482365    340.24708  0.021002906  0.020480255           39 
 1351000    0.7169097     -7.02985    340.86698  0.021025597    0.0204658           21 
 1352000   0.70552807    -7.040144    341.26399  0.021034516  0.020451356           48 
 1353000   0.71145946   -7.0386949    340.90066  0.020996591  0.020436923           20 
 1354000   0.71538639    -7.028355    341.06097  0.020990951  0.020422485           25 
 1355000   0.70305768   -7.0497894    341.01846  0.020972845  0.020408121           36 
 1356000   0.71087192   -7.0306248    341.34804  0.020977633  0.020393789           50 
 1357000   0.71343141   -7.0382743    340.84156  0.020931071  0.020379431          126 
 1358000   0.72807474    -7.011408    341.47021  0.020954235  0.020365109           72 
 1359000   0.71495079   -7.0608347    340.71623  0.020892582  0.020350756          140 
 1360000   0.70827364   -7.0502935    340.91642  0.020889486  0.020336446           28 
 1361000   0.72073548   -7.0063716     341.4663  0.020907807  0.020322199           31 
 1362000   0.71741147   -7.0446413    341.23472  0.020878287  0.020307898           74 
 1363000   0.69569094   -7.0432396    340.96619  0.020846551  0.020293583           57 
 1364000   0.71911002   -7.0415424    341.08054  0.020838254  0.020279275           32 
 1365000   0.69684267   -7.0518322    341.30525  0.020836706  0.020264952           52 
 1366000   0.70895189   -7.0264856     342.1873  0.020875262  0.020250648          112 
 1367000   0.70647965   -7.0616166    341.38021  0.020810791  0.020236412           39 
 1368000    0.7078688   -7.0668947    341.82362  0.020822589   0.02022218           47 
 1369000   0.70959899   -7.0406679    341.97456  0.020816567   0.02020802           49 
 1370000   0.71149183   -7.0537638    341.88659  0.020796021  0.020193907           26 
 1371000   0.70641268   -7.0326612    341.43181   0.02075321  0.020179763           27 
 1372000   0.71559213   -7.0417938    341.25102  0.020727103  0.020165586           80 
 1373000   0.70379466   -7.0357425    341.88152  0.020750274  0.020151437           87 
 1374000   0.70938428   -7.0644249    342.21404  0.020755339  0.020137276           20 
 1375000   0.69951341   -7.0547334    341.68384  0.020708111  0.020123058           45 
 1376000   0.70860137   -7.0219148    341.77828  0.020698781  0.020108873           32 
 1377000   0.70743082   -7.0488182    341.73525  0.020681146  0.020094759           49 
 1378000   0.71150915   -7.0536897    342.05276  0.020685339  0.020080601           35 
 1379000   0.69763225   -7.0362561    341.75117  0.020652113  0.020066422           85 
 1380000   0.71906432   -7.0712655    342.48939  0.020681726  0.020052246           40 
 1381000   0.70099074   -7.0724281    342.17594  0.020647836  0.020038031           53 
 1382000   0.69864525   -7.0672944    342.60446  0.020658735  0.020023833           74 
 1383000   0.69715551   -7.0508707      341.941   0.02060382  0.020009658           43 
 1384000   0.69235025   -7.0510708    341.72241  0.020575771  0.019995526           47 
 1385000   0.70902937   -7.0644626    341.81329  0.020566383  0.019981398           40 
 1386000   0.70521189   -7.0452627    341.18007  0.020513472  0.019967277           92 
 1387000   0.68410676   -7.0637618    341.99177   0.02054745  0.019953098           64 
 1388000     0.714205   -7.0658996    342.49764  0.020563019  0.019938919          100 
 1389000   0.69823061   -7.0628989    342.54052  0.020550787  0.019924813           53 
 1390000   0.71197638    -7.067982     342.2218  0.020516894  0.019910717           24 
 1391000   0.69627988   -7.0473839    342.37932  0.020511581  0.019896621           18 
 1392000   0.70978722    -7.062149    341.80427   0.02046242  0.019882516           38 
 1393000   0.69707437   -7.0842371    341.72703   0.02044311  0.019868385           40 
 1394000   0.70111528   -7.0846448    342.34968  0.020465667  0.019854241           20 
 1395000   0.70026156   -7.0777908     342.5854  0.020465078   0.01984016           55 
 1396000   0.68628449   -7.0762574    343.08313   0.02048013  0.019826106           79 
 1397000    0.6939495   -7.0650206    342.22343  0.020414187  0.019812064           75 
 1398000   0.69930848   -7.0741761    342.38045  0.020408944  0.019798042           68 
 1399000    0.7063108   -7.0769252    342.90761  0.020425757  0.019783991          138 
 1400000   0.69949344   -7.0609883    342.77416  0.020403224  0.019770049           43 
 1401000    0.7056619    -7.079483    343.12312  0.020409417  0.019756134           48 
 1402000   0.70229985   -7.0630332    342.12149  0.020335324    0.0197422           22 
 1403000   0.69432319   -7.0546073    342.67969  0.020353985  0.019728262           28 
 1404000    0.7082512   -7.0422774    342.66127  0.020338394  0.019714333           40 
 1405000   0.69855334   -7.0727196    342.72313  0.020327588  0.019700402           23 
 1406000   0.68554925   -7.0500852    342.47375  0.020298349  0.019686458           28 
 1407000   0.69283497   -7.0888132    342.63208    0.0202933  0.019672571           34 
 1408000   0.71802808   -7.0699397    343.55621  0.020333583  0.019658716           53 
 1409000    0.6829044   -7.0497352    343.82678  0.020335154  0.019644884           39 
 1410000   0.69036583   -7.0664612    342.92343  0.020267342  0.019631046           22 
 1411000   0.67749314   -7.0929228    343.12521  0.020264895  0.019617144           33 
 1412000   0.69049208   -7.0886661    342.92298  0.020238608  0.019603246           49 
 1413000   0.69021951    -7.094456    342.99266  0.020228395  0.019589341           33 
 1414000   0.67442796   -7.0692682    343.20035  0.020226329   0.01957541           53 
 1415000   0.69252304   -7.0987316    343.37477  0.020222307  0.019561517           34 
 1416000   0.68743501   -7.1215044    343.74806  0.020229994  0.019547597           31 
 1417000   0.68708507   -7.1034628    342.99579  0.020171477  0.019533707           43 
 1418000   0.69891964   -7.0955563    342.78513  0.020144871  0.019519768           45 
 1419000   0.68913336   -7.1078703    342.81411  0.020132377  0.019505793           43 
 1420000   0.68669885   -7.0634884    342.87931  0.020122025  0.019491815           34 
 1421000   0.67628084   -7.0675079    342.41859  0.020080846  0.019477861           61 
 1422000    0.6969518   -7.0883754    343.03243  0.020102697   0.01946397          167 
 1423000   0.68454526   -7.0784406    343.01923  0.020087798  0.019450019          134 
 1424000   0.67583323   -7.1167925    342.33103  0.020033417  0.019436083          155 
 1425000   0.68689051   -7.0829051    342.90448  0.020052894  0.019422141          122 
 1426000   0.69254636   -7.1085431    342.72474  0.020028328   0.01940819           99 
 1427000   0.69506299   -7.1019299    342.99659  0.020030168  0.019394222           63 
 1428000   0.68216908   -7.1141066    342.24935  0.019972534    0.0193803          123 
 1429000   0.68103046   -7.1205833    342.45229  0.019970392  0.019366323          129 
 1430000   0.69223932   -7.1272699    343.48262   0.02001647  0.019352369          103 
 1431000   0.69285611    -7.127925    343.55218  0.020006533  0.019338434           83 
 1432000   0.68593192   -7.1120219    342.91428   0.01995544  0.019324463          141 
 1433000   0.67168798   -7.1193524    342.35987  0.019909274  0.019310485          223 
 1434000   0.68098509   -7.1313176    342.64968  0.019912231  0.019296488          198 
 1435000   0.67575087   -7.0991639    343.33726  0.019938285  0.019282504          176 
 1436000   0.69333459   -7.1359712    343.45945  0.019931491  0.019268587          196 
 1437000   0.69050941   -7.1266687     343.1141  0.019897593  0.019254705          237 
 1438000   0.67008496   -7.1065764    343.10454  0.019883202  0.019240797          208 
 1439000   0.67873492   -7.1173496    342.76558  0.019849755  0.019226958          146 
 1440000   0.69774239   -7.1113525    343.49215  0.019878018  0.019213117          173 
 1441000   0.66907043   -7.1199467    344.08691  0.019898619  0.019199268          107 
 1442000   0.66929469   -7.1176204    343.20141  0.019833646  0.019185473          142 
 1443000   0.66526323   -7.1195553    343.07337  0.019812507  0.019171618          169 
 1444000   0.65730755   -7.1165432    342.98654  0.019793776  0.019157773          125 
 1445000   0.67031128   -7.1189527    343.59708  0.019815287  0.019143951          154 
 1446000   0.67146111   -7.0816446    343.25029  0.019781598  0.019130154          262 
 1447000   0.66968906   -7.1283293    343.40694  0.019776949  0.019116354          239 
 1448000   0.68353616   -7.1245907    343.58661  0.019773631   0.01910251          215 
 1449000   0.66281738   -7.1385183    342.90909   0.01972102  0.019088662          277 
 1450000   0.68198375   -7.1220005    343.61337  0.019747895  0.019074821          234 
 1451000   0.66640405   -7.1316918     343.0201  0.019700213  0.019060939          215 
 1452000   0.68866465   -7.1316759    342.80487  0.019674293  0.019047016          294 
 1453000   0.66873253   -7.1440748    342.24781  0.019628803  0.019033101          354 
 1454000   0.66554632   -7.1372882    343.02267  0.019659713  0.019019167          296 
 1455000    0.6610039   -7.1614229    342.54431  0.019618803  0.019005248          359 
 1456000   0.64954656   -7.1515349    342.70368  0.019614451  0.018991286          365 
 1457000   0.67676952   -7.1640318    342.53842  0.019591536  0.018977359          465 
 1458000   0.68059016   -7.1459214    342.69605  0.019587108   0.01896339          324 
 1459000   0.68044866   -7.1499251    343.30091  0.019608231  0.018949447          338 
 1460000   0.65140976    -7.139973    342.58096  0.019553708  0.018935512          532 
 1461000   0.66077976   -7.1372446    342.63163  0.019543214  0.018921592          445 
 1462000   0.68822202   -7.1528292    342.82603  0.019540928  0.018907665          410 
 1463000   0.66936014   -7.1559026    342.46103   0.01950678  0.018893722          568 
 1464000   0.67778142   -7.1606571     342.5636  0.019499294  0.018879762          501 
 1465000   0.66999552   -7.1377119     342.5116  0.019483026  0.018865839          492 
 1466000   0.67443225   -7.1725838    342.31418  0.019458514  0.018851918          501 
 1467000   0.66474857   -7.1566241    342.22848  0.019440382  0.018837994          547 
 1468000   0.67619363    -7.139655    343.33507  0.019489956  0.018824067          518 
 1469000    0.6656806   -7.1427519    342.78916   0.01944572  0.018810127          521 
 1470000   0.65681654   -7.1529295    343.35495  0.019464566  0.018796196          576 
 1471000   0.65920577   -7.1650717    342.42044  0.019398393  0.018782287          553 
 1472000    0.6854602   -7.1621852    342.82692  0.019408227  0.018768387          626 
 1473000   0.65990607   -7.1738662    342.99322  0.019404459  0.018754473          623 
 1474000   0.64719001   -7.1763026    342.55098  0.019366293  0.018740555          663 
 1475000   0.66040782   -7.1803811    342.83709  0.019369327  0.018726665          697 
 1476000   0.65515492   -7.1831412     341.9276  0.019304856  0.018712718          719 
 1477000   0.65282484   -7.1990139    342.14921  0.019304288  0.018698749          694 
 1478000    0.6614307   -7.1809527     343.0678   0.01934302  0.018684781          733 
 1479000   0.66768324   -7.1754052    342.50643  0.019298311  0.018670825          717 
 1480000   0.67315834   -7.1882828    341.47284  0.019227075  0.018656812          849 
 1481000   0.66799737   -7.1803394    341.53013  0.019217315  0.018642811          862 
 1482000   0.66327386   -7.1895476    342.03292   0.01923262  0.018628801          832 
 1483000   0.67296624    -7.180348    342.14654  0.019226036  0.018614847          851 
 1484000   0.66006277   -7.1812368    342.66688    0.0192423  0.018600909          759 
 1485000   0.66118582   -7.1936281    342.03173    0.0191937  0.018586971          822 
 1486000   0.66234809   -7.2061616    342.43038  0.019203139  0.018573034          841 
 1487000   0.65225593   -7.2070836     342.4584  0.019191796  0.018559101          917 
 1488000   0.65268905   -7.2045136    342.04735  0.019155878  0.018545205          877 
 1489000   0.66020163   -7.1740338    342.14922  0.019148714  0.018531265          983 
 1490000   0.64187606   -7.1814347    341.49582  0.019099319  0.018517348          992 
 1491000   0.64633338   -7.2015045    342.51831  0.019143657   0.01850343          886 
 1492000   0.66281308   -7.1838931    341.86419  0.019094291   0.01848953          849 
 1493000   0.64291968   -7.1817969    342.08336  0.019093735  0.018475613          912 
 1494000   0.67740814   -7.1865355    342.34843   0.01909574  0.018461695          938 
 1495000   0.66445622   -7.2034809    342.00617  0.019063889  0.018447815         1003 
 1496000   0.66195578   -7.1946901    342.18227  0.019060955  0.018433923         1025 
 1497000   0.65343462   -7.2179805    342.40557  0.019060653  0.018420021          959 
 1498000   0.65133831   -7.2084527    341.57602  0.019001781  0.018406111         1009 
 1499000    0.6490285   -7.2135493    341.45483  0.018982368  0.018392172         1026 
 1500000   0.65829709   -7.2432573    341.71549  0.018984194  0.018378246         1119 
 1501000   0.66605966   -7.2084566     341.5899  0.018964573  0.018364287         1170 
 1502000   0.64776751   -7.2264641    341.98879  0.018974079  0.018350342         1154 
 1503000   0.65857512   -7.2319635    341.95434  0.018959544  0.018336378         1126 
 1504000    0.6449963   -7.2569907    341.84677  0.018940978  0.018322419         1225 
 1505000   0.65248312   -7.2354513    341.46185  0.018907079  0.018308453         1203 
 1506000   0.65296095   -7.2526026    342.17871  0.018934192  0.018294456         1249 
 1507000   0.64584426   -7.2299782    341.47419  0.018882669  0.018280442         1227 
 1508000   0.65150599   -7.2633938    340.89392  0.018838082  0.018266404         1233 
 1509000   0.65611977   -7.2483319    340.62522  0.018810759  0.018252393         1176 
 1510000   0.66290208   -7.2443295    340.69714  0.018802271  0.018238375         1262 
 1511000   0.63801703     -7.27289    340.80636   0.01879585  0.018224349         1247 
 1512000   0.63850476   -7.2611538    340.64218  0.018774371  0.018210298         1377 
 1513000   0.64360451   -7.2788203    340.89349  0.018775804  0.018196275         1434 
 1514000   0.64450269   -7.2515179    340.68783  0.018752082  0.018182239         1454 
 1515000   0.65177459   -7.2458347    340.57761  0.018733642  0.018168189         1417 
 1516000   0.65325272    -7.261163    340.67305  0.018726531   0.01815417         1435 
 1517000   0.64424364   -7.2532227    340.70956  0.018716192  0.018140171         1382 
 1518000   0.65508388   -7.2730904    340.75735  0.018706486  0.018126154         1458 
 1519000   0.63590205   -7.2643112    341.26681   0.01872212  0.018112116         1480 
 1520000   0.63741483   -7.2861998    341.07037  0.018699034   0.01809811         1503 
 1521000    0.6382072   -7.2859531     340.5023  0.018655616  0.018084116         1537 
 1522000   0.64688007   -7.2928273    341.19221  0.018681133  0.018070101         1609 
 1523000   0.64567587   -7.2821686    341.16116  0.018667168  0.018056155         1595 
 1524000    0.6482751   -7.2667868     341.1021   0.01865169  0.018042189         1678 
 1525000    0.6366518   -7.2759138     339.9631  0.018577219  0.018028238         1672 
 1526000   0.66440668   -7.2742919    341.15534  0.018630152  0.018014273         1610 
 1527000   0.64273464   -7.2727754    340.60264  0.018587789  0.018000347         1674 
 1528000   0.65452683   -7.2851282    340.33307  0.018560922   0.01798639         1751 
 1529000   0.63295449   -7.3008068    341.02691  0.018586598  0.017972428         1706 
 1530000   0.62699719   -7.2804557    341.08991  0.018577882  0.017958479         1718 
 1531000   0.65600206   -7.2946811     341.3084   0.01857764  0.017944543         1806 
 1532000   0.64980497   -7.3090555    340.67432  0.018531023  0.017930641         1738 
 1533000   0.63547994   -7.3021302    340.05022  0.018485009  0.017916739         1816 
 1534000   0.63217131   -7.3044263    341.35243    0.0185437  0.017902786         1829 
 1535000   0.63697372   -7.3072273    341.15128  0.018520699  0.017888841         1825 
 1536000   0.62918544   -7.3052463    340.33577  0.018464397   0.01787487         1913 
 1537000   0.63635775   -7.3102073    340.48371  0.018460405  0.017860883         1969 
 1538000   0.62882698   -7.3235703    340.07584  0.018426303  0.017846897         1970 
 1539000     0.633601   -7.3303591     341.7048  0.018502534  0.017832925         2020 
 1540000    0.6341409   -7.3369467    340.37511  0.018418567  0.017818937         2062 
 1541000     0.632234   -7.3533977    339.94129  0.018383155  0.017804961         2080 
 1542000   0.64474255   -7.3343467    340.00242  0.018374536  0.017790961         2089 
 1543000   0.64529667   -7.3260655    339.92699  0.018358554  0.017776957         2189 
 1544000   0.62991963   -7.3589765    340.09337  0.018355644  0.017762952         2210 
 1545000   0.63624587   -7.3361104    339.95128  0.018336099  0.017748937         2195 
 1546000   0.63616745   -7.3440901     339.3728  0.018293058  0.017734931         2226 
 1547000   0.65237391   -7.3460492    339.55332  0.018290957  0.017720908         2206 
 1548000   0.64846083    -7.354511    340.13859  0.018310648  0.017706907         2182 
 1549000   0.64073774    -7.354337    340.12928  0.018298326  0.017692897         2188 
 1550000   0.63600519   -7.3777575     339.6427   0.01826036  0.017678881         2303 
 1551000   0.62307681    -7.361014    339.29607  0.018229963  0.017664862         2356 
 1552000   0.63508293   -7.3597527    339.66133  0.018237829  0.017650831         2380 
 1553000   0.64815622   -7.3539038     339.5782  0.018221625  0.017636817         2336 
 1554000   0.64476097   -7.3707324    339.16177  0.018187568  0.017622777         2276 
 1555000   0.64213154   -7.3823797    339.03374  0.018169011  0.017608729         2363 
 1556000   0.62421832   -7.4027513    339.52499  0.018183644  0.017594704         2405 
 1557000    0.6334946   -7.3724423    339.87192  0.018190533  0.017580655         2410 
 1558000    0.6375035   -7.3797122    338.42974  0.018101719  0.017566632         2489 
 1559000   0.64357132   -7.3846535     338.5789  0.018098081  0.017552598         2493 
 1560000   0.63319683   -7.3900807    339.18079  0.018118632  0.017538561         2446 
 1561000   0.63075721   -7.3881556    339.34485  0.018115783  0.017524551         2471 
 1562000   0.63161515   -7.3729446    338.84267  0.018077394   0.01751053         2500 
 1563000   0.63183391   -7.3938063     339.3577  0.018093287  0.017496523         2502 
 1564000   0.63678276   -7.4060436    338.82527   0.01805335  0.017482527         2467 
 1565000   0.63240768   -7.4207327    338.93462  0.018047637  0.017468512         2588 
 1566000   0.62402201   -7.4153622    339.47727  0.018064989  0.017454518         2601 
 1567000   0.63017355   -7.3921801    338.99283  0.018027698  0.017440542         2523 
 1568000   0.63027613   -7.4086142    338.48817   0.01798938  0.017426567         2563 
 1569000    0.6250883   -7.4168469    338.79895   0.01799442  0.017412603         2608 
 1570000   0.61953151   -7.4056573    339.34115  0.018011738  0.017398655         2520 
 1571000   0.62655686   -7.3948301    338.71955    0.0179673   0.01738468         2590 
 1572000    0.6199905   -7.4095526    338.77912  0.017959029  0.017370712         2586 
 1573000   0.61581723   -7.4062344    338.91087  0.017954591  0.017356759         2589 
 1574000   0.61890436   -7.4108841    338.89331  0.017942255  0.017342794         2657 
 1575000   0.62679281   -7.4290374    338.95744  0.017934256   0.01732883         2657 
 1576000   0.62817018   -7.4082075    338.15297  0.017880339  0.017314863         2703 
 1577000   0.63425322   -7.4118912    338.42922  0.017883599  0.017300918         2613 
 1578000   0.62174608    -7.432435    338.36872  0.017869071  0.017286993         2667 
 1579000   0.62672058   -7.4329209    337.94283  0.017835277  0.017273045         2675 
 1580000   0.61970001   -7.4331489     338.2132  0.017838249  0.017259113         2705 
 1581000   0.62670733   -7.4165921    338.48221  0.017841145  0.017245176         2744 
 1582000   0.63009293   -7.4261949    338.14031  0.017811858  0.017231255         2689 
 1583000    0.6263963   -7.3952822    337.93415  0.017789753  0.017217331         2752 
 1584000   0.60983908   -7.4399115      338.467  0.017806555  0.017203417         2763 
 1585000     0.618661   -7.4507562    337.46699  0.017742744  0.017189508         2831 
 1586000   0.61224381    -7.427616    338.29831  0.017775237  0.017175591         2745 
 1587000   0.61170082   -7.4477763    337.97098  0.017746848  0.017161674         2758 
 1588000   0.62176116   -7.4536146    337.57262  0.017714768  0.017147756         2802 
 1589000   0.60488259   -7.4355621    338.06783   0.01772959  0.017133854         2730 
 1590000    0.6382783   -7.4225767    337.57468  0.017692593  0.017119957         2709 
 1591000   0.61269809   -7.4466274    337.45127  0.017675009  0.017106084         2782 
 1592000   0.61954626    -7.456185    337.80243  0.017682288  0.017092213         2787 
 1593000   0.62107197   -7.4597752    337.95443  0.017679139  0.017078343         2781 
 1594000   0.62067459   -7.4436468    337.89175  0.017664772  0.017064487         2766 
 1595000   0.61518857   -7.4350337    337.32101  0.017623877  0.017050635         2763 
 1596000   0.61612073   -7.4561392    337.71511  0.017633412    0.0170368         2756 
 1597000   0.61800922   -7.4469435    338.27706  0.017651694  0.017022976         2808 
 1598000   0.61783788   -7.4701279     338.0343  0.017627988  0.017009131         2788 
 1599000   0.62948531   -7.4470779     337.7525  0.017602278  0.016995307         2846 
 1600000   0.62822556   -7.4690806    337.82365  0.017594982  0.016981494         2851 
 1601000   0.61580051   -7.4727402    337.96908  0.017591561   0.01696768         2868 
 1602000   0.61836825   -7.4774056     337.6156  0.017562193  0.016953848         2914 
 1603000   0.62357114   -7.4724649    337.85131  0.017563491  0.016940011         2990 
 1604000   0.63287262   -7.4867094    337.49911  0.017534243  0.016926171         2960 
 1605000   0.61488062   -7.4691853    337.47681   0.01752216  0.016912347         2955 
 1606000   0.61634857   -7.4775696    337.93376  0.017534961  0.016898525         2974 
 1607000   0.61856358   -7.4947768    337.03799  0.017477597  0.016884704         3010 
 1608000   0.61371226   -7.4798308    337.87347  0.017510027  0.016870903         3002 
 1609000   0.61789901   -7.4781489    337.70809  0.017490579  0.016857105         3015 
 1610000   0.61908686   -7.4960195    337.23822  0.017455394  0.016843309         3008 
 1611000   0.61315444   -7.4962673      336.969  0.017430633  0.016829508         3048 
 1612000   0.60490388    -7.496071     337.2234  0.017432971  0.016815712         3005 
 1613000   0.61370362    -7.492769    337.04886  0.017413146  0.016801945         2974 
 1614000   0.61825013   -7.5026472    337.51893  0.017426628  0.016788207         2956 
 1615000   0.60848323   -7.4696444    336.88431  0.017383091  0.016774464         2947 
 1616000   0.60591666     -7.49258    337.42169  0.017400046  0.016760731         3042 
 1617000   0.59337921   -7.5005724    336.80277  0.017357389  0.016747007         3064 
 1618000   0.61267689   -7.5044087    337.11021  0.017362495  0.016733282         3101 
 1619000   0.61266322   -7.4988592    337.38602  0.017365968  0.016719564         3038 
 1620000   0.61258756   -7.5019181    337.17401  0.017344342  0.016705862         2996 
 1621000   0.60634463   -7.4977601    336.81113  0.017314987  0.016692183         2980 
 1622000   0.60268883   -7.5058149    336.71073  0.017299154    0.0166785         3060 
 1623000   0.60679742    -7.509096    337.65407  0.017336931  0.016664827         3067 
 1624000     0.591348   -7.5102512    337.05152  0.017295337  0.016651157         3068 
 1625000   0.60552179   -7.4887973    337.08872  0.017286601  0.016637502         3069 
 1626000    0.5927613    -7.504207    337.47456  0.017295744  0.016623842         3085 
 1627000   0.58949524   -7.5268648    337.02681   0.01726218  0.016610181         3021 
 1628000   0.61072308   -7.5267492    337.25685  0.017263352  0.016596528         3061 
 1629000   0.60386361   -7.5093695    337.13104  0.017246319  0.016582884         3110 
 1630000   0.60124397   -7.5172052    337.22477   0.01724053  0.016569253         3110 
 1631000   0.60226193   -7.5158425    336.75431  0.017205922  0.016555631         3095 
 1632000   0.60403154   -7.5137355    336.73115  0.017194197  0.016542018         3088 
 1633000   0.62084595   -7.5038308    336.52929  0.017173367  0.016528413         3060 
 1634000   0.58747352   -7.5282647    337.08026  0.017190956  0.016514813         3088 
 1635000   0.60484872   -7.5287606    337.15229  0.017184113  0.016501231         3085 
 1636000   0.60967236   -7.5256443    336.39469  0.017135019  0.016487654         3136 
 1637000   0.61103278   -7.5244526    336.50538  0.017130186  0.016474078         3066 
 1638000   0.60781912   -7.5306352    336.79208  0.017134314  0.016460528         3091 
 1639000   0.59639102    -7.524922    337.09029  0.017139022  0.016446986         3108 
 1640000   0.60940458   -7.5074647    336.71994  0.017109753  0.016433455         3077 
 1641000   0.59948105   -7.5195683    336.36637  0.017081371  0.016419934         3140 
 1642000   0.59493764   -7.5148538    336.60742  0.017083203  0.016406438         3131 
 1643000   0.59750243   -7.5249613    337.15634  0.017100646  0.016392956         3137 
 1644000   0.58722905   -7.5242373      336.696   0.01706691   0.01637946         3122 
 1645000   0.59418944   -7.5368454    337.07757  0.017075865  0.016365983         3099 
 1646000   0.60117212    -7.503884     336.3592  0.017029121  0.016352523         3174 
 1647000   0.59245186   -7.5357904    336.80602  0.017041389  0.016339087         3107 
 1648000   0.58519424   -7.5077386     336.7414  0.017027781  0.016325634         3105 
 1649000   0.59150728   -7.5226835    336.93313  0.017027144  0.016312193         3118 
 1650000   0.58631937   -7.5240383    336.93405  0.017016871  0.016298766         3169 
 1651000   0.60290411   -7.5313039    337.24989  0.017022506   0.01628535         3100 
 1652000    0.5914738    -7.544476     336.6444  0.016981659  0.016271935         3178 
 1653000   0.59868611   -7.5434707    336.65261  0.016971799   0.01625854         3203 
 1654000   0.58681903    -7.530861    336.61867  0.016959828  0.016245148         3164 
 1655000   0.59298838   -7.5389632     336.8062  0.016959023  0.016231755         3218 
 1656000   0.59739199   -7.5137149    335.76926  0.016896601  0.016218365         3203 
 1657000    0.5782762   -7.5453088    336.17469  0.016906794  0.016204995         3189 
 1658000   0.59724363   -7.5303588    336.43486  0.016909674  0.016191639         3173 
 1659000   0.59620512   -7.5263932    335.94899  0.016875075  0.016178308         3272 
 1660000   0.59381819   -7.5317692    336.29749  0.016882404  0.016164971         3222 
 1661000   0.59785276   -7.5323535    336.79667  0.016897284  0.016151644         3199 
 1662000   0.58789764   -7.5458041    335.86024  0.016840164  0.016138317         3273 
 1663000   0.59781187   -7.5230401    336.28302  0.016851224  0.016124998         3263 
 1664000   0.58651459   -7.5529725    336.01293   0.01682757  0.016111697         3272 
 1665000   0.58667342   -7.5526215    336.57769   0.01684573    0.0160984         3267 
 1666000   0.59955511   -7.5482131    336.26028  0.016819742  0.016085097         3297 
 1667000   0.58852275   -7.5541394    336.77253  0.016835259  0.016071811         3289 
 1668000   0.59949205   -7.5707138    336.15541  0.016794335  0.016058537         3268 
 1669000   0.59530793   -7.5743139    336.58388  0.016805666  0.016045274         3250 
 1670000   0.57620483   -7.5620908    335.60089  0.016746551  0.016031994         3330 
 1671000   0.58346528   -7.5540822    335.95736  0.016754307  0.016018745         3290 
 1672000   0.58571587   -7.5602487    336.34462  0.016763588  0.016005507         3318 
 1673000   0.57516623   -7.5614956    336.23232  0.016747974  0.015992274         3295 
 1674000   0.57532939   -7.5656154    336.39283  0.016745959  0.015979043         3325 
 1675000   0.59064644   -7.5858358    336.58842  0.016745693  0.015965827         3228 
 1676000   0.59793836   -7.5516056    336.10333  0.016711582  0.015952625         3272 
 1677000   0.57222447   -7.5584176    336.47709  0.016720189  0.015939442         3296 
 1678000   0.58719088   -7.5726505    335.77414  0.016675315  0.015926262         3325 
 1679000   0.57057219   -7.5566324    335.33258  0.016643467  0.015913091         3332 
 1680000   0.58164667   -7.5809146    335.86818  0.016660128  0.015899938         3291 
 1681000   0.58664067    -7.565372    336.10868  0.016662139  0.015886788         3301 
 1682000   0.58202592   -7.5639133     335.6954  0.016631758  0.015873656         3221 
 1683000   0.57611926   -7.5793903    335.56446  0.016615392  0.015860513         3234 
 1684000   0.58657465    -7.558761    335.92341  0.016623288  0.015847404         3261 
 1685000   0.57777421    -7.571526    336.99923  0.016666628  0.015834307         3272 
 1686000   0.57993356   -7.5919666    335.76774  0.016595875  0.015821213         3351 
 1687000   0.59110863   -7.5974158    335.48795  0.016572216  0.015808115         3318 
 1688000   0.58460552   -7.5819566    335.47442  0.016561731  0.015795037         3317 
 1689000   0.57889538   -7.5785974    335.44072  0.016550262  0.015781963         3307 
 1690000   0.57588881   -7.5753504    336.03936  0.016569988  0.015768917         3338 
 1691000    0.5807114   -7.5807257    335.72032  0.016544467  0.015755869         3294 
 1692000   0.57495013   -7.5926485      336.359  0.016566145  0.015742832         3305 
 1693000   0.57473894   -7.5916022    335.80137  0.016528912  0.015729781         3326 
 1694000   0.56766225   -7.5855021    335.18854  0.016489007  0.015716751         3369 
 1695000   0.59002118   -7.5804795    335.62411  0.016500694  0.015703724         3370 
 1696000   0.57976726   -7.5933624    335.85932  0.016502521  0.015690719         3330 
 1697000   0.57651826   -7.6118318    335.50486  0.016475391  0.015677716         3401 
 1698000   0.59102989   -7.5923763    335.48408  0.016464668  0.015664718         3371 
 1699000   0.57005891   -7.5805064    335.20908  0.016441489  0.015651729         3374 
 1700000   0.57571509   -7.5804872    335.65185  0.016453522  0.015638752         3383 
 1701000      0.57385    -7.613093    336.19419  0.016470419   0.01562578         3376 
 1702000   0.56779338    -7.580877    335.65006    0.0164341  0.015612834         3422 
 1703000   0.57596574   -7.5755993     335.3425    0.0164094  0.015599888         3392 
 1704000   0.57269511   -7.6048233    335.47074  0.016406042  0.015586954         3355 
 1705000   0.56628234   -7.5971774    335.63802  0.016404595  0.015574026         3389 
 1706000   0.58267846   -7.5796657    335.03505  0.016365526  0.015561128         3412 
 1707000   0.57732211   -7.5956722    334.91929  0.016350288  0.015548235         3361 
 1708000   0.57524443   -7.5885504    335.09663  0.016349367  0.015535357         3330 
 1709000   0.58633484   -7.6000556     335.7428  0.016371309  0.015522482         3270 
 1710000   0.57192454   -7.5910688     336.1486  0.016381511  0.015509643         3342 
 1711000    0.5654365   -7.5762789    335.38774  0.016334879  0.015496802         3294 
 1712000   0.56409736   -7.6045922    335.43957  0.016327861  0.015483968         3400 
 1713000   0.55694108   -7.6023298    335.50741  0.016321629  0.015471143         3360 
 1714000   0.57993352   -7.6040708    335.66429  0.016319734  0.015458326         3332 
 1715000   0.57146422   -7.6016624    335.24022  0.016289612  0.015445524         3347 
 1716000    0.5797069   -7.6058455    335.31991  0.016283989  0.015432713         3368 
 1717000    0.5628963   -7.6054282    335.55023  0.016285684  0.015419927         3348 
 1718000   0.57495956   -7.5958958    335.58498   0.01627789  0.015407137         3337 
 1719000   0.58439459   -7.6118226    335.69775  0.016273887  0.015394384         3361 
 1720000   0.56641133   -7.6251804    335.16846  0.016238782  0.015381638         3363 
 1721000   0.56693485   -7.5932402    335.60271  0.016250374  0.015368906         3368 
 1722000   0.56012951   -7.6144853    335.35701  0.016229046  0.015356179         3356 
 1723000   0.56450178   -7.6041775     335.4219  0.016222765  0.015343461         3355 
 1724000   0.56211797   -7.6168669    335.44739  0.016214588  0.015330756         3380 
 1725000   0.56981447   -7.6253994    334.98324  0.016182765   0.01531806         3311 
 1726000   0.58301142   -7.5999226    335.47741  0.016197248  0.015305391         3346 
 1727000   0.57340089   -7.6087536    335.14492  0.016171826  0.015292716         3348 
 1728000   0.56986839   -7.6061902    335.09791    0.0161602  0.015280052         3330 
 1729000   0.55366852   -7.6058879    334.96659  0.016144524  0.015267397         3347 
 1730000    0.5637093   -7.6076556    335.01999  0.016137764   0.01525476         3344 
 1731000   0.55023168   -7.6089908    335.44939  0.016149114  0.015242121         3286 
 1732000   0.56594494   -7.6219169    335.39701   0.01613727  0.015229492         3272 
 1733000   0.56460526   -7.6286255    335.34392  0.016125405  0.015216873         3296 
 1734000   0.55412994   -7.6159812    334.71753  0.016086002  0.015204276         3376 
 1735000   0.54873159   -7.6113822    334.85051  0.016083117   0.01519167         3339 
 1736000   0.55532206   -7.6230622    335.29522    0.0160952  0.015179086         3372 
 1737000   0.56094643   -7.6263652    335.11337   0.01607721  0.015166515         3372 
 1738000   0.56562339   -7.6218206    334.60671  0.016043667   0.01515396         3366 
 1739000   0.56868308   -7.6259717     335.1575  0.016060835  0.015141412         3321 
 1740000   0.55045488   -7.6118594     335.0243  0.016045225  0.015128871         3371 
 1741000   0.56165825   -7.6158581    335.11279  0.016040244  0.015116346         3313 
 1742000   0.55387969   -7.6173361     334.6741  0.016010051  0.015103842         3336 
 1743000    0.5505921   -7.6335858    335.31331  0.016031426  0.015091343         3334 
 1744000   0.54709725    -7.620209    335.18893  0.016016291  0.015078855         3323 
 1745000   0.55007387   -7.6479801    335.55864  0.016024768  0.015066378         3315 
 1746000   0.55660667   -7.6344821    335.08514   0.01599299  0.015053898         3331 
 1747000   0.55759966   -7.5974666    334.62967   0.01596211  0.015041458         3330 
 1748000   0.56001127   -7.6456096    334.75991  0.015959187  0.015029004         3382 
 1749000   0.55235754   -7.6386101    335.09765  0.015966155  0.015016571         3392 
 1750000   0.56125046   -7.6480982    334.96505  0.015950716  0.015004128         3350 
 1751000   0.55501624   -7.6425702    335.07621  0.015946898  0.014991707         3367 
 1752000    0.5599283   -7.6349429    334.32566  0.015902096  0.014979298         3396 
 1753000    0.5520565   -7.6388516    335.01093    0.0159256  0.014966914         3303 
 1754000    0.5528655   -7.6378305    335.16522  0.015923851  0.014954528         3321 
 1755000   0.55474312    -7.643351    335.41748  0.015926756  0.014942165         3344 
 1756000   0.55743797   -7.6480617    335.33172  0.015913616  0.014929802         3373 
 1757000   0.56422463   -7.6510962    335.24792  0.015900584  0.014917447         3398 
 1758000   0.55653931   -7.6309007     334.9225  0.015876114  0.014905106         3358 
 1759000   0.55128577   -7.6368318    334.59879  0.015851752  0.014892774         3371 
 1760000   0.54127307   -7.6436697    334.61935  0.015843719  0.014880459         3327 
 1761000   0.55398225    -7.656191    335.11156  0.015858015  0.014868146         3344 
 1762000   0.54669179    -7.637092    334.89773  0.015838901   0.01485585         3345 
 1763000   0.54913097   -7.6307572    335.10594  0.015839759  0.014843564         3339 
 1764000   0.54197023   -7.6556435    334.76342  0.015814598  0.014831272         3355 
 1765000   0.54925886   -7.6439601    334.90909  0.015812516     0.014819         3369 
 1766000   0.55254389   -7.6403822    334.77252  0.015797118  0.014806731         3385 
 1767000   0.54558525   -7.6430834    335.32151  0.015814069   0.01479449         3384 
 1768000   0.55092961   -7.6459774    334.49041  0.015765951  0.014782259         3384 
 1769000   0.53871416   -7.6390719     334.9205  0.015777299   0.01477003         3326 
 1770000   0.54815174   -7.6319102    335.29117  0.015785837  0.014757813         3379 
 1771000   0.54778253   -7.6414912    335.12291  0.015769006  0.014745619         3356 
 1772000   0.54249457   -7.6635644    335.14125  0.015760969   0.01473343         3373 
 1773000   0.53996467   -7.6434968    334.65556  0.015729252  0.014721258         3363 
 1774000   0.54618868   -7.6441695    334.62623  0.015719008  0.014709076         3379 
 1775000   0.54690781   -7.6425117    334.75312  0.015716109  0.014696921         3388 
 1776000   0.54667942   -7.6554953    335.20958  0.015728678  0.014684785         3366 
 1777000    0.5412777   -7.6319444    334.38018  0.015680931  0.014672646         3391 
 1778000   0.54100129   -7.6614954    334.81156   0.01569233  0.014660531         3394 
 1779000   0.53798489   -7.6583353    334.31536  0.015660266  0.014648413         3405 
 1780000    0.5410165   -7.6565721    334.33589  0.015652429  0.014636305         3377 
 1781000    0.5386437   -7.6527346    334.52262  0.015652378    0.0146242         3426 
 1782000   0.53742784   -7.6462414    335.10578  0.015670865  0.014612115         3465 
 1783000   0.53275873   -7.6652574    334.05901  0.015613152  0.014600043         3446 
 1784000    0.5363973   -7.6623293    334.89101  0.015643265  0.014587976         3425 
 1785000   0.53502928   -7.6499871    334.44534  0.015613695  0.014575934         3462 
 1786000   0.54326233    -7.655084    334.59061  0.015611731  0.014563892         3461 
 1787000   0.54873836   -7.6649645    334.78636  0.015612123  0.014551869         3429 
 1788000   0.53860599   -7.6626899    334.36132  0.015583581  0.014539848         3420 
 1789000   0.54440904   -7.6560001    334.72109  0.015591629  0.014527846         3432 
 1790000   0.54782033   -7.6637235    334.25031  0.015561001  0.014515867         3488 
 1791000   0.54147856   -7.6699407    334.76371  0.015576201  0.014503887         3410 
 1792000   0.54893065   -7.6597972    334.28213  0.015545114  0.014491925         3456 
 1793000   0.53660679   -7.6608438    334.87942  0.015564204  0.014479966         3439 
 1794000   0.53062499   -7.6850079    334.53656  0.015539603  0.014468021         3416 
 1795000   0.53892103   -7.6556034    334.07853  0.015509681  0.014456088         3406 
 1796000    0.5442947    -7.658034    334.38888  0.015515446  0.014444158         3443 
 1797000   0.52561311   -7.6626601    334.66944  0.015519822  0.014432243         3440 
 1798000   0.54203517   -7.6683507    334.09512  0.015484572  0.014420339         3442 
 1799000   0.53067314    -7.670617    334.29524  0.015485234  0.014408461         3414 
 1800000   0.54423362   -7.6604294    334.42223  0.015482511    0.0143966         3451 
 1801000   0.52832293   -7.6672267     334.0577  0.015457047  0.014384739         3429 
 1802000   0.53488099   -7.6867934    333.86798  0.015439696   0.01437289         3409 
 1803000   0.52780702   -7.6777602    334.50632  0.015460636  0.014361038         3453 
 1804000   0.51636584   -7.6773045    334.90925  0.015470678  0.014349203         3395 
 1805000   0.54792569    -7.672281    334.45316  0.015441051  0.014337388         3434 
 1806000   0.53800909   -7.6717772    334.44261  0.015432014  0.014325582         3414 
 1807000    0.5351379   -7.6683241    333.94508  0.015400529  0.014313788         3434 
 1808000   0.53754456   -7.6606019    334.86439  0.015434384  0.014302006         3395 
 1809000   0.53175693   -7.6696048     334.6467  0.015415823  0.014290241         3410 
 1810000   0.54317466   -7.6686455    334.48005  0.015399634  0.014278484         3392 
 1811000   0.52271464   -7.6723359    334.19519  0.015378023  0.014266734         3446 
 1812000   0.52388813   -7.6673319    334.29759  0.015374245  0.014254994         3445 
 1813000    0.5406528   -7.6871967    334.23891  0.015363068  0.014243264         3447 
 1814000   0.52887029   -7.6751808    334.41769  0.015362812  0.014231544         3441 
 1815000    0.5302784   -7.6925694    334.33966  0.015350765   0.01421983         3468 
 1816000   0.52890558   -7.6733652    334.37152  0.015343774  0.014208132         3430 
 1817000   0.51385912   -7.6870663    334.47794   0.01534021  0.014196439         3446 
 1818000   0.52219493   -7.6681553    333.87716  0.015304234  0.014184763         3449 
 1819000   0.53479898   -7.6643183    334.37516  0.015318635  0.014173091         3470 
 1820000   0.53131451    -7.666106    334.05072  0.015295363  0.014161432         3427 
 1821000   0.52781096   -7.6644936    333.75799  0.015273567  0.014149785         3453 
 1822000   0.52965619   -7.6851099     334.4313   0.01529598  0.014138146         3503 
 1823000    0.5253762   -7.6910076    333.95467  0.015265801  0.014126517         3479 
 1824000   0.53379534   -7.6997166    334.18362  0.015267892  0.014114901         3480 
 1825000   0.52866763   -7.6569323    334.02929  0.015252479  0.014103304         3460 
 1826000   0.52030803   -7.6808222    333.84216  0.015235586  0.014091713         3459 
 1827000   0.52543779   -7.6761638     334.1705  0.015242223  0.014080136         3461 
 1828000   0.52085561   -7.6872613     335.0285  0.015272999  0.014068565         3484 
 1829000   0.52829496   -7.6841643    334.41851  0.015236856  0.014057025         3493 
 1830000   0.51833706   -7.6649681    333.78325  0.015199601  0.014045481         3507 
 1831000   0.52943268   -7.6848179    334.03984  0.015202978  0.014033944         3538 
 1832000   0.51983074   -7.6791005    332.89727  0.015142707  0.014022425         3535 
 1833000   0.52571441   -7.6989779    334.47143  0.015206012  0.014010907         3549 
 1834000   0.52039905   -7.6851852    333.62311  0.015159174  0.013999405         3546 
 1835000   0.52830162     -7.67322    333.61593  0.015150587  0.013987925         3526 
 1836000   0.51372588   -7.7145816    334.12987  0.015165662  0.013976437         3591 
 1837000   0.52247672   -7.7062869    334.40599  0.015169933  0.013964966         3573 
 1838000   0.51999782   -7.6978415    334.03041   0.01514465  0.013953499         3558 
 1839000   0.52064599   -7.6878404    333.69712  0.015121312  0.013942044         3571 
 1840000   0.51947056   -7.6930207    334.04145  0.015128689  0.013930602         3549 
 1841000   0.51112601   -7.6936162    334.12867  0.015124419  0.013919176         3534 
 1842000   0.51277315   -7.7026084    334.19665  0.015119284  0.013907755         3536 
 1843000   0.52139771   -7.6784018    333.14594  0.015063571  0.013896345         3532 
 1844000   0.51542588   -7.6976801    333.58357  0.015075179  0.013884949         3570 
 1845000   0.51760727    -7.694084      333.643  0.015069693  0.013873576         3558 
 1846000   0.52109215   -7.6999899    333.91723  0.015073909  0.013862205         3571 
 1847000   0.52170785   -7.7125864    334.21808  0.015079321  0.013850826         3587 
 1848000   0.51458034   -7.7128769    333.66593  0.015046263  0.013839473         3552 
 1849000   0.51692808   -7.7070174    334.10638  0.015057976  0.013828122         3572 
 1850000   0.52728819   -7.7081452    333.85611  0.015038563  0.013816781         3532 
 1851000     0.517359   -7.7106421    334.01407  0.015037551  0.013805449         3517 
 1852000   0.52033924   -7.6847726    333.80807  0.015020161  0.013794133         3551 
 1853000   0.51684246   -7.6925319    333.14394  0.014982188   0.01378283         3536 
 1854000   0.52287625   -7.7206296    333.38414  0.014984904   0.01377153         3541 
 1855000   0.53147604   -7.6912163    333.62171  0.014987498  0.013760244         3565 
 1856000   0.50343943   -7.7093263    333.49767  0.014973854  0.013748968         3554 
 1857000   0.51062312   -7.6868633    333.81605  0.014980078  0.013737708         3568 
 1858000   0.50677675   -7.6986032    333.72333  0.014967856   0.01372645         3568 
 1859000   0.52016919   -7.7118015    333.92987  0.014969063  0.013715212         3567 
 1860000   0.50432965   -7.7025334    333.77808  0.014954215  0.013703986         3565 
 1861000   0.51033235   -7.7063231    333.50021  0.014933737  0.013692774         3558 
 1862000   0.51369009   -7.7204808    334.00596  0.014948351  0.013681569         3533 
 1863000   0.50616475   -7.7098017    333.43273  0.014914686  0.013670369         3561 
 1864000   0.50806393   -7.7214983    333.38225  0.014904428  0.013659187         3572 
 1865000   0.50675347   -7.7173828    334.07403  0.014927347  0.013648018         3544 
 1866000   0.52195906   -7.7166684    333.63144  0.014899582   0.01363686         3548 
 1867000   0.50772006   -7.6925136     333.8458   0.01490117  0.013625716         3521 
 1868000   0.50917839    -7.720425    333.79066  0.014890733  0.013614581         3551 
 1869000   0.50288464   -7.7195807    333.32464  0.014861987  0.013603453         3568 
 1870000   0.50239157   -7.7104124    333.11556  0.014844722  0.013592342         3573 
 1871000   0.50909634   -7.7078221    333.34696  0.014847094  0.013581237         3578 
 1872000   0.49963022   -7.7201865    333.54612  0.014848029  0.013570145         3587 
 1873000   0.50732369   -7.7159408    333.55164  0.014840347  0.013559078         3548 
 1874000   0.50846406    -7.717812    333.37193  0.014824437  0.013548014         3556 
 1875000   0.50658208   -7.7184251    333.33013  0.014814672  0.013536954         3540 
 1876000   0.50219866   -7.7133612    333.52456  0.014815412   0.01352591         3519 
 1877000   0.51351604   -7.7168054    333.13792  0.014790353  0.013514875         3552 
 1878000    0.4955616   -7.6958548    333.65864  0.014805584  0.013503833         3566 
 1879000   0.50625943   -7.7155106    333.97248  0.014811623  0.013492807         3546 
 1880000   0.51099484   -7.7234537    333.25557  0.014771967  0.013481783         3592 
 1881000   0.50916657   -7.7231594    333.67195   0.01478256  0.013470776         3603 
 1882000   0.50087701     -7.72297    333.26978  0.014756898  0.013459787         3563 
 1883000   0.50168092   -7.6965612    333.65941  0.014766304  0.013448804         3514 
 1884000   0.49321849   -7.7155772    333.51185  0.014751939  0.013437838         3582 
 1885000   0.50351641    -7.704729    333.16541  0.014728798  0.013426877         3576 
 1886000   0.50116882   -7.7212116    333.68728  0.014744047   0.01341593         3551 
 1887000    0.4979021   -7.7354156    333.50923  0.014728371  0.013404998         3561 
 1888000   0.50494367   -7.7123311    332.88791  0.014693146  0.013394086         3556 
 1889000   0.50252343   -7.7320432    333.48288  0.014711615  0.013383182         3520 
 1890000   0.48364432   -7.7356524    333.31478  0.014696419  0.013372276         3509 
 1891000   0.49773306   -7.7173326    333.09987  0.014679176  0.013361385         3530 
 1892000   0.48351598   -7.7272359    332.95134  0.014664876  0.013350505         3543 
 1893000   0.50790517    -7.712849    333.18555  0.014667439  0.013339625         3573 
 1894000    0.4940298   -7.7372146    333.58495  0.014677268  0.013328767         3512 
 1895000   0.49663534   -7.7298054    333.17674  0.014651572   0.01331792         3530 
 1896000   0.49950269   -7.7340873    333.13089  0.014641829  0.013307088         3526 
 1897000   0.49949045   -7.7221891    333.19103  0.014636752  0.013296254         3574 
 1898000   0.48503308   -7.7303319    333.31397  0.014634438  0.013285432         3553 
 1899000   0.49329105   -7.7106177    333.14353  0.014619253   0.01327462         3562 
 1900000   0.49552224   -7.7447218    333.37799  0.014621842  0.013263808         3505 
 1901000   0.49793832   -7.7384693    333.22388  0.014607394   0.01325302         3527 
 1902000   0.49861821   -7.7370396    333.47986   0.01461093  0.013242241         3524 
 1903000   0.50713008   -7.7295533    333.20499  0.014591215  0.013231465         3544 
 1904000   0.50305414   -7.7310272    333.49197  0.014596112  0.013220705         3538 
 1905000    0.4978844   -7.7005794    333.11021   0.01457175  0.013209959         3539 
 1906000   0.49693269   -7.7318413    333.00432  0.014559475  0.013199218         3539 
 1907000   0.48571017    -7.729829    332.86409  0.014545713  0.013188487         3566 
 1908000   0.49541897    -7.741871    332.86142  0.014537973  0.013177773         3582 
 1909000   0.50007215   -7.7483662    332.57688  0.014517936  0.013167069         3599 
 1910000     0.488211   -7.7381489    333.26437   0.01454033  0.013156371         3559 
 1911000   0.48572773    -7.747297    333.48336  0.014542271  0.013145685         3570 
 1912000   0.48600193   -7.7309641    333.20684  0.014522613  0.013135008         3626 
 1913000    0.4937348    -7.746756    333.02314  0.014507019  0.013124335         3603 
 1914000   0.48372385   -7.7239874    333.18695  0.014506572  0.013113681         3571 
 1915000   0.49108866   -7.7385489    334.06202  0.014537077  0.013103033         3582 
 1916000    0.4884909   -7.7407792    332.76667   0.01447315  0.013092396         3582 
 1917000   0.49581451   -7.7241464    333.24125   0.01448623  0.013081772         3575 
 1918000    0.4975285    -7.720159    332.86061   0.01446214  0.013071157         3598 
 1919000   0.47665427   -7.7465842    333.41273  0.014478579  0.013060556         3575 
 1920000   0.49372124    -7.751573    333.37889   0.01446957  0.013049967         3574 
 1921000   0.50578681    -7.742175    333.38786  0.014462427  0.013039386         3564 
 1922000   0.47747273   -7.7328088    332.83067  0.014430743  0.013028816         3580 
 1923000   0.49153746   -7.7394203        332.9  0.014426244  0.013018247         3571 
 1924000   0.48490582   -7.7542832    332.89163  0.014418383  0.013007688         3555 
 1925000   0.48666385   -7.7635078    333.48593   0.01443662  0.012997152         3556 
 1926000    0.4924323    -7.750543    332.35199  0.014380062  0.012986617         3566 
 1927000   0.48511233   -7.7469968    333.17234  0.014408075  0.012976101         3527 
 1928000   0.48037712   -7.7354559    333.28452  0.014405451  0.012965591         3569 
 1929000   0.48283963   -7.7310321    332.91242  0.014381908  0.012955093         3556 
 1930000    0.4844536   -7.7406574    332.94594  0.014375904  0.012944605         3577 
 1931000   0.49528897   -7.7446692    332.77432  0.014361053  0.012934128         3548 
 1932000   0.47324799   -7.7456538    332.45861  0.014340002  0.012923661         3580 
 1933000     0.482821   -7.7618145    333.29567   0.01436867  0.012913207         3550 
 1934000   0.47095447   -7.7471885    332.61172   0.01433177  0.012902759         3563 
 1935000   0.47096679   -7.7663816    332.96184  0.014339442  0.012892319         3577 
 1936000   0.48062668   -7.7458103    332.60942  0.014316866   0.01288189         3604 
 1937000   0.48008945   -7.7440251    333.05004  0.014328431  0.012871465         3569 
 1938000   0.47524593   -7.7550828    332.85028  0.014312448  0.012861061         3589 
 1939000   0.47787639   -7.7377976    333.07353  0.014314661  0.012850654         3591 
 1940000    0.4884281   -7.7487777    332.93457  0.014301313  0.012840269         3572 
 1941000   0.47700977   -7.7668785    332.11297  0.014258671  0.012829891         3564 
 1942000   0.46897764   -7.7422094    332.64714  0.014274251  0.012819515         3570 
 1943000   0.47977116   -7.7509037    332.69039  0.014268759  0.012809158         3585 
 1944000   0.48573496   -7.7588765    332.73475  0.014263321  0.012798812         3585 
 1945000    0.4806785   -7.7590058    332.88788  0.014262548  0.012788473         3569 
 1946000   0.47876558   -7.7700796    332.93894  0.014257406  0.012778147         3581 
 1947000   0.47336728    -7.774914    332.55428  0.014233619  0.012767826         3563 
 1948000   0.48083469   -7.7715376    333.32403  0.014259241  0.012757512         3576 
 1949000   0.47356286   -7.7558511    332.22662  0.014205003  0.012747217         3604 
 1950000    0.4770776   -7.7539467     332.4226  0.014206094  0.012736919         3550 
 1951000   0.47760341   -7.7554084    332.71437  0.014211275  0.012726632         3589 
 1952000   0.46631563   -7.7488818     332.6698  0.014202092  0.012716358         3594 
 1953000   0.48454025   -7.7523573     332.0146  0.014166863  0.012706097         3558 
 1954000   0.48586048   -7.7574391    332.52731  0.014181479  0.012695845         3583 
 1955000   0.47599694   -7.7494558    332.74424  0.014183471  0.012685608         3571 
 1956000   0.47712965   -7.7709111    333.12174  0.014192303  0.012675378         3574 
 1957000   0.46551079   -7.7438084    332.69665   0.01416695  0.012665161         3592 
 1958000   0.47036477   -7.7769364    332.78163  0.014163331  0.012654953         3563 
 1959000   0.47257698   -7.7675539    332.61875  0.014149172   0.01264475         3596 
 1960000   0.46578783   -7.7784052     332.7701  0.014148388  0.012634556         3558 
 1961000   0.48008231   -7.7640329    332.59712  0.014133823  0.012624376         3552 
 1962000   0.47173303   -7.7560632    332.32753  0.014115168  0.012614205         3583 
 1963000   0.46500351   -7.7716313    332.87654  0.014131285  0.012604045         3558 
 1964000   0.47762344   -7.7776913     332.6121  0.014112869  0.012593902         3553 
 1965000    0.4700051    -7.770472    332.39235  0.014096368  0.012583764         3582 
 1966000   0.46832341   -7.7656915    332.24133  0.014082796  0.012573633         3589 
 1967000   0.47036613   -7.7698512    332.66234  0.014093473  0.012563503         3613 
 1968000   0.47013242    -7.767689    332.44679  0.014077184  0.012553391         3570 
 1969000   0.46468098    -7.754778    332.65924  0.014079027  0.012543288         3591 
 1970000   0.47442911   -7.7739259    332.05744  0.014046423  0.012533192         3591 
 1971000    0.4608511   -7.7522762    332.06092  0.014039444  0.012523112         3578 
 1972000   0.46232134   -7.7633976    332.46302  0.014049316  0.012513033         3583 
 1973000    0.4612708   -7.7709983    332.31156  0.014035798  0.012502966         3578 
 1974000   0.46620463   -7.7742582    332.53715  0.014038211  0.012492909         3543 
 1975000   0.45952751   -7.7677441    332.51427  0.014030138  0.012482869         3604 
 1976000   0.46420286   -7.7836117    332.24623  0.014011734  0.012472839         3564 
 1977000   0.46415032   -7.7782556    332.44592  0.014013064  0.012462808         3576 
 1978000   0.45319889   -7.7789383    332.11999  0.013992248  0.012452786         3588 
 1979000   0.45987367   -7.7709845    332.96206  0.014020636  0.012442786         3559 
 1980000   0.47040703   -7.7817922    331.99664  0.013972922  0.012432788         3602 
 1981000   0.46108486   -7.7740214    332.16574  0.013972983  0.012422801         3582 
 1982000   0.46290475   -7.7777163     332.2368   0.01396892  0.012412825         3548 
 1983000   0.46808423   -7.7891817    332.69654  0.013981196  0.012402856         3599 
 1984000   0.45775332   -7.8005256    332.64645  0.013972045  0.012392901         3591 
 1985000   0.46079634    -7.781115    331.99044  0.013937466  0.012382953         3589 
 1986000    0.4714865   -7.7884167    331.94167  0.013928402   0.01237302         3593 
 1987000   0.45219503    -7.774653    332.33961  0.013938081  0.012363101         3584 
 1988000   0.45620715   -7.7915718    332.25231  0.013927411  0.012353185         3594 
 1989000   0.45563349   -7.7834426    332.19984   0.01391821  0.012343289         3557 
 1990000   0.45479128   -7.7903224    332.55891  0.013926252  0.012333399         3552 
 1991000   0.45935405   -7.7836899    332.61458  0.013921588  0.012323522         3577 
 1992000   0.46058908   -7.7782421    332.41989  0.013906454  0.012313654         3602 
 1993000   0.46464431   -7.7764991    332.41757   0.01389938  0.012303795         3603 
 1994000    0.4548171   -7.7771179    331.85521  0.013868907  0.012293944         3582 
 1995000   0.46626076   -7.7844271    331.93518  0.013865296  0.012284102         3599 
 1996000   0.45511899   -7.7904067    332.33242  0.013874934  0.012274262         3612 
 1997000   0.45571685   -7.7899798     332.2852  0.013866016  0.012264435         3568 
 1998000   0.45754052   -7.7969063    331.96759  0.013845829  0.012254615         3624 
 1999000   0.45891036   -7.7887417    331.22615  0.013807994  0.012244798         3616 
 2000000   0.45930957   -7.7992465    332.45864  0.013852443  0.012234999         3617 
 2001000   0.45560815    -7.797048    331.98095  0.013825627  0.012225205         3621 
 2002000   0.45179046   -7.8018931    332.41047    0.0138366  0.012215425         3617 
 2003000   0.45586599   -7.7964308    332.53623  0.013834924  0.012205652         3615 
 2004000   0.44725188   -7.7938712    331.78854  0.013796929  0.012195888         3617 
 2005000   0.44195287   -7.7896206    332.06292  0.013801451  0.012186132         3620 
 2006000   0.45146122   -7.7791432    332.20709   0.01380056  0.012176384         3658 
 2007000   0.45423746   -7.7733889    332.07424  0.013788168  0.012166644         3601 
 2008000   0.44408151   -7.8071436    332.48533  0.013798362   0.01215692         3625 
 2009000   0.45728491   -7.7996276     331.9565  0.013769558  0.012147206         3599 
 2010000   0.45142372   -7.7908392    331.94478  0.013762222  0.012137501         3609 
 2011000   0.44465975    -7.803587    332.16518  0.013764511  0.012127804         3562 
 2012000   0.44625432   -7.8051764    332.20543  0.013759337  0.012118119         3618 
Loop time of 4274.59 on 48 procs for 2000000 steps with 4000 atoms

Performance: 80849.780 tau/day, 467.881 timesteps/s
99.4% CPU use with 48 MPI tasks x no OpenMP threads

MPI task timing breakdown:
Section |  min time  |  avg time  |  max time  |%varavg| %total
---------------------------------------------------------------
Pair    | 268.87     | 281.51     | 299        |  41.2 |  6.59
Neigh   | 26.652     | 27.221     | 27.956     |   5.1 |  0.64
Comm    | 227.94     | 248.3      | 268.15     |  50.7 |  5.81
Output  | 4.6405     | 4.6423     | 4.6789     |   0.2 |  0.11
Modify  | 3647.8     | 3664.9     | 3683.2     |  14.8 | 85.74
Other   |            | 47.98      |            |       |  1.12

Nlocal:        83.3333 ave          91 max          76 min
Histogram: 1 2 9 3 11 3 11 4 3 1
Nghost:        1780.98 ave        1803 max        1762 min
Histogram: 4 5 6 2 8 8 7 4 3 1
Neighs:        10861.4 ave       12001 max        9832 min
Histogram: 3 5 3 8 8 5 8 3 2 3
FullNghs:      21722.9 ave       23903 max       19652 min
Histogram: 2 5 6 6 7 6 5 5 4 2

Total # of neighbors = 1042698
Ave neighs/atom = 260.67450
Neighbor list builds = 107882
Dangerous builds = 0

#clear
#
#next RN
#
#jump SELF
Total wall time: 1:11:17
