
units lj                  # Use reduced LJ style units
atom_style atomic         # Uncharged point particles
atom_modify map hash      # Needed for indexing of clusters etc
                          # Used to be able to find where atoms are in relation to each other.

lattice fcc 1.0 spacing 1 1 1
Lattice spacing in x,y,z = 1.5874011 1.5874011 1.5874011
region box block 0 10 0 10 0 10 units lattice
create_box 2 box
Created orthogonal box = (0.0000000 0.0000000 0.0000000) to (15.874011 15.874011 15.874011)
  3 by 4 by 4 MPI processor grid
create_atoms 1 box
Created 4000 atoms
  using lattice units in orthogonal box = (0.0000000 0.0000000 0.0000000) to (15.874011 15.874011 15.874011)
  create_atoms CPU = 0.003 seconds
set type 1 type/fraction 2 0.44 78393
Setting atom values ...
  1760 settings made for type/fraction
mass 1 1.0
mass 2 1.0
pair_style lj/cut  3.5
pair_modify tail  yes
pair_coeff 1  1  1.0  1.0   # Intearaction between 1 and 1 set with epsilon = 1 and sigma = 1
pair_coeff 1  2  1.5  0.8
pair_coeff 2  2  0.5  0.88

write_data data.0
System init for write_data ...
Neighbor list info ...
  update every 1 steps, delay 10 steps, check yes
  max neighbors/atom: 2000, page size: 100000
  master list distance cutoff = 3.8
  ghost atom cutoff = 3.8
  binsize = 1.9, bins = 9 9 9
  1 neighbor lists, perpetual/occasional/extra = 1 0 0
  (1) pair lj/cut, perpetual
      attributes: half, newton on
      pair build: half/bin/atomonly/newton
      stencil: half/bin/3d
      bin: standard
WARNING: Not all mixed pair coeffs generated from mixing. Use write_data with 'pair ij' option to store all pair coeffs. (../write_data.cpp:312)


#############################
#   M E L T   S Y S T E M   #
#############################

velocity all create 2.4 9580093 mom yes dist gaussian # Assign velocities
                                                    # Temperature 2.4, random number seed, zero linear momentum
                                                                                # Gaussian distribution

timestep 0.002   # simulation timestep
thermo 1000       # output thermodynamic data every 1000 steps bf 100

# Define a fix  in this case with index 1 applied to all
# particles in the simulation. This fix is for simulations
# in the anisotropic NPT ensemble. Note that we use the MTK
# correction.
fix 1 all npt temp 2.4 2.4 0.1 iso 5.68 5.68 0.5 mtk yes tchain 5 pchain 5 # Use NPT ensemble
                                                                         # Set temperature and pressure and damping
                                                                         # Numbers of thermostats in chain and in barostat
run 10000          # run for 10000 steps
Per MPI rank memory allocation (min/avg/max) = 3.642 | 3.644 | 3.648 Mbytes
Step Temp E_pair E_mol TotEng Press Volume 
       0          2.4   -5.6445478            0   -2.0454478   -4.2010474         4000 
    1000    2.4161376   -4.9976553            0   -1.3743551    5.6134386    3814.2716 
    2000      2.38389   -4.9818799            0   -1.4069388     5.708731    3807.0119 
    3000    2.3782699   -4.9965906            0   -1.4300775    5.6583815     3808.655 
    4000    2.4061008   -5.0473746            0   -1.4391257    5.3083253    3808.3646 
    5000    2.3735725    -5.070759            0   -1.5112904    5.3509605    3798.6593 
    6000    2.3867041    -5.018833            0   -1.4396719    5.6789175     3795.977 
    7000    2.4368073   -4.9546617            0   -1.3003645    5.6370037    3827.3477 
    8000     2.407904   -5.0144123            0   -1.4034592    5.8349389    3790.9391 
    9000    2.4002495   -5.0194688            0   -1.4199947    6.0216093    3777.9609 
   10000    2.3998322   -5.0749714            0    -1.476123    5.6898578    3768.0035 
Loop time of 2.52625 on 48 procs for 10000 steps with 4000 atoms

Performance: 684017.397 tau/day, 3958.434 timesteps/s
99.6% CPU use with 48 MPI tasks x no OpenMP threads

MPI task timing breakdown:
Section |  min time  |  avg time  |  max time  |%varavg| %total
---------------------------------------------------------------
Pair    | 1.12       | 1.2097     | 1.2629     |   2.6 | 47.89
Neigh   | 0.21019    | 0.21791    | 0.2242     |   0.7 |  8.63
Comm    | 0.79025    | 0.84961    | 0.96269    |   3.5 | 33.63
Output  | 0.00024491 | 0.00025042 | 0.00031667 |   0.0 |  0.01
Modify  | 0.21543    | 0.23316    | 0.25085    |   2.2 |  9.23
Other   |            | 0.01559    |            |       |  0.62

Nlocal:        83.3333 ave          94 max          77 min
Histogram: 3 9 7 5 10 11 1 1 0 1
Nghost:        1706.94 ave        1741 max        1680 min
Histogram: 1 3 9 5 10 10 8 0 1 1
Neighs:        10124.5 ave       11574 max        9182 min
Histogram: 8 4 5 8 6 6 7 3 0 1

Total # of neighbors = 485976
Ave neighs/atom = 121.49400
Neighbor list builds = 902
Dangerous builds = 186

# Equilibrate just above the melting temperature to avoid step fn in T

fix 1 all npt temp 1.25 1.25 0.1 iso 5.68 5.68 0.5 mtk yes tchain 5 pchain 5
run 2000
Per MPI rank memory allocation (min/avg/max) = 3.643 | 3.645 | 3.649 Mbytes
Step Temp E_pair E_mol TotEng Press Volume 
   10000    2.3998322   -5.0749714            0    -1.476123    5.6898578    3768.0035 
   11000    1.2677061   -7.0621583            0   -5.1610746    5.5252709    3002.2353 
   12000    1.2415348   -7.1409262            0   -5.2790896    5.5748098    2977.9233 
Loop time of 0.620313 on 48 procs for 2000 steps with 4000 atoms

Performance: 557138.310 tau/day, 3224.180 timesteps/s
99.6% CPU use with 48 MPI tasks x no OpenMP threads

MPI task timing breakdown:
Section |  min time  |  avg time  |  max time  |%varavg| %total
---------------------------------------------------------------
Pair    | 0.27702    | 0.30383    | 0.32879    |   1.9 | 48.98
Neigh   | 0.039325   | 0.042042   | 0.044357   |   0.5 |  6.78
Comm    | 0.19697    | 0.2245     | 0.25848    |   2.5 | 36.19
Output  | 5.1936e-05 | 5.3443e-05 | 7.7742e-05 |   0.0 |  0.01
Modify  | 0.040068   | 0.045012   | 0.047937   |   1.1 |  7.26
Other   |            | 0.004872   |            |       |  0.79

Nlocal:        83.3333 ave          93 max          77 min
Histogram: 5 4 4 12 4 11 5 2 0 1
Nghost:        2008.56 ave        2033 max        1984 min
Histogram: 1 3 4 7 9 10 5 5 3 1
Neighs:        12844.2 ave       14265 max       11398 min
Histogram: 2 2 3 7 10 11 6 1 4 2

Total # of neighbors = 616520
Ave neighs/atom = 154.13000
Neighbor list builds = 142
Dangerous builds = 13

#############################
# L I N E A R  Q U E N C H  #
#############################

# Define solid atoms. This closely follows ten Wolde  Ruiz-Montero and Frenkel  Faraday Discuss  1996  104  93-110
# Compute components of the per-atom q6 vector
compute q6 all orientorder/atom degrees 1 6 components 6 nnn NULL cutoff 1.3 # compute the Q6 parameter.
                                                                             # Use all neighbours within 1.3 unit cell.

# get number of connections
compute coord_number all coord/atom orientorder q6 0.5

# An atom is solid if it has 8 or more connections (of a possible 14)
variable is_solid atom c_coord_number>=8
group solid dynamic all var is_solid    # Must be dynamic to update
dynamic group solid defined

# do clustering
compute cluster solid cluster/atom 1.3 # Create a cluster where all atoms within are solid and max 1.3 units from another member

# define chunks one chunk per cluster
compute clus_chunks solid chunk/atom c_cluster nchunk every compress yes  # Says which atoms are in which chunk

# count the size of each chunk
compute size_chunks solid property/chunk clus_chunks count


# Find the maximum entry in the vector of chunk sizes
variable max_n equal max(c_size_chunks)


# Thermo style which includes this variable
# thermo_style custom step temp pe vol v_max_n

thermo ${N}  # Print the thermo information every 100 steps
thermo 1000  

# Reset the npt fix at a lower temperature (below freezing)
fix 1  all npt temp  ${temp} ${temp}  0.1  iso  5.68  5.68  0.5  mtk yes tchain  5  pchain  5
fix 1  all npt temp  0.45 ${temp}  0.1  iso  5.68  5.68  0.5  mtk yes tchain  5  pchain  5
fix 1  all npt temp  0.45 0.45  0.1  iso  5.68  5.68  0.5  mtk yes tchain  5  pchain  5

dump dmp2 all dcd ${N} traj.dcd
dump dmp2 all dcd 1000 traj.dcd


compute msd all msd com yes
variable twopoint equal c_msd[4]/6/(step*dt+1.0e-6)
fix 9 all vector 10 c_msd[4]
variable fit equal slope(f_9)/6/(10*dt)
thermo_style custom step temp pe c_msd[4] v_twopoint v_fit v_max_n

fix 1 all npt temp 1.25 ${temp} 0.1 iso 5.68 5.68 0.5 mtk yes tchain 5 pchain 5
fix 1 all npt temp 1.25 0.45 0.1 iso 5.68 5.68 0.5 mtk yes tchain 5 pchain 5
run 500000 # 5000000  # Run for this many steps
Neighbor list info ...
  update every 1 steps, delay 10 steps, check yes
  max neighbors/atom: 2000, page size: 100000
  master list distance cutoff = 3.8
  ghost atom cutoff = 3.8
  binsize = 1.9, bins = 8 8 8
  4 neighbor lists, perpetual/occasional/extra = 1 3 0
  (1) pair lj/cut, perpetual
      attributes: half, newton on
      pair build: half/bin/atomonly/newton
      stencil: half/bin/3d
      bin: standard
  (2) compute orientorder/atom, occasional
      attributes: full, newton on
      pair build: full/bin/atomonly
      stencil: full/bin/3d
      bin: standard
  (3) compute coord/atom, occasional
      attributes: full, newton on
      pair build: full/bin/atomonly
      stencil: full/bin/3d
      bin: standard
  (4) compute cluster/atom, occasional
      attributes: full, newton on
      pair build: full/bin/atomonly
      stencil: full/bin/3d
      bin: standard
Per MPI rank memory allocation (min/avg/max) = 9.832 | 9.837 | 9.842 Mbytes
Step Temp PotEng c_msd[4] v_twopoint v_fit v_max_n 
   12000    1.2415348   -7.1409262 5.9164568e-34 4.1086504e-36 8.3333333e+20            1 
   13000    1.2444738    -7.125631   0.48517965 0.0031101259  0.039680032            3 
   14000    1.2334856   -7.1527146   0.91880131 0.0054690552  0.036765883            2 
   15000    1.2650769   -7.1486661    1.3450347 0.0074724149  0.036889063            2 
   16000      1.25557   -7.1506122    1.7532647 0.0091315865  0.036231673            1 
   17000     1.191957   -7.1368053    2.1225951  0.010404877  0.035144229            1 
   18000    1.2429032    -7.213073     2.457999  0.011379625  0.034126395            3 
   19000    1.2501121      -7.2275    2.8472443  0.012487913  0.033388196            1 
   20000    1.2416685   -7.1456413    3.2490004  0.013537501  0.032924043            2 
   21000    1.2268644   -7.1165238     3.694664  0.014661365  0.032810171            2 
   22000    1.2380729   -7.1669289    4.0987604  0.015525607  0.032894858            1 
   23000    1.2221806   -7.1576256    4.4595613  0.016157831  0.032972691            3 
   24000     1.270826   -7.1626483     4.869683  0.016908621  0.032915174            1 
   25000    1.2199826     -7.19219    5.2543878  0.017514625  0.033009785            1 
   26000    1.2317031   -7.1946382    5.6717499  0.018178685   0.03304303            1 
   27000    1.2274223   -7.2003588    6.0571972  0.018695053  0.033073728            2 
   28000    1.2363242    -7.179086    6.4375227  0.019159293  0.033079885            2 
   29000    1.2127817   -7.2025467    6.7903116  0.019512389  0.032983088            1 
   30000    1.2205051   -7.2580782    7.1394005  0.019831668  0.032875359            1 
   31000     1.187188   -7.2177088    7.5429958   0.02027687  0.032823662            3 
   32000    1.2120868   -7.1996521    7.9415496  0.020681119  0.032750191            1 
   33000    1.2035377   -7.2328291    8.2725392   0.02089025  0.032650057            1 
   34000    1.1974368   -7.2753007    8.5804904  0.021030613  0.032507984            2 
   35000    1.2138761   -7.2133541    8.9599865  0.021333301  0.032369369            2 
   36000    1.1769777   -7.1984504    9.2973845  0.021521723  0.032219342            2 
   37000    1.1971376   -7.2529118    9.6608592  0.021758692  0.032066538            1 
   38000      1.19123   -7.2606314    10.061703  0.022065137  0.031975916            2 
   39000    1.1808795   -7.2049158    10.489133  0.022412677  0.031912464            1 
   40000    1.2076389   -7.2211279    10.920589  0.022751227  0.031888593            2 
   41000     1.170098   -7.2768241    11.404203  0.023179274   0.03189813            2 
   42000    1.2223768   -7.2486836    11.772057  0.023357255  0.031950922            2 
   43000     1.190263   -7.2780758    12.231829  0.023705095  0.032004759            3 
   44000     1.207087   -7.2785244    12.632167  0.023924558   0.03207082            1 
   45000    1.2230848    -7.245795    12.908986   0.02390553  0.032088746            2 
   46000     1.192745   -7.2548588    13.270103  0.024040042  0.032087855            2 
   47000    1.2007348   -7.3178894    13.629456  0.024165702  0.032094375            1 
   48000     1.207952   -7.2660401    14.053045  0.024397648  0.032102766            1 
   49000      1.16056   -7.3013854    14.270523  0.024269597  0.032056762            3 
   50000    1.2064586   -7.3029285    14.637871  0.024396452  0.031990972            2 
   51000    1.1868572   -7.3326615    15.118885  0.024704061   0.03196131            3 
   52000    1.2000654   -7.3291903    15.449965  0.024759559  0.031947841            1 
   53000    1.1970006   -7.3305528    15.939673  0.025062378   0.03195961            2 
   54000    1.1628258   -7.2921044    16.401484  0.025310932   0.03197178            6 
   55000    1.1848365   -7.3222309    16.985215  0.025735174    0.0320231            1 
   56000    1.1847988   -7.3212049    17.067387  0.025397897  0.032059483            4 
   57000    1.1748327   -7.3079943    17.395498  0.025432015  0.032047006            1 
   58000    1.1773664   -7.3280411    17.597824   0.02528423  0.032009412            1 
   59000    1.1795053   -7.3734616    17.922269  0.025313938  0.031957866            3 
   60000    1.1715194   -7.3263814    18.199267  0.025276759  0.031887308            1 
   61000    1.1821046   -7.3224747    18.624229  0.025442936  0.031812514            1 
   62000    1.1590939   -7.3034383    19.008469  0.025549017  0.031752066            3 
   63000    1.1741927   -7.3521797    19.310928  0.025543556  0.031694801            2 
   64000    1.1884663   -7.3502891     19.59724  0.025517239   0.03162146            2 
   65000    1.1382968   -7.3256262    19.921295  0.025540121   0.03154206            1 
   66000    1.1328188   -7.3315111    20.359858  0.025706891  0.031469376            1 
   67000    1.1847801   -7.3514101      20.6549  0.025690174  0.031397244            2 
   68000      1.15674   -7.3402912    20.945563  0.025668582  0.031322116            3 
   69000    1.1533841   -7.3649754    21.312733  0.025740016  0.031253956            2 
   70000    1.1437237   -7.3520888    21.704502  0.025838693  0.031198185            1 
   71000    1.1726799    -7.389096    22.023718  0.025849434  0.031143754            1 
   72000    1.1451521    -7.359966    22.522048  0.026067186  0.031097843            2 
   73000    1.1534006   -7.3476474    22.771885  0.025995302  0.031053705            2 
   74000    1.1722921   -7.3639783    23.033826  0.025938993   0.03100826            3 
   75000    1.1450708   -7.3947556     23.33686  0.025929844  0.030955213            2 
   76000    1.1630896   -7.3475039     23.48125  0.025746984  0.030876616            2 
   77000    1.1446689   -7.3696472    23.767567  0.025722475  0.030789419            3 
   78000    1.1451681   -7.3549534    23.998254   0.02563916  0.030702042            2 
   79000    1.1527098   -7.4017967    24.270808  0.025602118  0.030606598            2 
   80000    1.1333574   -7.3817573    24.453262  0.025472147  0.030510042            1 
   81000    1.1539093   -7.4029236    24.937813  0.025656187  0.030410945            1 
   82000    1.1558213   -7.4194752    25.271822  0.025682746   0.03033009            5 
   83000    1.1447813   -7.3570958    25.649303  0.025752312  0.030248934            4 
   84000     1.132085   -7.3786642    25.902875  0.025697296  0.030173158            2 
   85000    1.1380746   -7.4146202    26.278788  0.025763518  0.030096501            2 
   86000    1.1257914   -7.4491065    26.465506   0.02564487   0.03002705            3 
   87000    1.1432461   -7.4339263    26.860814  0.025728749  0.029953332            1 
   88000    1.1176621   -7.3893439    27.061963  0.025626858  0.029882032            2 
   89000    1.1513117   -7.3809334    27.522609  0.025770233  0.029814687            4 
   90000    1.1555476   -7.4094785    27.830802  0.025769261  0.029751771            3 
   91000    1.1160229   -7.4320108    28.108884  0.025740736  0.029687006            2 
   92000     1.131111    -7.471759    28.387713  0.025713508  0.029620596            2 
   93000     1.108346   -7.4784593    28.796959  0.025803727  0.029558796            1 
   94000    1.1078554   -7.4561214    29.158775  0.025849978  0.029501996            2 
   95000    1.1445949   -7.4896221    29.335024  0.025732477  0.029453361            1 
   96000    1.1212984   -7.4832827    29.658815  0.025745499  0.029394782            1 
   97000    1.1242497   -7.4561306    30.004604  0.025777151  0.029336193            4 
   98000    1.1132151   -7.4715047    30.208367  0.025687387  0.029278015            1 
   99000    1.0966298   -7.4571674    30.647316  0.025797404   0.02922248            1 
  100000    1.1168623   -7.5109648    30.763867  0.025636556  0.029162994            2 
  101000    1.0705194   -7.4907393    30.922777  0.025513842  0.029094025            5 
  102000    1.0934153    -7.497665    31.127629   0.02543107  0.029019578            3 
  103000    1.1112981   -7.5658502    31.204823   0.02524662  0.028939853            3 
  104000    1.1070449   -7.4672314    31.799414    0.0254803  0.028869077            4 
  105000    1.0986164   -7.4927998    32.180479  0.025540063   0.02880461            3 
  106000    1.0928132   -7.5199235    32.294829  0.025389017  0.028740095            2 
  107000    1.0813954   -7.5116889    32.469459   0.02528774  0.028666483            2 
  108000    1.1130096   -7.5664302    32.572601   0.02513318  0.028589786            1 
  109000    1.1054767   -7.5527415    33.026136  0.025249339  0.028510829            2 
  110000    1.0998014   -7.5074847    33.289519  0.025219332  0.028437402            1 
  111000    1.0840165   -7.4957517    33.574144  0.025205813  0.028363111            3 
  112000    1.0627357   -7.5234323    33.814696  0.025159744  0.028291462            3 
  113000    1.0943636   -7.4597753    34.144897  0.025180603  0.028219831            3 
  114000    1.0839167    -7.530707    34.506312  0.025223912  0.028153874            2 
  115000    1.0795039   -7.5427259    34.745782  0.025178103  0.028088308            1 
  116000    1.0635217   -7.5567036    34.876701  0.025055101  0.028017094            1 
  117000    1.0536933   -7.5581201    34.935027  0.024882498   0.02794191            2 
  118000     1.054167   -7.5711928    35.265636   0.02490511   0.02786525            1 
  119000    1.0974877   -7.5215729    35.302707  0.024721784  0.027783895            2 
  120000    1.0886562   -7.5855953    35.273447  0.024495449  0.027698361            1 
  121000     1.070836   -7.5654991    35.690371  0.024580145  0.027610606            1 
  122000    1.0889887   -7.5129354    35.894015   0.02451777  0.027526247            2 
  123000    1.0699379   -7.5598521    36.188495   0.02451795   0.02744348            2 
  124000    1.0774979    -7.523387    36.512969  0.024538285  0.027362021            3 
  125000    1.0521271   -7.5908011     36.55973  0.024373153  0.027280698            2 
  126000    1.0635565   -7.5840177    36.560989  0.024180548  0.027194539            2 
  127000    1.0859465   -7.6443199    36.776413  0.024131505    0.0271027            1 
  128000    1.0670243   -7.6680017    36.942713  0.024051245  0.027011527            2 
  129000    1.0513347   -7.6491822    37.191427  0.024025469  0.026920797            2 
  130000     1.072399   -7.5967256     37.46525  0.024016186  0.026832722            3 
  131000    1.0685174   -7.5855682     37.70685  0.023986546  0.026746599            2 
  132000    1.0459765   -7.6262452    38.049945   0.02402143  0.026661717            2 
  133000    1.0262852   -7.6045641    38.317595  0.024008518  0.026579294            1 
  134000    1.0538371   -7.5761919    38.342586  0.023844891  0.026496342            7 
  135000    1.0726785   -7.6689774    38.215673  0.023589922  0.026407288            3 
  136000    1.0783989    -7.648922    38.483241  0.023580417  0.026317301            3 
  137000    1.0200397   -7.6459604    38.558849  0.023454288  0.026224662            1 
  138000    1.0592822   -7.6563837    38.794174  0.023426433  0.026132816            1 
  139000    1.0238111   -7.6213215    39.123573  0.023455379   0.02603977            2 
  140000     1.043515   -7.6062113    39.264254   0.02337158  0.025948711            2 
  141000    1.0486948   -7.6534127    39.402358  0.023287446  0.025856805            5 
  142000    1.0390597   -7.6857296    39.291737  0.023058531  0.025763157            4 
  143000    1.0447825   -7.6730792    39.572365  0.023060819  0.025670052            3 
  144000    1.0286415   -7.6492082    39.863199  0.023068981  0.025576383            2 
  145000    1.0511207   -7.6779053    39.875432  0.022916915  0.025484519            1 
  146000    1.0377351   -7.6469932    40.171149  0.022928738  0.025392274            5 
  147000     1.050479   -7.6778739    40.484063  0.022950149  0.025303987            3 
  148000    1.0466674   -7.6963584    40.579742  0.022848954   0.02521674            2 
  149000    1.0038136   -7.6646051    40.574587  0.022692722  0.025127329            1 
  150000    1.0460276   -7.6565538    40.872895  0.022707164  0.025034675            2 
  151000    1.0402397   -7.6733116    40.905581  0.022574824  0.024942196            2 
  152000    1.0174947   -7.7047652    40.999453   0.02247777  0.024850936            4 
  153000    1.0277516   -7.7257263    41.307037  0.022498386  0.024760393            3 
  154000    1.0220852   -7.7412657    41.439686  0.022424072  0.024671285            3 
  155000    1.0192245   -7.6895248    41.755421  0.022449151  0.024581924            2 
  156000    1.0258086   -7.7425931    41.787336  0.022322295  0.024492852            4 
  157000    0.9891186   -7.7370824    41.939922  0.022261105  0.024404322            2 
  158000    1.0238951   -7.7698908     41.95061  0.022125849  0.024316586            2 
  159000    1.0006054   -7.7230371    42.146146  0.022089175  0.024227031            2 
  160000    1.0045528     -7.75406    42.157101  0.021956824  0.024137715            3 
  161000    1.0104066   -7.7359756    42.532807   0.02201491  0.024048397            1 
  162000    1.0142468   -7.7062208    42.865819  0.022050318   0.02396115            1 
  163000   0.99256298   -7.7475754    42.775849  0.021869043  0.023875446            5 
  164000    1.0072596   -7.7260393    43.064932  0.021882587  0.023790579            1 
  165000    1.0066309   -7.7869533    43.122623  0.021779103  0.023706381            2 
  166000    1.0096531   -7.7548479    43.432875  0.021803652  0.023622838            3 
  167000     1.000629   -7.7541472     43.55927  0.021736163  0.023540877            2 
  168000    1.0092194    -7.737943    43.829362  0.021740755  0.023460074            6 
  169000    1.0179687    -7.753082    43.878012  0.021636101  0.023379729            1 
  170000   0.99630385   -7.7972295    44.131486  0.021633081  0.023301086            9 
  171000    1.0212318   -7.7755052    44.337367  0.021606904  0.023224169            2 
  172000    0.9988261   -7.7892641     44.40926  0.021516114    0.0231481            1 
  173000   0.97239048    -7.785847    44.483176  0.021427349  0.023070249            4 
  174000   0.99343471   -7.8199011     44.60115  0.021360704  0.022991359            4 
  175000   0.98303811   -7.8078383    44.747806  0.021308479  0.022911608           10 
  176000    0.9991267   -7.7902284    44.871837  0.021246135  0.022832827            2 
  177000   0.99325837   -7.7964377    45.097387  0.021232291   0.02275586            4 
  178000   0.98203612   -7.7868374     45.13864  0.021132322  0.022678753            3 
  179000   0.98933037   -7.8101253    45.486216  0.021176078  0.022603837            1 
  180000   0.95408087   -7.8441807     45.56289  0.021093931  0.022529512            1 
  181000   0.99707979   -7.8053893    45.752748  0.021064801   0.02245617            4 
  182000   0.98090136   -7.7930693    46.049647  0.021085003  0.022383555            2 
  183000    0.9756221   -7.8283558    45.882005  0.020893445  0.022311031            2 
  184000   0.95549205   -7.8164717     46.14981  0.020901182  0.022237257            2 
  185000   0.97028645   -7.8025437     46.26443  0.020839833  0.022164513            6 
  186000   0.96495505   -7.8425537    46.366986  0.020773739  0.022091757            3 
  187000   0.96540506   -7.8439229    46.651036  0.020789232  0.022020692            2 
  188000   0.95491347   -7.8061523    46.810966  0.020749542  0.021949795            2 
  189000   0.98934421   -7.8745701    46.872519  0.020666895  0.021879867            4 
  190000   0.97015519   -7.8672844    47.089611  0.020653338  0.021809611            2 
  191000   0.96617706   -7.8907559    47.279457  0.020628035    0.0217415            6 
  192000   0.97993473   -7.8566955    47.301528  0.020530177  0.021673606            4 
  193000   0.94706415   -7.8819906    47.298249  0.020422387  0.021603909            9 
  194000   0.95497661   -7.8749655    47.295576  0.020315969  0.021533478            2 
  195000   0.97836868   -7.8747874    47.697077  0.020383366  0.021463122            3 
  196000   0.96993037   -7.8618842    47.698215  0.020279853  0.021395155            2 
  197000   0.94114007   -7.8808878     48.02714  0.020316049  0.021328197            2 
  198000   0.93395409    -7.889557    47.983112  0.020194912  0.021260805            3 
  199000   0.96285157   -7.9128731    48.182008   0.02017672  0.021193891            4 
  200000   0.96082212   -7.9113353    48.223901  0.020093292  0.021126267            2 
  201000   0.94877903   -7.9453776    48.316944  0.020031901  0.021057416            3 
  202000   0.94107028   -7.8748755    48.428564  0.019978781  0.020989936            6 
  203000   0.92998693   -7.9048765    48.541597  0.019926764  0.020921718            6 
  204000   0.93372359   -7.9119487     48.44292  0.019788774  0.020853099            3 
  205000   0.93745924   -7.9173751    48.756269  0.019819622  0.020784263            7 
  206000   0.93986334   -7.9159655    48.821555   0.01974982  0.020716982            2 
  207000   0.92625262   -7.9574284    48.988814  0.019721745  0.020649317            2 
  208000    0.9538734   -7.9237793    49.051021  0.019651851  0.020581743            5 
  209000    0.9310982   -7.9470193    49.139855  0.019593244  0.020514282            1 
  210000   0.93423833   -7.9607181    49.284691  0.019557417    0.0204472            3 
  211000   0.92724858   -7.9222943    49.359887  0.019494426  0.020379732            5 
  212000   0.93249737   -7.9565801    49.488882  0.019453177  0.020313381            4 
  213000   0.91629583   -7.9530099    49.667822  0.019431855  0.020247687            2 
  214000   0.92353316   -7.9542663    49.566869   0.01930174  0.020182091            8 
  215000   0.91589522    -7.977443    49.558508  0.019208724  0.020114788            3 
  216000   0.91535225   -7.9365626    49.720487  0.019182286  0.020047389            3 
  217000   0.93304727   -7.9926342    49.811465  0.019128827  0.019980646            2 
  218000   0.93662317   -7.9744022    49.854953  0.019057704  0.019913885            2 
  219000   0.91711523   -7.9853751    49.901495  0.018988392  0.019846385            2 
  220000    0.9204547   -7.9840976    50.189688  0.019011245  0.019779088            2 
  221000   0.91162492   -7.9663831    50.249002  0.018947588  0.019712506            3 
  222000   0.91747204   -7.9751319     50.16457  0.018830544  0.019646663            3 
  223000   0.89652065   -7.9847132    50.488311  0.018867082   0.01958099            2 
  224000   0.90217246    -8.008756    50.461347  0.018772822  0.019515605            2 
  225000   0.92403089   -8.0140283      50.3899  0.018662926  0.019449755            2 
  226000   0.89760959   -8.0143141    50.492153   0.01861805    0.0193846            5 
  227000   0.90673591   -8.0372179    50.373688  0.018492543  0.019318088            3 
  228000   0.89971004   -8.0418353    50.608026  0.018497085  0.019251621            3 
  229000   0.90056302   -8.0206237    50.624895  0.018422451  0.019185287           10 
  230000   0.89145444   -8.0378461    50.618408  0.018340003  0.019118755            3 
  231000   0.91343251   -8.0705218    50.681559   0.01828339  0.019051866            3 
  232000   0.90848743   -8.0310695    51.020885  0.018326467  0.018986657            3 
  233000   0.91899468    -8.006356     50.99841  0.018239774  0.018921863            4 
  234000   0.88184572   -8.0459826    51.163209  0.018220516  0.018857392            3 
  235000   0.89158846   -8.0291419    51.111009  0.018124471  0.018794453            6 
  236000   0.88889674   -8.0592864    51.322825  0.018122466   0.01873105            3 
  237000   0.88967838    -8.044262    51.408368  0.018076079  0.018668295            7 
  238000   0.89304537   -8.0750475    51.455279  0.018016554  0.018605693            4 
  239000   0.86519125   -8.0782795    51.586085   0.01798678  0.018542972            2 
  240000   0.90545347   -8.0945878    51.722349  0.017959149  0.018481157            2 
  241000   0.87643561   -8.0698658    51.624769  0.017850888  0.018418716            8 
  242000   0.85648429   -8.1018959    51.644237  0.017783828  0.018355678            4 
  243000   0.89179405   -8.0953836    51.852018  0.017781899  0.018292892            4 
  244000   0.87250881   -8.1015701    51.668217  0.017646249  0.018229775            4 
  245000   0.87237719    -8.119186      51.8736  0.017644082  0.018166416            4 
  246000   0.88043021   -8.1305824    51.785172  0.017542403  0.018102789            3 
  247000   0.88888208   -8.0912354    51.908981  0.017513151  0.018039814            2 
  248000   0.87427336   -8.0931701    51.850181  0.017422776  0.017976722            2 
  249000   0.86926767   -8.1423228    51.940117  0.017382904  0.017913984            8 
  250000   0.85880233   -8.1239377    52.005417  0.017335139  0.017850978            5 
  251000   0.88620349   -8.1167579    52.088679  0.017293718  0.017787745            6 
  252000   0.85252387   -8.1247167    52.119771  0.017235374   0.01772561            5 
  253000   0.87285306    -8.103032        52.16  0.017180501  0.017663769            3 
  254000   0.85882509   -8.1468478    52.256144  0.017144404   0.01760189            2 
  255000   0.86748492   -8.1839855    52.370628  0.017114584  0.017540716            5 
  256000   0.86076687   -8.1465155    52.533398  0.017100716  0.017480127            3 
  257000   0.85773473   -8.1498716    52.571946  0.017046675  0.017420016            2 
  258000   0.84708384   -8.1661425    52.532887  0.016967987  0.017359926            4 
  259000   0.86290677   -8.1186931    52.764455   0.01697698  0.017299722            3 
  260000   0.86902197   -8.1321253     52.88346  0.016949827  0.017240257            2 
  261000   0.83163758   -8.1354628    52.762904  0.016846393  0.017181466            2 
  262000   0.83577568    -8.168355    52.711891  0.016765869  0.017122173            3 
  263000   0.84520751   -8.1678814    52.869844  0.016752168  0.017063432            1 
  264000   0.86014097   -8.1577754    52.861788  0.016686171  0.017004304            8 
  265000   0.84909104   -8.1546891    52.828391  0.016612702  0.016944779            3 
  266000    0.8435691   -8.1847501    52.958272  0.016590937  0.016885857           13 
  267000   0.83862714   -8.1510323    53.089985  0.016569908  0.016827173            5 
  268000   0.83575038   -8.2130634     52.96007  0.016467684  0.016768688            3 
  269000   0.84425602   -8.1963909     53.07537  0.016442184  0.016710428            2 
  270000   0.82701822   -8.1789737    53.261531  0.016438744  0.016652882            3 
  271000   0.85160547   -8.1996388    53.303048  0.016390851  0.016595751            1 
  272000    0.8523092   -8.1734534    53.400663  0.016360497   0.01653859            3 
  273000   0.84548118   -8.2016161    53.323885  0.016277132  0.016481379            5 
  274000   0.84153836   -8.2130739     53.38161  0.016235283  0.016424383            2 
  275000   0.82507762   -8.2236666    53.399944  0.016181801  0.016367556            5 
  276000   0.83244061   -8.2321182    53.523842   0.01616058  0.016311216            4 
  277000   0.82385722   -8.2407298    53.511133  0.016098415  0.016254476            6 
  278000   0.82589976   -8.2576924    53.505752  0.016038895  0.016197716            2 
  279000   0.83344292    -8.246882    53.555724  0.015996333  0.016141203            6 
  280000   0.81921519   -8.2743169    53.633733  0.015962421  0.016084921            4 
  281000   0.82097194   -8.2738163    53.639652   0.01590737  0.016028408            4 
  282000   0.82529774   -8.2829705     53.49706  0.015808824  0.015971556            2 
  283000   0.80372187   -8.2626529    53.525407  0.015761309  0.015915011            4 
  284000   0.79244104   -8.2740612    53.773643  0.015778651  0.015858767            5 
  285000   0.80835554   -8.2555616    53.683966  0.015697066  0.015803323            3 
  286000   0.81767755   -8.2813835    53.820148  0.015681861  0.015747997            7 
  287000   0.81936852   -8.2521935    54.074075  0.015700951  0.015693477            3 
  288000   0.82035865   -8.3032892     53.87245  0.015588093  0.015639006            3 
  289000    0.8027544    -8.312718    53.883276  0.015537277  0.015584548           16 
  290000   0.81449407   -8.2956729    53.944432  0.015501274  0.015530204            7 
  291000   0.79092385   -8.3047859    54.017561  0.015468946   0.01547583            6 
  292000   0.80110001   -8.3196751    53.982891  0.015406076   0.01542151            4 
  293000    0.7815754    -8.365308    53.898668  0.015329541  0.015367284            4 
  294000   0.77637083   -8.3171899    54.103752  0.015335531  0.015313274            3 
  295000   0.81706345   -8.3346421     54.12745   0.01529024  0.015259525            3 
  296000   0.80120231   -8.3482882    54.084027  0.015226359   0.01520601           10 
  297000   0.79451076   -8.3235438    54.184065  0.015203161  0.015152543            5 
  298000   0.80963992   -8.3225994    54.106767  0.015130528  0.015099235            7 
  299000   0.78981051   -8.3372219    54.142793  0.015089965  0.015046396            3 
  300000   0.78544438   -8.3333822    54.248737  0.015069093    0.0149936            2 
  301000   0.77070703     -8.35233    54.242502  0.015017304   0.01494112            2 
  302000   0.79168811   -8.3605028    54.352628  0.014997966   0.01488868            4 
  303000   0.78198478   -8.3530022    54.251991   0.01492079  0.014836533            5 
  304000   0.76785315   -8.3715701    54.307765  0.014886997  0.014784437            3 
  305000   0.78384193   -8.3616271    54.462787  0.014880543  0.014732732            6 
  306000   0.79126428   -8.3853078     54.28317  0.014782998  0.014680875            7 
  307000     0.780572   -8.3749383    54.278537  0.014733588  0.014628981            2 
  308000   0.77839251   -8.3670669    54.316413  0.014695999  0.014577368            5 
  309000   0.78073112   -8.3982782    54.216998  0.014621628  0.014525965            2 
  310000   0.76651846   -8.3668248    54.467239  0.014641731  0.014474877            5 
  311000   0.77552901    -8.384402    54.491475  0.014601146  0.014424062            5 
  312000    0.7641615   -8.4228927    54.465085  0.014547298  0.014373354            4 
  313000   0.76647401   -8.3854175     54.42455  0.014490029  0.014322739            3 
  314000   0.75852584   -8.4059657     54.44364  0.014448949  0.014272329            6 
  315000   0.76835547   -8.4107784    54.535879  0.014427481   0.01422169            7 
  316000   0.76985209    -8.398674      54.5442  0.014384019  0.014171139            3 
  317000   0.75703946   -8.3960628    54.638014  0.014363306  0.014120925            4 
  318000   0.75526817   -8.4198119    54.515271  0.014285973  0.014070865            6 
  319000   0.73626591   -8.4267009    54.560278  0.014252946  0.014020878            3 
  320000   0.75664948   -8.4142975    54.673277  0.014237833    0.0139713            3 
  321000   0.74181297   -8.4450829    54.534122  0.014157352  0.013921689            5 
  322000   0.74729725   -8.4168304    54.545528  0.014116337  0.013872308            2 
  323000   0.76208425   -8.4618974    54.643031  0.014097789  0.013822956            7 
  324000   0.73981997   -8.4499742    54.694378  0.014067484  0.013773722            4 
  325000   0.74567434   -8.4595409    54.712814  0.014028927  0.013724804            3 
  326000   0.75862055   -8.4768839    54.672612  0.013975617  0.013676129            2 
  327000   0.73678904   -8.4532455    54.626679  0.013921172  0.013627646            3 
  328000    0.7499519   -8.4748647     54.67294  0.013890483  0.013579101            1 
  329000   0.74205165   -8.4867967    54.747383  0.013867118  0.013530781            1 
  330000   0.74649369   -8.4578044    54.600501  0.013788005  0.013482538            2 
  331000   0.73091646   -8.4755596    54.690924  0.013769115  0.013434298            3 
  332000   0.73176079    -8.499195    54.728424  0.013737054  0.013386485            3 
  333000   0.72186724   -8.4789399    54.710584  0.013691337  0.013338729            2 
  334000   0.72916954    -8.497489    54.685747  0.013644148  0.013291253            5 
  335000   0.73060401   -8.5232567     54.72242  0.013612542  0.013243765            4 
  336000   0.72855466   -8.4933333    54.861578  0.013606542  0.013196466            5 
  337000   0.72105478   -8.4933742    54.747656  0.013537996  0.013149364            8 
  338000   0.72954674   -8.4991567    54.749401  0.013498373  0.013102493            3 
  339000   0.73751541   -8.5087972    54.903598   0.01349646  0.013055879            4 
  340000   0.73672353    -8.527511    54.810778  0.013434014  0.013009146            4 
  341000   0.72130104   -8.5023943    54.674708  0.013361365  0.012962657            2 
  342000   0.74724835   -8.5275068    54.788587  0.013350046  0.012916336            4 
  343000   0.71809882   -8.5254403    54.734249  0.013297922  0.012870063            3 
  344000   0.71996159   -8.5208024    54.843516  0.013285735  0.012824012            7 
  345000   0.71132062   -8.5320063     54.84496  0.013247575  0.012778119            7 
  346000   0.70089306    -8.512631    54.659683  0.013164663   0.01273214            4 
  347000   0.74527883   -8.5516106    54.719328  0.013141049  0.012686078            7 
  348000   0.70915635    -8.564235    54.448648  0.013038469  0.012640068            4 
  349000   0.70195378   -8.5636138    54.624344  0.013043062  0.012594191            4 
  350000   0.73194556   -8.5814744    54.657106  0.013013597  0.012548454            3 
  351000   0.69974037   -8.5553515    54.671409  0.012979917  0.012502924           13 
  352000   0.71960056   -8.5720764    54.754331  0.012962673  0.012457571            4 
  353000   0.70896473   -8.5791362    54.691974  0.012911231  0.012412314            5 
  354000   0.71759602   -8.5687349    54.567445  0.012845444  0.012367172            8 
  355000   0.70484044   -8.5813122    54.569212  0.012809674  0.012322003            6 
  356000   0.70964192   -8.5809731     54.70434  0.012805323  0.012276923            3 
  357000   0.70455319   -8.6014052    54.438838  0.012707479  0.012231754            7 
  358000   0.69007959   -8.6112587    54.505191  0.012687428   0.01218657            4 
  359000   0.69747149    -8.604726    54.569199  0.012666945  0.012141495           17 
  360000   0.69816147   -8.6092628    54.577887   0.01263377  0.012096609            3 
  361000   0.69199975   -8.6305781    54.498587  0.012580468   0.01205194            7 
  362000   0.69037528   -8.6346377    54.493956  0.012544649  0.012007473           10 
  363000   0.69269209   -8.6448565    54.581807  0.012530259  0.011963149            8 
  364000   0.69522665   -8.6091866    54.661568  0.012514095  0.011918943            9 
  365000   0.68022547   -8.6710385    54.480442  0.012438457  0.011874946           12 
  366000   0.67572081   -8.6218903    54.480397  0.012404462  0.011830909           14 
  367000   0.67222773   -8.6310979    54.470718  0.012368465  0.011787049           18 
  368000   0.69880145    -8.635206    54.478421  0.012336599   0.01174352           22 
  369000   0.67460102    -8.647847    54.523487  0.012313344  0.011700127            8 
  370000   0.68604006   -8.6651401    54.372357  0.012246026  0.011656844           10 
  371000   0.65532508   -8.6653914    54.408365  0.012221106  0.011613604           13 
  372000   0.68227364   -8.6479616    54.549596  0.012219891  0.011570683           14 
  373000   0.65980702   -8.6503658    54.509033  0.012178068  0.011528034            9 
  374000    0.6871502   -8.6692839    54.534927  0.012151276  0.011485635           13 
  375000   0.65360329   -8.6548292    54.527136  0.012117141  0.011443443           17 
  376000   0.65794735   -8.6633653    54.542829  0.012088393  0.011401398           15 
  377000   0.65907985   -8.6382226    54.519012  0.012051064  0.011359494            9 
  378000   0.66075056   -8.6646273    54.480616  0.012010718  0.011317825            8 
  379000   0.66144791   -8.6595612    54.471231  0.011976964   0.01127638           12 
  380000   0.64896626   -8.6892854    54.544243  0.011961457  0.011235078            9 
  381000   0.67685268   -8.6717424     54.51883  0.011924504  0.011194009            9 
  382000   0.65569461   -8.6732108    54.469823  0.011882597     0.011153            9 
  383000   0.65979554   -8.6850495    54.394312  0.011835142  0.011112133            6 
  384000   0.66790019   -8.6839728     54.54282  0.011836549  0.011071447            9 
  385000   0.66130253   -8.6967556    54.418424   0.01177888   0.01103102            6 
  386000   0.65757062   -8.7180638    54.436817  0.011752335  0.010990825            8 
  387000   0.64871035   -8.6894657    54.476338  0.011730478  0.010950861            3 
  388000   0.65334763    -8.681885     54.56215  0.011718675  0.010910959            7 
  389000   0.64807389   -8.6728895    54.543625  0.011684581  0.010871288            9 
  390000   0.64882782   -8.7227033    54.427887   0.01162989  0.010831601            8 
  391000   0.65079024   -8.7217129    54.516878  0.011619113  0.010792089           16 
  392000   0.65260147   -8.6920401    54.405144  0.011565719  0.010752786            6 
  393000   0.64316975   -8.7369565    54.318351  0.011517886  0.010713575           15 
  394000   0.65261501    -8.736891    54.373182   0.01150025  0.010674414            9 
  395000   0.64433861   -8.7489734    54.434448  0.011484061  0.010635459           10 
  396000   0.64599383   -8.7378923     54.43655  0.011455503  0.010596676            4 
  397000   0.63230346   -8.7229069    54.493114  0.011438521  0.010558081            7 
  398000   0.62533545   -8.7500409    54.448249  0.011400387  0.010519687           11 
  399000   0.63784128   -8.7340836     54.48999  0.011380533  0.010481379            9 
  400000   0.64005545   -8.7233268    54.374828  0.011328089  0.010443231           12 
  401000   0.62301027   -8.7416727    54.438361  0.011313043  0.010405264            6 
  402000   0.62796816   -8.7413897    54.345904  0.011265735  0.010367449            7 
  403000   0.61939178   -8.7358952    54.435574  0.011256322  0.010329869            7 
  404000   0.63318841   -8.7520462    54.247358  0.011189636   0.01029228            9 
  405000   0.61938573    -8.738296    54.388586  0.011191067  0.010254886            8 
  406000   0.59836317   -8.7488372    54.352991  0.011156197  0.010217545            7 
  407000   0.61361454   -8.7645042    54.295028  0.011116918  0.010180382           11 
  408000   0.61477539   -8.7846239    54.426716  0.011116568  0.010143488            9 
  409000   0.61576535   -8.7563968    54.440236  0.011092143  0.010106735            7 
  410000   0.62284461   -8.7649171    54.454503  0.011067988  0.010070238           12 
  411000   0.60357994   -8.7633448    54.372758  0.011024485  0.010033841            7 
  412000   0.60751245   -8.7794161    54.449628  0.011013274 0.0099977477           12 
  413000    0.6197952   -8.7741451    54.460941   0.01098889 0.0099617245           13 
  414000   0.60600858   -8.7909957    54.242243  0.010918326 0.0099259034           10 
  415000   0.61181563   -8.7896418    54.413506  0.010926407  0.009890158            6 
  416000   0.60517865   -8.7988912    54.405796  0.010898597 0.0098545729            7 
  417000   0.59161312   -8.7789415    54.360533  0.010863416 0.0098191816            6 
  418000   0.62052402   -8.7749399    54.447209  0.010854707 0.0097839613           14 
  419000   0.60078051    -8.791778    54.372344  0.010813911 0.0097487294           16 
  420000   0.58663746    -8.788356    54.291417  0.010772107 0.0097136875           12 
  421000   0.59868321   -8.7990434    54.263362  0.010740966 0.0096788225           10 
  422000   0.60828929   -8.8126345    54.394744  0.010741458 0.0096441169           11 
  423000   0.59176614   -8.8055122    54.391846  0.010715494 0.0096096652           12 
  424000   0.58406487   -8.8044547    54.326423  0.010677363 0.0095752478            7 
  425000   0.57134937   -8.8047173    54.292876  0.010645662 0.0095410368            6 
  426000   0.59866565    -8.810543    54.363875  0.010634561 0.0095069222           10 
  427000    0.5853868   -8.8311624    54.277744  0.010592846 0.0094729374            6 
  428000   0.57462169   -8.8250535    54.246957  0.010562102 0.0094390606            9 
  429000   0.59924512     -8.81082    54.295048  0.010546824  0.009405282           10 
  430000   0.58674725   -8.8410887    54.276351  0.010518673 0.0093717211           16 
  431000   0.58896523   -8.8281782    54.404784    0.0105191 0.0093383529           14 
  432000   0.56974418   -8.8244562    54.291922  0.010472979 0.0093050191           10 
  433000   0.58093767   -8.8447531    54.228701  0.010436624 0.0092717872           11 
  434000   0.57922885   -8.8658892    54.177032  0.010402656 0.0092386869            9 
  435000   0.57887028   -8.8589777    54.227787  0.010388465 0.0092057615            6 
  436000   0.57064099    -8.848724    54.289281  0.010376392 0.0091730081           11 
  437000   0.57022759   -8.8569492    54.240781  0.010343398 0.0091404672            8 
  438000   0.55141183   -8.8678644    54.223744  0.010316542 0.0091080311           13 
  439000    0.5674984   -8.8780783    54.230819  0.010294385  0.009075673            9 
  440000   0.57168861    -8.861242    54.195393  0.010264279 0.0090435065           12 
  441000   0.56067278   -8.8873325    54.134382  0.010229475 0.0090114393           13 
  442000   0.56546376   -8.8677895    54.126515  0.010204848 0.0089795906            9 
  443000   0.56152818    -8.881043     54.26919  0.010208651 0.0089478976            9 
  444000   0.55697028   -8.8659131    54.231067  0.010178504 0.0089162311           18 
  445000     0.552742   -8.8692236    54.143314  0.010139197 0.0088847022           11 
  446000   0.55383966   -8.8757067    54.182709  0.010123825 0.0088533099            8 
  447000   0.54688643   -8.8774286    54.150486  0.010095169 0.0088219775           12 
  448000   0.56286471   -8.9070779    54.153316  0.010073161  0.008790839           17 
  449000   0.54856157   -8.8803867    54.189889  0.010057515 0.0087597919           11 
  450000   0.55199291   -8.9022437    54.033719  0.010006244 0.0087288817           15 
  451000   0.54496074   -8.8940372    54.090918 0.0099946264 0.0086980709            4 
  452000   0.55890732   -8.8918743    54.089213    0.0099722 0.0086673843           17 
  453000   0.54115507   -8.8918936     54.15682 0.0099626232 0.0086368346           11 
  454000   0.53513262   -8.9137159    54.038371 0.0099189375 0.0086064188            6 
  455000     0.531292   -8.9128546    54.060824 0.0099012497 0.0085761255           10 
  456000   0.53231584   -8.9139562    54.111853 0.0098888621 0.0085459758           20 
  457000   0.53944904   -8.9042283    54.083043 0.0098619699 0.0085159487           15 
  458000   0.54005345   -8.9405998    54.005259 0.0098262844 0.0084859731           15 
  459000   0.53595351   -8.9074422    54.079005 0.0098182653 0.0084562008           16 
  460000   0.53835978   -8.9225687    54.108996 0.0098023543 0.0084264846           15 
  461000   0.52195498   -8.9282603    54.066899 0.0097734815 0.0083969832            9 
  462000   0.53050906    -8.948532    54.061251 0.0097513079 0.0083676779           20 
  463000   0.52559241   -8.9563398    54.074611 0.0097326514 0.0083384255           14 
  464000   0.52566524   -8.9258177    54.006172 0.0096993843 0.0083093494           19 
  465000   0.52969077   -8.9469994    53.976307 0.0096731733 0.0082803504           14 
  466000   0.52131046   -8.9276053    54.065426 0.0096683523  0.008251507           18 
  467000   0.52090786   -8.9410046     54.03724 0.0096426195 0.0082227727           20 
  468000   0.52259717   -8.9514285    53.976301 0.0096111646 0.0081941685           23 
  469000   0.52155057   -8.9590184    54.000892 0.0095950412 0.0081656838           20 
  470000    0.5111054   -8.9404867    54.033372 0.0095803851 0.0081373508           13 
  471000   0.52087458   -8.9527505    53.966548 0.0095482216 0.0081091063           14 
  472000   0.51588683    -8.949494    53.850496 0.0095075028 0.0080808913           29 
  473000   0.50182842   -8.9525516    53.926774 0.0095008411 0.0080528296           13 
  474000   0.51874569   -8.9615265    53.949236  0.009484746 0.0080249135           23 
  475000   0.51718944   -8.9608827    54.016335 0.0094765501 0.0079971232           13 
  476000   0.50989025   -8.9603931    53.877921 0.0094324092 0.0079694335           14 
  477000   0.49663273   -8.9657811    54.008254 0.0094354043 0.0079418652           24 
  478000   0.49591665   -8.9741557    54.000969 0.0094143949  0.007914364           14 
  479000   0.49954954   -8.9593023    53.879993  0.009373694 0.0078870047            6 
  480000   0.50434267   -8.9652952    53.967268 0.0093693174 0.0078597746           12 
  481000    0.4958891   -8.9869068    53.904031 0.0093388826 0.0078326825           10 
  482000   0.48990754   -8.9720565    53.845952 0.0093094661 0.0078057038           16 
  483000   0.48953653   -8.9841062    53.904298 0.0093002585 0.0077788648           22 
  484000   0.49743016    -8.979766    53.889478 0.0092784914 0.0077521355           21 
  485000   0.49977414   -8.9695471     53.96171 0.0092717715 0.0077256047           14 
  486000   0.49660904   -8.9788791    53.853076 0.0092340665 0.0076991277            5 
  487000   0.50083938   -8.9818943    53.850614  0.009214684 0.0076727885           17 
  488000   0.48618244    -8.995622    53.930479 0.0092094397 0.0076465304           18 
  489000   0.47976564   -8.9987833    53.841801 0.0091754944  0.007620424           13 
  490000   0.48215977   -8.9960381    53.871804 0.0091618715 0.0075944349           19 
  491000   0.47722155   -9.0156134    53.887947 0.0091459517 0.0075685135            5 
  492000   0.48153221   -9.0269745    53.845756  0.009120216 0.0075426843           18 
  493000   0.47775713   -9.0171241    53.817181 0.0090968865 0.0075169883           19 
  494000    0.4812553   -9.0113481     53.92252 0.0090962416 0.0074913904           12 
  495000   0.47936332   -9.0033923    53.901666 0.0090743546 0.0074659597           17 
  496000   0.48035489   -9.0120131     53.80659 0.0090400856 0.0074406559            8 
  497000   0.45831467   -9.0198837    53.795884 0.0090201013 0.0074154362            5 
  498000   0.47989015   -9.0049081    53.810242 0.0090043913 0.0073903161           10 
  499000    0.4754758   -9.0168539    53.768585 0.0089793896  0.007365304            4 
  500000   0.46696067   -9.0357992    53.814499 0.0089690832 0.0073404154            6 
  501000   0.46421325   -9.0271265    53.794508 0.0089478557 0.0073156246            8 
  502000    0.4690626   -9.0409705    53.767917  0.008925617  0.007290928            9 
  503000   0.47012404   -9.0446528    53.785286 0.0089107499  0.007266366           11 
  504000   0.46839101   -9.0483415    53.820144 0.0088988333 0.0072418695            6 
  505000   0.46018953   -9.0396068    53.844539 0.0088852374 0.0072174827           14 
  506000    0.4661496   -9.0465804    53.789299 0.0088585801 0.0071931866           10 
  507000   0.45934771   -9.0472259    53.732828 0.0088318257 0.0071690342           12 
  508000    0.4560277   -9.0384965     53.81469 0.0088278691 0.0071450115           15 
  509000    0.4624106   -9.0470503    53.707584 0.0087929902 0.0071210451           11 
  510000    0.4537532   -9.0461569    53.720594 0.0087778749 0.0070971803            6 
  511000    0.4560132   -9.0504085    53.685968 0.0087550502 0.0070734526           11 
  512000   0.45479798   -9.0668477    53.799093 0.0087563628 0.0070498388            7 
Loop time of 1248.86 on 48 procs for 500000 steps with 4000 atoms

Performance: 69182.897 tau/day, 400.364 timesteps/s
99.4% CPU use with 48 MPI tasks x no OpenMP threads

MPI task timing breakdown:
Section |  min time  |  avg time  |  max time  |%varavg| %total
---------------------------------------------------------------
Pair    | 83.212     | 89.885     | 95.687     |  26.6 |  7.20
Neigh   | 8.3486     | 8.6911     | 8.9983     |   5.6 |  0.70
Comm    | 78.444     | 84.103     | 91.878     |  30.3 |  6.73
Output  | 0.98765    | 0.98849    | 1.0142     |   0.4 |  0.08
Modify  | 1049.9     | 1053.7     | 1056.8     |   4.5 | 84.38
Other   |            | 11.45      |            |       |  0.92

Nlocal:        83.3333 ave          87 max          77 min
Histogram: 1 0 1 2 5 9 6 7 10 7
Nghost:        2235.92 ave        2255 max        2212 min
Histogram: 2 1 2 9 5 8 7 7 2 5
Neighs:        14984.8 ave       16204 max       13767 min
Histogram: 2 5 5 6 7 6 6 4 4 3
FullNghs:      29970.5 ave       31714 max       27347 min
Histogram: 1 1 0 5 11 6 5 12 5 2

Total # of neighbors = 1438583
Ave neighs/atom = 359.64575
Neighbor list builds = 26670
Dangerous builds = 0

#clear
#
#next RN
#
#jump SELF
Total wall time: 0:20:52
