
units lj                  # Use reduced LJ style units
atom_style atomic         # Uncharged point particles
atom_modify map hash      # Needed for indexing of clusters etc
                          # Used to be able to find where atoms are in relation to each other.

lattice fcc 1.0 spacing 1 1 1
Lattice spacing in x,y,z = 1.5874011 1.5874011 1.5874011
region box block 0 10 0 10 0 10 units lattice
create_box 2 box
Created orthogonal box = (0.0000000 0.0000000 0.0000000) to (15.874011 15.874011 15.874011)
  3 by 4 by 4 MPI processor grid
create_atoms 1 box
Created 4000 atoms
  using lattice units in orthogonal box = (0.0000000 0.0000000 0.0000000) to (15.874011 15.874011 15.874011)
  create_atoms CPU = 0.017 seconds
set type 1 type/fraction 2 0.96 78393
Setting atom values ...
  3848 settings made for type/fraction
mass 1 1.0
mass 2 1.0
pair_style lj/cut  3.5
pair_modify tail  yes
pair_coeff 1  1  1.0  1.0   # Intearaction between 1 and 1 set with epsilon = 1 and sigma = 1
pair_coeff 1  2  1.5  0.8
pair_coeff 2  2  0.5  0.88

write_data data.0
System init for write_data ...
Neighbor list info ...
  update every 1 steps, delay 10 steps, check yes
  max neighbors/atom: 2000, page size: 100000
  master list distance cutoff = 3.8
  ghost atom cutoff = 3.8
  binsize = 1.9, bins = 9 9 9
  1 neighbor lists, perpetual/occasional/extra = 1 0 0
  (1) pair lj/cut, perpetual
      attributes: half, newton on
      pair build: half/bin/atomonly/newton
      stencil: half/bin/3d
      bin: standard
WARNING: Not all mixed pair coeffs generated from mixing. Use write_data with 'pair ij' option to store all pair coeffs. (../write_data.cpp:312)


#############################
#   M E L T   S Y S T E M   #
#############################

velocity all create 2.4 5300450 mom yes dist gaussian # Assign velocities
                                                    # Temperature 2.4, random number seed, zero linear momentum
                                                                                # Gaussian distribution

timestep 0.002   # simulation timestep
thermo 1000       # output thermodynamic data every 1000 steps bf 100

# Define a fix  in this case with index 1 applied to all
# particles in the simulation. This fix is for simulations
# in the anisotropic NPT ensemble. Note that we use the MTK
# correction.
fix 1 all npt temp 2.4 2.4 0.1 iso 5.68 5.68 0.5 mtk yes tchain 5 pchain 5 # Use NPT ensemble
                                                                         # Set temperature and pressure and damping
                                                                         # Numbers of thermostats in chain and in barostat
run 10000          # run for 10000 steps
Per MPI rank memory allocation (min/avg/max) = 3.642 | 3.644 | 3.648 Mbytes
Step Temp E_pair E_mol TotEng Press Volume 
       0          2.4   -2.8820212            0   0.71707882   -2.0430313         4000 
    1000    2.4439578   -1.7061937            0    1.9588265    5.9795028     4141.484 
    2000    2.4765421   -1.7519283            0    1.9619562    5.6491364    4165.5632 
    3000    2.4020988   -1.7456979            0    1.8565496    5.4109581    4190.3661 
    4000    2.3916771   -1.7085162            0    1.8781026    5.8040578     4153.317 
    5000    2.3346526    -1.731374            0    1.7697293    5.4493115    4197.6116 
    6000     2.378209   -1.7467139            0    1.8197078    5.4494881    4175.2419 
    7000    2.4476456    -1.742338            0    1.9282126    5.4414783    4207.4481 
    8000    2.3951244   -1.7004472            0    1.8913413    5.8279062    4164.3159 
    9000    2.3858461   -1.7311811            0    1.8466934    5.7034269    4152.9123 
   10000    2.4123737    -1.743074            0     1.874582    5.5658922    4163.1815 
Loop time of 2.652 on 48 procs for 10000 steps with 4000 atoms

Performance: 651584.822 tau/day, 3770.746 timesteps/s
99.3% CPU use with 48 MPI tasks x no OpenMP threads

MPI task timing breakdown:
Section |  min time  |  avg time  |  max time  |%varavg| %total
---------------------------------------------------------------
Pair    | 1.0662     | 1.1226     | 1.205      |   2.4 | 42.33
Neigh   | 0.20801    | 0.2135     | 0.25367    |   1.4 |  8.05
Comm    | 0.77597    | 0.88488    | 0.98572    |   4.8 | 33.37
Output  | 0.00025642 | 0.00026334 | 0.00043928 |   0.0 |  0.01
Modify  | 0.35945    | 0.41518    | 0.46356    |   4.5 | 15.66
Other   |            | 0.01555    |            |       |  0.59

Nlocal:        83.3333 ave          95 max          72 min
Histogram: 3 0 4 9 7 6 15 2 1 1
Nghost:        1605.21 ave        1640 max        1567 min
Histogram: 3 3 4 4 9 4 10 2 6 3
Neighs:        9159.52 ave       10507 max        7717 min
Histogram: 2 2 4 6 8 8 10 4 3 1

Total # of neighbors = 439657
Ave neighs/atom = 109.91425
Neighbor list builds = 904
Dangerous builds = 186

# Equilibrate just above the melting temperature to avoid step fn in T

fix 1 all npt temp 1.25 1.25 0.1 iso 5.68 5.68 0.5 mtk yes tchain 5 pchain 5
run 2000
Per MPI rank memory allocation (min/avg/max) = 3.643 | 3.645 | 3.649 Mbytes
Step Temp E_pair E_mol TotEng Press Volume 
   10000    2.4123737    -1.743074            0     1.874582    5.5658922    4163.1815 
   11000    1.2256683    -2.619049            0  -0.78100609    5.9010913    3229.6994 
   12000    1.2556668   -2.6264074            0  -0.74337803    5.6276697    3255.9702 
Loop time of 0.595529 on 48 procs for 2000 steps with 4000 atoms

Performance: 580324.435 tau/day, 3358.359 timesteps/s
99.6% CPU use with 48 MPI tasks x no OpenMP threads

MPI task timing breakdown:
Section |  min time  |  avg time  |  max time  |%varavg| %total
---------------------------------------------------------------
Pair    | 0.25803    | 0.28371    | 0.30741    |   2.2 | 47.64
Neigh   | 0.038667   | 0.041011   | 0.0435     |   0.5 |  6.89
Comm    | 0.19392    | 0.21971    | 0.25137    |   2.8 | 36.89
Output  | 5.4668e-05 | 5.6416e-05 | 7.1538e-05 |   0.0 |  0.01
Modify  | 0.042635   | 0.046258   | 0.049777   |   0.9 |  7.77
Other   |            | 0.004782   |            |       |  0.80

Nlocal:        83.3333 ave          91 max          76 min
Histogram: 2 3 3 6 13 4 9 1 5 2
Nghost:        1885.08 ave        1907 max        1868 min
Histogram: 2 5 11 7 4 4 6 6 2 1
Neighs:        11754.7 ave       13735 max       10292 min
Histogram: 1 5 5 11 11 6 6 0 2 1

Total # of neighbors = 564224
Ave neighs/atom = 141.05600
Neighbor list builds = 143
Dangerous builds = 9

#############################
# L I N E A R  Q U E N C H  #
#############################

# Define solid atoms. This closely follows ten Wolde  Ruiz-Montero and Frenkel  Faraday Discuss  1996  104  93-110
# Compute components of the per-atom q6 vector
compute q6 all orientorder/atom degrees 1 6 components 6 nnn NULL cutoff 1.3 # compute the Q6 parameter.
                                                                             # Use all neighbours within 1.3 unit cell.

# get number of connections
compute coord_number all coord/atom orientorder q6 0.5

# An atom is solid if it has 8 or more connections (of a possible 14)
variable is_solid atom c_coord_number>=8
group solid dynamic all var is_solid    # Must be dynamic to update
dynamic group solid defined

# do clustering
compute cluster solid cluster/atom 1.3 # Create a cluster where all atoms within are solid and max 1.3 units from another member

# define chunks one chunk per cluster
compute clus_chunks solid chunk/atom c_cluster nchunk every compress yes  # Says which atoms are in which chunk

# count the size of each chunk
compute size_chunks solid property/chunk clus_chunks count


# Find the maximum entry in the vector of chunk sizes
variable max_n equal max(c_size_chunks)


# Thermo style which includes this variable
# thermo_style custom step temp pe vol v_max_n

thermo ${N}  # Print the thermo information every 100 steps
thermo 1000  

# Reset the npt fix at a lower temperature (below freezing)
fix 1  all npt temp  ${temp} ${temp}  0.1  iso  5.68  5.68  0.5  mtk yes tchain  5  pchain  5
fix 1  all npt temp  0.45 ${temp}  0.1  iso  5.68  5.68  0.5  mtk yes tchain  5  pchain  5
fix 1  all npt temp  0.45 0.45  0.1  iso  5.68  5.68  0.5  mtk yes tchain  5  pchain  5

dump dmp2 all dcd ${N} traj.dcd
dump dmp2 all dcd 1000 traj.dcd


compute msd all msd com yes
variable twopoint equal c_msd[4]/6/(step*dt+1.0e-6)
fix 9 all vector 10 c_msd[4]
variable fit equal slope(f_9)/6/(10*dt)
thermo_style custom step temp pe c_msd[4] v_twopoint v_fit v_max_n

fix 1 all npt temp 1.25 ${temp} 0.1 iso 5.68 5.68 0.5 mtk yes tchain 5 pchain 5
fix 1 all npt temp 1.25 0.45 0.1 iso 5.68 5.68 0.5 mtk yes tchain 5 pchain 5
run 500000 # 5000000  # Run for this many steps
Neighbor list info ...
  update every 1 steps, delay 10 steps, check yes
  max neighbors/atom: 2000, page size: 100000
  master list distance cutoff = 3.8
  ghost atom cutoff = 3.8
  binsize = 1.9, bins = 8 8 8
  4 neighbor lists, perpetual/occasional/extra = 1 3 0
  (1) pair lj/cut, perpetual
      attributes: half, newton on
      pair build: half/bin/atomonly/newton
      stencil: half/bin/3d
      bin: standard
  (2) compute orientorder/atom, occasional
      attributes: full, newton on
      pair build: full/bin/atomonly
      stencil: full/bin/3d
      bin: standard
  (3) compute coord/atom, occasional
      attributes: full, newton on
      pair build: full/bin/atomonly
      stencil: full/bin/3d
      bin: standard
  (4) compute cluster/atom, occasional
      attributes: full, newton on
      pair build: full/bin/atomonly
      stencil: full/bin/3d
      bin: standard
Per MPI rank memory allocation (min/avg/max) = 9.811 | 9.820 | 9.825 Mbytes
Step Temp PotEng c_msd[4] v_twopoint v_fit v_max_n 
   12000    1.2556668   -2.6264074 2.3304923e-30 1.6183974e-32 8.3333333e+20            3 
   13000    1.2552132   -2.6145621    1.1404838 0.0073107936  0.097627797            1 
   14000    1.2283711   -2.6309385    2.4056136  0.014319128   0.10143239            1 
   15000    1.2266851   -2.6436862    3.7076208  0.020597893   0.10409435            4 
   16000     1.241965   -2.6196168    5.0255984  0.026174991   0.10610427            2 
   17000    1.2367194   -2.6278653     6.270492  0.030737705   0.10660984            1 
   18000    1.2413242   -2.6214056     7.574462  0.035066953   0.10657135            2 
   19000     1.235135   -2.6309624    8.8227775  0.038696391   0.10694831            1 
   20000    1.2163728   -2.6381496    10.078034  0.041991808   0.10682187            1 
   21000    1.2589684   -2.6276293    11.176052  0.044349411   0.10585389            2 
   22000    1.2357375   -2.6261665    12.374582  0.046873414    0.1048785            3 
   23000      1.23516   -2.6267785    13.679266  0.049562556   0.10426324            2 
   24000    1.2017676   -2.6489529    15.019167  0.052149885   0.10398671            1 
   25000    1.2264833   -2.6474403    16.265465  0.054218215   0.10397247            1 
   26000    1.2001338   -2.6364374    17.443749   0.05590945   0.10391722            1 
   27000     1.241302    -2.683971    18.582135  0.057352267   0.10387456            1 
   28000    1.2191385   -2.6376671    19.853595  0.059088078    0.1037308            1 
   29000     1.201734   -2.6753973    21.078543  0.060570524   0.10373302            1 
   30000    1.2343051    -2.669714    22.246432  0.061795642   0.10358973            2 
   31000    1.2306804   -2.6477075    23.386511  0.062866964   0.10325966            1 
   32000    1.2401778   -2.6620445    24.368885  0.063460637   0.10286667            2 
   33000      1.22863   -2.6694247    25.592735  0.064628118   0.10246484            1 
   34000     1.225715   -2.6407813    26.657636  0.065337341   0.10202962            2 
   35000    1.2034482   -2.6613036    27.659281   0.06585543   0.10150641            3 
   36000    1.2398395   -2.6746293    28.874366   0.06683881   0.10108305            2 
   37000    1.1991084   -2.6649824    29.994984   0.06755627   0.10069788            1 
   38000    1.2143947   -2.6637874    31.176692  0.068369938   0.10030627            3 
   39000    1.1817064   -2.7040533    32.145833  0.068687676  0.099941119            1 
   40000    1.2038319   -2.6998793    33.419817  0.069624618    0.0996291            1 
   41000    1.1816879   -2.6829051    34.836524  0.070805943  0.099383832            5 
   42000     1.210884   -2.6675343    35.972676  0.071374356  0.099256019            2 
   43000    1.1866755   -2.6589776    36.890841  0.071493877  0.099082886            2 
   44000    1.2065286   -2.7050532    38.084293  0.072129343  0.098940003            2 
   45000    1.2174338   -2.6965083    39.290988  0.072761089  0.098774856            1 
   46000    1.1796854   -2.7296754    40.458628  0.073294615  0.098620108            6 
   47000     1.183243    -2.696754    41.418084  0.073436318  0.098500051            1 
   48000    1.2194038   -2.6633786    43.063662  0.074763301  0.098445982            1 
   49000    1.1815431   -2.6955236    43.823712  0.074530122  0.098372009            1 
   50000    1.2057172   -2.6862185    44.925173  0.074875288  0.098243357            1 
   51000    1.2019666   -2.7087502    45.821141  0.074871144  0.098060904            2 
   52000    1.1716141   -2.7182877    46.969806  0.075272125  0.097885094            2 
   53000     1.170998   -2.7043355     47.94752  0.075389181  0.097725032            2 
   54000    1.1640072   -2.7002336    48.702041   0.07515747  0.097455044            2 
   55000    1.1842644   -2.7335885    49.611914  0.075169565  0.097155292            1 
   56000    1.1801428   -2.7073834    50.907802  0.075755657  0.096845989            2 
   57000     1.182771   -2.7241092     51.84888  0.075802455  0.096558179            3 
   58000    1.1850605   -2.7120499    53.078837  0.076262696  0.096303444            4 
   59000    1.1854591     -2.68596    53.864086  0.076079217  0.096027528            2 
   60000     1.189183   -2.6963203    54.623735  0.075866299  0.095726057            2 
   61000    1.1758874   -2.6892701    55.989478  0.076488357  0.095479506            1 
   62000    1.1632581   -2.7125668    57.176608  0.076850279  0.095256188            2 
   63000    1.2067745   -2.7364663    57.949823  0.076653205  0.094984397            2 
   64000    1.1716532   -2.7181681     59.06322  0.076905234  0.094750519            2 
   65000    1.1860842    -2.719181    59.779506  0.076640392  0.094515994            1 
   66000    1.1853127   -2.7270717    60.936538  0.076940073   0.09429019            1 
   67000    1.1491931   -2.7195707    62.071968   0.07720394   0.09407337            1 
   68000    1.1846998   -2.7484026    63.318068  0.077595671  0.093873272            1 
   69000    1.1565398   -2.7487484    64.615795  0.078038399  0.093716636            2 
   70000    1.1614616   -2.7178505    65.930644  0.078488861  0.093579071            1 
   71000      1.15411   -2.7369211    66.929904  0.078556225  0.093471604            1 
   72000    1.1656973   -2.7455415    67.526124  0.078155235  0.093341761            2 
   73000    1.1442062   -2.7366065    68.655276  0.078373603  0.093156253            3 
   74000    1.1694653   -2.7468867    69.300226  0.078040794  0.092976013            3 
   75000    1.1347796   -2.7167358    70.426583  0.078251758  0.092805133            2 
   76000    1.1181239   -2.7448272    71.923625  0.078863623  0.092654369            2 
   77000    1.1534186    -2.768292    72.977923  0.078980436   0.09254842            2 
   78000    1.1485085   -2.7401336    74.136393  0.079205548  0.092464965            1 
   79000    1.1491614   -2.7182491    74.950153  0.079061343  0.092368178            1 
   80000    1.1529749   -2.7634858    75.889733  0.079051805  0.092256878            4 
   81000    1.1394096   -2.7409437    76.751404  0.078962349  0.092142037            3 
   82000    1.1305146    -2.790759    78.108029  0.079378078  0.092022457            1 
   83000    1.1114499   -2.7725217    79.264661  0.079582993  0.091930097            1 
   84000    1.1333974   -2.7759779    80.261884  0.079624884  0.091846296            1 
   85000    1.1260269   -2.7589562     81.46517  0.079867813  0.091772107            3 
   86000    1.1402701   -2.7428378    82.046639  0.079502556  0.091686279            2 
   87000    1.1216306   -2.7677233    83.452591  0.079935431  0.091597327            2 
   88000    1.1253285   -2.7656647    84.695849  0.080204402  0.091522813            3 
   89000    1.1092041   -2.7775194    85.219486  0.079793526  0.091437002            1 
   90000    1.1103767   -2.7844446    86.677834  0.080257254  0.091366009            2 
   91000    1.1403827   -2.7647164    87.575229  0.080197096  0.091283676            1 
   92000    1.1425194   -2.7776921    88.672296  0.080319108  0.091202789            1 
   93000    1.1130064   -2.7453082    89.561143   0.08025192  0.091115493            3 
   94000    1.1339967   -2.7632277    90.287243  0.080041882  0.091025311            2 
   95000    1.1369723   -2.7853663    91.180143  0.079982581  0.090915063            3 
   96000     1.126669    -2.775189    91.831944  0.079715228  0.090784723            2 
   97000    1.1004173   -2.7768354    92.602539  0.079555445  0.090664476            1 
   98000     1.109432     -2.76018    94.076572  0.079997085  0.090538845            2 
   99000    1.1089965   -2.7710745    95.136016  0.080080821  0.090403194            1 
  100000    1.0930948   -2.7873272    95.532935  0.079610778  0.090263798            1 
  101000    1.0986083   -2.7550027    96.341687   0.07948984  0.090129461            1 
  102000    1.0921021   -2.7902408     97.31997  0.079509779  0.089970551            2 
  103000     1.092134   -2.7989496    97.729327  0.079069034   0.08981035            3 
  104000    1.1041715   -2.7900111    98.698951  0.079085698  0.089645683            2 
  105000    1.0909229   -2.7901366     99.54067  0.079000532  0.089478627            6 
  106000    1.0902738   -2.7980681     99.90588  0.078542358  0.089287733            2 
  107000    1.1181733   -2.7843516    100.70336  0.078429407  0.089082517            3 
  108000     1.091086   -2.8121541    101.96272  0.078674937  0.088883712            2 
  109000    1.1103919   -2.8018137    103.00735  0.078751792  0.088706937            1 
  110000    1.0996408   -2.8050071    104.21649   0.07895189   0.08855335            3 
  111000    1.0923155   -2.8303539    105.67036  0.079332102  0.088413646            1 
  112000    1.1042521   -2.8059499    106.71482  0.079400908    0.0882827            1 
  113000    1.0733439   -2.8025802    107.60115  0.079351878  0.088154903            1 
  114000    1.1098137   -2.8333879    108.13986  0.079049603  0.088020421            4 
  115000    1.1035836   -2.7945277    109.34951  0.079238774  0.087896023            3 
  116000    1.1099062   -2.8455293     110.4307  0.079332398  0.087774808            2 
  117000    1.0609772   -2.8159173    111.18264  0.079189915  0.087653643            1 
  118000    1.0820369   -2.8206377    112.75553  0.079629614  0.087534847            1 
  119000    1.0640716   -2.7924077    113.18712  0.079262686  0.087402826            2 
  120000    1.0674122   -2.8154075    113.81813  0.079040371  0.087283491            3 
  121000    1.0764002    -2.840492    114.88467   0.07912167  0.087164946            1 
  122000    1.0775938   -2.8363437     115.9028  0.079168577  0.087056484            2 
  123000    1.0651038   -2.8423723    116.80351  0.079135168  0.086945681            1 
  124000    1.0674731    -2.830089    117.54028  0.078992123  0.086830809            2 
  125000    1.0746592   -2.8599182    118.13758  0.078758387  0.086709468            2 
  126000    1.0768199   -2.8179648    119.29298   0.07889747  0.086593342            1 
  127000    1.0670071   -2.8376348    120.33707  0.078961331  0.086468475            4 
  128000    1.0756315   -2.8642267     120.4141  0.078394594    0.0863333            2 
  129000     1.076408   -2.8462861     120.7052  0.077974934  0.086184982            1 
  130000    1.0540872   -2.8223265    121.43922  0.077845656  0.086039985            3 
  131000    1.0489346   -2.8611381    123.13501  0.078330156  0.085893652            3 
  132000    1.0870534   -2.8348815    123.21607  0.077787925  0.085742476            2 
  133000    1.0740779   -2.8520034    124.45426  0.077978861  0.085589071            1 
  134000    1.0559897    -2.851169    125.37844  0.077971665  0.085445418            2 
  135000    1.0458382   -2.8679685    125.94137  0.077741586  0.085296082            7 
  136000    1.0520128   -2.8595255    126.59963  0.077573302  0.085144565            1 
  137000    1.0850737   -2.8761078    127.68889   0.07766964  0.084995232            2 
  138000    1.0735655   -2.8939456    127.53759  0.077015454  0.084832943            2 
  139000    1.0462548   -2.8566081    129.08422  0.077388621  0.084666097            1 
  140000    1.0193808   -2.8676425    129.78227  0.077251349  0.084516972            2 
  141000    1.0547086    -2.853634    130.73362  0.077265734  0.084372445            6 
  142000    1.0329358   -2.8502314    131.54926  0.077200272  0.084228343            2 
  143000    1.0408669   -2.8688697      132.322   0.07711072  0.084083524            2 
  144000    1.0426875   -2.8580168    133.33641  0.077162274   0.08394657            3 
  145000    1.0414656    -2.881038    133.60411  0.076783969  0.083796439            2 
  146000    1.0262852   -2.8340473    134.42629  0.076727333  0.083647512            2 
  147000    1.0485321   -2.8897568    134.32237  0.076146468  0.083491053            3 
  148000    1.0473001   -2.8739393    136.19655  0.076687245  0.083339956            5 
  149000    1.0497798   -2.8640734    136.67121  0.076438034  0.083189663            2 
  150000    1.0301263   -2.8781902    137.02861  0.076127007  0.083049427            3 
  151000    1.0076909   -2.8959953    138.94422  0.076680032  0.082911717            2 
  152000   0.98559291   -2.8852799    139.79205   0.07664038  0.082777396            1 
  153000    1.0353348   -2.8848027    140.14297  0.076330593  0.082644614            1 
  154000    1.0489148   -2.8738205    141.51567  0.076577742  0.082514831            2 
  155000    1.0369755   -2.8801765    141.58919  0.076123221  0.082378635            2 
  156000    1.0102147   -2.8858419    142.77321   0.07626774  0.082241521            2 
  157000    1.0163843   -2.9016088    143.52377  0.076180344  0.082113327            2 
  158000    1.0079812    -2.871816    144.98423  0.076468478  0.081987011            2 
  159000    1.0259241   -2.8979617    145.29249  0.076149106  0.081869873            4 
  160000    1.0205145   -2.9005583    146.01486  0.076049406  0.081752578            1 
  161000    1.0140781   -2.8872284    146.90834  0.076039513  0.081628494            2 
  162000    1.0177147   -2.8826634     148.0627  0.076163939   0.08150669            1 
  163000    1.0112452   -2.9199476    148.39659  0.075867379  0.081387733            3 
  164000     1.001045   -2.9309825    149.20862  0.075817387  0.081265079            2 
  165000    1.0131639   -2.9064945    150.27779  0.075897871  0.081145063            3 
  166000     1.005641   -2.8887597    151.39065  0.075999322  0.081031449            2 
  167000    1.0109938   -2.9218275    152.75659  0.076225842  0.080922331            2 
  168000   0.99070639    -2.888487    153.03895  0.075912179  0.080814243            1 
  169000    1.0066132   -2.8796361    153.93888  0.075906747  0.080716846            2 
  170000   0.98594153   -2.9274593    154.62666  0.075797382  0.080616087            1 
  171000    1.0088136   -2.9124345    155.87564  0.075962789  0.080513271            2 
  172000    1.0049719   -2.9215534    157.66109  0.076386187  0.080419359            2 
  173000   0.99830193   -2.9230041    157.48332  0.075859015  0.080329877            2 
  174000    1.0370291   -2.9421284    158.79641  0.076051919  0.080234552            2 
  175000   0.95936963   -2.9105359    159.51457  0.075959318  0.080144463            4 
  176000    1.0116238   -2.9315417    160.67098  0.076075275  0.080059428            7 
  177000   0.99230462   -2.9439369    161.04573  0.075821907  0.079975467            5 
  178000   0.99579016   -2.9333369    161.63318  0.075670962  0.079892401            7 
  179000   0.96689798   -2.9319848    162.82593  0.075803505  0.079801344            5 
  180000   0.96249755   -2.9315882    163.11115  0.075514423  0.079709506            1 
  181000   0.97202617    -2.923785    163.77018  0.075400636  0.079618042            3 
  182000   0.96495435   -2.9636747    164.86952  0.075489707  0.079523056            2 
  183000    0.9721835   -2.9554744    165.62371  0.075420634  0.079433263            3 
  184000    1.0090684   -2.9402075    165.99166  0.075177383  0.079339527            3 
  185000   0.98444042   -2.9357029    166.55645  0.075025426  0.079242187            1 
  186000   0.95864518   -2.9792178    168.12861  0.075326437  0.079144564            3 
  187000   0.96433318    -2.967388    167.88455   0.07481486  0.079047085            2 
  188000   0.97028971   -2.9657708    168.21587  0.074563771   0.07894827            3 
  189000   0.97370363   -2.9526864     169.0769  0.074548899  0.078840847            2 
  190000   0.97916952   -2.9649931     169.0847  0.074159956  0.078725669            2 
  191000   0.97952991   -2.9708944    169.80521  0.074086041  0.078610512            2 
  192000   0.97736773   -2.9999971    170.07618  0.073817785   0.07849565            1 
  193000   0.95985543   -2.9787097     171.3713  0.073994518  0.078377414            4 
  194000   0.96044939   -2.9505067    171.76814  0.073783566  0.078259715            2 
  195000   0.94839583    -2.991417    171.84512  0.073438084  0.078143127            7 
  196000   0.94834736   -2.9892503    173.21185  0.073644494  0.078020124            3 
  197000   0.95297833   -2.9875609    173.39827  0.073349522  0.077900632            5 
  198000   0.95199952   -2.9864738     174.8675  0.073597431  0.077779897            4 
  199000    0.9408596   -2.9864709    174.61322  0.073121114   0.07766037            4 
  200000   0.95111814   -2.9950166    175.64331  0.073184712  0.077537893            3 
  201000   0.94446822   -2.9837488    175.13678  0.072610604  0.077408116            1 
  202000   0.94248953   -2.9971423    176.07301  0.072637378  0.077280435            1 
  203000   0.93641379   -3.0016245    176.73018  0.072549336  0.077145848            4 
  204000    0.9523766   -2.9581176    178.20206  0.072794959  0.077017854            2 
  205000   0.92424214   -3.0328685    177.75059  0.072256337   0.07689185            3 
  206000   0.96589371   -2.9838632    179.75818   0.07271771  0.076767587            1 
  207000   0.93216122   -2.9936585    180.55313  0.072686443  0.076645814            2 
  208000   0.94215645   -3.0245647    180.62044  0.072363958  0.076525188            2 
  209000   0.94267464   -2.9748203    182.64546  0.072825144  0.076408582            2 
  210000   0.92820442    -3.005409        182.2  0.072301589  0.076295162            7 
  211000   0.93383629   -3.0237864    182.64658  0.072135299  0.076182517            3 
  212000    0.9129399   -3.0099457     183.5754  0.072160141  0.076065405            3 
  213000   0.93447587   -2.9935608    183.95145  0.071968484   0.07594638            1 
  214000    0.9441657   -3.0278008    184.21566  0.071735069  0.075822391            3 
  215000   0.92883906   -3.0169927    185.56861  0.071925818   0.07570225            2 
  216000   0.92846165   -3.0185605    186.25972  0.071859461  0.075583403            1 
  217000   0.92419797   -3.0245949    186.54444  0.071637648  0.075464114            3 
  218000   0.90472241   -2.9983432    187.41925  0.071643444  0.075347253            3 
  219000   0.91235853    -3.021703    188.43555  0.071703025  0.075233784            2 
  220000   0.91617929   -3.0095369    188.80111  0.071515571  0.075119467            5 
  221000   0.90931635   -3.0293657    189.10476  0.071306471  0.074998196            2 
  222000   0.91787449   -3.0041425    189.13768  0.070997627  0.074880371            3 
  223000   0.89563277   -3.0271684    190.19475  0.071074273  0.074762536            2 
  224000   0.90465573   -3.0312204    190.71763  0.070951499  0.074645135            3 
  225000   0.91016916   -3.0292521    191.10528  0.070779735  0.074526281            2 
  226000   0.90438708   -3.0465793    192.26169  0.070892953  0.074407881            5 
  227000   0.90452058   -3.0365459    192.81223  0.070782757  0.074293145            6 
  228000    0.8991619   -3.0436189    193.77581  0.070824492  0.074177234            5 
  229000   0.90647094   -3.0115908     193.9806  0.070589736  0.074063979            2 
  230000   0.88503192   -3.0413496    193.75359  0.070200576  0.073947322            3 
  231000   0.89132571   -3.0628369    194.99697  0.070345227   0.07382855            2 
  232000   0.90826384   -3.0686887    195.45379  0.070206102  0.073710824            7 
  233000   0.89927542   -3.0294132    196.31547  0.070212972  0.073592662            3 
  234000    0.8779282   -3.0493363    197.01448  0.070161851  0.073475897            4 
  235000   0.90227938   -3.0604404    197.31121  0.069968513  0.073357976            4 
  236000   0.88082675   -3.0589277    197.76179  0.069831142   0.07323641            3 
  237000   0.90724312   -3.0591121    197.40587  0.069411348  0.073116651            2 
  238000   0.89504784   -3.0759272    198.58034  0.069530932  0.072993331            2 
  239000   0.89545416   -3.0546187    199.26559  0.069478937  0.072871835            4 
  240000   0.89288598   -3.0664309    199.97084   0.06943432  0.072752113            3 
  241000   0.88967253   -3.0585123    200.25583  0.069244755  0.072628821            3 
  242000   0.89052011   -3.0635881    199.91203  0.068840229  0.072505364            2 
  243000   0.89044881   -3.0653211    200.70073  0.068827412  0.072380529            4 
  244000   0.87909481   -3.0894075    201.11571  0.068687061  0.072253968            2 
  245000   0.86308866   -3.0697556    201.60408  0.068572817  0.072129478            3 
  246000   0.87527551   -3.0925507    202.51864  0.068603876  0.072004068            5 
  247000    0.8771453   -3.0683137    202.95638  0.068473814  0.071878153            4 
  248000    0.8852273   -3.0709953    203.86404  0.068502702  0.071753716            3 
  249000   0.87442665   -3.0933091    204.12095  0.068313571  0.071630933            2 
  250000   0.86751266   -3.0927536    204.73193  0.068243975  0.071504199            3 
  251000   0.86254037    -3.065474    204.82202  0.068001997  0.071379468            3 
  252000   0.87122902   -3.0828818    205.27524  0.067882022  0.071253189            4 
  253000   0.84750468   -3.0951332    206.04036  0.067865732   0.07112344            3 
  254000   0.86325054   -3.1045212    205.64862  0.067470021  0.070993723            3 
  255000   0.86274618   -3.1019534    206.70018  0.067549077  0.070865342            3 
  256000   0.85862724   -3.0835025    207.03487  0.067394164  0.070739059            4 
  257000    0.8587992   -3.1004347    207.49757  0.067281962  0.070615131            4 
  258000   0.82359446   -3.1123294    208.08402  0.067210601  0.070489581            3 
  259000   0.86783917    -3.094732    208.35184  0.067037272  0.070360576            5 
  260000   0.85703509   -3.1247046    208.77518   0.06691512  0.070232511            4 
  261000   0.86697048   -3.1346757    209.00881  0.066733337  0.070103142            3 
  262000   0.84729304   -3.1097297    209.36102  0.066590654  0.069973985            2 
  263000   0.85035366   -3.1071037    209.82611  0.066484824  0.069843428            4 
  264000    0.8548804   -3.1136841    209.67007  0.066183735  0.069712256            4 
  265000   0.85529383   -3.1446084    210.19202  0.066098119  0.069577524            3 
  266000     0.840337   -3.1281796     211.2867  0.066192576  0.069443078            7 
  267000   0.85168239   -3.1077989    211.73493   0.06608456  0.069309816            6 
  268000   0.83478059    -3.132817    211.08558  0.065636063  0.069177379            6 
  269000   0.81808116   -3.1228765    212.24083  0.065749948  0.069044438            9 
  270000   0.84352166   -3.1301276    212.36191    0.0655438  0.068912123            2 
  271000   0.84261158   -3.1499027    213.13672  0.065540196  0.068779143            6 
  272000   0.83751734   -3.1395185    213.28588  0.065344939  0.068645995            4 
  273000   0.83649245   -3.1511436    212.93112  0.064997289  0.068512925            4 
  274000   0.83049083   -3.1614929    214.40193  0.065207399   0.06837811            5 
  275000   0.84486419   -3.1307624     215.6354  0.065344059  0.068247022            3 
  276000    0.8081566   -3.1539245    214.34273  0.064717009  0.068116551            2 
  277000   0.80291396   -3.1634228    215.53006  0.064840573  0.067985795            3 
  278000   0.82744635   -3.1787716    215.69985  0.064658229  0.067855612            5 
  279000   0.82780396   -3.1465748    216.90692  0.064787013  0.067725611            5 
  280000   0.83095759   -3.1706032    217.31066   0.06467579  0.067594716            5 
  281000   0.80994838   -3.1375998    217.68015  0.064555204  0.067465224            6 
  282000   0.82274681    -3.182821    217.41894  0.064249094  0.067336003            2 
  283000   0.80677496   -3.1664604    218.66463  0.064388879  0.067207446            3 
  284000   0.81006279    -3.157487    219.26768  0.064339108  0.067080394            7 
  285000   0.80956456   -3.1648446    218.74968  0.063961893  0.066953302            3 
  286000   0.80418483   -3.1679864    219.52774  0.063964959  0.066826757            3 
  287000   0.81221572   -3.1692869    220.05227  0.063894388  0.066698522            3 
  288000   0.80991357   -3.1750353    220.80339  0.063889869  0.066570502            5 
  289000   0.80744296   -3.1772722    221.50278  0.063870467  0.066443718            4 
  290000   0.81474555   -3.1502323    222.01384   0.06379708   0.06631708            4 
  291000   0.79916658   -3.1749086    222.01839   0.06357915  0.066191104            5 
  292000    0.8056186   -3.1707938    222.14039   0.06339623  0.066064571            5 
  293000   0.81281106   -3.2053412    222.87058  0.063387536  0.065940523            6 
  294000   0.80897772   -3.1845551    223.27965  0.063287882   0.06581317            5 
  295000   0.79538247   -3.1844811    223.11352  0.063026418  0.065688144            4 
  296000   0.78734664   -3.1820164    223.79301  0.063004789  0.065561773            3 
  297000    0.7889162   -3.1964141    223.62307   0.06274497  0.065432378            4 
  298000    0.7972417   -3.1917014    223.52586   0.06250723  0.065303918            6 
  299000   0.79134543   -3.2143104    224.48971  0.062566809  0.065175476            8 
  300000   0.78466501    -3.219587    224.20502  0.062279172  0.065047931            7 
  301000   0.76606407   -3.1664816    226.06684  0.062587719  0.064920395            6 
  302000   0.78542854   -3.1994921    224.79431  0.062029334    0.0647918            3 
  303000   0.78506845   -3.2209199    226.14761  0.062196811  0.064662583            3 
  304000   0.76885402   -3.2264201    225.71841  0.061874565  0.064531613           10 
  305000   0.80098163   -3.2344849    225.84562  0.061706453  0.064401281            5 
  306000   0.78620862   -3.2368121    225.80825   0.06149462  0.064271395            4 
  307000   0.78416051   -3.2286143    227.04984  0.061631335  0.064141463            5 
  308000   0.76276189   -3.2373572      226.956  0.061405844  0.064013358            8 
  309000   0.76813715   -3.2267219    228.53789  0.061633735  0.063886224            5 
  310000   0.78381309   -3.2482334    227.32231  0.061108149  0.063760397            5 
  311000   0.78208087   -3.2279178    229.07022  0.061380017  0.063634116            3 
  312000   0.77336874   -3.2499692    228.33546  0.060987035  0.063507402            3 
  313000    0.7682616   -3.2332184    229.92691  0.061215898  0.063381083           11 
  314000   0.75533411   -3.2187075     229.2934  0.060852813  0.063254478            3 
  315000   0.76375607   -3.2561124    229.32172  0.060667121  0.063127098            4 
  316000   0.75073832   -3.2527299    230.42543  0.060766199  0.062999545            6 
  317000   0.75699892   -3.2180485    231.01911  0.060730577  0.062873548            3 
  318000   0.77006729    -3.242092    230.17162  0.060317512  0.062748337            2 
  319000   0.75936873   -3.2715741     230.5966  0.060239445  0.062625748            6 
  320000   0.75334867   -3.2796369    231.17264  0.060201208  0.062499149            4 
  321000   0.76374814   -3.2503225    232.43843  0.060342272  0.062372897            5 
  322000   0.76659134   -3.2645457    231.61753  0.059942424  0.062247764            5 
  323000   0.76946945   -3.2634408    231.67152  0.059770773  0.062120137            7 
  324000   0.77356965    -3.265521    232.14234  0.059707392  0.061992234            3 
  325000    0.7445436    -3.279853    232.61127  0.059643915  0.061863585            4 
  326000   0.75313642   -3.2641765    233.83849  0.059774664  0.061734726            4 
  327000   0.74098459   -3.2438122    233.18578   0.05942553  0.061607726            2 
  328000   0.75286196      -3.2919    232.48883  0.059067284  0.061479247            5 
  329000   0.73394183     -3.26105    232.55945  0.058905637  0.061348912            6 
  330000   0.73580938   -3.2889395    232.33864  0.058671375  0.061219142            5 
  331000   0.74589165   -3.2833688    233.41566  0.058765272  0.061087795            4 
  332000   0.73883956   -3.2866909    233.38612  0.058580854  0.060955872            4 
  333000   0.71184204   -3.3051662    234.27628  0.058627698  0.060825741            5 
  334000   0.74655549   -3.2948402    234.85767  0.058597223  0.060695997            5 
  335000   0.72793302   -3.3075254    234.94854   0.05844491  0.060566009            5 
  336000   0.73505759   -3.2706222    234.56309  0.058175369  0.060436417            5 
  337000   0.72417141   -3.3223898    235.06155  0.058126002  0.060306773            3 
  338000   0.73167984   -3.2656489    235.30994   0.05801527  0.060176408            3 
  339000   0.71546981   -3.3023931    235.14927  0.057804639  0.060046948            5 
  340000   0.73738568   -3.3144046    235.83279  0.057802155  0.059916699            8 
  341000   0.73312668   -3.3156587    235.42263  0.057532413  0.059788598            7 
  342000   0.72102435   -3.3126006    236.11035  0.057531761  0.059658588           11 
  343000    0.7255695    -3.315787    235.76499  0.057280124  0.059529118            4 
  344000   0.71385215   -3.2914271    236.93494  0.057397029  0.059400545            7 
  345000    0.7127289   -3.3194793    236.51531  0.057129301  0.059273228            7 
  346000   0.70520217   -3.3292052    237.15408  0.057118035  0.059146321            7 
  347000   0.71369447   -3.3275412    237.41569  0.057016256  0.059018094            6 
  348000   0.70009903   -3.2945089    237.53828  0.056881773  0.058891337            3 
  349000     0.714395   -3.3282754    237.34406  0.056672413  0.058764295            5 
  350000   0.72551294   -3.3300923    237.93915   0.05665218  0.058636007            8 
  351000    0.7058187     -3.33532    237.83213  0.056465368  0.058507872            6 
  352000   0.70011166   -3.3102613    237.68649  0.056270476  0.058379296            7 
  353000   0.69053641   -3.3278293    237.52725  0.056073476  0.058248829            6 
  354000   0.69628707   -3.3292436    237.54493  0.055919241  0.058117151            6 
  355000   0.69594431   -3.3291227    237.80683  0.055823199  0.057985275           10 
  356000   0.69742234   -3.3483046    237.62568  0.055623989   0.05785276            6 
  357000   0.69923079   -3.3238702    238.68473  0.055715389  0.057722408            3 
  358000   0.70787278   -3.3358953    238.13277  0.055431278  0.057591349            4 
  359000   0.70026302   -3.3502228      238.194  0.055291087  0.057460237            6 
  360000   0.69082209   -3.3645516    238.51838  0.055212589  0.057328834           12 
  361000   0.68792943   -3.3461813    239.13577  0.055202162  0.057197289            5 
  362000   0.69237363   -3.3490154    238.51598  0.054906994  0.057066171           15 
  363000   0.68657746   -3.3448136    240.08919  0.055116894  0.056935604            5 
  364000   0.69602227    -3.352717    239.87191   0.05491573  0.056807009            6 
  365000     0.671711   -3.3746944    239.76188  0.054740156  0.056679683            7 
  366000   0.67718937   -3.3897896    239.97155  0.054638332  0.056551972           11 
  367000   0.68035733   -3.3760075     240.7405  0.054664054  0.056424438            5 
  368000   0.67963011   -3.3791754    240.00789  0.054349614  0.056297867            4 
  369000   0.67229837   -3.3764432    240.56387  0.054327883  0.056171528            7 
  370000   0.67525625   -3.3657216    241.14543  0.054312035  0.056044966            6 
  371000   0.68457547   -3.3824652    241.26666  0.054192869   0.05591875            3 
  372000   0.67426982   -3.3601191    241.95817  0.054202098  0.055792302            5 
  373000   0.68700499   -3.3938424    241.52167  0.053959265  0.055665852           11 
  374000    0.6785297   -3.3711532    241.78568  0.053873814   0.05553959            6 
  375000   0.67811265   -3.3748178    241.91383  0.053758628   0.05541371            9 
  376000    0.6639565   -3.3814523    242.58175  0.053763686  0.055288197            5 
  377000   0.66532859   -3.4107152    241.88059   0.05346609  0.055162747            6 
  378000   0.67296952   -3.3813958    242.46965  0.053454507  0.055036833            7 
  379000   0.66562265   -3.4009699    241.67845    0.0531395  0.054910475            9 
  380000   0.67060058   -3.4143044    241.59041  0.052980353   0.05478369            7 
  381000    0.6686489   -3.3939918    241.94492  0.052918837  0.054656851            5 
  382000   0.65552731   -3.4300543    242.94305  0.052998047   0.05452993            5 
  383000   0.64962264   -3.4133135    242.30412  0.052720652  0.054403618            5 
  384000   0.65101625   -3.4249413    242.90163  0.052713027  0.054277178           10 
  385000   0.65725147   -3.4098457    243.02859   0.05260359  0.054150953            6 
  386000   0.64952949   -3.4111602    243.26627  0.052518625  0.054025947            8 
  387000   0.64897517   -3.4299612    243.01927   0.05232973  0.053900055            7 
  388000   0.64367718   -3.4179029    242.89337  0.052167819  0.053774437            4 
  389000   0.64599832   -3.4166671     243.9168  0.052252956  0.053648976            6 
  390000   0.65106215   -3.3941875    244.34575  0.052210631   0.05352465           11 
  391000   0.65713429   -3.4247753    243.54257  0.051905918  0.053400757           11 
  392000   0.63010295   -3.4295542    243.78904  0.051825901  0.053276781            5 
  393000   0.63495976   -3.4324785    244.63304  0.051872993  0.053153489           12 
  394000   0.63793051   -3.4361825    244.63604  0.051741971  0.053030931            9 
  395000   0.62330713   -3.4273982    245.19763  0.051729458  0.052909132            9 
  396000   0.62754988   -3.4464779     245.8788  0.051742171  0.052787459            6 
  397000   0.64239709   -3.4370193     245.2114  0.051471746  0.052666235            5 
  398000   0.63775886   -3.4558161    245.05463  0.051309597  0.052545608           13 
  399000   0.61657027   -3.4428372    245.63977  0.051303211  0.052424543            6 
  400000   0.62305527   -3.4690741    245.06996  0.051056241  0.052303903            4 
  401000   0.63555607   -3.4589217    245.62672  0.051044622  0.052183068           12 
  402000   0.64021517   -3.4594609     245.8096  0.050955555  0.052062962            5 
  403000    0.6317142   -3.4656373    245.21457  0.050706073  0.051942033            8 
  404000   0.61186027   -3.4550616    246.39273  0.050823583   0.05182166            4 
  405000   0.62444762   -3.4865731    246.42142  0.050703996  0.051701993            8 
  406000   0.61231562   -3.4734466     246.4536  0.050585714  0.051582294           17 
  407000   0.62149782   -3.4574658    246.65619  0.050502905  0.051463232            7 
  408000   0.62673297    -3.451066    246.85257  0.050419235  0.051345297            4 
  409000   0.61147915   -3.4879311     246.7823  0.050281642  0.051227204           11 
  410000   0.60919565   -3.5133002    248.02405  0.050411393  0.051109569            5 
  411000   0.60287635   -3.4835183    247.33889  0.050149815  0.050991686           16 
  412000   0.60620899   -3.4871723    247.06527  0.049972749  0.050873534            7 
  413000   0.60461456   -3.4875602    247.54147  0.049947836    0.0507565           15 
  414000      0.61148   -3.4725561    247.81933  0.049883117  0.050639837           10 
  415000   0.60867042   -3.4830125    247.81869  0.049762789  0.050523488            8 
  416000   0.60287781   -3.4914372    248.00038  0.049679562  0.050407117           15 
  417000    0.6010258   -3.4843708    247.44589  0.049449619  0.050290243            9 
  418000   0.60384242   -3.4917313    248.48909  0.049539292  0.050174305            7 
  419000   0.60188225   -3.5017265    248.53223  0.049429641  0.050058671            7 
  420000   0.60600228    -3.501053    247.68103  0.049143062  0.049943322           10 
  421000   0.59996382   -3.5400169    248.18636  0.049126357  0.049827117           14 
  422000   0.59601918   -3.5319783    248.63207   0.04909796  0.049711661           14 
  423000   0.58116938   -3.5059069    248.15022  0.048886962   0.04959645            9 
  424000   0.58337354   -3.5426397    248.39246  0.048819272  0.049480995            5 
  425000   0.58760643   -3.5336599    248.56473  0.048738182  0.049366921           10 
  426000   0.56600164      -3.5243    248.67118  0.048644597  0.049252671           30 
  427000   0.57188191   -3.5287255    248.82783  0.048561247   0.04913917           10 
  428000   0.57178258     -3.51235    249.74552  0.048626465  0.049025443            7 
  429000    0.5892515   -3.5381917    249.74978  0.048513944  0.048911962            5 
  430000   0.57815802   -3.5402334    249.55771  0.048363897  0.048798387            7 
  431000   0.56941054   -3.5488465    249.46476  0.048233713  0.048686004            9 
  432000   0.57253029   -3.5343745    249.58856  0.048145942  0.048574096            8 
  433000   0.58657084   -3.5347954      250.118  0.048136643  0.048462287            5 
  434000   0.56083363   -3.5522585    250.00124   0.04800331  0.048350294           19 
  435000   0.56617857   -3.5463272     249.6136  0.047818697  0.048238364           17 
  436000   0.57744555   -3.5558394    249.81365  0.047747257  0.048126162           19 
  437000   0.56124539   -3.5768361    249.54137  0.047586073   0.04801395           18 
  438000   0.57108699   -3.5665621    249.89365  0.047544455  0.047902009            8 
  439000   0.57548018   -3.5712292    250.38192  0.047528837   0.04779001            6 
  440000   0.55586245   -3.5617862    250.44996  0.047433705  0.047677599            8 
  441000   0.55991015   -3.5481052    249.53944  0.047154089  0.047565128            8 
  442000   0.56389115   -3.5870321     249.3932  0.047019834  0.047453793           16 
  443000   0.56603854   -3.5416497    249.91563  0.047011969  0.047342552           10 
  444000   0.55634364   -3.5642681     249.7592  0.046876726  0.047232135           11 
  445000   0.56761369   -3.5840641    250.63008  0.046934473  0.047120764            8 
  446000   0.55373727    -3.587042    250.56437   0.04681696  0.047009929            9 
  447000   0.55873131   -3.5832037    249.61248  0.046534765  0.046899012           12 
  448000   0.56000958   -3.6053117    250.05069  0.046512405  0.046788191            7 
  449000   0.53238342   -3.6118084    250.31758  0.046458349  0.046677353           14 
  450000   0.54641698   -3.5932475    249.80408  0.046260015   0.04656704            6 
  451000   0.55744708   -3.5887096    250.90616  0.046361079  0.046457247            9 
  452000   0.54144113   -3.5909851    251.09087  0.046292565   0.04634835           10 
  453000   0.54462205   -3.6079847    250.28672  0.046042443  0.046239701           17 
  454000   0.53313773   -3.5979768    251.74304  0.046208341  0.046131817           11 
  455000   0.53975558   -3.6168629    251.51172  0.046064418  0.046024512           19 
  456000   0.53959652   -3.6125329    251.61095  0.045981532  0.045917565            8 
  457000   0.54594853   -3.6050387    251.72385  0.045901504  0.045810279           18 
  458000   0.52771379    -3.627893     251.0059  0.045670651  0.045703134            6 
  459000   0.53952287   -3.6012079    251.89399  0.045732388  0.045596303           14 
  460000   0.54176556   -3.6060543    251.64602  0.045588047  0.045490043           13 
  461000   0.52632984   -3.6373666    251.67438  0.045494285  0.045383586            9 
  462000   0.52197083   -3.6265995    251.67266  0.045395501  0.045277241           10 
  463000   0.52514744   -3.6311375    252.21501   0.04539507  0.045171658            6 
  464000   0.51209426   -3.6293489    251.94459  0.045248668  0.045066371           23 
  465000   0.53346164   -3.6271608     252.2214  0.045200967  0.044960961           12 
  466000   0.52206941   -3.6683248    251.25987  0.044932023   0.04485566           12 
  467000   0.52643393   -3.6478733    251.19692  0.044824576  0.044750345           26 
  468000   0.52621212   -3.6426053    251.89171  0.044852513  0.044645533            8 
  469000     0.525703   -3.6412217    251.99245  0.044774778   0.04454053           11 
  470000   0.51233808   -3.6595957    252.04143  0.044688196  0.044435938            7 
  471000   0.51094982   -3.6725243    251.37731  0.044475815  0.044330923           14 
  472000   0.50895501   -3.6696456    252.00658  0.044492687   0.04422576           19 
  473000   0.51635372    -3.659117     251.8893  0.044377961  0.044120594           19 
  474000    0.5061675   -3.6419086    252.02972  0.044309023  0.044016341           34 
  475000   0.50606592   -3.6627219    251.55285  0.044132078   0.04391191           18 
  476000   0.51159001   -3.6728927    251.66252  0.044058564  0.043807472           19 
  477000    0.5163034   -3.6685682    252.29849  0.044077304  0.043703207           11 
  478000   0.50476844    -3.672802    251.62529  0.043867729   0.04359954           25 
  479000   0.50009686   -3.6775402    251.11098   0.04368667  0.043495183           12 
  480000   0.50132254   -3.6837472    251.42384  0.043649972  0.043391717           35 
  481000   0.49706987   -3.6781931    251.60486  0.043590586   0.04328836           13 
  482000   0.50465617   -3.6779385    251.96133  0.043561778   0.04318531           16 
  483000   0.49187787   -3.6804584    251.64664  0.043417295  0.043081684           18 
  484000    0.5005122    -3.686744    252.49578   0.04347379  0.042978884           14 
  485000   0.49817637   -3.6997002    251.47663  0.043209043  0.042875629           25 
  486000   0.50001517   -3.6951287    251.70017  0.043158465   0.04277247           20 
  487000   0.48720879   -3.7093613    251.80527  0.043087829  0.042669498            9 
  488000   0.48199588   -3.6987818    251.50103  0.042947579  0.042566744           20 
  489000   0.49051786   -3.6980581    251.98454   0.04294215   0.04246472           22 
  490000   0.48184864   -3.7107189    251.77694  0.042819207  0.042362496           15 
  491000   0.48054405   -3.7024472    251.14402  0.042624579  0.042260449           13 
  492000   0.49379185   -3.6979029    252.34685  0.042741675  0.042158629           20 
  493000   0.47825921   -3.7284044    252.20776  0.042631468  0.042056935           15 
  494000   0.47497384   -3.7280071    252.06917   0.04252179  0.041954982           15 
  495000   0.47799978   -3.7294512     251.7692  0.042385388  0.041853685           22 
  496000   0.47242489   -3.7203254     251.6178  0.042274496  0.041752564           16 
  497000   0.46849019   -3.7306379    251.53947  0.042176303  0.041651564           32 
  498000   0.47513411   -3.7445571    251.95968  0.042161928  0.041550262           17 
  499000   0.46792506   -3.7278862    251.75178  0.042042715  0.041449096            9 
  500000   0.48043781   -3.7375899    251.80386  0.041967311  0.041348192           16 
  501000   0.45718009   -3.7424536    251.38469   0.04181382  0.041247292           15 
  502000   0.46130469   -3.7348612    251.88425  0.041813454  0.041146579           13 
  503000   0.46470289   -3.7158384    251.63662  0.041689301  0.041046431           12 
  504000   0.45824215   -3.7329332    251.61961  0.041603771  0.040946512            7 
  505000   0.47330653   -3.7611374    251.37552  0.041481108  0.040846737           16 
  506000   0.46108358   -3.7515945    251.91424  0.041487853  0.040747298           25 
  507000   0.47277935   -3.7492053    251.50875  0.041339373  0.040647946           15 
  508000   0.45775602   -3.7686673    250.84124  0.041148498  0.040548534           15 
  509000   0.45528265   -3.7536516    251.80109  0.041224802   0.04044933           26 
  510000   0.45698481   -3.7506676    251.12723  0.041033861  0.040350676           24 
  511000   0.45108057   -3.7676137     251.7197  0.041050179  0.040252154           10 
  512000   0.45160985   -3.7764172    251.63346  0.040955967  0.040154034           15 
Loop time of 1228.31 on 48 procs for 500000 steps with 4000 atoms

Performance: 70340.606 tau/day, 407.064 timesteps/s
99.4% CPU use with 48 MPI tasks x no OpenMP threads

MPI task timing breakdown:
Section |  min time  |  avg time  |  max time  |%varavg| %total
---------------------------------------------------------------
Pair    | 77.571     | 83.499     | 88.788     |  30.9 |  6.80
Neigh   | 8.1063     | 8.5074     | 8.8283     |   6.2 |  0.69
Comm    | 78.832     | 84.145     | 91.11      |  33.6 |  6.85
Output  | 0.8775     | 0.87801    | 0.88751    |   0.1 |  0.07
Modify  | 1037       | 1039.8     | 1042.4     |   3.8 | 84.65
Other   |            | 11.5       |            |       |  0.94

Nlocal:        83.3333 ave          91 max          78 min
Histogram: 7 3 5 12 6 4 4 3 1 3
Nghost:        2195.69 ave        2225 max        2179 min
Histogram: 4 11 6 8 7 4 4 2 1 1
Neighs:        14575.2 ave       16523 max       12758 min
Histogram: 1 1 6 10 9 8 7 4 0 2
FullNghs:      29150.7 ave       32060 max       27000 min
Histogram: 3 7 5 10 7 8 1 4 0 3

Total # of neighbors = 1399235
Ave neighs/atom = 349.80875
Neighbor list builds = 27119
Dangerous builds = 0

#clear
#
#next RN
#
#jump SELF
Total wall time: 0:20:32
