
units lj                  # Use reduced LJ style units
atom_style atomic         # Uncharged point particles
atom_modify map hash      # Needed for indexing of clusters etc
                          # Used to be able to find where atoms are in relation to each other.

lattice fcc 1.0 spacing 1 1 1
Lattice spacing in x,y,z = 1.5874011 1.5874011 1.5874011
region box block 0 10 0 10 0 10 units lattice
create_box 2 box
Created orthogonal box = (0.0000000 0.0000000 0.0000000) to (15.874011 15.874011 15.874011)
  3 by 4 by 4 MPI processor grid
create_atoms 1 box
Created 4000 atoms
  using lattice units in orthogonal box = (0.0000000 0.0000000 0.0000000) to (15.874011 15.874011 15.874011)
  create_atoms CPU = 0.003 seconds
set type 1 type/fraction 2 0.19 78393
Setting atom values ...
  784 settings made for type/fraction
mass 1 1.0
mass 2 1.0
pair_style lj/cut  3.5
pair_modify tail  yes
pair_coeff 1  1  1.0  1.0   # Intearaction between 1 and 1 set with epsilon = 1 and sigma = 1
pair_coeff 1  2  1.5  0.8
pair_coeff 2  2  0.5  0.88

write_data data.0
System init for write_data ...
Neighbor list info ...
  update every 1 steps, delay 10 steps, check yes
  max neighbors/atom: 2000, page size: 100000
  master list distance cutoff = 3.8
  ghost atom cutoff = 3.8
  binsize = 1.9, bins = 9 9 9
  1 neighbor lists, perpetual/occasional/extra = 1 0 0
  (1) pair lj/cut, perpetual
      attributes: half, newton on
      pair build: half/bin/atomonly/newton
      stencil: half/bin/3d
      bin: standard
WARNING: Not all mixed pair coeffs generated from mixing. Use write_data with 'pair ij' option to store all pair coeffs. (../write_data.cpp:312)


#############################
#   M E L T   S Y S T E M   #
#############################

velocity all create 2.4 6583654 mom yes dist gaussian # Assign velocities
                                                    # Temperature 2.4, random number seed, zero linear momentum
                                                                                # Gaussian distribution

timestep 0.002   # simulation timestep
thermo 1000       # output thermodynamic data every 1000 steps bf 100

# Define a fix  in this case with index 1 applied to all
# particles in the simulation. This fix is for simulations
# in the anisotropic NPT ensemble. Note that we use the MTK
# correction.
fix 1 all npt temp 2.4 2.4 0.1 iso 5.68 5.68 0.5 mtk yes tchain 5 pchain 5 # Use NPT ensemble
                                                                         # Set temperature and pressure and damping
                                                                         # Numbers of thermostats in chain and in barostat
run 10000          # run for 10000 steps
Per MPI rank memory allocation (min/avg/max) = 3.642 | 3.644 | 3.648 Mbytes
Step Temp E_pair E_mol TotEng Press Volume 
       0          2.4   -7.1181064            0   -3.5190064   -3.5570023         4000 
    1000    2.4083408   -4.8277392            0   -1.2161311     5.753051    4501.2481 
    2000     2.425441    -4.836126            0    -1.198874    5.5858272    4513.5218 
    3000    2.4306887   -4.7931925            0   -1.1480709    5.6258752    4538.6682 
    4000    2.4638919   -4.8233788            0   -1.1284649     5.775312    4503.2512 
    5000    2.3607087   -4.8513312            0   -1.3111535    5.6063346    4500.6736 
    6000    2.3498758   -4.8026236            0    -1.278691    6.0294709    4472.6394 
    7000    2.3919881   -4.8752957            0   -1.2882105    5.4931732    4498.3869 
    8000    2.4381796   -4.7640023            0   -1.1076472    5.6367706    4546.4496 
    9000    2.4153821   -4.8688798            0   -1.2467124    5.6540346    4487.5356 
   10000    2.3414738   -4.7948063            0   -1.2834736    5.7160542     4507.917 
Loop time of 2.27544 on 48 procs for 10000 steps with 4000 atoms

Performance: 759412.690 tau/day, 4394.749 timesteps/s
99.6% CPU use with 48 MPI tasks x no OpenMP threads

MPI task timing breakdown:
Section |  min time  |  avg time  |  max time  |%varavg| %total
---------------------------------------------------------------
Pair    | 0.96137    | 1.0284     | 1.087      |   2.8 | 45.20
Neigh   | 0.19658    | 0.204      | 0.21526    |   0.9 |  8.97
Comm    | 0.71403    | 0.77996    | 0.85617    |   3.5 | 34.28
Output  | 0.00024712 | 0.00025131 | 0.00031613 |   0.0 |  0.01
Modify  | 0.22263    | 0.24819    | 0.27117    |   2.5 | 10.91
Other   |            | 0.01464    |            |       |  0.64

Nlocal:        83.3333 ave          90 max          76 min
Histogram: 3 2 7 2 5 12 2 7 3 5
Nghost:        1517.73 ave        1548 max        1495 min
Histogram: 5 4 10 6 7 5 1 2 6 2
Neighs:        8452.33 ave        9698 max        7314 min
Histogram: 1 3 5 8 12 7 4 6 1 1

Total # of neighbors = 405712
Ave neighs/atom = 101.42800
Neighbor list builds = 907
Dangerous builds = 226

# Equilibrate just above the melting temperature to avoid step fn in T

fix 1 all npt temp 1.25 1.25 0.1 iso 5.68 5.68 0.5 mtk yes tchain 5 pchain 5
run 2000
Per MPI rank memory allocation (min/avg/max) = 3.642 | 3.645 | 3.649 Mbytes
Step Temp E_pair E_mol TotEng Press Volume 
   10000    2.3414738   -4.7948063            0   -1.2834736    5.7160542     4507.917 
   11000     1.259402   -6.4643018            0    -4.575671    5.8096544    3699.6091 
   12000    1.2163661   -6.5356332            0   -4.7115401    5.7282777    3671.7422 
Loop time of 0.506486 on 48 procs for 2000 steps with 4000 atoms

Performance: 682348.275 tau/day, 3948.775 timesteps/s
99.6% CPU use with 48 MPI tasks x no OpenMP threads

MPI task timing breakdown:
Section |  min time  |  avg time  |  max time  |%varavg| %total
---------------------------------------------------------------
Pair    | 0.22494    | 0.24489    | 0.2863     |   2.2 | 48.35
Neigh   | 0.032489   | 0.034557   | 0.038196   |   0.6 |  6.82
Comm    | 0.12994    | 0.17305    | 0.198      |   2.8 | 34.17
Output  | 5.0177e-05 | 5.1924e-05 | 6.627e-05  |   0.0 |  0.01
Modify  | 0.044002   | 0.049368   | 0.0565     |   1.9 |  9.75
Other   |            | 0.004562   |            |       |  0.90

Nlocal:        83.3333 ave          91 max          73 min
Histogram: 1 1 1 7 5 9 10 7 6 1
Nghost:        1743.54 ave        1772 max        1716 min
Histogram: 2 5 5 6 7 6 7 3 3 4
Neighs:        10415.2 ave       11776 max        9032 min
Histogram: 1 2 3 11 6 8 10 4 2 1

Total # of neighbors = 499928
Ave neighs/atom = 124.98200
Neighbor list builds = 142
Dangerous builds = 10

#############################
# L I N E A R  Q U E N C H  #
#############################

# Define solid atoms. This closely follows ten Wolde  Ruiz-Montero and Frenkel  Faraday Discuss  1996  104  93-110
# Compute components of the per-atom q6 vector
compute q6 all orientorder/atom degrees 1 6 components 6 nnn NULL cutoff 1.3 # compute the Q6 parameter.
                                                                             # Use all neighbours within 1.3 unit cell.

# get number of connections
compute coord_number all coord/atom orientorder q6 0.5

# An atom is solid if it has 8 or more connections (of a possible 14)
variable is_solid atom c_coord_number>=8
group solid dynamic all var is_solid    # Must be dynamic to update
dynamic group solid defined

# do clustering
compute cluster solid cluster/atom 1.3 # Create a cluster where all atoms within are solid and max 1.3 units from another member

# define chunks one chunk per cluster
compute clus_chunks solid chunk/atom c_cluster nchunk every compress yes  # Says which atoms are in which chunk

# count the size of each chunk
compute size_chunks solid property/chunk clus_chunks count


# Find the maximum entry in the vector of chunk sizes
variable max_n equal max(c_size_chunks)


# Thermo style which includes this variable
# thermo_style custom step temp pe vol v_max_n

thermo ${N}  # Print the thermo information every 100 steps
thermo 1000  

# Reset the npt fix at a lower temperature (below freezing)
fix 1  all npt temp  ${temp} ${temp}  0.1  iso  5.68  5.68  0.5  mtk yes tchain  5  pchain  5
fix 1  all npt temp  0.45 ${temp}  0.1  iso  5.68  5.68  0.5  mtk yes tchain  5  pchain  5
fix 1  all npt temp  0.45 0.45  0.1  iso  5.68  5.68  0.5  mtk yes tchain  5  pchain  5

dump dmp2 all dcd ${N} traj.dcd
dump dmp2 all dcd 1000 traj.dcd


compute msd all msd com yes
variable twopoint equal c_msd[4]/6/(step*dt+1.0e-6)
fix 9 all vector 10 c_msd[4]
variable fit equal slope(f_9)/6/(10*dt)
thermo_style custom step temp pe c_msd[4] v_twopoint v_fit v_max_n

fix 1 all npt temp 1.25 ${temp} 0.1 iso 5.68 5.68 0.5 mtk yes tchain 5 pchain 5
fix 1 all npt temp 1.25 0.45 0.1 iso 5.68 5.68 0.5 mtk yes tchain 5 pchain 5
run 5000000 # 5000000  # Run for this many steps
Neighbor list info ...
  update every 1 steps, delay 10 steps, check yes
  max neighbors/atom: 2000, page size: 100000
  master list distance cutoff = 3.8
  ghost atom cutoff = 3.8
  binsize = 1.9, bins = 9 9 9
  4 neighbor lists, perpetual/occasional/extra = 1 3 0
  (1) pair lj/cut, perpetual
      attributes: half, newton on
      pair build: half/bin/atomonly/newton
      stencil: half/bin/3d
      bin: standard
  (2) compute orientorder/atom, occasional
      attributes: full, newton on
      pair build: full/bin/atomonly
      stencil: full/bin/3d
      bin: standard
  (3) compute coord/atom, occasional
      attributes: full, newton on
      pair build: full/bin/atomonly
      stencil: full/bin/3d
      bin: standard
  (4) compute cluster/atom, occasional
      attributes: full, newton on
      pair build: full/bin/atomonly
      stencil: full/bin/3d
      bin: standard
Per MPI rank memory allocation (min/avg/max) = 9.771 | 9.778 | 9.785 Mbytes
Step Temp PotEng c_msd[4] v_twopoint v_fit v_max_n 
   12000    1.2163661   -6.5356332 1.1166326e-30 7.7543928e-33 8.3333333e+20            2 
   13000    1.2451502   -6.5489191    0.5202031 0.0033346351  0.042373557            2 
   14000    1.2677352   -6.5194443    1.0250825 0.0061016814  0.041333351            3 
   15000    1.2449642   -6.4687036    1.5352729 0.0085292938  0.042158726            2 
   16000    1.2543732   -6.5587214     2.014638  0.010492906  0.041610065            2 
   17000    1.2514624   -6.5269707    2.6025381  0.012757539  0.042384252            2 
   18000    1.2356334    -6.557796    3.1237046  0.014461595  0.043036281            1 
   19000    1.2639165   -6.5093967    3.6231618   0.01589106  0.043010468            1 
   20000    1.2530951   -6.4572315    4.1991893  0.017496622  0.043325293            2 
   21000    1.2613007   -6.5019094    4.7695663   0.01892685  0.043791158            4 
   22000    1.2430122   -6.5345239    5.3030916  0.020087468  0.044122767            3 
   23000    1.2547542   -6.4854952    5.8718213  0.021274714  0.044403595            4 
   24000    1.2312215   -6.5311763     6.404743  0.022238691   0.04464417            2 
   25000    1.2287275    -6.548989    7.0021614  0.023340538   0.04474614            3 
   26000     1.238619   -6.4917549    7.5455016  0.024184299  0.045047399            1 
   27000     1.262363   -6.5269192    8.1002608  0.025000804  0.045178375            1 
   28000    1.2706412   -6.5639528    8.5137151  0.025338437  0.045131406            3 
   29000     1.249042   -6.5122575     9.016808  0.025910367  0.045023619            2 
   30000     1.239857   -6.5312559    9.4258678  0.026182966  0.044780537            2 
   31000    1.2741959   -6.5479706    9.8790746  0.026556652  0.044527557            2 
   32000    1.2620494   -6.4842158    10.420566  0.027136891  0.044266817            1 
   33000    1.2569657   -6.5394745     10.81752  0.027316969  0.044019236            2 
   34000    1.2494177   -6.4610516    11.373139  0.027875341  0.043745644            2 
   35000    1.2767394   -6.5185773    11.859174  0.028236129   0.04355713            3 
   36000    1.2642094    -6.528113    12.416561  0.028742038  0.043404259            2 
   37000    1.2610295   -6.5411016    12.944588  0.029154476  0.043311867            2 
   38000    1.2414676   -6.5443706    13.529078   0.02966903  0.043272346            2 
   39000    1.2295803   -6.5310217    14.169806  0.030277362   0.04328582            2 
   40000    1.2522382   -6.5347532    14.835543  0.030907381  0.043371141            1 
   41000    1.2328513   -6.5089741    15.340955  0.031180803  0.043486999            3 
   42000    1.2413162   -6.5486066    15.835749  0.031420136  0.043581183            2 
   43000    1.2552323   -6.5306188    16.418213  0.031818242  0.043672654            2 
   44000    1.2681067   -6.5414009    17.020134  0.032235101  0.043774318            1 
   45000    1.2589803   -6.5297952    17.498871  0.032405315  0.043845194            1 
   46000    1.2469656   -6.5422044    17.956665   0.03253019  0.043868331            4 
   47000    1.2539668   -6.5582555    18.525189  0.032846079  0.043883219            4 
   48000    1.2422864   -6.5481445    18.871753   0.03276346  0.043894854            2 
   49000    1.2302491   -6.5490942    19.292791  0.032810869  0.043853006            1 
   50000    1.2605999   -6.5357191    19.862316   0.03310386  0.043800176            1 
   51000    1.2207342   -6.5461832    20.345225  0.033243831  0.043777142            2 
   52000    1.2516518   -6.5365467    20.927515  0.033537684  0.043747624            2 
   53000    1.2394524   -6.5248045    21.264612  0.033434925  0.043705366            2 
   54000    1.2322864    -6.547956    21.773554  0.033601164  0.043623644            1 
   55000    1.2591963     -6.56268    22.262562  0.033731154  0.043558152            2 
   56000    1.2445744   -6.5612563     22.75863  0.033867008  0.043494484            3 
   57000     1.226455   -6.5095632    23.296245  0.034058837  0.043412081            1 
   58000    1.2398712   -6.4921481    23.778033   0.03416384  0.043354188            5 
   59000    1.2389779   -6.5449963    24.346919  0.034388303  0.043315472            4 
   60000    1.2532778   -6.5367666    25.060849  0.034806735  0.043315282            3 
   61000    1.2589651   -6.5458548    25.718698  0.035134834  0.043331606            1 
   62000    1.2277105   -6.5606415    26.160284  0.035161671   0.04335656            1 
   63000    1.2312583   -6.5191216    26.672062  0.035280505  0.043370378            3 
   64000    1.2426456   -6.5384019    27.203429  0.035421131  0.043379192            1 
   65000    1.2443747   -6.5280441    27.745636  0.035571329  0.043387325            2 
   66000    1.2760969   -6.5492295    28.278329  0.035704961  0.043407227            1 
   67000    1.2675363   -6.5674276    28.746067  0.035753815    0.0434257            3 
   68000    1.2419289   -6.5366308    29.548436  0.036211318  0.043461605            2 
   69000     1.241937   -6.5899564    29.806498  0.035998186  0.043497226            3 
   70000    1.2327172   -6.5372229    30.363244  0.036146719  0.043506895            2 
   71000    1.2474763   -6.5362296    30.870523  0.036233008  0.043512522            1 
   72000    1.2391075   -6.5645102    31.490846  0.036447738  0.043523841            4 
   73000    1.1984665   -6.5556991    32.078235   0.03661899  0.043544121            1 
   74000    1.2352851    -6.514911    32.514882  0.036615858  0.043566945            4 
   75000    1.2197263   -6.5294772    33.175459  0.036861621  0.043602642            1 
   76000    1.2553531   -6.5493424    33.709633  0.036962317  0.043633634            1 
   77000    1.2195539   -6.5469798    34.301475  0.037122809  0.043657434            3 
   78000    1.2285593   -6.5112196    34.758316  0.037134953  0.043673681            2 
   79000    1.2473989   -6.5768053    35.370089  0.037310221  0.043683288            1 
   80000    1.2449708   -6.5779877    35.832725  0.037325755  0.043700352            3 
   81000       1.2328   -6.5321879    36.425223  0.037474509  0.043717498            2 
   82000    1.2368582   -6.5260827    36.702812  0.037299605   0.04372523            1 
   83000    1.2433279   -6.5739137    37.296112  0.037445895  0.043730199            2 
   84000    1.2461238   -6.5360125    37.876725  0.037576116  0.043738751            2 
   85000    1.2481089   -6.5266777    38.464176  0.037709976  0.043745191            3 
   86000    1.2197582   -6.5022717    38.762108  0.037560182  0.043743921            2 
   87000    1.2079609   -6.5334462    39.058432  0.037412291  0.043732341            2 
   88000    1.2398946   -6.5243247    39.735124  0.037627958  0.043717148            3 
   89000    1.2472319   -6.5633293     40.11213  0.037558174  0.043694257            2 
   90000    1.2579704   -6.5792029    40.681452  0.037668011  0.043670908            2 
   91000    1.2752375   -6.5583453    41.164932  0.037696824  0.043646777            2 
   92000    1.2478992   -6.5323775    41.542231  0.037628832  0.043619218            2 
   93000    1.2392078   -6.5505969    42.086314  0.037711751  0.043594669            1 
   94000    1.2597566   -6.5227461    42.677159  0.037834361  0.043568867            1 
   95000    1.2192274   -6.5416279    43.196049  0.037891271  0.043552444            2 
   96000    1.2422565    -6.583718    43.594077   0.03784208  0.043533115            3 
   97000     1.233473    -6.515323    43.934512  0.037744426   0.04350591            1 
   98000    1.2451783   -6.5432966    44.515713  0.037853498  0.043467499            2 
   99000    1.2398105    -6.512637    44.978759  0.037860908  0.043430247            3 
  100000    1.2271546   -6.5415027     45.33811  0.037781758  0.043398758            2 
  101000    1.2182884   -6.5383998     45.78513   0.03777651  0.043367602            4 
  102000    1.2487103   -6.5221093     46.36704  0.037881568  0.043327707            2 
  103000    1.2649399   -6.5376844    47.073974  0.038085739  0.043296312            1 
  104000    1.2400496    -6.542362    47.291546  0.037893866  0.043264202            2 
  105000    1.2101759   -6.5509929     47.81888  0.037951492  0.043233615            1 
  106000    1.2398687   -6.5362511    48.247158  0.037930155  0.043197285            3 
  107000    1.2265745   -6.5394811    48.726201  0.037948754  0.043157225            3 
  108000    1.2285588   -6.5525717    49.114071  0.037896659  0.043118664            1 
  109000    1.2361157   -6.5296043    49.545727  0.037878996  0.043076708            1 
  110000    1.2344732   -6.5383347    49.859093   0.03777204  0.043028358            2 
  111000    1.2315277   -6.5474449    50.351251   0.03780124  0.042979831            1 
  112000    1.2253044   -6.5549034    50.793364  0.037792682  0.042935767            4 
  113000    1.2052422   -6.5781456    51.409924  0.037912923  0.042892946            2 
  114000    1.2616093   -6.5121662    51.631723  0.037742488   0.04284221            1 
  115000    1.2161202   -6.5131847    52.144024  0.037785524   0.04279419            2 
  116000     1.217163   -6.5659938    52.580245  0.037773164  0.042735969            3 
  117000     1.237254   -6.5115893    53.183035  0.037879655  0.042683803            3 
  118000    1.2318534   -6.5890672    53.534908  0.037807138  0.042635905            2 
  119000    1.2714574    -6.569491    53.994757  0.037811454  0.042590265            2 
  120000    1.2431501   -6.5437617    54.518455  0.037860038   0.04254763            1 
  121000    1.2288034   -6.5834279    55.361535  0.038127779  0.042507586            2 
  122000    1.2497985   -6.5750485    55.659554  0.038018821  0.042468894            2 
  123000    1.2504517     -6.50781    56.268927  0.038122579  0.042434779            1 
  124000    1.2083073   -6.5694328    56.650359  0.038071477  0.042401735            2 
  125000    1.2187032   -6.5594589    57.002804  0.038001869  0.042370627            2 
  126000     1.249808   -6.5402368    57.712965  0.038169951  0.042339286            1 
  127000    1.2579062   -6.5456873    57.824241  0.037942415   0.04230412            3 
  128000    1.2048364   -6.5552687    58.456331  0.038057507  0.042269742            2 
  129000    1.2472296   -6.5415127    58.880933  0.038036778  0.042240423            2 
  130000    1.2392498   -6.5760533    59.439998  0.038102563  0.042206457            1 
  131000    1.2338424    -6.615106    59.566785  0.037892357  0.042171679            2 
  132000    1.2226291   -6.5151557    60.331097  0.038087814  0.042137996            1 
  133000    1.2374758   -6.5900202    60.625184  0.037985704   0.04210232            2 
  134000    1.2456281    -6.547378    61.228607  0.038077492   0.04206538            2 
  135000    1.2438601   -6.5621472    61.536427  0.037985449  0.042024575            1 
  136000    1.2409395   -6.6004078     61.95794  0.037964424  0.041988132            1 
  137000    1.2134683   -6.5358942     62.53123  0.038036028  0.041953213            3 
  138000    1.2423126   -6.5709248    62.872291  0.037966359  0.041918815            1 
  139000    1.2375724   -6.6141025    63.613692  0.038137705   0.04188515            2 
  140000    1.2180669   -6.5834602    64.198554  0.038213425  0.041850692            4 
  141000    1.2197708   -6.5686313    64.507808  0.038125182  0.041819579            2 
  142000    1.2371008   -6.5440679    64.919312  0.038098188  0.041786281            1 
  143000    1.2355846    -6.578751    65.198435  0.037994426   0.04175167            1 
  144000    1.2432272   -6.5323121    65.979485  0.038182572  0.041721774            3 
  145000    1.2162245   -6.5801954    66.865202  0.038428277  0.041702252            1 
  146000    1.2401717   -6.5554006    67.140504  0.038322205  0.041682842            5 
  147000    1.2355602    -6.595214    67.719354  0.038389656  0.041668049            1 
  148000    1.2183752   -6.5843466    68.098555  0.038343781  0.041655533            3 
  149000    1.2165047    -6.547977     68.86025  0.038512444   0.04164147            1 
  150000    1.2446589   -6.5747366    69.306448  0.038503582   0.04163222            2 
  151000     1.220829   -6.5334437    70.112194  0.038693263  0.041627689            2 
  152000    1.2249788   -6.5713806    70.242453  0.038510117  0.041614852            1 
  153000    1.2204353   -6.5522782    70.906351  0.038620017  0.041596854            1 
  154000    1.1979767    -6.533347    71.598962  0.038744027  0.041585612            2 
  155000    1.2251621   -6.6033495    71.623656  0.038507342  0.041574835            1 
  156000    1.2455544   -6.5782462    72.325393  0.038635359  0.041564541            3 
  157000    1.2242445   -6.5482967    72.894678  0.038691442  0.041552953            2 
  158000    1.2356464   -6.5938055    73.080039  0.038544324   0.04154193            2 
  159000    1.2185363   -6.5411493    73.889953   0.03872639  0.041531072            1 
  160000      1.21312   -6.5588941    74.268259  0.038681385  0.041522518            2 
  161000    1.2327533    -6.541213    74.669691  0.038648908  0.041515235            1 
  162000    1.2342515   -6.5622836    75.221863  0.038694374  0.041504721            1 
  163000    1.2193825   -6.5492801    75.873854  0.038790314  0.041493833            3 
  164000    1.2331329   -6.5635817    76.162547  0.038700481  0.041482287            1 
  165000     1.242981   -6.5600656    76.789644  0.038782648  0.041471329            3 
  166000    1.2084602   -6.6033025    77.114848  0.038712273  0.041461676            2 
  167000    1.2207502    -6.580388    77.927069  0.038885763  0.041453375            2 
  168000    1.2438692   -6.5564882    77.908495  0.038645087  0.041444336            2 
  169000    1.2330785   -6.5882112    78.149338  0.038535176  0.041433504            2 
  170000    1.2293406   -6.5589951    79.167118  0.038807411  0.041425323            1 
  171000    1.2337365   -6.5479739    79.444682  0.038715732  0.041415484            2 
  172000    1.2261152      -6.5659    79.953575  0.038737197  0.041406485            1 
  173000    1.2531934   -6.5945064    80.414487  0.038735302  0.041397855            1 
  174000     1.206129    -6.610859    80.876671  0.038734038  0.041387797            1 
  175000    1.2259984   -6.5317579    81.416169  0.038769604  0.041380408            3 
  176000    1.2017562   -6.5625841    82.166416  0.038904553  0.041373126            4 
  177000    1.2024804   -6.5439486    82.963153  0.039059865  0.041366625            1 
  178000     1.202249   -6.6001373    82.897785  0.038809824  0.041359664            3 
  179000    1.2144274   -6.5752648     83.51668  0.038881136  0.041351789            1 
  180000    1.2314028   -6.5364797    84.266805  0.039012409  0.041344185            2 
  181000    1.2220641   -6.5339123    84.667582  0.038981391  0.041336551            1 
  182000    1.1902597   -6.6045579     84.88691  0.038867633  0.041329753            2 
  183000     1.223501   -6.5622764    85.431858  0.038903396  0.041322089            2 
  184000    1.2232021   -6.5332196    85.798318  0.038857934  0.041312495            2 
  185000    1.2449656    -6.567603    86.408496  0.038922746  0.041303491            2 
  186000    1.2163642   -6.5670265    87.145913  0.039043868  0.041298107            3 
  187000    1.1949096   -6.6018316    87.462335  0.038976085  0.041292286            2 
  188000    1.2224441   -6.5859924    87.929536  0.038975858  0.041289403            2 
  189000    1.2198608   -6.5598673    88.508614  0.039024962  0.041287258            3 
  190000     1.237793   -6.5506027    89.401982  0.039211396  0.041285989            3 
  191000    1.2111841   -6.5634691    89.480242  0.039040245  0.041282674            2 
  192000    1.2224438   -6.6006964    89.976334  0.039052228  0.041280009            2 
  193000    1.1968114    -6.571878    90.477792  0.039066404  0.041275072            1 
  194000    1.2565658   -6.6083999     90.50723  0.038877676  0.041270413            2 
  195000    1.2121138   -6.5924404    91.687304  0.039182609  0.041265312            2 
  196000    1.2215976   -6.5350315    92.233679     0.039215  0.041263978            6 
  197000    1.2318646   -6.5662595    92.232273  0.039015344  0.041258478            1 
  198000    1.2009196   -6.5589184     92.63712  0.038988687  0.041250233            1 
  199000    1.2143876   -6.5774229    93.074145  0.038975773   0.04124037            2 
  200000     1.231245   -6.5935203    93.534757  0.038972815  0.041232052            3 
  201000    1.2152011   -6.5401091    94.171094  0.039042742  0.041224018            2 
  202000    1.2261109   -6.5832271    94.619734  0.039034544  0.041217988            3 
  203000    1.2246776   -6.5799416    95.078804  0.039030707  0.041212102            1 
  204000    1.2227681   -6.5538384      96.1549  0.039278962  0.041208676            3 
  205000    1.2048593   -6.6304925    96.230176  0.039117958  0.041205121            2 
  206000      1.20092   -6.5294984    97.085176  0.039273938  0.041201602            2 
  207000    1.2180767   -6.5808625    97.606174  0.039293951  0.041201356            3 
  208000    1.2395196    -6.564582    98.144335  0.039320647  0.041198223            1 
  209000    1.2278255   -6.5691358    98.691014  0.039350484   0.04119567            2 
  210000    1.2075039   -6.5797722    98.845915  0.039224569  0.041191887            2 
  211000    1.2078152   -6.5766419     99.27244  0.039207125   0.04118917            1 
  212000    1.2124466   -6.5918815    99.634215  0.039164393  0.041183347            1 
  213000    1.2211876   -6.5742364    99.918756  0.039091845   0.04117846            3 
  214000    1.2256216   -6.5791457    101.06947   0.03935727  0.041172987            2 
  215000    1.2116883   -6.5653288    100.85704  0.039091875  0.041168626            3 
  216000    1.2082286   -6.5770669    101.14174  0.039020732  0.041162521            2 
  217000    1.1983692   -6.5729981    102.21816  0.039254287  0.041155334            2 
  218000    1.2211859   -6.5839353    101.90066  0.038952851  0.041147988            2 
  219000     1.241805   -6.6299023    102.22563  0.038898641  0.041137547            3 
  220000    1.2179234   -6.5779432    103.26793   0.03911664  0.041128176            1 
  221000    1.2200595   -6.5620731    103.33859  0.038966284  0.041118249            2 
  222000    1.1910868   -6.6082425    104.04582  0.039056237  0.041106552            2 
  223000    1.2441444   -6.6209929    104.14943  0.038919819  0.041093267            6 
  224000    1.2153505   -6.6330795    104.59543  0.038911989  0.041079218            1 
  225000       1.2029   -6.5681716    105.15589  0.038946626  0.041065415            2 
  226000     1.235569   -6.5924783    105.09896  0.038753305  0.041053371            1 
  227000    1.2184889   -6.5889957    105.63623  0.038779821  0.041039174            3 
  228000    1.2170816   -6.5818649    106.29392  0.038850116  0.041023276            1 
  229000    1.2155433   -6.6188049    106.16585  0.038633862   0.04100658            4 
  230000    1.2070838   -6.5832314    106.95404  0.038751462  0.040990526            2 
  231000    1.2413155   -6.6113741    107.55029  0.038798805  0.040975737            2 
  232000    1.2063026   -6.6306222     108.2148   0.03887026  0.040962247            5 
  233000    1.2394143   -6.5946255    108.73885  0.038890863  0.040949825            3 
  234000    1.1975628   -6.5786296    109.49968  0.038995612  0.040938469            2 
  235000    1.2454672   -6.5840826    109.93032  0.038982382  0.040927347            1 
  236000    1.2167419   -6.6189922    110.33746  0.038960967  0.040916458            2 
  237000    1.1910918   -6.5854096    110.75929  0.038944897  0.040906715            1 
  238000    1.2295774   -6.6024818    111.18856   0.03893157  0.040896303            1 
  239000    1.2527831   -6.5706475    111.57934  0.038904929  0.040886738            2 
  240000    1.2314496    -6.578724    112.10897  0.038926724  0.040876574            3 
  241000    1.2063296   -6.5986209    112.32261  0.038839078    0.0408653            2 
  242000    1.2201444   -6.5010782    113.46204   0.03907095  0.040854902            2 
  243000    1.1765014   -6.5597921    113.57717  0.038949646  0.040843543            1 
  244000    1.1851921   -6.5969708    113.97535  0.038926006  0.040832495            1 
  245000    1.2193212   -6.5863007    114.65654  0.038998824  0.040822887            2 
  246000    1.2255251   -6.5855392    115.08536  0.038985555  0.040812697            2 
  247000    1.2174988   -6.5886864    115.48481  0.038962486  0.040803118            2 
  248000    1.2221681    -6.604359    115.65358   0.03886209  0.040791919            1 
  249000    1.1981063   -6.6435041    115.85988  0.038775061  0.040780287            3 
  250000    1.2198726   -6.5659021    116.52375  0.038841251  0.040768505            3 
  251000    1.2074125   -6.5870117    116.80343  0.038779358  0.040757078            3 
  252000    1.2128337   -6.6256833    117.94702  0.039003644   0.04074657            2 
  253000    1.1967463   -6.5916634    118.38772  0.038994637  0.040739326            1 
  254000    1.2191154   -6.6028269     119.2196  0.039114043  0.040732768            4 
  255000    1.2270855   -6.6235769    118.88631  0.038851734  0.040723732            2 
  256000    1.2070959   -6.5655119     119.9971  0.039061554  0.040713844            2 
  257000    1.2152604   -6.5794436    120.39654  0.039039087  0.040701787            2 
  258000     1.210841   -6.5754733    120.40745  0.038891296  0.040692627            4 
  259000    1.2014071   -6.5618353    121.27689  0.039020879  0.040684503            3 
  260000    1.2159671   -6.6093261    121.41163  0.038913983  0.040675956            3 
  261000    1.1941659    -6.599797     121.7079  0.038859483  0.040665682            2 
  262000    1.2073278   -6.6032295    122.58968  0.038991628  0.040655463            2 
  263000    1.2293223    -6.624129    122.83857  0.038922234  0.040646431            2 
  264000    1.2294792   -6.5912198    123.83013  0.039087795  0.040639465            2 
  265000    1.1914098   -6.5941402    124.26221  0.039076165  0.040635041            2 
  266000    1.2143863   -6.6102922    124.49576   0.03900243  0.040629555            1 
  267000    1.2047505   -6.5988182    125.16479  0.039065166  0.040623562            5 
  268000    1.1939918    -6.556006     125.7869  0.039112843  0.040617268            1 
  269000    1.2183994   -6.5804284    126.01996  0.039039642   0.04061228            1 
  270000    1.2053173   -6.5931936     126.6428  0.039087285  0.040607011            2 
  271000    1.2245336   -6.5855075    126.65432  0.038946593  0.040599832            3 
  272000    1.2241594   -6.6067331    127.36222  0.039020289  0.040592932            2 
  273000    1.2208704   -6.6288119    127.72875   0.03898924   0.04058588            2 
  274000     1.206572   -6.5558761    128.75636  0.039159477  0.040580108            1 
  275000    1.1982686   -6.5614545     129.0597  0.039109001  0.040575837            4 
  276000    1.1968327    -6.635055    129.75786  0.039178097  0.040569681            2 
  277000    1.2076478   -6.6004442    129.71473  0.039023685  0.040564346            3 
  278000      1.20409   -6.5543221    130.61136  0.039152087  0.040561193            1 
  279000    1.2078472   -6.6451595    130.97868  0.039121469   0.04055747            2 
  280000    1.1871351   -6.6153439    131.57125  0.039158111  0.040555363            1 
  281000    1.1858549   -6.6120297    132.26817  0.039225436  0.040552183            2 
  282000    1.1707253   -6.5992816    133.21753  0.039366883  0.040551258            2 
  283000    1.1942932   -6.5950036    133.26518  0.039241809  0.040550719            6 
  284000    1.2067685   -6.6140371    134.41128  0.039439931  0.040553145            2 
  285000    1.2047918   -6.6101305    135.02541  0.039481113  0.040554245            2 
  286000    1.1787518   -6.6056601    135.21543  0.039398436  0.040555949            3 
  287000    1.2090987   -6.6288331    135.66419  0.039391459  0.040556192            2 
  288000    1.2295131   -6.6305902    136.27111  0.039430298  0.040557424            2 
  289000    1.2089375   -6.5994151    136.81903  0.039451855  0.040560656            4 
  290000    1.1989816   -6.5874357    136.99881  0.039367474  0.040563009            3 
  291000    1.1609684   -6.6170206    137.32742  0.039326293  0.040566102            1 
  292000    1.2079755   -6.6155615    138.59393  0.039553063  0.040567731            2 
  293000     1.206377   -6.6157602    138.49334   0.03938946  0.040568246            1 
  294000    1.1846958   -6.5735672    139.00443  0.039400348  0.040568786            1 
  295000    1.2200966   -6.5790015    139.81523  0.039495827  0.040570212            3 
  296000    1.1859959   -6.6188012     140.2483  0.039484318  0.040571721            1 
  297000    1.2296999    -6.604915    140.47768  0.039415734  0.040572715            2 
  298000    1.2026154   -6.6180828    141.38855  0.039538186  0.040572127            1 
  299000    1.2087072   -6.6151161    140.89972   0.03926971   0.04057181            2 
  300000    1.1955283   -6.5973989    141.73552  0.039370977   0.04057076            2 
  301000    1.2177745   -6.6463962    141.61184  0.039205935  0.040568628            2 
  302000    1.2067516   -6.6037467    142.29532  0.039264714   0.04056487            1 
  303000    1.2018454   -6.6142474    142.23603  0.039118819   0.04055979            2 
  304000    1.1918702    -6.626531    142.32394  0.039014239  0.040554105            2 
  305000    1.2159836    -6.588702    143.36316  0.039170261  0.040549238            2 
  306000    1.1780109   -6.6112634    143.76013  0.039150363  0.040543599            2 
  307000    1.1957856   -6.6325599    144.10244  0.039115753  0.040537579            2 
  308000    1.2124265   -6.5984655    144.51056  0.039099178  0.040531534            6 
  309000    1.1807935   -6.5956821    144.91701  0.039082256  0.040527069            2 
  310000    1.1848943   -6.6048108    146.13381  0.039283282  0.040522501            2 
  311000    1.2342306   -6.5842752    146.13603  0.039157565  0.040518164            2 
  312000    1.2021301   -6.6193768    146.50057  0.039129427   0.04051374            2 
  313000    1.1948299   -6.6457504    146.94893  0.039123783  0.040508183            1 
  314000    1.1698749   -6.6380766    147.02319  0.039018894  0.040501557            3 
  315000    1.2057711   -6.6510752     147.9234  0.039133173  0.040494409            2 
  316000    1.1698113    -6.614108    148.48547  0.039157561  0.040488617            3 
  317000      1.19974   -6.6055705    148.56818  0.039055779  0.040481571            1 
  318000    1.1849067   -6.6109338    148.93525  0.039029153  0.040474352            2 
  319000    1.1848259   -6.5956971    149.81496  0.039136614  0.040467452            2 
  320000    1.1931448   -6.6267444     150.4203  0.039171952  0.040460593            1 
  321000    1.1866275   -6.6035698    150.94664  0.039186562  0.040454687            1 
  322000    1.1923815    -6.619635    151.55207  0.039221551  0.040449297            4 
  323000    1.1971909   -6.6200781    151.78958  0.039161398  0.040444312            2 
  324000    1.2184642   -6.5872488    152.15581  0.039134725  0.040439488            7 
  325000    1.2267319   -6.6141818    152.17356  0.039018861  0.040433574            2 
  326000    1.2069684   -6.6133683    153.22156  0.039167066  0.040427096            2 
  327000    1.2015366   -6.6107666    153.72747  0.039176216  0.040420986            2 
  328000    1.2114036   -6.6171706    154.02294  0.039131844   0.04041556            1 
  329000     1.240615   -6.5976034    154.46732   0.03912546  0.040410024            2 
  330000    1.2150689   -6.6285018    154.70229  0.039066234  0.040404493            2 
  331000      1.20727    -6.600487    154.77848  0.038967392  0.040397798            1 
  332000    1.1991438   -6.6027964    155.18376  0.038951746  0.040390552            1 
  333000    1.2205952   -6.6104963     156.0817  0.039059484  0.040383357            3 
  334000    1.1912286     -6.59617    156.87321  0.039140023  0.040377533            2 
  335000    1.2005874   -6.6245328    157.11153  0.039082471  0.040371256            2 
  336000     1.214642   -6.6048891    156.86848  0.038905874  0.040364532            1 
  337000    1.1822302    -6.634216     157.3879  0.038918867  0.040356595            2 
  338000    1.1977417   -6.5949983    158.58357  0.039098514  0.040347266            1 
  339000    1.1923891   -6.6000227    158.84418  0.039047243  0.040339711            2 
  340000    1.2170428   -6.5928811    159.22827  0.039026537  0.040333929            2 
  341000    1.1923953   -6.5862383    159.82963   0.03905905  0.040327047            2 
  342000    1.2089797   -6.6346403    159.50692  0.038866209  0.040319802            1 
  343000    1.2007136   -6.6276175    161.08013  0.039135114  0.040312162            4 
  344000    1.1876169   -6.6402517    160.96256  0.038992867  0.040305229            1 
  345000    1.2136152    -6.622301    161.77106  0.039075136  0.040298651            6 
  346000      1.20349   -6.5899047     162.1641  0.039056863    0.0402914            2 
  347000    1.1974355   -6.6469674    162.25662  0.038966527  0.040284039            2 
  348000    1.2058949   -6.6213329    162.85526  0.038997907   0.04027679            1 
  349000    1.1925475   -6.6505179     162.7168  0.038853104  0.040267759            2 
  350000    1.2188535   -6.6032077    163.30987  0.038883303  0.040258743            2 
  351000    1.1923894   -6.6317623    163.30458  0.038771268  0.040249774            2 
  352000    1.1938661   -6.6184491    164.50501  0.038945315  0.040241386            3 
  353000    1.1954686   -6.6124404    164.63111  0.038864757  0.040233897            3 
  354000    1.1953769   -6.6164216    165.36841  0.038928534   0.04022619            4 
  355000    1.1780956   -6.6079676    165.83564  0.038928554  0.040218378            1 
  356000    1.2038887   -6.6558354    165.79168  0.038808915  0.040209994            2 
  357000    1.2240502   -6.6198372    167.00586  0.038983626  0.040201873            3 
  358000    1.2093023   -6.6309919    167.12114  0.038901569  0.040193561            2 
  359000    1.1731746   -6.5471864    167.95535   0.03898685  0.040185394            3 
  360000     1.182463   -6.6210806     167.4851  0.038769699  0.040177068            1 
  361000    1.1953355   -6.6213212    168.57521  0.038913946  0.040168674            1 
  362000    1.1657985   -6.6419583     168.7293  0.038841921  0.040160175            2 
  363000    1.1959225   -6.6028107    169.90382   0.03900455  0.040152527            3 
  364000    1.2115008   -6.5806131    169.88333  0.038892705  0.040144091            1 
  365000    1.2195811   -6.6227237     169.6371  0.038729931  0.040134791            3 
  366000    1.1875321   -6.6304167    170.26168   0.03876632  0.040126297            2 
  367000    1.1991836   -6.6515336    171.07741  0.038845914  0.040117069            3 
  368000    1.1903977   -6.6168314    170.88465  0.038696705   0.04010776            3 
  369000    1.2057834   -6.6895389    171.26297  0.038677275  0.040097735            1 
  370000    1.2115627   -6.6539736    172.15616   0.03877391   0.04008872            2 
  371000    1.1602049   -6.6336069    172.22662  0.038685224  0.040078583            3 
  372000    1.1927006   -6.6472931    172.77471  0.038704012  0.040068851            2 
  373000    1.2245212   -6.6317223    173.21191  0.038697924  0.040058122            3 
  374000    1.2008058   -6.6585377    173.11895   0.03857374  0.040047346            1 
  375000    1.2245684   -6.6255428    174.44133  0.038764741  0.040037954            1 
  376000    1.2026556   -6.6245197    174.80531  0.038742312  0.040028796            1 
  377000    1.1839984   -6.6453309    175.11251  0.038707452  0.040019925            3 
  378000    1.1933887   -6.6643924    175.33466  0.038654025  0.040010498            2 
  379000    1.1937936   -6.6248579    176.76729  0.038867038  0.040002191            1 
  380000    1.1905842    -6.695179    176.59862  0.038727767  0.039994995            2 
  381000    1.2127269   -6.6305146    177.48223  0.038819385  0.039987371            3 
  382000    1.1955228    -6.650559    177.88476  0.038805575  0.039980847            2 
  383000    1.1470257   -6.6156798    178.83807  0.038911678  0.039974155            1 
  384000    1.1806965   -6.6527776    178.14698   0.03866037  0.039966023            2 
  385000    1.1626071   -6.5953265    178.93256  0.038729991  0.039958323            1 
  386000    1.1654873   -6.6262162    179.91266  0.038841248  0.039950264            2 
  387000    1.1870635   -6.6693368    180.24555  0.038812564   0.03994235            1 
  388000    1.1996168   -6.6065099    180.73826  0.038818356  0.039934712            2 
  389000    1.1657821   -6.6507758    181.19816  0.038817087  0.039927075            2 
  390000     1.152295   -6.6743611    181.19635  0.038717168   0.03991962            3 
  391000    1.2057812   -6.6340731     182.3519  0.038864429  0.039912849            2 
  392000    1.1885655   -6.6630588    182.31953  0.038758404  0.039905501            2 
  393000    1.1718623    -6.651793    182.45296  0.038688075  0.039897525            4 
  394000    1.1808748   -6.6263343    182.77707  0.038658433  0.039889168            2 
  395000    1.2049922   -6.6129696    183.85398  0.038787759  0.039880924            1 
  396000    1.1813135   -6.6125993    183.54199  0.038624156   0.03987236            2 
  397000    1.1844117   -6.6038998    184.32595  0.038691425  0.039863762            3 
  398000     1.179132   -6.6483921    185.52074  0.038844376  0.039855035            2 
  399000    1.1811926   -6.6770379    185.27006  0.038694666  0.039846647            3 
  400000    1.2182302   -6.6760779    185.14935   0.03857278  0.039838521            2 
  401000     1.180851   -6.6090875    185.96168  0.038645403  0.039829397            2 
  402000    1.1898879   -6.6737319    186.02856  0.038563135  0.039821109            1 
  403000    1.2305125   -6.6217263    186.80479  0.038627954  0.039811751            2 
  404000    1.1969324   -6.6482865    187.58179  0.038692612  0.039802254            2 
  405000    1.1844219   -6.6457864    187.73234  0.038628053  0.039793265            1 
  406000    1.1507558   -6.6617988    187.83729  0.038554453  0.039783846            3 
  407000    1.2084895   -6.6461399    189.07978  0.038714123  0.039774699            4 
  408000     1.222362   -6.6422839    188.96556  0.038595906  0.039766972            2 
  409000    1.1655095   -6.6301252    190.19272  0.038751572  0.039759443            1 
  410000    1.1750627    -6.608329    190.75246  0.038770826  0.039752246            3 
  411000    1.1562589   -6.6384223    189.97687  0.038519236  0.039744014            2 
  412000    1.1853064   -6.6667874    191.10541  0.038654006  0.039736229            1 
  413000    1.1570731   -6.6327628    191.18485  0.038576442  0.039728227            2 
  414000    1.1860953   -6.6254934    191.37169  0.038520871  0.039720499            3 
  415000    1.1651887   -6.6173957    192.57515  0.038669709  0.039712435            2 
  416000    1.1900757   -6.6691608    192.90198  0.038642224  0.039704824            2 
  417000    1.2125646    -6.635324    193.39631  0.038648343  0.039696839            1 
  418000    1.1889801   -6.6476687    193.66204  0.038608859  0.039688068            2 
  419000    1.1894754   -6.6326268    195.08617  0.038799954  0.039680769            1 
  420000    1.1667887   -6.6020146    195.13795  0.038717847  0.039675079            2 
  421000     1.176567   -6.6677156    196.12128  0.038820522  0.039668926            1 
  422000    1.1742343   -6.6538275    196.02966  0.038710438   0.03966313            1 
  423000    1.1755697   -6.6315785    196.62832  0.038736864  0.039657061            3 
  424000    1.1792455   -6.6620012    196.33822  0.038588487  0.039650157            1 
  425000    1.1675757   -6.6429519     197.4624  0.038718117  0.039643675            2 
  426000    1.1926615   -6.6376748    197.45632   0.03862604  0.039637129            1 
  427000    1.1752529   -6.6721878     197.4719  0.038538621  0.039629854            6 
  428000    1.1616631   -6.6411935     198.6786  0.038683528  0.039621815            3 
  429000    1.1948638   -6.6352692    198.79122  0.038615233  0.039613577            3 
  430000     1.185497   -6.6590858    198.97026  0.038560127  0.039605827            2 
  431000    1.1885601   -6.6488258    198.26944  0.038335159  0.039596764            3 
  432000    1.2212741   -6.6619055    199.51102  0.038485922  0.039587285            3 
  433000    1.1725481   -6.5926324    200.14019  0.038518127  0.039578178            2 
  434000    1.1622719   -6.6896475    200.19256  0.038439433  0.039569414            3 
  435000     1.178382   -6.6422015    200.44364  0.038399166  0.039560356            2 
  436000    1.1861492   -6.6860819    200.83613  0.038386111  0.039551812            1 
  437000    1.1950059   -6.6500694    201.73126  0.038468967  0.039542621            5 
  438000    1.1892637   -6.6676608    201.27193  0.038293746   0.03953363            3 
  439000    1.1578612   -6.6182832    202.52017  0.038443465  0.039524101            2 
  440000    1.1964701   -6.6536465    202.76531  0.038402522  0.039515256            2 
  441000    1.1805833   -6.6313153    203.42184  0.038439501  0.039506434            2 
  442000    1.1886523   -6.6675617    203.82253  0.038428079  0.039497664            5 
  443000    1.1781463    -6.638406    204.29152  0.038429556  0.039488738            2 
  444000    1.1887074   -6.6074081    204.75311  0.038429638  0.039479719            2 
  445000    1.1797044   -6.6870768    204.64772  0.038323543  0.039469713            2 
  446000    1.1974606     -6.62869    204.39191  0.038189818  0.039459478            3 
  447000    1.1931434   -6.6389713    204.93538  0.038205701   0.03944858            2 
  448000    1.1790927   -6.6833891    206.06964  0.038331406  0.039437955            1 
  449000    1.1467789   -6.6894878    204.86199  0.038021899  0.039426285            2 
  450000    1.1706604   -6.6027555    206.41645  0.038225268  0.039414455            1 
  451000    1.1994115   -6.6542734    206.71115  0.038194965  0.039403575            2 
  452000    1.2143516   -6.6477179    207.75471   0.03830286  0.039393206            2 
  453000    1.1739105   -6.6086101    208.20794  0.038301681  0.039383437            2 
  454000    1.1883028   -6.6217921    208.17803  0.038211826  0.039373948            2 
  455000    1.1695935   -6.6690955    209.31423   0.03833594  0.039364858            3 
  456000    1.1821008   -6.6713774     210.2843  0.038429149  0.039356401            3 
  457000     1.177625   -6.6358007    210.51373  0.038386895  0.039347268            3 
  458000    1.1707165   -6.6900378    211.07588  0.038405363  0.039339074            3 
  459000    1.1977257   -6.6206457    212.10053  0.038507721  0.039331319            2 
  460000    1.1788945    -6.650669    212.41899  0.038481701  0.039323611            1 
  461000    1.1906008   -6.6285052    212.97903  0.038499463  0.039316734            2 
  462000    1.1776556   -6.6251003    212.96451  0.038413511  0.039310189            2 
  463000     1.175984   -6.6851342    213.64458  0.038452948  0.039303172            1 
  464000    1.1847202   -6.6961651    213.75388  0.038389706  0.039295947            1 
  465000    1.1941596   -6.6796996    213.24835   0.03821655  0.039288583            3 
  466000    1.1770801   -6.6652458    214.61676  0.038379249  0.039281316            2 
  467000    1.1823939   -6.6545265      214.804  0.038330478  0.039273729            3 
  468000    1.1730853    -6.673037    215.02206  0.038287403  0.039266286            2 
  469000    1.1648465   -6.6660346    215.84354  0.038351731  0.039258741            2 
  470000    1.1628037   -6.6849012    215.99018   0.03829613  0.039251193            2 
  471000    1.1721053   -6.6559515    216.83479  0.038364259   0.03924389            2 
  472000    1.1593897   -6.6419514    217.10815   0.03833124  0.039236351            2 
  473000     1.169535   -6.6767507    217.51339  0.038321597  0.039228883            2 
  474000    1.1735354   -6.6685853    217.75332  0.038282932  0.039220758            5 
  475000    1.1579877    -6.652191    218.21736  0.038283748  0.039213568            1 
  476000    1.1870911   -6.6536217    219.57364  0.038440763  0.039206569            2 
  477000    1.2088852   -6.6911788    218.80029  0.038225067  0.039199152            2 
  478000    1.1948611   -6.6512609    219.44394  0.038257311  0.039191229            1 
  479000    1.1805949   -6.6887492      219.669  0.038216598  0.039184139            1 
  480000    1.1662428   -6.6585995     220.0792  0.038208194  0.039175986            3 
  481000    1.1623911   -6.6738891    220.15755  0.038142334  0.039167111            3 
  482000    1.2106472   -6.6382429    221.15581   0.03823579  0.039159307            3 
  483000    1.1729151   -6.6543928    222.54814  0.038396849  0.039151196            2 
  484000    1.1552313   -6.6762894    222.48159  0.038306058  0.039143672            2 
  485000    1.1744332   -6.6861337    223.05361  0.038325363  0.039136664            6 
  486000    1.1965653   -6.6792449    223.26763  0.038283201   0.03912979            2 
  487000    1.1893733   -6.6481474    223.02943  0.038163831  0.039122293            1 
  488000    1.1557529   -6.6645337    223.53239  0.038171514  0.039114313            1 
  489000     1.183977   -6.6812136     223.4089  0.038072409  0.039105378            2 
  490000    1.1668419   -6.6834437    224.16832  0.038123864  0.039096245            3 
  491000    1.1749999   -6.6867377    224.95151  0.038179144  0.039087185            3 
  492000    1.1770893   -6.6729619    224.46156  0.038018557  0.039078356            1 
  493000    1.1689847   -6.6467912    226.01111  0.038203365  0.039069849            4 
  494000    1.1703116   -6.6767831    226.57741  0.038221561    0.0390622            3 
  495000       1.1596   -6.6921848    226.39015  0.038112819   0.03905418            5 
  496000    1.1487385    -6.677514    226.92006   0.03812501  0.039046333            1 
  497000    1.1809859   -6.6940532    227.53327  0.038151118  0.039037474            1 
  498000    1.1618591   -6.6313152    228.44195  0.038226564  0.039029421            2 
  499000    1.1651525   -6.6785549    228.62186  0.038180003   0.03902218            2 
  500000    1.1584968   -6.6609096    229.31011  0.038218351  0.039014666            2 
  501000    1.1841536   -6.6399402    229.57384  0.038185936  0.039007027            3 
  502000    1.1825198   -6.6673024    230.29943  0.038230317  0.038999588            1 
  503000    1.1715429   -6.6808258    230.14444  0.038128636  0.038991996            4 
  504000    1.1582728    -6.668328    230.42072  0.038098664  0.038984316            1 
  505000    1.1535363   -6.6978518    231.31485  0.038170767  0.038976706            4 
  506000    1.1765513   -6.6491847    231.92823  0.038196348  0.038969083            2 
  507000     1.167679    -6.658372    232.04433  0.038140094   0.03896165            1 
  508000    1.1510526   -6.6779988    232.23604  0.038096463  0.038954333            1 
  509000     1.170849   -6.6923493    232.91964  0.038133537  0.038946457            3 
  510000    1.1819076   -6.6528062    233.65831  0.038179462  0.038938872            1 
  511000    1.1582066   -6.6414063    233.75775  0.038120964    0.0389314            1 
  512000    1.1841422    -6.670467    234.28599  0.038132485  0.038924022            2 
  513000    1.1548524     -6.67928    235.03963  0.038180577  0.038916387            3 
  514000    1.1434144   -6.6949789    234.31443  0.037988721  0.038908098            2 
  515000    1.1745219   -6.7090495    235.12356  0.038045883  0.038900128            2 
  516000    1.1910836   -6.6494432    236.39511  0.038177504  0.038892454            1 
  517000    1.1709353   -6.6649946     237.1375  0.038223323  0.038886785            3 
  518000    1.1820934   -6.7132222    236.32908  0.038019479  0.038880172            2 
  519000    1.1734742   -6.7065388    237.73075  0.038171283  0.038873781            1 
  520000    1.1335974   -6.6798527    237.59664  0.038076385  0.038866922            2 
  521000    1.1742946   -6.6856862    238.01643  0.038070447   0.03885992            2 
  522000    1.1528939   -6.6835409    238.74109    0.0381132  0.038853019            1 
  523000    1.1713974   -6.6659521    239.24794  0.038121087   0.03884656            1 
  524000    1.1847103   -6.6712507    239.13709  0.038030708  0.038839856            2 
  525000    1.1649803   -6.6594917    240.31441  0.038145145  0.038834064            2 
  526000    1.1293783   -6.6765636    241.04091  0.038187724  0.038827886            3 
  527000    1.1939195   -6.7159404    240.18903  0.037980555  0.038820809            1 
  528000    1.1875629   -6.6481359    241.32448  0.038087828  0.038813828            4 
  529000      1.17698   -6.6538086    241.54836  0.038051096  0.038806534            2 
  530000    1.1752895   -6.6933487    241.70184  0.038003434  0.038799444            2 
  531000    1.1722058   -6.7027759    242.48617  0.038054954   0.03879185            1 
  532000    1.1798278   -6.6606117    243.11598  0.038082077   0.03878476            1 
  533000    1.1603891   -6.6475068    244.27429  0.038191728  0.038778216            1 
  534000     1.161927   -6.6804163    243.92737  0.038066069  0.038771829            2 
  535000    1.1779715   -6.6438056    244.25669  0.038046213  0.038765201            4 
  536000    1.1713282   -6.6796516    244.57221  0.038024286   0.03875834            1 
  537000    1.1580503    -6.701107    245.30206  0.038066738  0.038751697            3 
  538000    1.1572049   -6.6763103    244.98414  0.037946738  0.038744195            1 
  539000    1.1860501   -6.6443598    245.66662  0.037981852  0.038737349            1 
  540000    1.1740696    -6.651486    246.06331  0.037972734  0.038730223            2 
  541000    1.1698456   -6.6520397    247.09455  0.038061391  0.038723752            2 
  542000    1.1874659   -6.6871182    248.71046  0.038239616  0.038717895            2 
  543000    1.1673786   -6.6494846    247.87735  0.038041337  0.038712148            3 
  544000     1.171657   -6.6572781    248.78245  0.038110057   0.03870638            2 
  545000    1.1912503   -6.6701359    248.86599  0.038052904  0.038700159            4 
  546000    1.1807266   -6.6903916    249.10383   0.03801951   0.03869371            1 
  547000    1.1538031   -6.6839899    249.14577  0.037956394  0.038687137            3 
  548000    1.1676054   -6.7002429    249.89253  0.038000689  0.038680912            2 
  549000    1.1844149   -6.6981939    250.24495  0.037984965  0.038674478            2 
  550000    1.1657267   -6.6693527    251.64027  0.038127314  0.038668185            2 
  551000    1.2025199   -6.6873297    252.33173  0.038162694   0.03866224            4 
  552000    1.1461502   -6.7032045    252.54587  0.038125886  0.038656542            2 
  553000    1.1536729   -6.6773966    253.25434  0.038163704  0.038651054            1 
  554000    1.1553044   -6.7032088     252.6621  0.038005731  0.038645849            1 
  555000    1.1542024   -6.6905343    252.33635  0.037888341  0.038640029            2 
  556000    1.1596573   -6.6786066    254.11643  0.038086995  0.038634371            7 
  557000    1.1711007   -6.6685684    254.76604  0.038115805  0.038628942            1 
  558000    1.1655211   -6.7121527    255.12811   0.03810157  0.038623266            2 
  559000    1.1742163   -6.7318174    254.87819  0.037996152  0.038617314            1 
  560000    1.1585875   -6.6979283    255.83919  0.038071308  0.038612075            2 
  561000    1.1717984   -6.6979859    255.80893   0.03799895  0.038607053            2 
  562000    1.1628517   -6.7049007     255.9119  0.037946604  0.038601535            2 
  563000    1.1498941   -6.7172671    257.28615  0.038082615  0.038595465            4 
  564000    1.1827478   -6.6681871    257.87112  0.038101525  0.038590309            2 
  565000    1.1603841   -6.6999914    257.79882  0.038023425    0.0385848            2 
  566000    1.1559505   -6.6732752    257.63474  0.037932088  0.038578201            1 
  567000    1.1619691   -6.7141073    257.18882  0.037799651  0.038571382            2 
  568000    1.1595231   -6.6705334    257.11968  0.037722957  0.038564599            2 
  569000    1.1458465   -6.7096138    258.19136  0.037813614   0.03855709            2 
  570000    1.1599846   -6.6834361    257.69349  0.037674487  0.038549821            3 
  571000    1.1540846   -6.7119892    259.18239  0.037825801  0.038542311            2 
  572000    1.1452425   -6.7033219    259.82807  0.037853739  0.038535212            4 
  573000    1.1571258   -6.6814653    260.58993  0.037898478  0.038528542            5 
  574000    1.1737044    -6.695439    260.71937  0.037851245  0.038521597            3 
  575000    1.1796369   -6.6967848      261.737  0.037932899  0.038515397            1 
  576000     1.171743   -6.6918178    262.26248  0.037943068  0.038508818            2 
  577000    1.1541317   -6.6646451    262.29185   0.03788155  0.038502842            2 
  578000    1.1554311   -6.6657508    262.52109  0.037849062  0.038496066            2 
  579000    1.1543633    -6.672178    263.58286  0.037936508  0.038489414            2 
  580000    1.1559947   -6.6985843    263.99116  0.037929764  0.038483271            1 
  581000    1.1639853   -6.6466715    264.33112  0.037913241  0.038476845            2 
  582000    1.1665363   -6.7002895    264.98689  0.037941994  0.038471117            1 
  583000    1.1881551   -6.7277822    265.23074  0.037911769  0.038465203            5 
  584000    1.1652711    -6.670367    264.93701  0.037804938  0.038459221            6 
  585000    1.1917323   -6.7104011    265.66342  0.037843792  0.038453633            2 
  586000    1.1743811   -6.7178591    266.26563   0.03786485  0.038447996            3 
  587000    1.1480512   -6.7133344    266.62181  0.037850909  0.038441849            2 
  588000    1.1371174   -6.7067566    266.37098  0.037750989  0.038435317            2 
  589000    1.1517318   -6.6675523    266.99061  0.037774563  0.038428652            3 
  590000    1.1962238   -6.6727697    267.40892  0.037769621  0.038422435            3 
  591000    1.1757259   -6.6960614    267.61196  0.037734344  0.038415154            4 
  592000    1.1490934   -6.6837205    268.37021  0.037777338  0.038407687            2 
  593000     1.159207     -6.70136    268.63663  0.037751072  0.038400118            4 
  594000    1.1434362   -6.6852319    268.52396  0.037671712  0.038392861            5 
  595000     1.154784   -6.7002369    270.13062   0.03783342  0.038385985            2 
  596000    1.1581273    -6.691491    270.19553  0.037779017  0.038378943            5 
  597000    1.1715979   -6.6828946    269.98346  0.037686133  0.038371807            2 
  598000    1.1679205   -6.6707039    270.12946  0.037643458  0.038364343            1 
  599000    1.1500836     -6.71042    270.62016  0.037648881  0.038357115            1 
  600000    1.1606677   -6.6896611     270.2189  0.037530403  0.038349557            2 
  601000     1.144422   -6.7160404    271.56885  0.037655137  0.038341765            2 
  602000     1.151901   -6.6867456    271.93862  0.037643774  0.038334322            2 
  603000    1.1532959   -6.7053402    271.54363  0.037526759  0.038326273            4 
  604000    1.1722624   -6.6801076    272.38266  0.037580389  0.038318036            2 
  605000    1.1776913   -6.7018847    272.03299  0.037470109  0.038310216            5 
  606000    1.1702134   -6.6717908    274.04838   0.03768542  0.038302729            2 
  607000    1.1490992   -6.7195377    273.64134  0.037567454  0.038295831            2 
  608000    1.1256557   -6.6986905    274.64799  0.037643639  0.038288434            2 
  609000    1.1506949   -6.6779231    275.31687  0.037673354  0.038281851            1 
  610000    1.1599595   -6.7254357     275.5242  0.037639918  0.038275125            6 
  611000    1.1653431   -6.7170028    277.05138  0.037786604  0.038269115            3 
  612000    1.1539967   -6.7271986    276.48647   0.03764794  0.038262951            2 
  613000    1.1668463   -6.7434572    275.84146  0.037498839  0.038256313            3 
  614000    1.1632442   -6.7037465    276.57058  0.037536723  0.038249361            2 
  615000    1.1520396   -6.6877958    277.98431  0.037667251  0.038242657            3 
  616000    1.1309212   -6.7281505    277.76633  0.037576613  0.038236238            3 
  617000    1.1710445   -6.6754241    279.44559  0.037742516  0.038230008            2 
  618000    1.1477255   -6.6911775    279.87027  0.037738709  0.038224021            1 
  619000    1.1632493   -6.6726609    280.16971  0.037718055  0.038218392            4 
  620000    1.1361597   -6.7038894    280.59885    0.0377149  0.038212349            3 
  621000     1.127763    -6.694476    280.51726  0.037643218  0.038206044            1 
  622000    1.1890537    -6.720242    281.09177  0.037659669  0.038199789            3 
  623000    1.1522374   -6.7041224    282.18571  0.037745547  0.038193735            1 
  624000    1.1169987   -6.6860536    281.12575  0.037543502  0.038187911            1 
  625000    1.1331617    -6.676893    282.40263  0.037653684  0.038182402            2 
  626000    1.1671983   -6.7185972     282.4592  0.037601065  0.038176519            1 
  627000     1.164572   -6.7309535     283.0733  0.037622713  0.038170616            3 
  628000    1.1117266   -6.6845201    283.09894  0.037566207  0.038163907            2 
  629000    1.1540786   -6.7096808    284.33003  0.037669585  0.038157449            3 
  630000    1.1632204   -6.7723819    282.34078  0.037346664  0.038150392            3 
  631000    1.1706705   -6.7023329    283.55628  0.037448003  0.038142417            1 
  632000    1.1315436   -6.7009731    284.29426  0.037486057  0.038135355            2 
  633000    1.1784293   -6.7174753    284.78307  0.037491189  0.038128162            2 
  634000    1.1647392   -6.6945439    285.30117  0.037500153  0.038121082            3 
  635000    1.1634003   -6.7007654    286.12669  0.037549435  0.038113876            1 
  636000    1.1611664   -6.7169053    285.06409  0.037351165  0.038106149            3 
  637000    1.1590635   -6.6989729    284.67752  0.037241957  0.038098231            3 
  638000    1.1582583   -6.7299794    285.50456   0.03729161  0.038090087            4 
  639000    1.1262583   -6.6618163     286.3966  0.037349582  0.038082156            5 
  640000    1.1522841   -6.7034642    287.62506   0.03745118  0.038074157            3 
  641000    1.1423221   -6.6959203    287.47616  0.037373395  0.038066336            3 
  642000    1.1397365   -6.6896809    287.62601  0.037334633  0.038058244            2 
  643000    1.1447526   -6.6950678    288.29359  0.037363089   0.03805047            4 
  644000    1.1549503    -6.755755    288.43217  0.037323003  0.038042545            3 
  645000    1.1645804   -6.7219009    289.50973  0.037404358  0.038034583            2 
  646000    1.1525298    -6.688463    288.73486  0.037246499   0.03802674            2 
  647000    1.1440689   -6.6974321    291.01233  0.037482268  0.038019204            2 
  648000    1.1434321   -6.7308093    289.64874  0.037249066  0.038011673            1 
  649000    1.1565621   -6.7553266    290.71264   0.03732828  0.038004061            1 
  650000    1.1456996   -6.6818279    292.17114  0.037457839  0.037996828            2 
  651000    1.1408902   -6.7417893    291.11196  0.037264716  0.037989535            1 
  652000    1.1680446   -6.7127742    291.45974  0.037252012  0.037981655            1 
  653000    1.1456631   -6.7163622    292.85994  0.037373653  0.037974324            2 
  654000    1.1379628   -6.7445607    291.94171  0.037199504  0.037966454            1 
  655000    1.1563459   -6.6583193    293.51006  0.037342247  0.037958711            2 
  656000    1.1568661   -6.6869632    292.88443  0.037205848   0.03795052            1 
  657000    1.1791947   -6.7317241    293.64173  0.037245272  0.037942729            2 
  658000    1.1271743   -6.7082933    294.55116  0.037303845  0.037934799            2 
  659000    1.1417613   -6.7459205    294.56321  0.037248762  0.037926989            2 
  660000    1.1493351   -6.7039026    294.87454  0.037231634  0.037919156            2 
  661000    1.1580258   -6.7363355     295.0319  0.037195146  0.037911292            1 
  662000    1.1409238   -6.7346179    295.23328   0.03716431  0.037903643            3 
  663000      1.15348   -6.6801511    297.24303  0.037360864  0.037895639            2 
  664000    1.1124302   -6.7494356    295.55574  0.037092839  0.037888413            2 
  665000    1.1432112    -6.767578    297.08975  0.037229292  0.037881217            4 
  666000    1.1378531   -6.7708439    297.71736  0.037251921   0.03787443            2 
  667000    1.1527033   -6.7385705    298.59061  0.037305173  0.037868046            3 
  668000    1.1493128   -6.7039255    298.00655  0.037176466  0.037861445            3 
  669000    1.1580495    -6.716389    299.10903  0.037258225  0.037854667            2 
  670000    1.1814425   -6.6845375    300.55575  0.037382556  0.037848194            3 
  671000    1.1391604   -6.7190929    299.01794  0.037135859  0.037841397            1 
  672000    1.1499554   -6.7481154    299.82928   0.03718121  0.037834331            4 
  673000    1.1656102   -6.7386154    299.87748  0.037131932  0.037827404            3 
  674000    1.1492498   -6.7084192    301.28019  0.037250271  0.037820718            2 
  675000    1.1708993   -6.7370083    302.02964   0.03728761   0.03781382            3 
  676000    1.1207047   -6.7164889    301.17388  0.037126957  0.037806342            3 
  677000    1.1430095   -6.7492191    302.17701  0.037195595  0.037798474            3 
  678000    1.1376812   -6.7137216    302.81808  0.037219528  0.037790951            2 
  679000    1.1351883   -6.7474502     302.7149   0.03715205   0.03778328            4 
  680000     1.112035   -6.7389327    302.93954  0.037124944  0.037775894            2 
  681000    1.1484372   -6.7093469     304.7662  0.037293954  0.037768795            2 
  682000    1.1596626   -6.7420269    304.22541  0.037173193  0.037762109            2 
  683000    1.1559992   -6.7496364    305.38737  0.037260538  0.037755309            1 
  684000    1.1161829   -6.7320018    305.52757  0.037223144  0.037749042            2 
  685000    1.1607215   -6.7419709    306.24228  0.037255751  0.037742792            1 
  686000    1.1200797   -6.7448758    306.68334  0.037255021  0.037736748            1 
  687000    1.1661635   -6.7336153    307.33411  0.037279732  0.037730645            3 
  688000    1.1245653   -6.7571292    306.22766  0.037091529  0.037724145            1 
  689000    1.1519415   -6.7139053    307.92862  0.037243423  0.037717571            4 
  690000    1.1124777   -6.7149347    307.45435  0.037132168  0.037711286            2 
  691000     1.172809   -6.7325945    310.30863  0.037422652  0.037705141            3 
  692000    1.1547069   -6.7374255    308.93261  0.037202867  0.037698354            2 
  693000    1.1456861   -6.7533611    308.62445  0.037112127  0.037691578            5 
  694000    1.1344889   -6.6940143     309.1414  0.037120726  0.037684628            2 
  695000    1.1293193   -6.7453465    310.31421  0.037207939  0.037677898            2 
  696000    1.1410898   -6.7484567    309.73687  0.037085353  0.037671567            3 
  697000    1.1212573   -6.7246008    310.31522  0.037101293  0.037665158            2 
  698000    1.1382256   -6.7533115    310.36479  0.037054058  0.037658509            2 
  699000    1.1358729   -6.7183527    311.90655  0.037184853  0.037651617            2 
  700000    1.1430244   -6.7373932     312.7204  0.037228619  0.037645417            2 
  701000    1.1478095   -6.7083484    313.16421   0.03722827  0.037638791            2 
  702000    1.1377066   -6.7699898    311.46682  0.036973744  0.037631747            4 
  703000    1.1689129   -6.7586352    312.78186  0.037077034   0.03762459            3 
  704000    1.1508938   -6.7057032    313.44059  0.037102343  0.037618149            1 
  705000    1.1556376   -6.7302603    314.17751  0.037136821  0.037611222            1 
  706000    1.1368826   -6.7146516    313.98695  0.037061727   0.03760429            2 
  707000    1.1353802   -6.7735427    312.70619  0.036858344  0.037596698            3 
  708000    1.1458927   -6.7395592    314.65325  0.037035458  0.037589806            2 
  709000    1.1467784   -6.7059787    315.04114  0.037028813  0.037582651            3 
  710000    1.1460843    -6.727154    315.45551  0.037025294  0.037575207            2 
  711000    1.1368723   -6.7188548    315.49219  0.036977519  0.037568161            5 
  712000    1.1327064   -6.7324041    315.53329  0.036930394  0.037560427            3 
  713000    1.1386069   -6.6944027    316.46011  0.036986923  0.037552551            2 
  714000    1.1570956   -6.6856948    316.46984  0.036936255  0.037544496            4 
  715000    1.1486285   -6.7230732     316.1923   0.03685225  0.037536243            3 
  716000    1.1421477    -6.692845    317.35583    0.0369362  0.037527857            2 
  717000    1.1561441   -6.7458443    317.02588  0.036846336  0.037519303            3 
  718000    1.1445781   -6.7103167     317.7693  0.036881302  0.037510736            2 
  719000    1.1365662   -6.7101371      316.862  0.036724849  0.037502079            3 
  720000    1.1398635   -6.7733534    316.83969   0.03667126  0.037493184            1 
  721000    1.1410279   -6.7483319    318.59377  0.036823136  0.037484859            2 
  722000    1.1392394   -6.7724779    318.62323  0.036775534  0.037475939            2 
  723000    1.1471654   -6.7214724    318.79881  0.036744906   0.03746746            3 
  724000     1.122868   -6.7401635    319.57007  0.036782927  0.037458761            2 
  725000     1.140345   -6.7119333    320.94147  0.036889825    0.0374504            3 
  726000    1.1585246   -6.7574017      319.526  0.036676538  0.037441833            1 
  727000    1.1373599   -6.7444307    320.32502  0.036717678  0.037432981            2 
  728000    1.1216161   -6.7628352    320.34423   0.03666944  0.037424111            2 
  729000    1.1144144   -6.7571972    321.43481  0.036743806  0.037415261            2 
  730000    1.1481612    -6.756252    320.83475  0.036624971  0.037406336            3 
  731000    1.1648272   -6.7537722    321.26306  0.036623696  0.037397249            4 
  732000    1.1346909   -6.7182343    322.36074  0.036698627  0.037388732            1 
  733000    1.1478461   -6.7311176    322.71705  0.036689069  0.037379974            2 
  734000    1.1277642   -6.7194636    323.35279  0.036711262  0.037371389            1 
  735000    1.1313185   -6.7647778      324.405  0.036780612  0.037363289            3 
  736000    1.1308937   -6.6835982    325.26193  0.036827664   0.03735589            3 
  737000    1.1100394   -6.7494729    325.17459  0.036767819  0.037348573            3 
  738000    1.1490328   -6.7244057    325.84549  0.036793755  0.037340904            1 
  739000    1.1303445   -6.6981413    326.08273  0.036770719  0.037333378            2 
  740000    1.1321945   -6.7360536    326.17864  0.036731829  0.037325705            2 
  741000    1.1357674   -6.7317281    326.40903  0.036708168  0.037317891            2 
  742000    1.1304893   -6.7606165    326.50248  0.036669191  0.037309728            2 
  743000    1.1236448   -6.7382893     327.2371  0.036702232   0.03730195            3 
  744000     1.125651   -6.7703592    326.56663  0.036577804  0.037294314            2 
  745000    1.1249891   -6.7902015    327.71995  0.036657712  0.037286771            1 
  746000     1.144421   -6.7557862    327.82992  0.036620857  0.037278679            2 
  747000    1.1264517   -6.7453591    330.10934   0.03682612  0.037271088            2 
  748000    1.1063694   -6.7445699    328.66279   0.03661573  0.037263818            2 
  749000    1.1259658   -6.7532108    330.44896  0.036765572  0.037256546            3 
  750000    1.1586054   -6.7245124    331.00728  0.036778586   0.03724913            1 
  751000    1.1427361   -6.7626884    331.13401  0.036743676  0.037242014            1 
  752000    1.1578848   -6.7613276    329.51437  0.036515333  0.037234558            6 
  753000    1.1425295     -6.72687    332.62934  0.036811569  0.037227144            2 
  754000    1.1151854   -6.7524606    331.40455  0.036627381  0.037219666            6 
  755000    1.1510436   -6.7495037    331.56233  0.036596283  0.037211902            2 
  756000    1.1091569   -6.7720767    331.51775  0.036542962  0.037204883            3 
  757000    1.1142748   -6.7088942    332.38036  0.036589648   0.03719737            1 
  758000      1.12636   -6.7734333    332.97433  0.036606677  0.037189862            2 
  759000    1.1337852   -6.7317178    335.22896   0.03680599  0.037182442            2 
  760000    1.1382304   -6.7753614    334.67463   0.03669678  0.037175143            4 
  761000    1.1524807   -6.7655719    334.48236  0.036627503   0.03716809            1 
  762000    1.1275696    -6.734767    335.63278  0.036705247  0.037160934            3 
  763000     1.143087    -6.762005    335.09502  0.036598407  0.037153728            3 
  764000    1.1279098   -6.7399758    335.88705  0.036636895  0.037146356            4 
  765000    1.1079316   -6.7576328    335.77376  0.036576662   0.03713917            2 
  766000    1.1395461   -6.7683215    335.97378  0.036550672  0.037131664            1 
  767000    1.1438484   -6.7425093    337.60953   0.03668074  0.037124164            3 
  768000    1.1676857   -6.7878552    336.53618  0.036516512  0.037116083            4 
  769000     1.117195   -6.7651023    337.04065  0.036523694  0.037108002            2 
  770000    1.1291476    -6.773215    337.02143  0.036474181  0.037099918            3 
  771000     1.129023   -6.8002969    336.99935  0.036424486  0.037091626            2 
  772000    1.1371606     -6.72353    338.26793  0.036514241  0.037083347            1 
  773000    1.1051218   -6.7472204    337.54631  0.036389209  0.037075281            3 
  774000    1.1229581   -6.7525631    338.63769  0.036459699  0.037066958            2 
  775000     1.141168   -6.7346095    339.31002  0.036484948  0.037058976            1 
  776000    1.1229359   -6.8060876    339.01325  0.036406062  0.037050833            2 
  777000    1.0945048   -6.7273812    339.50308  0.036411742  0.037042553            3 
  778000    1.1250949   -6.7627252    339.44021  0.036358206  0.037034517            1 
  779000     1.145521   -6.7930416    340.32832  0.036406538  0.037026722            2 
  780000     1.138267   -6.7137838    342.11455    0.0365507  0.037018707            1 
  781000    1.1348755   -6.7581917    341.17997   0.03640418  0.037010655            2 
  782000    1.1240545   -6.7700604     341.6227  0.036404806  0.037002052            1 
  783000    1.1536505    -6.766869    341.65181   0.03636141  0.036993521            3 
  784000    1.1432861   -6.7265981    342.11852  0.036364638  0.036985495            2 
  785000    1.1371763   -6.7580303    343.40297  0.036454668  0.036977417            2 
  786000    1.0973514   -6.7515275    342.92966  0.036358106  0.036969415            3 
  787000    1.0971954   -6.7825192    343.50001  0.036372301  0.036961014            1 
  788000    1.1441428   -6.7438109    343.05587  0.036279174  0.036952725            1 
  789000    1.1278151   -6.7661002    344.31721  0.036366414  0.036944739            1 
  790000    1.1439588     -6.78774    344.70576  0.036361367  0.036936493            2 
  791000    1.1304797   -6.7877784    344.94073  0.036340152    0.0369282            1 
  792000    1.1083671   -6.7399636    346.30836  0.036438169  0.036920381            1 
  793000    1.1162486   -6.7503565    346.43662  0.036405697  0.036912667            2 
  794000    1.1223185   -6.7220045     346.8137  0.036399423  0.036905265            5 
  795000     1.120821   -6.7377965    347.36841  0.036411783  0.036897647            4 
  796000    1.1055995   -6.7314422      347.566  0.036386725  0.036889658            3 
  797000    1.1230633   -6.7852823     347.9983  0.036386271  0.036881756            1 
  798000    1.1605095   -6.7474579    348.26605  0.036368636  0.036873915            1 
  799000    1.1285366   -6.7230287     349.0187  0.036401616  0.036866548            2 
  800000    1.1537315   -6.7633409    348.43813  0.036295638  0.036858779            4 
  801000    1.1199104   -6.7820333    349.93868  0.036406438  0.036851344            3 
  802000    1.1194919   -6.7605196    349.24591  0.036289059  0.036843653            3 
  803000     1.127747   -6.7574961    350.00652  0.036322802  0.036836084            1 
  804000    1.1102343   -6.7327002    350.24142  0.036301971    0.0368286            1 
  805000    1.1657878   -6.7614206    350.64112  0.036298252    0.0368211            2 
  806000    1.1455604   -6.7631871    350.74159  0.036263605  0.036813277            2 
  807000     1.123322   -6.7888181    350.54326  0.036198189  0.036805351            2 
  808000    1.1230241   -6.7344911    351.29067  0.036230474  0.036797496            2 
  809000    1.1000006   -6.7800992    352.54316  0.036314705  0.036789729            2 
  810000    1.1314086   -6.7587048    352.94508  0.036311222  0.036782015            3 
  811000    1.1144654   -6.7624817     352.7393  0.036245304  0.036774348            3 
  812000    1.1280902   -6.7630908    353.40526  0.036269013  0.036766739            4 
  813000     1.120257   -6.7627687     353.5111   0.03623525  0.036759195            1 
  814000    1.1007169   -6.7344962    354.66149  0.036308506  0.036751531            2 
  815000    1.1441704   -6.7833346    353.42022  0.036137037   0.03674376            3 
  816000     1.094238   -6.7912736    353.76148  0.036127602  0.036735661            4 
  817000    1.1350577   -6.7554533    354.34578  0.036142981  0.036727779            2 
  818000    1.1605319   -6.7765524    355.03737  0.036169252  0.036719862            3 
  819000    1.1005686   -6.7675241    356.22651  0.036246084  0.036712153            3 
  820000    1.1270722   -6.7366721    355.87806   0.03616647  0.036704257            2 
  821000     1.130499   -6.7571139    355.84904  0.036119473  0.036696553            2 
  822000    1.1214443   -6.7669884    356.44295  0.036135741  0.036688488            2 
  823000    1.1190017   -6.7574663    356.31571   0.03607895  0.036680499            4 
  824000    1.1180806   -6.7900421    356.08184  0.036011513  0.036672515            2 
  825000    1.1072841   -6.7642858    357.02794  0.036063428  0.036664315            2 
  826000    1.1017683    -6.762423    358.53348  0.036171658  0.036655989            3 
  827000    1.0961067   -6.7748779    357.90733  0.036064826  0.036647766            3 
  828000    1.1126296   -6.7745374    357.38174  0.035968371  0.036639788            2 
  829000    1.1129036   -6.7650226    357.95104  0.035982212  0.036631512            4 
  830000    1.1242528   -6.7728565    359.39121  0.036083454  0.036623495            1 
  831000    1.1324529   -6.7425873    359.36591  0.036037496  0.036615399            3 
  832000    1.0996957   -6.7578554    360.08332  0.036066038  0.036606962            1 
  833000    1.1359015   -6.7689783    359.36057  0.035950437  0.036598907            5 
  834000    1.1096161   -6.7562229    360.34228  0.036005424  0.036590794            5 
  835000    1.1173315   -6.7897403    360.27115  0.035955205  0.036582133            1 
  836000     1.080971     -6.78703    361.43563  0.036028273  0.036573701            1 
  837000    1.1148525   -6.7948412    361.31673   0.03597339  0.036565269            3 
  838000    1.1086089   -6.7663541    362.07997  0.036006361  0.036556917            3 
  839000    1.1253152   -6.8339169    361.36943  0.035892872  0.036548484            3 
  840000    1.1150397   -6.7792123    361.47234  0.035860351  0.036539761            2 
  841000    1.1189959   -6.7385703    362.61278  0.035930716  0.036531063            2 
  842000    1.1030083   -6.7555981    362.67693  0.035894392  0.036522502            2 
  843000    1.1172191   -6.7835959    363.32354  0.035915731  0.036513971            3 
  844000    1.1413982   -6.7572244    363.57696  0.035898199  0.036505556            2 
  845000    1.1224812   -6.8118941    363.50441  0.035848561  0.036496993            3 
  846000    1.1053659   -6.7900153    363.55488  0.035811158  0.036488549            3 
  847000    1.1162667   -6.7774105    364.19216  0.035831578  0.036480335            2 
  848000    1.0964142   -6.7521931    365.79625  0.035946959  0.036472563            2 
  849000    1.1003956   -6.7556492    366.45895  0.035969665  0.036464899            3 
  850000    1.1389517   -6.8108766    365.99853  0.035882209  0.036456949            2 
  851000    1.1243011     -6.75383    366.78998  0.035917546  0.036448673            2 
  852000    1.1303708    -6.800854    366.19602  0.035817294   0.03644055            3 
  853000     1.100492   -6.7868128    366.15962  0.035771748  0.036432111            1 
  854000    1.1274066   -6.7902465    365.57624  0.035672935  0.036423448            3 
  855000    1.1024221   -6.8309737    366.02661  0.035675108  0.036414438            2 
  856000    1.1022946    -6.745591    368.28519  0.035853309  0.036405482            4 
  857000    1.1077875   -6.7715437    366.00868  0.035590109  0.036396488            1 
  858000    1.1326222   -6.7460966     368.9338  0.035832731  0.036387233            1 
  859000    1.1419958   -6.7814721    368.82516  0.035780477   0.03637836            5 
  860000    1.1160398   -6.7500378    368.12454  0.035670982  0.036369646            2 
  861000    1.1160658   -6.8029171    369.17046  0.035730784  0.036361163            1 
  862000    1.1190281   -6.7730736    369.44174  0.035715559  0.036352407            3 
  863000    1.1121751   -6.7858214    369.85035   0.03571363  0.036343608            4 
  864000    1.1249614   -6.8144147    370.40881  0.035726158  0.036334444            3 
  865000     1.117241   -6.7680474    370.04986  0.035650276  0.036325444            2 
  866000    1.1054031   -6.7321502     370.9363  0.035694409  0.036316574            1 
  867000    1.0964159   -6.7613087    370.84082  0.035644062   0.03630747            4 
  868000    1.1157408   -6.8276582    370.36494   0.03555731  0.036298004            3 
  869000    1.1372349    -6.788424    370.83558  0.035561525  0.036288383            2 
  870000    1.1139447   -6.7935206    371.58184   0.03559213   0.03627885            2 
  871000    1.1152581   -6.7698405    371.59835  0.035552846  0.036269461            2 
  872000    1.1108375   -6.8071749    371.57947   0.03551027  0.036260012            3 
  873000    1.1399968   -6.7776366     371.6781  0.035479009  0.036250547            3 
  874000    1.1068665   -6.7858305    373.42073   0.03560457  0.036241134            2 
  875000    1.1181981    -6.791749    372.82799  0.035507428  0.036231808            1 
  876000    1.1241978    -6.764036    373.86933  0.035565956  0.036222371            3 
  877000    1.1068071    -6.798306    374.18694  0.035555581  0.036212959            2 
  878000    1.1107194   -6.7900824    374.99111  0.035591411   0.03620375            2 
  879000    1.1282163   -6.8431834    374.39652  0.035494551  0.036194546            4 
  880000    1.1009816   -6.7716238    374.85734  0.035497854   0.03618521            2 
  881000    1.1133394   -6.7700894    375.22334  0.035492181  0.036175834            2 
  882000    1.1136453    -6.790214    376.97079  0.035617044  0.036166593            2 
  883000     1.106013   -6.7763678    375.56137  0.035443693  0.036157322            2 
  884000    1.1154994   -6.7892724    376.39833  0.035482497  0.036148114            4 
  885000    1.1174729   -6.7731201    376.93912  0.035493326  0.036139236            5 
  886000    1.1142569   -6.7719092    377.10067   0.03546846  0.036130279            4 
  887000    1.0980413   -6.7974691    377.80312  0.035494468  0.036121423            4 
  888000    1.0887821    -6.798575    378.05675  0.035478298  0.036112566            4 
  889000    1.1178299   -6.8052501    377.50679  0.035386839  0.036103703            6 
  890000    1.0813456   -6.7801792     378.9909  0.035486039  0.036094669            1 
  891000    1.1293432   -6.8158676    379.16901  0.035462871  0.036085722            3 
  892000    1.1112447    -6.782862    381.13938  0.035607192  0.036077106            2 
  893000    1.1140772   -6.8075127    380.48773  0.035506507  0.036068543            2 
  894000    1.1287463    -6.826959    380.58074  0.035475461  0.036059883            3 
  895000    1.1192285    -6.777723    380.85823   0.03546166  0.036051117            2 
  896000    1.1090787   -6.8041218    380.96353  0.035431876  0.036042297            2 
  897000    1.1031518   -6.7485951    381.96135  0.035485075  0.036033618            2 
  898000    1.0925471   -6.7673089    381.50212  0.035402944  0.036024962            3 
  899000    1.1213241   -6.8055537    382.85445  0.035488918   0.03601631            3 
  900000    1.1039433   -6.7700168    383.50389  0.035509619  0.036007796            2 
  901000      1.10833   -6.7835239    384.07822  0.035523328  0.035999351            1 
  902000    1.1109809   -6.8013266    383.66502  0.035445771  0.035990893            2 
  903000    1.1177142   -6.7764112    384.43144  0.035477246  0.035982185            4 
  904000    1.0818298   -6.8034222    382.52391   0.03526216  0.035973802            2 
  905000    1.1256403   -6.7896507    384.29039  0.035385855  0.035965211            4 
  906000    1.0706054     -6.85225    383.79896  0.035301596  0.035956775            2 
  907000     1.100135    -6.803101    383.26264  0.035213399  0.035947828            3 
  908000    1.0985442   -6.7916326    385.88474  0.035415266  0.035939364            2 
  909000    1.0797684   -6.8042421    386.42509  0.035425842  0.035930868            3 
  910000    1.0991518   -6.8560444    386.51006  0.035394694  0.035922812            3 
  911000      1.08571   -6.8039853    388.52894  0.035540518  0.035914589            2 
  912000     1.113126   -6.7846657     388.5222  0.035500932  0.035906672            1 
  913000    1.1111448    -6.780197    388.25087  0.035437283  0.035898666            6 
  914000    1.1248104   -6.8617948     387.1048  0.035294019  0.035890334            3 
  915000    1.0667169   -6.7773197    389.37077  0.035461819  0.035882239            2 
  916000    1.1113057   -6.7880928    389.44721  0.035430059  0.035874016            2 
  917000    1.1118881   -6.7895672    388.74553  0.035327656  0.035865728            3 
  918000    1.0962048   -6.7474301    389.35277  0.035344296  0.035857136            2 
  919000    1.1230954   -6.7837543    389.70484  0.035337762  0.035848809            3 
  920000    1.1117475    -6.833618    389.54248  0.035284645  0.035840122            2 
  921000    1.1135307    -6.804399    390.10175  0.035296938  0.035831718            2 
  922000    1.1187265   -6.8029319    391.11222  0.035349983  0.035823498            1 
  923000    1.1134586    -6.785704    391.22106  0.035321511    0.0358149            3 
  924000    1.0791848   -6.8067762    391.91947  0.035346273    0.0358065            2 
  925000    1.1059104   -6.7899313    392.18446  0.035331933  0.035798022            3 
  926000    1.1008951   -6.7759527    392.21795  0.035296791  0.035790006            2 
  927000     1.102502   -6.7992155    391.60118   0.03520327  0.035781681            4 
  928000     1.089273   -6.8434576    392.05372  0.035205973  0.035773274            2 
  929000    1.0965966   -6.8160044    393.00361  0.035253284  0.035764809            3 
  930000    1.1029957   -6.8314529    392.48965  0.035169323  0.035756496            2 
  931000    1.0999923   -6.8019869    394.68886  0.035328398  0.035747991            5 
  932000    1.0866108   -6.8277181    393.64297  0.035196975  0.035739541            3 
  933000    1.1124493   -6.8360471    393.53337  0.035149461   0.03573091            2 
  934000    1.1151485   -6.8062175    393.90436  0.035144929  0.035722551            1 
  935000    1.0646783   -6.8188631    395.25814  0.035227998  0.035714004            1 
  936000    1.1006807   -6.8197616    394.74099  0.035144319  0.035705591            2 
  937000    1.1072438   -6.8197459    395.07562  0.035136572  0.035696627            3 
  938000    1.0910021    -6.801105    396.26286   0.03520459  0.035688185            1 
  939000    1.1292763   -6.8354248    396.39076  0.035178448  0.035679663            3 
  940000    1.1091736   -6.8430158    395.67503  0.035077574  0.035671016            1 
  941000    1.0921109   -6.8120536    395.80045  0.035051404  0.035662442            3 
  942000    1.1140352   -6.7769497    397.44986  0.035160108    0.0356538            2 
  943000    1.1300413   -6.7857419    397.89074  0.035161784  0.035645358            4 
  944000    1.0700218   -6.8119497    397.25676   0.03506857   0.03563691            2 
  945000    1.1195615   -6.7958254    398.50079  0.035141163  0.035628338            2 
  946000    1.0661482   -6.7797197    398.74373  0.035125416  0.035619986            2 
  947000    1.0989135   -6.8172163    398.28591  0.035048038  0.035611494            3 
  948000    1.0987294    -6.808024    398.80341  0.035056558  0.035603193            2 
  949000    1.1050585   -6.8063794    400.94305  0.035207503  0.035594813            2 
  950000    1.1056462   -6.8187688    399.51787  0.035045427  0.035586318            2 
  951000    1.0637562    -6.785222    400.65954  0.035108617  0.035578063            3 
  952000    1.1240888   -6.8198014    398.87566  0.034915586   0.03556956            2 
  953000    1.1063975   -6.7895359    401.37171  0.035097212   0.03556109            2 
  954000    1.1207323   -6.7753651     401.5174  0.035073148   0.03555282            2 
  955000    1.0908211   -6.8022012    402.01982  0.035080263  0.035544469            4 
  956000    1.1024906   -6.8235743    400.93504   0.03494901  0.035536264            3 
  957000    1.0861151   -6.7715472    401.89392  0.034995987  0.035527826            1 
  958000    1.0970001   -6.8263461     403.4165  0.035091902  0.035519292            5 
  959000    1.0572677   -6.8034003    403.40626   0.03505442  0.035510913            3 
  960000    1.0959487    -6.803508    404.13772    0.0350814   0.03550265            3 
  961000    1.0936796   -6.8450943    403.90488  0.035024703  0.035493894            2 
  962000    1.0885104   -6.7835343    403.27189  0.034933462  0.035485343            2 
  963000     1.094741   -6.7806706    404.15618  0.034973709  0.035476813            1 
  964000    1.0911805     -6.81864    403.34618  0.034867408   0.03546833            1 
  965000    1.0870258   -6.7566367    405.07897  0.034980913  0.035460104            2 
  966000    1.0932105   -6.7959413    405.36017  0.034968959  0.035452065            3 
  967000    1.1027241   -6.8327565    404.78814    0.0348835  0.035443564            2 
  968000    1.0966032   -6.8110969    404.83105  0.034851158  0.035435183            3 
  969000    1.0962696   -6.7829399    407.04195  0.035005328  0.035426601            2 
  970000    1.0800162   -6.8230891    406.83381  0.034951358  0.035418085            1 
  971000    1.0910553   -6.8227772    407.09475  0.034937758  0.035409784            2 
  972000    1.0878559   -6.7882887    406.83205  0.034879291  0.035401504            1 
  973000    1.0862018   -6.8073261    407.53304  0.034903481  0.035393107            2 
  974000    1.0948872   -6.8322089    406.91509  0.034814775   0.03538482            3 
  975000    1.0933587   -6.8371581    406.82084  0.034771012  0.035376297            2 
  976000    1.0693693   -6.8069528     409.7599   0.03498633  0.035368089            3 
  977000    1.0931769   -6.7962257    409.61337  0.034938022  0.035359679            2 
  978000    1.1089197   -6.8093418     409.1232  0.034860532    0.0353515            5 
  979000    1.1100514   -6.8248492    409.56383   0.03486243  0.035343095            3 
  980000    1.1131657   -6.8261031    410.61053  0.034915861  0.035335053            3 
  981000    1.1192707   -6.8196922    409.67211  0.034800553  0.035326958            2 
  982000    1.0827367   -6.8541784    409.98043  0.034791278  0.035318667            3 
  983000    1.1004165   -6.8105881    411.93048  0.034921201  0.035310579            3 
  984000    1.0803831   -6.8108841    411.45057  0.034845068  0.035302668            2 
  985000    1.0878728   -6.8262935    412.28456   0.03488025  0.035294785            2 
  986000    1.0855856   -6.8377878    412.13004  0.034831815  0.035286841            2 
  987000    1.0944244   -6.8573821    412.88638  0.034860383   0.03527915            6 
  988000    1.1062199   -6.8505709    413.90916  0.034911366  0.035271426            2 
  989000    1.0787063   -6.8185336    414.85583  0.034955833  0.035263877            3 
  990000    1.0912269   -6.8380337    413.55017   0.03481062  0.035256018            4 
  991000    1.0910267   -6.7988904    414.58644  0.034862634   0.03524824            2 
  992000    1.0818089   -6.8088641    414.88248  0.034852359   0.03524061            3 
  993000    1.0768024   -6.7657607    417.49869  0.035036815  0.035233235            2 
  994000    1.1143921   -6.8243824     415.8361  0.034862181  0.035225713            1 
  995000    1.0908537   -6.8145058    416.17138  0.034855224  0.035217942            1 
  996000     1.093714   -6.8506031    416.25949  0.034827601  0.035210343            4 
  997000     1.095755   -6.8377824    416.73938   0.03483278  0.035202713            3 
  998000    1.1294331   -6.8300788    416.05398  0.034740646  0.035194769            3 
  999000    1.0837306   -6.8238397    417.26174  0.034806618  0.035186839            2 
 1000000    1.0749135   -6.7918557     417.2071  0.034767259  0.035178617            3 
 1001000        1.101   -6.8388861    416.72103  0.034692061  0.035170987            2 
 1002000    1.0965979   -6.8648544    417.91185  0.034756474  0.035163061            3 
 1003000    1.0843027   -6.8271895    419.20902  0.034829596  0.035155387            3 
 1004000    1.0880128   -6.8376558    419.17267  0.034791888  0.035147531            2 
 1005000     1.078075   -6.8084268    420.09771  0.034833973  0.035139882            2 
 1006000    1.0978554   -6.8377339    419.96748  0.034788559  0.035132219            2 
 1007000    1.1033012   -6.8199516    420.97331  0.034837249  0.035124639            4 
 1008000    1.0992836   -6.8412722    420.84919  0.034792427  0.035116822            2 
 1009000    1.0683431   -6.8067294    419.68912  0.034662134  0.035108765            2 
 1010000    1.1109237   -6.8373978    419.88514  0.034643988  0.035100682            2 
 1011000    1.1217858   -6.7818386    421.41942  0.034736187  0.035092733            2 
 1012000    1.0944377   -6.8576609    421.41547  0.034701537  0.035084614            1 
 1013000    1.1129083   -6.8247382    421.45474  0.034670512  0.035076558            1 
 1014000    1.0851092   -6.8429944    421.19285  0.034614797  0.035068588            1 
 1015000    1.1145249   -6.8498566    421.98399  0.034645648  0.035060657            4 
 1016000    1.1024257   -6.8186973    422.05667  0.034617509   0.03505258            6 
 1017000    1.0930528    -6.846702    421.12783  0.034507361  0.035044344            3 
 1018000    1.1084693    -6.787657    422.97014  0.034624274  0.035036012            2 
 1019000    1.1179257   -6.7742042    423.81736  0.034659581  0.035027911            4 
 1020000    1.0937379   -6.8081228    422.15046  0.034489416  0.035019764            3 
 1021000    1.0936039   -6.8856105    422.12159   0.03445328  0.035011242            2 
 1022000    1.0674129    -6.795553    424.04493  0.034576397  0.035002859            1 
 1023000    1.0946997    -6.869184    423.08839  0.034464678  0.034994656            3 
 1024000    1.1155161   -6.7950943      425.432  0.034621745  0.034986351            4 
 1025000    1.0946545   -6.8620119    423.62575  0.034441118  0.034977753            1 
 1026000    1.0998741   -6.8301757    424.15936   0.03445089  0.034969198            4 
 1027000    1.0950517    -6.839907    424.49856  0.034444869  0.034960556            2 
 1028000    1.0865224   -6.8357249    424.77555  0.034433816  0.034951895            1 
 1029000    1.0860956   -6.8713903    423.96768  0.034334927  0.034943173            5 
 1030000    1.0881797   -6.8240158    426.35642  0.034494856  0.034934778            2 
 1031000    1.1014483   -6.8643542    426.13508  0.034443508  0.034926676            1 
 1032000    1.0789769   -6.8133643    428.42705  0.034595207  0.034918498            1 
 1033000    1.0932264   -6.8498924    427.60628  0.034495505  0.034910167            3 
 1034000    1.0669832   -6.8280972    427.52849  0.034455874  0.034901902            2 
 1035000    1.0712515   -6.8369109    426.83666  0.034366881  0.034893407            2 
 1036000    1.0814038   -6.8849464    427.91402  0.034420369  0.034884966            2 
 1037000    1.0704727   -6.8376243    428.20439   0.03441051   0.03487641            4 
 1038000    1.0741251   -6.8269981    428.28257  0.034383636  0.034867849            2 
 1039000    1.1047964   -6.8601879    427.72422   0.03430576  0.034859416            3 
 1040000    1.0598121   -6.8061436    428.79806  0.034358819  0.034850935            3 
 1041000    1.0792642   -6.8321552    430.17109  0.034435726  0.034842756            2 
 1042000    1.0842421   -6.8351709    429.20555   0.03432546  0.034834668            3 
 1043000    1.1045285   -6.8428873    430.31042  0.034380826   0.03482638            2 
 1044000    1.0731055   -6.8493284    430.60617  0.034371501  0.034817979            2 
 1045000    1.0847616   -6.8912106    430.17774  0.034304445  0.034809489            2 
 1046000    1.0701584   -6.8849794    431.48132  0.034375504  0.034801151            1 
 1047000    1.0686589   -6.8333977    433.27757  0.034485639  0.034793107            2 
 1048000    1.0840677   -6.8592859    432.30913  0.034375726  0.034784972            1 
 1049000    1.0945689   -6.8496006    432.70801  0.034374643  0.034776815            2 
 1050000    1.1075372    -6.851384    432.65258  0.034337506  0.034768565            2 
 1051000    1.0711913   -6.8551947    432.13886  0.034264102  0.034760421            2 
 1052000     1.095814    -6.832602    432.50304   0.03426038  0.034752417            2 
 1053000    1.0956545   -6.8472754    434.86086  0.034414439  0.034744152            5 
 1054000    1.0786528   -6.8368872    434.49295    0.0343527  0.034736412            3 
 1055000    1.0867072   -6.9026247    434.45959  0.034317504  0.034728727            2 
 1056000    1.0822697    -6.836114    436.07853  0.034412763  0.034720979            4 
 1057000    1.0591205   -6.8342646    436.07872   0.03438022  0.034713205            1 
 1058000    1.0896936   -6.8545398    435.56791  0.034307492  0.034705345            2 
 1059000    1.0716348   -6.8504401    436.87268  0.034377768  0.034697624            3 
 1060000    1.0718997   -6.8093928    437.41393  0.034387888  0.034690053            2 
 1061000    1.1025434   -6.8547327    438.32255  0.034426842  0.034682687            3 
 1062000    1.0868513   -6.8410484    439.00776  0.034448192  0.034675253            2 
 1063000    1.0958435   -6.8448397     437.5754  0.034303496  0.034667727            2 
 1064000    1.0606587   -6.8312037    439.25051  0.034402452  0.034660238            2 
 1065000    1.1025217   -6.8413252    438.35644  0.034300191   0.03465252            2 
 1066000    1.0789454   -6.8084377    439.23919  0.034337022  0.034645032            2 
 1067000    1.0885392   -6.8642127    438.57272   0.03425279   0.03463748            1 
 1068000    1.0961435   -6.8612204    441.02433  0.034412011  0.034629679            2 
 1069000    1.0965009   -6.8212189    440.30981   0.03432412  0.034622224            2 
 1070000    1.0606204    -6.865389    441.21737  0.034362723    0.0346148            3 
 1071000    1.0785485    -6.849783    440.54632  0.034278425   0.03460726            3 
 1072000    1.0851972   -6.8548496    443.02261  0.034438947    0.0345999            3 
 1073000    1.0995894   -6.8766629    442.24626  0.034346556  0.034592602            2 
 1074000    1.0984447    -6.837991    443.21577  0.034389802  0.034585578            3 
 1075000    1.0961389   -6.8971909    441.90309  0.034256054  0.034578525            1 
 1076000    1.0580625    -6.834025    444.26326  0.034407006  0.034571693            2 
 1077000    1.1066322    -6.838422    444.69202  0.034408234  0.034564744            3 
 1078000    1.0598178   -6.8665314     445.1109  0.034408696  0.034557792            3 
 1079000    1.0793204   -6.8291117    445.49993  0.034406853  0.034551067            3 
 1080000     1.080055   -6.8560337    444.73203  0.034315743   0.03454428            3 
 1081000    1.0884596   -6.8286427    444.37038  0.034256119  0.034537027            2 
 1082000    1.0804105   -6.8189873    445.20707    0.0342889  0.034529895            2 
 1083000    1.0734102   -6.8547147    446.52808  0.034358886  0.034522842            2 
 1084000    1.0906599   -6.8439732    446.02224  0.034288302   0.03451569            3 
 1085000    1.0752666   -6.8801546    445.47807  0.034214905  0.034508593            3 
 1086000    1.0724056    -6.865648    447.75148  0.034357848  0.034501692            3 
 1087000    1.0679636   -6.8682095    447.36816  0.034296854  0.034494743            2 
 1088000    1.0911269   -6.8624389    446.29058  0.034182795  0.034487686            3 
 1089000    1.0718911   -6.8861314    447.30841  0.034229294  0.034480596            3 
 1090000    1.0618109   -6.8810358    447.81593  0.034236692  0.034473435            1 
 1091000    1.0855216   -6.8569905    448.75678  0.034277175  0.034466271            2 
 1092000    1.0569113    -6.880587    448.75303    0.0342455  0.034459406            5 
 1093000    1.0780197   -6.8639771    449.28837  0.034254984  0.034452379            2 
 1094000     1.063146   -6.8700606    450.28656  0.034299708  0.034445467            3 
 1095000    1.0747888   -6.8689434    449.69129  0.034223081  0.034438631            2 
 1096000    1.0587687   -6.8811948    451.02541  0.034293295   0.03443176            2 
 1097000    1.0750917   -6.8430667    452.09545  0.034343319  0.034425096            2 
 1098000    1.0907034   -6.8632445    451.57304  0.034272392  0.034418586            2 
 1099000    1.0785623     -6.86606    451.00338  0.034198012  0.034411885            1 
 1100000    1.0645717   -6.8261109    452.81654  0.034304283  0.034405291            3 
 1101000    1.0663696   -6.8482411    452.92177  0.034281091  0.034398468            4 
 1102000    1.0646365   -6.8695024    453.01509  0.034257039  0.034391649            1 
 1103000    1.0717177   -6.8500486    453.59702  0.034269947  0.034384776            2 
 1104000    1.1124857   -6.8847899    454.30779  0.034292557  0.034377958            2 
 1105000    1.0678183   -6.8957999    454.55818  0.034280405  0.034371191            2 
 1106000    1.0669815   -6.8779504    452.85845  0.034121342  0.034364621            2 
 1107000    1.0634655   -6.8789363    455.44436  0.034285182  0.034358306            4 
 1108000    1.0856006   -6.8813888    455.77046  0.034278765  0.034351811            2 
 1109000    1.0689294   -6.8810481    456.49141  0.034302029  0.034345391            1 
 1110000    1.0747383   -6.8484655     457.2414  0.034327433  0.034339066            3 
 1111000    1.0678317   -6.8458856    457.31111  0.034301763  0.034332866            2 
 1112000    1.0901227     -6.85204    457.33854  0.034272972  0.034326975            2 
 1113000    1.0849349    -6.857408    456.02203  0.034143608  0.034321004            1 
 1114000    1.0914871    -6.860608    459.43067  0.034367944  0.034315151            3 
 1115000    1.0721953   -6.8617699     456.5415  0.034121189  0.034308981            1 
 1116000     1.081534   -6.8622961     459.6474  0.034322536  0.034302777            2 
 1117000    1.0754622    -6.886923    456.97163  0.034092184  0.034296416            1 
 1118000    1.0882371   -6.8657491    459.53802  0.034252983  0.034290124            2 
 1119000    1.0662687   -6.8842808    458.17423  0.034120809   0.03428352            3 
 1120000    1.0750392   -6.8682233    459.84038  0.034214314  0.034276948            3 
 1121000    1.0523422   -6.8684515    460.76667  0.034252651  0.034270339            3 
 1122000    1.0883697    -6.878193    460.49081  0.034201634  0.034263915            3 
 1123000     1.071924   -6.8714799    459.00542  0.034060954  0.034257218            2 
 1124000     1.088636   -6.8903692    458.41133  0.033986605  0.034250375            1 
 1125000    1.0556353   -6.8641419    459.17843  0.034013217  0.034243666            2 
 1126000    1.0685335   -6.8882075    460.18619  0.034057592  0.034236812            3 
 1127000    1.0726129   -6.8522019    460.87911  0.034078609  0.034229981            4 
 1128000    1.0591458   -6.8593163    461.48213  0.034092947  0.034223166            2 
 1129000    1.0690974   -6.8822757    461.02646  0.034029116  0.034216061            3 
 1130000    1.0653123   -6.8632299    461.72356   0.03405041  0.034209219            3 
 1131000    1.0912365   -6.8586355    460.46596  0.033927642  0.034202273            1 
 1132000     1.089261   -6.8407272    461.45883  0.033970762  0.034195148            2 
 1133000    1.0850425   -6.8776804    462.94918  0.034050396  0.034188154            3 
 1134000    1.0779081    -6.862468    461.76142  0.033933085  0.034181036            2 
 1135000    1.0826133   -6.8790944    462.83565  0.033982059  0.034173688            5 
 1136000    1.0752171   -6.8564512    462.43136  0.033922488  0.034166569            4 
 1137000    1.1080676   -6.8699842    462.17822    0.0338741  0.034159446            2 
 1138000     1.060168   -6.8721542    463.57971  0.033946962  0.034152389            2 
 1139000    1.0801073   -6.8535843    465.25237  0.034039535  0.034145332            2 
 1140000    1.0779672    -6.912121    462.88517  0.033836635  0.034138128            4 
 1141000    1.0688502   -6.8370619    465.58027  0.034003818  0.034131113            2 
 1142000    1.0644303   -6.8671743    465.52397  0.033969934   0.03412408            2 
 1143000     1.076178   -6.8243225    465.06061  0.033906431   0.03411719            2 
 1144000    1.0742423   -6.8969066    465.26474  0.033891662  0.034110286            3 
 1145000    1.0708164   -6.8442686    467.35189  0.034013966   0.03410334            2 
 1146000    1.0612286   -6.8665292    467.19658  0.033972992  0.034096495            2 
 1147000    1.0779274   -6.8679325    465.21364  0.033799305  0.034089397            3 
 1148000    1.0748142   -6.8371182    467.76348  0.033954957  0.034082359            3 
 1149000    1.0760401   -6.8417042    467.88811  0.033934444  0.034075527            1 
 1150000    1.0546229   -6.8648427    465.65746  0.033743294  0.034068568            1 
 1151000    1.0778265   -6.8688566    468.80634  0.033941959  0.034061447            1 
 1152000    1.0854013    -6.867908    466.88565  0.033773557  0.034054301            3 
 1153000    1.0566388   -6.8763815    468.28652  0.033845513   0.03404695            1 
 1154000    1.0673957   -6.8635617    469.51845  0.033905145  0.034039711            2 
 1155000    1.0541301   -6.8348829    469.16034  0.033849952  0.034032592            3 
 1156000    1.0633092   -6.9045446    468.82642  0.033796599  0.034025448            1 
 1157000    1.0582201   -6.9338837    468.13981  0.033717935  0.034018045            3 
 1158000    1.0783366   -6.8515612     469.5824  0.033792631  0.034010814            2 
 1159000    1.0594714   -6.8328126    471.11554  0.033873708  0.034003723            3 
 1160000    1.0763899   -6.8810143    470.14126  0.033774516  0.033996717            2 
 1161000     1.073933   -6.8564172    471.48013  0.033841526   0.03398965            3 
 1162000    1.0784159   -6.9120233    469.72488  0.033686523  0.033982309            2 
 1163000    1.0564872   -6.9025737    470.50163  0.033713215   0.03397503            2 
 1164000    1.0552749   -6.8807635    472.22189  0.033807409  0.033967859            2 
 1165000    1.0762613   -6.8594567    472.89467  0.033826514  0.033960861            1 
 1166000    1.0401417   -6.8855376    473.27995   0.03382504  0.033953919            2 
 1167000    1.0578881   -6.9255997    472.64952  0.033751037  0.033946937            1 
 1168000    1.0783343   -6.8916277    473.70889  0.033797723  0.033939786            3 
 1169000    1.0736762   -6.8875569    473.24449  0.033735707  0.033932911            2 
 1170000    1.0383409   -6.8976428    472.58626   0.03365999  0.033925832            3 
 1171000    1.0951234   -6.9164311    473.55698  0.033700326  0.033918865            4 
 1172000    1.0433815   -6.8670182    475.04182  0.033777148  0.033911725            5 
 1173000     1.051933   -6.8942439    474.94667  0.033741594  0.033904871            2 
 1174000    1.0528721   -6.9081843    472.49473  0.033538808  0.033897892            2 
 1175000    1.0630874   -6.8658167    476.39527  0.033786899  0.033890843            4 
 1176000    1.0746421   -6.8760978    476.41954  0.033759888  0.033883952            2 
 1177000    1.0778787   -6.8799383    475.97824   0.03369996  0.033877037            2 
 1178000    1.0570775   -6.8962716    475.25856  0.033620441  0.033869836            3 
 1179000    1.0618413   -6.8607273    476.24847  0.033661894  0.033863056            2 
 1180000    1.0456406   -6.8630007    476.88253  0.033678145  0.033856116            3 
 1181000    1.0673007   -6.9127823    477.68311  0.033706119   0.03384899            3 
 1182000    1.0671196   -6.8848903    476.88751  0.033621511  0.033841826            5 
 1183000    1.0436946   -6.8812108     478.6276  0.033715667  0.033834929            3 
 1184000    1.0877817   -6.9123341      478.563  0.033682643  0.033828028            4 
 1185000    1.0749435   -6.8922899    479.31203  0.033706894  0.033821074            6 
 1186000    1.0611075   -6.8953566     479.5767   0.03369707  0.033814249            2 
 1187000    1.0759926   -6.8781445    480.23476  0.033714881  0.033807613            2 
 1188000    1.0513285   -6.8812851      479.141  0.033609778   0.03380084            2 
 1189000    1.0644788   -6.8778936     480.3328   0.03366504  0.033793898            6 
 1190000    1.0615886   -6.9147312    480.17027  0.033625369   0.03378685            7 
 1191000    1.0827667   -6.8859446     481.5504  0.033693703  0.033779975            2 
 1192000    1.0519519   -6.8607223    481.13918  0.033636688    0.0337729            2 
 1193000     1.062117   -6.8639445    481.20591  0.033613153  0.033765761            3 
 1194000     1.032341   -6.8864214    481.51237  0.033606391  0.033758839            1 
 1195000    1.0601183   -6.8846712    482.12226  0.033620799  0.033751689            2 
 1196000    1.0616771   -6.8644513    480.79675  0.033500331   0.03374457            1 
 1197000    1.0608461   -6.8839105    482.73006  0.033606938  0.033737502            4 
 1198000      1.05593   -6.9195121    482.02283   0.03352969  0.033730237            4 
 1199000    1.0639053   -6.9075286    481.41708  0.033459625   0.03372292            3 
 1200000    1.0561157   -6.9284979    481.11178   0.03341054   0.03371549            5 
 1201000    1.0728291   -6.9046888    481.73542  0.033425994   0.03370819            1 
 1202000    1.0166148   -6.8660926    482.73505  0.033467488  0.033700871            3 
 1203000     1.063733   -6.8791263    482.73792  0.033439867  0.033693592            6 
 1204000    1.0944875   -6.8695301    483.24514    0.0334472  0.033686106            3 
 1205000    1.0601143   -6.8929349    481.58796  0.033304838   0.03367844            2 
 1206000    1.0693116   -6.8583222    484.21287  0.033458601  0.033671029            3 
 1207000    1.0500282   -6.8478326    484.12085  0.033424527  0.033663717            4 
 1208000    1.0851967   -6.8621511    484.38075  0.033414787   0.03365649            3 
 1209000    1.0866338   -6.8525429    485.69226  0.033477548  0.033649208            5 
 1210000    1.0764914   -6.8772998    485.68134  0.033449128  0.033642217            2 
 1211000    1.0395933   -6.9180515     484.7588  0.033358024  0.033634993            3 
 1212000    1.0726123   -6.8833174      485.588  0.033387514  0.033627644            1 
 1213000    1.0992565   -6.8862422    485.77877  0.033373095  0.033620454            2 
 1214000    1.0726762   -6.9102896    485.35679  0.033316639  0.033613037            4 
 1215000    1.0317583   -6.8806025    487.29987  0.033422488  0.033605607            1 
 1216000    1.0367056   -6.8930027    487.52783  0.033410624  0.033598397            2 
 1217000    1.0858652   -6.9200466     486.1659  0.033289914  0.033590938            6 
 1218000    1.0289601   -6.9286092    485.62523  0.033225591  0.033583334            2 
 1219000    1.0612527   -6.9176697    486.64246  0.033267874  0.033575825            2 
 1220000    1.0707533   -6.9293388    487.22585  0.033280454   0.03356808            2 
 1221000    1.0439072   -6.8714231    488.86023  0.033364744  0.033560653            3 
 1222000    1.0610464    -6.918501    489.54866  0.033384387  0.033553234            3 
 1223000    1.0612023   -6.8950245    488.06985  0.033256327  0.033545791            3 
 1224000    1.0427523   -6.9120146    488.76826  0.033276706  0.033538248            3 
 1225000    1.0522307   -6.8927628    489.48059  0.033297999   0.03353085            3 
 1226000    1.0519466   -6.9019451    489.72074  0.033287163  0.033523543            4 
 1227000    1.0735438   -6.9148954    490.57854  0.033318293  0.033516408            1 
 1228000    1.0624921   -6.8666942    492.23982  0.033403897  0.033509154            3 
 1229000    1.0730914   -6.9025519    490.02229  0.033226355  0.033502055            3 
 1230000    1.0500528   -6.8892089    492.58446  0.033372931  0.033494573            5 
 1231000    1.0434191   -6.8750796     491.2548  0.033255808  0.033487103            1 
 1232000    1.0460952   -6.8895311    493.03643  0.033349326  0.033479833            2 
 1233000    1.0719184   -6.9332401    490.91791  0.033179096   0.03347256            1 
 1234000    1.0400017    -6.890063    491.91795  0.033219742  0.033465088            2 
 1235000    1.0498243   -6.8786898    493.76383  0.033317398  0.033457672            3 
 1236000    1.0367232   -6.9239502    493.82111  0.033294304  0.033450357            3 
 1237000    1.0506742   -6.9186174    490.09861  0.033016613  0.033442709            3 
 1238000      1.07329   -6.9097674    492.79628  0.033171532  0.033435234            4 
 1239000    1.0718389   -6.8845636    494.15596  0.033236209  0.033427968            1 
 1240000    1.0487765   -6.8914492    494.44074  0.033228545  0.033420685            3 
 1241000    1.0677271   -6.8705258    494.15692   0.03318271  0.033413468            1 
 1242000    1.0484678    -6.886609    493.58208  0.033117423  0.033406023            2 
 1243000    1.0728199   -6.8832106    494.54239  0.033155161  0.033398813            6 
 1244000    1.0349449   -6.9362213    495.33446  0.033181569  0.033391475            2 
 1245000     1.056107   -6.8933327    496.20511  0.033213194  0.033384301            4 
 1246000    1.0644258   -6.9016818    496.14473  0.033182499  0.033376907            3 
 1247000    1.0435614   -6.8867254    497.15856   0.03322364  0.033369772            5 
 1248000    1.0459266   -6.9426739     496.2029  0.033133207  0.033362623            4 
 1249000    1.0233302   -6.8796781    498.31221  0.033247412  0.033355461            2 
 1250000    1.0429566   -6.8902074    496.71749  0.033114499  0.033348471            3 
 1251000    1.0412562   -6.9170495    498.16278  0.033184304  0.033341312            2 
 1252000    1.0357729   -6.9218267    497.86597  0.033138044   0.03333417            5 
 1253000    1.0492472   -6.9243759    498.66998  0.033165069  0.033326773            2 
 1254000    1.0522563   -6.9298136    497.05139   0.03303106  0.033319497            4 
 1255000    1.0483993   -6.9174767    499.18069  0.033146128  0.033312193            3 
 1256000    1.0322853   -6.9504517    496.98576  0.032974108  0.033304824            2 
 1257000    1.0404898   -6.8815694    499.32516  0.033102967  0.033297585            2 
 1258000     1.066909   -6.9278567     499.2648  0.033072655  0.033290517            1 
 1259000    1.0704494   -6.9163225    499.94883  0.033091662  0.033283472            3 
 1260000     1.055921   -6.9120483    502.12471  0.033209306  0.033276544            1 
 1261000    1.0615385   -6.9193297    500.52724  0.033077402  0.033269677            3 
 1262000    1.0633911   -6.9151164    503.08942  0.033220379   0.03326264            2 
 1263000    1.0440755   -6.9042627    503.18429  0.033200336  0.033255855            4 
 1264000    1.0504631   -6.9243362    503.31375  0.033182605  0.033249173            3 
 1265000    1.0296565   -6.9271321    503.82384  0.033189977  0.033242434            1 
 1266000    1.0721917   -6.8970056    503.33423  0.033131531  0.033235682            3 
 1267000    1.0414789   -6.8858257    504.98469  0.033213936   0.03322909            3 
 1268000      1.04092   -6.8838255     504.1465  0.033132656  0.033222387            2 
 1269000    1.0525746   -6.9403899    504.70488  0.033143215  0.033215622            2 
 1270000    1.0563942   -6.9367394    504.77856  0.033121953  0.033208882            4 
 1271000    1.0355281   -6.9031812    505.58822  0.033148978  0.033202234            3 
 1272000    1.0546229   -6.9140462    505.64371  0.033126553  0.033195651            6 
 1273000    1.0557203   -6.9020048    505.59461  0.033097317  0.033188929            3 
 1274000    1.0363846   -6.8952034    505.77049  0.033082842  0.033182319            2 
 1275000    1.0692448   -6.9163029    506.74845  0.033120814  0.033175825            2 
 1276000    1.0393032   -6.9115412    506.94563  0.033107735  0.033169204            3 
 1277000    1.0562913   -6.9165776    508.04827  0.033153763  0.033162619            2 
 1278000    1.0718897   -6.8633482      507.764  0.033109285   0.03315603            4 
 1279000    1.0244807   -6.8762974    507.22961   0.03304858  0.033149373            3 
 1280000    1.0619669   -6.9350147    507.06657  0.033012146  0.033142654            4 
 1281000    1.0673628   -6.9075777    508.36831  0.033071058  0.033136142            7 
 1282000    1.0558931   -6.9035498     508.5309   0.03305583  0.033129726            3 
 1283000    1.0511299   -6.9420737    510.65313  0.033167909  0.033123185            2 
 1284000    1.0238356   -6.9225023      509.216  0.033048805  0.033116678            2 
 1285000    1.0724504   -6.8717687    510.59567  0.033112559  0.033110319            1 
 1286000    1.0632611   -6.8643235    510.97964  0.033111692  0.033104085            1 
 1287000    1.0276608   -6.9133844    509.90846  0.033016606   0.03309764            2 
 1288000    1.0674722   -6.9028612    510.96325  0.033059217  0.033091205            2 
 1289000    1.0369458   -6.9161461    510.55455  0.033007147  0.033084749            1 
 1290000    1.0733581   -6.8933613    510.29735  0.032964945  0.033078213            1 
 1291000    1.0306047   -6.9110658    510.58931  0.032958256   0.03307139            4 
 1292000    1.0442092   -6.9030819    511.79535  0.033010536  0.033064745            2 
 1293000    1.0616648   -6.8980457    511.76753  0.032983213  0.033058069            8 
 1294000    1.0441787   -6.9192422    509.92153  0.032838841  0.033051309            2 
 1295000    1.0479814   -6.9090555    512.54393  0.032982235  0.033044363            1 
 1296000    1.0477163   -6.8896746    510.65408  0.032835267  0.033037528            2 
 1297000    1.0557696   -6.8943381    511.44623  0.032860848   0.03303068            2 
 1298000    1.0395677   -6.9160596    512.78696  0.032921608  0.033023807            3 
 1299000    1.0342988   -6.8925972     511.8709  0.032837497  0.033016874            3 
 1300000    1.0375406   -6.9234997    511.65564  0.032798439  0.033009996            4 
 1301000     1.046538   -6.8672429    513.73888  0.032906667  0.033002942            4 
 1302000    1.0518749   -6.9352555    513.92616  0.032893379  0.032996115            7 
 1303000    1.0323137   -6.9680277    510.86667  0.032672466  0.032989152            4 
 1304000    1.0447281   -6.9240186    512.78586  0.032770058  0.032982165            3 
 1305000    1.0432959   -6.9517374    512.96695   0.03275651  0.032975176            4 
 1306000    1.0294979   -6.9389454    513.83707  0.032786949  0.032968129            3 
 1307000    1.0226633   -6.9171377    514.79964  0.032823236  0.032961139            2 
 1308000    1.0264776   -6.9083536    515.19464  0.032823308  0.032954347            3 
 1309000    1.0382601   -6.8937826    516.39606  0.032874717   0.03294764            2 
 1310000    1.0474481   -6.9044861     515.9614  0.032821972  0.032940803            1 
 1311000    1.0341312   -6.9168239    516.42254  0.032826248  0.032933692            2 
 1312000    1.0229936   -6.9353979    515.25173  0.032726863  0.032926746            4 
 1313000    1.0505827   -6.9450501    516.72588  0.032795499   0.03291977            4 
 1314000    1.0274838   -6.9264769    516.76993  0.032773334  0.032912849            4 
 1315000    1.0674978   -6.9861614    516.05245  0.032702944  0.032905996            5 
 1316000    1.0346529   -6.9217783    517.41031  0.032764077  0.032899065            3 
 1317000    1.0470339   -6.9458042    517.28548  0.032731301  0.032892217            2 
 1318000    1.0407191   -6.9451637    517.31688  0.032708452   0.03288545            2 
 1319000    1.0482382   -6.9294206    519.15305  0.032799662  0.032878732            2 
 1320000    1.0501262   -6.8826548    517.53978  0.032672966   0.03287197            1 
 1321000    1.0444394   -6.9163743    518.79775  0.032727589  0.032865115            1 
 1322000     1.060659   -6.9146381    520.58797  0.032815682  0.032858385            3 
 1323000    1.0341517   -6.9480262    518.07655  0.032632687  0.032851619            3 
 1324000    1.0445625   -6.9412075    519.19683  0.032678552  0.032844799            2 
 1325000    1.0227776   -6.9661794    519.64781  0.032682252  0.032837961            2 
 1326000    1.0238781   -6.9426572    520.17792   0.03269092  0.032831055            2 
 1327000    1.0638603   -6.9668238    520.03149   0.03265709  0.032824045            2 
 1328000    1.0390422   -6.9199123    520.50024  0.032661912  0.032817059            2 
 1329000    1.0584749    -6.909957    521.17211  0.032679465  0.032810117            3 
 1330000    1.0239966    -6.948882    522.25899  0.032722994  0.032803283            3 
 1331000    1.0391266   -6.9102066    521.88273  0.032674852  0.032796533            4 
 1332000    1.0466689   -6.9333005    521.13478  0.032603528  0.032789651            1 
 1333000    1.0290889   -6.9256136    522.22565  0.032647265  0.032782806            1 
 1334000    1.0377375   -6.9435106    521.37745  0.032569806   0.03277584            2 
 1335000    1.0454138   -6.9121384    521.52054  0.032554341  0.032768925            2 
 1336000    1.0530824   -6.8907568    523.01769  0.032623359  0.032762024            3 
 1337000    1.0511859   -6.9310426     522.8969   0.03259143  0.032755041            3 
 1338000    1.0407667     -6.90804    524.13067  0.032643913  0.032748093            2 
 1339000    1.0539056   -6.9565994    524.74151   0.03265755   0.03274126            2 
 1340000    1.0358885   -6.9858352    524.75874   0.03263425  0.032734153            2 
 1341000     1.035399   -6.9470052    523.92606  0.032558169   0.03272714            2 
 1342000    1.0445208   -6.9323719    527.00413  0.032725045  0.032720396            2 
 1343000    1.0467993   -6.9503478    525.13786  0.032584876  0.032713664            2 
 1344000    1.0163359   -6.9176399    526.47562  0.032643578  0.032706747            3 
 1345000    1.0225641    -6.982611    525.29534   0.03254618  0.032699784            8 
 1346000    1.0377291   -6.9252761    527.98509  0.032688527   0.03269292            4 
 1347000     1.031368   -6.9558964    525.61164  0.032517424  0.032686143            2 
 1348000    1.0613408   -6.9325693    528.09069  0.032646556  0.032679322            3 
 1349000    1.0315366   -6.9710291    526.87194  0.032547068  0.032672296            2 
 1350000    1.0483032   -6.9059537    527.40102  0.032555618  0.032665406            3 
 1351000    1.0187267   -6.9284388    525.60799  0.032420922   0.03265853            7 
 1352000    1.0413803   -6.9866306    525.82489  0.032410312  0.032651518            3 
 1353000    1.0409785   -6.9455813    526.54549   0.03243074  0.032644414            3 
 1354000    1.0295294   -6.9785335    527.53728  0.032467828  0.032637465            3 
 1355000    1.0386995   -6.9178538    528.30873  0.032491312  0.032630495            2 
 1356000    1.0442209   -6.9183901    529.78374  0.032557998  0.032623458            3 
 1357000    1.0452945   -6.9538658    529.52111  0.032517877  0.032616507            3 
 1358000    1.0199832   -6.9231401    528.21728  0.032413922  0.032609597            3 
 1359000    1.0536556   -6.9401353    530.06276  0.032503235  0.032602765            3 
 1360000    1.0319462   -6.9328161    530.93915  0.032533036   0.03259602            1 
 1361000    1.0273092   -6.9676112    529.53764  0.032423319  0.032589272            3 
 1362000    1.0354562   -6.9560845    530.18536  0.032439143   0.03258254            2 
 1363000    1.0416377    -6.973779    532.11233  0.032533158   0.03257576            6 
 1364000    1.0278505    -6.900402    533.39126  0.032587442  0.032569067            2 
 1365000    1.0230755   -6.9567128    531.15317  0.032426934  0.032562413            2 
 1366000    1.0248037   -7.0009878    531.70236  0.032436699  0.032555679            2 
 1367000    1.0413487   -6.9451863     533.2642  0.032508181  0.032549057            6 
 1368000    1.0240495   -6.9147894    534.31535  0.032548449  0.032542401            2 
 1369000    1.0245219   -6.9343829    533.65136  0.032484256  0.032535957            3 
 1370000     1.027201   -6.9309438      533.554  0.032454623  0.032529385            2 
 1371000    1.0262293   -6.9726729     533.9854  0.032457173  0.032522648            4 
 1372000     1.037487   -6.9387719     534.4621  0.032462469  0.032516052            1 
 1373000    1.0462257   -6.9563518    533.56562  0.032384415  0.032509469            1 
 1374000    1.0339186   -6.9406129    534.64452  0.032426281  0.032503049            2 
 1375000     1.043579    -6.964761    534.26853  0.032379911  0.032496555            1 
 1376000    1.0234027   -6.9154928     535.4084  0.032425412  0.032489884            4 
 1377000    1.0144452   -6.9362649    534.55001  0.032349916  0.032483357            2 
 1378000    1.0243001    -6.966889    536.07631  0.032418742  0.032476656            2 
 1379000    1.0369122   -6.9533565    535.32738  0.032349975  0.032469741            2 
 1380000     1.017937   -6.9432878    535.94943  0.032364096  0.032462858            4 
 1381000     1.028278   -6.9846105    534.96533  0.032281277  0.032455903            1 
 1382000    1.0257597   -6.9344146    536.81508  0.032369457  0.032449128            2 
 1383000    1.0437584   -6.9548438    536.37884  0.032319766  0.032442504            2 
 1384000     1.016715   -6.9304205    538.04111  0.032396502  0.032435941            2 
 1385000    1.0311973   -6.9672682    536.43521  0.032276487  0.032429278            3 
 1386000    1.0213994   -6.9530799    538.88625  0.032400568  0.032422458            1 
 1387000    1.0357907   -6.9593952    536.36894  0.032225964  0.032415611            3 
 1388000    1.0188547   -6.9537337    537.77951  0.032287434  0.032408833            4 
 1389000    1.0116787   -6.9782138    539.13841  0.032345717  0.032401881            2 
 1390000    1.0467611   -6.9613489     536.1677  0.032144347   0.03239493            2 
 1391000    1.0094057   -6.9551412    538.90699  0.032285346  0.032387899            2 
 1392000    1.0443316   -6.9753141    538.40546  0.032232128  0.032380868            1 
 1393000    1.0573341   -6.9555206    539.05667  0.032247946   0.03237394            1 
 1394000    1.0477689   -6.9628043      538.984  0.032220469  0.032366993            3 
 1395000    1.0248205   -6.9757596     540.7883  0.032305155  0.032360068            3 
 1396000    1.0118281   -6.9551967    539.81074  0.032223659   0.03235304            3 
 1397000    1.0157905   -6.9672387    538.58012  0.032127184   0.03234596            5 
 1398000   0.99467669   -6.9534768    539.51156  0.032159726  0.032338979            3 
 1399000    1.0300761   -6.9591661     539.8219  0.032155224  0.032332002            3 
 1400000    1.0292011   -6.9784159    539.91798  0.032137975  0.032325047            3 
 1401000    1.0149359   -6.9434465    540.57565  0.032154155  0.032317958            2 
 1402000    1.0230076   -6.9541249    540.58083  0.032131528  0.032310951            3 
 1403000    1.0219037   -6.9700617    542.52047  0.032223834  0.032303843            2 
 1404000   0.99897655   -6.9632167    542.17771  0.032180538  0.032296892            1 
 1405000    1.0277273   -6.9652406      544.129  0.032273369  0.032290094            4 
 1406000    1.0450112   -6.9310697    542.76667   0.03216967  0.032283243            3 
 1407000   0.98888998   -6.9524097    542.53869  0.032133303  0.032276538            3 
 1408000    1.0385418   -6.9420582     541.4346  0.032045135  0.032269661            7 
 1409000    1.0189051   -6.9814307    542.81779  0.032104199  0.032262769            4 
 1410000    1.0254111   -7.0117748    542.01297  0.032033864  0.032255762            6 
 1411000    1.0277328   -6.9562211    544.16253  0.032138113  0.032248747            2 
 1412000    1.0350817   -6.9468825    544.89035  0.032158307  0.032241938            7 
 1413000    1.0229781   -6.9746867    546.56133  0.032234096  0.032235108            1 
 1414000    1.0319404   -6.9442563    544.97117  0.032117584  0.032228237            2 
 1415000    1.0294593   -6.9906673     545.1032  0.032102662  0.032221375            4 
 1416000    1.0203165   -6.9596604    546.28897  0.032149775  0.032214605            1 
 1417000    1.0073549   -6.9814822    544.47408  0.032020353  0.032207799            5 
 1418000    1.0073794   -6.9844833    544.91905  0.032023921   0.03220093            1 
 1419000    1.0360263   -6.9989775    544.17289  0.031957534  0.032193946            4 
 1420000    1.0329492   -7.0012611    546.86719  0.032093145  0.032187086            2 
 1421000    1.0292471   -6.9782593    548.29997  0.032154584  0.032180348            2 
 1422000    1.0210769   -6.9740204    546.47066  0.032024769  0.032173492            3 
 1423000    1.0195943   -6.9920944     546.6938  0.032015331  0.032166756            2 
 1424000    1.0112222   -6.9815184    547.75454  0.032054924  0.032159992            2 
 1425000    1.0291287   -6.9431261    548.48751  0.032075293  0.032153199            2 
 1426000      1.02624   -6.9771606    547.92989  0.032020213  0.032146513            3 
 1427000    1.0252745   -6.9873226    547.99449  0.032001547  0.032139758            3 
 1428000     1.029693   -6.9715367    550.00775  0.032096624   0.03213302            2 
 1429000    1.0167092   -6.9324868    550.32583  0.032092713  0.032126256            1 
 1430000    1.0548509   -6.9477436    549.25101  0.032007635  0.032119455            3 
 1431000    1.0209796   -6.9696859     549.1433  0.031978995  0.032112666            2 
 1432000    1.0370722   -6.9693843    550.51681  0.032036593  0.032105947            2 
 1433000    1.0320533   -6.9559627    550.90974  0.032037086  0.032099186            3 
 1434000    1.0314053   -6.9476869    550.40348  0.031985325  0.032092454            1 
 1435000    1.0094324   -6.9751323    551.25244  0.032012337  0.032085674            6 
 1436000    1.0091868   -6.9442111    550.69263  0.031957558  0.032078988            4 
 1437000    1.0259008   -6.9749021    550.17852  0.031905504  0.032072063            4 
 1438000    1.0260456   -6.9128807    553.75042  0.032090312  0.032065343            3 
 1439000    1.0135787   -7.0059823    552.47352  0.031994066  0.032058464            2 
 1440000    1.0230043   -6.9610357    551.23386  0.031900107  0.032051473            5 
 1441000    1.0124169   -6.9794191    551.51906  0.031894463  0.032044615            4 
 1442000    1.0073514   -6.9933647    552.39194  0.031922789  0.032037626            2 
 1443000    1.0345751   -6.9232592    553.23449  0.031949324  0.032030769            3 
 1444000    1.0303325   -6.9335643    554.09713  0.031976981   0.03202394            6 
 1445000    1.0092674   -6.9709907    552.45493  0.031860146   0.03201713            3 
 1446000     1.018851    -6.967688    553.62305  0.031905432   0.03201025            2 
 1447000   0.99962773   -6.9546209    554.21092  0.031917238  0.032003474            1 
 1448000    1.0355413   -6.9333915    552.90127  0.031819824  0.031996556            3 
 1449000    1.0075703   -6.9553028    553.51087  0.031832923  0.031989686            3 
 1450000    1.0249043   -6.9774766    555.87269  0.031946706  0.031982902            4 
 1451000    1.0343368   -6.9706014    554.49138  0.031845358  0.031976101            3 
 1452000    1.0112237     -6.94033    556.35093   0.03193015  0.031969206            2 
 1453000    1.0056264   -6.9622789    557.10239  0.031951272  0.031962412            7 
 1454000    1.0116645   -6.9459898    557.68459  0.031962665  0.031955648            4 
 1455000    1.0211623   -6.9857918    554.33567  0.031748893  0.031948826            3 
 1456000    1.0293426   -7.0106554    554.85554  0.031756842  0.031941831            1 
 1457000    1.0179037    -6.931473    554.99485  0.031743013  0.031934706            7 
 1458000    1.0240517   -6.9745983    554.83517  0.031712115  0.031927366            2 
 1459000    1.0270424   -6.9619066     555.1985  0.031711132   0.03191999            5 
 1460000    1.0397651   -6.9809569    555.23463  0.031691474  0.031912562            3 
 1461000   0.97156485   -6.9966112    554.43472  0.031624157  0.031905251            3 
 1462000    1.0150977   -6.9766247    556.24856  0.031705914  0.031897763            2 
 1463000     1.015534   -6.9766977    554.92006   0.03160857  0.031890386            2 
 1464000    1.0000942   -6.9733558    555.73287  0.031633246  0.031882849            2 
 1465000    1.0254429   -7.0131971    554.99484  0.031569672  0.031875438            3 
 1466000    1.0031297    -6.945811    556.36218  0.031625863  0.031868107            2 
 1467000    1.0175292   -6.9664935    557.18866  0.031651253  0.031860718            4 
 1468000     1.032123   -6.9962282    555.21749  0.031517796  0.031853316            2 
 1469000    1.0199553   -7.0109684    555.51106  0.031512994  0.031845885            3 
 1470000    1.0361501    -6.975713    557.92686  0.031628507  0.031838452            3 
 1471000   0.99896916   -6.9672803    558.88676  0.031661385  0.031831145            4 
 1472000    1.0001454   -6.9709937    557.89993  0.031584009  0.031823784            2 
 1473000    1.0290693    -6.988672    557.78016  0.031555791  0.031816311            1 
 1474000    1.0268971    -7.003986    559.45645  0.031629152  0.031808807            4 
 1475000    1.0354296   -6.9848786    559.32699  0.031600395  0.031801423            3 
 1476000    1.0065839   -6.9726759    559.14278  0.031568585  0.031793916            4 
 1477000    1.0335202   -6.9639999    557.01706  0.031427277  0.031786447            3 
 1478000    1.0034728    -6.987809    559.02463  0.031519205  0.031779088            1 
 1479000    1.0114112   -6.9925961    559.09047  0.031501604  0.031771617            4 
 1480000    1.0049827    -6.991275    559.87584   0.03152454    0.0317641            3 
 1481000    1.0376028   -6.9816087    559.02768   0.03145553  0.031756329            5 
 1482000    1.0464608   -6.9979857    559.72758  0.031473661  0.031748655            2 
 1483000    0.9863842   -7.0027715    559.93292  0.031463976  0.031740996            3 
 1484000    1.0045713   -6.9782472    559.33098  0.031408973   0.03173334            4 
 1485000    1.0167886   -6.9957122    557.77606  0.031300565  0.031725641            3 
 1486000   0.99835583   -6.9850372    561.29001  0.031476559  0.031717931            4 
 1487000    1.0036276   -7.0081082     560.7846  0.031427068  0.031710159            3 
 1488000   0.99931318   -7.0225324    560.17439  0.031371774  0.031702311            3 
 1489000    1.0152334   -6.9752746    561.77585  0.031440332  0.031694677            4 
 1490000    1.0223044   -6.9557373    560.94062  0.031372518  0.031686931            2 
 1491000   0.98455759   -7.0059688    562.04174  0.031413019  0.031679144            2 
 1492000     1.009101   -6.9759158    560.12932   0.03128515   0.03167132            8 
 1493000     1.016285   -7.0052894    561.92357  0.031364343  0.031663572            2 
 1494000    1.0037363   -6.9966638    562.39518  0.031369655   0.03165572            3 
 1495000    1.0232915   -6.9912663    562.32459  0.031344738  0.031647804            2 
 1496000   0.99551497   -6.9963385    562.35963  0.031325737  0.031639828            2 
 1497000   0.99237155   -6.9860258    564.34167  0.031415145  0.031632002            2 
 1498000    1.0277645   -6.9950658    560.99864  0.031208202  0.031624151            2 
 1499000    1.0004734   -6.9803443    562.80519  0.031287814  0.031616425            7 
 1500000   0.99615456   -6.9775342    563.87284  0.031326269  0.031608599            1 
 1501000    1.0009188    -6.972255    562.92019  0.031252509  0.031600847            3 
 1502000    1.0010225   -7.0118727    563.52013  0.031264987  0.031593128            3 
 1503000    1.0190209   -7.0247367    564.62193  0.031305274  0.031585379            1 
 1504000   0.99464476   -6.9940327    564.35769  0.031269819  0.031577696            5 
 1505000     1.009572   -7.0356295     563.5001  0.031201556  0.031569875            1 
 1506000   0.99383681   -6.9757629    565.78358  0.031307193  0.031562141            2 
 1507000    1.0293431   -6.9776677    566.85803  0.031345832  0.031554506            2 
 1508000   0.99806017   -6.9991919    566.49066  0.031304745  0.031546771            3 
 1509000    1.0220537   -6.9411703    566.34168  0.031275772  0.031539168            1 
 1510000    1.0337724   -7.0086381    566.03582   0.03123818  0.031531441            2 
 1511000    1.0111988   -6.9899139    565.25095   0.03117422  0.031523784            4 
 1512000   0.99997304   -6.9765143    566.54596  0.031224976     0.031516            5 
 1513000    1.0157009   -6.9659776    567.85386  0.031276375  0.031508246            1 
 1514000     1.013774   -7.0215832      565.693  0.031136779  0.031500526            5 
 1515000    1.0183465    -6.994417    567.23403  0.031200992  0.031492762            4 
 1516000    1.0254258   -6.9921716    567.26898  0.031182332  0.031485196            1 
 1517000    1.0124064   -7.0098847    568.89342  0.031251012  0.031477745            5 
 1518000    1.0103184    -6.961672    568.56285  0.031212278  0.031470273            5 
 1519000    1.0080066   -7.0140572    569.24329  0.031229059   0.03146282            2 
 1520000    1.0193612   -7.0007409    568.40479  0.031162543  0.031455405            9 
 1521000    1.0090796   -6.9630885    572.01366   0.03133978  0.031448045            1 
 1522000    1.0302474   -6.9803592    570.17928  0.031218752  0.031440697            6 
 1523000    0.9864964   -6.9633235    570.27413  0.031203443   0.03143329            5 
 1524000    1.0166813   -6.9834052    570.51114  0.031195929  0.031425836            3 
 1525000   0.99961635   -6.9567664    571.64494  0.031237429   0.03141834            1 
 1526000    1.0064318   -7.0074801    569.40025  0.031094378  0.031411004            2 
 1527000    1.0052139   -6.9917502    571.38373   0.03118226  0.031403728            3 
 1528000    0.9890622   -6.9854327     571.8999  0.031190003  0.031396408            3 
 1529000   0.99890461   -6.9924912    570.19087  0.031076459  0.031389239            2 
 1530000    1.0087616   -6.9979982    571.89025  0.031148706  0.031382053            2 
 1531000   0.99711213   -7.0184698    573.69211  0.031226438  0.031374828            2 
 1532000    1.0071601   -7.0042895    574.17493  0.031232318  0.031367477            3 
 1533000    1.0031995   -7.0071064    573.96494   0.03120053  0.031360195            2 
 1534000    1.0041324   -6.9941836    572.89972  0.031122323  0.031352854            2 
 1535000   0.99579043   -7.0046098    574.57585  0.031193043  0.031345551            3 
 1536000    1.0105397   -6.9902771    573.34465  0.031105938  0.031338288            3 
 1537000   0.98937912   -7.0476296    571.44082  0.030982478  0.031330744            3 
 1538000   0.97893856   -7.0384293    573.30025  0.031063082  0.031322967            2 
 1539000   0.99006527   -6.9830078    573.39258  0.031047898  0.031315389            2 
 1540000    1.0088091   -7.0248177    573.51329  0.031034269  0.031307862            2 
 1541000   0.97011068   -7.0314189    574.38764  0.031061412   0.03130042            4 
 1542000    1.0224787   -7.0227914    575.72911  0.031113765  0.031292935            2 
 1543000   0.99820972   -7.0607238    572.65164  0.030927395  0.031285258            7 
 1544000    1.0038692   -6.9675721    575.49882  0.031061033  0.031277632            3 
 1545000    1.0042389   -6.9730502    576.92268  0.031117728  0.031270237            3 
 1546000     1.010774    -7.007911    575.21723  0.031005672  0.031262781            3 
 1547000   0.98217558   -6.9526822    576.79471  0.031070605  0.031255216            1 
 1548000    1.0005587   -6.9721816    575.70133  0.030991674  0.031247821            4 
 1549000   0.99786855   -7.0312657    577.32352  0.031058937  0.031240431            2 
 1550000    1.0147038   -6.9815056    577.04588  0.031023972  0.031233107            2 
 1551000    1.0042763   -6.9925373    577.94999  0.031052546  0.031225702           14 
 1552000    1.0008524   -6.9934281    579.05592   0.03109192  0.031218614            7 
 1553000    0.9838343   -7.0172058    578.96557  0.031067051  0.031211514            2 
 1554000     1.003564   -7.0095743    579.47101  0.031074164  0.031204385            3 
 1555000   0.99859532   -7.0231995    577.39443  0.030942895  0.031197321            4 
 1556000   0.97905458   -6.9950126    581.11639  0.031122343   0.03119027            6 
 1557000    1.0036465   -7.0143337    581.78138  0.031137946  0.031183331            1 
 1558000   0.96684468   -7.0093036    580.36524  0.031042215  0.031176184            4 
 1559000   0.98138799   -7.0024158    581.60711  0.031088685  0.031169097            2 
 1560000    1.0017611   -7.0193218    580.15225  0.030991039  0.031162075            2 
 1561000    1.0037897   -6.9863421    582.50792  0.031096942  0.031154909            1 
 1562000    1.0108408   -6.9695058    581.72047  0.031035023  0.031147938            2 
 1563000   0.99331793    -7.021476    581.67375  0.031012676  0.031140858            4 
 1564000   0.98258411   -7.0337078    581.24269  0.030969879  0.031133734            2 
 1565000    1.0131181   -7.0013749    580.64483  0.030918255  0.031126632            2 
 1566000   0.99772149   -6.9935394    582.69231  0.031007466  0.031119631            3 
 1567000   0.99081892   -7.0188238    582.09161  0.030955733  0.031112556            3 
 1568000    1.0033793    -7.011483    582.92928   0.03098051  0.031105458            3 
 1569000    1.0279294   -7.0205951    583.16017  0.030973028  0.031098158            2 
 1570000    1.0066209   -6.9823607     582.9188  0.030940488  0.031090954            3 
 1571000    1.0130436   -7.0207155    583.10758  0.030930807  0.031083716            2 
 1572000    1.0127259   -7.0336725    583.47042  0.030930366  0.031076517            6 
 1573000   0.98117316   -6.9907462    585.01703  0.030992638  0.031069288            3 
 1574000     0.971244   -7.0034063    585.61007  0.031004345  0.031062317            6 
 1575000   0.99035616   -6.9640262    584.69286   0.03093613  0.031055265            5 
 1576000    1.0148253   -7.0325651     582.5567  0.030803548  0.031048114            4 
 1577000   0.99046899   -6.9691401    584.95585  0.030910793  0.031040928            3 
 1578000   0.97734175   -6.9961439    584.35357  0.030859398  0.031033839            3 
 1579000   0.99223689   -7.0411628    585.39636  0.030894889  0.031026663            1 
 1580000    1.0006285   -7.0123464      588.325    0.0310298    0.0310195            3 
 1581000    0.9941218   -7.0359263    584.92445  0.030830933  0.031012371            4 
 1582000    0.9917326   -6.9977918    586.04396  0.030870415    0.0310052            4 
 1583000   0.99627377   -7.0104086    585.87318  0.030841924  0.030998048            6 
 1584000    0.9858759   -7.0273572    585.97265  0.030827686  0.030990887            3 
 1585000   0.97695686   -7.0093589    585.71604  0.030794744  0.030983487            4 
 1586000    1.0103568   -7.0201619    586.45095  0.030813942  0.030976106            2 
 1587000   0.96936321   -7.0706762    585.53747  0.030746559  0.030968634            2 
 1588000   0.99052421    -6.998461    586.03752  0.030753438  0.030961207            2 
 1589000     1.012788   -7.0353588    584.00836  0.030627667  0.030953707            4 
 1590000    1.0084254   -7.0132883    586.44001   0.03073585   0.03094629            2 
 1591000   0.98816269   -7.0181253     587.6203  0.030778352  0.030938921            3 
 1592000   0.98643945    -6.986483    586.86892  0.030719688  0.030931544            4 
 1593000   0.98163136   -7.0329263    585.33719  0.030620276  0.030923986            3 
 1594000   0.99135855   -7.0255953    587.72944  0.030726131  0.030916486            4 
 1595000   0.99470782   -6.9935474    587.74443   0.03070765  0.030909005            4 
 1596000    1.0109348   -7.0663067    587.57692  0.030679664  0.030901459            8 
 1597000   0.98697937   -6.9623817    588.54097  0.030710758  0.030894066            1 
 1598000   0.99087907   -6.9931808    588.01155  0.030663931  0.030886777            3 
 1599000    1.0008524   -7.0378374    588.05901  0.030647228  0.030879532            3 
 1600000   0.99465111   -7.0315634    588.66336   0.03065955  0.030872195            3 
 1601000    0.9909223   -7.0450944    588.68857  0.030641712  0.030864823            7 
 1602000    1.0119599   -7.0435932    589.65169  0.030672685  0.030857592            3 
 1603000   0.99303825    -7.027468    589.86457  0.030664617  0.030850298            1 
 1604000   0.98876155   -7.0029352    590.68429  0.030688086  0.030843286            2 
 1605000   0.97451091   -7.0292304    591.51123  0.030711902  0.030836147            4 
 1606000   0.99803871     -7.00875    590.34259  0.030632139  0.030828894            4 
 1607000   0.99438402   -7.0115089    592.93383   0.03074745  0.030821698            3 
 1608000   0.98326498   -6.9930654    592.75817  0.030719225  0.030814592            3 
 1609000   0.99811305   -7.0266793    592.60021  0.030691952  0.030807393            1 
 1610000   0.95490136   -7.0361492    593.26775   0.03070744  0.030800327            3 
 1611000   0.99027181   -7.0314189    591.87231  0.030616196  0.030793209            4 
 1612000   0.99898339   -7.0177588    594.20109  0.030717591  0.030786101            3 
 1613000   0.98019641   -7.0335254    594.64043  0.030721246   0.03077902            4 
 1614000   0.98992148   -7.0258126    594.78768  0.030709814  0.030772077            2 
 1615000   0.99044357   -7.0163481    595.41619   0.03072323  0.030765169            4 
 1616000    1.0192075   -7.0159529    595.83632  0.030725883  0.030758319            2 
 1617000   0.98756222   -7.0533658    594.55253   0.03064072  0.030751236            2 
 1618000    1.0224527   -7.0202156    594.80057  0.030634558  0.030744237            2 
 1619000   0.98933471   -7.0230188    594.41391  0.030595733  0.030737104            3 
 1620000   0.98927908   -7.0212703    593.21314  0.030515079  0.030729978            2 
 1621000    1.0104929   -7.0281698    595.56369  0.030617093  0.030722913            4 
 1622000    1.0269936   -7.0050639    596.62498  0.030652743  0.030715984            3 
 1623000    1.0008631   -7.0171258    594.05134  0.030501712  0.030708948            2 
 1624000   0.99849578    -7.054994    595.50095  0.030557315  0.030701831            3 
 1625000   0.99442666   -7.0417947      594.653  0.030495026  0.030694724            2 
 1626000   0.97646175   -7.0458146    596.38976  0.030565281  0.030687572            3 
 1627000   0.99095584   -7.0313485    596.45111  0.030549637  0.030680474            4 
 1628000   0.97864432    -7.074047     596.6602  0.030541575  0.030673266            9 
 1629000    1.0004349   -7.0383185    597.05912  0.030543233  0.030666157           10 
 1630000   0.99144603   -7.0273156    595.75649  0.030457898  0.030659053            2 
 1631000    1.0034266   -7.0870262    594.13347  0.030356298  0.030651724            3 
 1632000   0.98569964   -7.0776705    596.26283  0.030446427  0.030644329            2 
 1633000   0.98952435   -7.0113424    597.59067  0.030495544  0.030636932            2 
 1634000    1.0115981   -7.0170245    598.40112  0.030518213  0.030629631            3 
 1635000   0.98543979     -7.03096    597.14144  0.030435343  0.030622204            4 
 1636000    1.0002849   -7.0527729    598.56685  0.030489346  0.030614995            4 
 1637000   0.98901781     -7.02525    598.14866  0.030449433  0.030607804            3 
 1638000    1.0078593   -7.0102939     599.9145  0.030520681  0.030600549            1 
 1639000   0.98504427   -7.0064023    598.89863  0.030450408  0.030593208            4 
 1640000   0.98694347   -7.0188168      597.855  0.030378811  0.030585842            2 
 1641000   0.98006894   -6.9947529    599.30821  0.030434096  0.030578517            3 
 1642000   0.97763169   -7.0366977    598.50971  0.030375036  0.030571119            7 
 1643000   0.98723032    -7.007765    599.60854  0.030412281  0.030563779            9 
 1644000   0.95464826   -7.0111813    598.68233  0.030346833  0.030556543            3 
 1645000    0.9902184   -7.0331213    599.85105  0.030387591  0.030549097            5 
 1646000   0.97026378   -7.0447365    601.00925  0.030427767  0.030541805            2 
 1647000   0.98691094   -7.0567436    598.56599   0.03028567  0.030534397            3 
 1648000   0.94010872   -7.0123901     599.9323  0.030336383  0.030527001            5 
 1649000   0.98318063   -7.0286968    599.22543  0.030282263  0.030519537            2 
 1650000   0.99393201   -7.0191375    599.75638  0.030290726  0.030512043            2 
 1651000   0.97984517   -7.0178468    600.91058  0.030330637  0.030504678            4 
 1652000    0.9919413   -7.0493031    598.36182  0.030183708  0.030497235            3 
 1653000   0.98135085   -7.0173348    601.57794  0.030327583  0.030489741            4 
 1654000   0.97944568   -7.0417706    601.89251  0.030325096   0.03048237            1 
 1655000   0.96396204   -7.0376376    601.61148  0.030292623  0.030475028            2 
 1656000   0.98713894   -7.0400161    601.24165  0.030255719   0.03046773            4 
 1657000   0.96201271    -7.032641    600.54933  0.030202642   0.03046042            2 
 1658000   0.98322983   -7.0176592    603.83232  0.030349433  0.030453209            4 
 1659000     0.985503   -7.0523361    602.46294  0.030262354  0.030446063            2 
 1660000    1.0107196   -7.0399935    603.93899  0.030318222   0.03043889            1 
 1661000   0.97879598   -7.0437565    604.89843  0.030348105  0.030431629            2 
 1662000   0.98041082   -7.0198451     604.0311  0.030286357  0.030424344            5 
 1663000   0.99667451   -7.0418578    603.03267  0.030218113   0.03041712            4 
 1664000   0.96776964   -7.0490094    604.96053  0.030296501  0.030409959            2 
 1665000   0.98984937   -7.0457139    603.85724  0.030223085  0.030402721            2 
 1666000   0.98731429   -7.0315033    604.97572   0.03026089  0.030395528            4 
 1667000   0.97855629   -7.0298647    605.32376  0.030260136  0.030388235            2 
 1668000    1.0009968   -7.0658619    603.76576  0.030164157  0.030380993            2 
 1669000   0.97852111   -7.0106221    607.32222  0.030323658  0.030373784            2 
 1670000   0.99392483   -7.0524294    605.68172  0.030223639  0.030366612            2 
 1671000   0.98539578   -7.1026891    604.64417  0.030153809   0.03035942            1 
 1672000   0.97653638   -7.0393729    607.50386  0.030278302  0.030352298            2 
 1673000    1.0034184   -7.0327661    605.49571  0.030160177  0.030345081            2 
 1674000   0.97263889    -7.055072    608.11281  0.030272442  0.030337975            1 
 1675000   0.97985501   -7.0480006    607.66659  0.030232169  0.030330809            4 
 1676000   0.98960759    -7.050813      606.716  0.030166865  0.030323627            3 
 1677000   0.99209426   -7.0181749    606.44767  0.030135543   0.03031648            5 
 1678000   0.98889004   -7.0432544    609.39343  0.030263877   0.03030946            5 
 1679000   0.98269262   -7.0372762    609.03921  0.030228272    0.0303024            2 
 1680000   0.98518748   -7.0543419    608.23813  0.030170542  0.030295308            3 
 1681000   0.96940756   -7.0391831    608.95582  0.030188173  0.030288157            3 
 1682000   0.99220635   -7.0531129    609.80616  0.030212354  0.030281009            3 
 1683000    0.9796343   -7.0409791    611.26307  0.030266541  0.030273991            1 
 1684000   0.98317035   -7.0378913    608.77968  0.030125677  0.030266929            2 
 1685000   0.98542864   -7.0399017    609.91941  0.030164165  0.030259754            3 
 1686000   0.98025926   -7.0354212    610.96201  0.030197806  0.030252603            2 
 1687000   0.96280136    -7.085573     609.0484  0.030085378  0.030245474            3 
 1688000   0.97918524   -7.0694588    609.64323  0.030096921  0.030238305            3 
 1689000    1.0082218   -7.0506065    610.73434  0.030132936  0.030231225            3 
 1690000   0.99467225   -7.0617935    611.17628  0.030136897  0.030224193            2 
 1691000    0.9720411   -7.0297261    611.73661  0.030146689  0.030217153            1 
 1692000   0.97745719   -7.0441776    611.65353   0.03012478  0.030210191            1 
 1693000   0.98777349   -7.0680803    611.36773  0.030092918  0.030203132            1 
 1694000    0.9808183   -7.0714488    611.56702  0.030084958  0.030195987            2 
 1695000   0.97554152   -7.0608872    610.16889  0.029998471  0.030188852            7 
 1696000   0.96329653   -7.0892999    611.23905  0.030033365  0.030181661            5 
 1697000   0.97625279   -7.0527447    612.27925  0.030066748  0.030174562            2 
 1698000   0.97717931   -7.0531022    612.42385  0.030056137  0.030167407            2 
 1699000   0.99166466   -7.0528194    613.00635  0.030067017  0.030160296            2 
 1700000   0.97084245    -7.025456    613.34132  0.030065751  0.030153209            2 
 1701000   0.97972776   -7.0537289    612.83868  0.030023451  0.030146082            3 
 1702000   0.98130578   -7.0544922    612.51014  0.029989725   0.03013892            3 
 1703000   0.95475275   -7.0229157    615.24017  0.030105704  0.030131777            4 
 1704000   0.97253536   -7.0555197    615.11342  0.030081838  0.030124642            5 
 1705000   0.98027741   -7.0716503    614.77612  0.030047709  0.030117662            4 
 1706000   0.98924331   -7.0223799    614.29229  0.030006462  0.030110617            3 
 1707000    0.9643213   -7.0605696    613.67805  0.029958897  0.030103507            2 
 1708000   0.97026277   -7.0702826     613.3443  0.029925073  0.030096378            5 
 1709000   0.98168542   -7.0665961    614.67354  0.029972379  0.030089205            2 
 1710000   0.95122559    -7.066164    614.40738   0.02994188   0.03008195            2 
 1711000   0.98210302   -7.0375589    614.28961  0.029918645  0.030074665            3 
 1712000   0.96968653    -7.052252    615.51072  0.029960607  0.030067473            2 
 1713000   0.97985464   -7.0330812     613.4356  0.029842168  0.030060293            6 
 1714000    1.0027233   -7.0720572    615.36856  0.029918736  0.030053128            3 
 1715000    1.0012537   -7.0544492     616.2718   0.02994518  0.030045887            3 
 1716000   0.95975954   -7.0675286     615.2218  0.029876738  0.030038642            4 
 1717000   0.99561194   -7.0961912    615.99471  0.029896851  0.030031492            2 
 1718000    0.9719318   -7.0415202    618.83071  0.030017011  0.030024276            4 
 1719000   0.99590189    -7.097658    615.58659  0.029842282  0.030017139            3 
 1720000   0.97872915   -7.0494482    617.52111  0.029918659  0.030010067            4 
 1721000   0.98744936    -7.073699    618.31458  0.029939695  0.030002945            3 
 1722000   0.97902211   -7.0544744    616.84227  0.029851058  0.029995704            2 
 1723000   0.97808283   -7.0715658    617.71369   0.02987588  0.029988616            2 
 1724000   0.98356659   -7.0576249     618.5947  0.029901136  0.029981477            3 
 1725000   0.96271958   -7.0983229    615.96244   0.02975664  0.029974329            3 
 1726000   0.95619986   -7.0545578    617.53177  0.029815169  0.029967072            2 
 1727000   0.99424112   -7.0484248    617.47957  0.029795385   0.02995988            4 
 1728000   0.99014284   -7.0779948    617.36049    0.0297724  0.029952663            2 
 1729000   0.98445741    -7.067936    619.51812  0.029859173  0.029945382            3 
 1730000   0.98669766   -7.0820454    618.58203  0.029796822  0.029938098            4 
 1731000   0.97686783   -7.0513058    617.53184  0.029729051  0.029930843            3 
 1732000   0.97959657    -7.068094    617.63103  0.029716659  0.029923514            1 
 1733000   0.96746038   -7.0949264    617.97758  0.029716175  0.029916197            3 
 1734000   0.98222166   -7.0545519    619.00994  0.029748651  0.029908888            2 
 1735000   0.95729008   -7.0784412    619.01106  0.029731559  0.029901554            2 
 1736000   0.96449262   -7.0579444    620.03179  0.029763431  0.029894301            3 
 1737000   0.99407793   -7.0684183    620.81425  0.029783835  0.029886949            4 
 1738000   0.96719069   -7.0148432     620.8024   0.02976613  0.029879565            3 
 1739000   0.98619743   -7.0636499    620.54672  0.029736761  0.029872302            3 
 1740000    0.9448459   -7.0584216    619.94334  0.029690773  0.029865007            2 
 1741000   0.98672484   -7.0553373    619.95248  0.029674156  0.029857687            8 
 1742000   0.97931555   -7.0561976    620.32899  0.029675133  0.029850413            3 
 1743000   0.99080783   -7.0852717    618.97991  0.029593608  0.029842935            5 
 1744000   0.97298574   -7.0569944    619.88321  0.029619802  0.029835554            4 
 1745000    0.9656763   -7.0529415    620.02147   0.02960943  0.029828178            3 
 1746000   0.94529474   -7.0929766    620.39173  0.029610144   0.02982076            2 
 1747000   0.97556702   -7.1152831    620.09722  0.029579146  0.029813301            2 
 1748000   0.97684924   -7.1101652    619.57652  0.029537401  0.029805774            7 
 1749000   0.95826169   -7.0715657    619.56196  0.029519819  0.029798299            3 
 1750000   0.97853327   -7.0707018    621.61636  0.029600779  0.029790851            5 
 1751000   0.96484615   -7.0613209    622.50578  0.029626203  0.029783389            2 
 1752000   0.97209743   -7.0299429    624.48308  0.029703343   0.02977601            2 
 1753000   0.97454755   -7.0935888    622.00807  0.029568743  0.029768633            2 
 1754000   0.96867936   -7.0705225    621.10638  0.029509045  0.029761238            6 
 1755000   0.95196047   -7.1007585    621.45644  0.029508853  0.029753848            2 
 1756000   0.98251415   -7.0747257    623.13379  0.029571649  0.029746331            3 
 1757000   0.95660642   -7.0662219    623.07925  0.029552231   0.02973879            5 
 1758000   0.97339709    -7.059511    623.85365   0.02957213  0.029731355            3 
 1759000   0.98090401   -7.0396361    623.59023  0.029542838  0.029723917            2 
 1760000   0.99773961   -7.0678519    621.86248  0.029444246  0.029716407            3 
 1761000   0.96182195    -7.103662    622.53172  0.029459195  0.029708811            7 
 1762000   0.98347266   -7.0767681    623.31022  0.029479295  0.029701269            3 
 1763000   0.96455461   -7.0877711    623.48354  0.029470767  0.029693692            2 
 1764000   0.97806785   -7.0829173    622.44852  0.029405164  0.029686093            2 
 1765000    0.9862477   -7.0846119    624.21523  0.029471919  0.029678522            5 
 1766000   0.97535347   -7.0728539    623.98478  0.029444355  0.029670972            3 
 1767000    0.9627241   -7.0711101    623.21557  0.029391415  0.029663377            5 
 1768000   0.95801136   -7.0834632    624.42191  0.029431651  0.029655757            2 
 1769000    0.9808206   -7.1087786    623.78582  0.029385049  0.029648106            3 
 1770000   0.96439846   -7.0764964    625.04352  0.029427661  0.029640573            2 
 1771000   0.97261388   -7.0919311    623.65806  0.029345853  0.029632956            6 
 1772000   0.98658821   -7.0630674    623.07104  0.029301685  0.029625208            4 
 1773000   0.97226616   -7.0659756    623.77173  0.029318092   0.02961757            1 
 1774000   0.97327621   -7.0759633    624.76511  0.029348229  0.029609835            3 
 1775000   0.99224872    -7.049442      623.825  0.029287559  0.029602194            5 
 1776000   0.97542067   -7.0791303    624.88065  0.029320601  0.029594394            1 
 1777000   0.96034505   -7.0803757    623.92621  0.029259342  0.029586667            3 
 1778000   0.95175913   -7.0484342    625.66456  0.029324361  0.029578913            2 
 1779000   0.96730253   -7.0599448    624.31167  0.029244504  0.029571129            3 
 1780000   0.97289324   -7.0724362    624.62676  0.029242826  0.029563315            4 
 1781000   0.99185724   -7.0787504    624.57813  0.029224131  0.029555659            3 
 1782000   0.97383596   -7.0452974    624.91174  0.029223332  0.029547899            4 
 1783000   0.97930887   -7.1070789    626.54854  0.029283443  0.029540103            2 
 1784000   0.94846558   -7.0603929    626.68685  0.029273489  0.029532376            2 
 1785000   0.98043289    -7.093459    626.64162  0.029254978  0.029524668            2 
 1786000   0.96708712    -7.088616    625.05167  0.029164412  0.029516959            2 
 1787000   0.97725636   -7.0676502    626.56975  0.029218884  0.029509161            2 
 1788000   0.98555536   -7.0632446    627.45517  0.029243809  0.029501346            3 
 1789000   0.96475681   -7.1122649    625.72088  0.029146678  0.029493529            8 
 1790000    0.9514625     -7.08882    627.30114  0.029203964  0.029485684            2 
 1791000    0.9544435   -7.0293287     627.7465   0.02920838  0.029477854            3 
 1792000   0.94967534   -7.0514827    629.07865   0.02925403  0.029470082            4 
 1793000   0.98662726   -7.0737007    629.01836  0.029234912   0.02946239            2 
 1794000   0.95547893   -7.0679536    627.92206  0.029167691  0.029454679            5 
 1795000   0.96621323   -7.0761945    629.20747  0.029211117  0.029446907            3 
 1796000   0.95628068   -7.0468515    628.94811  0.029182819  0.029439201            4 
 1797000   0.95630003   -7.0642897     629.5608  0.029194992  0.029431445            5 
 1798000    0.9667955   -7.1226827    629.54162  0.029177865  0.029423658            2 
 1799000   0.95548689    -7.060638    630.38873  0.029200886  0.029415861            5 
 1800000   0.99589449   -7.0804944    628.90179  0.029115823  0.029408173            3 
 1801000   0.94574952   -7.0708967    629.92103  0.029146818  0.029400425            3 
 1802000   0.95416921   -7.0880623    629.44242   0.02910851  0.029392694            4 
 1803000   0.95261961   -7.0971097    628.97678  0.029070844  0.029385082            6 
 1804000   0.96053855   -7.0997172    630.21701   0.02911202  0.029377453            5 
 1805000    0.9517901   -7.1131845    629.28839  0.029053019  0.029369673            3 
 1806000   0.94417783   -7.1070662    630.94264  0.029113263  0.029361966            2 
 1807000   0.94400071   -7.0698222    631.76176  0.029134927  0.029354382            2 
 1808000   0.96128521   -7.1044872    630.98173   0.02908286  0.029346764            4 
 1809000    0.9691453   -7.0964928    632.62632  0.029142543  0.029339149            5 
 1810000   0.97638435   -7.0970253    632.72062  0.029130784  0.029331429            2 
 1811000   0.96765278   -7.0839993    631.72927  0.029069081  0.029323758            2 
 1812000   0.95534248   -7.1079689    632.56681  0.029091557  0.029316131            2 
 1813000    0.9586112   -7.0889454    630.88504  0.028998209  0.029308482            4 
 1814000   0.95890196   -7.1164071    632.69112  0.029065193  0.029300844            3 
 1815000   0.94123934   -7.1155422    632.16387  0.029024971  0.029293184            4 
 1816000   0.96432056    -7.068631    633.29041  0.029060683   0.02928552            5 
 1817000   0.96441612   -7.1005389    632.41069  0.029004343  0.029277758            2 
 1818000    0.9720487     -7.11734    632.35939  0.028986037  0.029270103            2 
 1819000   0.95587494    -7.064279    634.06912   0.02904843  0.029262517            5 
 1820000   0.97381078   -7.0958235    633.60059  0.029011016     0.029255            1 
 1821000   0.95836579   -7.0712786    635.14419  0.029065724  0.029247424            3 
 1822000   0.96037577   -7.1127153    633.63196  0.028980606  0.029239842            3 
 1823000   0.96287114    -7.068552    634.18514  0.028989995  0.029232293            3 
 1824000   0.94577986   -7.0503934    634.95571  0.029009307  0.029224695            3 
 1825000   0.96529935   -7.1106758    634.64947  0.028979428  0.029217155            2 
 1826000   0.94925083   -7.0858041    634.92717  0.028976231  0.029209476            2 
 1827000   0.97201441   -7.0754493    633.61132  0.028900352  0.029201761            4 
 1828000   0.96840961   -7.0830397    637.01732  0.029039812  0.029194177            2 
 1829000   0.95122485   -7.1038141    633.64993  0.028870509  0.029186525            5 
 1830000   0.95781462   -7.0863966    634.03498  0.028872267  0.029178788            3 
 1831000   0.94071802    -7.123358    635.97935  0.028944991  0.029171151            6 
 1832000   0.94533142   -7.1142764    635.36089  0.028901059  0.029163461            3 
 1833000   0.97228458   -7.0900768    638.91369  0.029046812  0.029155894            2 
 1834000   0.97194932   -7.0961697    638.39323  0.029007326  0.029148319            3 
 1835000   0.97464388   -7.0922182    636.48252  0.028904747  0.029140741            4 
 1836000   0.96104614   -7.1044525     637.0574  0.028915096  0.029133014            5 
 1837000   0.98072504   -7.1136383    636.75074  0.028885444  0.029125449            2 
 1838000   0.98341606   -7.1067779    637.73835  0.028914506  0.029117858            6 
 1839000   0.95492691    -7.122374    636.62799  0.028848468  0.029110268            3 
 1840000   0.96657412   -7.1032183    636.10023  0.028808887  0.029102634            3 
 1841000   0.94722334   -7.1082686    637.93139  0.028876127  0.029095022            3 
 1842000   0.98490213   -7.0878488     637.8777  0.028858021  0.029087452            1 
 1843000   0.95085709   -7.1136815    639.72131  0.028925724  0.029079886            4 
 1844000   0.96807455   -7.1106703    639.29555  0.028890797  0.029072365            3 
 1845000   0.95655894   -7.1227219    638.42254  0.028835707  0.029064824            2 
 1846000   0.96378948   -7.0888179    640.32782  0.028906095  0.029057318            1 
 1847000   0.97017819   -7.1258201    638.82776  0.028822765  0.029049821            4 
 1848000   0.96760201   -7.1392138    638.99915  0.028814897   0.02904225            3 
 1849000   0.95195692   -7.1142756    641.45757  0.028910112  0.029034774            2 
 1850000   0.96428439   -7.0969446    639.61565  0.028811516  0.029027291            2 
 1851000   0.95489122   -7.1153685    640.27476  0.028825624  0.029019814            3 
 1852000   0.95905897   -7.0939687    640.61729  0.028825472  0.029012309            2 
 1853000   0.94075073   -7.1255293    640.25183   0.02879348  0.029004786            2 
 1854000   0.97020333   -7.1390867    638.63482  0.028705269  0.028997214            3 
 1855000   0.95916644   -7.1058935    641.74236  0.028829396   0.02898963            3 
 1856000    0.9442836   -7.0965265    640.84972  0.028773784  0.028982174            5 
 1857000   0.99350698   -7.0955105    641.90887  0.028805819  0.028974736            4 
 1858000   0.98336874   -7.1297772    641.26543  0.028761456  0.028967273            2 
 1859000     0.946144   -7.1089519    642.76746  0.028813316  0.028959785            2 
 1860000   0.96840245   -7.0886922     641.3665  0.028735058  0.028952284            5 
 1861000   0.95722465   -7.0977211    640.22479  0.028668493  0.028944685            3 
 1862000     0.963242   -7.0740478    642.83212  0.028769787  0.028937129            2 
 1863000   0.96642136   -7.1025517    642.39093   0.02873461  0.028929582            6 
 1864000   0.96081272   -7.0748182    642.74126  0.028734856  0.028922026            3 
 1865000   0.92891889   -7.1435424    641.30868  0.028655437  0.028914479            3 
 1866000   0.93305059   -7.1118404    643.11302   0.02872066  0.028906922            2 
 1867000   0.95854408   -7.1214724    641.64262  0.028639646  0.028899438            3 
 1868000   0.97048789   -7.1234702     643.9136  0.028725625   0.02889203            4 
 1869000   0.97665297   -7.1142358    644.59851  0.028740793  0.028884535            3 
 1870000   0.97193808   -7.0805948    644.17845  0.028706705  0.028877134            5 
 1871000   0.94553054   -7.0794296    644.69681  0.028714449   0.02886973            4 
 1872000   0.96350774   -7.1143104    645.55523  0.028737323  0.028862297            2 
 1873000   0.94475396   -7.1345072    643.83964   0.02864565  0.028854802            2 
 1874000   0.95012964    -7.078365    646.11197  0.028731411  0.028847364            5 
 1875000   0.97506683   -7.0703429    645.38556  0.028683803  0.028839965            1 
 1876000    0.9624615   -7.1212273    643.62678  0.028590387  0.028832513            1 
 1877000   0.92577943   -7.0936072    645.04988  0.028638336  0.028825055            1 
 1878000   0.96345114    -7.115216    644.89044  0.028616012  0.028817566            3 
 1879000   0.95953337   -7.1060176    646.05436  0.028652402  0.028810129            2 
 1880000   0.97025368   -7.1142885     646.8872  0.028674078  0.028802847            2 
 1881000   0.94561317   -7.1100493    646.40838  0.028637621  0.028795437            7 
 1882000   0.95833654   -7.1319751    645.61462  0.028587258  0.028787983            2 
 1883000   0.96900478   -7.0989636    648.96123  0.028720182  0.028780531            6 
 1884000   0.95759619   -7.0991568    646.60502  0.028600718  0.028773076            3 
 1885000   0.95351121   -7.1350785    645.51074  0.028537168  0.028765565            2 
 1886000   0.96780529   -7.1020358     646.2533  0.028554847  0.028758053            3 
 1887000   0.95956742   -7.1113342    646.37948  0.028545287  0.028750635            3 
 1888000   0.96479785   -7.1080816    648.45169  0.028621632  0.028743222            2 
 1889000   0.94721301   -7.1050978    648.23288  0.028596827  0.028735744            3 
 1890000   0.94890812   -7.0978431    648.30828  0.028585021  0.028728302            3 
 1891000   0.96074657   -7.1274126    646.62037  0.028495521  0.028720814            6 
 1892000   0.96559527   -7.1088079    648.89507   0.02858065  0.028713391            4 
 1893000   0.94877731   -7.1164629    648.18209  0.028534165  0.028705936            2 
 1894000   0.94528679   -7.1085276    648.80281   0.02854641  0.028698495            2 
 1895000   0.93912091   -7.1400748    647.91547  0.028492325  0.028691013            3 
 1896000    0.9253625   -7.1275538    647.98807  0.028480488  0.028683355            2 
 1897000   0.93678409   -7.1231539    646.39908  0.028395672  0.028675683            6 
 1898000   0.94717564   -7.1310176    647.74007  0.028439589  0.028668001            3 
 1899000   0.94140895   -7.1525158    647.47456  0.028412961  0.028660406            8 
 1900000   0.94392805   -7.1375692    649.13861  0.028470992  0.028652831            4 
 1901000   0.93459263    -7.120693    648.72514   0.02843789  0.028645278            4 
 1902000   0.96261553   -7.0729588    650.20347  0.028487709  0.028637789            4 
 1903000   0.94709991   -7.1251991     647.8313  0.028368861  0.028630312            4 
 1904000   0.94575666   -7.1411786    646.34432   0.02828888  0.028622758            2 
 1905000    0.9525589   -7.1113913    649.15354  0.028396918  0.028615154            4 
 1906000   0.93932291   -7.1117119    648.98859  0.028374807   0.02860756            5 
 1907000   0.95146741   -7.1200016    647.75178  0.028305881  0.028599929            6 
 1908000   0.94460865   -7.1056051    649.42872  0.028364287   0.02859227            2 
 1909000   0.95185671   -7.1585254    648.29802  0.028300071  0.028584609            2 
 1910000   0.94955612   -7.1495525    648.67859  0.028301858  0.028576907            4 
 1911000   0.94839821   -7.1163709    649.80577  0.028336201  0.028569232            8 
 1912000   0.94570584   -7.1388088    650.39323  0.028346985  0.028561489            4 
 1913000   0.95265569   -7.1044681    649.45958  0.028291496   0.02855384            4 
 1914000    0.9426796   -7.0985235    649.54209  0.028280307  0.028546221            6 
 1915000   0.94973302   -7.1055816    651.62866  0.028356339  0.028538601            2 
 1916000   0.95224053    -7.134316    650.68339  0.028300426   0.02853103            5 
 1917000   0.95755307   -7.1351864    650.77862  0.028289802  0.028523485            4 
 1918000    0.9434628   -7.1168944    650.43875  0.028260287  0.028515858            5 
 1919000   0.93946804   -7.1325355    652.20281  0.028322165  0.028508255            3 
 1920000   0.94833219   -7.1297768    652.69691  0.028328859  0.028500576            3 
 1921000   0.94047974   -7.1397189    651.93265  0.028280958  0.028492956            4 
 1922000   0.93485241    -7.132109    652.24375  0.028279733  0.028485339            5 
 1923000   0.96212114   -7.1183214    650.95993  0.028209392   0.02847774            2 
 1924000    0.9310898   -7.1357152    653.05352  0.028285409  0.028470218            2 
 1925000   0.95210119   -7.1445906    652.08319   0.02822871  0.028462641            1 
 1926000   0.94009047   -7.1575944    653.16048  0.028260665     0.028455            5 
 1927000   0.96288374    -7.120976    653.13275    0.0282448   0.02844737            4 
 1928000   0.92804362   -7.1256903    653.10856  0.028229104  0.028439745            2 
 1929000   0.97452712   -7.1541138    651.88148   0.02816146  0.028432132            3 
 1930000    0.9343646   -7.1407616    653.11554  0.028200153  0.028424542            4 
 1931000   0.93513995   -7.1560198    652.46045  0.028157278  0.028416978            3 
 1932000   0.94501985   -7.1310122    654.98518  0.028251604  0.028409438            3 
 1933000   0.94452028   -7.1656017    655.01248  0.028238165  0.028401884            3 
 1934000   0.94692074   -7.1546926    653.63104   0.02816404  0.028394216            5 
 1935000   0.93044945   -7.0964074    654.86159   0.02820248  0.028386681            3 
 1936000    0.9250562    -7.123339    654.18724  0.028158886  0.028379115            4 
 1937000    0.9625528   -7.1052956    656.43375  0.028240998  0.028371483            5 
 1938000   0.93653267    -7.125111    654.56335  0.028145999  0.028363955            2 
 1939000   0.94777753   -7.1167281    652.62342   0.02804811  0.028356386            3 
 1940000   0.94049923   -7.1461808     654.7451  0.028124789  0.028348841            3 
 1941000   0.94442302   -7.1298974    653.80567  0.028069967  0.028341214            2 
 1942000   0.95224119   -7.1280733    656.33471  0.028164037  0.028333625            3 
 1943000   0.94005611   -7.1175072    654.24481  0.028059908  0.028325999            2 
 1944000   0.94964349   -7.1366164    656.00694  0.028121011  0.028318411            1 
 1945000   0.93513066   -7.1609589    655.69511  0.028093192  0.028310766            4 
 1946000    0.9520631   -7.1397738    656.29028  0.028104243  0.028303204            3 
 1947000    0.9294146   -7.1185068    657.16007  0.028127036  0.028295631            3 
 1948000   0.95209919   -7.1841315     652.8201  0.027926938  0.028288002            1 
 1949000   0.94433866   -7.1170105    656.76847  0.028081429  0.028280389            2 
 1950000   0.93818006   -7.1032855    656.87547  0.028071601  0.028272861            2 
 1951000   0.90995064   -7.1356256    656.21852  0.028029153  0.028265256            2 
 1952000   0.93188883   -7.1470678    655.74846  0.027994726  0.028257592            3 
 1953000   0.91583277   -7.1508189    654.56305  0.027929811  0.028249917            5 
 1954000   0.92029151   -7.1515779     658.1208  0.028067247  0.028242274            3 
 1955000   0.92577665   -7.1465033     658.3856  0.028064177  0.028234735            3 
 1956000   0.95448014   -7.1391566    656.95448  0.027988858  0.028227205            4 
 1957000   0.95026726   -7.1370298    657.03824  0.027978123  0.028219696            3 
 1958000    0.9187465   -7.1485121    659.08256  0.028050841  0.028212147            2 
 1959000   0.94208262   -7.1375978    659.00097  0.028033051  0.028204605            3 
 1960000   0.93736077   -7.1560305    660.54555   0.02808442  0.028197074            3 
 1961000   0.94574671   -7.1575936    659.53894  0.028027322  0.028189543            4 
 1962000    0.9426369   -7.1698523    658.27055  0.027959164  0.028182003            5 
 1963000   0.95917582   -7.1348581    659.74565  0.028007542    0.0281746            3 
 1964000   0.92535317   -7.1439349    659.59142  0.027986737  0.028167213            4 
 1965000   0.92832846   -7.1616347    659.48996  0.027968192  0.028159758            5 
 1966000     0.946398   -7.1282413    660.77191  0.028008304    0.0281523            3 
 1967000   0.92211034   -7.1340231    660.41759  0.027979054  0.028144847            3 
 1968000   0.95504532   -7.1491265    661.74591  0.028021083   0.02813747            4 
 1969000   0.94986142   -7.1510242    660.33991  0.027947347  0.028130048            4 
 1970000   0.95676668    -7.170326    661.26978  0.027972495  0.028122636            2 
 1971000    0.9502194    -7.165018     661.7221  0.027977427  0.028115173            2 
 1972000   0.93236063   -7.1451883    662.79688  0.028008658  0.028107822            4 
 1973000   0.93819945   -7.1533667    662.83195  0.027995943  0.028100456            3 
 1974000   0.95281456   -7.1291378    661.16796  0.027911515  0.028093089            5 
 1975000   0.91797181   -7.1578585    660.75388   0.02787991  0.028085723            7 
 1976000   0.93631366   -7.1740923    662.34591  0.027932941  0.028078307            3 
 1977000   0.90436777   -7.1552776    661.12193   0.02786722  0.028070853            4 
 1978000   0.92007105   -7.1252186    663.65541  0.027959867  0.028063389            4 
 1979000   0.91087915   -7.1634385    662.85537   0.02791205  0.028055936            2 
 1980000   0.93232293   -7.1507608    664.46762  0.027965809  0.028048484            3 
 1981000   0.92890523    -7.150894    662.22231   0.02785724  0.028040966            3 
 1982000   0.93880204    -7.200742    660.94846  0.027789626  0.028033465            3 
 1983000   0.92994103    -7.200595    661.45521  0.027796908   0.02802586            4 
 1984000   0.95660804   -7.1549515    662.82422  0.027840399  0.028018351            3 
 1985000   0.96251086   -7.1165062    662.45882  0.027811034  0.028010892            4 
 1986000   0.94187044   -7.1401834     664.6771   0.02789011  0.028003379            5 
 1987000   0.94906034   -7.1515604    663.49771  0.027826611   0.02799591            2 
 1988000   0.93644944   -7.1850034    663.79357  0.027825016  0.027988421            3 
 1989000   0.93369296    -7.110074    664.76429  0.027851696  0.027981015            3 
 1990000   0.95633328   -7.1699128    664.56358  0.027829296    0.0279736            5 
 1991000   0.92622572   -7.1302467    664.68909  0.027820571   0.02796622            2 
 1992000   0.92801906    -7.127555    664.46567  0.027797259  0.027958908            3 
 1993000   0.96631402   -7.1661518     665.5655  0.027829298  0.027951543            2 
 1994000   0.92118295   -7.1539402    666.43894  0.027851845  0.027944194            2 
 1995000   0.94121219   -7.1109363    666.68956  0.027848353  0.027936867            3 
 1996000   0.91669188   -7.1662302    666.17877  0.027813075  0.027929643            8 
 1997000   0.94309468   -7.1580867    666.73728  0.027822454  0.027922374            4 
 1998000   0.92987338   -7.1397729    666.41491  0.027795083  0.027915022            3 
 1999000   0.94125964   -7.1442007    667.12797  0.027810904  0.027907702            3 
 2000000   0.91538302   -7.1172474    666.34666  0.027764444  0.027900393            3 
 2001000   0.94349705    -7.168142     665.3294  0.027708204  0.027893054            3 
 2002000   0.91315965   -7.1547982    666.80123  0.027755629  0.027885667            4 
 2003000   0.91767588   -7.1425733    669.36136  0.027848284  0.027878365            7 
 2004000   0.93769061   -7.1652738    667.94337  0.027775423  0.027871047            6 
 2005000   0.94674621   -7.1764564    665.27719  0.027650756  0.027863685            3 
 2006000   0.92949515   -7.1786686     666.2058  0.027675549  0.027856232            2 
 2007000   0.92110148   -7.1661132    668.23139  0.027745864  0.027848866            2 
 2008000    0.9353567   -7.1681901    667.46763   0.02770035  0.027841508            4 
 2009000    0.9212823   -7.1704044    669.18015  0.027757597  0.027834225            9 
 2010000   0.92877144   -7.1162011    668.90314  0.027732303  0.027826924            5 
 2011000   0.94433343   -7.1508578    669.58506   0.02774677  0.027819618            3 
 2012000   0.91292824   -7.1167326    670.48494  0.027770251  0.027812375            3 
 2013000   0.90518218   -7.1859262    668.44486  0.027672001  0.027805105            4 
 2014000   0.94316519   -7.1469953    669.23666  0.027691024  0.027797779            3 
 2015000   0.92484647   -7.1185247    670.25582   0.02771943  0.027790448            2 
 2016000   0.94415174   -7.1922798    668.74824  0.027643363  0.027783113            2 
 2017000   0.92584266   -7.1516778     671.2151  0.027731578  0.027775849            2 
 2018000   0.93987327   -7.1545219    669.42951  0.027644099  0.027768612            3 
 2019000   0.95326803    -7.160559    669.59711  0.027637325  0.027761416            4 
 2020000   0.92775281   -7.1538236    672.47485  0.027742362  0.027754285            7 
 2021000   0.91212721   -7.1647998    669.22628  0.027594684  0.027747146            3 
 2022000   0.93727812   -7.1493026     672.2897   0.02770729  0.027739923            4 
 2023000   0.93595636   -7.1611217    671.69259  0.027668998  0.027732742            2 
 2024000   0.93168101   -7.1817569    669.73446  0.027574706  0.027725534            3 
 2025000   0.91806054   -7.1516403    671.96537  0.027652896  0.027718288            2 
 2026000   0.91604576   -7.1446799    672.21632  0.027649569  0.027711046            2 
 2027000   0.93343226   -7.1625044    672.80519  0.027660138  0.027703875            6 
 2028000   0.93143348   -7.1609436    673.98024  0.027694783  0.027696709            3 
 2029000   0.92096179   -7.1347248    674.77991  0.027713977  0.027689573            2 
 2030000   0.92808643   -7.1614109    671.30265   0.02755758  0.027682368            2 
 2031000   0.92345026    -7.136183    674.10923  0.027659168   0.02767515            4 
 2032000   0.91043659    -7.197851    671.25485  0.027528496  0.027667964            3 
 2033000   0.93191041   -7.1767423    672.65507  0.027572351   0.02766068            5 
 2034000   0.93160253   -7.1575119    673.26601  0.027583825  0.027653445            4 
 2035000   0.92168249   -7.1991797    671.20582  0.027485906  0.027646236            3 
 2036000   0.90921003   -7.1432199    672.32836  0.027518351  0.027638956            4 
 2037000   0.91872208   -7.1622756     672.7405  0.027521703  0.027631655            7 
 2038000   0.93524616   -7.1555194    672.91636  0.027515389  0.027624381            1 
 2039000   0.93259825   -7.1933294    671.42772  0.027441055  0.027617046            4 
 2040000   0.92587499   -7.1891842    674.17809  0.027539955  0.027609611            3 
 2041000   0.93233637   -7.1816967    673.25739  0.027488869  0.027602244            5 
 2042000   0.93405952   -7.2065662    674.15292  0.027511954  0.027594896            3 
 2043000   0.92117333   -7.1807558    672.97653  0.027450503   0.02758756            2 
 2044000   0.91902098   -7.1553732    673.79229  0.027470331  0.027580168           12 
 2045000     0.919974   -7.1671064    674.04782  0.027467311   0.02757282            1 
 2046000   0.90740902   -7.1512091    673.89383  0.027447615  0.027565475            2 
 2047000   0.93501571   -7.1743827    674.44727  0.027456736  0.027558056            3 
 2048000   0.94330145   -7.2280826     673.0894  0.027388078   0.02755066            3 
 2049000   0.94013419   -7.1545224    675.67113  0.027479711  0.027543357            3 
 2050000   0.92108263   -7.1619585     675.1547  0.027445313  0.027536078            3 
 2051000   0.92538098   -7.1391835    676.05739  0.027468608  0.027528789            3 
 2052000   0.92297874   -7.1397175    676.29677  0.027464944  0.027521536            2 
 2053000   0.92027461   -7.1608156    677.57326   0.02750338  0.027514361            5 
 2054000   0.93219529   -7.2006671    674.06019   0.02734746  0.027507121            2 
 2055000   0.89931111   -7.1461854    674.92716  0.027369309  0.027499804            4 
 2056000      0.90212   -7.1699035    677.02126  0.027440875  0.027492546            3 
 2057000   0.92370402   -7.1603308    677.33889  0.027440402  0.027485418            2 
 2058000   0.92190137   -7.1574987    677.35944  0.027427901  0.027478316            5 
 2059000   0.91523614   -7.1951109     674.9289   0.02731621  0.027471114            2 
 2060000   0.90828056   -7.1744361     677.7756  0.027418107  0.027463909            3 
 2061000   0.95692195   -7.1666561    676.92177   0.02737028  0.027456689            6 
 2062000   0.89741432    -7.166376    677.04141  0.027361842  0.027449519            4 
 2063000   0.92466043   -7.1790362    678.40063  0.027403483  0.027442331            2 
 2064000   0.91386601   -7.1332761    680.38003  0.027470124  0.027435222            3 
 2065000   0.92984894   -7.1808151    680.01014  0.027441894  0.027428172            2 
 2066000    0.9230523   -7.1795917    679.30243  0.027400066  0.027421105            4 
 2067000    0.9235923   -7.1706133    679.02087  0.027375458   0.02741386            1 
 2068000   0.92027118   -7.1659371    678.43973  0.027338803  0.027406629            3 
 2069000   0.91680835   -7.1802272    678.05956  0.027310277  0.027399462            5 
 2070000   0.93201688   -7.1870996    679.17433  0.027341962  0.027392255            3 
 2071000   0.92133957   -7.1625357    679.32524  0.027334832  0.027385085            3 
 2072000   0.93461978    -7.113972    680.07289  0.027351709  0.027377959            2 
 2073000   0.91824334   -7.1747666    677.57535  0.027238115  0.027370782            2 
 2074000   0.90977554   -7.2028408    679.65618   0.02730859   0.02736354            9 
 2075000   0.91356829   -7.1593607    678.26035  0.027239371  0.027356318            2 
 2076000   0.91251594   -7.1722519    679.51956  0.027276797  0.027349104            3 
 2077000   0.93500557   -7.2084384    677.90305  0.027198806  0.027341848            3 
 2078000   0.93681882    -7.182087    679.11181  0.027234192  0.027334592            4 
 2079000   0.91787615   -7.1900473     679.6522  0.027242753  0.027327363            4 
 2080000   0.92571531   -7.1915235     678.6562  0.027189752  0.027320108            2 
 2081000   0.89950453   -7.1810206    680.21706   0.02723919  0.027312751            3 
 2082000    0.9252804   -7.1726484    682.01259  0.027297974  0.027305646            5 
 2083000   0.92117659   -7.1669135    678.79807  0.027156268  0.027298508            2 
 2084000   0.90897586   -7.2195344    678.33213  0.027124605    0.0272912            3 
 2085000   0.89710674   -7.2108867    680.21801  0.027186971  0.027283873            6 
 2086000   0.90032529   -7.1757601    679.70163  0.027153309  0.027276613            3 
 2087000   0.91537569    -7.166616    680.81464   0.02718474  0.027269406            3 
 2088000   0.90825482   -7.1567591    681.06211  0.027181598  0.027262113            2 
 2089000   0.90056201   -7.1480571    682.75582   0.02723615  0.027254869            2 
 2090000   0.91566357   -7.1695562    683.80464  0.027264938  0.027247642            2 
 2091000   0.93866502   -7.1690096    681.13768  0.027145612  0.027240456            3 
 2092000   0.90681984   -7.1831605    682.89118  0.027202485  0.027233261            3 
 2093000   0.91175175   -7.1838069    683.43592  0.027211177  0.027226085            3 
 2094000   0.90759112   -7.1689969     684.0502  0.027222628  0.027218934            2 
 2095000   0.90232375   -7.1647196    683.76404  0.027198252  0.027211757            4 
 2096000   0.89454122    -7.195945    680.05114  0.027037657  0.027204515            3 
 2097000   0.95012738   -7.2104853    682.05597  0.027104434  0.027197257            2 
 2098000   0.93169223   -7.1799741    682.38024  0.027104395   0.02719002            3 
 2099000   0.93485091      -7.2006     681.3896  0.027052152  0.027182689            3 
 2100000   0.92949085   -7.1900969    682.66656  0.027089943  0.027175385            2 
 2101000   0.91770155   -7.1678257    684.15298  0.027136006  0.027168054            3 
 2102000   0.92033783   -7.2285013    680.87302  0.026993063  0.027160761            3 
 2103000   0.92394238   -7.1557738    684.84874  0.027137769  0.027153525            7 
 2104000   0.92760009   -7.2089155    680.66024  0.026958977  0.027146307            1 
 2105000   0.92321208   -7.1903606     683.9974  0.027078282  0.027139025            2 
 2106000   0.91564475   -7.1905347    683.40351  0.027041924  0.027131773            3 
 2107000   0.93517322   -7.1982329    684.10233  0.027056729  0.027124539            5 
 2108000   0.89249859   -7.1860606    686.23029  0.027128016  0.027117302            3 
 2109000   0.92390592   -7.1999149    683.96439   0.02702562  0.027110071            2 
 2110000   0.90378725   -7.2143506     684.7945  0.027045596  0.027102839            4 
 2111000   0.92324561   -7.1765883    682.78579  0.026953489  0.027095553            4 
 2112000   0.92281676   -7.2252414    683.34289  0.026962709  0.027088321            2 
 2113000   0.91522855   -7.2151135    683.04469  0.026938188  0.027081056            6 
 2114000    0.9048245    -7.201572      686.626  0.027066619  0.027073849            5 
 2115000   0.91456725   -7.2286938     683.4926  0.026930362  0.027066511            2 
 2116000   0.92349243   -7.2072351    683.92157  0.026934529  0.027059101            2 
 2117000   0.90984708   -7.1906903    683.99562  0.026924721  0.027051741            2 
 2118000   0.91136342   -7.1984023    686.05074  0.026992868  0.027044434            3 
 2119000   0.91726829   -7.2039026    682.18599  0.026828142  0.027037159            3 
 2120000    0.9053222    -7.190559    686.30751  0.026977496  0.027029929            7 
 2121000    0.9055843   -7.1936711    685.47463  0.026932054  0.027022737            5 
 2122000   0.91346763   -7.2093598    685.78226  0.026931443  0.027015501            2 
 2123000   0.91985457   -7.1835031    687.07593  0.026969537  0.027008255            3 
 2124000   0.90413486   -7.1815484    686.70728  0.026942376   0.02700104            2 
 2125000    0.9155358   -7.2000759    685.91118  0.026898478  0.026993841            4 
 2126000   0.91921091   -7.2162094    685.62298  0.026874529   0.02698661            3 
 2127000   0.89736056   -7.1751446    687.71889  0.026944009  0.026979382            2 
 2128000    0.9148331   -7.1631653    687.66341  0.026929175  0.026972218            6 
 2129000   0.93663117   -7.1924502    685.17239  0.026819023  0.026965059            7 
 2130000   0.90091226    -7.171482    689.18443  0.026963397  0.026957847            3 
 2131000   0.89985565   -7.1911964    686.84836  0.026859391  0.026950551            5 
 2132000   0.90989191    -7.189971    687.74946  0.026882015  0.026943277            3 
 2133000   0.90418399   -7.1755626    689.00373  0.026918414  0.026936087            4 
 2134000   0.91234345   -7.1726186    688.71873  0.026894671  0.026928951           10 
 2135000    0.9074371    -7.169863    689.44242  0.026910321  0.026921814            4 
 2136000    0.9241782   -7.2161131     687.5615  0.026824341  0.026914626            2 
 2137000   0.88174099    -7.186286    687.61052    0.0268137  0.026907496            5 
 2138000   0.92739098   -7.1714432    691.42924  0.026950001  0.026900383            4 
 2139000   0.92238277   -7.2026456    690.09502  0.026885422  0.026893285            2 
 2140000   0.90924654   -7.1808276     689.5603  0.026852037  0.026886201            9 
 2141000   0.88710769   -7.2054001    690.19579   0.02686423  0.026879085            2 
 2142000   0.92022643   -7.2037299    688.80342  0.026797519  0.026871922            3 
 2143000   0.90793275   -7.2008344    688.14197  0.026759293  0.026864761            2 
 2144000   0.89873068   -7.2371465    687.80517  0.026733721  0.026857613            3 
 2145000   0.94058484   -7.2228679    689.38975  0.026782819  0.026850433            5 
 2146000   0.91178432   -7.2616083    688.08543  0.026719689  0.026843239            4 
 2147000   0.88392708   -7.2003967    691.03964  0.026821908  0.026836095            3 
 2148000   0.91562011   -7.1708734    693.07063  0.026888215  0.026828987            3 
 2149000   0.91732722    -7.195922    693.01416  0.026873513  0.026821941            5 
 2150000   0.90702639   -7.1545929    693.70853  0.026887928  0.026814979            3 
 2151000   0.91089026   -7.2038312    690.74429  0.026760588  0.026807971            4 
 2152000   0.94028669   -7.1946892    692.90611  0.026831866  0.026800958            3 
 2153000   0.91348702   -7.1957992    691.78234  0.026775907  0.026793943            4 
 2154000    0.9159913   -7.2366551    691.24035  0.026742508  0.026787005            5 
 2155000   0.89332995   -7.2010449    694.04408  0.026838518  0.026780083            3 
 2156000   0.91675564    -7.196404    695.33813  0.026876087  0.026773119            4 
 2157000    0.9015746   -7.2119522    694.48226  0.026830562  0.026766227            2 
 2158000   0.89435162   -7.2008375     693.5849  0.026783476  0.026759331            1 
 2159000   0.91802296   -7.2158124    693.55237  0.026769815   0.02675243            5 
 2160000   0.89732814   -7.2033851      692.711  0.026724962  0.026745524            4 
 2161000   0.91534009   -7.1925565    694.87526  0.026796053  0.026738579            3 
 2162000   0.91430447   -7.2117149    693.12167  0.026716068  0.026731605            6 
 2163000   0.90214803   -7.2479725    693.44623  0.026716221  0.026724601            2 
 2164000   0.90730188   -7.2231457    693.15264  0.026692569  0.026717639            2 
 2165000   0.90253071    -7.214952    694.99692  0.026751229  0.026710716            6 
 2166000   0.88783891   -7.2016721    695.63854  0.026763564  0.026703803            3 
 2167000   0.92748594   -7.2234593    696.28468  0.026776061  0.026696774            2 
 2168000   0.89704988   -7.2200259    695.16074  0.026720508  0.026689771            3 
 2169000   0.90430146   -7.2228191    692.99762  0.026625081   0.02668273            4 
 2170000   0.90077995   -7.2183109    694.66937  0.026677011  0.026675663            3 
 2171000   0.89844975   -7.2221837    692.77969  0.026592188   0.02666861            7 
 2172000   0.89322941   -7.2226328    695.42066  0.026681272  0.026661534            6 
 2173000    0.9136587    -7.184069    696.26258   0.02670128  0.026654519            5 
 2174000   0.90497096   -7.2003553    695.20797  0.026648573  0.026647457            7 
 2175000   0.91737204   -7.2263519    693.72527  0.026579512  0.026640383            4 
 2176000   0.91088366   -7.2494357    694.52286  0.026597842  0.026633302            2 
 2177000   0.92710367    -7.250581    693.14572  0.026532909  0.026626124            2 
 2178000   0.91059936   -7.2528353    693.58463   0.02653752  0.026618992            4 
 2179000   0.91282288    -7.171538    695.48668  0.026598083  0.026611966            3 
 2180000   0.87702807   -7.2295196    696.63007   0.02662959  0.026604969            2 
 2181000   0.93020858   -7.1898862     697.2781   0.02664214  0.026597981            2 
 2182000   0.89031193    -7.232696    694.63902  0.026529141  0.026590969            4 
 2183000   0.92499959   -7.1958067     696.1228   0.02657363  0.026583938            2 
 2184000   0.91275019   -7.2225157    696.73818  0.026584943  0.026576898            4 
 2185000   0.89024197   -7.2226067     694.9703  0.026505351  0.026569825            4 
 2186000   0.91656651   -7.2078158    697.76833  0.026599891  0.026562817            4 
 2187000   0.91710345   -7.1805648    698.95345  0.026632886  0.026555831            4 
 2188000    0.8991185   -7.2087347    695.80094  0.026500645  0.026548811            7 
 2189000   0.88705284   -7.2259759     696.7924  0.026526283  0.026541759            3 
 2190000   0.91349289   -7.1987562    697.41404  0.026537825   0.02653471            4 
 2191000   0.88360113   -7.2509645    696.16906  0.026478361  0.026527654            6 
 2192000   0.90836145   -7.2132694     698.1403  0.026541222  0.026520622            1 
 2193000   0.87480413   -7.2031157    697.35102  0.026499127  0.026513583            2 
 2194000   0.91681769   -7.2007201    696.37685  0.026450048  0.026506576            7 
 2195000   0.90163909   -7.2079587    698.89451   0.02653358  0.026499568            1 
 2196000   0.89407987   -7.2364888     697.1072  0.026453673  0.026492569            3 
 2197000   0.91861768     -7.22645    696.03198  0.026400849  0.026485487            6 
 2198000   0.92583493   -7.2202802     699.5921  0.026523813  0.026478376            2 
 2199000   0.90198257   -7.2352446    696.77481  0.026404988   0.02647126            8 
 2200000   0.88567185   -7.2628234    696.64315  0.026387998  0.026464147            3 
 2201000   0.90345505   -7.1960166    699.05972  0.026467504  0.026457056            2 
 2202000   0.87245119    -7.237059    698.48941  0.026433901  0.026450094            4 
 2203000   0.90396215    -7.204223    699.50176  0.026460197  0.026443065            3 
 2204000   0.91688917   -7.2163047    698.88994  0.026425058  0.026435982            2 
 2205000   0.91761219   -7.2286294    699.79134   0.02644714  0.026428926            4 
 2206000   0.89814363   -7.2076203    700.52372  0.026462818  0.026421843            4 
 2207000   0.89946699    -7.247917    698.87862  0.026388711  0.026414828            3 
 2208000   0.89847326   -7.2523031    700.46413  0.026436599  0.026407818            2 
 2209000   0.90750962   -7.2161266    701.22855  0.026453469  0.026400848            6 
 2210000   0.89201048   -7.2317727    698.71553   0.02634674  0.026393774            5 
 2211000   0.92247391   -7.2307681    698.01491  0.026308417  0.026386682            4 
 2212000   0.89310014   -7.2273628     699.4626  0.026351062   0.02637957            2 
 2213000   0.87757596   -7.2355814     700.0564  0.026361515  0.026372415            2 
 2214000   0.88193158   -7.2447635    698.84483  0.026304006  0.026365307            4 
 2215000   0.89345993   -7.2542845    698.21446  0.026268415  0.026358171            6 
 2216000   0.90892447   -7.2367943    700.89227   0.02635726  0.026351012            3 
 2217000   0.89851697   -7.2254403     699.3077   0.02628581  0.026343939            2 
 2218000    0.8968585   -7.2430649    699.32476    0.0262746  0.026336827            3 
 2219000    0.8813009   -7.2441706    701.57596  0.026347302  0.026329716            5 
 2220000   0.90780484    -7.256742    698.72853  0.026228549  0.026322593            3 
 2221000   0.89850774   -7.2157018    700.32822   0.02627676  0.026315461            5 
 2222000   0.88754129   -7.2232106    701.60601  0.026312857  0.026308391            2 
 2223000    0.8940815   -7.2388059    701.53412  0.026298325  0.026301334            6 
 2224000   0.88918542   -7.2092061    702.08131  0.026307003  0.026294321            3 
 2225000    0.8880195   -7.2219787    702.66146  0.026316909  0.026287265            3 
 2226000   0.90558504   -7.2275791    703.70612  0.026344195  0.026280287            2 
 2227000   0.89340643   -7.2314546    704.07203  0.026346057  0.026273329            3 
 2228000   0.88976686   -7.2497311     701.8709  0.026251904  0.026266312            2 
 2229000   0.90435053   -7.1894106    704.15122  0.026325378  0.026259375            3 
 2230000   0.89352787    -7.227682    704.16812  0.026314205  0.026252437            2 
 2231000   0.91039061    -7.246906    703.19397  0.026266023  0.026245438            1 
 2232000   0.89857709    -7.233787    703.09854  0.026250692   0.02623844            4 
 2233000   0.89492766   -7.1996135     704.7242  0.026299604  0.026231532            7 
 2234000    0.9023618   -7.2330914    705.28425  0.026308723  0.026224652            3 
 2235000   0.88996266   -7.2835595    704.16383  0.026255176  0.026217731            8 
 2236000   0.89572788   -7.2212774    705.34046  0.026287286  0.026210853            6 
 2237000   0.89296368   -7.2528166    705.30602  0.026274252  0.026203937            4 
 2238000   0.88245986   -7.2174699     705.8245  0.026281818  0.026197056            3 
 2239000   0.89471827   -7.2303647    704.48524  0.026220234  0.026190188            2 
 2240000   0.91046881   -7.2247899     706.1407  0.026270115  0.026183359            2 
 2241000   0.89306492    -7.268204     707.0447  0.026292009  0.026176535            6 
 2242000   0.88997695   -7.2174336    706.15775  0.026247314  0.026169667            2 
 2243000   0.87666377   -7.2379283    706.45796  0.026246766  0.026162829            6 
 2244000   0.91751385   -7.2156571     707.2478  0.026264402  0.026155943            4 
 2245000    0.9105288   -7.2508224    706.09904  0.026210061  0.026149107            3 
 2246000   0.89843397   -7.2709671    704.83715  0.026151571  0.026142211            5 
 2247000   0.87977102   -7.2433816    706.40275  0.026197996  0.026135292            2 
 2248000   0.90292573   -7.2420227    705.92226   0.02616853  0.026128377            2 
 2249000    0.8895533   -7.2520921    707.70521  0.026222959  0.026121465            4 
 2250000   0.89236789   -7.2463937     706.3561  0.026161337  0.026114605            1 
 2251000   0.88866713   -7.2647778    706.84282  0.026167733  0.026107722            5 
 2252000   0.86782421   -7.2261708    706.60311  0.026147244   0.02610093            3 
 2253000    0.9014745   -7.2465375    707.70908  0.026176546  0.026094122            3 
 2254000   0.90018347    -7.226365    708.13586   0.02618071  0.026087305            4 
 2255000   0.90344325   -7.2562557    707.66783  0.026151805   0.02608046            3 
 2256000   0.87582679   -7.2566561    707.25639  0.026125014  0.026073585            9 
 2257000   0.87814861   -7.2517995    708.27595  0.026151083  0.026066667            2 
 2258000   0.88675797   -7.2482369    707.50273  0.026110966  0.026059806            3 
 2259000   0.90399895   -7.2576552    707.86526  0.026112781  0.026052963           11 
 2260000   0.89100436   -7.2455278    708.74679  0.026133731  0.026046164            4 
 2261000   0.88293987   -7.2594127    707.87858  0.026090173  0.026039373            3 
 2262000   0.89283287   -7.2744839    709.71773  0.026146394  0.026032582            5 
 2263000   0.88350323   -7.2469019    710.86558  0.026177109    0.0260258            3 
 2264000    0.8911679   -7.2716267    708.86936   0.02609207  0.026019009            6 
 2265000    0.8753058    -7.234745    708.91616  0.026082272  0.026012251            4 
 2266000   0.86875699   -7.2401346    708.58901  0.026058731  0.026005468            2 
 2267000   0.89341595   -7.2394718    708.52928  0.026045041   0.02599866            6 
 2268000   0.87093577   -7.2420955    710.18249  0.026094301  0.025991809            7 
 2269000   0.87683291   -7.2885105    708.34259  0.026015226  0.025984968           10 
 2270000   0.89835203   -7.2619919    709.33221  0.026040096  0.025978057            3 
 2271000   0.89758095   -7.2574764    710.03905  0.026054567   0.02597113            3 
 2272000   0.87987169   -7.2465093    711.32191  0.026090152  0.025964306            3 
 2273000   0.86670296   -7.2680627    710.32845  0.026042251  0.025957529            5 
 2274000   0.90384088   -7.2369774    709.80304  0.026011545  0.025950698            2 
 2275000   0.89145558   -7.2364537    709.90289  0.026003769  0.025943828            3 
 2276000   0.88899676   -7.2452287    710.19671  0.026003102  0.025936986            5 
 2277000   0.88501429   -7.2182028    710.59442  0.026006237  0.025930152            2 
 2278000    0.9080011   -7.2488519    710.05728  0.025975171  0.025923281            5 
 2279000   0.91906969   -7.2526676    711.97653  0.026033952  0.025916435            5 
 2280000   0.87059535   -7.2564037     711.6639  0.026011108  0.025909542            4 
 2281000   0.88516924   -7.2505631    712.42677  0.026027575  0.025902715            5 
 2282000   0.89387212   -7.2540208    712.47572  0.026017956  0.025895886            2 
 2283000   0.88325294   -7.2529574    710.52412  0.025935323  0.025889027            2 
 2284000    0.8917198   -7.2701175    710.31057  0.025916177  0.025882161            4 
 2285000   0.88183652   -7.2553839    711.94715   0.02596452  0.025875338            6 
 2286000   0.85615339   -7.2651413    709.63105  0.025868732  0.025868471            3 
 2287000   0.88619288   -7.2639091    710.17205  0.025877133  0.025861583            4 
 2288000   0.88804148   -7.1963708    711.63133  0.025918973  0.025854713            2 
 2289000   0.87641501   -7.2450697    711.08458  0.025887745  0.025847854            4 
 2290000   0.88749432   -7.2586009    711.66746  0.025897651  0.025840894            3 
 2291000   0.89299299   -7.2806662    709.65249  0.025813054  0.025833975            2 
 2292000   0.89146844   -7.2324018    712.54216  0.025906856  0.025827036            3 
 2293000   0.90216888   -7.2103497    712.73081  0.025902414  0.025820114            3 
 2294000   0.89413009   -7.2478037    711.66788  0.025852509  0.025813175            4 
 2295000   0.88393222   -7.2532061     711.5518   0.02583703  0.025806258            5 
 2296000   0.88891246    -7.254519    711.73997  0.025832606  0.025799269            2 
 2297000   0.88251601   -7.2579904    712.52675  0.025849904  0.025792322            2 
 2298000   0.91319136   -7.2628252    711.48945  0.025801039  0.025785346            2 
 2299000   0.87659375   -7.2805588    710.66371  0.025759885  0.025778333            2 
 2300000   0.87128758   -7.2923804    712.21832  0.025805011  0.025771254            3 
 2301000   0.88357632   -7.2698653    711.10749  0.025753567   0.02576423            5 
 2302000   0.89528836   -7.2551644    712.53423  0.025794028  0.025757127            4 
 2303000   0.89836275   -7.2724662    711.65719  0.025751092  0.025750092            4 
 2304000   0.88637367   -7.2736434    710.77322  0.025707943  0.025743063            2 
 2305000   0.88310752   -7.2499274    713.36548  0.025790509  0.025736076            4 
 2306000   0.88607918   -7.2614358    712.46409  0.025746751  0.025729098            2 
 2307000   0.88219793   -7.2826846    713.05925  0.025757089  0.025722122            2 
 2308000   0.88134353   -7.2509741    712.92954  0.025741246  0.025715126            3 
 2309000   0.88703282   -7.2853752    712.56435  0.025716917  0.025708113            3 
 2310000   0.88344423   -7.2884328    711.62072  0.025671743  0.025701037            4 
 2311000   0.87640429   -7.2807949    711.14839  0.025643603  0.025693946            3 
 2312000     0.880686   -7.2613582     713.2187  0.025707133  0.025686927            3 
 2313000   0.87769179   -7.2836674    712.55157  0.025671983  0.025679975            3 
 2314000   0.89383527   -7.2321642    713.02664  0.025677998  0.025672915            3 
 2315000   0.87756501   -7.2250682    714.22097  0.025709898  0.025665938            2 
 2316000   0.88165442   -7.2545599    714.16633  0.025696831   0.02565899            1 
 2317000   0.88950595   -7.2643274     712.8335  0.025637804  0.025652035            3 
 2318000   0.86631663    -7.278991    712.91741   0.02562976  0.025644997            3 
 2319000   0.84351227   -7.3158646    713.35914  0.025634582  0.025637955           10 
 2320000   0.88667692   -7.3049432    714.49062  0.025664174  0.025630904            3 
 2321000    0.8688511   -7.2665788    713.80802  0.025628609  0.025623854            4 
 2322000   0.89436788   -7.2700453    715.00172  0.025660412  0.025616762            2 
 2323000   0.88402287   -7.2733441    712.75477  0.025568761  0.025609707            5 
 2324000   0.88062632   -7.2551215    715.55837  0.025658289  0.025602677            2 
 2325000   0.86618117   -7.2855917    713.96905  0.025590289   0.02559567            3 
 2326000   0.86330793   -7.2540536    712.07717  0.025511506  0.025588638            6 
 2327000   0.87541762   -7.2903997    713.55431  0.025553442  0.025581531            9 
 2328000   0.88037754     -7.30283     712.8699  0.025517966  0.025574446            7 
 2329000   0.88727188   -7.3049565    714.02641   0.02554839  0.025567386            5 
 2330000   0.88945664   -7.2900985     714.1575  0.025542114  0.025560371            6 
 2331000   0.89237633   -7.2749497    713.56132  0.025509843   0.02555335            3 
 2332000   0.88499545   -7.2611183    715.10431  0.025554042  0.025546375            6 
 2333000   0.88506811   -7.2511153    717.50182  0.025628726   0.02553938            3 
 2334000   0.88585695   -7.2706714    716.13786  0.025569047  0.025532413            6 
 2335000   0.88315328   -7.2589572    717.29359  0.025599343  0.025525506            2 
 2336000    0.8830418   -7.2664889    715.30777  0.025517543  0.025518668            7 
 2337000   0.87610666   -7.2614554    716.38267  0.025544953  0.025511756            3 
 2338000   0.86781112   -7.2654462    716.00421  0.025520538  0.025504812            2 
 2339000   0.88202583   -7.2545326     716.9947  0.025544916  0.025497917            3 
 2340000   0.87887397    -7.288464    715.05862   0.02546505  0.025491061            3 
 2341000   0.86657578   -7.3071327    717.31527  0.025534504  0.025484111            4 
 2342000   0.87870883   -7.2773728    718.03562  0.025549232  0.025477167            4 
 2343000   0.89137576   -7.2868901    716.29323  0.025476356  0.025470207            3 
 2344000   0.88802567   -7.2720064    718.04328  0.025527705  0.025463264           12 
 2345000   0.87957764    -7.285412    717.52142  0.025498274  0.025456225            8 
 2346000   0.87832186   -7.2916648    715.45298  0.025413931  0.025449196            3 
 2347000   0.88152004   -7.2359657    719.53893   0.02554818  0.025442216            3 
 2348000    0.8787762   -7.2513674    718.16704  0.025488609  0.025435195            3 
 2349000   0.85903229   -7.2428905    717.40616  0.025450765  0.025428173            2 
 2350000   0.88641856   -7.2766178      716.666  0.025413688  0.025421133            2 
 2351000   0.87087633   -7.2934339    717.08074  0.025417579  0.025414113            3 
 2352000   0.89510946   -7.2616751    717.43983  0.025419495  0.025407111            2 
 2353000   0.85326375    -7.252529    718.67102  0.025452296  0.025400103            2 
 2354000   0.86405708    -7.263782     717.3307  0.025394035  0.025393079            3 
 2355000   0.88294454   -7.3045117    718.28255  0.025416934   0.02538599            4 
 2356000   0.85661043   -7.2526613    716.69221  0.025349894  0.025378869            2 
 2357000   0.88666682   -7.2830154    717.96366  0.025384092  0.025371779            4 
 2358000   0.85927999   -7.2521824    718.71186  0.025399769  0.025364796            6 
 2359000   0.87573522    -7.288734    718.36262  0.025376664    0.0253578            4 
 2360000   0.87063982   -7.2396182    718.33382  0.025364895  0.025350719            3 
 2361000   0.86447603   -7.2812033    717.16167  0.025312779  0.025343697            3 
 2362000   0.88626045   -7.2830117    716.87987  0.025292121  0.025336629            2 
 2363000   0.87204631   -7.2739977    717.49002  0.025302935  0.025329563            4 
 2364000   0.87190172   -7.2588382    719.12671  0.025349926  0.025322565            3 
 2365000   0.85384593   -7.2860665    718.09406  0.025302821  0.025315525            3 
 2366000   0.87673113   -7.2805361    719.79547  0.025352052  0.025308489            3 
 2367000   0.88077176   -7.2808864    717.66657  0.025266391  0.025301512            5 
 2368000   0.87000548   -7.2776188    719.38895  0.025316334  0.025294471            6 
 2369000    0.8965381   -7.2997491    717.60248  0.025242806  0.025287436            2 
 2370000   0.87994348   -7.2915176    718.46002  0.025262307  0.025280421            3 
 2371000   0.87676112   -7.2543832    717.62399  0.025222269    0.0252734            3 
 2372000   0.86710427   -7.2512627    720.76448  0.025321968  0.025266412            4 
 2373000   0.87692307   -7.2958841    719.35641  0.025261849  0.025259382            3 
 2374000   0.86164714   -7.2666453    719.84924  0.025268507  0.025252344            3 
 2375000   0.87641686   -7.3075525    719.78348  0.025255561  0.025245337            4 
 2376000   0.87587966   -7.3018202    718.65693   0.02520542   0.02523832            4 
 2377000   0.85875752   -7.2986958    718.39142  0.025185507  0.025231226            4 
 2378000   0.88591132   -7.2583556    720.05064  0.025233061  0.025224135            3 
 2379000   0.87102583   -7.3118301    717.73469   0.02514133   0.02521706            3 
 2380000   0.85736655   -7.2773354    721.03293  0.025246251   0.02520996            5 
 2381000   0.86307581   -7.2715717    720.14369  0.025204525  0.025202918            6 
 2382000   0.87067398   -7.2793714      719.591  0.025174608   0.02519589            4 
 2383000   0.86127465   -7.2939805    718.84697  0.025138025  0.025188865            3 
 2384000   0.87685825   -7.2695003    720.39214  0.025181493   0.02518189            2 
 2385000   0.86453495    -7.273299    721.66843  0.025215529  0.025174952            2 
 2386000   0.85880902   -7.2834433     721.4669  0.025197922  0.025167987            4 
 2387000   0.86425758   -7.2561654    722.93788   0.02523872  0.025161019            5 
 2388000   0.87694929   -7.2690227    721.79478   0.02518826  0.025154124            4 
 2389000   0.87180487   -7.2769172    721.50871  0.025167738  0.025147178            4 
 2390000   0.87834317   -7.2851162    721.84263   0.02516885  0.025140185            2 
 2391000    0.8883602   -7.3126341    721.98357  0.025163236  0.025133232            3 
 2392000   0.84592557   -7.2908622    721.31982  0.025129593  0.025126292            9 
 2393000   0.85327629   -7.2919556     722.4188  0.025157362   0.02511933            4 
 2394000   0.86314005   -7.2914299     722.5188  0.025150334  0.025112373            4 
 2395000   0.85294895   -7.2827605    721.66456   0.02511011  0.025105372            5 
 2396000   0.86859474   -7.2999289    723.27962  0.025155802  0.025098422            3 
 2397000   0.88798279   -7.2664937    722.01998  0.025101515  0.025091478            3 
 2398000   0.86793646   -7.3114791    723.51672  0.025143061  0.025084609            3 
 2399000   0.87333564    -7.268795    724.46951  0.025165677  0.025077728            2 
 2400000   0.87254205   -7.2571345    724.18033   0.02514515  0.025070834            2 
 2401000   0.84673035   -7.2895572    724.47889   0.02514504   0.02506393            3 
 2402000   0.85556215   -7.2930012    724.74032  0.025143641  0.025057102            5 
 2403000   0.86872144   -7.2832832    723.84872  0.025102258  0.025050219            2 
 2404000   0.88611538   -7.2932118    724.10558   0.02510072  0.025043311            3 
 2405000   0.87856405   -7.3324647    723.38702  0.025065385  0.025036408            3 
 2406000   0.88520365   -7.3089159    725.38952  0.025124325  0.025029482            4 
 2407000   0.85604701   -7.3223775    723.45368  0.025046866   0.02502261            4 
 2408000    0.8794725   -7.3243431      723.933  0.025053052  0.025015727            6 
 2409000   0.85638426   -7.3026959    723.91889  0.025042165  0.025008826            4 
 2410000   0.86217924   -7.2688112     725.1222  0.025073382  0.025001961            4 
 2411000   0.85575689   -7.3120465    724.84073  0.025053254  0.024995131            3 
 2412000   0.87778541   -7.3064135    724.62332  0.025035355  0.024988292            5 
 2413000   0.87100418    -7.295451    725.78938   0.02506525  0.024981519            3 
 2414000   0.86212627   -7.2883773    726.94344  0.025094706  0.024974795            3 
 2415000   0.85305864   -7.2845882    727.18352  0.025092599  0.024967964            3 
 2416000   0.85857028   -7.2755246    726.33007  0.025052776  0.024961125            3 
 2417000   0.86646056   -7.2800287    726.70072   0.02505519  0.024954363            2 
 2418000   0.87085138    -7.290991    725.38422  0.024999456  0.024947565            3 
 2419000   0.85543234   -7.2851376    726.69362   0.02503423  0.024940725            3 
 2420000   0.86729318   -7.2922509    726.56721  0.025019532  0.024933905            9 
 2421000    0.8418982   -7.2952189      726.165  0.024995353  0.024927105           12 
 2422000   0.86874625   -7.3228624    726.70957   0.02500377  0.024920314            6 
 2423000   0.88693817   -7.2765227    727.67696  0.025026722  0.024913502            6 
 2424000   0.85600104   -7.3104809    727.21621  0.025000557  0.024906672            5 
 2425000   0.86857637    -7.299281     726.7476  0.024974144  0.024899832            6 
 2426000   0.88814036   -7.3139994    728.04926  0.025008562  0.024892978            6 
 2427000   0.88246548   -7.3007591    727.83305  0.024990834  0.024886149            1 
 2428000   0.85475761   -7.3055639    726.87764   0.02494775  0.024879269            2 
 2429000   0.85234565   -7.2927326    727.96341  0.024974729  0.024872396            6 
 2430000   0.83891795   -7.3009342    728.49197  0.024982578  0.024865602            7 
 2431000   0.87048936   -7.3058016    726.70614  0.024911084  0.024858777            5 
 2432000    0.8506347   -7.2924759    727.85348  0.024940155  0.024851955            3 
 2433000    0.8714201   -7.2907273     730.2127   0.02501071  0.024845217            4 
 2434000   0.84792476   -7.3464736    728.85082  0.024953808  0.024838439            3 
 2435000   0.85452154   -7.3134883     728.0065  0.024914665  0.024831612            5 
 2436000   0.87954444     -7.32394    726.14393   0.02484072  0.024824787            3 
 2437000   0.87500968   -7.3370427    725.19382  0.024798038  0.024817931            2 
 2438000   0.87802194    -7.289079    727.72835  0.024874499  0.024811106            8 
 2439000    0.8706314    -7.323749    727.64695  0.024861519  0.024804285            3 
 2440000   0.87413651   -7.3209945    728.34748  0.024875255  0.024797418            3 
 2441000    0.8673941   -7.3300194     726.2765  0.024794364  0.024790549            2 
 2442000   0.85881746   -7.3033292    729.48343  0.024893647   0.02478373            3 
 2443000   0.87273463   -7.3151922    729.01153   0.02486736  0.024776908            3 
 2444000   0.85774482   -7.2861344    728.45618  0.024838249   0.02477007            2 
 2445000   0.83992179   -7.3062921    728.83133  0.024840877  0.024763233            3 
 2446000   0.85278259   -7.2889227    727.05768  0.024770294  0.024756383            4 
 2447000   0.85452216   -7.3243825    730.82824  0.024888579   0.02474957            3 
 2448000   0.83950805   -7.3439871    729.25889   0.02482499  0.024742764            1 
 2449000   0.86734726   -7.3078222    731.95788  0.024906692  0.024735991            2 
 2450000   0.85893409   -7.2724113    731.84757  0.024892775  0.024729212            4 
 2451000   0.86469623   -7.3043042    728.74462  0.024777119  0.024722422            4 
 2452000   0.84430643   -7.3083976    729.50897  0.024792991  0.024715602            5 
 2453000   0.85141771   -7.3118585    728.86756  0.024761094  0.024708796            4 
 2454000   0.86861266   -7.3337396    730.07433  0.024791983  0.024701966            5 
 2455000   0.85022638   -7.3016092    731.37966  0.024826193  0.024695151            3 
 2456000   0.84674433   -7.2962487    729.20057  0.024742148  0.024688379            5 
 2457000    0.8680242   -7.3080876    731.10548  0.024796686    0.0246816            5 
 2458000   0.85880599   -7.2662431    731.37575  0.024795761  0.024674829            2 
 2459000   0.85495717   -7.2970156    731.59778  0.024793201  0.024668132            3 
 2460000   0.86119058   -7.3033371    728.61946  0.024682231  0.024661395            3 
 2461000   0.85031656   -7.3098091    731.47027  0.024768735  0.024654628            4 
 2462000   0.85596927   -7.3417181    731.29924  0.024752885  0.024647854            3 
 2463000   0.86964976   -7.3024661    732.91296  0.024797434  0.024641127            2 
 2464000   0.87693376   -7.3253018    733.69295   0.02481375  0.024634425            3 
 2465000   0.85744875   -7.3184212    733.65863  0.024802523  0.024627757            5 
 2466000   0.85579945   -7.2794278    732.69568  0.024759924  0.024621094            4 
 2467000      0.87933   -7.3257343    731.37566  0.024705299  0.024614358            6 
 2468000   0.85395904    -7.291703    731.67069   0.02470525  0.024607625            2 
 2469000   0.84761814   -7.3470161    732.92637  0.024737626   0.02460091            3 
 2470000   0.84183013   -7.3662792     733.9769  0.024763053   0.02459416            5 
 2471000   0.84140968   -7.3196677    734.05364   0.02475562  0.024587433            4 
 2472000   0.85835026   -7.3149116    733.12565  0.024714322  0.024580765            6 
 2473000   0.85602537   -7.3398975     732.7663  0.024692219  0.024574062            5 
 2474000   0.86032981   -7.2882478    733.55115  0.024708675  0.024567328            6 
 2475000   0.85596219   -7.3358437    733.75615  0.024705594  0.024560597            2 
 2476000   0.85479997   -7.3059979    733.75623  0.024695619  0.024553903            6 
 2477000   0.85728221   -7.3002428    734.26686  0.024702828  0.024547248            6 
 2478000   0.86299488    -7.351462    733.05628  0.024652148  0.024540564            3 
 2479000   0.85052332   -7.3193057    735.69708  0.024730976  0.024533848            7 
 2480000   0.86277784   -7.2941929    734.14625  0.024668893  0.024527126            8 
 2481000   0.85895602   -7.3192185    734.36926   0.02466644  0.024520416            7 
 2482000   0.84423247   -7.3494137    732.39175  0.024590107  0.024513645            5 
 2483000   0.85446621   -7.3494416    732.72812  0.024591493  0.024506887            9 
 2484000   0.86000499   -7.3255198     731.6729  0.024546192  0.024500117            3 
 2485000   0.85239182   -7.3259564    733.13541  0.024585359  0.024493349            4 
 2486000    0.8677851   -7.3392432    731.54399  0.024522123  0.024486524            7 
 2487000   0.85744387   -7.3459831    733.01427  0.024561529  0.024479764            2 
 2488000   0.83713488   -7.3114891    733.61216  0.024571683  0.024472977            2 
 2489000   0.85111835   -7.3092763    734.48618  0.024591073  0.024466195            4 
 2490000   0.86843343   -7.3131506    735.05272  0.024600158  0.024459424            2 
 2491000    0.8368139   -7.3530542    736.45626  0.024637236  0.024452694            5 
 2492000   0.85368007   -7.3453947    731.39534  0.024458111  0.024445918            2 
 2493000   0.83862119   -7.3010245     733.9889  0.024534995  0.024439177            4 
 2494000   0.85225101   -7.3103845    734.94209  0.024557007  0.024432434            4 
 2495000   0.85572345   -7.3143785    734.61525  0.024536247  0.024425704            2 
 2496000   0.85298906   -7.3268959    732.24397  0.024447248   0.02441891            6 
 2497000   0.84641896   -7.3233718    734.43474  0.024510571  0.024412124            3 
 2498000   0.85013378    -7.359447    733.68267   0.02447567  0.024405319            2 
 2499000   0.83842031   -7.3376266    735.02188  0.024510533  0.024398523            5 
 2500000    0.8534043   -7.3357117    735.76539  0.024525513  0.024391768            6 
 2501000   0.87438372   -7.3460931    733.59975  0.024443548  0.024385012            6 
 2502000   0.83378928   -7.3314186    735.94375  0.024511849  0.024378282            4 
 2503000   0.85114719   -7.2812009    736.56696  0.024522805  0.024371634            5 
 2504000   0.85221383   -7.3510224    738.65007  0.024582337  0.024364945            4 
 2505000   0.84831937   -7.3531844    736.69871  0.024507608  0.024358257           10 
 2506000   0.85244984   -7.3659268    735.20473  0.024448149  0.024351568            3 
 2507000   0.83558822   -7.3457894    735.80273  0.024458275  0.024344825            5 
 2508000   0.85296851   -7.3310874    737.74219  0.024512965  0.024338149            3 
 2509000   0.86675056   -7.3656418    738.09665  0.024514968  0.024331459            3 
 2510000   0.83442798   -7.3689712    737.60112  0.024488749  0.024324742            2 
 2511000   0.85172156   -7.3518079    738.33627  0.024503394   0.02431809            7 
 2512000   0.84746453   -7.3348151    737.01762  0.024449894  0.024311481            5 
 2513000   0.83679273   -7.3243025      739.024  0.024506698  0.024304853            4 
 2514000   0.85866832    -7.336143    738.50454  0.024479731  0.024298295            3 
 2515000   0.83952879   -7.3293884    736.83971  0.024414835  0.024291675            2 
 2516000   0.84098935   -7.3461091    739.18197   0.02448271  0.024285042            3 
 2517000   0.84061435   -7.3544583    740.75214  0.024524968  0.024278451            3 
 2518000   0.85512414   -7.3097168      740.199  0.024496922  0.024271853            1 
 2519000   0.85529388   -7.3558618    738.69146  0.024437325  0.024265302            8 
 2520000    0.8673088   -7.3283212    738.86039  0.024433214  0.024258722            4 
 2521000   0.85735297   -7.3221348    738.90913  0.024425133  0.024252162            6 
 2522000   0.83961625   -7.3378141    740.17529  0.024457286  0.024245581            1 
 2523000   0.83587882   -7.3312595    740.56516  0.024460469  0.024239031            4 
 2524000   0.85894696    -7.356698    739.15786  0.024404314  0.024232491            4 
 2525000   0.84549985   -7.3223542    738.85173  0.024384546   0.02422588            2 
 2526000   0.84635464   -7.3428846     739.7087  0.024403164  0.024219283            3 
 2527000   0.85415138   -7.3207886    737.88514  0.024333371  0.024212723            4 
 2528000   0.84600257   -7.3258775    742.02954  0.024460362  0.024206232            4 
 2529000   0.84563276   -7.3225728    740.90505  0.024413637  0.024199686            8 
 2530000   0.85932253   -7.3445912    739.35665  0.024352986   0.02419314            4 
 2531000   0.82854033   -7.3318406    740.63542  0.024385468  0.024186573            4 
 2532000   0.84335836   -7.3280022    741.43802  0.024402252  0.024180001            8 
 2533000   0.84645165   -7.3331186    740.60456  0.024365198   0.02417341            2 
 2534000    0.8504149   -7.3435198    740.40542  0.024349034  0.024166849            4 
 2535000   0.85013793   -7.3622007    741.38288  0.024371561  0.024160319            9 
 2536000   0.85282148   -7.3194648    740.65889   0.02433816  0.024153755            3 
 2537000   0.84923083   -7.3483808    742.25802  0.024381094  0.024147174            6 
 2538000    0.8463389   -7.3431117    743.22236  0.024403151  0.024140597            4 
 2539000   0.84817471   -7.3526964    739.81382  0.024281667  0.024134062            5 
 2540000   0.85127135   -7.3281456    740.13412  0.024282615  0.024127475            3 
 2541000   0.86494919   -7.3085551    742.79993  0.024360486  0.024120952            5 
 2542000   0.85767237    -7.340749    742.26994  0.024333528  0.024114439            4 
 2543000   0.83425245   -7.3200984    743.04148  0.024349242  0.024107889            7 
 2544000   0.85795138   -7.3508358    740.48736  0.024256006  0.024101393            9 
 2545000   0.83322325   -7.3570933    741.21892   0.02427043  0.024094833            2 
 2546000    0.8427228   -7.3382626     742.1257  0.024290577  0.024088278            3 
 2547000   0.87047114   -7.3454697     741.4319   0.02425834  0.024081688            1 
 2548000   0.83993185   -7.3504953    742.82185  0.024294278    0.0240751            2 
 2549000   0.84210823   -7.3846251    740.47682  0.024208082  0.024068454            3 
 2550000   0.85561814   -7.3434668    742.72303  0.024271994  0.024061818            5 
 2551000   0.85938521   -7.3466091    743.34418  0.024282771   0.02405521            5 
 2552000   0.83447704   -7.3722082    739.58089  0.024150369  0.024048584            2 
 2553000   0.85140447    -7.389586    742.78791   0.02424559  0.024041903            2 
 2554000   0.83344175   -7.3889801    742.82914  0.024237443  0.024035263            9 
 2555000   0.83043929   -7.3281887    743.37119  0.024245636  0.024028675            4 
 2556000   0.83192219   -7.3755183    742.18054  0.024197331   0.02402212            3 
 2557000   0.83265558   -7.3445482    743.19174  0.024220823  0.024015546            4 
 2558000    0.8429712   -7.3481506    742.38587  0.024185101  0.024008957            5 
 2559000   0.84645807   -7.3647158    745.14842  0.024265612  0.024002344            4 
 2560000   0.85116814   -7.3645599    742.78738  0.024179277  0.023995776            4 
 2561000   0.83611464   -7.3630238    740.99172  0.024111406    0.0239892            5 
 2562000   0.82765779   -7.3429004    740.92631  0.024099867  0.023982609            3 
 2563000   0.85412892   -7.3317422    744.68036  0.024212523  0.023976094            5 
 2564000   0.84344231    -7.345643    744.78665  0.024206534  0.023969604            3 
 2565000   0.84504307   -7.3601066    742.91376   0.02413625  0.023963078            5 
 2566000   0.85433698   -7.3632935    743.03269  0.024130706  0.023956504            3 
 2567000    0.8335427   -7.3553598    743.87956  0.024148797  0.023949928            3 
 2568000   0.83365996   -7.3374455    743.08261  0.024113532  0.023943376            6 
 2569000    0.8241435   -7.3515798    743.74147  0.024125518  0.023936831            3 
 2570000   0.84594318   -7.3558016    742.39409  0.024072441   0.02393024            4 
 2571000   0.84845762    -7.359042    742.57932  0.024069082  0.023923696            3 
 2572000   0.85147582    -7.370275    744.92635  0.024135768    0.0239171           13 
 2573000    0.8281678   -7.3731573    745.56689  0.024147133  0.023910535            3 
 2574000   0.83388654   -7.3658406    744.20485  0.024093656  0.023903962            4 
 2575000   0.82831749   -7.3387256    744.01303  0.024078092  0.023897386            3 
 2576000   0.85402398   -7.3668134    744.66838  0.024089945  0.023890804           10 
 2577000   0.81906033   -7.3535154    743.62734  0.024046933  0.023884241            5 
 2578000   0.83145764   -7.3148011    745.75207  0.024106286  0.023877691            4 
 2579000   0.84135114   -7.3588772    742.68111   0.02399771  0.023871156            3 
 2580000   0.83396594    -7.355631     743.6914   0.02402104  0.023864592            5 
 2581000   0.84564754   -7.3495605    745.66965  0.024075605  0.023858075            5 
 2582000    0.8430579   -7.3611213    745.66966  0.024066281  0.023851514            4 
 2583000   0.83908435    -7.340724    744.11875  0.024006928  0.023844907            8 
 2584000   0.82422374   -7.3551195    745.69678  0.024048529  0.023838329            6 
 2585000   0.85835876   -7.3736304    746.12004   0.02405287  0.023831757            7 
 2586000    0.8457768   -7.3638638    745.27262  0.024016261  0.023825197            6 
 2587000     0.830429   -7.3997527    744.00596  0.023966176   0.02381863            4 
 2588000   0.85305573    -7.351782    745.74267  0.024012837  0.023812061            6 
 2589000   0.84170954   -7.3244028    746.92109  0.024041492  0.023805584            4 
 2590000   0.84333146   -7.3449488    747.01508  0.024035234  0.023799099            3 
 2591000    0.8279708   -7.3808572    746.10598  0.023996719   0.02379259            7 
 2592000   0.86576411   -7.3649259    746.06904  0.023986273  0.023786076            3 
 2593000   0.84740976   -7.3791509    745.57665  0.023961198  0.023779531            5 
 2594000   0.82256372   -7.3555232    746.39076  0.023978115  0.023773024            4 
 2595000   0.83019439   -7.3538902    748.03116  0.024021553  0.023766529            4 
 2596000   0.83177166   -7.3719715    747.39403  0.023991847  0.023760017            2 
 2597000   0.82089053     -7.36601    747.55446  0.023987757  0.023753552            3 
 2598000   0.84232851   -7.3654043    745.24108   0.02390432  0.023747097            4 
 2599000   0.85446595   -7.3588007    744.95747  0.023886029  0.023740589            4 
 2600000   0.81916613   -7.3476046    747.27555   0.02395114  0.023734056            5 
 2601000   0.82501947   -7.3502094    748.70114  0.023987605  0.023727572            3 
 2602000   0.83954812   -7.3725687    748.71585  0.023978858  0.023721052            4 
 2603000   0.82376214   -7.3647523    748.66747  0.023968097  0.023714554            6 
 2604000   0.83467498   -7.3462593    746.83219   0.02390016  0.023708088            6 
 2605000   0.84490174    -7.375265    747.90617  0.023925341  0.023701563            3 
 2606000   0.84641798   -7.3570256    749.15786  0.023956186  0.023695039            1 
 2607000   0.83724022   -7.3722203    749.78334  0.023966991  0.023688543            9 
 2608000   0.83402239   -7.3657509    747.69479  0.023891066  0.023682047            7 
 2609000   0.81732961   -7.3449646    749.56938  0.023941784  0.023675637            3 
 2610000   0.84222274   -7.3493314    749.44316  0.023928581  0.023669196            4 
 2611000   0.82674843   -7.3551009    749.03033  0.023906241  0.023662798            3 
 2612000   0.84171568   -7.3531768     749.7111  0.023918807  0.023656377            4 
 2613000   0.82805198   -7.3896789    748.91311  0.023884204  0.023649919            2 
 2614000   0.83795779   -7.3832422    748.51717  0.023862445  0.023643418            3 
 2615000   0.82032454   -7.3946094    748.82296  0.023863064  0.023636879            3 
 2616000   0.81396854   -7.3867666    746.49684  0.023779843  0.023630354            7 
 2617000   0.85266404   -7.3899274    747.54969  0.023804283   0.02362384            6 
 2618000   0.87509522   -7.3866245    748.50498  0.023825598  0.023617343            5 
 2619000   0.82559868   -7.3476641    748.91722  0.023829617  0.023610836            4 
 2620000   0.83726779   -7.3681751    750.05057   0.02385657  0.023604345            3 
 2621000   0.83031685   -7.3803418    747.19266  0.023756602  0.023597826            8 
 2622000   0.83459808   -7.3717327    748.48252  0.023788537  0.023591311            3 
 2623000   0.81887014   -7.3722767    749.14231  0.023800429  0.023584805            8 
 2624000    0.8320344   -7.3619816    749.13872  0.023791245  0.023578314            5 
 2625000   0.83294711   -7.3816714    748.76904  0.023770446   0.02357179            2 
 2626000   0.82852319   -7.4005299    749.36781  0.023780395  0.023565281            8 
 2627000   0.83681453    -7.363887    749.23306  0.023767068  0.023558803            4 
 2628000   0.80402383   -7.3625013    749.96467  0.023781224  0.023552325            3 
 2629000   0.84449838   -7.3890132    750.46003   0.02378788  0.023545841            4 
 2630000   0.83407821   -7.4039504    751.19702  0.023802187  0.023539322            2 
 2631000   0.83725295   -7.3774891    750.46816  0.023770054  0.023532864            7 
 2632000    0.8214583   -7.3402724    749.91148  0.023743398  0.023526396            3 
 2633000   0.83299682    -7.366215    751.40832  0.023781755  0.023519951            2 
 2634000   0.82408766   -7.3911701    748.78408  0.023689701  0.023513476            4 
 2635000   0.83951482   -7.3580043     753.1172  0.023817748  0.023507028            4 
 2636000   0.82591786   -7.3710766    749.33843  0.023689252  0.023500562            5 
 2637000   0.82662414   -7.3483361    750.67221  0.023722419  0.023494097            4 
 2638000   0.83096846   -7.3999604    751.69251  0.023745657  0.023487664            8 
 2639000    0.8265866   -7.3630794    749.46961  0.023666465  0.023481234            5 
 2640000    0.8203858   -7.3677774    751.27089  0.023714359  0.023474861            5 
 2641000   0.83905852   -7.3921211    750.77709  0.023689798   0.02346844            4 
 2642000   0.84362736   -7.3661821    751.44798  0.023701993     0.023462            2 
 2643000   0.81457552   -7.3886372    750.97934  0.023678249  0.023455517            5 
 2644000    0.8323086   -7.4196977     747.9092  0.023572529   0.02344905            3 
 2645000   0.83038753   -7.3864377    750.77559  0.023653925  0.023442547            2 
 2646000   0.81941901   -7.4008856    749.88195  0.023616841  0.023436053            3 
 2647000   0.83276329   -7.3506242    752.33437  0.023685127  0.023429558            2 
 2648000   0.81748086    -7.394478    751.86479  0.023661405  0.023423058            4 
 2649000   0.83240439   -7.3959754    751.44296  0.023639202  0.023416532            2 
 2650000    0.8239588   -7.4144225    751.51947  0.023632688  0.023410023            2 
 2651000   0.81552807   -7.4095628    750.33416  0.023586513  0.023403534            3 
 2652000   0.83631872   -7.3973421    750.64318   0.02358733  0.023397065            5 
 2653000   0.83830408   -7.3627285    754.43529  0.023697553  0.023390629            7 
 2654000   0.81747154   -7.3852042    750.96137  0.023579546  0.023384235            4 
 2655000   0.83807395   -7.4066735    750.09049   0.02354333  0.023377758            7 
 2656000   0.83690169   -7.3772882    753.86258  0.023652817  0.023371264            5 
 2657000   0.82060327   -7.3920962    753.56446  0.023634565  0.023364806            4 
 2658000   0.83942871   -7.3970503    752.42674  0.023590003  0.023358371            7 
 2659000   0.81902099   -7.3641485      754.408  0.023643224  0.023351972            4 
 2660000   0.82539284   -7.3747783    751.98916  0.023558558  0.023345511            7 
 2661000   0.82655545   -7.4023251    752.23138   0.02355729  0.023339077            4 
 2662000   0.82182875   -7.4213555    752.65603  0.023561734   0.02333263            3 
 2663000   0.82951331    -7.403504    753.75757  0.023587357  0.023326201            4 
 2664000   0.81604365   -7.3949157    753.56389  0.023572444  0.023319764           10 
 2665000   0.80743911   -7.3865441    753.88587  0.023573667  0.023313386            4 
 2666000   0.81397603    -7.372083    752.24906  0.023513662  0.023307001            5 
 2667000   0.82743012   -7.3833156     753.8605  0.023555196  0.023300608            4 
 2668000   0.81792828     -7.39621    755.29205  0.023591081  0.023294226            4 
 2669000   0.82959015   -7.4006165    755.78279  0.023597564  0.023287845            3 
 2670000   0.81454787   -7.3889356    754.71153  0.023555291  0.023281482            2 
 2671000   0.82956527   -7.4163579    755.06314  0.023557442  0.023275164            3 
 2672000   0.83279422   -7.3671767    753.98647  0.023515047  0.023268794            4 
 2673000   0.80876701    -7.357313    755.05267   0.02353949  0.023262472            6 
 2674000    0.8201361   -7.3950422    755.59544  0.023547602  0.023256099            6 
 2675000   0.83375506   -7.3981728    756.43956  0.023565095   0.02324973            4 
 2676000   0.81129741   -7.3917685     755.3834  0.023523399  0.023243372            5 
 2677000   0.83233334    -7.406155    753.68273  0.023461671  0.023237031            6 
 2678000   0.82992959   -7.4228079    755.52884  0.023510357   0.02323069            6 
 2679000   0.83343786   -7.3969504    757.26239  0.023555505  0.023224353            6 
 2680000   0.84210991   -7.3855316    757.38162  0.023550424  0.023218072            3 
 2681000   0.81637218   -7.3621592    755.24641  0.023475271  0.023211765            4 
 2682000   0.81226227   -7.3903904    757.26672  0.023529292  0.023205452            4 
 2683000   0.82951204   -7.3818515    755.18968  0.023456009  0.023199122            3 
 2684000    0.8377766   -7.3920376    755.48919   0.02345657  0.023192831            3 
 2685000   0.81533611   -7.4031409    758.05721  0.023527536  0.023186544            3 
 2686000   0.83151017   -7.3908012    757.29261  0.023495055  0.023180273            5 
 2687000   0.82626328   -7.4023695    755.98743  0.023445833  0.023173984            6 
 2688000   0.81620017   -7.4169357     756.4973  0.023452917  0.023167668            3 
 2689000   0.82173045   -7.3964876    756.23019  0.023435918  0.023161317            3 
 2690000   0.82782833   -7.3800392    755.32953  0.023399304   0.02315495            2 
 2691000   0.81951103   -7.3867796    754.75993  0.023372969  0.023148572            2 
 2692000   0.82449861   -7.3928667    754.51966  0.023356849  0.023142151            4 
 2693000   0.83216608   -7.3935695    756.53366  0.023410498   0.02313576            4 
 2694000   0.82179677   -7.3750129    755.89511  0.023382056  0.023129426            2 
 2695000   0.82538601   -7.4150595    756.46333   0.02339095  0.023123099            6 
 2696000   0.83532383   -7.3696758    756.05555   0.02336967  0.023116735            3 
 2697000   0.82292982   -7.3979563    756.90127  0.023387136  0.023110348            6 
 2698000   0.82705445   -7.4056281    756.63042  0.023370102  0.023103969            4 
 2699000   0.81740958   -7.3866771    755.45497   0.02332515  0.023097624            6 
 2700000   0.81006822   -7.3797594    758.48519  0.023410037  0.023091258            4 
 2701000   0.81084372   -7.3529776    758.00018  0.023386406  0.023084907            4 
 2702000    0.8003802   -7.4047256    757.78458  0.023371101  0.023078581            4 
 2703000   0.81714856   -7.3798603    756.20248  0.023313679  0.023072218            3 
 2704000   0.82971754   -7.4049815    756.18081  0.023304389   0.02306589            3 
 2705000   0.82668379   -7.4310353    756.15427  0.023294956  0.023059501            5 
 2706000   0.82503123   -7.3842697    757.86908  0.023339156  0.023053162            9 
 2707000   0.83314384   -7.3866483    758.38318  0.023346361  0.023046857            4 
 2708000   0.82829923   -7.4090625    758.12319  0.023329739  0.023040503            7 
 2709000   0.81830741   -7.4305366    757.67991  0.023307491  0.023034132            5 
 2710000   0.80865032   -7.4148077    756.56586  0.023264633  0.023027733            3 
 2711000   0.79344956   -7.3815163    759.78154  0.023354898  0.023021378            7 
 2712000   0.82707361   -7.3948858    756.71237  0.023251978  0.023015034            6 
 2713000   0.80919925   -7.3919211    757.59756  0.023270597  0.023008657            2 
 2714000   0.79785566   -7.4261326    756.13252  0.023217039  0.023002269            3 
 2715000   0.81553152   -7.4152353    756.10748  0.023207719  0.022995904            5 
 2716000    0.8159761   -7.4335684    755.45554  0.023179171  0.022989495            8 
 2717000   0.83129314   -7.4308903    755.99092   0.02318706  0.022983068            5 
 2718000   0.80316275   -7.3980504    758.62925   0.02325942  0.022976682           14 
 2719000   0.82321318   -7.4298748    757.20437  0.023207195  0.022970313            4 
 2720000   0.81021254   -7.4212823    759.56996  0.023271138  0.022963951            5 
 2721000   0.82788502   -7.4161064    756.64562  0.023173025   0.02295758            6 
 2722000   0.80758544   -7.4041628    758.38183  0.023217666   0.02295126           12 
 2723000   0.81325791   -7.3716524    756.79023  0.023160431  0.022944879            4 
 2724000   0.80503985   -7.4386272    757.82031  0.023183441  0.022938468            2 
 2725000   0.83201377    -7.413388    757.50694   0.02316535  0.022932047            3 
 2726000   0.82049975   -7.4460546    756.33974  0.023121171  0.022925641            7 
 2727000   0.82747509   -7.4006279      759.493  0.023209051  0.022919229            3 
 2728000   0.84396471   -7.4159626    758.14075  0.023159236  0.022912839            3 
 2729000   0.82561835   -7.3977324    756.74198  0.023108036  0.022906424            4 
 2730000   0.80521761   -7.3762676     757.4104  0.023119976   0.02289999            2 
 2731000    0.8048717   -7.3746097    758.12572  0.023133337  0.022893576            5 
 2732000   0.81170505   -7.4137483    759.95523  0.023180675  0.022887208            9 
 2733000   0.79162677    -7.452836    757.74393  0.023104767  0.022880773            3 
 2734000   0.79704577   -7.4223938    758.86536  0.023130497  0.022874366            3 
 2735000   0.80736649   -7.4284275    759.39089  0.023138053  0.022867919            4 
 2736000   0.79833884   -7.3918929    757.86363  0.023083079  0.022861458           10 
 2737000   0.80398522   -7.4046539    758.33153  0.023088891  0.022855012            3 
 2738000    0.8108018   -7.4208233    760.79751  0.023155512  0.022848565            3 
 2739000   0.81962152   -7.4345039    759.14151  0.023096675  0.022842158            3 
 2740000   0.80692999    -7.453097    759.07778  0.023086307  0.022835757            4 
 2741000   0.80507921   -7.4016997    757.80415  0.023039163  0.022829325            3 
 2742000   0.81518479   -7.4121118    758.72011  0.023058598  0.022822921            3 
 2743000   0.80664959   -7.4012678    757.82039  0.023022858  0.022816502            2 
 2744000   0.83235886   -7.4266886    758.89179  0.023047005  0.022810041            7 
 2745000     0.817344    -7.446584    758.90754  0.023039087  0.022803548           10 
 2746000   0.81533192   -7.4017877    757.63949  0.022992216  0.022797065            3 
 2747000   0.81250827   -7.3877567    759.05465  0.023026776  0.022790589            3 
 2748000    0.7923215    -7.392729    759.88494  0.023043575  0.022784173            4 
 2749000   0.80063765   -7.3931353    759.00014  0.023008371  0.022777745            5 
 2750000   0.79983384   -7.4455374    759.16203   0.02300491  0.022771291            2 
 2751000   0.80495022   -7.4246044    758.98493  0.022991183  0.022764752            3 
 2752000   0.81495632    -7.426749     758.0839  0.022955544   0.02275827            2 
 2753000   0.82777867   -7.4274711     760.4613   0.02301917  0.022751767            5 
 2754000   0.80375215   -7.4343293    757.54924  0.022922696  0.022745293            3 
 2755000   0.80030749   -7.4136344    759.42486  0.022971109  0.022738848            2 
 2756000   0.79781513   -7.4306886    760.17527  0.022985464  0.022732386            6 
 2757000   0.81614378   -7.4099816    758.92572  0.022939358  0.022725942            4 
 2758000   0.79704608   -7.4156871    759.00103  0.022933316  0.022719472            4 
 2759000   0.81072684   -7.4131554    760.49991  0.022970276  0.022713044            3 
 2760000   0.81460341   -7.4053236    760.83442  0.022972054  0.022706628            4 
 2761000   0.80898339   -7.4226391    758.05234  0.022879764  0.022700159            3 
 2762000   0.82065327   -7.4384087    759.72393  0.022921914  0.022693693            4 
 2763000   0.80449398   -7.4131155     758.8565  0.022887456  0.022687241            5 
 2764000   0.82015053   -7.4241305    759.53987  0.022899779  0.022680778            4 
 2765000   0.80961859   -7.4112228    757.71381  0.022836462  0.022674303            4 
 2766000   0.82929478    -7.415243     760.4798  0.022911539  0.022667866            3 
 2767000   0.78254549   -7.4342025    760.20258   0.02289491  0.022661418           10 
 2768000    0.7906262   -7.4146797    759.95377  0.022879148  0.022654967            7 
 2769000   0.81525698   -7.3928226    761.22522   0.02290915  0.022648485            3 
 2770000    0.8070822    -7.396709    759.06362  0.022835849  0.022642031            6 
 2771000   0.81120628   -7.4571738     759.5595  0.022842521  0.022635532            4 
 2772000   0.81793147   -7.4405723    760.04215   0.02284879  0.022629053            4 
 2773000   0.80526276   -7.4409487     757.0861  0.022751716  0.022622573            4 
 2774000   0.80208692   -7.4284747    758.53521  0.022787047  0.022616082            4 
 2775000   0.80463739   -7.3982561    760.80464  0.022846986  0.022609627            3 
 2776000   0.81534768   -7.3947888    760.76739  0.022837638  0.022603187            2 
 2777000    0.8084821   -7.4105516    759.81493  0.022800832  0.022596793            4 
 2778000   0.82564225   -7.4332087    759.95153  0.022796722  0.022590354            4 
 2779000    0.7894132   -7.4169277    761.04773   0.02282139  0.022583941            5 
 2780000   0.81450284   -7.4571245    759.72225  0.022773449  0.022577474            3 
 2781000   0.80719142   -7.4072202    760.25969  0.022781364  0.022571036            4 
 2782000   0.80947501   -7.4038706    762.79006  0.022848971  0.022564622            5 
 2783000   0.79667996   -7.4227447    760.26116  0.022765036   0.02255821            5 
 2784000   0.81004218   -7.4298686    761.30233  0.022788025  0.022551767            8 
 2785000   0.81409775   -7.3991044    763.70461  0.022851724  0.022545339            7 
 2786000   0.80844225   -7.4520419    762.25101  0.022800042  0.022538953            3 
 2787000   0.79918814   -7.4311088    761.45316  0.022768005  0.022532509            4 
 2788000   0.79575283   -7.4201766    760.79892  0.022740283  0.022526043            4 
 2789000   0.80047383    -7.433783     760.9777  0.022737472  0.022519562            6 
 2790000   0.80373698   -7.4186294    761.16631  0.022734956  0.022513084            4 
 2791000   0.81717684   -7.4440241    761.67424  0.022741975  0.022506624            4 
 2792000   0.79614314   -7.4336777    762.97727  0.022772722  0.022500178           13 
 2793000   0.81264788   -7.4207005    760.57068  0.022692764  0.022493729            8 
 2794000   0.82912023     -7.44003    762.23458  0.022734269  0.022487333            2 
 2795000    0.7983232   -7.4354455    762.23506   0.02272615  0.022480941            3 
 2796000   0.80008508   -7.4401496    760.93726  0.022679341  0.022474516            2 
 2797000   0.78677243   -7.4003325    763.51742  0.022748106  0.022468089            4 
 2798000   0.81522062   -7.4206577    762.35556  0.022705372  0.022461669            7 
 2799000   0.80161567   -7.3971248    764.27293  0.022754345  0.022455289            5 
 2800000   0.79797901   -7.4489337    759.66154  0.022608974  0.022448858            3 
 2801000   0.80946686   -7.4380656    763.43662  0.022713216  0.022442437            7 
 2802000   0.78273531   -7.4334658    761.33529  0.022642615   0.02243604            3 
 2803000   0.81213612   -7.4529183    764.28574  0.022722254  0.022429651            4 
 2804000   0.81171819   -7.4083398    765.08126  0.022737793  0.022423299            4 
 2805000   0.82027616   -7.4482986    763.11178  0.022671176  0.022416941            4 
 2806000   0.80666075   -7.4228678    762.07998  0.022632454  0.022410546            3 
 2807000   0.80429562    -7.436531    763.16035  0.022656464  0.022404187            5 
 2808000   0.79882732   -7.4286303    763.40595  0.022655685  0.022397835            4 
 2809000    0.7863906   -7.4259048    763.98164  0.022664698  0.022391495            3 
 2810000   0.80029774   -7.4522915    763.43919  0.022640545  0.022385097            2 
 2811000   0.79925073   -7.4416141    762.50659  0.022604844   0.02237869            5 
 2812000   0.80092173   -7.4307772    763.39151   0.02262303  0.022372283            3 
 2813000   0.80926238   -7.4468221    761.24078  0.022551273  0.022365875            8 
 2814000   0.80512215   -7.4580238    760.93834  0.022534303  0.022359429            4 
 2815000   0.79397783   -7.4537904    763.58095  0.022604528  0.022352981            3 
 2816000   0.79027001   -7.4698094    762.73022  0.022571325  0.022346562            8 
 2817000   0.80416498   -7.4551524    762.91161  0.022568678  0.022340167            4 
 2818000    0.8014705   -7.4139187    764.57369  0.022609821  0.022333828            6 
 2819000   0.79389391   -7.4451546    764.13391  0.022588799   0.02232745            5 
 2820000   0.80515047   -7.4302191    764.52124  0.022592235  0.022321089            8 
 2821000   0.80406035   -7.4568569    765.25524  0.022605909  0.022314725            6 
 2822000   0.79402276   -7.4506386    764.38011  0.022572056  0.022308408            6 
 2823000   0.80510095    -7.453972    764.35914  0.022563441  0.022302069            4 
 2824000   0.78584081   -7.4218488    764.49087  0.022559339   0.02229571            4 
 2825000   0.78964187   -7.4358307    766.42067  0.022608279  0.022289394            3 
 2826000   0.80081493   -7.4526477    765.34787  0.022568645  0.022283093            3 
 2827000   0.78601035   -7.4481705    764.08406  0.022523407  0.022276777            4 
 2828000   0.80380203   -7.4500019    766.37749  0.022583024  0.022270432            3 
 2829000   0.80298505   -7.4681527    765.77451  0.022557279  0.022264104            4 
 2830000   0.79202935   -7.4416971    765.19726   0.02253231  0.022257791            5 
 2831000    0.7884491   -7.4352647    766.96923  0.022576511  0.022251465           16 
 2832000   0.80990379   -7.4326926    765.87834  0.022536439  0.022245127            5 
 2833000    0.8031852   -7.4649575    765.71904  0.022523798  0.022238788            3 
 2834000   0.81787756   -7.4561029    763.28139  0.022444172  0.022232407            6 
 2835000   0.78656699   -7.4674584     764.4988   0.02247204  0.022226013            2 
 2836000   0.80989316   -7.4489731    763.25382  0.022427534  0.022219602            1 
 2837000   0.80639057   -7.4709746    764.38464  0.022452845  0.022213198            2 
 2838000    0.7980981   -7.4582306    764.72259  0.022454856  0.022206795            8 
 2839000   0.78714172   -7.4960814    764.30945   0.02243482  0.022200429            3 
 2840000   0.78938397   -7.4765151    762.73895  0.022380838  0.022194025            5 
 2841000   0.81702114   -7.4387243    765.69106  0.022459552  0.022187641            3 
 2842000   0.80477406   -7.4569325    763.32411  0.022382246   0.02218125            3 
 2843000   0.80147514   -7.4577678    766.22843  0.022459504  0.022174829            2 
 2844000   0.80320388   -7.4547749    762.97754  0.022356351  0.022168433            6 
 2845000   0.80260162   -7.4578543    763.76935  0.022371686  0.022162051            3 
 2846000   0.80141246   -7.4759037    764.28497  0.022378923  0.022155645            3 
 2847000    0.7847768   -7.4820569    765.29537  0.022400637  0.022149236            5 
 2848000   0.79539764   -7.4334826    763.64213  0.022344397  0.022142849            4 
 2849000   0.78257196   -7.4666106    764.96214  0.022375165   0.02213645            6 
 2850000   0.78661425   -7.4298935    766.63095   0.02241611  0.022130079            4 
 2851000   0.80676053   -7.4496643    766.29194  0.022398338  0.022123735            6 
 2852000   0.78470721   -7.4466309    766.06897  0.022383969  0.022117407            6 
 2853000   0.79452952   -7.4344832    764.07973   0.02231802  0.022111056            5 
 2854000   0.80005665    -7.460866    766.97378  0.022394703  0.022104717            5 
 2855000   0.80199744   -7.4800508    764.95539  0.022327945  0.022098363            8 
 2856000   0.77927761   -7.4648643    767.03018  0.022380666  0.022092005            6 
 2857000   0.78867967   -7.4424144    767.49146  0.022386287   0.02208567            3 
 2858000    0.7792321    -7.475106    765.07996   0.02230814  0.022079315            4 
 2859000   0.80670794   -7.4668748    766.16711  0.022332025   0.02207294            7 
 2860000   0.78256769   -7.4673729    768.05098  0.022379108  0.022066577            3 
 2861000   0.79833792   -7.4631522    766.04817  0.022312949   0.02206019            3 
 2862000   0.78382616   -7.4970849    766.58742  0.022320854  0.022053797            7 
 2863000   0.80330424   -7.4382107    766.61363  0.022313821  0.022047423            4 
 2864000   0.79784207   -7.4565753    766.70198    0.0223086  0.022041082            4 
 2865000   0.80816197    -7.470632     765.1582   0.02225591  0.022034714            3 
 2866000   0.79028767   -7.4710896    768.61401  0.022348628  0.022028331            4 
 2867000    0.7916353   -7.4770331    767.52952   0.02230931  0.022021963            5 
 2868000   0.79158597   -7.4549225    767.14007  0.022290216  0.022015573            4 
 2869000   0.79764367   -7.4671112    766.23026   0.02225602  0.022009219            4 
 2870000   0.79667427   -7.4533586    766.32928  0.022251141  0.022002865            6 
 2871000   0.79902127   -7.4424432    766.50073  0.022248367  0.021996524            9 
 2872000   0.78071024   -7.4397115    767.39002  0.022266424  0.021990207            3 
 2873000   0.79798718   -7.4595629    765.57604  0.022206058  0.021983878            2 
 2874000   0.78402395   -7.4680539    770.44744   0.02233958  0.021977554            5 
 2875000   0.77230024   -7.4823174    766.49979  0.022217385  0.021971222            6 
 2876000   0.78512797   -7.4709911    767.57338  0.022240768  0.021964867            5 
 2877000    0.7987856   -7.4935699    768.89847  0.022271419  0.021958573            4 
 2878000   0.79552248   -7.4852591    766.22525  0.022186277  0.021952283            5 
 2879000   0.79434526   -7.4755155    768.61683  0.022247795  0.021945987            3 
 2880000   0.79593859   -7.4581258    766.98544  0.022192866  0.021939695            4 
 2881000   0.79250384   -7.4637284    768.52745  0.022229765  0.021933396            4 
 2882000   0.80440797   -7.4521772    767.62921  0.022196079  0.021927117            4 
 2883000   0.81157156    -7.470705    768.30555   0.02220793  0.021920832           15 
 2884000   0.78519108   -7.4597011    769.32111  0.022229574  0.021914523            6 
 2885000   0.80175388   -7.4530453    768.57883  0.022200428  0.021908215            3 
 2886000   0.78775332     -7.44881    770.32291  0.022243096  0.021901934            7 
 2887000   0.76921017   -7.4786893    768.15862  0.022172919  0.021895632            5 
 2888000   0.78145185    -7.462181    768.53215   0.02217602  0.021889347            4 
 2889000   0.78429142   -7.4613143    767.51805  0.022139092  0.021883015            8 
 2890000   0.78661629   -7.4825804    767.41781  0.022128541  0.021876694            6 
 2891000   0.77773593   -7.4848227    766.91071   0.02210627  0.021870362            3 
 2892000   0.79376157   -7.4740762    768.09695  0.022132807  0.021864048            4 
 2893000   0.78605942   -7.4962384    767.48205  0.022107445  0.021857743            8 
 2894000   0.78305958   -7.4665565    768.95138  0.022142115  0.021851463            4 
 2895000   0.79822023   -7.4520604    770.51269   0.02217941  0.021845208            2 
 2896000   0.78781158   -7.4674129     767.4615  0.022083952  0.021838943            3 
 2897000   0.78717245   -7.4606052    769.69672  0.022140626   0.02183266            5 
 2898000   0.78688888    -7.469289    768.58919  0.022101139  0.021826354            4 
 2899000   0.76283226   -7.4481105    769.79863  0.022128281  0.021820062            5 
 2900000   0.79582215   -7.4628847    769.70857  0.022118062  0.021813787            3 
 2901000   0.80648311   -7.5052889    770.43623  0.022131341  0.021807483            7 
 2902000   0.78412845   -7.4883501    767.24399  0.022032046  0.021801134            5 
 2903000   0.78994198   -7.4936151    766.21332  0.021994871  0.021794789            7 
 2904000   0.80320373   -7.4854106    768.37731  0.022049395  0.021788425            5 
 2905000   0.79488478    -7.476708    769.28951  0.022067972  0.021782089            2 
 2906000   0.79319367    -7.504346    769.03911  0.022053198   0.02177578           10 
 2907000   0.77957778   -7.4688657    769.78727  0.022067059  0.021769502            4 
 2908000   0.78956137   -7.4872538    770.91952  0.022091917  0.021763219            5 
 2909000   0.78879691   -7.4737738    770.14076  0.022062013  0.021756964            4 
 2910000   0.76683588   -7.4643885    771.99761  0.022107606  0.021750683            3 
 2911000   0.77165174   -7.4594572    770.79421  0.022065562  0.021744404            6 
 2912000   0.81241149    -7.490996    770.81494  0.022058578  0.021738108            8 
 2913000    0.7726143   -7.4824866    770.16539  0.022032423  0.021731822            8 
 2914000   0.77008391   -7.4565616    771.93144  0.022075367  0.021725553            7 
 2915000   0.80682206   -7.4553327    771.08825  0.022043689  0.021719296            7 
 2916000   0.79896894   -7.4969767    770.15847  0.022009558  0.021713011            3 
 2917000    0.7860121   -7.4873037    768.89822   0.02196601  0.021706719            6 
 2918000   0.78017721   -7.5164949    768.87112  0.021957709  0.021700439            6 
 2919000    0.7897651   -7.4682429    770.64704  0.022000886  0.021694195            4 
 2920000   0.79379386     -7.48764    770.78262  0.021997221  0.021687981            9 
 2921000   0.78439385   -7.5053918    772.25011  0.022031556  0.021681755            3 
 2922000   0.80501082    -7.469943    772.26786  0.022024522  0.021675523            6 
 2923000   0.79808231   -7.4994944    769.70411  0.021943896  0.021669282            6 
 2924000   0.78648733   -7.5035279    771.78027  0.021995562  0.021663052            5 
 2925000   0.76692974   -7.4993429    771.72289  0.021986407  0.021656794            5 
 2926000   0.78730217   -7.4696557    773.44909  0.022028056  0.021650571            3 
 2927000   0.78360052   -7.4700766    773.58495  0.022024398  0.021644403            2 
 2928000   0.77443775   -7.4685006    772.72276  0.021992337  0.021638194            4 
 2929000   0.77865961   -7.5066739    772.18844  0.021969627  0.021631986            5 
 2930000   0.75593935   -7.4883432    771.72627  0.021948984  0.021625786            5 
 2931000   0.79706254   -7.4974462    770.57185  0.021908673  0.021619581            4 
 2932000   0.78213613   -7.4760463    772.35264  0.021951814  0.021613375            6 
 2933000   0.79765041    -7.461468    773.10404  0.021965679  0.021607154            4 
 2934000    0.7923691    -7.493552    771.98585  0.021926433  0.021600944            4 
 2935000   0.77349616   -7.4891827    771.60617  0.021908182  0.021594717            2 
 2936000   0.77614537   -7.4648994     772.5157  0.021926535  0.021588491            4 
 2937000   0.78614578   -7.5191349    772.01104  0.021904751  0.021582255            4 
 2938000   0.77219788   -7.4818362    770.70263  0.021860184  0.021576024            4 
 2939000   0.78637661   -7.4913312    772.63753  0.021907608  0.021569799            3 
 2940000   0.76439234   -7.4615719     771.2661  0.021861284  0.021563602            4 
 2941000   0.77926398   -7.4785609    770.98872  0.021845991  0.021557387            3 
 2942000   0.77015443   -7.4797211    773.08615  0.021897976  0.021551155            3 
 2943000   0.76659408   -7.4857608    772.28611  0.021867882  0.021544918            5 
 2944000   0.77935242   -7.4910995    771.32949  0.021833376  0.021538647            3 
 2945000   0.79284128   -7.4962685    771.34501  0.021826401  0.021532393            7 
 2946000   0.79398131   -7.5030866    771.42521  0.021821261  0.021526158            5 
 2947000   0.79121828   -7.4922063     772.4858  0.021843847  0.021519902            4 
 2948000    0.7854178   -7.5045973    772.15648  0.021827128  0.021513651            2 
 2949000   0.76885963   -7.5001485    770.84197  0.021782581  0.021507414            4 
 2950000   0.77695887   -7.4923571    773.46569  0.021849313  0.021501156            4 
 2951000   0.77351031   -7.4664954    772.24694  0.021807493   0.02149495            3 
 2952000   0.78024728   -7.4708543    772.02386  0.021793808  0.021488769            3 
 2953000   0.77896694   -7.5060868     772.2519  0.021792863  0.021482555            5 
 2954000   0.78522053   -7.4731247    774.42402  0.021846762  0.021476343            2 
 2955000   0.77584561   -7.5005319    771.88981  0.021767902  0.021470157            2 
 2956000   0.78570945    -7.519989    771.79434  0.021757847  0.021463937            7 
 2957000   0.77896456   -7.5041893    772.40597  0.021767725  0.021457723            3 
 2958000   0.79438276   -7.4870044    773.05195  0.021778565  0.021451513            3 
 2959000   0.78262516   -7.4726763    774.21462  0.021803949  0.021445311            5 
 2960000   0.77724726   -7.4705408    774.56154   0.02180635   0.02143915            7 
 2961000   0.79048132   -7.4759294    775.25382  0.021818468  0.021432986            3 
 2962000   0.77619508   -7.4775683    773.36313  0.021757909  0.021426814            3 
 2963000   0.76459981   -7.4938667    774.96376  0.021795583  0.021420625            2 
 2964000   0.76480514   -7.5044453    772.76942  0.021726536  0.021414451            4 
 2965000   0.80373062   -7.4794817    772.13472  0.021701369  0.021408258            5 
 2966000   0.78540551   -7.5086522    771.24659  0.021669099  0.021402031            4 
 2967000   0.78124382    -7.469697    775.01776  0.021767716  0.021395821            5 
 2968000   0.75690637   -7.4843221    775.23985  0.021766618  0.021389645            6 
 2969000   0.76209661   -7.4854307    773.77414  0.021718147  0.021383454            4 
 2970000   0.78130423   -7.5004692    772.38378  0.021671823  0.021377262            4 
 2971000   0.78250451   -7.5064075    773.57187  0.021697853  0.021371042            6 
 2972000   0.78831928   -7.5113918    773.42078  0.021686316  0.021364841            5 
 2973000   0.79063418   -7.5101539     773.1198  0.021670585  0.021358624           11 
 2974000   0.77638138    -7.504083    775.45525  0.021728739  0.021352433            2 
 2975000   0.77276764   -7.5279003    772.38025  0.021635301  0.021346218            6 
 2976000   0.76775312   -7.4865781    775.70782  0.021721209  0.021340018            4 
 2977000    0.7730822   -7.4905957    774.96767  0.021693194  0.021333845            6 
 2978000   0.78618647   -7.5057225    772.50689   0.02161705  0.021327653            5 
 2979000    0.7746869   -7.4854259    775.46289  0.021692483  0.021321465            3 
 2980000   0.76469971   -7.4750227    773.92595  0.021642225   0.02131526            4 
 2981000   0.77953953   -7.4945074    772.74586  0.021601975  0.021309064            6 
 2982000   0.76594335   -7.5124239    772.49944  0.021587845   0.02130283            5 
 2983000     0.795659   -7.5043104    773.09822  0.021597335  0.021296591            7 
 2984000   0.79136573   -7.4857952     774.0408  0.021616421   0.02129038            4 
 2985000   0.77779844   -7.5440656    772.88207  0.021576831  0.021284169            6 
 2986000   0.78225415   -7.4933708    774.20332  0.021606478  0.021277944            4 
 2987000    0.7674824   -7.5101514     774.5634   0.02160929   0.02127172            3 
 2988000   0.77331132   -7.5121077    773.25775  0.021565645  0.021265502            3 
 2989000   0.78112148   -7.4910764    773.45516  0.021563933  0.021259279            3 
 2990000   0.78194771   -7.5291259    773.82768  0.021567104  0.021253034            2 
 2991000     0.765159   -7.5303694    774.34579  0.021574328  0.021246798            8 
 2992000   0.78894954   -7.4897689    773.67362  0.021548396  0.021240586            2 
 2993000   0.77454397   -7.5361144    774.08569   0.02155267  0.021234401            7 
 2994000   0.77540804   -7.4829549    775.17329  0.021575743  0.021228231            6 
 2995000   0.77340145   -7.4734552     775.5352  0.021578609  0.021222092            4 
 2996000   0.77361767   -7.4952706    774.15819  0.021533105  0.021215949           11 
 2997000    0.7560345   -7.4865524    775.49834  0.021563184  0.021209812            5 
 2998000   0.77205752   -7.4741764    776.21756  0.021575983  0.021203662            3 
 2999000   0.77196792   -7.4943611    776.11022  0.021565806  0.021197513            4 
 3000000   0.77548068   -7.5261207    774.15766  0.021504379  0.021191333            4 
 3001000   0.77960007   -7.5042254    775.73815  0.021541102   0.02118518            9 
 3002000   0.76480409   -7.5102666     774.0021  0.021485735  0.021179037            6 
 3003000   0.76260319   -7.4879372     776.8502  0.021557615  0.021172876            3 
 3004000   0.78107805   -7.4867678    775.60806   0.02151598  0.021166722            3 
 3005000   0.75834395    -7.473551    775.73776  0.021512417  0.021160595            4 
 3006000   0.76476342   -7.4726816    775.01744  0.021485292   0.02115444           10 
 3007000    0.7698478   -7.4933591    777.14383  0.021537076   0.02114831            9 
 3008000   0.77270782   -7.5223064    775.81873  0.021493205  0.021142151            5 
 3009000   0.76297127   -7.5473657    775.64627  0.021481286  0.021135971            4 
 3010000   0.78192912   -7.5437583    775.26425  0.021463573  0.021129758            5 
 3011000   0.76340431   -7.5172433    774.11013  0.021424503  0.021123517            7 
 3012000   0.76678484   -7.4884301    774.79558  0.021436354  0.021117289            8 
 3013000   0.75968069   -7.5116687    775.46785  0.021447833  0.021111088            9 
 3014000   0.76841559   -7.5345465    774.53466  0.021414915  0.021104875            5 
 3015000   0.77133804   -7.5354832    775.47887   0.02143391  0.021098685            6 
 3016000   0.77757938   -7.5022104    772.50522   0.02134464  0.021092468            3 
 3017000   0.76067995   -7.5163578    774.91987  0.021404261  0.021086261            5 
 3018000   0.77419671   -7.4996234    774.41612  0.021383259   0.02108008            6 
 3019000   0.78179652   -7.5018107    776.67109   0.02143842  0.021073917            6 
 3020000   0.79023953    -7.524306    775.69382  0.021404355   0.02106771            4 
 3021000   0.77519579   -7.4803122    775.26323  0.021385392  0.021061546            7 
 3022000   0.78748264   -7.4872612    776.49622  0.021412316  0.021055376            3 
 3023000    0.7446824   -7.5042788    776.48395  0.021404895  0.021049215            4 
 3024000   0.77043745   -7.5282015    776.03543  0.021385456  0.021043058           11 
 3025000   0.76402266   -7.5173042    775.44459   0.02136211  0.021036892            4 
 3026000   0.77762842   -7.5240174    775.47722  0.021355949   0.02103072            9 
 3027000   0.77136638   -7.5373048    774.56077  0.021323664  0.021024524            2 
 3028000    0.7675712   -7.5536276    774.65387  0.021319184  0.021018317            3 
 3029000    0.7696843   -7.5180707    776.36572  0.021359242  0.021012143            3 
 3030000   0.76269993   -7.5177579    774.95218  0.021313316  0.021005992            6 
 3031000   0.75869313   -7.5377286    774.73818  0.021300401  0.020999823            5 
 3032000    0.7507865   -7.5266724    777.43159  0.021367403  0.020993635            3 
 3033000    0.7651949    -7.533572    774.10071   0.02126884  0.020987433            3 
 3034000   0.77466452    -7.533506    774.50282  0.021272875  0.020981236            5 
 3035000   0.75635111   -7.5176415    775.06251  0.021281233  0.020975053           10 
 3036000   0.76291646   -7.5125037    778.23948  0.021361426   0.02096886            5 
 3037000   0.77071181   -7.5162208    776.10911  0.021295937  0.020962678            4 
 3038000   0.79816822   -7.5003759    777.61136  0.021330134  0.020956548            4 
 3039000   0.77673571   -7.5115063    776.66908  0.021297277  0.020950425            6 
 3040000    0.7718869    -7.500673    775.44765  0.021256789  0.020944292            6 
 3041000   0.77705807   -7.5254051    775.62305  0.021254605  0.020938113            3 
 3042000   0.75798488   -7.4879173    775.13131  0.021234147  0.020931939            6 
 3043000   0.76226327   -7.5207106    776.78398  0.021272428  0.020925749            4 
 3044000    0.7662963   -7.5069876    775.04341  0.021217789   0.02091958            4 
 3045000   0.75211639   -7.4977722    778.27391  0.021299231  0.020913416            6 
 3046000   0.75520247   -7.5117154    777.07567  0.021259457  0.020907272            4 
 3047000    0.7622352    -7.524669    776.72597  0.021242916  0.020901095            6 
 3048000   0.74989312   -7.5323089    777.11851  0.021246679  0.020894931            4 
 3049000   0.76202252   -7.5074214    776.10082  0.021211895  0.020888751            4 
 3050000    0.7617746    -7.527317    776.36215  0.021212081  0.020882552            4 
 3051000   0.76447709   -7.5179026    776.41674  0.021206619  0.020876388            7 
 3052000   0.78995403   -7.5278937    777.61301  0.021232334  0.020870208            2 
 3053000   0.76906052   -7.5541027     776.2252  0.021187499  0.020864039            5 
 3054000   0.77353121   -7.5358758    776.53605  0.021189043  0.020857843           13 
 3055000   0.76875573   -7.5359295    775.10863  0.021143171  0.020851637            4 
 3056000   0.75781116   -7.5539178    777.57788  0.021203585  0.020845446            4 
 3057000   0.76873844    -7.550862    775.09955   0.02112909   0.02083926            3 
 3058000   0.75347064   -7.5269783    775.88536  0.021143595  0.020833053            5 
 3059000   0.76700522   -7.5370815    774.95336  0.021111293  0.020826838            6 
 3060000   0.75601357   -7.5189051    776.82348  0.021155324  0.020820633            4 
 3061000   0.77217039   -7.5184139    776.78877  0.021147467  0.020814448            6 
 3062000   0.76227321   -7.5134606    777.08804  0.021148706  0.020808262           11 
 3063000   0.76712499   -7.5493996    776.14823  0.021116232  0.020802058            9 
 3064000   0.74553485   -7.5348577     774.0641  0.021052657  0.020795842            4 
 3065000    0.7559937    -7.536703    778.20718  0.021158433  0.020789627            7 
 3066000   0.75793339   -7.5342845    775.10848   0.02106731  0.020783439            5 
 3067000   0.76116829    -7.531118     776.6976  0.021103619   0.02077727            5 
 3068000   0.75642551   -7.5425074    776.14901   0.02108184  0.020771074            6 
 3069000   0.76564795    -7.541019    774.92924   0.02104185  0.020764863            9 
 3070000   0.76702179    -7.539242    776.38493   0.02107451   0.02075864            7 
 3071000   0.76062716   -7.5215426    776.08889  0.021059614   0.02075242            4 
 3072000   0.77668206   -7.5401868    776.10831  0.021053285  0.020746211            6 
 3073000   0.75397495   -7.5591086    775.90477  0.021040915  0.020740009            5 
 3074000   0.75821218   -7.5264884     776.1556   0.02104087  0.020733779            4 
 3075000    0.7572811   -7.5575538    776.52315  0.021043988  0.020727572            4 
 3076000   0.79800454   -7.5315988    777.95643  0.021075976  0.020721384            3 
 3077000   0.74921898    -7.527094    776.94809  0.021041818  0.020715217            7 
 3078000   0.76692353   -7.5364103     777.4183  0.021047712  0.020709036            6 
 3079000   0.74497227   -7.5203123    776.05029  0.021003851  0.020702843            5 
 3080000   0.76058881   -7.5487515    777.85696  0.021045913  0.020696626            7 
 3081000   0.76724492   -7.5267996    775.26575  0.020968997  0.020690397            4 
 3082000   0.77596735   -7.5406804    776.92554  0.021007072  0.020684179           10 
 3083000   0.76161787   -7.5509599    777.28101  0.021009866  0.020677956            5 
 3084000   0.76790092   -7.5155349    776.75972  0.020988968   0.02067177            3 
 3085000   0.75702115   -7.5469264     775.5399  0.020949214  0.020665555            6 
 3086000   0.77570295   -7.4939742    776.20919  0.020960499  0.020659349            2 
 3087000   0.76112038   -7.5571796    776.36397  0.020957887  0.020653106            3 
 3088000   0.76051834   -7.5700504    777.11105  0.020971261  0.020646913            2 
 3089000   0.74165408   -7.5787281    777.41159   0.02097258  0.020640716            3 
 3090000    0.7530485   -7.5515229    777.82741  0.020977007   0.02063452            3 
 3091000   0.75587344   -7.5447822    778.02903  0.020975656  0.020628319            4 
 3092000   0.74914656   -7.5604552    776.97819  0.020940551  0.020622131            6 
 3093000   0.75390075   -7.5531133    776.11721  0.020910583  0.020615944            4 
 3094000   0.74321307   -7.5537957     779.1398  0.020985235  0.020609741            8 
 3095000   0.76909669   -7.5548169    775.62641  0.020883856   0.02060353           11 
 3096000   0.76941844    -7.531109    778.64113  0.020958256  0.020597317            5 
 3097000   0.76632431   -7.5649804    775.97733  0.020879812   0.02059114            8 
 3098000   0.77015676   -7.5551428    777.29215  0.020908439  0.020584943            4 
 3099000   0.77253165   -7.5127364    776.56326  0.020882092  0.020578769            4 
 3100000   0.74222254   -7.5373364    778.05033  0.020915331  0.020572606            8 
 3101000   0.74769979   -7.5258316    777.10407  0.020883158  0.020566461            8 
 3102000   0.75805453   -7.5353581    778.60265  0.020916684  0.020560319            8 
 3103000    0.7564283   -7.5335123    779.87063  0.020943996  0.020554162            3 
 3104000   0.75984951   -7.5458278    777.76212  0.020880641  0.020548002            3 
 3105000   0.76478772   -7.5674948    778.22816  0.020886424  0.020541846            5 
 3106000   0.74513733   -7.5788562    777.16702  0.020851229  0.020535657            6 
 3107000    0.7613769   -7.5501093    776.93587  0.020838318  0.020529493            6 
 3108000   0.74063419   -7.5457899    778.18135  0.020865008  0.020523334           11 
 3109000   0.73588295   -7.5385639    778.89498  0.020877425  0.020517186            7 
 3110000    0.7545624   -7.5569228    777.13144  0.020823458  0.020511026            3 
 3111000     0.764808    -7.585805    775.56564  0.020774822  0.020504836            8 
 3112000   0.76059705   -7.5740351    776.84537  0.020802415  0.020498636            6 
 3113000   0.73569641    -7.566575    777.57266  0.020815201  0.020492469            9 
 3114000   0.76228321   -7.5615687    777.79792  0.020814545  0.020486287            3 
 3115000   0.76301634   -7.5477101    777.14837  0.020790486  0.020480083            3 
 3116000   0.77163958    -7.547255    777.54632  0.020794456   0.02047387            2 
 3117000   0.76043403   -7.5754858    777.56965  0.020788409  0.020467686            3 
 3118000   0.76383389   -7.5637512    779.29845  0.020827947  0.020461545            9 
 3119000   0.75183061    -7.569778    777.74436  0.020779747  0.020455411            4 
 3120000   0.73941214   -7.5535987    778.11787  0.020783063  0.020449263            3 
 3121000   0.75869437   -7.5495196    778.22255  0.020779199  0.020443124            3 
 3122000   0.76763559   -7.5516158    777.36432  0.020749635  0.020436977            7 
 3123000    0.7693815   -7.5512523    777.55616   0.02074811  0.020430829            8 
 3124000   0.76073366   -7.5729098    778.53375  0.020767546  0.020424678           10 
 3125000   0.75518988   -7.5607378    778.66753  0.020764468  0.020418532            9 
 3126000   0.75474467   -7.5566543    777.86001  0.020736298  0.020412399            8 
 3127000   0.76111299   -7.5403963    777.20612  0.020712241  0.020406263            3 
 3128000   0.75011322   -7.5514492     778.4098  0.020737686  0.020400134            5 
 3129000   0.76666706   -7.5664342     778.2915  0.020727908  0.020394012            5 
 3130000   0.75683805    -7.543926    778.59561  0.020729383  0.020387863            8 
 3131000   0.75985626   -7.5518599    777.46414  0.020692647  0.020381714           10 
 3132000   0.75677592   -7.5565725    778.18897  0.020705326  0.020375564            6 
 3133000   0.74532357   -7.5903277    777.33593  0.020676028  0.020369377            5 
 3134000   0.75515196   -7.5508264    779.38523  0.020723921  0.020363203            7 
 3135000   0.73979172   -7.6061372    775.45449  0.020612825  0.020357012            7 
 3136000   0.75575151   -7.5719113    777.28964  0.020655018  0.020350835            4 
 3137000   0.74711057   -7.5497728    778.83329   0.02068944  0.020344683            7 
 3138000    0.7371851   -7.5408072    780.19198  0.020718929  0.020338544           12 
 3139000   0.74229775   -7.5649547    777.95085  0.020652831  0.020332383            7 
 3140000   0.75381453   -7.5638532    778.69098  0.020665897  0.020326249            3 
 3141000   0.75441169   -7.5741599    776.83601  0.020610103  0.020320087            9 
 3142000   0.75103531   -7.5558609     779.5035  0.020674292  0.020313942           10 
 3143000   0.75820443   -7.5468431    781.52718   0.02072137  0.020307835            6 
 3144000   0.74957344   -7.5561691    781.28261  0.020708296  0.020301757            4 
 3145000   0.75261539   -7.5427668    777.73929  0.020607824  0.020295635            5 
 3146000   0.75211756   -7.5658134    778.36374  0.020617815  0.020289472            4 
 3147000   0.73511763     -7.55322    778.06222  0.020603279    0.0202833            3 
 3148000    0.7528033   -7.5981203    778.25396   0.02060181  0.020277153            7 
 3149000   0.73307255   -7.5873765    778.75317  0.020608478  0.020271016            4 
 3150000   0.73939863   -7.5847105    777.80711  0.020576908  0.020264842            5 
 3151000   0.74557685   -7.6000426    778.83328  0.020597516   0.02025866           10 
 3152000   0.74531532   -7.5607868    781.63168  0.020664966  0.020252518           13 
 3153000     0.770528   -7.5814043    776.88441  0.020532943  0.020246349            7 
 3154000   0.72674909   -7.5794906    779.79841  0.020603424  0.020240171            7 
 3155000   0.74512247   -7.5704334    779.46331  0.020588043  0.020234035           12 
 3156000   0.73122794   -7.5641141    780.76586  0.020615913  0.020227918            7 
 3157000   0.74397438   -7.5515013    781.40861  0.020626349  0.020221782            5 
 3158000    0.7567271   -7.5656632    780.11835   0.02058577  0.020215644            3 
 3159000   0.73827748   -7.5837393    779.89178  0.020573277  0.020209519            3 
 3160000   0.74714316   -7.5750433    780.77963   0.02059018  0.020203408            2 
 3161000   0.73783658   -7.5682975    781.08374  0.020591683  0.020197328            2 
 3162000   0.76271672   -7.5392664    780.48597  0.020569417  0.020191234            7 
 3163000   0.76315488   -7.5626871    779.52035  0.020537474  0.020185117            6 
 3164000   0.74568135   -7.5803561    778.70532  0.020509516   0.02017899            4 
 3165000     0.760116   -7.5541551    781.67454  0.020581215  0.020172892            3 
 3166000   0.74157045    -7.562484     779.2032  0.020509665  0.020166793            3 
 3167000   0.73447752   -7.5364122    780.47892  0.020536757  0.020160707            5 
 3168000   0.75122062    -7.577443    778.85358  0.020487521  0.020154613            3 
 3169000   0.74940938   -7.5712444    780.01351  0.020511558  0.020148486            5 
 3170000   0.74336628   -7.5736481    779.66977  0.020496051  0.020142364            5 
 3171000   0.74399883   -7.5641445    780.97561  0.020523904  0.020136275           10 
 3172000   0.75500159   -7.5805937    780.34704  0.020500921  0.020130174            2 
 3173000   0.74388612   -7.5843902    780.16721  0.020489737  0.020124081            6 
 3174000   0.74086369   -7.5854728    779.79532  0.020473517  0.020117978            2 
 3175000   0.74791135   -7.5335975    780.76079  0.020492409  0.020111909            4 
 3176000   0.75387414   -7.5573486     780.1618   0.02047024  0.020105834            6 
 3177000   0.75646185   -7.5513202    780.50581  0.020472821  0.020099745            5 
 3178000   0.73931986   -7.5587046    779.86244  0.020449508  0.020093665            5 
 3179000   0.73127315   -7.5821384    780.19939  0.020451908  0.020087568            4 
 3180000   0.74380195   -7.5526677    779.00107  0.020414074  0.020081497            8 
 3181000   0.76059014   -7.5485453    781.16399  0.020464319   0.02007544            4 
 3182000   0.73540273   -7.5861296    781.33587  0.020462389   0.02006938            4 
 3183000   0.73537915   -7.5882787    781.16368  0.020451452  0.020063301            4 
 3184000   0.74438528   -7.5986803    781.98709   0.02046658  0.020057229            4 
 3185000   0.72954154   -7.5881548    780.45648  0.020420107  0.020051153            2 
 3186000    0.7556762   -7.6033243    781.42484  0.020439026  0.020045099            2 
 3187000   0.73557296   -7.5600939    781.45199  0.020433323  0.020039062            2 
 3188000   0.73741304   -7.5762773    781.28563  0.020422565  0.020033043            2 
 3189000   0.74119803    -7.557951    782.11739  0.020437896  0.020027005            2 
 3190000   0.73247991   -7.5955079     779.7494  0.020369629  0.020020953            8 
 3191000   0.75659092   -7.6083478    781.21026  0.020401396  0.020014899            5 
 3192000   0.74565491   -7.5989477    781.18058   0.02039423  0.020008826            8 
 3193000   0.74825284    -7.601713    781.47046  0.020395408  0.020002771            4 
 3194000   0.74620996   -7.6134495    780.22514  0.020356531  0.019996709            6 
 3195000    0.7458649   -7.5856516    780.68914  0.020362262   0.01999066            7 
 3196000   0.73679764    -7.571575    780.43193  0.020349185  0.019984636            3 
 3197000   0.73587375   -7.5913956    782.68659   0.02040159  0.019978605           10 
 3198000   0.74342802   -7.5965154    781.15199  0.020355222  0.019972573            5 
 3199000   0.75660886   -7.5861477    781.58114  0.020360038  0.019966562            3 
 3200000   0.73841349   -7.5882225    783.76236  0.020410478  0.019960536            4 
 3201000   0.74801974   -7.5928369    782.47084  0.020370479   0.01995452            3 
 3202000   0.73749318   -7.5792318     781.0509  0.020327163   0.01994851            2 
 3203000   0.75961091   -7.5727372    783.17616   0.02037611  0.019942505            5 
 3204000   0.74445658   -7.5802483    783.41773  0.020376033  0.019936518            6 
 3205000   0.73630732   -7.5817964    782.82851  0.020354356  0.019930518            6 
 3206000   0.74828031   -7.5818215    781.56661  0.020315206  0.019924506            4 
 3207000   0.76181297   -7.5814488    780.50964  0.020281406  0.019918513            9 
 3208000   0.73106574   -7.5817478    781.81166  0.020308906  0.019912523            4 
 3209000   0.73815933    -7.593764    780.78844  0.020276006  0.019906504            8 
 3210000   0.74340216   -7.5912781    783.22384  0.020332914  0.019900501            8 
 3211000   0.74532694   -7.6020009     784.0314   0.02034754  0.019894495            4 
 3212000   0.74100197   -7.6016137     783.4549  0.020326248  0.019888511            4 
 3213000   0.72465567   -7.5671207    783.77127  0.020328127  0.019882532            5 
 3214000    0.7447957   -7.6005354    783.16359  0.020306046  0.019876537            7 
 3215000   0.73550513   -7.5797474    782.93171   0.02029372  0.019870534            7 
 3216000   0.74085649   -7.5959548    780.84106  0.020233236  0.019864525            5 
 3217000    0.7309582   -7.6035872    780.54884  0.020219377  0.019858527            3 
 3218000   0.73436899   -7.5926947    783.31318  0.020284679  0.019852532            4 
 3219000   0.73090183   -7.5721358    783.56862  0.020284991  0.019846547            5 
 3220000   0.73691373   -7.5839917    781.03084  0.020213013  0.019840526            5 
 3221000   0.73096079   -7.5982286    783.22436  0.020263488  0.019834494            7 
 3222000   0.74500327   -7.6011711    781.19539  0.020204722  0.019828487            4 
 3223000   0.72325728   -7.6095059    781.12088  0.020196527  0.019822453            4 
 3224000   0.73303191   -7.5902618    782.57135  0.020227754  0.019816433            5 
 3225000   0.72913548   -7.5927041    783.02606  0.020233231  0.019810387            5 
 3226000   0.72324241   -7.5824528    782.86206  0.020222723  0.019804373            8 
 3227000   0.73918191   -7.6048817    782.48784  0.020206793  0.019798362            5 
 3228000   0.73966924   -7.6242609    781.75367   0.02018158  0.019792346            8 
 3229000   0.74142608   -7.6005188    782.62725  0.020197875  0.019786323            4 
 3230000   0.71664752   -7.6105439    782.83038  0.020196862  0.019780329            4 
 3231000   0.74169952   -7.5981603    785.60507  0.020262176  0.019774356            3 
 3232000   0.74029515   -7.5782989    783.15439  0.020192718  0.019768384            9 
 3233000   0.72046144   -7.5831634    786.23097  0.020265774  0.019762423            2 
 3234000    0.7432812   -7.6035514    784.11501  0.020204984  0.019756471            5 
 3235000   0.72738205   -7.5867819    783.98953  0.020195506  0.019750485            5 
 3236000   0.72196257   -7.5817404    783.81349  0.020184731  0.019744496            7 
 3237000   0.72778834   -7.6167913    781.06577  0.020107758  0.019738493            4 
 3238000   0.73209424   -7.6199669     782.2829  0.020132873  0.019732476            3 
 3239000    0.7345235    -7.613558    784.21425  0.020176347  0.019726474           13 
 3240000   0.71586926     -7.59824    780.92093  0.020085415  0.019720482            4 
 3241000   0.72007368   -7.6182848    781.27499  0.020088321  0.019714449            9 
 3242000   0.74645574   -7.6125915    781.80515  0.020095752  0.019708433            7 
 3243000   0.72211708   -7.6125291    782.72113  0.020113093  0.019702418            7 
 3244000   0.73865688   -7.6041129    782.21082  0.020093784  0.019696402            3 
 3245000   0.72740046   -7.5742453    785.05907  0.020160736  0.019690427            7 
 3246000   0.72507412   -7.5968219    783.42276  0.020112517  0.019684461            5 
 3247000   0.75560464   -7.5919959    783.28524  0.020102793  0.019678483            4 
 3248000   0.73214861   -7.6092587    782.02989  0.020064396  0.019672509            7 
 3249000    0.7232173   -7.6163557    782.69542   0.02007529  0.019666531            3 
 3250000   0.74982715   -7.5960513    783.80554  0.020097578  0.019660564           12 
 3251000   0.73318693   -7.5825421    784.59427  0.020111614  0.019654585            7 
 3252000   0.72895747   -7.5802699    783.08687  0.020066802  0.019648595            4 
 3253000   0.73198941   -7.5810577    782.45875  0.020044542  0.019642627            3 
 3254000   0.73367725   -7.5967869    782.87754  0.020049107  0.019636627            6 
 3255000   0.72660728   -7.5905923    783.08881  0.020048357  0.019630633            6 
 3256000   0.73610434   -7.6203046    782.89772  0.020037309   0.01962464            4 
 3257000   0.73290224   -7.6089915    782.46147  0.020019995  0.019618622            4 
 3258000   0.73160148   -7.5897715    782.75444  0.020021343  0.019612624            5 
 3259000   0.72885271   -7.6157295    781.64727  0.019986889  0.019606614            6 
 3260000   0.73809456   -7.5960103    783.90538  0.020038481    0.0196006            8 
 3261000   0.72932072   -7.6194368    783.30083  0.020016887  0.019594599            6 
 3262000   0.73002102   -7.6280071    781.95179  0.019976287  0.019588604            4 
 3263000   0.73289418   -7.5968348    781.81032  0.019966552  0.019582623            7 
 3264000    0.7227476   -7.6069363    783.48543  0.020003202  0.019576636            4 
 3265000   0.71386933   -7.5938049    783.90368  0.020007751  0.019570659            3 
 3266000    0.7332926   -7.6429849    782.96473  0.019977667  0.019564666            4 
 3267000   0.73603318   -7.6159232    783.21684  0.019977983  0.019558683            5 
 3268000   0.73018206   -7.6052606    783.49563  0.019978979  0.019552723            6 
 3269000   0.72289189   -7.5988444     784.5281  0.019999187  0.019546753            5 
 3270000   0.73597052   -7.6248627    784.53597  0.019993271   0.01954081            6 
 3271000    0.7419697   -7.5944847    783.80022  0.019968415  0.019534878           10 
 3272000   0.73024312   -7.5946267    785.38932  0.020002784  0.019528939            5 
 3273000   0.73983214   -7.6067454    783.49099   0.01994834  0.019523014           13 
 3274000   0.73721204   -7.6282767    782.51891  0.019917504  0.019517067           11 
 3275000   0.72315523   -7.5958985    783.77531  0.019943392   0.01951116            6 
 3276000   0.72052602   -7.5730222    784.60441  0.019958395  0.019505258            7 
 3277000   0.73710967   -7.6091519    784.80695  0.019957455  0.019499345            8 
 3278000   0.72641235   -7.5865378     783.1855  0.019910146   0.01949344            4 
 3279000   0.71938551   -7.5825765    784.04887  0.019926016  0.019487536            7 
 3280000   0.72960681   -7.5861616    784.26642  0.019925468  0.019481626            6 
 3281000   0.73712175   -7.6022688    785.40879   0.01994841   0.01947572            9 
 3282000   0.72089204   -7.6271928    784.11014  0.019909358  0.019469795            3 
 3283000   0.70964751   -7.6180581    783.50516  0.019887937  0.019463866            6 
 3284000   0.72475545   -7.6192763    784.70344  0.019912288  0.019457921            3 
 3285000   0.72659136   -7.6373395    784.43059  0.019899305  0.019451976            5 
 3286000    0.7199354   -7.6090782    784.33152  0.019890736  0.019446054            2 
 3287000   0.71844033   -7.6089969    784.46786  0.019888142  0.019440134            7 
 3288000   0.73638157   -7.6232756    784.32592  0.019878496  0.019434203            4 
 3289000   0.72440527   -7.6159339     783.9815  0.019863725  0.019428246            3 
 3290000   0.73738112   -7.6091532    784.71046  0.019876152  0.019422304            9 
 3291000   0.72167606   -7.6524377     783.1542  0.019830705  0.019416368           16 
 3292000   0.72778619   -7.6346202    784.36538  0.019855341  0.019410422            6 
 3293000   0.71328659   -7.6053461    785.61387  0.019880906   0.01940449            7 
 3294000   0.72571617   -7.6029386    786.31838  0.019892693  0.019398564            7 
 3295000   0.70202601   -7.5971935    783.57457  0.019817263   0.01939265            8 
 3296000   0.72925479   -7.5790722    784.73347  0.019840551  0.019386756            6 
 3297000   0.72901738   -7.6148369    783.06124  0.019792267  0.019380852            8 
 3298000   0.70528443    -7.613503    783.69997  0.019802405  0.019374933            3 
 3299000    0.7084861   -7.6035849    785.61172  0.019844693  0.019369008            4 
 3300000    0.7384802   -7.6193062    784.46065  0.019809612  0.019363096            4 
 3301000   0.73062307   -7.6318061    784.24567  0.019798184  0.019357185            6 
 3302000   0.71629632   -7.6186013    786.06256  0.019838041  0.019351273            4 
 3303000    0.7252956   -7.6452831    786.04948  0.019831705  0.019345391            7 
 3304000   0.70502954    -7.631595    783.77756  0.019768401  0.019339511            7 
 3305000    0.7237506   -7.6321413     783.9234  0.019766097  0.019333608            4 
 3306000   0.72317293   -7.6278931    785.16953  0.019791529  0.019327691            4 
 3307000   0.72403345   -7.6176598    786.33629  0.019814945  0.019321782            8 
 3308000   0.70926612   -7.5960368    786.61098  0.019815875  0.019315902           10 
 3309000   0.71061347   -7.6057898    784.41399  0.019754558  0.019310034           14 
 3310000    0.7182731   -7.6128232    786.31725  0.019796507  0.019304145            7 
 3311000   0.72570805   -7.5915955    782.30215  0.019689473  0.019298256            4 
 3312000   0.71278063    -7.625004    785.41037  0.019761734  0.019292374            4 
 3313000   0.73061542   -7.6091049    785.66526  0.019762181  0.019286525            3 
 3314000   0.71390679   -7.6180659    786.53263  0.019778028  0.019280666            3 
 3315000   0.72242896   -7.6369825    784.92629  0.019731682  0.019274792            5 
 3316000   0.71849049   -7.5979873    786.51109  0.019765558  0.019268916            5 
 3317000   0.72779232   -7.6207754    783.10392  0.019674001  0.019263063            3 
 3318000   0.73123231   -7.6378832    784.87241  0.019712488  0.019257178            5 
 3319000   0.71934169   -7.6619879    785.24904  0.019716005  0.019251296            5 
 3320000   0.72427485   -7.6365567    785.88518  0.019726034  0.019245406            8 
 3321000   0.71012643   -7.6302232    785.57306  0.019712262  0.019239517            4 
 3322000   0.72207293   -7.6319309    785.82298  0.019712597   0.01923362            8 
 3323000   0.71093269   -7.6345458    784.84319  0.019682094  0.019227723           11 
 3324000    0.7090311   -7.6505495    785.35339  0.019688964  0.019221844            7 
 3325000   0.71603691   -7.6324497    785.42251  0.019684775  0.019215955            6 
 3326000   0.72333459   -7.6354441    785.30066  0.019675803  0.019210053            6 
 3327000   0.73703508   -7.6174228    784.91829  0.019660312  0.019204166            3 
 3328000   0.70968553   -7.6286813    784.85611  0.019652847  0.019198285            3 
 3329000   0.73392369   -7.6086685    786.68158   0.01969264  0.019192405            7 
 3330000   0.72495414   -7.6261348     785.3898  0.019654399  0.019186523           11 
 3331000   0.71700945   -7.6491183    784.83057  0.019634508   0.01918065            3 
 3332000   0.70480871   -7.6224026    786.40458  0.019667982  0.019174794            7 
 3333000   0.71043228   -7.6448138    785.93627  0.019650372  0.019168922            8 
 3334000   0.72143268   -7.6287921    784.53936  0.019609562   0.01916303           10 
 3335000   0.71277497   -7.6488198    783.95577    0.0195891  0.019157144            5 
 3336000    0.7144692   -7.6107549    786.19509  0.019639166  0.019151245            4 
 3337000    0.7369981   -7.6370071    785.59625  0.019618326  0.019145351            3 
 3338000   0.72145168   -7.6311961    785.84673  0.019618702  0.019139457            4 
 3339000   0.69716552   -7.6165087    784.92211   0.01958975  0.019133576           10 
 3340000    0.7101839   -7.6195531    785.57875  0.019600268  0.019127704            6 
 3341000   0.70611891    -7.656978    784.07749  0.019556956  0.019121822            6 
 3342000   0.72044271   -7.6408382    784.93487  0.019572483  0.019115936            5 
 3343000   0.72860983   -7.6520869    784.89767  0.019565701  0.019110026           10 
 3344000   0.71382925   -7.6662651    784.64404   0.01955353  0.019104101            5 
 3345000    0.7069983   -7.6495892    784.25185  0.019537914  0.019098184            7 
 3346000   0.73649588   -7.6162926     785.2481  0.019556886  0.019092294            6 
 3347000   0.72053465   -7.6686704    785.14404  0.019548452  0.019086392            5 
 3348000   0.70747599   -7.6610288    785.24969  0.019545243  0.019080507            3 
 3349000    0.7202881    -7.651415    783.95449  0.019507178    0.0190746            8 
 3350000   0.72193535   -7.6236102    785.45965  0.019538797  0.019068718            5 
 3351000   0.71557997   -7.6305918     784.5054  0.019509236  0.019062833            3 
 3352000   0.72718724   -7.6276102    784.04145  0.019491882  0.019056972            6 
 3353000   0.71242521   -7.6415938    785.50391  0.019522415  0.019051113            7 
 3354000   0.70855227   -7.6246963    785.51116  0.019516775  0.019045232            3 
 3355000   0.71665596   -7.6772319    783.82644  0.019469112  0.019039351            6 
 3356000    0.7289587     -7.66189    784.67627  0.019484413  0.019033481            5 
 3357000   0.72728702   -7.6388565    783.51692  0.019449829  0.019027586            4 
 3358000   0.71537766   -7.6830878    783.50218  0.019443671  0.019021684            8 
 3359000   0.71699597   -7.6391686    783.66996  0.019442045  0.019015791            8 
 3360000   0.71578564   -7.6509478    784.54327  0.019457918  0.019009908            5 
 3361000    0.7112812   -7.6356114    783.78478  0.019433323  0.019004051            7 
 3362000    0.7147532    -7.628302     786.2801  0.019489394  0.018998186            7 
 3363000   0.71862342   -7.6628961    785.10833  0.019454563  0.018992341            9 
 3364000   0.71314986    -7.629409    785.70425  0.019463542  0.018986476            6 
 3365000   0.71077787   -7.6825292    783.96427  0.019414667  0.018980612            5 
 3366000   0.71712974   -7.6628486    785.27543   0.01944136  0.018974747            3 
 3367000   0.71221258   -7.6490174    784.12343  0.019407074  0.018968888            5 
 3368000   0.71368102   -7.6732661    785.53898  0.019436337  0.018963019            4 
 3369000   0.70928218   -7.6588226     784.3511  0.019401185  0.018957174            3 
 3370000    0.6989101   -7.6467847    785.76251  0.019430329  0.018951334            8 
 3371000   0.71505633     -7.65747    786.69073  0.019447511  0.018945498            6 
 3372000   0.69848802   -7.6598276    786.93281  0.019447727  0.018939639            6 
 3373000   0.71033953   -7.6712996    785.50565  0.019406701   0.01893379            3 
 3374000   0.71138389   -7.6555144    787.00334  0.019437941  0.018927949            3 
 3375000   0.72765496   -7.6394369    786.41106  0.019417557  0.018922128            6 
 3376000    0.7230166   -7.6497846    785.38587    0.0193865  0.018916311            5 
 3377000   0.71463417   -7.6562783    785.36626  0.019380275  0.018910491            6 
 3378000   0.72113656   -7.6415946    787.33406  0.019423082   0.01890467            7 
 3379000   0.70680088   -7.6288944    786.98419  0.019408706  0.018898852            2 
 3380000   0.72232797   -7.6485694    786.68094  0.019395487  0.018893046            4 
 3381000   0.70826769   -7.6413436    787.04614  0.019398751  0.018887231            5 
 3382000   0.69554401   -7.6434413    786.56185  0.019381082  0.018881421            6 
 3383000   0.69094379   -7.6148609    787.01661  0.019386556  0.018875635            5 
 3384000   0.71812055   -7.6483654    787.24994  0.019386573  0.018869846            2 
 3385000   0.71963472     -7.65048    786.85483  0.019371118  0.018864045            6 
 3386000   0.70092194   -7.6516405    786.14415  0.019347907  0.018858244            4 
 3387000   0.70324151   -7.6188449    787.77182  0.019382241  0.018852494            4 
 3388000    0.7152312   -7.6647571    787.28164  0.019364464  0.018846747            3 
 3389000    0.7087255   -7.6660363    788.31958  0.019384272  0.018840997            4 
 3390000   0.71228972   -7.6317931    787.45773  0.019357368  0.018835236            3 
 3391000   0.71295364   -7.6317924    787.25114  0.019346583   0.01882945            4 
 3392000   0.70859218    -7.647555    787.43788  0.019345467  0.018823671            7 
 3393000   0.72024542   -7.6378111    787.49465   0.01934116  0.018817912            7 
 3394000     0.714331   -7.6615862    786.39338  0.019308421   0.01881214            9 
 3395000   0.71821652   -7.6505883    787.82287  0.019337822   0.01880638            4 
 3396000   0.70186872   -7.6218687    787.48487  0.019323834  0.018800607            5 
 3397000   0.69136167   -7.6422153    786.31092  0.019289347  0.018794845            6 
 3398000   0.69768372   -7.6771594    785.78073  0.019270667  0.018789068            7 
 3399000   0.70314369   -7.6348765    787.16232   0.01929887  0.018783279            3 
 3400000   0.70067361   -7.6518476    788.15407  0.019317502  0.018777523            5 
 3401000   0.69688008   -7.6360697     787.1703  0.019287717  0.018771763            9 
 3402000   0.70316649   -7.6295234    786.92932  0.019276144  0.018766007            4 
 3403000   0.70658229   -7.6483444    787.58501  0.019286537   0.01876026            5 
 3404000    0.7019949   -7.6383375    787.70876    0.0192839  0.018754526            2 
 3405000   0.69100249   -7.6491466    789.40649  0.019319787    0.0187488            8 
 3406000    0.7023119   -7.6412561    788.18566  0.019284245  0.018743094            5 
 3407000   0.71775126   -7.6596143    788.67645  0.019290589  0.018737365            4 
 3408000   0.69636837   -7.6805776    787.09535  0.019246267  0.018731632            5 
 3409000   0.71640668   -7.6465679    790.25714  0.019317912    0.0187259            8 
 3410000   0.71157095   -7.6711533    786.85899  0.019229203  0.018720154            5 
 3411000   0.68890194   -7.6405363    787.71176  0.019244399  0.018714428            6 
 3412000   0.71478617   -7.6701687    786.71644   0.01921445  0.018708689            7 
 3413000   0.70601561   -7.6877335    786.63321  0.019206788  0.018702946            7 
 3414000   0.70947907   -7.6458946    789.28612  0.019265918  0.018697212            4 
 3415000   0.71622487   -7.6924199    787.33531  0.019212672   0.01869148            6 
 3416000   0.70825444   -7.6790362    787.29004  0.019205944  0.018685733            4 
 3417000   0.70238918   -7.6804281    789.07415  0.019243834  0.018679982            6 
 3418000   0.70002549   -7.6841581    787.24472  0.019193601  0.018674247            6 
 3419000   0.70388274   -7.6979375    788.31396  0.019214048  0.018668498            3 
 3420000   0.71485418   -7.6658723    787.68197   0.01919303  0.018662755            9 
 3421000    0.6882191   -7.6898413    787.44381  0.019181619  0.018657033            6 
 3422000   0.70328086   -7.6986143    786.56969  0.019154727  0.018651314            7 
 3423000   0.71744348   -7.6638481    788.26333  0.019190362  0.018645597            6 
 3424000   0.69231104   -7.6658229    788.73005  0.019196117  0.018639899            7 
 3425000   0.70817244   -7.6633369    787.81567  0.019168265  0.018634193            6 
 3426000   0.70865544    -7.690443    787.49473  0.019154863  0.018628478           10 
 3427000   0.70352258   -7.6612454    786.51901  0.019125547  0.018622754            5 
 3428000   0.70288351   -7.6741695    787.43636  0.019142269  0.018617043            4 
 3429000   0.68934568    -7.677121    787.43747  0.019136713  0.018611346            8 
 3430000   0.70654089   -7.6720919    788.29137   0.01915188  0.018605648            4 
 3431000   0.69652978   -7.6917151    789.20932  0.019168593  0.018599936            8 
 3432000   0.70002914   -7.6809166    787.41552  0.019119452  0.018594229            4 
 3433000   0.68257233   -7.6779095    789.08022  0.019154292   0.01858852            4 
 3434000   0.70172293   -7.6656047    787.57787  0.019112257  0.018582817            9 
 3435000   0.69027026   -7.6665424    789.42444  0.019151491  0.018577105            6 
 3436000   0.68795881   -7.6800899    788.68358  0.019127949  0.018571403            4 
 3437000   0.70694505   -7.6726154    788.43181  0.019116279   0.01856571            7 
 3438000   0.70294988   -7.6747981    789.61603  0.019139423   0.01855999            6 
 3439000    0.7001146   -7.6693215    788.56641  0.019108423  0.018554279            4 
 3440000   0.69891238   -7.6772271    787.55034  0.019078254  0.018548571            7 
 3441000   0.70346326   -7.6956379    789.24409  0.019113729   0.01854286            7 
 3442000   0.71229391   -7.6826983    788.32113   0.01908583  0.018537141            5 
 3443000   0.69645055   -7.6865174    787.19139  0.019052943  0.018531427            4 
 3444000   0.70312675   -7.6839237    787.88579  0.019064213  0.018525726            4 
 3445000   0.70444274   -7.6706893    789.66049  0.019101608  0.018520034            4 
 3446000   0.71328106   -7.6723442    788.83653   0.01907614  0.018514343            4 
 3447000   0.69297846   -7.6781496    789.10978  0.019077212  0.018508659            3 
 3448000   0.70005692   -7.6734644    788.97142  0.019068335  0.018502996            7 
 3449000   0.70423232   -7.6802668    788.74836  0.019057417  0.018497323            9 
 3450000   0.68903291      -7.6554    786.41516  0.018995535  0.018491651            4 
 3451000   0.69320472   -7.6732904    789.20165  0.019057318   0.01848597            6 
 3452000   0.70293196   -7.6752558     788.7752  0.019041502  0.018480287            5 
 3453000   0.70317842   -7.6617101    788.80922  0.019036809  0.018474624            5 
 3454000   0.69923992   -7.6648305    788.76277  0.019030177  0.018468953            4 
 3455000   0.71099839   -7.6588138    788.55122  0.019019566  0.018463298            6 
 3456000   0.69254969   -7.6832046    789.32089  0.019032622  0.018457637            6 
 3457000   0.70683515   -7.6750348    790.17422  0.019047686  0.018451967            6 
 3458000   0.71043235   -7.6594223    789.70947  0.019030978  0.018446295           11 
 3459000    0.6946927   -7.6698728     788.8678  0.019005199  0.018440623            7 
 3460000   0.70524266   -7.6680064     788.5907  0.018993032  0.018434959            5 
 3461000   0.69955631    -7.703546    791.13475    0.0190488   0.01842929            5 
 3462000   0.70480686   -7.6559641    789.23275  0.018997515  0.018423636            4 
 3463000   0.68966384   -7.6702077    790.11062  0.019013154  0.018417983            6 
 3464000    0.6834775   -7.6663101    790.14539  0.019008501  0.018412333            8 
 3465000   0.71444824   -7.6682635    789.96853  0.018998762  0.018406687            4 
 3466000   0.71255234   -7.6973421    788.42638  0.018956203   0.01840104            3 
 3467000   0.68919686    -7.668286    789.93508  0.018986998  0.018395369            3 
 3468000   0.69949759   -7.6776192    791.35584  0.019015663   0.01838972            3 
 3469000   0.69198013   -7.6759454    790.58475  0.018991658  0.018384057            6 
 3470000   0.69591058    -7.652832    788.70773  0.018941108   0.01837842            5 
 3471000   0.70553198   -7.6642306     788.6007  0.018933081  0.018372768            6 
 3472000   0.70148612    -7.688807    788.22284  0.018918559  0.018367128            7 
 3473000   0.68574378   -7.6870973    788.58298  0.018921753  0.018361485            5 
 3474000   0.70185399   -7.6691783    789.26957  0.018932776  0.018355857            4 
 3475000   0.68999425   -7.6649751     789.3844  0.018930082  0.018350226            5 
 3476000    0.6951662   -7.6962144    791.26227  0.018969656  0.018344614            6 
 3477000   0.72099738   -7.6526516    790.29685  0.018941062  0.018339003            4 
 3478000   0.69028301   -7.6602581    790.85739  0.018949046  0.018333405            7 
 3479000    0.6992334   -7.7028348    791.60636   0.01896154  0.018327818            4 
 3480000   0.69378886   -7.6827347    790.74365  0.018935432  0.018322208            5 
 3481000   0.69870154    -7.692354    789.46271  0.018899328   0.01831659            5 
 3482000   0.70664886    -7.701293    789.59564  0.018897081  0.018310978            4 
 3483000   0.69302085   -7.6954221    789.36708  0.018886187  0.018305354            6 
 3484000   0.69460829   -7.6761363    791.03884  0.018920753   0.01829973            4 
 3485000   0.69355262   -7.6914152    789.51157  0.018878804  0.018294091            4 
 3486000   0.70272867   -7.6598737    791.15191  0.018912601  0.018288482            4 
 3487000   0.69933774   -7.6904617    789.51778  0.018868124  0.018282873           12 
 3488000   0.69791076   -7.6754113     791.2888  0.018905027  0.018277253            6 
 3489000   0.69598372   -7.7012036    788.94609  0.018843654  0.018271641            5 
 3490000   0.68925506   -7.6930354    790.27459  0.018869976  0.018266017           13 
 3491000   0.68950706   -7.7099854    790.55624  0.018871294  0.018260397            8 
 3492000   0.70124852    -7.690582    789.97521  0.018852024  0.018254779           11 
 3493000   0.69045024   -7.6735896    788.91116  0.018821241  0.018249167            9 
 3494000   0.69791371    -7.697047    789.82621  0.018837679  0.018243547           11 
 3495000   0.68711542   -7.6724056    790.71215  0.018853413  0.018237926            7 
 3496000   0.68816934   -7.6807035    791.69335  0.018871409  0.018232319            6 
 3497000   0.70121333   -7.7064702    790.13652  0.018828913  0.018226729           13 
 3498000   0.69787314   -7.6878196    789.06684  0.018798047  0.018221115            7 
 3499000   0.68539783   -7.7000192    789.00205  0.018791132  0.018215509            7 
 3500000   0.68341196   -7.7197024    788.56636  0.018775389  0.018209858           14 
 3501000   0.70384485   -7.7056652     789.3554  0.018788808  0.018204212            9 
 3502000   0.69954899   -7.6985395    789.21092  0.018780005  0.018198565            9 
 3503000    0.6911076   -7.7129664    788.94542  0.018768328  0.018192922            9 
 3504000   0.68861678   -7.6999443    788.07859  0.018742356  0.018187256            5 
 3505000   0.69023262   -7.7039958    787.97133  0.018734459  0.018181608            8 
 3506000   0.68404784   -7.6914809    789.03423  0.018754379  0.018175962            3 
 3507000   0.68905179    -7.696927     790.1278  0.018775017  0.018170333           12 
 3508000   0.67624429   -7.6995879    789.78813  0.018761596  0.018164712           12 
 3509000   0.68147831   -7.6861524    791.50025  0.018796909  0.018159089            4 
 3510000   0.68765976   -7.6971815    790.94835  0.018778451  0.018153471           11 
 3511000   0.68482709    -7.700698    789.80996  0.018746083   0.01814786            9 
 3512000   0.68330724   -7.6819469    790.70079  0.018761883  0.018142264           11 
 3513000   0.70513579   -7.6922737    790.16329  0.018743792  0.018136674            7 
 3514000   0.68184558   -7.7073823    787.64776  0.018678803  0.018131075            5 
 3515000   0.67155419   -7.6971096    789.69231  0.018721961  0.018125479            8 
 3516000   0.68984607   -7.6996258    788.38493   0.01868565  0.018119868            6 
 3517000   0.68644153   -7.6826044    789.69553  0.018711391  0.018114263            5 
 3518000   0.68020851   -7.6882918    790.46009  0.018724182  0.018108649           11 
 3519000   0.69024402   -7.6791058    791.19553  0.018736278  0.018103063            4 
 3520000   0.68466002   -7.7055942    790.21725  0.018707795   0.01809747            8 
 3521000   0.69379934   -7.6892264    789.21519  0.018678765  0.018091864            6 
 3522000   0.70919944   -7.6840059     789.6711  0.018684249  0.018086267            2 
 3523000   0.70567633   -7.7024556     790.1582  0.018690467  0.018080654            6 
 3524000   0.68446186   -7.6823572    790.51653  0.018693637  0.018075054            3 
 3525000   0.68350193   -7.6966284    791.44758  0.018710345  0.018069462            6 
 3526000   0.68958956   -7.7122385    790.01827  0.018671258  0.018063863            5 
 3527000   0.67952353   -7.7161349    787.66556  0.018610376  0.018058255            5 
 3528000   0.69178567   -7.6830121    788.21931  0.018618181  0.018052639            4 
 3529000   0.69460545   -7.6997814    788.26238  0.018613922  0.018047015            7 
 3530000   0.68077376   -7.7411176    788.18158  0.018606742  0.018041395           10 
 3531000   0.68748796   -7.7125114     788.1659  0.018601102  0.018035769            4 
 3532000      0.69158   -7.7152682    787.80881  0.018587411  0.018030132            5 
 3533000   0.70127061   -7.6934846    791.55136  0.018670425  0.018024511            6 
 3534000   0.68439073   -7.6951444    789.59958  0.018619119    0.0180189            6 
 3535000   0.69052965   -7.7163529    788.19478  0.018580735  0.018013295            5 
 3536000   0.69376187   -7.7166282    787.41767  0.018557166  0.018007693            5 
 3537000   0.70032843   -7.7014911    789.16546  0.018593098  0.018002081            4 
 3538000   0.67004658   -7.7190089     788.1762  0.018564542  0.017996458            7 
 3539000   0.69735827   -7.7400921    789.41293  0.018588418  0.017990837            9 
 3540000   0.70290953   -7.7242764    788.73392  0.018567183  0.017985219            6 
 3541000   0.68529033   -7.7270435    790.70723  0.018608379  0.017979601            6 
 3542000   0.66937883   -7.7248171    789.11645  0.018565699  0.017973992            7 
 3543000   0.67667363   -7.6988802    789.94849  0.018580028  0.017968388            5 
 3544000   0.70412646   -7.7134199    789.84764  0.018572415   0.01796278           10 
 3545000    0.6901824   -7.7027737    787.78594   0.01851871  0.017957186            7 
 3546000   0.68780907   -7.7392082    789.00754  0.018542196  0.017951586            5 
 3547000   0.67935034   -7.7151272    789.38704  0.018545885  0.017945997            5 
 3548000   0.68838628   -7.7000884    792.03086  0.018602754  0.017940403            8 
 3549000    0.7013469   -7.7161238      789.203  0.018531112  0.017934818           15 
 3550000   0.67907409   -7.7064356    788.62429  0.018512307  0.017929227           13 
 3551000   0.68265695    -7.698251    790.63026  0.018554169  0.017923635           14 
 3552000   0.68587656   -7.7255233    788.30758  0.018494453  0.017918049            7 
 3553000   0.68181557   -7.7316397    788.82473  0.018501377  0.017912474           17 
 3554000   0.67926289   -7.7135754    789.39869   0.01850963  0.017906892           11 
 3555000   0.68595218   -7.7269662    789.68587  0.018511155  0.017901302            9 
 3556000   0.67656669   -7.7219221    788.71942  0.018483301  0.017895701           12 
 3557000   0.66724898   -7.7286067    788.52283  0.018473499  0.017890095            5 
 3558000   0.67790205   -7.7153486    789.95831  0.018501928  0.017884506            6 
 3559000   0.68500271   -7.7206488    788.65912  0.018466309  0.017878912            4 
 3560000   0.67426849     -7.72548    789.44958  0.018479625   0.01787333            9 
 3561000   0.67221278   -7.7192496    789.82607  0.018483246  0.017867748            5 
 3562000   0.69589437   -7.7421606    790.23334  0.018487585  0.017862174            8 
 3563000   0.68708706   -7.7156005    789.98706  0.018476636  0.017856593            6 
 3564000   0.66665484   -7.7104506    788.42292  0.018434879  0.017851014            3 
 3565000   0.68259894   -7.7199618    791.24786  0.018495742  0.017845436            5 
 3566000   0.68739961    -7.727721    789.26189  0.018444146  0.017839861           14 
 3567000   0.69269446   -7.7304473    788.74351  0.018426865  0.017834297            5 
 3568000     0.692546   -7.7284884    788.92836  0.018426017  0.017828733           13 
 3569000   0.69574892   -7.7025941    789.86334  0.018442686  0.017823169            5 
 3570000   0.69705033   -7.7212204    789.98465  0.018440351  0.017817601            4 
 3571000   0.67541961   -7.7047962    790.10831  0.018438073   0.01781203            6 
 3572000   0.66841016   -7.7331907     788.9669  0.018406283  0.017806457            4 
 3573000   0.68874236    -7.741404    788.54427  0.018391274  0.017800864           11 
 3574000    0.6833976   -7.7608234    788.64224  0.018388413  0.017795269            4 
 3575000    0.6746323   -7.7423146    789.61567   0.01840596  0.017789701            8 
 3576000    0.6633874   -7.7440255    790.43298  0.018419859  0.017784144            4 
 3577000   0.67102907   -7.6927076    788.94311      0.01838  0.017778589            4 
 3578000   0.68694624   -7.7285343    788.35564   0.01836118  0.017773044            9 
 3579000   0.66360805   -7.7436238    789.86589  0.018391215  0.017767505            4 
 3580000   0.68290347   -7.7486541    789.86137  0.018385972  0.017761957            6 
 3581000   0.67572877   -7.7671168    791.32207   0.01841483  0.017756399            7 
 3582000   0.67196227   -7.7221817    788.99518  0.018355555  0.017750844            4 
 3583000   0.68903539   -7.7236846    788.53821  0.018339804  0.017745302           11 
 3584000   0.68486004   -7.7500195    789.22654  0.018350691  0.017739767            7 
 3585000   0.69335133   -7.7358057     789.8116  0.018359172  0.017734227           14 
 3586000   0.68487497   -7.7229647    789.62842  0.018349796  0.017728683            5 
 3587000   0.66123423   -7.7151035    789.24996  0.018335888  0.017723135            8 
 3588000    0.6918776   -7.6995737    789.01648  0.018325355  0.017717598            5 
 3589000    0.6639842    -7.724158    788.60511  0.018310697  0.017712056            5 
 3590000   0.68865543   -7.7502401    789.48735  0.018326076  0.017706502            6 
 3591000   0.67353863   -7.7542134    789.29302  0.018316463  0.017700956            5 
 3592000   0.68609708   -7.7449031     787.7146  0.018274745  0.017695413            4 
 3593000   0.68085414   -7.7355678     789.4532  0.018309982  0.017689875            4 
 3594000     0.674077    -7.722422    791.08653  0.018342759  0.017684331            3 
 3595000   0.67972755   -7.7278051     789.2787  0.018295751  0.017678787            5 
 3596000   0.67371463   -7.7456097    790.10464  0.018309804  0.017673228            4 
 3597000   0.68969734   -7.7447187    788.09495  0.018258154   0.01766767            5 
 3598000   0.68277817   -7.7398679    788.36564  0.018259349  0.017662119           13 
 3599000   0.67422152   -7.7160112    790.28658  0.018298754  0.017656573            7 
 3600000   0.67759067   -7.7588088    789.92845  0.018285381   0.01765104            7 
 3601000    0.6809358   -7.7269773    789.39951  0.018268062  0.017645491            7 
 3602000   0.68319617   -7.7516319    788.98255  0.018253344  0.017639941            4 
 3603000   0.69155863   -7.7320921    789.48414  0.018259879  0.017634405           10 
 3604000   0.66041271   -7.7262701    790.13077  0.018269764  0.017628864            4 
 3605000   0.66955209    -7.750378    787.93362  0.018213907  0.017623342            6 
 3606000   0.67084338   -7.7404909    789.90786   0.01825448  0.017617818            4 
 3607000   0.69488375   -7.7334392    788.86112  0.018225236    0.0176123            4 
 3608000   0.65884474    -7.734758    789.60295  0.018237319  0.017606786            4 
 3609000   0.67580563    -7.740455    789.63214  0.018232939  0.017601276            3 
 3610000   0.67449716   -7.7214569    789.62418  0.018227705  0.017595771            3 
 3611000   0.67219808    -7.731608     789.8406  0.018227652  0.017590276            3 
 3612000   0.67219335    -7.743779    788.00965  0.018180363  0.017584783            3 
 3613000   0.67739683   -7.7590741    790.78635  0.018239375  0.017579286            5 
 3614000   0.68156979   -7.7606875    790.08564  0.018218171  0.017573793            3 
 3615000    0.6571264   -7.7383707    790.29423   0.01821794  0.017568299            7 
 3616000   0.67363474   -7.7297944    791.90131  0.018249938   0.01756282            3 
 3617000   0.67996492    -7.736695    788.95619  0.018177039   0.01755734            4 
 3618000   0.67172263   -7.7068016    790.15192  0.018199556   0.01755187            5 
 3619000   0.67225269   -7.7393238    788.71121  0.018161352  0.017546403            5 
 3620000   0.68132664   -7.7386277    790.27481   0.01819233  0.017540939            6 
 3621000   0.66145873   -7.7343258    790.61061  0.018195034  0.017535458            7 
 3622000   0.68470633   -7.7349278    791.39221  0.018207993  0.017529985            3 
 3623000   0.67330566   -7.7307228    789.85058  0.018167508  0.017524505            6 
 3624000   0.67387329   -7.7593248    789.04704  0.018144018  0.017519031            6 
 3625000   0.68237312   -7.7256501    790.88552  0.018181276  0.017513555            4 
 3626000   0.65775947   -7.7338062    793.16144  0.018228568  0.017508095            3 
 3627000   0.66056116   -7.7205146    791.07333  0.018175566  0.017502635           15 
 3628000   0.66660646   -7.7186326    790.24913  0.018151625  0.017497177            6 
 3629000   0.66254429   -7.7357001    790.50897   0.01815259  0.017491711            5 
 3630000   0.68774077   -7.7301351    791.01131  0.018159121  0.017486241            3 
 3631000   0.67928646   -7.7433481       790.75  0.018148123  0.017480762            3 
 3632000   0.67506099   -7.7485699    790.17532   0.01812994  0.017475287            6 
 3633000   0.67242445    -7.746722     789.2404  0.018103505  0.017469809           19 
 3634000   0.67978552   -7.7595918    791.24431  0.018144476  0.017464323            7 
 3635000   0.66626343   -7.7306268    791.16635  0.018137697  0.017458841            4 
 3636000   0.66698424    -7.740608    790.49078  0.018117225  0.017453361            9 
 3637000   0.65853891   -7.7636043     788.7146  0.018071547  0.017447858            8 
 3638000   0.68270864   -7.7673856    789.37631  0.018081737  0.017442364            6 
 3639000   0.66016102   -7.7373966    790.53773  0.018103365   0.01743689            3 
 3640000   0.67368383   -7.7463034    791.12369  0.018111806  0.017431429            4 
 3641000   0.65611598   -7.7299085    791.29853  0.018110833  0.017425986           12 
 3642000   0.68598484   -7.7458658    791.11522  0.018101666   0.01742052            7 
 3643000   0.67735576   -7.7538035    790.21674  0.018076145  0.017415054            6 
 3644000   0.65672773   -7.7253633    791.15512  0.018092644  0.017409585            5 
 3645000    0.6575281   -7.7474017    789.69645  0.018054331  0.017404127            8 
 3646000   0.68951192   -7.7707854    788.51828  0.018022451  0.017398657           10 
 3647000    0.6734352   -7.7594509    790.70499  0.018067475  0.017393202            6 
 3648000   0.68437514   -7.7491657    791.07706  0.018071022  0.017387755            5 
 3649000   0.66374557   -7.7546498    790.00565  0.018041601   0.01738231           12 
 3650000   0.66182917     -7.76513    791.16061  0.018063028  0.017376858            5 
 3651000   0.67250071   -7.7474123    790.70774  0.018047743  0.017371387            8 
 3652000   0.66900924   -7.7774271    791.28873  0.018056059  0.017365926            7 
 3653000   0.67973215   -7.7296301    790.17992  0.018025822  0.017360465            5 
 3654000   0.65745951   -7.7502839    789.31839  0.018001241  0.017355002           13 
 3655000   0.65910332    -7.744835    790.96487  0.018033855  0.017349555            4 
 3656000   0.67302999   -7.7259339    790.31744  0.018014165  0.017344113            3 
 3657000   0.67579205   -7.7483934    791.26177  0.018030758  0.017338687            6 
 3658000   0.66534004   -7.7258861    791.04224  0.018020827  0.017333266            5 
 3659000   0.66179367   -7.7484415     791.6309  0.018029309  0.017327864            5 
 3660000   0.65263373   -7.7118953    789.01218  0.017964758  0.017322459            3 
 3661000   0.64992989   -7.7411182    789.96889  0.017981628  0.017317043           14 
 3662000   0.67611497   -7.7494165     790.0376  0.017978282  0.017311634           14 
 3663000   0.66431704   -7.7377933    790.83518  0.017991518  0.017306236            8 
 3664000   0.68590923   -7.7532234    789.50451  0.017956343  0.017300834            3 
 3665000   0.67315856   -7.7552955    791.13366  0.017988487  0.017295428            5 
 3666000   0.66460896   -7.7462147    790.73991   0.01797463  0.017290015            3 
 3667000    0.6597882   -7.7618862     789.9495  0.017951766  0.017284614            8 
 3668000   0.67169006    -7.749223    791.52818  0.017982738  0.017279192            6 
 3669000   0.66631469   -7.7945892    792.16594  0.017992322  0.017273768            3 
 3670000   0.66896348   -7.7740453    789.54737   0.01792796  0.017268345            8 
 3671000   0.66847924   -7.7554208    790.53735   0.01794555  0.017262922            5 
 3672000   0.66215735   -7.7640008    788.93768  0.017904359  0.017257492            3 
 3673000   0.67510925   -7.7677464     790.5684  0.017936482  0.017252061            4 
 3674000    0.6715244   -7.7664526    791.33765  0.017949048  0.017246642            4 
 3675000   0.66252789   -7.7621561    790.57681  0.017926912  0.017241223            6 
 3676000   0.67082604   -7.7729729    790.51909  0.017920727  0.017235803            9 
 3677000   0.66223976    -7.746457    789.18592  0.017885639  0.017230387            4 
 3678000   0.65977765   -7.7581764    790.61272  0.017913103  0.017224972            4 
 3679000   0.65347787   -7.7645594    792.42035  0.017949179  0.017219568            6 
 3680000   0.65153538   -7.7698005    789.62107  0.017880912  0.017214169            6 
 3681000   0.66834056   -7.7607095     791.4449  0.017917344  0.017208774            3 
 3682000   0.66798985   -7.7558936    791.42346  0.017911992  0.017203378            9 
 3683000   0.66735548   -7.7711705    791.10249  0.017899866  0.017197985            6 
 3684000   0.66827739    -7.759361    793.33378   0.01794548  0.017192595            5 
 3685000   0.66609354   -7.7468915    789.64735  0.017857244  0.017187221            4 
 3686000   0.66427354   -7.7502641    789.11705  0.017840411  0.017181837            7 
 3687000   0.66887206   -7.7559593    791.52375  0.017889968  0.017176454            2 
 3688000   0.66903769   -7.7709602    789.45931   0.01783847   0.01717108            7 
 3689000   0.65487591   -7.7474956    791.32333  0.017875742  0.017165712            5 
 3690000   0.65260535   -7.7774678    791.20126  0.017868141  0.017160334            8 
 3691000   0.66871513   -7.7689579    791.25403  0.017864491  0.017154971            9 
 3692000   0.67005555   -7.7511262    791.14013  0.017857081  0.017149592            7 
 3693000   0.64605709   -7.7546202    790.04108  0.017827446  0.017144232            3 
 3694000   0.66164263   -7.7326148    791.54996  0.017856659  0.017138884           10 
 3695000   0.66591943   -7.7535446    792.60462  0.017875612  0.017133543            4 
 3696000   0.68618167   -7.7610233    792.43213  0.017866886  0.017128204            8 
 3697000   0.66231574   -7.7529987    790.68208  0.017822606  0.017122864            5 
 3698000   0.65523735   -7.7645331    791.68522  0.017840392  0.017117524            8 
 3699000   0.66162086   -7.7695429    790.93711  0.017818715  0.017112159            6 
 3700000   0.65322987   -7.7579066     792.2996  0.017844585  0.017106798            6 
 3701000   0.67070217   -7.7527243    793.35279  0.017863478  0.017101448            9 
 3702000   0.66528898   -7.7728395    791.61641  0.017819566  0.017096105           13 
 3703000   0.66323918   -7.7678573    792.18455   0.01782754  0.017090752            6 
 3704000   0.64640662   -7.7684749    792.85497   0.01783781  0.017085406            6 
 3705000   0.67008326   -7.7457837    793.12784  0.017839133  0.017080056           12 
 3706000   0.64760568   -7.7661705    790.99663  0.017786397  0.017074696            5 
 3707000   0.65943617   -7.7668416    791.71902  0.017797838  0.017069326           10 
 3708000   0.65562497   -7.7654085    790.44278  0.017764356  0.017063952           10 
 3709000   0.65932311    -7.760555    791.65231  0.017786742  0.017058593           10 
 3710000   0.65858495   -7.7809586    790.79738  0.017762744  0.017053234            6 
 3711000   0.65596248   -7.7660057    792.05411  0.017786179  0.017047877            6 
 3712000    0.6604382   -7.7557703    790.29269  0.017741844  0.017042517            6 
 3713000   0.65262261   -7.7838337    788.17319  0.017689496  0.017037158            7 
 3714000   0.65528226   -7.7783778    790.48171  0.017736531  0.017031795            8 
 3715000   0.65751095   -7.7565052    791.48988  0.017754372  0.017026433            8 
 3716000   0.64244834   -7.7751596    790.82391  0.017734659   0.01702108            9 
 3717000   0.67138619   -7.7721457    789.74903  0.017705789  0.017015732            7 
 3718000   0.64250998   -7.7658608    790.61557  0.017720449  0.017010381            9 
 3719000   0.64463799   -7.7937596    790.82152  0.017720299   0.01700503           18 
 3720000   0.65465192    -7.782748    791.19931  0.017723999  0.016999682            6 
 3721000   0.64961254   -7.7527364    792.27984  0.017743435  0.016994337            8 
 3722000   0.65872478   -7.7694605    790.52194  0.017699309  0.016988999           11 
 3723000   0.64055062   -7.7572822    789.85538  0.017679635  0.016983656           20 
 3724000   0.65544283   -7.7766203    791.13203  0.017703456  0.016978328           13 
 3725000   0.64884754   -7.7446184    790.43393  0.017683086  0.016972997           15 
 3726000   0.65661509   -7.7793994    790.19479  0.017672991  0.016967668           14 
 3727000   0.66228598    -7.770763    790.42234  0.017673337  0.016962325            6 
 3728000   0.65667837   -7.7675405    790.20217  0.017663675  0.016956985           12 
 3729000   0.65638312   -7.7655721     791.5941  0.017690044  0.016951653            6 
 3730000   0.66257702   -7.7824533    792.14665  0.017697646  0.016946314           10 
 3731000   0.64818401   -7.7864034    790.39193   0.01765371  0.016940966            5 
 3732000   0.64401906    -7.790527    790.01298  0.017640519  0.016935615            9 
 3733000   0.66695071   -7.7795449     792.0819  0.017681978   0.01693029            5 
 3734000   0.65042653   -7.7731531    790.52649   0.01764253   0.01692498           13 
 3735000   0.65993073    -7.755846     792.2235  0.017675669  0.016919667            7 
 3736000   0.63594952   -7.7758422    790.53179  0.017633204  0.016914351           12 
 3737000   0.64821825     -7.79965     790.5215  0.017628256  0.016909026           14 
 3738000   0.64190597   -7.7886182    791.57615  0.017647052  0.016903695           11 
 3739000    0.6281704   -7.7972589    791.79716  0.017647258  0.016898363           14 
 3740000   0.65543399   -7.7892711    792.29855  0.017653711  0.016893046           10 
 3741000   0.66111444   -7.7775336    789.82812  0.017593962  0.016887731            6 
 3742000   0.65228697   -7.7908194    791.20887  0.017620009  0.016882434            5 
 3743000   0.66603889   -7.7879863    793.23105  0.017660323  0.016877127            6 
 3744000      0.65518   -7.7867638    790.63304   0.01759778  0.016871829            4 
 3745000    0.6673774   -7.7727549    790.60729  0.017592508  0.016866514            4 
 3746000   0.64959373   -7.8117559    791.29083  0.017603017  0.016861203            6 
 3747000    0.6563247   -7.7858896    790.36295  0.017577683  0.016855897           13 
 3748000   0.65918373   -7.7837999    790.29946  0.017571582  0.016850588            5 
 3749000   0.65903739   -7.7922727    790.56625  0.017572825  0.016845281           11 
 3750000   0.66440187   -7.7918129    791.15151  0.017581145  0.016839962            3 
 3751000   0.65499871   -7.7974105    790.19794  0.017555273   0.01683464           12 
 3752000   0.65574851   -7.8060006    789.27793   0.01753016  0.016829323           14 
 3753000   0.65746428   -7.7991124    789.08915  0.017521297  0.016824006           11 
 3754000   0.65142387   -7.8064996    790.78401  0.017554254  0.016818693            6 
 3755000   0.64478414   -7.8126017    791.23196   0.01755952  0.016813375           13 
 3756000   0.65469509   -7.7854702    792.68225  0.017587022  0.016808077            7 
 3757000   0.65647478   -7.8084185     788.3503  0.017486255  0.016802769            5 
 3758000   0.64573571   -7.8121764    790.44093  0.017527961   0.01679745           10 
 3759000    0.6513395      -7.7976    791.04651  0.017536723  0.016792131           20 
 3760000   0.66148546   -7.7898165    789.53145  0.017498481  0.016786822            4 
 3761000   0.64952193   -7.7871316    790.37988  0.017512627  0.016781505           19 
 3762000   0.64401342   -7.8305402    790.38114     0.017508  0.016776199            6 
 3763000   0.65683698    -7.807146    790.55367  0.017507168  0.016770886            8 
 3764000   0.64326667   -7.7676429    790.28538  0.017496577  0.016765585            6 
 3765000   0.64754578   -7.8026594    790.41454  0.017494788  0.016760292            6 
 3766000   0.64919261   -7.8094746    791.77154   0.01752017  0.016754988            8 
 3767000   0.64773423   -7.8064937    790.06496  0.017477767  0.016749686            4 
 3768000   0.63262852   -7.8121242    790.10441  0.017474001  0.016744375            6 
 3769000   0.64980195   -7.8182207    789.77421  0.017462063  0.016739065            8 
 3770000   0.65978357    -7.824139     790.7891  0.017479865  0.016733766            4 
 3771000   0.66479203   -7.8108967    790.77634  0.017474948  0.016728471            5 
 3772000   0.63873357   -7.8162953    789.94356  0.017451917  0.016723171            7 
 3773000   0.63824164   -7.7892488    790.66816  0.017463295   0.01671788            6 
 3774000    0.6584223   -7.7911925    790.72713   0.01745997   0.01671259            5 
 3775000   0.63362572   -7.7887092    789.94223  0.017438018  0.016707313            6 
 3776000   0.64378426   -7.8222971    790.91699  0.017454912  0.016702034            6 
 3777000   0.65640674   -7.7866471    792.54979  0.017486316  0.016696759            5 
 3778000   0.64324073   -7.7681778    790.57241  0.017438072  0.016691486            6 
 3779000   0.63465102   -7.7810876    791.16116   0.01744644  0.016686212            4 
 3780000   0.64252609    -7.795248    791.08649  0.017440178   0.01668095            7 
 3781000   0.65699635   -7.7866327    790.86303  0.017430641  0.016675678            7 
 3782000   0.64368987   -7.8088377     791.1117  0.017431511  0.016670414            8 
 3783000   0.63761083   -7.7859996    791.66831  0.017439165  0.016665159            5 
 3784000   0.64871193   -7.7840122    789.66785  0.017390501  0.016659913            7 
 3785000   0.64560181    -7.782925    789.44499  0.017380999  0.016654651            5 
 3786000   0.65802731   -7.7977691    790.30944  0.017395436  0.016649393            4 
 3787000   0.64138587   -7.7954182    791.16521  0.017409674  0.016644124            7 
 3788000   0.63363464   -7.8041989    789.91931  0.017377669  0.016638852            5 
 3789000   0.64960899   -7.8066913    790.48289  0.017385477  0.016633592            5 
 3790000   0.65493897    -7.789192    790.35309  0.017378036   0.01662833            5 
 3791000   0.62890519     -7.81846    790.01423  0.017366004  0.016623077            7 
 3792000   0.64934771    -7.808396    791.32017  0.017390123  0.016617828            9 
 3793000   0.65034054   -7.8023882    790.68231  0.017371525  0.016612584            3 
 3794000   0.63279103   -7.8014176    791.72816  0.017389917  0.016607327            3 
 3795000   0.63416813   -7.8075578    791.03553  0.017370126  0.016602076            6 
 3796000   0.63833032   -7.8085808    791.16608  0.017368416  0.016596824           11 
 3797000   0.64985641   -7.8038585     789.5855  0.017329152  0.016591578            8 
 3798000    0.6447325    -7.830391    791.07036   0.01735717  0.016586328            5 
 3799000   0.64032547   -7.8063409    791.97857  0.017372523  0.016581076            3 
 3800000   0.63515032   -7.8182476     790.8573  0.017343362  0.016575829            7 
 3801000   0.63094288   -7.8007205    792.07605  0.017365519  0.016570592            6 
 3802000    0.6447965   -7.7936204    789.32029   0.01730055  0.016565344            7 
 3803000   0.64317965   -7.8109096    790.10581  0.017313214  0.016560106            7 
 3804000   0.64791985   -7.8053222    790.92046  0.017326508  0.016554875            6 
 3805000   0.64199495   -7.7863598    789.56923  0.017292362  0.016549643            7 
 3806000   0.63712428   -7.7880808    790.51485  0.017308523  0.016544408            7 
 3807000   0.63947203   -7.7783098    791.82851  0.017332732  0.016539176           10 
 3808000   0.64541963    -7.802917    790.55666  0.017300347  0.016533946            6 
 3809000   0.65501043   -7.8076913    791.54869  0.017317509   0.01652872            6 
 3810000   0.64275438   -7.7929782    791.75577  0.017317493  0.016523509            3 
 3811000   0.64103856   -7.7928207    791.27618  0.017302462  0.016518291            7 
 3812000    0.6334394   -7.8109464     791.7024   0.01730724  0.016513076            6 
 3813000   0.64474035    -7.791495    789.77489  0.017260575  0.016507863            7 
 3814000   0.62676205   -7.8359646    791.29598  0.017289285   0.01650264            7 
 3815000   0.63524891   -7.8115743    789.81455  0.017252393  0.016497434           14 
 3816000   0.64123043   -7.8025294    789.40854  0.017239006   0.01649221           11 
 3817000   0.65499545   -7.7861469    791.13883  0.017272265  0.016487015            9 
 3818000   0.65792526   -7.8258391    792.49223  0.017297281  0.016481816           12 
 3819000   0.64055811    -7.790901     792.2094   0.01728658   0.01647661            5 
 3820000   0.63206203    -7.781667    791.29722  0.017262156  0.016471414           11 
 3821000   0.65781346   -7.8022546    790.28107  0.017235477  0.016466222           12 
 3822000   0.64113775   -7.7905924    792.18037  0.017272379  0.016461032           12 
 3823000   0.63177535   -7.8044222    791.84887  0.017260635  0.016455839            9 
 3824000   0.64627602   -7.8046055     789.4621  0.017204108  0.016450622           10 
 3825000   0.63946866   -7.8020226    791.74163  0.017249273  0.016445414           17 
 3826000   0.63403573   -7.8059242    792.77531  0.017267279  0.016440203           11 
 3827000   0.62947492   -7.8167636    791.37799   0.01723234  0.016435002            8 
 3828000   0.62911521   -7.8171767    792.37888  0.017249627  0.016429795           10 
 3829000   0.65622003   -7.8447398    789.01055  0.017171815  0.016424584           10 
 3830000   0.62474673   -7.7948991    791.28674  0.017216857  0.016419379           11 
 3831000   0.63208533   -7.8219224    790.65965  0.017198722  0.016414172           19 
 3832000   0.62314464   -7.8280352    790.81971  0.017197715   0.01640897            5 
 3833000   0.62469562   -7.8383697    791.87048  0.017216073  0.016403781            8 
 3834000   0.63344627   -7.8143904    789.87339  0.017168175  0.016398584            6 
 3835000   0.64315005   -7.8252704    790.92023  0.017186446  0.016393379            6 
 3836000   0.62858267   -7.8266165    790.09804  0.017164104  0.016388188            6 
 3837000   0.64049273    -7.820182    790.60422  0.017170624  0.016382991           12 
 3838000   0.64583287     -7.82613    790.81362  0.017170697  0.016377788            8 
 3839000   0.63050469   -7.8305032    790.27426  0.017154516  0.016372586            7 
 3840000   0.64049136   -7.8332345    789.83493  0.017140515  0.016367391            9 
 3841000    0.6493636    -7.815109    790.44866  0.017149368  0.016362195           10 
 3842000   0.64004992   -7.8303517    790.40492  0.017143955  0.016356991           10 
 3843000   0.62321306   -7.8384208    791.60039  0.017165417  0.016351784           11 
 3844000   0.64249235   -7.8319868    789.64979  0.017118665  0.016346585           11 
 3845000   0.63142734   -7.8165536    790.90566  0.017141432   0.01634139           10 
 3846000   0.62822807   -7.8362001    789.36375  0.017103565  0.016336196            7 
 3847000   0.62888443   -7.8117664     791.0069  0.017134713  0.016331016            4 
 3848000   0.62341544   -7.8273987    789.94183  0.017107195  0.016325834           13 
 3849000   0.63596659   -7.8426523    790.03898  0.017104854   0.01632065           10 
 3850000   0.63601757   -7.8275126     791.5931   0.01713405  0.016315463           11 
 3851000   0.63594635     -7.82238    792.45128  0.017148171  0.016310291            8 
 3852000   0.63623413   -7.8417133     791.2138  0.017116948  0.016305123            5 
 3853000    0.6329398   -7.8344268    790.79847  0.017103523  0.016299962            7 
 3854000   0.65238002   -7.8196307    791.46492  0.017113495  0.016294812            6 
 3855000   0.63003864   -7.8209453    790.98342  0.017098647  0.016289661            4 
 3856000   0.64275932   -7.8194289    790.58686  0.017085643  0.016284504            2 
 3857000    0.6264624   -7.8335546    789.94032  0.017067244  0.016279349            4 
 3858000   0.63731289   -7.8286097    789.91232  0.017062215  0.016274201            4 
 3859000   0.63637529   -7.8494626    790.77977  0.017076526  0.016269037            6 
 3860000   0.65046737   -7.8215676    789.85237  0.017052081  0.016263889            5 
 3861000   0.62765567   -7.8377073    790.73249   0.01706666  0.016258743            8 
 3862000   0.63004937    -7.827022    789.73415  0.017040699   0.01625358            6 
 3863000    0.6320111   -7.8576665    790.12894  0.017044804  0.016248422            4 
 3864000    0.6334005   -7.8384317    792.00054  0.017080757  0.016243256            6 
 3865000   0.63150341   -7.8589902    791.33262  0.017061937  0.016238094            9 
 3866000   0.64554515   -7.8385525    790.20106  0.017033132  0.016232937            4 
 3867000   0.64086921   -7.8564785    789.92766  0.017022836  0.016227774            5 
 3868000   0.64541599   -7.8597612    790.18829   0.01702405  0.016222627            8 
 3869000   0.62567102   -7.8392327    790.91799  0.017035366  0.016217463            7 
 3870000   0.64611832   -7.8209554    790.19826  0.017015466  0.016212292            8 
 3871000   0.62387253   -7.8436499    792.28702  0.017056037  0.016207138            4 
 3872000   0.63548343   -7.8574286    791.27175  0.017029781   0.01620198            5 
 3873000   0.63319728   -7.8478199    790.00916  0.016998218  0.016196821           10 
 3874000   0.63372532   -7.8692229    789.18551  0.016976112  0.016191657            7 
 3875000   0.63461648   -7.8501475    791.15637  0.017014116  0.016186496            6 
 3876000    0.6175454   -7.8437656     789.6858  0.016978109  0.016181344            9 
 3877000   0.63146173   -7.8366838    790.45587  0.016990282  0.016176187           10 
 3878000   0.63930642   -7.8287348      791.201  0.017001913  0.016171044           12 
 3879000   0.63263557   -7.8167395    790.83374   0.01698964  0.016165891            6 
 3880000   0.63679589   -7.8373716    789.86512  0.016964457  0.016160737           11 
 3881000   0.63079831   -7.8535179    790.36071  0.016970727   0.01615559           11 
 3882000   0.64540606   -7.8376859    790.84947  0.016976848   0.01615044            6 
 3883000   0.62982153   -7.8455625    790.55888  0.016966239  0.016145292            7 
 3884000   0.64484645   -7.8403484    790.28214  0.016955933   0.01614014           11 
 3885000   0.63849382   -7.8483956    788.94684  0.016922927  0.016134987            7 
 3886000   0.63044157   -7.8610178    789.44465  0.016929247  0.016129827            3 
 3887000   0.62419591   -7.8350062    792.48972  0.016990175  0.016124671            6 
 3888000   0.62987922   -7.8507601    788.74942  0.016905638  0.016119531            8 
 3889000   0.62198125    -7.861261    788.07123  0.016886758  0.016114388            6 
 3890000   0.63413273   -7.8635488     789.7545  0.016918477  0.016109245            5 
 3891000   0.62896671   -7.8440961    789.66565  0.016912226  0.016104098            4 
 3892000   0.62901789    -7.856824    790.50097  0.016925766   0.01609894            5 
 3893000   0.63277736   -7.8522158     790.2232  0.016915472  0.016093789            4 
 3894000   0.62767752   -7.8469387    787.83918  0.016860109  0.016088638            8 
 3895000   0.63575697   -7.8658309    789.03851   0.01688144  0.016083494            8 
 3896000   0.63753987   -7.8603733    789.71886  0.016891659  0.016078349            5 
 3897000   0.63010361   -7.8718564    789.48199   0.01688226  0.016073208            9 
 3898000   0.63252962   -7.8538318    790.43436  0.016898289   0.01606808            6 
 3899000   0.62655313   -7.8511477     788.8909  0.016860966  0.016062949            4 
 3900000   0.63191044    -7.860878    788.73771   0.01685337  0.016057819            8 
 3901000   0.62137075   -7.8772023    789.57222  0.016866876  0.016052684            8 
 3902000   0.63721373   -7.8634913    788.30854  0.016835566   0.01604754           10 
 3903000   0.63022527   -7.8510225    789.93838  0.016866051  0.016042408            4 
 3904000   0.62890457   -7.8534277    789.23643  0.016846748  0.016037277            9 
 3905000   0.63041769    -7.868485    789.66636  0.016851608  0.016032145            4 
 3906000   0.61851513   -7.8780719    789.27681  0.016838983  0.016027015            7 
 3907000   0.61620681   -7.8558923    789.71592  0.016844039  0.016021886            7 
 3908000   0.62225188   -7.8707504     789.8031  0.016841588  0.016016754            9 
 3909000   0.62082379   -7.8646895    790.72536   0.01685694   0.01601164            9 
 3910000   0.62837461   -7.8560081    788.81043  0.016811816  0.016006511           12 
 3911000   0.62959961   -7.8666029    789.46773  0.016821523  0.016001384           12 
 3912000   0.63859825   -7.8654329    790.00104  0.016828584  0.015996261           12 
 3913000   0.62628944   -7.8539727    789.70331  0.016817942  0.015991146            8 
 3914000   0.64221914   -7.8553708    788.55517    0.0167892  0.015986025           18 
 3915000   0.61383435   -7.8286067    790.59922  0.016828421   0.01598091            5 
 3916000   0.62961985   -7.8606952    789.97788  0.016810901  0.015975802            8 
 3917000   0.63413487   -7.8672671    787.94286  0.016763315  0.015970693            4 
 3918000   0.62180324   -7.8441563    789.20855  0.016785957  0.015965575            6 
 3919000   0.60263632    -7.849116    790.40339  0.016807081  0.015960459            5 
 3920000   0.63222082   -7.8794089    789.73323  0.016788547  0.015955342            7 
 3921000    0.6421064   -7.8567027    789.35148  0.016776151   0.01595023            5 
 3922000   0.62006303   -7.8428485    790.45052  0.016795226  0.015945127            5 
 3923000   0.62158366   -7.8422343    789.21379  0.016764674  0.015940017           11 
 3924000   0.61718834   -7.8422595    790.58015  0.016789419  0.015934924           10 
 3925000   0.62750452   -7.8529035     790.5485  0.016784469  0.015929825            8 
 3926000   0.62020387   -7.8542091    790.10235  0.016770724   0.01592473            4 
 3927000   0.62121714   -7.8699655    790.36508  0.016772029  0.015919625            9 
 3928000     0.607525   -7.8272355    790.96303  0.016780444  0.015914528            7 
 3929000   0.62458171   -7.8731152    788.51124  0.016724172  0.015909433            9 
 3930000   0.62326959   -7.8758161    790.31422  0.016758147  0.015904337            6 
 3931000   0.62525308   -7.8786929    789.72251   0.01674134  0.015899236           10 
 3932000   0.61971814   -7.8624934    788.05342  0.016701709  0.015894135            8 
 3933000   0.61770515   -7.8546482    789.81253  0.016734734  0.015889042            7 
 3934000   0.62073823   -7.8673319    789.15248  0.016716499  0.015883951            5 
 3935000   0.62496428   -7.8709868    788.68606  0.016702373   0.01587886            8 
 3936000   0.61107999   -7.8493695    790.21452   0.01673049  0.015873768            6 
 3937000   0.62590492   -7.8788729     790.0434  0.016722619  0.015868675            5 
 3938000   0.61343817   -7.8470676     788.7207  0.016690382  0.015863583            8 
 3939000   0.62616742   -7.8559801    789.53707  0.016703416  0.015858495            5 
 3940000   0.61864329   -7.8504636    788.53919  0.016678071  0.015853416            5 
 3941000   0.62668705   -7.8664513    789.96089  0.016703901  0.015848341           11 
 3942000   0.62565288   -7.8574642    789.59423  0.016691912  0.015843263            6 
 3943000   0.63590282   -7.8782549    788.93694  0.016673788  0.015838187            3 
 3944000   0.61776736   -7.8871974    789.44507  0.016680296  0.015833106            3 
 3945000   0.61881129   -7.8480011    789.43136  0.016675779  0.015828032            3 
 3946000   0.61587578   -7.8783611    789.14939  0.016665598  0.015822957            7 
 3947000    0.6174114   -7.8756126    789.25807   0.01666367  0.015817894            6 
 3948000   0.61993756   -7.8640482    789.17355  0.016657665  0.015812823            7 
 3949000   0.62321251   -7.8541678    789.88271  0.016668412  0.015807767            5 
 3950000   0.60857535   -7.8415164    790.75558  0.016682607  0.015802705            7 
 3951000   0.61369368   -7.8435814    789.97303   0.01666188  0.015797649            4 
 3952000   0.63388211   -7.8589169     790.3477  0.016665564  0.015792599            6 
 3953000   0.62864652    -7.864477    790.77999  0.016670461  0.015787552           14 
 3954000   0.61605264   -7.8540428    789.22221  0.016633414  0.015782514            5 
 3955000   0.62260412   -7.8782205    788.98692   0.01662425  0.015777472            5 
 3956000   0.62120762   -7.8628767    789.53427  0.016631578   0.01577243            4 
 3957000   0.61555244   -7.8717821    789.95248  0.016636182  0.015767387            5 
 3958000   0.62698207   -7.8616996    791.68155  0.016668384  0.015762351            3 
 3959000   0.60091195    -7.865659    789.87428  0.016626132  0.015757308            4 
 3960000   0.62745115   -7.8733188    789.10189  0.016605679  0.015752258            3 
 3961000   0.61318568   -7.8760216    789.64983  0.016613015  0.015747206            6 
 3962000   0.61958461   -7.8535601    789.38526  0.016603257  0.015742158            4 
 3963000   0.62949842   -7.8667645     788.8727   0.01658829  0.015737109            4 
 3964000   0.61117504    -7.869109     788.5884  0.016578128  0.015732074            6 
 3965000   0.61193953   -7.8713698    789.59936  0.016595195  0.015727044            5 
 3966000   0.59984734    -7.865959    789.42424  0.016587331  0.015722015            5 
 3967000   0.61594691   -7.8892151    791.30728  0.016622706  0.015716988            7 
 3968000    0.6021286   -7.8843508    789.81301  0.016587135  0.015711969            3 
 3969000   0.61995672   -7.8570228    790.01716  0.016587242  0.015706961            4 
 3970000   0.62459155   -7.8771686    789.64261  0.016575202  0.015701951            5 
 3971000   0.60652986   -7.8787556    790.47585  0.016588514  0.015696936            4 
 3972000   0.61658257   -7.8786026    790.55392  0.016585975  0.015691928            3 
 3973000   0.62726712   -7.8854074    790.43892  0.016579388  0.015686923            3 
 3974000   0.61515992   -7.8862562     789.1912  0.016549052  0.015681909            3 
 3975000   0.61483848   -7.8584409    789.05225  0.016541976    0.0156769            5 
 3976000   0.62141347    -7.862487    789.78265  0.016553124  0.015671896            6 
 3977000   0.60737487   -7.8719138    789.04123  0.016533426   0.01566689            8 
 3978000   0.61458716    -7.871885      789.254  0.016533727  0.015661885            5 
 3979000   0.60661944   -7.8445629    788.59244  0.016515717  0.015656877            8 
 3980000   0.61351997   -7.8640692    789.71083  0.016534984  0.015651868            9 
 3981000   0.61416308   -7.8734543    791.06492  0.016559175  0.015646865            7 
 3982000   0.60773589   -7.9072564    791.27558  0.016559425  0.015641858            6 
 3983000   0.60921553   -7.8593453    789.99866  0.016528552  0.015636865            6 
 3984000   0.61181995   -7.9099962    790.14717  0.016527509  0.015631867            6 
 3985000   0.60934367   -7.8791683    789.95344  0.016519311  0.015626866            7 
 3986000   0.61839024   -7.8626053    789.38717  0.016503328  0.015621866            8 
 3987000   0.61842806   -7.8910451    789.54687  0.016502526  0.015616873            8 
 3988000   0.60443676   -7.8831846    790.21443  0.016512338  0.015611874            8 
 3989000   0.61644594   -7.9070537    789.40456  0.016491279  0.015606877            5 
 3990000   0.62446547    -7.873006     790.6014  0.016512143  0.015601883            7 
 3991000   0.61322397   -7.9139119    789.06512  0.016475927  0.015596894           11 
 3992000   0.60662026   -7.8932103    789.02195  0.016470899  0.015591907            8 
 3993000   0.60254705   -7.8774653    789.49708   0.01647669  0.015586929           12 
 3994000   0.62199152   -7.8801842    789.25922  0.016467602  0.015581948           10 
 3995000   0.61262093   -7.8935175    788.84506  0.016454841  0.015576971            8 
 3996000   0.61602319    -7.891361    789.25569  0.016459286  0.015571995            6 
 3997000   0.61049759   -7.8906848    791.20585  0.016495827  0.015567024            3 
 3998000   0.61487866    -7.873641     790.0271  0.016467131  0.015562055            6 
 3999000   0.60262898   -7.8831303     792.0935  0.016506074    0.0155571            8 
 4000000   0.60351806   -7.8891424    789.59987  0.016449997  0.015552137            3 
 4001000   0.61726413   -7.8759154    790.29285  0.016460319  0.015547165            4 
 4002000   0.60302092   -7.8850963    790.53315   0.01646121  0.015542195            4 
 4003000   0.61442482   -7.8957923    788.99185  0.016425011  0.015537231            7 
 4004000   0.61496131   -7.8935634     790.6842  0.016456131  0.015532279            5 
 4005000    0.6164275   -7.8957087    791.06576  0.016459962  0.015527311           10 
 4006000   0.61714721   -7.8910542    790.16239  0.016437061  0.015522346            6 
 4007000   0.61566682   -7.8738859     789.8344  0.016426138  0.015517387            5 
 4008000   0.62686974   -7.8648947    789.51694  0.016415439  0.015512439            6 
 4009000   0.60715878   -7.8846134    790.43949  0.016430521   0.01550749            5 
 4010000    0.6101243   -7.8793754    789.61829  0.016409358   0.01550253            3 
 4011000   0.61914077   -7.8873371    790.43277  0.016422188  0.015497582            5 
 4012000   0.60091544   -7.8798957    789.19811   0.01639245  0.015492633            8 
 4013000   0.61628507   -7.8885755    790.00825  0.016405188  0.015487682           11 
 4014000   0.60880188    -7.907538    790.28572  0.016406862   0.01548274            4 
 4015000   0.60863541   -7.8942759    789.97408  0.016396307  0.015477793            7 
 4016000   0.60237939    -7.889097    789.11237  0.016374344  0.015472849           19 
 4017000   0.61267238   -7.8795578    788.78297  0.016363434  0.015467911            8 
 4018000   0.60839446   -7.8454412    790.15749  0.016387869  0.015462979            8 
 4019000   0.61787248   -7.8846711    791.71654  0.016416118  0.015458046            6 
 4020000   0.61524185   -7.8904802     789.7259  0.016370769  0.015453117            4 
 4021000   0.61565051   -7.8904567    789.88753  0.016370047  0.015448175            7 
 4022000   0.60546456   -7.8664254    790.79316  0.016384741  0.015443235            7 
 4023000   0.60316125   -7.8729273    789.73723  0.016358796  0.015438299            8 
 4024000   0.61037081   -7.8941839    789.79121  0.016355848  0.015433368            5 
 4025000   0.61819713   -7.8977855    789.55565  0.016346908  0.015428436            7 
 4026000   0.60795579   -7.8970413    789.44119  0.016340478  0.015423508            3 
 4027000   0.60664927   -7.8871956    791.54611  0.016379979   0.01541857            2 
 4028000   0.59119057   -7.8806803    789.76429  0.016339049  0.015413641            3 
 4029000   0.61587681   -7.8906555    789.01956  0.016319591  0.015408715            5 
 4030000   0.60815276    -7.872319    790.03671  0.016336574  0.015403799           10 
 4031000   0.60672585   -7.8963749    788.58779  0.016302567  0.015398882            8 
 4032000   0.60290009    -7.880275    790.96272  0.016347609  0.015393967            4 
 4033000   0.61190727   -7.8862288    788.87684  0.016300455  0.015389049            3 
 4034000   0.62593791   -7.8797953    791.97794  0.016360476  0.015384138            3 
 4035000   0.60453251   -7.8772736    790.30151  0.016321799  0.015379225            3 
 4036000   0.60121414   -7.8983819    790.62631  0.016324461  0.015374308           15 
 4037000   0.60361543   -7.8885631    789.42214  0.016295561  0.015369388            4 
 4038000   0.60512623   -7.9062279    790.61381  0.016316118  0.015364484            6 
 4039000   0.60664212   -7.9119858      790.518  0.016310101  0.015359574           14 
 4040000   0.61003609   -7.8794395    789.91426  0.016293611   0.01535466            7 
 4041000   0.59961516   -7.8970431    788.75182  0.016265607  0.015349752            6 
 4042000   0.59904127   -7.8977934    789.16651  0.016270133  0.015344842           10 
 4043000   0.60630328   -7.9250589    788.78243  0.016258192  0.015339932           10 
 4044000   0.61673434   -7.9159687    788.39751   0.01624624  0.015335026            8 
 4045000   0.60671775   -7.9087506    789.43234  0.016263542  0.015330118            7 
 4046000   0.60260491   -7.8859253    789.50912  0.016261104  0.015325215            3 
 4047000   0.59600897    -7.900134    788.63286  0.016239042  0.015320315            3 
 4048000    0.6080681   -7.9244723    789.59776  0.016254895  0.015315418            6 
 4049000   0.61225398   -7.9129536    789.69974  0.016252979  0.015310516            3 
 4050000   0.60169574   -7.8968816    789.44725  0.016243771   0.01530562            5 
 4051000   0.59834946   -7.9138692    789.76502  0.016246298   0.01530073            8 
 4052000    0.6023838   -7.8759008    788.70217   0.01622043  0.015295833            5 
 4053000   0.60247324   -7.9028584    790.11329  0.016245442  0.015290943            6 
 4054000    0.6043727    -7.910202    789.07542    0.0162201  0.015286055            4 
 4055000   0.60976054   -7.9041179     788.9738  0.016214011  0.015281172            3 
 4056000   0.60365379   -7.9018135    789.37009  0.016218156  0.015276291            4 
 4057000   0.60239667   -7.9138342    789.61232  0.016219134  0.015271406            4 
 4058000   0.60000747   -7.9062294    789.81675  0.016219335  0.015266518            5 
 4059000   0.61033727   -7.9050416     789.6769  0.016212468  0.015261628            2 
 4060000   0.59079122   -7.8862808    789.16233  0.016197913  0.015256739           12 
 4061000   0.59184596   -7.9029746    789.66079  0.016204153  0.015251851            4 
 4062000   0.60719185   -7.9042408    790.02525  0.016207641  0.015246971            3 
 4063000   0.61722578   -7.9109674    789.80335  0.016199101  0.015242093            4 
 4064000   0.59768031   -7.8904409    790.18971  0.016203037   0.01523722            4 
 4065000   0.59394494   -7.9061165    789.57752  0.016186501  0.015232355            5 
 4066000   0.60230096   -7.8947577    790.04988  0.016192201  0.015227482            6 
 4067000   0.59719012   -7.8960901    789.60227  0.016179048  0.015222613            6 
 4068000   0.60162183    -7.903432    791.09486  0.016205647  0.015217751           10 
 4069000    0.5972029   -7.9135401     790.5275  0.016190045  0.015212891            5 
 4070000   0.59648144   -7.9111445    789.85202  0.016172236   0.01520802            4 
 4071000   0.59996667   -7.9136949    790.40241   0.01617953  0.015203144            6 
 4072000   0.59827128    -7.907987    787.88311  0.016123999  0.015198279            5 
 4073000   0.59825912   -7.9114434    789.71841  0.016157591  0.015193415            5 
 4074000   0.60169113    -7.901872    790.46842  0.016168966  0.015188549            6 
 4075000    0.6113342    -7.918694     789.8358  0.016152061  0.015183692            5 
 4076000    0.6032089   -7.8906896    790.15332   0.01615459  0.015178829            6 
 4077000   0.58337183   -7.9149689    789.75983  0.016142585  0.015173966            6 
 4078000   0.61381434   -7.8987535    788.93586  0.016121789  0.015169105            5 
 4079000   0.59962079   -7.9023927     789.6762  0.016132962  0.015164248            5 
 4080000   0.59879474   -7.9219878    790.09684  0.016137599  0.015159395            3 
 4081000    0.6178113   -7.8933998     788.3281  0.016097527  0.015154536            4 
 4082000    0.6002457   -7.9157061     789.3087  0.016113602  0.015149685            4 
 4083000   0.59442521    -7.900321    788.28252  0.016088712  0.015144836            3 
 4084000   0.61687913   -7.9010737    787.63472  0.016071554  0.015139986            5 
 4085000   0.59169491   -7.9081192    788.56545  0.016086606   0.01513514            6 
 4086000   0.59964454   -7.9166226    788.01326  0.016071408  0.015130296            5 
 4087000   0.59753446   -7.8945202    790.13223  0.016110681  0.015125446            5 
 4088000   0.60201757    -7.920629    788.69901  0.016077524  0.015120603            4 
 4089000   0.59748883   -7.9262493     788.1851  0.016063119  0.015115757            4 
 4090000   0.59780723   -7.9204453      789.474  0.016085452  0.015110921           11 
 4091000   0.60291134   -7.9078222    788.08561  0.016053239  0.015106082            7 
 4092000   0.61137368   -7.9209928    789.93627  0.016087004  0.015101253            6 
 4093000   0.59622786   -7.9217409    790.43769  0.016093283  0.015096421            5 
 4094000   0.60139832   -7.9253424    789.85688   0.01607753  0.015091593            8 
 4095000   0.59369032   -7.9195772    791.15496   0.01610002  0.015086768            3 
 4096000   0.60026881    -7.911483     789.4368  0.016061133  0.015081936            5 
 4097000   0.59431804   -7.9151415    789.82456    0.0160651  0.015077104            5 
 4098000   0.60415729   -7.9216715    790.55793  0.016076093  0.015072279            5 
 4099000   0.59312928   -7.9203418    788.65123  0.016033407  0.015067454            9 
 4100000   0.59226743   -7.9127215    789.44525  0.016045635  0.015062632            4 
 4101000   0.58733538   -7.9049957    788.53135  0.016023152  0.015057816            4 
 4102000   0.58589565    -7.925731     788.7647  0.016023986  0.015052998            3 
 4103000   0.59905093   -7.9125284    791.05969  0.016066693  0.015048181            5 
 4104000   0.60470133   -7.9138648     788.7773  0.016016433  0.015043363           11 
 4105000   0.59215912   -7.9153542    790.15362  0.016040471  0.015038545            5 
 4106000   0.59126894   -7.9170849    789.77385  0.016028857   0.01503374            6 
 4107000   0.59024685   -7.9110629    789.79034  0.016025289  0.015028928            8 
 4108000   0.59487425   -7.9018236    790.71517  0.016040149  0.015024123            7 
 4109000   0.59940566   -7.9352896    789.78794   0.01601744  0.015019327            9 
 4110000   0.59910509   -7.9248336    790.12248  0.016020326  0.015014531            3 
 4111000   0.59289548   -7.9151425    788.83219  0.015990274  0.015009731            4 
 4112000   0.59965994   -7.9290101    789.65701  0.016003101  0.015004934            5 
 4113000   0.57919546   -7.9130541    789.96786  0.016005508  0.015000138            7 
 4114000     0.586766   -7.9140707    789.58445  0.015993851  0.014995351            5 
 4115000   0.59946916   -7.9152854     787.6673   0.01595114  0.014990557            6 
 4116000   0.58132305   -7.9270577    791.00266  0.016014793  0.014985771            6 
 4117000   0.59534906   -7.9079416    788.58069  0.015961879  0.014980987           10 
 4118000   0.59071753   -7.9169505    789.22938   0.01597113  0.014976197            7 
 4119000   0.58329221   -7.9194767    789.77333  0.015978258  0.014971414           16 
 4120000   0.58813214   -7.9161269    789.30912   0.01596499  0.014966627            7 
 4121000   0.59589556   -7.9205032    789.78796  0.015970799  0.014961848           11 
 4122000   0.59766825   -7.8848514    789.98222  0.015970852  0.014957073            4 
 4123000   0.59093174   -7.9094559    789.76821  0.015962653  0.014952299            6 
 4124000    0.5935266   -7.9288182    788.50671  0.015933291  0.014947528            9 
 4125000   0.59646239   -7.9119629    790.93105  0.015978405  0.014942755            8 
 4126000   0.58364217   -7.9002687    790.08096  0.015957363  0.014937982            8 
 4127000   0.57905495   -7.9141786     790.9079  0.015970194  0.014933211            6 
 4128000   0.58674112   -7.9098852    789.62999  0.015940528  0.014928448           14 
 4129000   0.58781993   -7.9070392    789.54847  0.015935022  0.014923674            9 
 4130000   0.57391999   -7.9201888    788.05216  0.015900972  0.014918911           12 
 4131000   0.59447591   -7.9141662    790.42507  0.015944991  0.014914148            7 
 4132000   0.58484632   -7.9241743     790.7441  0.015947566  0.014909386            9 
 4133000   0.59464439   -7.9286914    788.77132   0.01590393  0.014904623           14 
 4134000   0.58244959   -7.9204503    789.17489  0.015908218  0.014899859           17 
 4135000   0.58750556   -7.8993926    788.66595  0.015894114  0.014895101            8 
 4136000   0.58016555   -7.9309301     789.7495  0.015912103  0.014890335           14 
 4137000   0.59139806   -7.9174108    789.24363  0.015898067  0.014885572            8 
 4138000   0.58507276   -7.9384393    789.11339  0.015891602  0.014880813           11 
 4139000    0.5927067   -7.9513016    789.26296  0.015890774  0.014876052           12 
 4140000   0.60545979   -7.9085306    790.31271  0.015908066    0.0148713           16 
 4141000   0.58438738   -7.9250977     788.7972  0.015873726  0.014866549           14 
 4142000   0.58231774   -7.9280324    789.69483  0.015887953  0.014861802           15 
 4143000   0.59928507   -7.9275258    789.12593  0.015872675   0.01485705            9 
 4144000   0.57736401   -7.9166722    790.67138  0.015899923  0.014852298           10 
 4145000   0.58972688   -7.9275096    790.32288  0.015889081  0.014847562           14 
 4146000   0.59134649   -7.9412106    789.26982  0.015864082  0.014842834           11 
 4147000   0.59236752   -7.9203031    790.94602   0.01589394  0.014838106            6 
 4148000   0.59925177   -7.9312211    789.15836  0.015854194  0.014833388           13 
 4149000   0.58921871   -7.9336907    789.89634  0.015865195  0.014828663            7 
 4150000   0.59747023   -7.9110607    789.53202  0.015854057   0.01482393           15 
 4151000   0.58483486   -7.9191074    790.32855  0.015866228  0.014819207           13 
 4152000   0.59927754   -7.9440765    790.84478  0.015872768  0.014814482           14 
 4153000   0.58700859   -7.9221407    789.34759  0.015838903   0.01480976            6 
 4154000   0.59804611   -7.9251653    789.71187  0.015842398  0.014805043           15 
 4155000   0.60005833   -7.9203211    788.92409  0.015822786   0.01480033            5 
 4156000   0.59635772   -7.9218947    789.63743  0.015833282  0.014795622           10 
 4157000   0.59384774   -7.9327733    789.89387  0.015834614  0.014790914            7 
 4158000   0.58772042   -7.9174233    791.08402  0.015854658  0.014786206            4 
 4159000   0.58514192   -7.9376081    789.50983  0.015819304  0.014781491            8 
 4160000   0.58388348   -7.9538092    789.36389  0.015812578   0.01477678            6 
 4161000    0.5985145   -7.9437499    787.60644  0.015773581  0.014772072            8 
 4162000   0.57658578   -7.9398645    789.95022  0.015816719  0.014767364            9 
 4163000   0.58714155   -7.9257302    790.28613  0.015819644  0.014762658            9 
 4164000   0.58680853   -7.9140003    790.29259  0.015815974  0.014757964           22 
 4165000   0.58689676   -7.9426597    788.40156  0.015774341  0.014753267           12 
 4166000    0.5887407    -7.928492    789.57213   0.01579397  0.014748568           14 
 4167000   0.58711709   -7.9129154    788.92974  0.015777333  0.014743868            8 
 4168000   0.57873087   -7.9328218    789.99558  0.015794857  0.014739168            7 
 4169000    0.5815497   -7.9206641    790.93483  0.015809843  0.014734476            3 
 4170000   0.59272174   -7.9200349    790.30038  0.015793373  0.014729782            9 
 4171000   0.58895517   -7.9189589    789.63997  0.015776392  0.014725092           12 
 4172000   0.58792923   -7.9210457    789.54447  0.015770703  0.014720401            8 
 4173000    0.5780733   -7.9082779    789.91024  0.015774228  0.014715709           10 
 4174000   0.57554727   -7.9574621    790.19415  0.015776117  0.014711017            6 
 4175000   0.58340847   -7.9262955    789.23533    0.0157532  0.014706324            9 
 4176000   0.59521272   -7.9269673    790.47122   0.01577409  0.014701637            9 
 4177000   0.59187237    -7.975931    789.02051  0.015741372  0.014696947            9 
 4178000   0.57469886   -7.9412522    792.33349  0.015803684  0.014692267           13 
 4179000   0.58279602   -7.9456985     790.1469  0.015756299  0.014687587           11 
 4180000   0.57647324   -7.9312284    789.68734  0.015743368   0.01468291            6 
 4181000   0.58680487   -7.9472152    790.19556  0.015749732  0.014678242           11 
 4182000   0.57953062   -7.9331895     790.6534  0.015755089  0.014673572           13 
 4183000   0.57801191   -7.9633944     789.4568  0.015727484  0.014668897            5 
 4184000   0.57675989   -7.9190299     789.6593  0.015727759  0.014664233            8 
 4185000   0.58876301   -7.9363011    790.34861  0.015737726  0.014659565           14 
 4186000   0.59003979   -7.9304012    791.10669  0.015749058  0.014654903           10 
 4187000   0.59444497   -7.9113178    789.97426  0.015722758  0.014650241            8 
 4188000   0.59591974   -7.9381548    789.86549   0.01571684  0.014645571            6 
 4189000   0.58657126   -7.9435925    788.82214  0.015692332  0.014640909            7 
 4190000   0.56361838   -7.9481521    789.79836  0.015708002  0.014636246            6 
 4191000   0.59375048   -7.9319376    789.06887  0.015689749  0.014631578           12 
 4192000    0.5748325   -7.9487426    789.89174  0.015702365  0.014626912            9 
 4193000   0.59577349   -7.9495619    789.51177  0.015691068   0.01462225           19 
 4194000   0.59064988   -7.9485424    791.27963  0.015722453  0.014617593            6 
 4195000   0.58457757   -7.9443707    790.90832  0.015711329  0.014612936            5 
 4196000   0.57938657   -7.9552103    789.95086   0.01568857  0.014608282            7 
 4197000    0.5862048   -7.9455646    789.24342  0.015670785  0.014603624           13 
 4198000    0.5878814   -7.9557238    789.89408  0.015679968  0.014598967            6 
 4199000   0.57149464   -7.9548182    789.04849  0.015659453  0.014594305            6 
 4200000    0.5758482   -7.9400926    790.47613   0.01568405  0.014589652            6 
 4201000   0.58231817   -7.9545167    789.44637   0.01565989  0.014584997            8 
 4202000   0.58002598   -7.9520787    789.13387  0.015649966   0.01458035            3 
 4203000   0.58111929   -7.9431846    788.17124  0.015627156  0.014575709            6 
 4204000   0.57951261   -7.9304915     791.3201  0.015685857  0.014571073            5 
 4205000   0.58425135   -7.9429897    790.56445  0.015667151  0.014566434           10 
 4206000   0.59571016   -7.9342537    790.19353  0.015656077  0.014561799            5 
 4207000   0.57318673   -7.9316766    790.39125  0.015656272  0.014557168            5 
 4208000   0.58821473   -7.9608288    789.68969  0.015638658  0.014552536            4 
 4209000   0.57477018   -7.9490007    789.66384  0.015634431   0.01454791            9 
 4210000   0.56368029   -7.9541955    788.32355  0.015604187  0.014543271            6 
 4211000   0.58589971   -7.9525745    789.09114  0.015615672   0.01453863           10 
 4212000   0.58343598   -7.9391051    790.51019   0.01564004  0.014533996            9 
 4213000   0.56893812   -7.9520144    789.49682  0.015616283  0.014529374            6 
 4214000    0.5788638   -7.9602952    788.35279  0.015589954  0.014524749            8 
 4215000   0.58037184   -7.9439464    788.84994  0.015596084  0.014520123            7 
 4216000   0.57903005   -7.9451454    791.12823  0.015637417  0.014515509            9 
 4217000   0.56468094   -7.9404234    789.62331   0.01560397   0.01451089            9 
 4218000   0.57350935   -7.9667637    791.88698  0.015644993  0.014506269           15 
 4219000   0.58301149    -7.939273    789.17392  0.015587697  0.014501647           11 
 4220000   0.56407584   -7.9517676    788.68144  0.015574278  0.014497028           17 
 4221000   0.58808806   -7.9335672     789.4802  0.015586358  0.014492402           11 
 4222000   0.57332897   -7.9375947    788.51365  0.015563588  0.014487778            4 
 4223000   0.57938491   -7.9624575    788.76107  0.015564786  0.014483154            8 
 4224000   0.57806377   -7.9657501    788.45472  0.015555057  0.014478535           13 
 4225000   0.56720226   -7.9554406    789.05102  0.015563136  0.014473914            9 
 4226000   0.55944718   -7.9706984    788.82197  0.015554937   0.01446929           11 
 4227000   0.57681487   -7.9631372    789.38158   0.01556229  0.014464669           10 
 4228000   0.56828777   -7.9621671     789.1214  0.015553481  0.014460056            9 
 4229000   0.57522943   -7.9581657    789.69982  0.015561201  0.014455446           12 
 4230000   0.57591828   -7.9575626    788.42958  0.015532498  0.014450841            6 
 4231000   0.57783918   -7.9762071    790.41274  0.015567887  0.014446226           10 
 4232000   0.55424389   -7.9576493    791.26472  0.015580984  0.014441619           10 
 4233000   0.56772809   -7.9504117    790.29785  0.015558269  0.014437019            5 
 4234000   0.58366815   -7.9779383    788.58527  0.015520888  0.014432412            9 
 4235000   0.56746326   -7.9530198    789.01784  0.015525735  0.014427803            6 
 4236000   0.57840095   -7.9664693    788.97127  0.015521153  0.014423194            7 
 4237000   0.57735539   -7.9633686    788.41865  0.015506621  0.014418601            6 
 4238000   0.57554345   -7.9612107    789.89164  0.015531926  0.014413996           15 
 4239000   0.58583066   -7.9612281    790.69243  0.015544005  0.014409399           10 
 4240000   0.58363006   -7.9380272    789.28711  0.015512718   0.01440481           10 
 4241000   0.58645778   -7.9523276    788.65105  0.015496562  0.014400221           13 
 4242000   0.57208209   -7.9879017    787.69369  0.015474102  0.014395628            9 
 4243000   0.57707626   -7.9810217    789.22175  0.015500467  0.014391037           14 
 4244000   0.56740262   -7.9398586    787.89112  0.015470686  0.014386455           12 
 4245000    0.5893777   -7.9549018    788.51581  0.015479305  0.014381866            7 
 4246000   0.58302415    -7.955374    789.80854  0.015501031  0.014377284           11 
 4247000   0.56393339   -7.9625889    790.05326  0.015502183  0.014372705           10 
 4248000   0.57484218   -7.9662568    788.81981  0.015474337  0.014368122           12 
 4249000   0.57562146   -7.9666012    788.60098  0.015466403   0.01436355           15 
 4250000   0.56947561   -7.9714159    787.56397  0.015442431  0.014358969            9 
 4251000   0.57410441   -7.9706612    790.10817  0.015488673  0.014354388           12 
 4252000   0.58348424   -7.9688379    790.36238  0.015490012  0.014349813            7 
 4253000   0.56599988   -7.9684177    789.61925  0.015471809   0.01434524           13 
 4254000   0.57508267     -7.96082     788.6202  0.015448601  0.014340667           11 
 4255000    0.5633718     -7.96391    789.50257  0.015462252  0.014336098            9 
 4256000    0.5678875   -7.9703247    789.29936   0.01545464  0.014331532           10 
 4257000    0.5764622   -7.9654582    789.12666  0.015447629  0.014326957           11 
 4258000   0.56886479   -7.9716116    788.81604  0.015437922  0.014322394           18 
 4259000   0.57561008    -7.979426    787.69096  0.015412283  0.014317834           14 
 4260000    0.5603287   -7.9809278    788.90221  0.015432359   0.01431327           10 
 4261000   0.58929936   -7.9839895    789.59317  0.015442251  0.014308711            8 
 4262000   0.58130127   -7.9684969    789.00188  0.015427066  0.014304155           11 
 4263000   0.56367369   -7.9613724    789.70519  0.015437196  0.014299594           14 
 4264000   0.58435531    -7.975271    789.70424  0.015433557   0.01429504           18 
 4265000   0.57598256   -7.9753302    790.07129   0.01543711  0.014290485           10 
 4266000   0.56621366   -7.9614622    788.53195  0.015403421  0.014285923           16 
 4267000    0.5681795   -7.9737257     789.3391  0.015415575  0.014281363           11 
 4268000   0.55502289   -7.9832604      788.806  0.015401554  0.014276808           19 
 4269000   0.56973074   -7.9692949    787.60665  0.015374535  0.014272258           17 
 4270000    0.5712951   -7.9582845    786.75173  0.015354249    0.0142677           15 
 4271000   0.56684203   -7.9582534    788.53098   0.01538537  0.014263148           11 
 4272000   0.57496799   -7.9839474    788.62804  0.015383662  0.014258598           12 
 4273000   0.57481627   -7.9611984    787.38855  0.015355889  0.014254046            9 
 4274000   0.57861851   -7.9456253    787.69664  0.015358303    0.0142495           15 
 4275000   0.56444534   -7.9815392    788.19983  0.015364519  0.014244952           22 
 4276000   0.56316092   -7.9788884    788.44119   0.01536563  0.014240406           12 
 4277000   0.56366212   -7.9771053    790.37741  0.015399763  0.014235863           18 
 4278000   0.55677876   -7.9517055    789.98429  0.015388505  0.014231324           18 
 4279000   0.57029878   -7.9866695    788.19978  0.015350156  0.014226784           15 
 4280000   0.56660842   -7.9892919    788.44405  0.015351325  0.014222249           14 
 4281000   0.57177093   -7.9670667    789.88446  0.015375778  0.014217709           19 
 4282000   0.56412267   -7.9798717    788.35021  0.015342328  0.014213175           14 
 4283000   0.57657448   -7.9863103    788.90694  0.015349578  0.014208641           14 
 4284000   0.56245872   -7.9656054    788.83865  0.015344667  0.014204116           12 
 4285000   0.57983509   -7.9849995    789.23584  0.015348811  0.014199584           19 
 4286000   0.55381737   -7.9752872    788.16781  0.015324464  0.014195048           18 
 4287000   0.57942857   -7.9789821    788.30167  0.015323491  0.014190522           16 
 4288000    0.5594549   -7.9760866    788.92391   0.01533201  0.014185997           15 
 4289000   0.56895468   -7.9847989    787.97539  0.015310006  0.014181466            7 
 4290000   0.54921223   -7.9941198    788.45217  0.015315699  0.014176936           11 
 4291000    0.5713749   -7.9778965    788.58662   0.01531474  0.014172409           30 
 4292000   0.57268149   -7.9946168    789.39252   0.01532682   0.01416789           20 
 4293000   0.55899098    -7.983259    789.70779  0.015329369  0.014163367           21 
 4294000   0.56396848   -7.9719108    789.25592   0.01531703  0.014158843           18 
 4295000   0.56153195   -7.9666717    787.86594  0.015286495  0.014154327           23 
 4296000     0.552679   -7.9984688    788.53318   0.01529588  0.014149809           20 
 4297000   0.56580666   -7.9844618    789.11264  0.015303558  0.014145293           22 
 4298000    0.5761907   -7.9786722    786.83877  0.015255909  0.014140776           29 
 4299000   0.58338738   -8.0025638    787.99869  0.015274845  0.014136267           22 
 4300000   0.56753994   -7.9883201    787.64907  0.015264517  0.014131755           10 
 4301000   0.56712589   -7.9914056    787.01083  0.015248602  0.014127243           16 
 4302000   0.58403867   -7.9778199    788.54123  0.015274702  0.014122737           18 
 4303000   0.57196195   -8.0084802    787.16422  0.015244485  0.014118235           16 
 4304000    0.5764051   -7.9848698    786.86663  0.015235181  0.014113731           16 
 4305000   0.56103037   -8.0107416    787.11675  0.015236484  0.014109229           21 
 4306000   0.56186008    -7.969552    788.54957  0.015260674  0.014104727           17 
 4307000   0.56200459   -7.9736193     790.2177  0.015289407  0.014100231           21 
 4308000   0.57381566    -7.990087    788.62905  0.015255127  0.014095732           28 
 4309000   0.55619667   -8.0011374    788.74836  0.015253894  0.014091235           23 
 4310000   0.55468903   -8.0095367    788.23418  0.015240413  0.014086733           21 
 4311000    0.5584064   -7.9822964    787.02764  0.015213555  0.014082232           16 
 4312000   0.55337807   -7.9923456    787.64469  0.015221952  0.014077739           25 
 4313000   0.55667821    -7.991473    787.33657   0.01521247  0.014073241           23 
 4314000   0.55103087   -8.0065532    788.76741  0.015236583  0.014068742           20 
 4315000    0.5598087   -8.0052385    787.78316  0.015214043  0.014064247            9 
 4316000   0.55355981   -7.9841017    788.00131   0.01521473  0.014059754           15 
 4317000   0.56580108   -7.9866343     787.7469  0.015206295  0.014055264           10 
 4318000   0.56229234    -8.007835    787.55346   0.01519904  0.014050778           11 
 4319000   0.56151757   -7.9826575    788.70935  0.015217823  0.014046294           12 
 4320000   0.56036517   -8.0031863    788.04565  0.015201498  0.014041813           12 
 4321000   0.55530008   -8.0064926    788.58779  0.015208435  0.014037329           16 
 4322000   0.55598644   -8.0094721    787.41425  0.015182289  0.014032847           28 
 4323000   0.55794673   -8.0079511    787.25585  0.015175724  0.014028371           10 
 4324000   0.55716699   -8.0103122    787.33306  0.015173702  0.014023887           14 
 4325000   0.56756713   -7.9944746    787.87463  0.015180629  0.014019408           10 
 4326000   0.54100784   -8.0112862    788.88912  0.015196662  0.014014936           15 
 4327000    0.5691794   -7.9940218    787.62145  0.015168736  0.014010462           13 
 4328000   0.54899891   -7.9956871    788.45673  0.015181314  0.014005993           18 
 4329000   0.55394209   -8.0003829    787.80458  0.015165253  0.014001522           11 
 4330000   0.56792098   -7.9894118    787.55657  0.015156978  0.013997054           12 
 4331000   0.56032067   -8.0060827    787.23431  0.015147278  0.013992589            8 
 4332000   0.56749582   -8.0065902    788.25269  0.015163371  0.013988116           11 
 4333000   0.54921607   -7.9960314    788.31419  0.015161054  0.013983649            9 
 4334000   0.56346898   -7.9838658     788.1183   0.01515379  0.013979184           11 
 4335000   0.56970667   -7.9952822    788.20177  0.015151899  0.013974718           15 
 4336000    0.5601865   -8.0106085    790.21501  0.015187097  0.013970257           15 
 4337000   0.56058168   -8.0027798    787.38427  0.015129203  0.013965799            8 
 4338000   0.55716836    -8.016044    787.93762  0.015136346  0.013961343           14 
 4339000   0.55640625   -8.0111475    788.28255  0.015139482  0.013956884           18 
 4340000   0.55404451   -7.9972723     787.6498  0.015123844  0.013952425            8 
 4341000   0.55666884   -8.0094516      787.355  0.015114701  0.013947971           16 
 4342000   0.56682294   -7.9845711    787.79015  0.015119571  0.013943514           14 
 4343000   0.55661129   -7.9948675    788.65125  0.015132613  0.013939063           17 
 4344000   0.55460269   -7.9942239    788.59487  0.015128048  0.013934613           11 
 4345000   0.55307386   -8.0091366    788.07984  0.015114688  0.013930162            5 
 4346000   0.55047005   -8.0067435    788.30541  0.015115536  0.013925712           10 
 4347000   0.55267714   -8.0050342    788.04568  0.015107079  0.013921261           28 
 4348000   0.55304512   -8.0136846    787.14219  0.015086288  0.013916811            9 
 4349000   0.56145626    -7.988212    787.94489    0.0150982  0.013912363            8 
 4350000   0.55007678   -8.0092571    787.42649  0.015084799  0.013907915           11 
 4351000   0.55376973   -8.0143887    787.91762  0.015090738  0.013903462            9 
 4352000   0.54170862   -8.0127944    787.58566  0.015080914  0.013899017           16 
 4353000   0.55351482   -7.9941164    788.72342  0.015099231  0.013894575           15 
 4354000   0.55472404   -7.9879773    787.18489  0.015066316  0.013890134           10 
 4355000   0.55187591   -8.0346523    787.90292  0.015076596  0.013885691           13 
 4356000   0.55299852   -8.0220216    788.39834  0.015082613  0.013881245           11 
 4357000   0.55108217   -7.9995635    787.55053  0.015062936    0.0138768           13 
 4358000   0.54893656   -8.0139453    788.88818  0.015085058  0.013872358           13 
 4359000   0.54488283   -8.0055742     788.0071  0.015064753  0.013867923           17 
 4360000   0.56958068   -8.0075244    786.82143  0.015038636  0.013863489           24 
 4361000   0.56395057   -8.0043326    787.39194  0.015046089  0.013859055           17 
 4362000   0.54884427   -8.0123812    788.00701   0.01505439  0.013854621            9 
 4363000    0.5550408   -8.0176504     787.4612  0.015040515  0.013850193           11 
 4364000   0.56163757   -8.0250084    788.41134  0.015055212  0.013845763           15 
 4365000   0.55987023   -8.0179436    786.67749  0.015018662  0.013841338           15 
 4366000    0.5498153   -8.0049624    787.27489  0.015026624  0.013836918           14 
 4367000   0.54817643   -8.0109639    788.07917  0.015038531  0.013832496           11 
 4368000   0.54636689   -8.0035631    787.04589  0.015015375  0.013828072           21 
 4369000   0.55324516   -8.0258227     787.2062  0.015014996   0.01382365           10 
 4370000   0.55063811    -8.005078    787.87884  0.015024387  0.013819237           11 
 4371000   0.54504696   -8.0125671    787.90793  0.015021504   0.01381482           21 
 4372000   0.55383832   -8.0119737    787.40915  0.015008561  0.013810406           12 
 4373000   0.56831275   -8.0104853    787.67862  0.015010264   0.01380599           18 
 4374000   0.55842432   -8.0163812    786.87246  0.014991474  0.013801575            9 
 4375000   0.55723334    -8.022047     786.8681  0.014987964  0.013797163            9 
 4376000   0.56681076   -8.0172848    787.40229  0.014994712   0.01379275           10 
 4377000   0.56275973   -8.0353011    789.05751  0.015022799  0.013788346            9 
 4378000   0.55271994   -8.0316272    788.24356  0.015003875   0.01378394           14 
 4379000   0.53986218   -8.0271825    787.11289  0.014978931  0.013779541           12 
 4380000   0.55461788   -8.0138434    786.95839  0.014972572   0.01377514           13 
 4381000   0.54704475   -8.0010879    787.11915  0.014972212  0.013770742            6 
 4382000    0.5550007   -8.0079205    787.79679  0.014981683  0.013766344           15 
 4383000   0.56079111   -8.0307867    787.89141  0.014980063  0.013761949           24 
 4384000   0.55370229   -8.0271583    787.14136  0.014962389  0.013757554           22 
 4385000   0.54304291   -8.0124928    787.45102  0.014964862  0.013753156           11 
 4386000   0.55015185   -8.0175083    786.28242  0.014939247  0.013748762           16 
 4387000   0.54467807   -8.0306536    788.27848  0.014973757  0.013744369           12 
 4388000   0.54749288   -8.0024513    787.63092  0.014958047  0.013739979           12 
 4389000   0.54846215   -8.0245836    787.74674  0.014956838  0.013735595            7 
 4390000     0.543466   -8.0253073    786.23857  0.014924802  0.013731205           14 
 4391000   0.55804019    -8.012033    787.55102  0.014946311  0.013726818           16 
 4392000   0.55487883   -7.9987931    787.78384  0.014947325  0.013722437           25 
 4393000    0.5434291   -8.0217985    787.34353   0.01493557  0.013718057           23 
 4394000   0.56345605   -8.0089174    786.16858  0.014909888  0.013713674           11 
 4395000   0.56016496   -8.0370105    787.65438  0.014934668  0.013709293           18 
 4396000   0.55391685    -8.033412    787.31587  0.014924854  0.013704911            8 
 4397000   0.54880249   -8.0084929    787.45325  0.014924063  0.013700529            9 
 4398000   0.54934367   -8.0130627    787.69439  0.014925238  0.013696155           17 
 4399000    0.5511095   -8.0174886    787.81871  0.014924201  0.013691776           13 
 4400000   0.54782763   -8.0207446    788.42561  0.014932303  0.013687402           13 
 4401000   0.54817351    -8.025517    787.79445  0.014916959  0.013683025            9 
 4402000   0.54808554   -8.0060224    786.56017  0.014890205  0.013678646           25 
 4403000   0.54675713   -8.0165845    785.96836  0.014875622  0.013674273           14 
 4404000   0.54680909   -8.0264398    786.79208  0.014887831  0.013669907            9 
 4405000   0.54752193   -8.0276732    787.13888  0.014891012  0.013665537           11 
 4406000   0.54469048    -8.022215    787.30322   0.01489074  0.013661169           20 
 4407000   0.53961964   -8.0281088     786.7393  0.014876698  0.013656811           18 
 4408000   0.54989747   -8.0093177    787.86439  0.014894593  0.013652452           20 
 4409000   0.54112517   -8.0105694    788.32763   0.01489997  0.013648092           18 
 4410000   0.54438621   -8.0282507    787.84214  0.014887418  0.013643737           14 
 4411000   0.54271158   -8.0307537    787.41064  0.014875891  0.013639379           20 
 4412000   0.54190679   -8.0303613    788.33343  0.014889948  0.013635023           10 
 4413000   0.53070295   -8.0346227     786.4971  0.014851898  0.013630666           16 
 4414000   0.54089421   -8.0243431    786.19201  0.014842773  0.013626306           17 
 4415000   0.53961839   -8.0356893    786.13966  0.014838423  0.013621949           14 
 4416000   0.55090992   -8.0311518    786.80468  0.014847612  0.013617597           19 
 4417000   0.54485688   -8.0210753    785.72805  0.014823939  0.013613243            7 
 4418000   0.54404608   -8.0354645    786.70307  0.014838975  0.013608894           19 
 4419000   0.53855713   -8.0050241    788.65907  0.014872503  0.013604547           10 
 4420000   0.54635232    -8.024059    787.58146  0.014848821  0.013600203           23 
 4421000   0.54109922   -8.0311632    786.02391  0.014816103  0.013595857           26 
 4422000   0.54108615    -8.032923    785.69328  0.014806522  0.013591508           24 
 4423000   0.53946422   -8.0307099    786.47744  0.014817949  0.013587159           18 
 4424000   0.55329294   -8.0475103    786.96563  0.014823795  0.013582814           15 
 4425000   0.54736057   -8.0245553    786.28626  0.014807651  0.013578472           13 
 4426000    0.5374701   -8.0246583    788.19727  0.014840286  0.013574126           17 
 4427000   0.54332233   -8.0302207    786.52699  0.014805493  0.013569787           20 
 4428000   0.55047848   -8.0183075    785.88049  0.014789982  0.013565447           12 
 4429000   0.54465261   -8.0302435     787.0671  0.014808969  0.013561114           13 
 4430000   0.55232451   -8.0263084    787.78061  0.014819048  0.013556789           13 
 4431000    0.5359499   -8.0197254    787.99203   0.01481968  0.013552461           14 
 4432000   0.53394045   -8.0290984    786.94593  0.014796667  0.013548141           22 
 4433000   0.53853753   -8.0449845    786.19518  0.014779216  0.013543819           10 
 4434000   0.53676457   -8.0187429    786.49917  0.014781596  0.013539496           41 
 4435000   0.54293854   -8.0066076    786.42164  0.014776806  0.013535171           24 
 4436000   0.54540972   -8.0313444    786.50706   0.01477508  0.013530844           28 
 4437000   0.53558227     -8.03596    786.47777    0.0147712  0.013526522           30 
 4438000   0.53841328   -8.0284938    785.32632  0.014746251  0.013522199           24 
 4439000   0.54344952     -8.03209    787.14925   0.01477715  0.013517881           37 
 4440000    0.5335476   -8.0411215    785.80628  0.014748616   0.01351356           25 
 4441000   0.53835673   -8.0278233    787.20117   0.01477147  0.013509246           14 
 4442000   0.54875658   -8.0351713    788.15614   0.01478606  0.013504933           16 
 4443000   0.54037752   -8.0476621    785.60843  0.014734947  0.013500619           14 
 4444000   0.55089928   -8.0212053    787.46271  0.014766402  0.013496305           27 
 4445000    0.5478488   -8.0170576    786.14232  0.014738326  0.013491996           24 
 4446000   0.53494997    -8.048275    787.29356  0.014756589  0.013487688           12 
 4447000   0.55017029   -8.0378763    787.92176  0.014765043  0.013483379           23 
 4448000   0.54372696   -8.0445297    786.88675  0.014742333   0.01347908           25 
 4449000   0.54801624   -8.0243846     786.7837  0.014737089  0.013474776           18 
 4450000   0.53502558    -8.015976    786.64564  0.014731192  0.013470477           18 
 4451000   0.53910346   -8.0345097    787.62142  0.014746151  0.013466175           19 
 4452000   0.53455191   -8.0350046    787.10813  0.014733231  0.013461872           14 
 4453000   0.53210351   -8.0195251     785.9571  0.014708382  0.013457571           23 
 4454000   0.54435424    -8.044618    787.26923  0.014729629  0.013453276           17 
 4455000   0.53700155   -8.0156856    787.40553  0.014728873  0.013448982           22 
 4456000   0.55029075   -8.0375153    785.76806  0.014694944  0.013444689           26 
 4457000   0.54470552   -8.0452486    787.74389   0.01472859  0.013440401           18 
 4458000   0.53847405   -8.0356085    788.44158  0.014738328  0.013436108           16 
 4459000    0.5261133   -8.0431868    787.93801  0.014725611  0.013431816           22 
 4460000   0.53816657   -8.0429012    786.08733   0.01468773  0.013427526           16 
 4461000   0.53303978   -8.0185813    786.62004  0.014694389  0.013423242           15 
 4462000   0.53788885   -8.0389062    786.52708   0.01468936  0.013418957           15 
 4463000   0.53726763   -8.0327349    785.50889  0.014667057   0.01341467           13 
 4464000   0.53818785   -8.0324303    786.75454  0.014687025  0.013410387           18 
 4465000    0.5447566   -8.0413954    787.57105  0.014698974  0.013406106           13 
 4466000   0.53532359   -8.0381398    785.85451  0.014663653  0.013401823           16 
 4467000   0.53412897   -8.0543265    786.25348  0.014667814  0.013397543           17 
 4468000   0.53348434   -8.0428674    787.46011  0.014687036  0.013393265           14 
 4469000   0.54984531   -8.0409461    785.15428  0.014640753  0.013388987           13 
 4470000   0.54086939   -8.0474471    786.29491  0.014658742  0.013384707           10 
 4471000   0.53701597   -8.0478865    785.95947  0.014649211  0.013380432           13 
 4472000   0.54143058   -8.0487439     785.4888  0.014637165  0.013376154            7 
 4473000   0.52861462   -8.0410669    785.40581  0.014632346  0.013371882           15 
 4474000   0.54045797   -8.0530156     787.4577  0.014667294  0.013367607            8 
 4475000   0.53009311   -8.0628496    784.71961  0.014613028  0.013363336           11 
 4476000   0.52686702   -8.0542009    786.17903  0.014636935  0.013359067           12 
 4477000   0.54568965   -8.0496141    786.55674  0.014640696  0.013354798           10 
 4478000   0.56247186   -8.0268003    784.00853  0.014590005  0.013350535           17 
 4479000   0.52233302   -8.0410725    785.90596   0.01462205  0.013346273           12 
 4480000   0.53481691    -8.048957    786.47393  0.014629351  0.013342009           10 
 4481000   0.53882689   -8.0727564    786.32693  0.014623353  0.013337747           19 
 4482000   0.53415582   -8.0642506     785.6566  0.014607627  0.013333484           13 
 4483000    0.5376921   -8.0642884    785.36518  0.014598951  0.013329224           10 
 4484000   0.53197722   -8.0574506     785.9361  0.014606306  0.013324966           11 
 4485000   0.52420042   -8.0579494    785.47165  0.014594419  0.013320709            8 
 4486000   0.52759101   -8.0425451    787.22302    0.0146237   0.01331645           11 
 4487000   0.53415003   -8.0632095    786.25187  0.014602404  0.013312194           11 
 4488000   0.51381328   -8.0455465    785.94368  0.014593428  0.013307938           16 
 4489000   0.53865226   -8.0444275    786.85216  0.014607042  0.013303683           10 
 4490000   0.53151877   -8.0712877    786.09113  0.014589665  0.013299427           12 
 4491000   0.52714644   -8.0502366    785.57648  0.014576866  0.013295174           11 
 4492000   0.53710779    -8.052575     786.0348  0.014582124  0.013290923            8 
 4493000   0.53367899   -8.0538013    786.03902  0.014578956  0.013286683           11 
 4494000   0.53483651   -8.0642899    785.56575  0.014566936  0.013282434           17 
 4495000   0.52214453   -8.0697131    786.12835  0.014574126  0.013278188            9 
 4496000   0.53500016   -8.0535407    786.83578  0.014583997  0.013273943           19 
 4497000   0.52292693   -8.0442622    786.22663  0.014569465  0.013269698           10 
 4498000   0.53505658   -8.0673582    785.68484  0.014556189  0.013265459           12 
 4499000   0.52774633   -8.0576243    785.65076  0.014552322   0.01326122           11 
 4500000   0.53646186    -8.056439    786.58247  0.014566342  0.013256979            8 
 4501000   0.54279965   -8.0555986     785.1236  0.014536096  0.013252741            9 
 4502000   0.54445735   -8.0478307    784.56232  0.014522477  0.013248509           11 
 4503000   0.52109222   -8.0452257    785.76704  0.014541547  0.013244278           17 
 4504000   0.53736919   -8.0551206    785.55162  0.014534333   0.01324005           11 
 4505000   0.52379277   -8.0565199    785.52298  0.014530577   0.01323582           11 
 4506000   0.52544858   -8.0588884    785.84149  0.014533243  0.013231592            9 
 4507000   0.54114257   -8.0638567     785.4637  0.014523033  0.013227362           10 
 4508000   0.53339888   -8.0566663    784.91733  0.014509711  0.013223137           19 
 4509000   0.54933156    -8.054664    785.72548  0.014521429  0.013218916            9 
 4510000   0.54121287   -8.0608978    785.34617  0.014511201  0.013214693            9 
 4511000   0.52469235    -8.042153    785.89058  0.014518041  0.013210473            5 
 4512000   0.52674919   -8.0651834    785.80072  0.014513164  0.013206257           12 
 4513000   0.52793788   -8.0744839    786.01044   0.01451382  0.013202038            9 
 4514000   0.52967955   -8.0441567    785.37681  0.014498907   0.01319783           16 
 4515000   0.52563933   -8.0623694    785.84275  0.014504296  0.013193613            8 
 4516000   0.51888018   -8.0641022    786.15141   0.01450678  0.013189396            9 
 4517000   0.52597279    -8.072129    785.55654  0.014492594  0.013185178            8 
 4518000   0.52646909    -8.073958    785.67639  0.014491596  0.013180961           12 
 4519000   0.53418284   -8.0761326     785.4521  0.014484253  0.013176749           16 
 4520000   0.53225134   -8.0710322    785.80408  0.014487538  0.013172535           20 
 4521000   0.53659819   -8.0506739    786.16827  0.014491047  0.013168326           14 
 4522000   0.52554708   -8.0397776    785.19825  0.014469966  0.013164119           13 
 4523000   0.53743503   -8.0567924    785.81794  0.014478185  0.013159913           23 
 4524000   0.51858159   -8.0554463    787.08505  0.014498325  0.013155712            9 
 4525000   0.52593688   -8.0746693    785.53025  0.014466487  0.013151507            8 
 4526000   0.52708669   -8.0584315    785.25064  0.014458142  0.013147306           16 
 4527000   0.52380368   -8.0680297    786.08413  0.014470292  0.013143106           17 
 4528000   0.52728894   -8.0662851    785.61988  0.014458552   0.01313891           10 
 4529000   0.52920999   -8.0481305    785.49803  0.014453118  0.013134714           12 
 4530000   0.52350082   -8.0675186    786.60521  0.014470294  0.013130517           12 
 4531000   0.51936197   -8.0634512    785.35837  0.014444169  0.013126319           18 
 4532000   0.53493702   -8.0750647    785.55754  0.014444644   0.01312212            8 
 4533000   0.52970555   -8.0509318    784.87628  0.014428934  0.013117925           16 
 4534000   0.53959194   -8.0765964     785.5842  0.014438763  0.013113734            8 
 4535000   0.52320081   -8.0404404    784.91937  0.014423362  0.013109541           13 
 4536000   0.52004214   -8.0660752     785.5115  0.014431061  0.013105353            9 
 4537000   0.53107933   -8.0631455    785.39084  0.014425664  0.013101164            7 
 4538000   0.52285339   -8.0456397    785.01387  0.014415562  0.013096977           14 
 4539000   0.52804082    -8.095944    784.45946  0.014402208  0.013092789           12 
 4540000   0.53637736   -8.0722641     784.2673  0.014395508  0.013088605           13 
 4541000   0.53638125   -8.0555048    784.83251  0.014402711  0.013084422           13 
 4542000   0.53965359    -8.075245    785.09533  0.014404362  0.013080238           16 
 4543000   0.52367142   -8.0840243     783.9847  0.014380819  0.013076061           18 
 4544000   0.53027405   -8.0820819    784.65559  0.014389957  0.013071881           15 
 4545000   0.53484418   -8.0742256    784.59599  0.014385698  0.013067702           22 
 4546000   0.52447958   -8.0704234    784.42786  0.014379452   0.01306353           15 
 4547000   0.52351569   -8.0586522    784.24184   0.01437288  0.013059355           15 
 4548000   0.51563064   -8.0483384    784.20037   0.01436896  0.013055185           20 
 4549000   0.51993411   -8.0538981    784.87951  0.014378243  0.013051014            9 
 4550000   0.52835361   -8.0750945    785.31925  0.014383137  0.013046845           14 
 4551000   0.52058241   -8.0659456    783.75724  0.014351374  0.013042676           19 
 4552000    0.5394344   -8.0675502    784.49725  0.014361769  0.013038509           13 
 4553000   0.51198654   -8.0577395    785.06157  0.014368943  0.013034344           13 
 4554000   0.51626018   -8.0766882    785.19665   0.01436826   0.01303018           11 
 4555000   0.51522766   -8.0666059    784.49765  0.014352317  0.013026018           13 
 4556000    0.5342488   -8.0678793    784.79148  0.014354541   0.01302186           26 
 4557000   0.53724573    -8.070431    785.37167  0.014362001  0.013017703            8 
 4558000   0.53193892   -8.0727837    785.80958  0.014366856  0.013013549           12 
 4559000   0.51975289   -8.0715779    785.27544  0.014353942  0.013009396           12 
 4560000   0.51946978   -8.0671242    785.01432  0.014346022  0.013005243           24 
 4561000   0.52054963   -8.0795548    784.56731  0.014334709  0.013001094           16 
 4562000   0.51968574   -8.0752461    785.35204  0.014345902  0.012996944           11 
 4563000   0.52356921   -8.0604785      784.033  0.014318668  0.012992801           10 
 4564000   0.51609774   -8.0774956    784.74134  0.014328464  0.012988653           16 
 4565000   0.52044518   -8.0858163    785.28296  0.014335213  0.012984505           12 
 4566000   0.50737857   -8.0727139    783.43156  0.014298284  0.012980356           12 
 4567000   0.52734452   -8.0762387    785.33557  0.014329895  0.012976209           21 
 4568000   0.51716655   -8.0570672    784.61026  0.014313526  0.012972062           23 
 4569000   0.50915806    -8.078311    784.93068  0.014316238  0.012967916           15 
 4570000   0.51370181    -8.071133    784.84737  0.014311586  0.012963775            9 
 4571000   0.52871972   -8.0909077    785.75862  0.014325068  0.012959632           16 
 4572000   0.52536076    -8.064421    784.86707  0.014305684  0.012955491           14 
 4573000   0.51854551   -8.0733504    783.95028  0.014285849  0.012951352           13 
 4574000   0.51956868   -8.0631564    784.68118  0.014296042  0.012947213           26 
 4575000   0.51217168   -8.0790323    785.44393  0.014306811  0.012943077           10 
 4576000   0.51097073   -8.0762695    785.47667  0.014304281  0.012938946           12 
 4577000   0.51960864   -8.0696928    783.87376  0.014271971  0.012934809           16 
 4578000    0.5219073   -8.0720023    785.50969  0.014298633  0.012930678           17 
 4579000   0.53110103   -8.0940347    784.09778  0.014269815  0.012926549           12 
 4580000   0.52302551   -8.0835577    784.64616  0.014276677  0.012922421           14 
 4581000   0.51767291   -8.0789128    784.56292  0.014272046  0.012918296           16 
 4582000   0.53037946   -8.0784513    785.16087  0.014279806  0.012914172           18 
 4583000   0.50834359   -8.0760499    785.30002  0.014279221  0.012910048           13 
 4584000   0.51820347   -8.0822951    784.26775   0.01425734  0.012905925           12 
 4585000   0.51603614   -8.0775963    783.91615   0.01424784  0.012901804           13 
 4586000   0.53444702   -8.0799131    784.92258  0.014263021  0.012897683           14 
 4587000   0.51599345   -8.0970839    784.84028  0.014258417  0.012893566           19 
 4588000   0.51526848    -8.085852     784.0223  0.014240451  0.012889444           10 
 4589000   0.53039767   -8.0763378    784.18449  0.014240294  0.012885324           11 
 4590000   0.51447171    -8.065919     784.6909  0.014246385   0.01288121           10 
 4591000    0.5068675   -8.0896654    784.36483  0.014237364  0.012877093           10 
 4592000   0.51899325   -8.0948104     783.6744  0.014221733   0.01287298           19 
 4593000   0.51741559    -8.078396    785.42825  0.014250458  0.012868868           18 
 4594000   0.52078102   -8.0755476    785.08141  0.014241065  0.012864762           11 
 4595000    0.5027573   -8.0874194    784.62879  0.014229757  0.012860658           10 
 4596000   0.51063202   -8.0810486    784.28422  0.014220413  0.012856552           16 
 4597000   0.51434131   -8.0761274    785.31313  0.014235972  0.012852449            9 
 4598000   0.50088279   -8.0889203    784.23591  0.014213352  0.012848348           15 
 4599000    0.5020964   -8.0747641    784.28083  0.014211075   0.01284425           15 
 4600000   0.51704621   -8.0805882     786.0924  0.014240804  0.012840153           19 
 4601000     0.513305   -8.0708049    784.71807  0.014212817  0.012836055           18 
 4602000   0.51000511   -8.0852408    784.04831  0.014197601  0.012831961           10 
 4603000   0.52327878   -8.0897516    784.48266   0.01420238  0.012827867           11 
 4604000    0.5066968   -8.0655328    784.48479  0.014199334  0.012823775           14 
 4605000    0.5115553   -8.0863339    784.42143  0.014195104  0.012819682           13 
 4606000   0.50277973    -8.072451    784.27714  0.014189411  0.012815597           17 
 4607000   0.50739247   -8.0754271    783.97003  0.014180776  0.012811509           10 
 4608000    0.5108347   -8.0840124    784.51862   0.01418762  0.012807425           19 
 4609000   0.52010241   -8.0838245    784.12213  0.014177373  0.012803338           18 
 4610000   0.50762263   -8.0668501    784.77549  0.014186108  0.012799255           13 
 4611000   0.51650507   -8.0831095    783.58093  0.014161442  0.012795176           18 
 4612000   0.51715201   -8.0627658    785.07159  0.014185306  0.012791097           13 
 4613000   0.51436415   -8.0791424    784.35564  0.014169298  0.012787019           26 
 4614000   0.51674479   -8.0898477     784.5154  0.014169112  0.012782943           19 
 4615000   0.52313118   -8.0833059    784.59194  0.014167424  0.012778866            9 
 4616000   0.51220016   -8.0849801     783.4997  0.014144636  0.012774795            8 
 4617000   0.52685721    -8.096368    784.48084  0.014159282  0.012770723           15 
 4618000   0.52341867   -8.0999681    784.87632  0.014163352  0.012766651           19 
 4619000   0.50350216   -8.0929693    783.50052  0.014135464  0.012762579           20 
 4620000   0.50816746   -8.1045478      784.704  0.014154113  0.012758507           25 
 4621000   0.51164975    -8.067134    784.09498  0.014140067  0.012754436           22 
 4622000   0.50198863   -8.0779263    783.76201  0.014131004  0.012750371           17 
 4623000   0.51913775   -8.0939901    783.48367   0.01412293  0.012746305           19 
 4624000   0.51019255   -8.0848251    784.90345  0.014145463   0.01274224            9 
 4625000   0.51956158    -8.078929    785.97422  0.014161698  0.012738181           17 
 4626000   0.51347656   -8.0761443    785.61089  0.014152091  0.012734121           16 
 4627000   0.50325232   -8.0980825    783.71923  0.014114963   0.01273006           18 
 4628000   0.51442988   -8.1087226    784.80908  0.014131538     0.012726           26 
 4629000   0.50978004   -8.0877478    784.25807  0.014118565  0.012721939           16 
 4630000   0.50972731   -8.0851711    784.45925  0.014119137  0.012717882           12 
 4631000   0.49617808     -8.09523    783.58872  0.014100423  0.012713824           20 
 4632000   0.52459234   -8.0967174    783.88423  0.014102696   0.01270977           14 
 4633000   0.51129644   -8.0881862    784.80815   0.01411627  0.012705714           23 
 4634000   0.50396926   -8.0776324    782.61927  0.014073861  0.012701662           17 
 4635000   0.51189421   -8.0998616    784.78893  0.014109833  0.012697613           14 
 4636000   0.50359971   -8.1173257    783.35092  0.014080941  0.012693561           20 
 4637000   0.51392068   -8.0863899    783.92733  0.014088263  0.012689513           10 
 4638000   0.50539119   -8.0987742    785.33936  0.014110596  0.012685467           22 
 4639000   0.51123168   -8.0887777    783.21887  0.014069463  0.012681422           26 
 4640000   0.51550691   -8.0919608    782.72968  0.014057645  0.012677378           11 
 4641000   0.50979061   -8.1000261    785.00953  0.014095553  0.012673339           16 
 4642000   0.50883465   -8.0994549    784.85836  0.014089802  0.012669301           25 
 4643000   0.50385067   -8.0918668     784.0846   0.01407288  0.012665263           30 
 4644000   0.50185504   -8.0938037    783.57341  0.014060677  0.012661229           12 
 4645000   0.50800394   -8.1016752    784.43293   0.01407307  0.012657193           15 
 4646000   0.51346166   -8.1117197     784.7858   0.01407637  0.012653159           16 
 4647000   0.50778341   -8.0879884    783.66334  0.014053213  0.012649125           11 
 4648000   0.51341725   -8.0796254    783.44157  0.014046213  0.012645093           16 
 4649000   0.50335828   -8.1100227    784.17109  0.014056268  0.012641062           13 
 4650000   0.50938558   -8.1166617    782.43551  0.014022142  0.012637028           14 
 4651000   0.49909986   -8.0987639    784.24002  0.014051459  0.012632996           27 
 4652000   0.50470626   -8.0991846    783.87901  0.014041971  0.012628972           18 
 4653000   0.50084093   -8.0857198    783.97366  0.014040649  0.012624951            9 
 4654000   0.51736989   -8.0874002     783.0395  0.014020905  0.012620928           14 
 4655000   0.50139365   -8.0898226    783.26906  0.014022002  0.012616909           23 
 4656000   0.50595927   -8.1080897    784.44647  0.014040064  0.012612886           18 
 4657000   0.50983625   -8.1075219    782.93292  0.014009966  0.012608865           16 
 4658000    0.5100565   -8.1005432    784.50692  0.014035117  0.012604848           28 
 4659000   0.51601688   -8.1087899    784.03383  0.014023643  0.012600829           23 
 4660000   0.50636145   -8.1150136    784.45837  0.014028225  0.012596811           24 
 4661000   0.50658455   -8.1186435     783.7559  0.014012656  0.012592795           18 
 4662000   0.51027635   -8.1013545    784.80945  0.014028483  0.012588781           27 
 4663000   0.50643805   -8.1071889    782.89398  0.013991243  0.012584773           28 
 4664000   0.51351817   -8.1146871    784.64529  0.014019534  0.012580766           25 
 4665000    0.5040523   -8.1069688     783.7662  0.014000825  0.012576754           35 
 4666000   0.51693085   -8.1097113    782.75852  0.013979828  0.012572741           20 
 4667000   0.50528834   -8.0916327    782.36584  0.013969821  0.012568731           17 
 4668000   0.51144659    -8.101244    782.37791  0.013967044  0.012564724           18 
 4669000   0.51216619    -8.092587    783.48518  0.013983815  0.012560715           20 
 4670000    0.5026978   -8.1006328    784.33353  0.013995959  0.012556717           25 
 4671000   0.50662062   -8.0948573    783.76827  0.013982878  0.012552713           20 
 4672000   0.50381505    -8.106148    782.77119    0.0139621  0.012548709           20 
 4673000   0.49579591   -8.1037321    783.20847   0.01396691  0.012544709           27 
 4674000   0.50475377   -8.0994937    783.55928  0.013970177  0.012540714           25 
 4675000   0.49955416   -8.0953679    783.64762  0.013968763   0.01253672           16 
 4676000   0.50914491   -8.1112307     784.1727  0.013975134  0.012532727           14 
 4677000   0.51255774   -8.1032053     783.2433  0.013955586  0.012528728           12 
 4678000   0.50930827   -8.1054703    783.15908  0.013951102  0.012524735           16 
 4679000   0.48958463   -8.1008627    782.16771  0.013930464  0.012520746           19 
 4680000   0.50711015    -8.096669    782.29103  0.013929684  0.012516753           29 
 4681000   0.49794463   -8.0914455    783.14891   0.01394198  0.012512766           24 
 4682000   0.51084775   -8.1080815    782.46221   0.01392678  0.012508784           26 
 4683000   0.50376757   -8.1095517    783.27993  0.013938357  0.012504795           24 
 4684000    0.4974229    -8.111746    785.21141  0.013969745  0.012500817           20 
 4685000   0.50898823   -8.0953919    783.37694  0.013934133  0.012496833           24 
 4686000   0.49441139   -8.1033878    781.15463  0.013891639  0.012492849           15 
 4687000   0.49566438   -8.1041257    783.31062  0.013927008  0.012488864           26 
 4688000   0.50683197   -8.1066202    783.96555  0.013935679  0.012484889           25 
 4689000   0.49879254   -8.1013471    782.46395   0.01390602  0.012480911           15 
 4690000   0.50487842   -8.0960748    784.47488  0.013938786  0.012476935           32 
 4691000   0.49819235   -8.1161272    782.15516  0.013894606  0.012472959           21 
 4692000   0.50151764   -8.1096629    783.26898  0.013911427  0.012468983           19 
 4693000   0.50264939   -8.1226059    784.19356   0.01392488  0.012465009           18 
 4694000   0.49839844   -8.1204079     782.8057  0.013897275  0.012461036           26 
 4695000   0.49606704   -8.1095385     783.7793  0.013911596  0.012457064           23 
 4696000   0.50682215   -8.1175855    783.95613  0.013911771  0.012453096           23 
 4697000   0.49957537   -8.0919084    782.46401  0.013882336  0.012449132           25 
 4698000   0.49026226   -8.1087688    783.05199  0.013889811  0.012445167           15 
 4699000   0.49943253   -8.1061495    782.56456  0.013878211  0.012441202           25 
 4700000   0.51127526   -8.1127941     783.6049  0.013893704  0.012437238           24 
 4701000   0.51130773   -8.1244696    782.57832  0.013872551  0.012433279           15 
 4702000   0.50626287   -8.1091083    783.70372  0.013889546  0.012429321           13 
 4703000   0.50358724   -8.1121014    783.10878   0.01387605  0.012425366           16 
 4704000   0.49446525   -8.1177006    782.51177  0.013862524  0.012421411           13 
 4705000   0.49279772   -8.1130365    783.06969   0.01386946  0.012417462           29 
 4706000   0.50004171   -8.1073952    782.66255  0.013859303  0.012413511           18 
 4707000   0.49530162   -8.1168106    783.89411  0.013878162  0.012409561           28 
 4708000   0.50257891   -8.1025399    783.24305   0.01386369  0.012405615           16 
 4709000   0.50424282   -8.1259476    784.14511   0.01387671  0.012401668           16 
 4710000   0.48955685   -8.1034595    783.67136  0.013865381  0.012397725           17 
 4711000   0.50324631   -8.1227103    783.98083  0.013867913   0.01239378           17 
 4712000   0.49880717    -8.109999    783.66745  0.013859427  0.012389836           23 
 4713000   0.49871645   -8.1179137    783.35584  0.013850977  0.012385894           25 
 4714000   0.49300374   -8.1063648    781.77588  0.013820108  0.012381952           30 
 4715000   0.50495831   -8.1216066    784.23245  0.013860595  0.012378015           15 
 4716000   0.48572996   -8.1151673    783.37722  0.013842543  0.012374075           25 
 4717000   0.51159388   -8.1225786    783.72732  0.013845794  0.012370137           25 
 4718000   0.49538875   -8.1233238     783.2051  0.013833635  0.012366198           14 
 4719000   0.50449313   -8.1136475    783.89761  0.013842933  0.012362264           23 
 4720000   0.48643858   -8.1178293    783.48261  0.013832673  0.012358335           34 
 4721000   0.48940828   -8.1143019    782.66819  0.013815367  0.012354403           24 
 4722000   0.49009191   -8.1101595    783.48752  0.013826901  0.012350469           21 
 4723000   0.49287967   -8.1382347      782.675  0.013809637  0.012346542           22 
 4724000   0.49900094   -8.1109166    782.79462  0.013808824  0.012342613           18 
 4725000   0.49068064   -8.1168075    782.21933  0.013795755  0.012338686           34 
 4726000   0.49015715   -8.1066929    782.74762  0.013802152  0.012334759           20 
 4727000   0.49076429   -8.1255273    782.85848  0.013801186  0.012330836           22 
 4728000   0.49533253   -8.1174458    782.93506  0.013799617  0.012326912           26 
 4729000   0.48306403   -8.1235507    782.87725   0.01379568  0.012322988           19 
 4730000   0.51315784   -8.0944793    783.24324  0.013799211  0.012319071           25 
 4731000   0.48641307   -8.1249235    782.99783  0.013791972  0.012315151           20 
 4732000   0.50451721    -8.123776    782.83559    0.0137862  0.012311236           20 
 4733000   0.49748601   -8.1160696    782.62366  0.013779556  0.012307319           15 
 4734000   0.48345997   -8.1230253    782.86703  0.013780929  0.012303405           31 
 4735000   0.48722485   -8.1248047    782.57715  0.013772917  0.012299497           18 
 4736000   0.49708177   -8.1286882    781.87166  0.013757595  0.012295588           24 
 4737000   0.48930062    -8.123795    782.98632    0.0137743  0.012291678           17 
 4738000   0.50011929   -8.1134977    783.69147  0.013783795  0.012287771           25 
 4739000   0.49740102   -8.1196801    783.12846  0.013770987  0.012283869           14 
 4740000   0.49258415   -8.1140208     781.7313  0.013743518  0.012279965           21 
 4741000   0.50232611   -8.1259405    783.36857  0.013769398  0.012276065           19 
 4742000   0.48725458   -8.1008425    782.62963  0.013753508  0.012272164           25 
 4743000   0.48715111   -8.1374247    782.28713  0.013744591  0.012268265           16 
 4744000   0.49652796   -8.1170764    781.35105   0.01372525  0.012264369           27 
 4745000    0.4884556   -8.1131108    782.06468  0.013734891  0.012260473           23 
 4746000   0.49193399   -8.1155727    783.50462   0.01375728  0.012256578           13 
 4747000   0.50101599   -8.1356648    782.55018  0.013737627  0.012252683           18 
 4748000    0.4903068   -8.1212105      783.009  0.013742787  0.012248789           22 
 4749000   0.48811234   -8.1347409    782.80448  0.013736304  0.012244897           17 
 4750000   0.48872607   -8.1234923    782.24458  0.013723589  0.012241006           30 
 4751000   0.50074503   -8.1305258    783.05721  0.013734954  0.012237117           23 
 4752000   0.49466323   -8.1156038    781.54293  0.013705509  0.012233232           26 
 4753000   0.49307161   -8.1162603    783.67066   0.01373993   0.01222935           16 
 4754000   0.49187651   -8.1186712    783.36648  0.013731708  0.012225469           17 
 4755000   0.49116848     -8.13488    780.83047  0.013684376  0.012221585           17 
 4756000   0.48679705   -8.1346815    782.40835  0.013709145  0.012217704           17 
 4757000   0.48580469   -8.1156672    782.50204  0.013707905  0.012213823           24 
 4758000   0.50204616   -8.1192275    782.97808  0.013713361  0.012209943           18 
 4759000   0.49859481   -8.1461979    784.10457  0.013730205  0.012206065           19 
 4760000   0.49466285   -8.1485336    782.50833  0.013699376  0.012202187           19 
 4761000   0.48998989   -8.1269144    782.03656   0.01368824  0.012198307           15 
 4762000   0.49371717   -8.1445447    782.94217  0.013701214  0.012194432           13 
 4763000   0.48441971    -8.118727    783.40258  0.013706393  0.012190556           23 
 4764000    0.4855177   -8.1196654    782.95756  0.013695731  0.012186681           19 
 4765000   0.48311447    -8.118559     783.4381  0.013701261  0.012182808           22 
 4766000   0.50056792   -8.1395976    781.49701  0.013664446   0.01217894           31 
 4767000   0.49509579   -8.1277386    782.20624  0.013673978  0.012175078           32 
 4768000   0.49428366   -8.1241632    782.22841  0.013671498   0.01217121           18 
 4769000   0.49723466   -8.1269186    782.40357  0.013671692   0.01216734           17 
 4770000   0.48650993   -8.1258921    780.66117  0.013638385  0.012163469           14 
 4771000   0.48595844   -8.1355197    781.62164  0.013652303  0.012159605           26 
 4772000   0.49686275   -8.1293155    782.77629  0.013669606  0.012155744           14 
 4773000   0.48153986   -8.1412846     782.2723  0.013657942  0.012151884           27 
 4774000   0.49514195   -8.1493044    781.54029  0.013642304  0.012148023           20 
 4775000   0.49612688   -8.1402306    783.35068  0.013671042  0.012144164           18 
 4776000   0.48293421   -8.1469012    783.77632  0.013675606   0.01214031           28 
 4777000    0.4791474    -8.140999    780.94425  0.013623338  0.012136449           18 
 4778000   0.48832217    -8.153469    781.74739  0.013634495  0.012132594           14 
 4779000   0.48760357   -8.1399679    782.14617  0.013638595  0.012128741           24 
 4780000   0.48146122   -8.1424919    783.11997  0.013652719   0.01212489           18 
 4781000   0.47832554   -8.1098545     781.4837  0.013621343  0.012121038           20 
 4782000   0.49454997    -8.124815    782.16085  0.013630295  0.012117188           18 
 4783000   0.48217111   -8.1256562    782.04619  0.013625448  0.012113344           23 
 4784000   0.47465717   -8.1082935    782.17257  0.013624801  0.012109498           21 
 4785000   0.47774235   -8.1282541    781.82848  0.013615961  0.012105657           19 
 4786000   0.49312472   -8.1298658    782.39294  0.013622944  0.012101813           19 
 4787000   0.48456923   -8.1333151     782.6189  0.013624032  0.012097977           19 
 4788000   0.48533608   -8.1313998     781.5273  0.013602188  0.012094143           24 
 4789000   0.47428568   -8.1312222    781.98857  0.013607374   0.01209031           30 
 4790000   0.48836947   -8.1435421    781.16682  0.013590237  0.012086477           27 
 4791000   0.49334343   -8.1341095    781.51563  0.013593468  0.012082645           21 
 4792000   0.48691736   -8.1420901    782.54295  0.013608496  0.012078815           30 
 4793000   0.48476129   -8.1497707    781.83078  0.013593275  0.012074988           20 
 4794000   0.47822361   -8.1163517    781.39973  0.013582946  0.012071163           18 
 4795000   0.48238834   -8.1358191    782.51893  0.013599564  0.012067342           25 
 4796000   0.48633105   -8.1384643     782.6321  0.013598695  0.012063515           27 
 4797000   0.48313765   -8.1311206      781.591  0.013577774  0.012059694           17 
 4798000   0.48702426   -8.1362011    782.58238  0.013592163  0.012055873           24 
 4799000   0.48665467   -8.1400875    782.10886  0.013581108   0.01205205           21 
 4800000   0.47627707   -8.1253036    782.79356  0.013590166  0.012048234           34 
 4801000   0.47168824   -8.1301771    782.80405  0.013587517  0.012044416           27 
 4802000   0.47982585   -8.1397024     782.1688  0.013573664  0.012040602           27 
 4803000   0.47814857   -8.1466962    782.26011  0.013572422  0.012036789           14 
 4804000   0.48808746   -8.1103823    782.20164  0.013568582  0.012032978           17 
 4805000   0.47099135   -8.1440478    782.18369  0.013565447  0.012029168           33 
 4806000   0.47816083   -8.1202955      780.965  0.013541493  0.012025358           17 
 4807000   0.48858661   -8.1446102    782.38589  0.013563309  0.012021553           30 
 4808000   0.48683613    -8.123217    781.71469  0.013548854  0.012017747           26 
 4809000   0.48275734   -8.1264876     782.0366  0.013551615  0.012013942           29 
 4810000   0.48795389   -8.1400974    781.92427  0.013546852  0.012010136           21 
 4811000   0.48697484   -8.1275897    781.58934  0.013538234  0.012006337           20 
 4812000   0.47900764   -8.1363762    782.07985  0.013543915  0.012002536           31 
 4813000    0.4846738   -8.1485139    781.26659   0.01352702  0.011998737           22 
 4814000   0.48508804   -8.1350954    781.35232  0.013525694  0.011994937           35 
 4815000   0.47131236   -8.1294689    780.97187  0.013516301  0.011991143           27 
 4816000   0.47089008    -8.133512    781.61823  0.013524679   0.01198735           38 
 4817000   0.47533427   -8.1218793     782.4008  0.013535409  0.011983556           31 
 4818000   0.49107135   -8.1331677    782.12981  0.013527913  0.011979765           17 
 4819000   0.48371111   -8.1279357    782.23173  0.013526868  0.011975974           26 
 4820000    0.4842708    -8.153496    782.45423  0.013527909  0.011972182           26 
 4821000   0.48953844   -8.1463375    781.06763  0.013501135  0.011968392           47 
 4822000   0.49566677   -8.1519319    783.07512  0.013533028  0.011964601           26 
 4823000   0.47796565   -8.1369484    782.22964  0.013515613  0.011960817           21 
 4824000   0.48187016   -8.1362464     782.5254  0.013517921  0.011957033           51 
 4825000   0.47087166   -8.1528878     782.1527  0.013508682  0.011953248           46 
 4826000   0.48492275   -8.1451865    781.89808  0.013501486  0.011949466           32 
 4827000   0.47503992   -8.1429382    782.71903  0.013512862  0.011945684           33 
 4828000   0.47565083   -8.1277179    781.88146  0.013495607  0.011941905           41 
 4829000     0.475052   -8.1447672    782.23203  0.013498862  0.011938131           31 
 4830000    0.4733392   -8.1679098     781.6906  0.013486725  0.011934356           23 
 4831000   0.48405836   -8.1238217    782.23695  0.013493358  0.011930581           21 
 4832000   0.48473219   -8.1273604    780.61427  0.013462581  0.011926811           23 
 4833000   0.47951611   -8.1358108    781.32399  0.013472032  0.011923041           20 
 4834000   0.47654848   -8.1405983    782.83531  0.013495299  0.011919268           18 
 4835000   0.47674839   -8.1255601    782.37593   0.01348459  0.011915498           24 
 4836000   0.48208062    -8.143076    781.36583  0.013464396  0.011911728           23 
 4837000   0.47213182   -8.1479438    782.52128  0.013481519   0.01190796           24 
 4838000   0.48277956   -8.1265236    781.09447  0.013454156  0.011904194           22 
 4839000   0.47460664   -8.1447988    782.11964   0.01346903  0.011900433           19 
 4840000    0.4847208   -8.1380653    780.67754  0.013441418  0.011896671           18 
 4841000   0.47400089   -8.1443956    783.19054    0.0134819  0.011892909           38 
 4842000   0.47959512    -8.143725    782.85654  0.013473367  0.011889148           23 
 4843000   0.47019794   -8.1389197    782.91984  0.013471675  0.011885392           32 
 4844000   0.47548587   -8.1535669    782.09996  0.013454789  0.011881637           13 
 4845000    0.4761635   -8.1506094    782.65406  0.013461542  0.011877883           28 
 4846000   0.47867193   -8.1451938    780.84024  0.013427573  0.011874127           19 
 4847000   0.48026663   -8.1397345    782.60837  0.013455202  0.011870375           25 
 4848000   0.47076897   -8.1682638    782.68343  0.013453717  0.011866626           31 
 4849000    0.4682395   -8.1619811    781.59077  0.013432164  0.011862877           23 
 4850000   0.48191812   -8.1508694    782.46972  0.013444497  0.011859127           23 
 4851000   0.46884387    -8.167325    783.41487  0.013457962  0.011855379           26 
 4852000   0.47336833   -8.1351569     782.2001  0.013434324  0.011851637           21 
 4853000   0.47692464   -8.1569129     781.6838   0.01342269  0.011847894           24 
 4854000   0.48306006   -8.1470232    781.36452  0.013414444   0.01184415           24 
 4855000   0.47298563   -8.1377293    782.04366  0.013423338  0.011840409           26 
 4856000   0.47693902   -8.1324099    781.83006  0.013416908  0.011836666           21 
 4857000   0.48015219   -8.1482418    781.96772  0.013416507  0.011832928           26 
 4858000   0.47581077   -8.1540011     781.7631  0.013410236   0.01182919           22 
 4859000   0.47121492   -8.1304156    782.44968  0.013419251  0.011825456           26 
 4860000   0.48427684   -8.1372907    781.73822   0.01340429  0.011821718           22 
 4861000   0.48136491   -8.1500182    781.63634  0.013399786  0.011817982           28 
 4862000   0.46657429   -8.1669828    781.58588  0.013396165  0.011814251           23 
 4863000   0.47540573   -8.1395876    781.33451  0.013389103   0.01181052           14 
 4864000   0.47019836   -8.1619294    782.27615  0.013402483  0.011806794           24 
 4865000   0.47812196    -8.161011    782.38306   0.01340156  0.011803067           38 
 4866000   0.47424611   -8.1577888    781.48777  0.013383473  0.011799338           32 
 4867000   0.47292527   -8.1485962     780.2876  0.013360174  0.011795614           14 
 4868000   0.46470494   -8.1581266    781.65933  0.013380912  0.011791892           27 
 4869000   0.48102187   -8.1397705    782.17885  0.013387055  0.011788171           26 
 4870000   0.47042424   -8.1530496    780.93082   0.01336295  0.011784451           19 
 4871000   0.46691474   -8.1521424    780.69235  0.013356127  0.011780731           14 
 4872000   0.46738297   -8.1397587    782.07461  0.013377029  0.011777014           20 
 4873000   0.47441191   -8.1326803    781.40575  0.013362845  0.011773295           17 
 4874000    0.4708669    -8.159296    780.50981  0.013344785  0.011769581           32 
 4875000   0.48772093   -8.1517529    780.59361   0.01334348  0.011765869           17 
 4876000   0.47388576   -8.1583749    782.35779  0.013370895  0.011762156           25 
 4877000   0.47326324   -8.1477397    780.45947  0.013335716  0.011758447           28 
 4878000   0.47285576   -8.1611373    781.41504  0.013349307  0.011754737           29 
 4879000   0.47692792   -8.1590379    780.33549  0.013328132   0.01175103           25 
 4880000   0.47342359      -8.1553    781.57094  0.013346498  0.011747321           17 
 4881000   0.46887642   -8.1387475    781.24388   0.01333818  0.011743617           20 
 4882000   0.46401242   -8.1519827    781.05566  0.013332235  0.011739913           26 
 4883000   0.46868077   -8.1562794    782.16948  0.013348513  0.011736214           19 
 4884000   0.45703434   -8.1409921    780.84953  0.013323258  0.011732514           18 
 4885000   0.46568555   -8.1651113    782.30456  0.013345352  0.011728815           33 
 4886000   0.47570873   -8.1700652    781.02748   0.01332084  0.011725119           25 
 4887000    0.4654236   -8.1546943    780.56096  0.013310159  0.011721419           24 
 4888000    0.4682076   -8.1529146    781.69917  0.013326841   0.01171772           24 
 4889000   0.47618812   -8.1523295     781.6619   0.01332348  0.011714026           15 
 4890000   0.46930825   -8.1447071     779.8338  0.013289601  0.011710333           14 
 4891000   0.48857865   -8.1724206    781.44972  0.013314416  0.011706642           33 
 4892000   0.46636634   -8.1488929    780.60815  0.013297359   0.01170295           31 
 4893000   0.47226127   -8.1438776    781.81227  0.013315149  0.011699261           37 
 4894000   0.47157563   -8.1695429    781.51927  0.013307439  0.011695573           27 
 4895000   0.46447085   -8.1540429    781.57828  0.013305725  0.011691887           27 
 4896000   0.46428798   -8.1583876     781.4199  0.013300311  0.011688202           23 
 4897000   0.46872224   -8.1614716     781.0323     0.013291  0.011684515           30 
 4898000   0.45835562   -8.1678646    782.49727  0.013313211  0.011680834           21 
 4899000   0.46492861   -8.1774926     781.1738  0.013287981  0.011677149           18 
 4900000    0.4743526   -8.1695518    782.08072  0.013300692  0.011673467           24 
 4901000   0.47542958   -8.1568699    782.16687  0.013299443  0.011669789           23 
 4902000   0.47397227   -8.1660318    781.38079  0.013283367  0.011666115           31 
 4903000     0.471689   -8.1566645    781.39247  0.013280856  0.011662441           23 
 4904000   0.46447262    -8.155829    781.43971  0.013278951  0.011658767           19 
 4905000   0.46593464   -8.1689094    780.82147   0.01326574  0.011655095           39 
 4906000   0.46689038    -8.148529    781.30493  0.013271248  0.011651424           23 
 4907000   0.45902608   -8.1383168    782.10821  0.013282186  0.011647756           20 
 4908000   0.46925472   -8.1476434    781.02659  0.013261114   0.01164409           33 
 4909000   0.47122318   -8.1499001    782.42531  0.013282157  0.011640428           23 
 4910000   0.46804105   -8.1510708     781.5017  0.013263776  0.011636766           24 
 4911000   0.46884972   -8.1550593    781.43278  0.013259906  0.011633102           24 
 4912000   0.45986107   -8.1547742    780.81829  0.013246781  0.011629439           21 
 4913000   0.45852637   -8.1724556    781.85421  0.013261656  0.011625779           47 
 4914000   0.46070354   -8.1572969    780.82888   0.01324157  0.011622122           24 
 4915000   0.47317725   -8.1551981    780.60772  0.013235126  0.011618465           25 
 4916000   0.46282213   -8.1736226    781.13758  0.013241415  0.011614808           19 
 4917000   0.46761481   -8.1510634    780.27499  0.013224103  0.011611154           32 
 4918000   0.46247719    -8.154797    780.94453   0.01323276  0.011607494           22 
 4919000   0.47214686   -8.1603348    779.99159  0.013213925  0.011603841           20 
 4920000   0.47007172   -8.1496688    780.24385  0.013215512  0.011600186           18 
 4921000   0.45235457   -8.1753753    781.70656  0.013237597  0.011596532           22 
 4922000   0.47671783   -8.1753679      781.854  0.013237404  0.011592882           23 
 4923000   0.45719149   -8.1784022    781.26594   0.01322476  0.011589235           22 
 4924000   0.45927717   -8.1602415    780.20153  0.013204061  0.011585587           31 
 4925000   0.47109742   -8.1622595    779.76156  0.013193935  0.011581943           28 
 4926000   0.48036857   -8.1586186    780.50934  0.013203907  0.011578298           23 
 4927000   0.45442103   -8.1757569    780.54937  0.013201904  0.011574653           22 
 4928000    0.4686115   -8.1881257    781.31643  0.013212196  0.011571008           28 
 4929000   0.45380593   -8.1551904    780.41751  0.013194318  0.011567368           30 
 4930000   0.47075633   -8.1620676    780.81606  0.013198378   0.01156373           18 
 4931000   0.46354087   -8.1660822    780.51604  0.013190631  0.011560089           30 
 4932000   0.46169447   -8.1679529    781.44619  0.013203673  0.011556452           15 
 4933000   0.46341259    -8.155672    780.64099  0.013187394  0.011552818           21 
 4934000   0.47315475   -8.1733551    780.82515  0.013187832  0.011549183           22 
 4935000   0.45859754   -8.1641803    781.67781  0.013199558   0.01154555           27 
 4936000   0.46754804   -8.1499655    780.20813  0.013172071  0.011541917           18 
 4937000   0.46218785   -8.1908106    781.82921  0.013196766  0.011538288           35 
 4938000   0.45311257   -8.1719152    779.82346  0.013160245  0.011534656           19 
 4939000   0.46385491   -8.1575886    782.02124  0.013194662  0.011531023           37 
 4940000   0.47329604   -8.1782591     780.4094  0.013164801  0.011527397           21 
 4941000   0.46641624    -8.149828    780.31142  0.013160484   0.01152377           25 
 4942000   0.46653253   -8.1817923    779.90655  0.013150994  0.011520143           28 
 4943000   0.45526306   -8.1589916    779.29575  0.013138036  0.011516513           32 
 4944000   0.45826672   -8.1840888    781.01265  0.013164318  0.011512888           29 
 4945000   0.46093133   -8.1778992    780.00991  0.013144757  0.011509266           26 
 4946000   0.45467743   -8.1798459    780.02742  0.013142395  0.011505644           24 
 4947000   0.45651917   -8.1698794    781.81009  0.013169768  0.011502025           23 
 4948000   0.45444552   -8.1732267    780.36057  0.013142694  0.011498408           23 
 4949000   0.45828013   -8.1630118    780.81074  0.013147618  0.011494793           27 
 4950000   0.46306779   -8.1641312    780.39577  0.013137976  0.011491179           27 
 4951000   0.45253164   -8.1859731    780.27991  0.013133372  0.011487566           28 
 4952000   0.47334025    -8.160596    780.31128  0.013131248  0.011483956           29 
 4953000   0.45902865   -8.1677028    780.39579  0.013130019   0.01148035           19 
 4954000    0.4624896   -8.1737223    780.02662  0.013121158  0.011476744           22 
 4955000   0.45730572   -8.1667927    780.53057  0.013126986   0.01147314           20 
 4956000   0.46117848   -8.1723859    779.86357  0.013113122  0.011469537           26 
 4957000   0.45577919   -8.1681077    781.37699  0.013135919  0.011465935           16 
 4958000   0.47009151   -8.1704044     780.0007  0.013110137  0.011462332           23 
 4959000   0.45372694   -8.1659539    780.62769  0.013118029  0.011458734           21 
 4960000   0.46007253   -8.1870049    780.23485  0.013108784  0.011455132           20 
 4961000   0.45610594   -8.1736725    779.47165  0.013093322  0.011451533           27 
 4962000   0.46402112    -8.189084     780.5427  0.013108671  0.011447938           24 
 4963000    0.4575137   -8.1497353    780.26671  0.013101395  0.011444346           35 
 4964000   0.46731224   -8.1808094    780.44884  0.013101814  0.011440753           25 
 4965000   0.45495694   -8.1664461    780.74703   0.01310418  0.011437163           20 
 4966000   0.44784431    -8.176492    780.11061  0.013090861  0.011433571           36 
 4967000   0.46490585   -8.1751344    780.15346  0.013088945  0.011429981           20 
 4968000   0.45747219   -8.1801389    780.19556  0.013087016  0.011426392           23 
 4969000   0.45023355   -8.1974755     780.6961  0.013092777  0.011422804           30 
 4970000   0.45833626   -8.1747431    779.91328  0.013077017  0.011419217           20 
 4971000   0.45955805   -8.1726694    780.93684  0.013091545  0.011415635           18 
 4972000   0.46066347   -8.1672373    779.36037  0.013062489  0.011412052           17 
 4973000   0.45776432   -8.1747441    779.81113  0.013067416  0.011408471           20 
 4974000   0.46067673   -8.1711833    780.20495  0.013071387   0.01140489           30 
 4975000   0.45728898   -8.1652731    781.72637  0.013094244  0.011401315           22 
 4976000     0.454531   -8.1967918    779.97313  0.013062251  0.011397736           22 
 4977000   0.45776428   -8.1788598    780.05584  0.013061011   0.01139416           34 
 4978000   0.45392775   -8.1759439    779.91697  0.013056063  0.011390586           21 
 4979000   0.46277268   -8.1664586    779.43686  0.013045405  0.011387011           24 
 4980000   0.45757765    -8.165668    780.07573  0.013053476  0.011383441           20 
 4981000   0.46215915   -8.1855766    781.23029  0.013070171  0.011379869           22 
 4982000   0.45033113    -8.160302    780.70875  0.013058824  0.011376299           17 
 4983000   0.45638947   -8.1670781    780.20008  0.013047697  0.011372734           23 
 4984000   0.45231234    -8.175322    780.23245   0.01304562  0.011369168           29 
 4985000   0.45596173   -8.1675724    780.99695  0.013055783  0.011365602           27 
 4986000   0.44916826   -8.1801267    780.18907  0.013039662  0.011362037           17 
 4987000   0.45339335   -8.1826002    780.13019  0.013036064  0.011358474           24 
 4988000   0.45657104   -8.1807045    780.61697  0.013041583  0.011354911           21 
 4989000   0.45298005   -8.1790867    779.68862  0.013023462  0.011351351           25 
 4990000   0.44434422   -8.1778847    779.62668  0.013019818   0.01134779           17 
 4991000     0.456507   -8.1815171    780.58544  0.013033217  0.011344231           24 
 4992000   0.45609371   -8.1760494    781.24221   0.01304157  0.011340674           22 
 4993000   0.45158411    -8.187599    780.85508  0.013032497  0.011337119           29 
 4994000   0.45989621   -8.1934609    779.98095  0.013015301  0.011333565           25 
 4995000   0.44644024   -8.1746412    779.63261  0.013006884  0.011330012           28 
 4996000    0.4481265   -8.1804451     779.6696  0.013004897  0.011326464           23 
 4997000   0.44981034   -8.1741633    779.66928  0.013002289  0.011322914           28 
 4998000   0.45006175   -8.1719051    779.44152   0.01299589  0.011319365           34 
 4999000   0.45925445    -8.179619    780.76297  0.013015319  0.011315815           22 
 5000000    0.4642168   -8.1789254    779.94673  0.012999112   0.01131227           20 
 5001000   0.44980436   -8.1694354     779.3325  0.012986278  0.011308726           34 
 5002000   0.45306233   -8.1706793    780.47688  0.013002747  0.011305184           25 
 5003000   0.44997473   -8.1886021    778.82946  0.012972707  0.011301641           20 
 5004000    0.4486583   -8.1684083    779.35973  0.012978946  0.011298097           16 
 5005000   0.44296378   -8.1807929    779.60866  0.012980497  0.011294559           27 
 5006000   0.45656833    -8.193597    779.78596  0.012980856  0.011291022           24 
 5007000   0.46651181   -8.1887128    780.18592   0.01298492  0.011287484           37 
 5008000   0.46408415   -8.2052314    780.12758  0.012981356  0.011283946           21 
 5009000    0.4399167    -8.185288     780.7654  0.012989376  0.011280413           30 
 5010000   0.44661096   -8.1737806    779.51201  0.012965935  0.011276883           25 
 5011000   0.44836188   -8.1860559    780.11499  0.012973375  0.011273353           29 
 5012000   0.44475829   -8.1741781    781.11492  0.012987412  0.011269822           27 
Loop time of 11385.1 on 48 procs for 5000000 steps with 4000 atoms

Performance: 75888.791 tau/day, 439.171 timesteps/s
99.4% CPU use with 48 MPI tasks x no OpenMP threads

MPI task timing breakdown:
Section |  min time  |  avg time  |  max time  |%varavg| %total
---------------------------------------------------------------
Pair    | 741.24     | 775.65     | 816.53     |  63.1 |  6.81
Neigh   | 73.574     | 75.466     | 77.959     |  11.3 |  0.66
Comm    | 665.32     | 727.07     | 767.61     |  75.5 |  6.39
Output  | 14.844     | 14.848     | 14.944     |   0.4 |  0.13
Modify  | 9661.5     | 9682.5     | 9714.2     |  12.2 | 85.05
Other   |            | 109.6      |            |       |  0.96

Nlocal:        83.3333 ave          91 max          75 min
Histogram: 2 2 2 6 5 15 8 3 4 1
Nghost:        1914.73 ave        1932 max        1888 min
Histogram: 1 2 2 5 5 7 8 7 5 6
Neighs:        12060.2 ave       13933 max       10603 min
Histogram: 2 4 4 8 15 6 5 2 1 1
FullNghs:      24120.7 ave       26551 max       21704 min
Histogram: 2 2 4 7 8 9 5 7 2 2

Total # of neighbors = 1157793
Ave neighs/atom = 289.44825
Neighbor list builds = 268698
Dangerous builds = 0

#clear
#
#next RN
#
#jump SELF
Total wall time: 3:09:48
