
units lj                  # Use reduced LJ style units
atom_style atomic         # Uncharged point particles
atom_modify map hash      # Needed for indexing of clusters etc
                          # Used to be able to find where atoms are in relation to each other.

lattice fcc 1.0 spacing 1 1 1
Lattice spacing in x,y,z = 1.5874011 1.5874011 1.5874011
region box block 0 10 0 10 0 10 units lattice
create_box 2 box
Created orthogonal box = (0.0000000 0.0000000 0.0000000) to (15.874011 15.874011 15.874011)
  3 by 4 by 4 MPI processor grid
create_atoms 1 box
Created 4000 atoms
  using lattice units in orthogonal box = (0.0000000 0.0000000 0.0000000) to (15.874011 15.874011 15.874011)
  create_atoms CPU = 0.011 seconds
set type 1 type/fraction 2 0.02 78393
Setting atom values ...
  77 settings made for type/fraction
mass 1 1.0
mass 2 1.0
pair_style lj/cut  3.5
pair_modify tail  yes
pair_coeff 1  1  1.0  1.0   # Intearaction between 1 and 1 set with epsilon = 1 and sigma = 1
pair_coeff 1  2  1.5  0.8
pair_coeff 2  2  0.5  0.88

write_data data.0
System init for write_data ...
Neighbor list info ...
  update every 1 steps, delay 10 steps, check yes
  max neighbors/atom: 2000, page size: 100000
  master list distance cutoff = 3.8
  ghost atom cutoff = 3.8
  binsize = 1.9, bins = 9 9 9
  1 neighbor lists, perpetual/occasional/extra = 1 0 0
  (1) pair lj/cut, perpetual
      attributes: half, newton on
      pair build: half/bin/atomonly/newton
      stencil: half/bin/3d
      bin: standard
WARNING: Not all mixed pair coeffs generated from mixing. Use write_data with 'pair ij' option to store all pair coeffs. (../write_data.cpp:312)


#############################
#   M E L T   S Y S T E M   #
#############################

velocity all create 2.4 6229865 mom yes dist gaussian # Assign velocities
                                                    # Temperature 2.4, random number seed, zero linear momentum
                                                                                # Gaussian distribution

timestep 0.002   # simulation timestep
thermo 1000       # output thermodynamic data every 1000 steps bf 100

# Define a fix  in this case with index 1 applied to all
# particles in the simulation. This fix is for simulations
# in the anisotropic NPT ensemble. Note that we use the MTK
# correction.
fix 1 all npt temp 2.4 2.4 0.1 iso 5.68 5.68 0.5 mtk yes tchain 5 pchain 5 # Use NPT ensemble
                                                                         # Set temperature and pressure and damping
                                                                         # Numbers of thermostats in chain and in barostat
run 10000          # run for 10000 steps
Per MPI rank memory allocation (min/avg/max) = 3.642 | 3.644 | 3.648 Mbytes
Step Temp E_pair E_mol TotEng Press Volume 
       0          2.4   -8.2581388            0   -4.6590388   -2.3989133         4000 
    1000    2.4127142   -4.5169809            0  -0.89881429     5.436301    5124.2067 
    2000    2.4095185   -4.3750844            0  -0.76171027    5.8450082     5153.398 
    3000    2.4080009   -4.4290282            0  -0.81792992    5.6321753    5151.4493 
    4000    2.4241322   -4.3708327            0  -0.73554348    5.8209537    5164.4622 
    5000     2.374951    -4.409011            0  -0.84747517    5.6595679    5158.3656 
    6000     2.420302   -4.4325267            0   -0.8029814    5.6059152    5149.7797 
    7000    2.4356357   -4.4128968            0  -0.76035668    5.6102316    5166.3184 
    8000    2.4256788   -4.3998994            0  -0.76229083    5.6123283    5176.7994 
    9000    2.3656678   -4.4697591            0  -0.92214451    5.4602815    5144.3507 
   10000    2.3841938   -4.3944011            0  -0.81900458    6.0015966    5107.9374 
Loop time of 2.09692 on 48 procs for 10000 steps with 4000 atoms

Performance: 824065.702 tau/day, 4768.899 timesteps/s
99.6% CPU use with 48 MPI tasks x no OpenMP threads

MPI task timing breakdown:
Section |  min time  |  avg time  |  max time  |%varavg| %total
---------------------------------------------------------------
Pair    | 0.84029    | 0.92478    | 1.0138     |   3.5 | 44.10
Neigh   | 0.16803    | 0.17525    | 0.19534    |   1.2 |  8.36
Comm    | 0.65031    | 0.73952    | 0.84846    |   4.6 | 35.27
Output  | 0.00025294 | 0.00025702 | 0.00031088 |   0.0 |  0.01
Modify  | 0.21711    | 0.24272    | 0.28536    |   3.5 | 11.58
Other   |            | 0.01438    |            |       |  0.69

Nlocal:        83.3333 ave          93 max          75 min
Histogram: 2 3 6 8 6 10 7 2 3 1
Nghost:        1395.62 ave        1414 max        1380 min
Histogram: 3 2 11 8 6 4 3 4 2 5
Neighs:        7459.02 ave        8700 max        6585 min
Histogram: 4 3 3 12 15 4 4 0 2 1

Total # of neighbors = 358033
Ave neighs/atom = 89.508250
Neighbor list builds = 906
Dangerous builds = 241

# Equilibrate just above the melting temperature to avoid step fn in T

fix 1 all npt temp 1.25 1.25 0.1 iso 5.68 5.68 0.5 mtk yes tchain 5 pchain 5
run 2000
Per MPI rank memory allocation (min/avg/max) = 3.642 | 3.645 | 3.648 Mbytes
Step Temp E_pair E_mol TotEng Press Volume 
   10000    2.3841938   -4.3944011            0  -0.81900458    6.0015966    5107.9374 
   11000    1.2090549   -5.8993531            0   -4.0862242    5.6934237    4275.8598 
   12000    1.2567985   -5.9149088            0   -4.0301824    5.5885078    4281.6243 
Loop time of 0.462941 on 48 procs for 2000 steps with 4000 atoms

Performance: 746531.640 tau/day, 4320.206 timesteps/s
99.6% CPU use with 48 MPI tasks x no OpenMP threads

MPI task timing breakdown:
Section |  min time  |  avg time  |  max time  |%varavg| %total
---------------------------------------------------------------
Pair    | 0.20132    | 0.21426    | 0.23143    |   1.5 | 46.28
Neigh   | 0.031478   | 0.032793   | 0.035107   |   0.4 |  7.08
Comm    | 0.14603    | 0.15957    | 0.17383    |   1.8 | 34.47
Output  | 6.5892e-05 | 6.7188e-05 | 8.0395e-05 |   0.0 |  0.01
Modify  | 0.045392   | 0.051761   | 0.060346   |   1.5 | 11.18
Other   |            | 0.004494   |            |       |  0.97

Nlocal:        83.3333 ave          89 max          75 min
Histogram: 1 2 3 2 5 11 4 11 3 6
Nghost:        1570.88 ave        1595 max        1556 min
Histogram: 4 3 14 8 8 3 5 1 0 2
Neighs:        8883.94 ave        9749 max        7790 min
Histogram: 1 1 4 2 13 6 8 7 3 3

Total # of neighbors = 426429
Ave neighs/atom = 106.60725
Neighbor list builds = 143
Dangerous builds = 11

#############################
# L I N E A R  Q U E N C H  #
#############################

# Define solid atoms. This closely follows ten Wolde  Ruiz-Montero and Frenkel  Faraday Discuss  1996  104  93-110
# Compute components of the per-atom q6 vector
compute q6 all orientorder/atom degrees 1 6 components 6 nnn NULL cutoff 1.3 # compute the Q6 parameter.
                                                                             # Use all neighbours within 1.3 unit cell.

# get number of connections
compute coord_number all coord/atom orientorder q6 0.5

# An atom is solid if it has 8 or more connections (of a possible 14)
variable is_solid atom c_coord_number>=8
group solid dynamic all var is_solid    # Must be dynamic to update
dynamic group solid defined

# do clustering
compute cluster solid cluster/atom 1.3 # Create a cluster where all atoms within are solid and max 1.3 units from another member

# define chunks one chunk per cluster
compute clus_chunks solid chunk/atom c_cluster nchunk every compress yes  # Says which atoms are in which chunk

# count the size of each chunk
compute size_chunks solid property/chunk clus_chunks count


# Find the maximum entry in the vector of chunk sizes
variable max_n equal max(c_size_chunks)


# Thermo style which includes this variable
# thermo_style custom step temp pe vol v_max_n

thermo ${N}  # Print the thermo information every 100 steps
thermo 1000  

# Reset the npt fix at a lower temperature (below freezing)
fix 1  all npt temp  ${temp} ${temp}  0.1  iso  5.68  5.68  0.5  mtk yes tchain  5  pchain  5
fix 1  all npt temp  0.45 ${temp}  0.1  iso  5.68  5.68  0.5  mtk yes tchain  5  pchain  5
fix 1  all npt temp  0.45 0.45  0.1  iso  5.68  5.68  0.5  mtk yes tchain  5  pchain  5

dump dmp2 all dcd ${N} traj.dcd
dump dmp2 all dcd 1000 traj.dcd


compute msd all msd com yes
variable twopoint equal c_msd[4]/6/(step*dt+1.0e-6)
fix 9 all vector 10 c_msd[4]
variable fit equal slope(f_9)/6/(10*dt)
thermo_style custom step temp pe c_msd[4] v_twopoint v_fit v_max_n

fix 1 all npt temp 1.25 ${temp} 0.1 iso 5.68 5.68 0.5 mtk yes tchain 5 pchain 5
fix 1 all npt temp 1.25 0.45 0.1 iso 5.68 5.68 0.5 mtk yes tchain 5 pchain 5
run 2000000 # 5000000  # Run for this many steps
Neighbor list info ...
  update every 1 steps, delay 10 steps, check yes
  max neighbors/atom: 2000, page size: 100000
  master list distance cutoff = 3.8
  ghost atom cutoff = 3.8
  binsize = 1.9, bins = 9 9 9
  4 neighbor lists, perpetual/occasional/extra = 1 3 0
  (1) pair lj/cut, perpetual
      attributes: half, newton on
      pair build: half/bin/atomonly/newton
      stencil: half/bin/3d
      bin: standard
  (2) compute orientorder/atom, occasional
      attributes: full, newton on
      pair build: full/bin/atomonly
      stencil: full/bin/3d
      bin: standard
  (3) compute coord/atom, occasional
      attributes: full, newton on
      pair build: full/bin/atomonly
      stencil: full/bin/3d
      bin: standard
  (4) compute cluster/atom, occasional
      attributes: full, newton on
      pair build: full/bin/atomonly
      stencil: full/bin/3d
      bin: standard
Per MPI rank memory allocation (min/avg/max) = 9.732 | 9.736 | 9.742 Mbytes
Step Temp PotEng c_msd[4] v_twopoint v_fit v_max_n 
   12000    1.2567985   -5.9149088 4.0048496e-30 2.7811454e-32 8.3333333e+20            2 
   13000    1.2566957   -5.8927976   0.58865638 0.0037734382  0.048436098            2 
   14000    1.2544475   -5.9384374    1.1313173 0.0067340312  0.046528696            6 
   15000    1.2675505   -5.9098448    1.6157527 0.0089764038  0.045536088            7 
   16000    1.2504249    -5.922344     2.183883   0.01137439  0.044813501            3 
   17000    1.2471346   -5.8839579    2.7392654  0.013427771  0.044860693            3 
   18000      1.25024   -5.9102881    3.3099993   0.01532407  0.045391215            3 
   19000    1.2397036   -5.9591929    3.9021903  0.017114869  0.045853867            3 
   20000    1.2586216   -5.9122445    4.4473381  0.018530575  0.046133731            2 
   21000     1.253023   -5.9123018    5.0654305  0.020100914  0.046354211            3 
   22000    1.2368076   -5.9186007    5.6052453  0.021231989   0.04664811            5 
   23000    1.2699546   -5.8886178    6.2656448  0.022701611  0.046877913            2 
   24000    1.2666713   -5.9374577    6.7171538   0.02332345  0.047013457            3 
   25000    1.2793509   -5.9356993    7.3380817  0.024460272  0.047043092            3 
   26000    1.2666682   -5.9032417    7.8024311  0.025007791  0.047022496            2 
   27000    1.2327518   -5.9129009    8.3566721  0.025792197  0.046874377            2 
   28000    1.2502991   -5.9323641    8.9127499  0.026526041  0.046778087            3 
   29000    1.2455204   -5.9045993    9.4008144  0.027013834  0.046611256            3 
   30000    1.2425385   -5.9120156    9.9681154  0.027689209  0.046444473            2 
   31000    1.2406433   -5.9102615     10.42351  0.028020187  0.046290162            2 
   32000    1.2435022   -5.9053382    10.943234  0.028498004  0.046083441            5 
   33000    1.2949241    -5.918247    11.496592  0.029031798  0.045921267            2 
   34000    1.2151706    -5.915931    11.979076  0.029360481  0.045818561            3 
   35000    1.2333768   -5.9310965     12.57893  0.029949833  0.045686888            2 
   36000    1.2656156   -5.9055385    13.045072  0.030196926  0.045559282            3 
   37000     1.225287     -5.90476    13.422008  0.030229747   0.04534566            4 
   38000    1.2149058   -5.9375185    13.960302  0.030614696  0.045132995            2 
   39000    1.2643277   -5.9219707    14.576285  0.031145907  0.045004545            3 
   40000     1.238279   -5.9241234    15.149161  0.031560753  0.044942862            3 
   41000    1.2221375   -5.9723156    15.678484  0.031866838  0.044898851            3 
   42000    1.2447493   -5.9473212    16.310066  0.032361242  0.044871468            7 
   43000    1.2374782   -5.9122623    16.926967  0.032804199  0.044906672            3 
   44000    1.2747236   -5.9603691    17.553236  0.033244765   0.04496138            5 
   45000    1.2419686   -5.9159489    18.243715  0.033784658  0.045085057            3 
   46000    1.2033262   -5.9336226    18.796687  0.034051969  0.045207789            5 
   47000    1.2417858   -5.9144506    19.434109   0.03445764   0.04529999            4 
   48000    1.2039348   -5.9568004    19.941724  0.034621048   0.04541068            4 
   49000    1.2116196    -5.957647     20.46682  0.034807517  0.045488167            4 
   50000    1.2381981   -5.9494393     20.84166  0.034736099  0.045535211            3 
   51000    1.2152058    -5.939982    21.371183  0.034920233  0.045539818            3 
   52000    1.2496256    -5.921457    21.900135   0.03509637  0.045517688            3 
   53000    1.2131981   -5.9424685     22.41903  0.035250046  0.045527979            5 
   54000    1.2034243   -5.9025564    23.047176  0.035566629  0.045516165            2 
   55000    1.2422031   -5.9272478    23.485577  0.035584207  0.045508019            3 
   56000    1.2369717   -5.9709512    23.994827  0.035706587  0.045490971            5 
   57000    1.2574184   -5.9080647    24.542401  0.035880703  0.045474943           13 
   58000    1.1969651   -5.9659704    24.914292  0.035796396  0.045438301            3 
   59000    1.2083414   -5.9186558    25.420483  0.035904637  0.045365533            4 
   60000    1.2391476    -5.931528    25.676506  0.035661813  0.045277129            2 
   61000    1.2293083   -5.9264222     26.18207  0.035767854  0.045181712            2 
   62000    1.2270095   -6.0013023    26.891944  0.036145085  0.045106094            3 
   63000    1.2252647   -5.9176226      27.5292  0.036414285  0.045068741            4 
   64000    1.2191846   -5.9562075    28.052865  0.036527168  0.045040274            1 
   65000    1.2348159   -5.9525298    28.662542  0.036746848  0.045009368            2 
   66000     1.232638   -5.9294341    29.067252  0.036701076  0.044971113            5 
   67000    1.2206411   -5.9462683    29.238904  0.036366796  0.044901313            2 
   68000    1.1934086   -5.9224473    29.817278  0.036540782  0.044813317            2 
   69000    1.2026356   -5.9475145     30.39431  0.036708104  0.044737051            3 
   70000    1.2439303   -5.8926852    30.915557  0.036804234  0.044667569            3 
   71000     1.224561   -5.9276444    31.496796   0.03696807  0.044617428            5 
   72000    1.2502701    -5.916464    32.312516  0.037398745  0.044584462            2 
   73000    1.2102318   -5.9504252    32.777612  0.037417365  0.044572415            3 
   74000    1.2340288   -5.9624971    33.101364  0.037276311  0.044543171            4 
   75000    1.2215431    -5.934553    33.780472  0.037533858  0.044520704            2 
   76000     1.220535   -5.9638762    34.312637  0.037623505  0.044497403            5 
   77000    1.2182204   -5.9927747    34.607132  0.037453606  0.044468021            2 
   78000    1.2221917   -5.9292903    35.173974  0.037579032  0.044435421           12 
   79000    1.2066457   -5.9555396    35.944577  0.037916221  0.044417205            3 
   80000    1.2383163   -5.9586404      36.3678  0.037883125  0.044406198            4 
   81000    1.2362433   -5.9755455    36.964567  0.038029389  0.044388923            3 
   82000    1.2171912   -5.9473417    37.480834  0.038090278  0.044373999            3 
   83000    1.2289345   -5.9808039    37.997806  0.038150407  0.044359029            4 
   84000    1.2221392   -5.9278772    38.690424  0.038383357  0.044358054            3 
   85000    1.2421643   -5.9571077    39.480074  0.038705955   0.04437839            2 
   86000    1.2112982   -5.9412957    39.857761  0.038621861  0.044397054            3 
   87000     1.208041   -5.9426169    40.434419  0.038730286  0.044412075            1 
   88000    1.2296463    -5.935164    41.035727   0.03885959  0.044425497            2 
   89000    1.2188752   -5.9601735    41.533586  0.038889125  0.044434763            3 
   90000    1.2472105   -5.9368763    42.028089  0.038914897  0.044443388            3 
   91000    1.2061259   -5.9601097    42.379952   0.03880948  0.044450402            2 
   92000    1.2265331   -5.9714027    43.089824  0.039030637  0.044456134            3 
   93000    1.2332275   -5.9398371     43.55747   0.03902999  0.044454453            4 
   94000    1.2412938   -5.9171537    43.967079  0.038977907  0.044452851            4 
   95000    1.2245422   -5.9718898    44.484028  0.039021077  0.044451254            5 
   96000    1.2096378   -5.9335857    44.761803  0.038855731  0.044437088            4 
   97000    1.2180043   -5.9717623    45.218905  0.038847857  0.044413169            3 
   98000    1.2004886   -5.9672054    45.830006  0.038971093  0.044387979            3 
   99000    1.2062098   -5.9873442    46.305239  0.038977473  0.044369633            4 
  100000    1.2248003   -5.9712906    46.856334  0.039046945  0.044347678            6 
  101000    1.1943941   -5.9560456    47.311597  0.039035971   0.04433048            3 
  102000    1.2219299   -5.9467315     47.86145  0.039102492  0.044305475            2 
  103000    1.2374514      -5.9611    48.182603  0.038982688  0.044283722            4 
  104000    1.2096812   -6.0067099    48.796851  0.039100041  0.044254125            4 
  105000    1.2057247   -5.9845751    49.457165  0.039251718  0.044234069            2 
  106000    1.2034155   -5.9629334     50.14213  0.039419913  0.044225792            2 
  107000    1.2000626   -5.9593078    50.893612  0.039636769   0.04422258            8 
  108000     1.233957   -5.9538346    51.209855  0.039513777  0.044219064            3 
  109000    1.2051327   -5.9984125    51.782063  0.039588733  0.044216048            4 
  110000    1.1892685   -5.9614771    52.304202  0.039624395  0.044213137            2 
  111000     1.229911   -5.9889012    52.823115  0.039656993  0.044209735            3 
  112000    1.1897474   -6.0210173    53.165649  0.039557774  0.044204021            3 
  113000    1.2057929   -6.0092104    53.750621  0.039639101  0.044197158            1 
  114000    1.2278789   -5.9229722    54.305742   0.03969718  0.044188347            2 
  115000    1.2057919   -5.9365673    54.706216  0.039642185  0.044171158            4 
  116000    1.2114074   -5.9748214    55.067433  0.039559937  0.044153441            7 
  117000    1.1907054   -6.0134556    55.495848  0.039526957  0.044135969            3 
  118000    1.1912104   -5.9475826    56.253701   0.03972719  0.044119402            2 
  119000    1.2271512    -5.961604    56.807926  0.039781461  0.044106956            2 
  120000     1.220219   -6.0205362    57.226428  0.039740575  0.044092825            5 
  121000    1.2209067   -5.9694726    57.891624  0.039870264  0.044079144            5 
  122000    1.1808925   -5.9944504    58.251506   0.03978928  0.044072574            4 
  123000    1.2072916   -5.9680117    59.207124  0.040113228  0.044070315            5 
  124000    1.2196659   -5.9455948    59.897668  0.040253809  0.044071911            4 
  125000    1.1870942   -5.9470749    60.313079  0.040208719  0.044074537            5 
  126000    1.2180752   -6.0005194    60.485285  0.040003495  0.044071859            2 
  127000    1.1997936   -5.9822765    61.216934  0.040168592  0.044065899            4 
  128000    1.2089079   -6.0147784    61.464354  0.040015856  0.044055102            2 
  129000     1.200182   -5.9857934     62.06579   0.04009418  0.044045464            3 
  130000     1.191131   -5.9806511    62.461965  0.040039721  0.044029225            2 
  131000    1.1803649   -5.9586165    62.795715  0.039946383  0.044013872            4 
  132000    1.1939034   -6.0372144    63.236832  0.039922242  0.043996854            2 
  133000    1.1880288   -5.9851954    64.023831  0.040115182  0.043988636            2 
  134000    1.2111766   -6.0074245    64.662047  0.040212716   0.04398085            9 
  135000    1.1973623    -5.958068    65.157541  0.040220704  0.043973624            3 
  136000    1.2125694   -6.0091016     65.48736  0.040127059  0.043962311            4 
  137000    1.2170519   -5.9954375     65.88527  0.040076198  0.043945813            3 
  138000    1.2008005   -5.9956797    66.384181  0.040087065  0.043932559            2 
  139000    1.1839687   -6.0003452    66.937574   0.04013044  0.043919325            4 
  140000    1.1883859   -5.9740845    67.642929  0.040263648  0.043908007            3 
  141000    1.1932986   -6.0220019    68.021011  0.040201543  0.043896211            3 
  142000    1.2112838    -5.981062    68.514237  0.040207885  0.043879269            6 
  143000    1.1994879    -5.981138     68.71579  0.040044166  0.043859442            4 
  144000    1.1809867   -5.9750548    69.098953   0.03998782  0.043834351            3 
  145000    1.2317444   -6.0176125    69.377068  0.039871878  0.043802254            3 
  146000    1.1899644   -6.0126637     69.76212  0.039818561  0.043769732            2 
  147000    1.1777752   -6.0121747     70.26082  0.039830397  0.043737641            3 
  148000     1.203953   -5.9966632    70.699039  0.039808017  0.043704725            2 
  149000    1.2161844   -5.9866372     71.14313  0.039789223  0.043668883            2 
  150000    1.2235553   -6.0254697    71.520394  0.039733552   0.04363405            3 
  151000    1.2226588   -5.9770338     71.96965   0.03971835  0.043599611            3 
  152000    1.1993169   -5.9889157    72.785097   0.03990411  0.043565813            3 
  153000    1.2086462   -6.0041543    73.622303  0.040099294  0.043540386            5 
  154000    1.1858258   -6.0142961     74.25781  0.040182797  0.043519116            6 
  155000    1.1870652    -5.991458     74.45823  0.040031306  0.043497557            6 
  156000    1.1627579   -5.9978388     74.65767  0.039881234  0.043468967            2 
  157000    1.1950585   -6.0063419     75.65628  0.040157261  0.043443336            5 
  158000    1.2126523    -5.979698     76.04952  0.040110506  0.043421926            2 
  159000    1.1977999   -5.9656211    76.621337  0.040157933  0.043399544            2 
  160000    1.2091623    -6.014946    76.675399  0.039935103  0.043374067            3 
  161000    1.2059137   -6.0330234    76.885952  0.039796041   0.04334417            3 
  162000    1.2060649   -5.9746396    77.643725  0.039940188  0.043317177            4 
  163000    1.2156773   -5.9978668    77.872816  0.039812278  0.043288043            2 
  164000    1.1953034   -6.0296307    78.129481  0.039699939  0.043258185            2 
  165000    1.1927284   -6.0056417    78.605771  0.039699884  0.043224815            6 
  166000    1.1676698   -5.9934635    78.898587  0.039607724  0.043190432            5 
  167000    1.1839725   -6.0091087    79.874295  0.039857432  0.043156702            6 
  168000    1.1851144   -6.0293966    80.364591  0.039863388  0.043126118            8 
  169000    1.1756076   -6.0398579    80.884461  0.039883856  0.043098927            3 
  170000    1.1530867   -6.0076905    81.487178  0.039944695   0.04307224            7 
  171000    1.1860045   -6.0299902    81.800732  0.039863904  0.043046926            2 
  172000    1.2046801    -6.007623    82.731912   0.04008329  0.043026838            3 
  173000    1.1588332   -6.0316151    83.292919   0.04012183  0.043008735            7 
  174000    1.2106726    -5.965833     83.97523  0.040218022  0.042994712            3 
  175000    1.1944719   -6.0399614     84.26632  0.040126819   0.04298276            6 
  176000    1.2112511    -6.001761     85.02979  0.040260317  0.042970445            4 
  177000    1.1894731   -6.0221663    85.206531  0.040116069  0.042956939            5 
  178000    1.1791946   -6.0045778    86.042092  0.040281878  0.042942192            4 
  179000    1.1785049   -6.0348908    86.159443  0.040111472  0.042926482            4 
  180000    1.1982621   -6.0052859    86.704587  0.040141012   0.04290809            4 
  181000    1.1850178   -6.0595456    86.918914  0.040017916   0.04288864            6 
  182000    1.1915736    -6.011599    87.608849  0.040113942  0.042868183            2 
  183000    1.1834629   -6.0374813    88.199592  0.040163749    0.0428518            3 
  184000    1.1712478   -6.0253848    88.419043  0.040044857  0.042836755            1 
  185000    1.1598635   -6.0216811    89.234352  0.040195654  0.042818273            5 
  186000    1.1813578   -5.9970313    89.143038  0.039938637  0.042798451            2 
  187000    1.1995467   -6.0387552    89.568049   0.03991446   0.04277664            5 
  188000    1.1659044    -6.057651    89.560778  0.039698926  0.042750567            3 
  189000    1.1581435   -5.9999259    90.357487  0.039840162  0.042724766            2 
  190000     1.198927   -6.0018082    91.015704  0.039919168  0.042702428            3 
  191000    1.1538297   -6.0303252    91.601287  0.039965657  0.042679303            2 
  192000    1.2122391   -6.0066954     91.77778  0.039834106  0.042656927            3 
  193000    1.1949472   -6.0525518    92.208933  0.039813874  0.042633569            4 
  194000     1.163037   -6.0402298    92.744506  0.039838705  0.042608142            4 
  195000    1.1878182   -6.0526394    92.946222  0.039720608  0.042583402            4 
  196000     1.174722   -6.0035202    93.435135  0.039725823  0.042555815            3 
  197000    1.1722502   -6.0263031    94.083155  0.039798289  0.042528508            3 
  198000    1.1716571   -6.0180509    94.364268  0.039715601  0.042501267            3 
  199000    1.1843362   -6.0082185    94.851491  0.039720055  0.042474001            2 
  200000    1.1712443   -6.0304992    95.287417   0.03970309  0.042445853            3 
  201000    1.1746335   -6.0333796    95.720947  0.039685301  0.042419682            2 
  202000    1.2027694   -6.0825039     95.66427  0.039465458  0.042391312            4 
  203000    1.1603087   -5.9969563    96.074841   0.03943959  0.042358402            3 
  204000    1.1681865   -6.0448704    96.438976  0.039395006  0.042325111            5 
  205000    1.1574625   -6.0274917    97.455006  0.039615856  0.042291783            2 
  206000    1.1735662   -6.0412833    97.279334  0.039352481    0.0422587            5 
  207000    1.1489675   -6.0559928    97.585619  0.039285676  0.042225654            4 
  208000    1.1780373   -6.0671703    98.287991  0.039378202  0.042190686           11 
  209000    1.1640426   -6.0416269    98.689032  0.039349694  0.042157452            3 
  210000     1.173642   -6.0261565    99.131731  0.039337988    0.0421255            3 
  211000     1.175504   -6.0459732    99.721518  0.039384486  0.042095391            5 
  212000     1.158304    -6.016946    100.47789  0.039496025  0.042064083            6 
  213000    1.1865873   -6.0447635    100.63849  0.039373431  0.042032902            3 
  214000    1.1803109   -6.0231671    100.66448  0.039199562  0.041999939            4 
  215000    1.1702787   -6.0566164    101.66984  0.039406915  0.041968079            4 
  216000    1.1678603   -6.0333176    102.31832   0.03947466  0.041939486            6 
  217000    1.1626086   -6.0378445     102.9017  0.039516783   0.04191148            5 
  218000    1.1942277   -6.0688448    102.94359  0.039351526  0.041883434            5 
  219000     1.191875   -6.0779498    102.99985  0.039193247  0.041851772            9 
  220000    1.1763763    -6.036312    103.75065  0.039299487  0.041821737            4 
  221000    1.1743946     -6.05364    104.47395  0.039394402  0.041795254            1 
  222000     1.161706   -6.0299626    105.24906  0.039507907  0.041770389            4 
  223000    1.1723862   -6.0785595    105.32797  0.039360229  0.041743659            4 
  224000    1.1792118   -6.0660246    105.91718  0.039403713  0.041717178            4 
  225000    1.1545763   -6.0215365    106.34824  0.039388236  0.041689706            4 
  226000    1.1537863   -6.0246911    106.60597  0.039308984  0.041664844            3 
  227000    1.1833045   -6.0612949    107.07364  0.039307502  0.041638018            2 
  228000    1.1447541   -6.0220116      107.553  0.039310307  0.041609458            2 
  229000    1.1722244    -6.041699    107.71325  0.039196962  0.041578737            4 
  230000    1.1788109   -6.0483736    108.43584  0.039288348  0.041552682            6 
  231000    1.1747664   -6.0887496    108.39136  0.039102223  0.041527088            5 
  232000    1.1615463   -6.0214685    109.20366  0.039225452  0.041499208            3 
  233000    1.1578219   -6.0517421    109.60718  0.039201422  0.041473264            5 
  234000    1.1720193   -6.0295795    109.99269  0.039171187  0.041447086            4 
  235000    1.1725835   -6.0378851    110.40093  0.039149266  0.041419709            3 
  236000    1.1557382    -6.072299    110.72361   0.03909732  0.041390853            2 
  237000     1.155753   -6.0368386    111.52231  0.039213188  0.041364239            3 
  238000    1.1668541     -6.04601    111.80426   0.03914715  0.041337581            2 
  239000      1.16132   -6.0342219     111.9647  0.039039296  0.041310385            3 
  240000    1.1511055   -6.0406541    112.58287  0.039091274  0.041282503            6 
  241000    1.1474048   -6.0322281    113.25016  0.039159805  0.041255609            7 
  242000    1.1694217   -6.0470152    113.26606  0.039003465  0.041229717            2 
  243000    1.1329666    -6.058936    113.53311  0.038934536  0.041200397            6 
  244000    1.1390463   -6.0829918    113.88978  0.038896781  0.041172112            7 
  245000    1.1261189   -6.0351032    114.66628  0.039002135  0.041144082            2 
  246000    1.1408761   -6.0411622    115.33997  0.039071804  0.041117132            3 
  247000    1.1547237   -6.0190693    115.35636  0.038919148  0.041090021           14 
  248000    1.1404212   -6.0291495    116.40669   0.03911515  0.041064405            5 
  249000    1.1793667   -6.0531889    116.40514  0.038957543  0.041039009            6 
  250000    1.1532631   -6.0799413    117.19619  0.039065398  0.041013718            6 
  251000    1.1705843   -6.0511596    117.22698  0.038919981  0.040988966            4 
  252000    1.1127195   -6.0909405    118.00512  0.039022858  0.040963553            4 
  253000    1.1479266   -6.0806454    118.24397  0.038947289  0.040939274            5 
  254000    1.1578272   -6.1013514    118.68494  0.038938627  0.040913219            4 
  255000    1.1339755   -6.0759899     118.8174  0.038829215  0.040888162            5 
  256000    1.1526223   -6.0850096    119.46704   0.03888901  0.040861989            3 
  257000     1.151484   -6.0459551    119.81948  0.038851972  0.040836616            4 
  258000    1.1333941   -6.0854106     120.7496   0.03900181  0.040813345            5 
  259000    1.1777471   -6.0843526    120.91947   0.03890588  0.040791175            5 
  260000    1.1781729   -6.0738941    121.84305  0.039052259  0.040769428            3 
  261000    1.1620983   -6.1016907    122.21889  0.039022633  0.040751697            3 
  262000    1.1559168   -6.1105124    122.39956  0.038931156  0.040732227            4 
  263000    1.1188144   -6.0774463    123.38683  0.039095954   0.04071304            4 
  264000    1.1260787   -6.0604274     123.6734   0.03903832  0.040694683            4 
  265000    1.1445448   -6.0830441    123.84588  0.038945244  0.040676295            3 
  266000    1.1576559   -6.0971707    124.44492  0.038986502  0.040657179            3 
  267000    1.1140721   -6.0780288    124.97913   0.03900722   0.04064011           11 
  268000    1.1399483   -6.1058322    125.48257  0.039018212  0.040623613            5 
  269000    1.1455311   -6.0594709    126.12161   0.03907113  0.040606803            4 
  270000    1.1567666   -6.0585436    126.91131  0.039170156  0.040589102            2 
  271000     1.132615   -6.0771406    127.26877  0.039135539  0.040573455            4 
  272000    1.1470278   -6.1041728    127.58844  0.039089595  0.040558409            5 
  273000     1.157882   -6.0659605    128.06425   0.03909165  0.040541261            2 
  274000    1.1470433   -6.0578646    128.74061  0.039154685  0.040526059            4 
  275000    1.1360517   -6.0910274    128.72772  0.039008399  0.040511892            4 
  276000    1.1368352   -6.0798477    129.21814  0.039015138  0.040497641            2 
  277000    1.1560125   -6.0730966    129.77698  0.039042412  0.040484025            5 
  278000    1.1484799   -6.1210097    130.16839  0.039019302  0.040469224            7 
  279000    1.1101862   -6.0794247    130.71563  0.039042899  0.040454265            4 
  280000    1.1542218    -6.118758    130.84859  0.038943033   0.04043961            4 
  281000    1.1325799   -6.0817216     131.6435  0.039040185  0.040425712            3 
  282000    1.1398194   -6.0936283    132.11398  0.039040773  0.040412239            3 
  283000    1.1379769   -6.0600264    133.20053  0.039222769  0.040399588            3 
  284000    1.1321163   -6.0966206    133.44159  0.039155397  0.040388697            2 
  285000    1.1121164   -6.0694314    134.58862  0.039353398  0.040378188            3 
  286000    1.1618743   -6.1053891    134.81024  0.039280372  0.040369597            2 
  287000    1.1354579   -6.0763242    135.39568  0.039313495   0.04036046            5 
  288000    1.1458254   -6.1143676     135.3343   0.03915923  0.040351026            4 
  289000    1.1337045   -6.0826061    136.59668   0.03938774    0.0403418            5 
  290000    1.1357087   -6.0495762    136.81295  0.039314067  0.040334038            3 
  291000    1.1410594   -6.0768485    136.94399  0.039216493  0.040325791            4 
  292000    1.1472742   -6.1205417    137.21478   0.03915947  0.040317002            5 
  293000     1.120546    -6.112118    137.40075  0.039078711  0.040307725            5 
  294000    1.1500475   -6.1310781    137.76201  0.039048188  0.040297782            3 
  295000    1.1287964   -6.1109953    138.52934  0.039132583  0.040288043            3 
  296000    1.1248265   -6.0831117    139.14346  0.039173271  0.040278035            2 
  297000    1.1460692   -6.1161079    138.77311  0.038937461  0.040267002            3 
  298000    1.1300324   -6.0847993    139.91343  0.039125679   0.04025562            6 
  299000    1.1389194   -6.1013064    140.52484  0.039165228  0.040242753            6 
  300000    1.1148249   -6.0929188    140.90417  0.039140048  0.040231723            4 
  301000    1.1406983    -6.101602    140.57699  0.038919431  0.040219961            6 
  302000    1.1211483   -6.0728175    141.06558   0.03892538   0.04020749            3 
  303000    1.1358376   -6.0705705    141.70136  0.038971771  0.040194474            3 
  304000    1.1385591   -6.1459983    142.48446  0.039058239  0.040182449            6 
  305000    1.1382768   -6.0884995    142.72587   0.03899614  0.040170159            5 
  306000    1.1371144   -6.1018393     143.2907  0.039022523  0.040158189            9 
  307000    1.1161883   -6.1134841    143.60957  0.038981968   0.04014573            5 
  308000    1.1255737   -6.1002604    144.41129  0.039072319  0.040133046            3 
  309000    1.1039285   -6.1038103    143.97298  0.038827664  0.040119128            3 
  310000     1.135019   -6.1040831    143.82233  0.038661917  0.040103415            4 
  311000    1.1355028   -6.1575368    144.63303   0.03875483  0.040087447            3 
  312000    1.1343846   -6.0983318    144.99759  0.038727988  0.040069877            7 
  313000    1.1398283   -6.0627645    145.68537  0.038787373  0.040053815            9 
  314000    1.1311692   -6.1187982    145.95588  0.038735638  0.040037893            3 
  315000    1.1074875   -6.1413798     146.1599  0.038666639  0.040021598            4 
  316000    1.1315025   -6.1306336    146.46381  0.038624421  0.040004761            2 
  317000     1.117971   -6.1090842    146.80888  0.038593292  0.039988442            7 
  318000    1.1292003   -6.0717492    147.65806  0.038694459  0.039972029           11 
  319000    1.1291141   -6.1060435    148.25834  0.038729974  0.039956051            4 
  320000    1.1259664   -6.1006608      148.359  0.038635156  0.039940532            8 
  321000    1.1434844   -6.1237316    149.14844  0.038719741  0.039924801            8 
  322000    1.1384008    -6.113737    149.16595  0.038604024  0.039907995            4 
  323000    1.1274812   -6.1507167    149.20009  0.038493315  0.039890369            6 
  324000    1.1259258   -6.1205831    149.78843  0.038525831  0.039872275            6 
  325000    1.1074831   -6.0767661    150.67588  0.038634841    0.0398548            6 
  326000    1.1379956   -6.1142893    150.39868   0.03844547  0.039837539            7 
  327000    1.1544908   -6.1167632    150.72982  0.038412289  0.039819433            4 
  328000    1.1170767   -6.0976225    150.93838  0.038348166  0.039800483            7 
  329000    1.1328743    -6.096381    151.60431   0.03840028  0.039781126            6 
  330000    1.1459202   -6.1107636    151.38602  0.038228794  0.039761053            6 
  331000    1.1301868     -6.11986    152.19595  0.038317208  0.039740402            6 
  332000    1.1220419   -6.1285585    152.15868  0.038192441  0.039719339            6 
  333000     1.128486   -6.1324944    153.28227  0.038358926  0.039698686            8 
  334000    1.1284451   -6.1343281    152.91422   0.03815225  0.039678114            2 
  335000    1.1077668   -6.1290577    153.51301  0.038187315   0.03965802            5 
  336000    1.1234988   -6.1550849    154.13619  0.038228222  0.039639027            5 
  337000    1.1387289   -6.0887044    154.55775  0.038219029  0.039618931            5 
  338000    1.1015045   -6.1819767    154.55071  0.038104219  0.039599223            4 
  339000    1.1268596   -6.1193826    154.99488  0.038101003  0.039579615            5 
  340000    1.1221888    -6.126291    155.27034  0.038056456  0.039558592            3 
  341000    1.1147805   -6.1149032    155.84406  0.038085058  0.039536826            6 
  342000    1.1492794   -6.1086583     156.2445  0.038071271  0.039516295            2 
  343000    1.1045392   -6.1293413    156.49897  0.038022101  0.039494621            3 
  344000    1.1147398     -6.13903    156.44858  0.037899365  0.039472524            6 
  345000    1.1342954   -6.1325676    156.74268  0.037860551  0.039448333            6 
  346000    1.0992811   -6.1621201    157.44712   0.03792079  0.039424003            2 
  347000    1.1218341   -6.1498383    157.46336  0.037815408  0.039400057            8 
  348000    1.1122725   -6.1409463     157.6814  0.037758957  0.039376059            5 
  349000    1.1311117   -6.1340213    157.82225  0.037684396  0.039350965            5 
  350000    1.1164006   -6.1594927    158.17197  0.037659994  0.039326149           12 
  351000    1.1065043   -6.1156617    159.06486  0.037764687  0.039301564            8 
  352000     1.099573   -6.1424593    159.76409  0.037822937  0.039277042            2 
  353000    1.0999239   -6.1516391    159.42567  0.037635899  0.039251744            4 
  354000    1.1061891   -6.1139479    159.84235  0.037627672  0.039226552            6 
  355000    1.1115489   -6.1374499    160.12853  0.037588856  0.039201825            3 
  356000    1.0858619   -6.1279731    161.31531  0.037761075  0.039177957            3 
  357000    1.0823977   -6.1419707    161.08207  0.037600857  0.039154286            4 
  358000     1.119403   -6.1537469    162.10685  0.037734369  0.039130987            7 
  359000    1.1295539   -6.1210685    162.87979  0.037808679  0.039108332            5 
  360000    1.1025639   -6.1320752    163.01766  0.037735569  0.039086034           12 
  361000     1.136196   -6.1457771    163.46122   0.03773343  0.039064045            7 
  362000    1.1276204   -6.1502558     164.0767  0.037770879  0.039041552            4 
  363000    1.0983455   -6.1632345     163.4047  0.037512558  0.039017778            3 
  364000    1.1087963    -6.154257    163.48396  0.037427646  0.038994039            6 
  365000    1.1094351   -6.1135414    163.76996  0.037390402  0.038969433            3 
  366000    1.1117542   -6.1230743     164.4081  0.037433537  0.038944594            3 
  367000     1.108473   -6.1318331    164.85579  0.037433195  0.038919216            5 
  368000    1.1333464   -6.1307989    165.00097   0.03736435  0.038894255            2 
  369000     1.121918   -6.1454905    165.71428  0.037424181  0.038870396            5 
  370000    1.1103901   -6.1914613    165.66488   0.03731191   0.03884617            6 
  371000    1.1073338   -6.1809916    165.53834  0.037182916  0.038820172            6 
  372000    1.0953737   -6.1287091     166.1536  0.037220789  0.038795473            4 
  373000    1.1158683   -6.1313066     166.7253  0.037248726  0.038771223            2 
  374000    1.0853633   -6.1476283    167.38934  0.037297091  0.038748173            4 
  375000    1.1211882   -6.1476948    168.21234   0.03738052  0.038725507           10 
  376000    1.1202668   -6.1685946    167.50459  0.037124245  0.038701605            3 
  377000    1.0743848   -6.1666934    168.18907  0.037177072  0.038677795           10 
  378000    1.1344827   -6.1065855    169.42164  0.037350449  0.038655377            5 
  379000     1.080911   -6.1908751    169.19932  0.037203017  0.038632801            4 
  380000    1.0838069    -6.132106    170.17526  0.037319136  0.038609951            6 
  381000    1.0983754   -6.1391531    170.47552  0.037286858  0.038587671            4 
  382000    1.1242238   -6.1474784    170.78382  0.037256506  0.038566291            3 
  383000    1.0837195     -6.13089    171.39958  0.037293208  0.038545293            5 
  384000    1.0969601     -6.14631    171.70384  0.037262118  0.038524707            7 
  385000    1.1056372   -6.1915705     172.0721  0.037245042  0.038504011            4 
  386000    1.0862252   -6.1610273    172.72655  0.037289842  0.038482793            4 
  387000    1.1048173   -6.1750012    173.05739  0.037264727   0.03846104            3 
  388000    1.0963623   -6.1735059    172.93916   0.03714329  0.038439502            3 
  389000    1.0835663   -6.1977413    173.01905   0.03706492  0.038417901            6 
  390000    1.0915648   -6.1334009    173.88195  0.037154263  0.038396126            4 
  391000    1.1235718   -6.1440316    173.92524  0.037068466  0.038374549            1 
  392000    1.0928753   -6.1642217    174.86646  0.037173992   0.03835289            9 
  393000     1.090612   -6.1783905    175.14333  0.037138111  0.038331341            4 
  394000    1.1142989   -6.1816617    175.31414  0.037079979   0.03831057           10 
  395000    1.0815648   -6.1700871    176.92863  0.037326715  0.038289702            4 
  396000    1.0978268   -6.1885906    176.48774  0.037139675  0.038270127            6 
  397000    1.1186024   -6.1723299    176.09109  0.036962866  0.038250113            3 
  398000    1.1068912   -6.1731369    177.28639  0.037120266  0.038230291            3 
  399000    1.0980809   -6.1948992    177.24237  0.037018038  0.038210541            4 
  400000    1.1028819    -6.173587    178.39063  0.037164715  0.038190774            5 
  401000    1.1001482   -6.1715421    178.73119  0.037142807  0.038170551            4 
  402000    1.0821378   -6.1838792    179.12215  0.037131457  0.038150098            3 
  403000    1.0931486   -6.1634928     179.2166   0.03705885  0.038129671            3 
  404000    1.0943148   -6.1641845    179.60246  0.037046712  0.038109447            9 
  405000    1.0797287    -6.191996    179.34462  0.036902185  0.038088263            2 
  406000    1.0889751   -6.1961316    179.23599  0.036788997  0.038066339            6 
  407000    1.0893251   -6.1886173    179.75479   0.03680483  0.038044354            5 
  408000    1.0851106   -6.2068816    180.65349  0.036898181   0.03802299            3 
  409000      1.07613   -6.1516385    180.49005  0.036774664  0.038001507            4 
  410000    1.0867876   -6.2093317    181.18738  0.036826703  0.037979682            5 
  411000    1.1054827   -6.1896523    181.16034  0.036731618  0.037957874           13 
  412000    1.1016057    -6.221992    181.38208  0.036687313  0.037935643            3 
  413000    1.0980693   -6.1572305    181.91566  0.036706147  0.037913375            4 
  414000    1.0897837   -6.1552201    182.19441  0.036673594   0.03789093            5 
  415000    1.0825156   -6.1425569    183.29833  0.036806894  0.037868918            4 
  416000    1.0853159   -6.2081625    183.26696  0.036712131  0.037847605            6 
  417000    1.0857082   -6.1961412    183.74718   0.03672006  0.037826655            4 
  418000    1.0912704   -6.1989074    183.93256   0.03666917  0.037805647           13 
  419000    1.0906982   -6.2137671    184.28771   0.03665229  0.037784429            7 
  420000    1.0990407   -6.2105439    184.92688  0.036691841  0.037763886            5 
  421000    1.0779931   -6.1835326    184.80511  0.036580584  0.037742027            6 
  422000    1.0908164   -6.1816908    185.59257  0.036649402  0.037720938            4 
  423000    1.0986749   -6.1864536    185.79789  0.036603209  0.037700445            5 
  424000    1.0968564   -6.1886986    185.60726  0.036479415  0.037678978            8 
  425000    1.1086567   -6.1690107     186.0998  0.036490157  0.037656689            2 
  426000    1.0729747   -6.2146269    186.63874  0.036509925  0.037635275            6 
  427000      1.10092   -6.1900661    186.73962   0.03644411  0.037613358           10 
  428000    1.0789536   -6.1728416    187.61073  0.036528569  0.037591571            5 
  429000    1.0967919   -6.1858965    187.39308  0.036401142  0.037570197            4 
  430000    1.0885966   -6.2131517    187.99877   0.03643387  0.037548956            4 
  431000    1.0851827   -6.1762393    188.23828  0.036395645  0.037527502            3 
  432000    1.0589596   -6.1781203    188.81259  0.036422183   0.03750645            5 
  433000    1.0821873   -6.1934296    188.75942  0.036327833  0.037485199            4 
  434000    1.0937606   -6.2364243    189.50163  0.036386642  0.037464285            3 
  435000    1.0970642   -6.1921553     189.9008  0.036379463   0.03744331            3 
  436000    1.0675874     -6.18878    190.29817  0.036371974  0.037421933            4 
  437000    1.0908559    -6.188842    190.21266  0.036272437  0.037400664            4 
  438000    1.0625097   -6.1902173    191.30492  0.036397436  0.037379954            2 
  439000    1.0862242   -6.2159176    191.21024  0.036296552  0.037358791            3 
  440000    1.1003239   -6.1948949    190.72956  0.036123023  0.037337335           11 
  441000    1.0769934   -6.1999416    192.20302  0.036319542  0.037316536            5 
  442000    1.0886705   -6.2449353     192.2987  0.036255411  0.037295819            3 
  443000    1.0981457   -6.2014937    192.54496  0.036219895  0.037274264            5 
  444000    1.0537646    -6.194101    193.30693   0.03628133  0.037253209            6 
  445000    1.0653752   -6.2004317     193.6313  0.036260543  0.037232637            2 
  446000     1.080942   -6.2047811    193.74946   0.03620132  0.037211577            5 
  447000    1.0796472     -6.17693    194.09802  0.036185314   0.03719048            3 
  448000    1.0658772   -6.2237761    194.36265  0.036153768  0.037169628            4 
  449000    1.0932404    -6.223931    194.47331  0.036093784  0.037148647            5 
  450000     1.045819   -6.2340803     195.3322  0.036172629  0.037127485            5 
  451000     1.090172   -6.2083091    195.68794  0.036158155  0.037106448            8 
  452000    1.0803901   -6.2019572    196.43259  0.036215449  0.037085965            4 
  453000     1.099494   -6.2080053    195.88342  0.036034478  0.037065682            5 
  454000    1.0727693   -6.2370252    197.12443  0.036182898  0.037045932            4 
  455000    1.0821095    -6.194735     197.2399  0.036124523  0.037026533            6 
  456000    1.0845754   -6.1675395    197.68903  0.036127381  0.037007356            6 
  457000    1.0944458   -6.1831322    198.31914  0.036163228  0.036988687            4 
  458000    1.0656801   -6.2196528    198.38809  0.036096814  0.036969948            4 
  459000    1.0503077   -6.2038724    198.59362  0.036055487   0.03695024           10 
  460000    1.0729091   -6.2044729    199.08819  0.036066702  0.036930732            3 
  461000    1.0715453   -6.2094392    199.47271  0.036057974  0.036911798            4 
  462000    1.0873166   -6.2099647    200.01177  0.036077158  0.036892778            5 
  463000    1.0598229   -6.2167323    199.93619  0.035985635  0.036873637            6 
  464000    1.0746902   -6.2123255    200.75367  0.036054898  0.036854422            8 
  465000    1.0692639    -6.203099    200.07162  0.035855129  0.036835124            4 
  466000    1.0600025   -6.2164972    201.02641  0.035948929   0.03681579            3 
  467000    1.0722217   -6.2204316    201.73169  0.035997803   0.03679602            3 
  468000    1.0611623   -6.1995587    202.55189  0.036066932  0.036776871            7 
  469000    1.0610176   -6.2455885    201.97664  0.035887818   0.03675797            2 
  470000    1.0710765   -6.1735655    202.85358  0.035966947  0.036738853            5 
  471000    1.0780185   -6.2270883    202.84812  0.035889617  0.036719548            5 
  472000    1.0707395   -6.2200181    203.25546  0.035885498  0.036699721            5 
  473000    1.0346931   -6.2078817    203.68742  0.035885732  0.036680611            2 
  474000    1.0580331   -6.2138641    203.24342  0.035731965   0.03666138            5 
  475000    1.0689914   -6.1897219    204.32389  0.035846296  0.036642555            5 
  476000     1.077993   -6.2287518    204.19166  0.035747839  0.036623663            4 
  477000    1.0784814   -6.2178362    205.46005  0.035894488  0.036604568            4 
  478000    1.0698736   -6.2352263    204.21638  0.035602577  0.036585303           12 
  479000    1.0570264   -6.2367129    205.93617  0.035827448  0.036565722            6 
  480000    1.0751207   -6.2039856    205.55701  0.035686981  0.036546831            4 
  481000    1.0782699    -6.238102    206.70876  0.035812328  0.036528134            5 
  482000    1.0683731   -6.2305721    206.89361  0.035769988  0.036509773            2 
  483000    1.0643338   -6.2384648    207.97193  0.035881975  0.036492091            6 
  484000    1.0633817   -6.1945831    207.91504  0.035798045  0.036473707            6 
  485000    1.0547961   -6.1965594    207.91313  0.035723906  0.036455593            4 
  486000    1.0446389   -6.2273396    208.47165  0.035746168  0.036437157            4 
  487000    1.0695433   -6.2445846    209.23908  0.035804087   0.03641936            6 
  488000    1.0634372   -6.2346001    208.90254  0.035673248  0.036401775            5 
  489000    1.0413079   -6.2150643    209.62404  0.035723251  0.036384253            1 
  490000    1.0733249   -6.2645123    209.85621  0.035689831  0.036366726            7 
  491000    1.0668415   -6.2148737    210.96423  0.035805199  0.036349367            4 
  492000    1.0518559   -6.2417132    210.66691  0.035682064  0.036332234            2 
  493000    1.0792633    -6.245471    210.80795  0.035633528  0.036314895           10 
  494000    1.0514709   -6.2132221    211.87549   0.03574148  0.036297416            5 
  495000    1.0547906   -6.2544681    211.84102  0.035663471  0.036279594            5 
  496000    1.0683284   -6.2238938    212.10271  0.035635535  0.036262242            4 
  497000     1.049625   -6.2441548    212.74095   0.03567085  0.036244912            5 
  498000    1.0656764   -6.2251742    212.82305  0.035612961  0.036227661            8 
  499000    1.0645587   -6.2330893     212.9948  0.035570273  0.036211017            8 
  500000    1.0570348    -6.253014     213.9326  0.035655433  0.036194934            4 
  501000    1.0422919   -6.2556728    214.98443   0.03575922  0.036179658            1 
  502000    1.0341956   -6.2117986    214.82019  0.035660722  0.036164702            3 
  503000    1.0562234    -6.225647    214.94064  0.035609782  0.036149352            5 
  504000    1.0284782    -6.240882    216.24304  0.035754471  0.036133756            7 
  505000      1.07446   -6.2592267    216.72736  0.035763591  0.036118261            5 
  506000    1.0523591   -6.2179356    216.81991  0.035708154  0.036103323            4 
  507000    1.0593298   -6.2506492    216.74957  0.035626163  0.036088037            3 
  508000    1.0539245   -6.2592718     217.0852  0.035611089  0.036072621            8 
  509000    1.0537049   -6.2625825    217.95026  0.035682754  0.036057809           10 
  510000    1.0425833   -6.2334787    217.99886  0.035620728  0.036043534            5 
  511000    1.0843402   -6.2562578    218.82624  0.035685949  0.036029024            4 
  512000    1.0677782   -6.2557471    219.48751  0.035723879  0.036015499            6 
  513000    1.0407355   -6.2452427    219.96783  0.035732265  0.036002093            5 
  514000    1.0534367   -6.2455968    220.17335  0.035696069  0.035988661           10 
  515000    1.0535048   -6.2446519    220.82116   0.03573158  0.035975553            4 
  516000    1.0540655   -6.2522078     221.0593  0.035700791  0.035962125            5 
  517000    1.0401919    -6.235814    222.03901  0.035789653  0.035949436            8 
  518000    1.0452574   -6.2696765    221.83917  0.035688412  0.035936513           13 
  519000    1.0498174   -6.2323781    222.12037  0.035664799  0.035923555            9 
  520000    1.0468025   -6.2684552    222.74404   0.03569616  0.035911144            6 
  521000    1.0561761    -6.250732    223.01541  0.035671051  0.035898709            4 
  522000    1.0233452   -6.2604958    223.81817  0.035730871  0.035886741            3 
  523000    1.0404093   -6.2352084    223.48896  0.035610096  0.035874282            7 
  524000    1.0198638   -6.3095951    223.69193  0.035574416   0.03586119            5 
  525000    1.0655552   -6.2637465    224.52601   0.03563905    0.0358479            3 
  526000    1.0474772   -6.2640642    224.67889  0.035595515  0.035834981            5 
  527000    1.0557845    -6.295278    225.03979   0.03558504  0.035821578            5 
  528000    1.0457878   -6.2415495     225.0725  0.035522806  0.035808137            5 
  529000    1.0396133   -6.2766767    224.85046  0.035420678  0.035794505            9 
  530000    1.0442496   -6.2158821    225.78888  0.035501396   0.03578074            3 
  531000    1.0284816   -6.2563804    225.14295  0.035333169  0.035766527            9 
  532000    1.0431142   -6.2738603     226.2467  0.035439646  0.035752101            3 
  533000    1.0644036     -6.29164    226.78491  0.035457304  0.035737794            8 
  534000    1.0300578   -6.2845322    225.93329  0.035258003  0.035723453            6 
  535000    1.0359256   -6.2382653    227.47783  0.035432684  0.035709502            6 
  536000     1.047167   -6.2890583     227.8026  0.035417071  0.035695937            3 
  537000     1.026699   -6.2654687    228.07794  0.035393845  0.035682422            4 
  538000    1.0496496   -6.2691692    228.89212   0.03545417  0.035669077            4 
  539000    1.0593213   -6.2922038    228.27241   0.03529258  0.035655597            4 
  540000    1.0198769   -6.2829618     229.5283  0.035421034  0.035642172            5 
  541000    1.0491722   -6.2506004    229.78613  0.035395276  0.035628991            4 
  542000     1.040122   -6.2188481    229.88201  0.035344713  0.035615252           12 
  543000    1.0287834   -6.2709481     229.9446  0.035289227  0.035600955           12 
  544000    1.0614424   -6.2745617    229.37798  0.035137558  0.035586173            3 
  545000    1.0307077   -6.2589296     230.2655  0.035208793  0.035571616            4 
  546000    1.0102536   -6.2701357     230.8705  0.035236646  0.035557205            3 
  547000    1.0370786   -6.2924892    231.01512  0.035194259  0.035543055            4 
  548000     1.038731    -6.241623    231.50673  0.035204795  0.035528858            8 
  549000    1.0348909   -6.2697015    232.49491  0.035290666  0.035514916            3 
  550000    1.0389612   -6.2965879    232.39783  0.035211792  0.035501285            3 
  551000    1.0387455   -6.3046718    232.82966  0.035213197  0.035487708            9 
  552000    1.0321015   -6.3311848    233.32601  0.035224338  0.035473917           10 
  553000    1.0349373   -6.2944886    233.08988  0.035125058  0.035460166           10 
  554000    1.0499724   -6.3010679    233.68296  0.035150866  0.035446077           12 
  555000    1.0497167   -6.2890416    233.21724  0.035017604  0.035431907            4 
  556000    1.0360253    -6.290377    233.82357  0.035045499  0.035417614            8 
  557000    1.0256026   -6.2776778    234.34484  0.035060569  0.035402695            6 
  558000    1.0239559   -6.2890164    234.85755  0.035074305  0.035388404            4 
  559000    1.0387808   -6.2772319    234.94604  0.035024752  0.035373947            5 
  560000    1.0372062    -6.295445    234.83231  0.034945284   0.03535926            4 
  561000    1.0426909    -6.302746    236.12178  0.035074536  0.035344599            3 
  562000    1.0463227   -6.3057269     236.1546  0.035016993  0.035329948           14 
  563000    1.0268942   -6.3097347    236.42048   0.03499415  0.035315459            4 
  564000    1.0235382   -6.3170375    236.58611  0.034956576  0.035300909            6 
  565000    1.0163509   -6.2928949    236.96056  0.034949935  0.035286222            5 
  566000    1.0414815   -6.3215318    237.52495  0.034971282  0.035271654            3 
  567000    1.0233947   -6.2624567    237.85564  0.034958206  0.035256996            4 
  568000      1.01916   -6.2806661    238.01664  0.034920282  0.035242178            7 
  569000    1.0412703   -6.2743775    238.87489  0.034984606  0.035227303            5 
  570000    1.0145685    -6.290323    237.56867  0.034732262  0.035211968            3 
  571000    1.0439889    -6.263679    238.76484  0.034846007  0.035196539            6 
  572000    1.0298936   -6.3121251    238.76389  0.034784949  0.035181494           11 
  573000   0.99718717   -6.2964721    238.70154  0.034715175  0.035165502            4 
  574000    1.0244652   -6.3061082     239.0572   0.03470633  0.035149512           13 
  575000    1.0149686   -6.2799885    238.77737  0.034605416  0.035133538            3 
  576000    1.0197672   -6.2951262    238.66978  0.034529771  0.035117193            6 
  577000    1.0334473   -6.2622781    238.84603  0.034495383  0.035100554            6 
  578000    1.0544041   -6.2968382    239.81248  0.034575041   0.03508379           12 
  579000    1.0228433    -6.309416    239.76399  0.034508347   0.03506745            4 
  580000    1.0393754   -6.3020726    240.45339  0.034547901  0.035050933            4 
  581000    1.0225399   -6.3246874    240.63071  0.034513871  0.035034193            3 
  582000    1.0165468   -6.3129851    241.36172  0.034559238  0.035017207            5 
  583000     1.031843   -6.2992353    240.33392  0.034353048  0.035000049            6 
  584000    1.0514108   -6.2866017    241.67477  0.034485556  0.034983092           14 
  585000    1.0440498   -6.3190922     241.8326  0.034449089  0.034966194            7 
  586000    1.0244577   -6.3266775    241.86715  0.034395215  0.034949148            8 
  587000    1.0089281   -6.3256651    242.16643  0.034379107  0.034931942            4 
  588000    1.0059446   -6.2787603    242.67701     0.034393   0.03491487            5 
  589000     1.020399   -6.3185952     242.6638  0.034332738  0.034897817            6 
  590000    1.0107459   -6.3080648    242.79898  0.034293641  0.034880627            8 
  591000    1.0244321   -6.2947262    243.31516  0.034308398  0.034863158            5 
  592000    1.0336895   -6.3041803    243.24667  0.034240804  0.034845782            3 
  593000   0.99065202    -6.307278    242.41412  0.034066065  0.034827653            5 
  594000    1.0502121   -6.3171053    243.49347  0.034160139  0.034809465           12 
  595000    1.0251847    -6.338995    244.08596  0.034185709  0.034791404            8 
  596000   0.99608542   -6.2947607    244.42768   0.03417613  0.034773517           12 
  597000    1.0281711    -6.291902    245.16573  0.034221905  0.034756211            4 
  598000    1.0263375   -6.3252314     244.9846  0.034139438  0.034738366            4 
  599000    1.0257972   -6.3176856    244.61071  0.034030427  0.034719956            6 
  600000    1.0311243   -6.2903498    245.08093  0.034039018   0.03470152            6 
  601000    1.0327336   -6.3274816    245.36869  0.034022281  0.034682776            7 
  602000     1.015918   -6.3070866    245.61017  0.033999194  0.034664118            9 
  603000    1.0226627   -6.3208746    244.95785  0.033852661  0.034645702           11 
  604000    1.0236472   -6.3199506    246.36962  0.033991394  0.034627014            8 
  605000    1.0300043   -6.2764558    246.63473  0.033971726  0.034608463            6 
  606000    1.0122773   -6.3078033    246.45288  0.033890661  0.034589789            5 
  607000    1.0337483   -6.3243015    246.30784  0.033814914  0.034570809            5 
  608000    1.0076207   -6.3238071    247.04635  0.033860519  0.034551653           12 
  609000    1.0251616   -6.3352195    247.11635  0.033814498  0.034532485            5 
  610000    1.0329723   -6.3249838    247.21845  0.033773013  0.034513256            6 
  611000   0.98912483   -6.3324541    248.32396  0.033868516  0.034494259            4 
  612000    1.0226481   -6.3090549     247.5961  0.033714065  0.034474933            9 
  613000    1.0133538   -6.3165804    247.52241   0.03364905  0.034455321            5 
  614000    1.0122484   -6.3042351    248.85004  0.033774435  0.034435886            5 
  615000   0.99972768    -6.347573    248.32186  0.033647949  0.034416289            8 
  616000    1.0184893   -6.3457294    248.69154  0.033643337  0.034396778           10 
  617000    1.0211106   -6.3030554    248.71465   0.03359193  0.034377196            5 
  618000    1.0082469   -6.3255067    248.95357  0.033569791  0.034357748            4 
  619000   0.99658139   -6.3330016    249.79042   0.03362822  0.034338383            3 
  620000   0.99005617   -6.3140778    249.90552  0.033589452   0.03431911            4 
  621000    1.0184434   -6.3382293    250.55579  0.033622623  0.034300083            5 
  622000     1.012713   -6.3478583    250.03708  0.033499073  0.034280743           10 
  623000    0.9850782   -6.3019728    250.74784  0.033540374   0.03426121            4 
  624000    1.0031765   -6.3450483     251.1691  0.033542881   0.03424178            9 
  625000    1.0194762   -6.3647576    251.73063  0.033564085  0.034222981            5 
  626000    1.0291162   -6.3375266    251.92545  0.033536401  0.034203919           12 
  627000   0.99620391   -6.3244561    252.20681   0.03352031  0.034185367            5 
  628000    1.0051702   -6.3418555    251.98818  0.033437922  0.034166825            6 
  629000   0.99528532   -6.3675282    252.31074  0.033427496  0.034147897            6 
  630000      1.00466   -6.3495063    252.78147  0.033436702  0.034128604            5 
  631000    1.0154191   -6.3463435    253.67568  0.033501807  0.034110016            5 
  632000   0.98754193   -6.3220139     253.6979  0.033451728  0.034091149            5 
  633000     1.015293   -6.3206551    253.74142   0.03340461  0.034072666            5 
  634000    1.0228833   -6.3130465     254.4091  0.033439681  0.034053991            6 
  635000   0.99574503   -6.3320662    255.14785   0.03348397  0.034035766            8 
  636000   0.99136485   -6.3406047    254.83829  0.033390761  0.034016897           12 
  637000     1.005539   -6.3524422    254.80536  0.033334035  0.033997724            3 
  638000    1.0067202    -6.352177    254.99656  0.033306761  0.033978945            6 
  639000    1.0029803   -6.3344503    255.81641  0.033361556  0.033960138            6 
  640000   0.99317235   -6.3375331    255.30118  0.033242341   0.03394156            3 
  641000   0.99393316   -6.3794991    256.00809  0.033282383  0.033922891            4 
  642000     1.007202   -6.3384853    256.03835  0.033234469  0.033904004            9 
  643000    1.0038199    -6.355594    255.79875   0.03315173  0.033885329            5 
  644000    1.0075417   -6.3564227    256.34943   0.03317151  0.033866584            8 
  645000   0.98512142   -6.3788887    256.26585  0.033109283  0.033847419            8 
  646000    1.0124623   -6.3515727    257.36798  0.033200204  0.033828222           13 
  647000   0.98426651   -6.3501223     257.4671  0.033161657  0.033808822           10 
  648000    0.9894407   -6.3613698    257.30119  0.033089144   0.03378956            9 
  649000   0.97679834   -6.3786884    257.71006   0.03309066  0.033770361            6 
  650000   0.98819687   -6.3626254    258.04899  0.033083203  0.033751027           10 
  651000    1.0085395   -6.3702902    257.78664  0.032998801  0.033731699            4 
  652000   0.99393745   -6.3738337    258.99434  0.033102548  0.033712257            5 
  653000   0.99901161   -6.3782355    258.68915  0.033012908  0.033692861            8 
  654000   0.96331882   -6.3501739    258.78052  0.032974072   0.03367374            4 
  655000   0.98955716   -6.3513042    259.80686  0.033054308   0.03365501            5 
  656000   0.98283038    -6.378139    259.60082  0.032977746  0.033636437            9 
  657000   0.99488709    -6.355229    260.94768  0.033098387  0.033617869            3 
  658000   0.97341087     -6.36893    261.00688  0.033055582  0.033600178            7 
  659000   0.94889126   -6.3738574    261.71321  0.033094741  0.033581963           12 
  660000   0.98625914   -6.3540032    261.64452  0.033035925   0.03356379            4 
  661000    1.0001516   -6.3432972    261.99417  0.033030026  0.033545944            4 
  662000   0.98551332   -6.3571689    261.80667  0.032956529  0.033528155           11 
  663000   0.96885746   -6.3962653    261.83219  0.032910029  0.033510144            4 
  664000   0.99802256   -6.3791677    262.42208  0.032934498  0.033491928            5 
  665000   0.98638007   -6.3388182     263.0682   0.03296594  0.033473832            6 
  666000   0.98320589   -6.3512055    263.70123  0.032995649  0.033456063            5 
  667000   0.99950645   -6.3628081    264.63139  0.033062393  0.033438176           19 
  668000   0.96995287   -6.3383298    264.41719  0.032986176  0.033420722            6 
  669000    1.0018482   -6.3469329    264.47607  0.032944203  0.033403096            9 
  670000    1.0089205   -6.3242655    264.58044  0.032908015  0.033385881            4 
  671000    1.0135084   -6.3736143    265.06745  0.032919455  0.033368785            4 
  672000   0.96621303   -6.3629809    265.99759  0.032985812  0.033351426            7 
  673000    1.0012136   -6.3530141    265.47428  0.032872001  0.033334095           11 
  674000   0.99177045   -6.3721383    265.79095  0.032862383  0.033316883           10 
  675000   0.98331045   -6.3339939    266.95151  0.032956976  0.033300121            3 
  676000   0.97385049   -6.3878185    266.18526  0.032813765  0.033282878            7 
  677000   0.99197061   -6.3755051    265.95116   0.03273648  0.033265543            8 
  678000   0.98812462   -6.3889773    267.31884  0.032856298  0.033248081           12 
  679000   0.99399112   -6.3555036    267.64446  0.032847872  0.033230908            5 
  680000   0.99324348   -6.4065135    266.78312  0.032694009  0.033213404            6 
  681000   0.99031645   -6.3614251    267.39743  0.032721174  0.033195568            9 
  682000   0.98833065   -6.4045183    267.30002  0.032661292   0.03317788            4 
  683000   0.99552039   -6.3454193    267.68569  0.032660528  0.033160349            4 
  684000   0.97116476   -6.3531398    268.69978  0.032736328  0.033142861            9 
  685000   0.97731388   -6.3914349    268.86346   0.03270845  0.033125389            6 
  686000   0.98638113    -6.374774     268.5785  0.032626154  0.033107867            5 
  687000   0.99023617   -6.3883704    268.10442  0.032521157  0.033090217            2 
  688000   0.97030809   -6.3780369    269.01527  0.032584213  0.033072578           14 
  689000   0.97408218   -6.3920359    270.18928  0.032678916  0.033055039            4 
  690000    1.0026681   -6.3823063     270.1956  0.032632319  0.033037609            8 
  691000   0.99796051   -6.3597258     270.3863  0.032608093  0.033020619            7 
  692000    0.9871466    -6.367464     270.2971  0.032550229  0.033003593           12 
  693000   0.99654323   -6.3772469    270.20752  0.032492487  0.032986283            5 
  694000   0.97795642   -6.3483568    271.50704   0.03260171  0.032968734            3 
  695000   0.97100378   -6.3935531    271.21015  0.032519203  0.032951394            7 
  696000   0.98945102   -6.3731676    271.64762  0.032524858  0.032933882           24 
  697000    0.9669421   -6.3982688    271.87162  0.032504976  0.032916288           16 
  698000   0.96445422   -6.3756758     270.9858   0.03235265  0.032898544            4 
  699000   0.98342456   -6.4085476    270.73238  0.032276154  0.032880744            6 
  700000   0.96711617   -6.3698613    271.83923  0.032361813  0.032862787           11 
  701000   0.98660004   -6.4048455    272.44648  0.032387837  0.032844985           10 
  702000   0.98437813   -6.4001954    272.59689  0.032359555  0.032826834            7 
  703000    0.9715303   -6.3966775    273.03371  0.032365304  0.032809009            8 
  704000   0.96512485   -6.4051363     272.6701   0.03227629  0.032790895            4 
  705000    0.9593359   -6.4060663    273.47375  0.032325502   0.03277258           11 
  706000   0.98259882     -6.39094    273.11342  0.032237183  0.032754391            8 
  707000   0.97245556   -6.4134304    274.00747  0.032296968  0.032736528           11 
  708000   0.98158288   -6.4351298    274.27077  0.032282341  0.032718709           10 
  709000   0.98915065   -6.3901497    275.08846  0.032332918  0.032701274            5 
  710000   0.96162512   -6.3863338    274.87551  0.032262384  0.032683699            9 
  711000   0.96468298   -6.3996568    275.37159  0.032275152   0.03266645            7 
  712000   0.95972342   -6.3894067      275.336  0.032225656  0.032649149            6 
  713000   0.97305388   -6.3992024    275.24052  0.032169299  0.032632002            8 
  714000    0.9657735    -6.409385    275.57593   0.03216339  0.032614691            5 
  715000   0.94370581   -6.4111505    276.09661  0.032179092  0.032597278            3 
  716000   0.97012251   -6.4036202    276.46032   0.03217648  0.032579864            6 
  717000   0.96195766   -6.4137967     276.7965  0.032170676   0.03256246            7 
  718000   0.97894697   -6.4129914    276.97136  0.032146165  0.032545402           16 
  719000   0.96899113    -6.400312    276.31367  0.032025228  0.032528422            7 
  720000    0.9600948   -6.3949296    277.43182  0.032110164  0.032511309            9 
  721000    0.9492022   -6.4051498     277.9206  0.032122122  0.032494126            9 
  722000   0.96040078   -6.4236296    278.95729  0.032197286   0.03247712            5 
  723000   0.93656184   -6.3802283    278.29311    0.0320762  0.032460046           10 
  724000   0.96287664   -6.4071924    278.16458  0.032017101  0.032442687           18 
  725000   0.97749691   -6.3909557    279.27842  0.032100968  0.032425662            5 
  726000   0.95712293   -6.4183503    279.58522  0.032091967  0.032408679            8 
  727000   0.97886362   -6.4302856    279.23529  0.032007714  0.032391763            7 
  728000   0.96456241   -6.4132469    280.21003  0.032075323  0.032374528            5 
  729000   0.95813189   -6.4161972     280.0603  0.032014209  0.032357008            6 
  730000   0.97791352   -6.3902058    279.63609  0.031921928  0.032339754            9 
  731000   0.96108969   -6.3836558     280.2886  0.031952645  0.032322232            8 
  732000   0.94087821   -6.3840528    279.79728   0.03185306  0.032304816            4 
  733000   0.95731816   -6.4180173    280.46178   0.03188515  0.032287246            9 
  734000   0.98608378   -6.4057422    280.16881  0.031808448  0.032269605            6 
  735000   0.96269655   -6.4483486    279.52299  0.031691948  0.032252001            8 
  736000    0.9454063   -6.4095923    280.37081  0.031744884   0.03223425            8 
  737000   0.96507292   -6.4356782    280.69928  0.031738951  0.032216303            7 
  738000   0.95033858   -6.4285436    280.84255  0.031712122  0.032198485           14 
  739000   0.97015777    -6.422781    281.81498  0.031778865  0.032180606            9 
  740000   0.94349139   -6.4010342    281.27358  0.031674953   0.03216254           12 
  741000   0.95487119    -6.403868    282.37649   0.03175624  0.032144576            6 
  742000   0.97936383   -6.4086491    281.50731  0.031615825  0.032126514            6 
  743000   0.98351194   -6.4435283    281.25463  0.031544934  0.032108239            5 
  744000   0.95081997   -6.4309433    281.77985  0.031561363  0.032089936            6 
  745000   0.95236032   -6.4446418    282.34151  0.031581825  0.032071822           11 
  746000   0.96133576    -6.407492    282.77035  0.031587393  0.032053849            8 
  747000    0.9711377     -6.41549    282.61372  0.031527635   0.03203565            6 
  748000   0.97456132   -6.4173917     283.2591  0.031557386  0.032017555            4 
  749000   0.93917619   -6.4282272    283.08489  0.031495871   0.03199943            4 
  750000   0.94572361   -6.4242831    283.64349  0.031515943  0.031981425           11 
  751000   0.95903203   -6.4335973    284.29176  0.031545912  0.031963242            3 
  752000   0.95311316   -6.4444512    284.21969  0.031495977  0.031945343            7 
  753000   0.95642378   -6.4203093    284.59681  0.031495884  0.031927363            6 
  754000   0.95175262   -6.3790294    285.06848  0.031506243  0.031909423            8 
  755000   0.95231233   -6.4142107    285.31049  0.031491224  0.031891467            4 
  756000   0.95065458   -6.4244893     284.9287  0.031407484   0.03187324            8 
  757000   0.93829754   -6.4233053    285.47041  0.031425629  0.031855026           15 
  758000   0.94444721   -6.4333181    285.29551  0.031364942   0.03183673            7 
  759000   0.94313965   -6.4341039    285.94374   0.03139479  0.031818323            7 
  760000   0.94630765   -6.4446553    285.30198  0.031283112  0.031800023            4 
  761000   0.97242916   -6.4104787    285.40255  0.031253017  0.031781602            6 
  762000   0.92917118   -6.3946177    286.63588   0.03134688  0.031763316            7 
  763000   0.96258505   -6.4660871    286.54085  0.031295418  0.031744894           10 
  764000   0.94271165   -6.4557981    285.72497  0.031165463  0.031726275           11 
  765000   0.94224783   -6.4302777    286.66888  0.031227546  0.031707702           13 
  766000   0.97264824    -6.453633    286.92654  0.031214811  0.031689071            6 
  767000   0.96981988   -6.4520271    286.82056  0.031162599  0.031670788            5 
  768000   0.96902629   -6.4138664    287.61263  0.031207967   0.03165259            7 
  769000   0.95457488   -6.4411632    287.37711  0.031141863  0.031634346            5 
  770000   0.93870767   -6.4376386    287.32776  0.031096078  0.031615763            4 
  771000   0.93601854   -6.4480417    288.52483   0.03118513   0.03159725            8 
  772000   0.95599559   -6.4544918    287.72725  0.031058641  0.031578738            7 
  773000   0.94169054   -6.4400472    288.10823  0.031059533  0.031560183            6 
  774000   0.94738183   -6.4251564    288.76299    0.0310899  0.031541617           10 
  775000   0.94565958   -6.4600665    289.02347  0.031077793  0.031523298           11 
  776000   0.94510519   -6.4660144     288.3845  0.030969126  0.031504746            8 
  777000   0.93949827   -6.4329547    288.96758  0.030991804   0.03148646            7 
  778000   0.95198266   -6.4504695    289.89547  0.031051357  0.031468326            4 
  779000   0.93656676   -6.4588301    289.34509   0.03095262  0.031450149            4 
  780000   0.96877966   -6.4705183    290.57617  0.031044462    0.0314319            8 
  781000   0.92722444   -6.4559883    290.37829  0.030983599  0.031413832           23 
  782000   0.94629049   -6.4597432     290.5172  0.030958781  0.031395889            4 
  783000   0.92506023   -6.4280639    291.49407  0.031023209   0.03137774            8 
  784000   0.95371337    -6.460548    291.24105  0.030956745  0.031359585            8 
  785000   0.92978221   -6.4528857    291.57541  0.030952804  0.031341404            7 
  786000   0.95451187    -6.453154    290.19804  0.030767391  0.031323221            5 
  787000   0.93057014   -6.4461723    291.80165  0.030898099   0.03130473           17 
  788000   0.92902131   -6.4597281    291.43005   0.03081959   0.03128629           15 
  789000    0.9319666   -6.4804381    291.02888  0.030738158  0.031267797            5 
  790000   0.93497401   -6.4354316    291.87605  0.030788613  0.031249141            9 
  791000   0.95839768   -6.4550798    291.67263  0.030728258  0.031230387           11 
  792000    0.9168972   -6.4724883    291.21358  0.030641159  0.031211712           11 
  793000   0.93127754   -6.4954729    291.92451  0.030677228  0.031192746            9 
  794000   0.91946797   -6.4450415      292.011   0.03064767  0.031173711            3 
  795000   0.91709772   -6.4642427    291.46757  0.030552156  0.031154698            5 
  796000    0.9322849   -6.4633737    292.87733  0.030661362  0.031135345           11 
  797000   0.91015547   -6.4458737    292.39047  0.030571985  0.031116185            9 
  798000   0.92490241   -6.4769643    292.42278  0.030537049  0.031096979           13 
  799000   0.92476278   -6.4771681    293.55573  0.030616993  0.031077934            6 
  800000   0.92660434   -6.4634929     292.9471  0.030515323  0.031058971            5 
  801000   0.92055146   -6.4636462    293.39758  0.030524092  0.031040046            4 
  802000   0.93003246   -6.4505573    293.24612  0.030470295  0.031021108           17 
  803000   0.92806473   -6.4254459    294.36669  0.030548639  0.031002297           11 
  804000   0.91513371   -6.4676194    294.61375  0.030536251  0.030983698            7 
  805000   0.94175107   -6.4859376    294.04744  0.030439694  0.030964988           15 
  806000   0.91854306   -6.4692292    293.98291  0.030395256  0.030946252            7 
  807000   0.96011176   -6.4419416    295.53723  0.030518095  0.030927617           11 
  808000   0.93304101   -6.4778004    295.06215  0.030431328  0.030908856            7 
  809000   0.93070174   -6.4682988     293.9781  0.030282046   0.03089005            9 
  810000   0.92845897   -6.4950712    295.00973  0.030350795  0.030871055            9 
  811000   0.93101541   -6.4685239    294.87927  0.030299966  0.030852053            5 
  812000    0.9489204    -6.479467    296.61848  0.030441141  0.030833502            7 
  813000   0.90691499   -6.4703194    296.78726  0.030420998  0.030815149            6 
  814000   0.95045296   -6.5025853    295.76702  0.030279179  0.030796525            6 
  815000   0.94686598   -6.4946392    297.05302  0.030373519   0.03077778           10 
  816000   0.94021797   -6.4997592    296.16349  0.030245454  0.030759051            7 
  817000   0.91387214   -6.4577615    296.94571   0.03028822  0.030740454            7 
  818000   0.93087614   -6.4730454    297.40167  0.030297644  0.030721856            9 
  819000   0.92423114   -6.4812409    297.75589  0.030296692  0.030703467            3 
  820000   0.91897349   -6.4880049    297.14104   0.03019726  0.030684887           16 
  821000   0.91774384   -6.4569492    298.17538  0.030265467   0.03066646            9 
  822000   0.91086969   -6.4831528    297.75189  0.030185715  0.030648113           23 
  823000   0.93873468   -6.4930978     297.5696  0.030130579   0.03062965           25 
  824000   0.90312443   -6.4825898    298.44178  0.030182219  0.030611218            6 
  825000   0.93493295   -6.4717159    297.29196  0.030029491  0.030592624           11 
  826000   0.93253796   -6.4687334    299.16349   0.03018195   0.03057428            9 
  827000    0.9243407   -6.4668809    298.78547  0.030107363  0.030555962            7 
  828000   0.92922932   -6.4613064    299.08179  0.030100824  0.030537662            5 
  829000   0.93448516   -6.4676549    298.98636  0.030054922  0.030519149            9 
  830000   0.92011981   -6.5201087    298.86448  0.030006474  0.030500681            6 
  831000   0.91214589   -6.4924847    299.87065  0.030071264  0.030482283           10 
  832000   0.94212782   -6.4802219    300.56483  0.030104651  0.030464181           11 
  833000    0.9350482   -6.4779918    300.94424  0.030106467  0.030446206            6 
  834000   0.93213235   -6.5242055    300.66338  0.030042304  0.030428318            8 
  835000   0.90393915   -6.5112713    301.08772  0.030048675  0.030410414            5 
  836000   0.90736633   -6.5238584    301.59122  0.030062921  0.030392543            7 
  837000   0.91657574   -6.4884863     301.6845  0.030036291  0.030374578            7 
  838000   0.92532324   -6.4952226     301.4021  0.029972364  0.030356697           15 
  839000   0.93898144   -6.4708673    301.96261  0.029992313  0.030338838            8 
  840000   0.92247783   -6.4785986    302.01942  0.029962244  0.030320942            5 
  841000   0.91118204   -6.4852975    302.37106  0.029961461  0.030302784           14 
  842000   0.93076169   -6.5167721    301.29454  0.029819333  0.030284738           13 
  843000   0.91242041   -6.5181235    302.02973  0.029856636  0.030266649           13 
  844000   0.91141523   -6.4848864    303.56003  0.029972357  0.030248687            4 
  845000   0.92341063    -6.471559    303.15025  0.029896475  0.030230815           10 
  846000   0.89733163   -6.4881332    303.16064  0.029862159  0.030213245            5 
  847000   0.92637094   -6.4861321    304.43515  0.029952297  0.030195907            6 
  848000   0.92348252   -6.4983545    304.24912  0.029898695  0.030178591            8 
  849000    0.9009328   -6.4714368    304.20026  0.029858683  0.030161206           13 
  850000   0.91033679   -6.5219083    305.51037  0.029951997  0.030143598           11 
  851000   0.91227401   -6.5008197    304.32816  0.029801034  0.030125826            8 
  852000   0.90227242   -6.5101121    303.99423  0.029733395  0.030108055            5 
  853000    0.9092654   -6.4988724    304.70797  0.029768266  0.030090304           12 
  854000   0.91294501   -6.5059456     304.9615  0.029758148  0.030072624           10 
  855000    0.9185712    -6.517235    304.76557  0.029704246   0.03005493           16 
  856000   0.92900018   -6.5049842    305.26893  0.029718548  0.030037339            7 
  857000   0.90511338   -6.5034396      305.342  0.029690976  0.030019574            4 
  858000   0.91636442   -6.4732671    305.68496  0.029689681  0.030001857            7 
  859000   0.93367936   -6.4906484    306.52427  0.029736541  0.029984121            7 
  860000   0.92684389   -6.5205365    305.95104  0.029646418  0.029966435            9 
  861000    0.9300381   -6.5206289    306.50429  0.029665533  0.029949009            8 
  862000   0.90213733   -6.5134702    307.21073  0.029699414  0.029931711           14 
  863000   0.91567293    -6.488216    306.84513  0.029629696  0.029914361           22 
  864000   0.91296014    -6.537647    306.63645  0.029575275  0.029896876            5 
  865000   0.93151938   -6.5283413    307.73599  0.029647013  0.029879501            7 
  866000   0.90275313   -6.5233415    307.71473  0.029610733  0.029862155           24 
  867000   0.91677457    -6.512448    308.50163  0.029652213  0.029844951           11 
  868000   0.89602678   -6.5321326    308.32979  0.029601554  0.029827788           13 
  869000   0.91761529   -6.5005761    309.11949  0.029643219   0.02981086           11 
  870000   0.90940688   -6.5148057    308.75239  0.029573984   0.02979366            9 
  871000   0.89196333   -6.5250042     309.0622  0.029569671  0.029776283            4 
  872000   0.87995106   -6.5392435    308.85289  0.029515758  0.029759104            8 
  873000   0.90466416   -6.5518471     308.6931  0.029466695  0.029741797           10 
  874000   0.89845223   -6.4966875    309.41636  0.029501941  0.029724582            8 
  875000    0.9035281   -6.4886608    309.11723  0.029439736  0.029707561           11 
  876000   0.89184589   -6.5437098    309.17683  0.029411799   0.02969023           10 
  877000    0.8962714     -6.52045    308.85218  0.029347413  0.029672922            8 
  878000   0.89136792   -6.4838731    310.52348  0.029472616  0.029655617            3 
  879000   0.90194217   -6.5051193    310.35333  0.029422955  0.029638461            7 
  880000   0.90450945   -6.5410217    310.97794  0.029448669  0.029621213           14 
  881000   0.91409814   -6.5668105     310.1682  0.029338649  0.029603914            5 
  882000   0.91856299   -6.5363026    310.28745  0.029316653  0.029586648           10 
  883000   0.90877864   -6.5276704    310.47481  0.029301133  0.029569242           11 
  884000    0.9050838   -6.5233737    310.93434  0.029311307  0.029551989           10 
  885000   0.88719423   -6.5432698    311.54284  0.029335484  0.029534828            8 
  886000   0.88191485   -6.5582051      310.988  0.029250188  0.029517486           16 
  887000   0.90595671   -6.5465886    311.38116  0.029254148  0.029500148           14 
  888000   0.89770214   -6.5343247    311.08044  0.029192984  0.029482735            4 
  889000   0.88647453   -6.5260386    311.29535  0.029180292   0.02946543            5 
  890000   0.87682698    -6.530871    312.14021  0.029226612  0.029448182            7 
  891000   0.89069982   -6.5157104    312.25322  0.029204379   0.02943092            5 
  892000   0.87046576   -6.5303173    312.45802  0.029190771  0.029413864            8 
  893000   0.90772043   -6.5586466    312.47309   0.02915949  0.029396721            8 
  894000   0.88656047   -6.5550249    313.00398  0.029176359  0.029379714            9 
  895000   0.90299592   -6.5265069    313.82476  0.029220182  0.029362574            7 
  896000   0.88317576   -6.5286194    313.73489  0.029179212    0.0293454            8 
  897000    0.9102914   -6.5130979    313.97032  0.029168554  0.029328398           11 
  898000   0.90863815   -6.5346817    313.69145  0.029110194   0.02931147            7 
  899000    0.9026429   -6.5643112    313.42935  0.029053518   0.02929434           18 
  900000   0.90893618    -6.535066    313.88305  0.029063245  0.029277013            6 
  901000   0.90710585   -6.5433562    313.52928  0.028998269  0.029259668            7 
  902000   0.88944863   -6.5517644    313.91407  0.029001669  0.029242427            9 
  903000   0.89064485   -6.5598894    314.71734  0.029043682  0.029225327            6 
  904000   0.88906492   -6.5546827    314.31954  0.028974884  0.029208067            8 
  905000   0.90400947   -6.5673702    313.52014  0.028869258  0.029190882            9 
  906000     0.881912   -6.5309278    314.97988  0.028971659  0.029173666            7 
  907000   0.88576274   -6.5384714    315.68857   0.02900483  0.029156493            8 
  908000    0.8949806   -6.5558348     315.1125  0.028920016  0.029139319           10 
  909000   0.88043076   -6.5633094    315.91682  0.028961938  0.029122079           10 
  910000   0.89382557   -6.5340464    315.73682  0.028913628  0.029104788           16 
  911000   0.89559862   -6.5603402    315.64518  0.028873507  0.029087627           13 
  912000   0.89861668   -6.5177271    315.45078  0.028824085  0.029070355            7 
  913000   0.89251803   -6.5602263    315.47194  0.028794445    0.0290532            9 
  914000   0.87123138   -6.5452785    315.71072  0.028784712  0.029035983            8 
  915000   0.89463809   -6.5499368    315.79297  0.028760744  0.029018724            8 
  916000     0.868251   -6.5469685    316.44957   0.02878908  0.029001641           15 
  917000   0.88239203   -6.5375724    316.94717  0.028802905  0.028984401            9 
  918000   0.87236174   -6.5333738    315.70661  0.028658915  0.028967179           11 
  919000   0.89123832   -6.5306137    316.71898  0.028719531   0.02895001            5 
  920000   0.85986072   -6.5264086    316.76195  0.028692206  0.028932635            5 
  921000   0.88394826   -6.5504132    316.57773  0.028644384  0.028915226            8 
  922000   0.90891578   -6.5484417    316.14991  0.028574648  0.028897738            5 
  923000   0.89283027    -6.511959     316.9669  0.028617452  0.028880394            7 
  924000      0.89515   -6.5706499    317.09651   0.02859817  0.028863108           11 
  925000   0.88432796   -6.5572768    317.17653  0.028574463  0.028845719           14 
  926000   0.88950851   -6.5460699    317.69961  0.028590678   0.02882837            8 
  927000   0.88390076   -6.5671618    318.10817  0.028596563  0.028810972           12 
  928000   0.87560581   -6.5830737    317.64457  0.028524118  0.028793524            9 
  929000   0.87266416    -6.578533    318.19026  0.028542362   0.02877593            5 
  930000   0.91781402   -6.5641599    318.91413  0.028576535  0.028758592            4 
  931000   0.88523226   -6.5802579    317.96228  0.028460641  0.028741273           15 
  932000   0.87315344   -6.5392285    318.77762  0.028503006   0.02872405            4 
  933000   0.87340913   -6.5527669    319.05529  0.028497257  0.028706868            7 
  934000   0.89354097    -6.559927    319.34808  0.028492869  0.028689779            8 
  935000   0.90224916   -6.5917666    319.51675  0.028477429  0.028672691           13 
  936000   0.89986713   -6.5848774    319.71337   0.02846451  0.028655724           45 
  937000   0.89401654   -6.5702834    319.85662  0.028446871  0.028638967            8 
  938000    0.8580684   -6.5665932    319.78149  0.028409869  0.028621997           10 
  939000   0.86963888   -6.5738203    320.61342  0.028453445  0.028605123           14 
  940000   0.86030561   -6.5685988    319.79317  0.028350458  0.028588024           19 
  941000   0.87230748   -6.5793829    321.89972  0.028506883  0.028571078           20 
  942000   0.87599236   -6.5547847    320.84633  0.028383433  0.028554204           12 
  943000   0.85594404   -6.5638208    321.38379  0.028400829  0.028537359            5 
  944000   0.87517885   -6.5682547     322.2375  0.028446107  0.028520553            8 
  945000   0.87544001   -6.5907771    320.68187  0.028278824  0.028503647           12 
  946000   0.88465932   -6.5839995     321.1927   0.02829393  0.028486801            4 
  947000   0.87166824    -6.587212    321.67861  0.028306812  0.028469973            9 
  948000   0.87714938   -6.5541151    323.16391  0.028407517  0.028453176           12 
  949000   0.85299313   -6.5944537    322.36394  0.028307336  0.028436389           11 
  950000   0.87548681   -6.5837142     322.9749  0.028331132  0.028419582           23 
  951000   0.87206614   -6.5693931     322.0623  0.028221372   0.02840268            8 
  952000   0.88037309   -6.5612646    322.53134  0.028232785  0.028385763            4 
  953000    0.8662538   -6.5464948    323.53937  0.028291305  0.028368882            6 
  954000   0.88865443   -6.6071626    322.70539  0.028188801  0.028351971           16 
  955000   0.86331371   -6.5676542    322.29571  0.028123535  0.028334928            5 
  956000   0.85518538   -6.5893703    322.97055  0.028152942  0.028317638           17 
  957000   0.85521957   -6.5250166    323.17309  0.028141161  0.028300478           10 
  958000   0.87524485   -6.5689744    322.73102  0.028073332  0.028283275           12 
  959000   0.87104786   -6.5789542    322.78546  0.028048788  0.028265944           22 
  960000   0.86881099   -6.6240228    322.58873  0.028002494  0.028248645            7 
  961000   0.87652598   -6.5972815    323.61998   0.02806278  0.028231263           15 
  962000   0.88089736   -6.5865228    322.80365  0.027962894  0.028213992           15 
  963000    0.8739242   -6.5897332    324.08915  0.028045097  0.028196587           12 
  964000   0.88636396   -6.5699136    323.26453  0.027944721  0.028179101           17 
  965000   0.85114028   -6.5722552    323.09672  0.027901271  0.028161521           31 
  966000   0.87003079   -6.6049983    323.45957   0.02790369   0.02814406           17 
  967000   0.86144738   -6.5821776    324.26522  0.027944263   0.02812674           11 
  968000   0.86007194   -6.5739209    323.78028  0.027873647  0.028109642           10 
  969000   0.86623708   -6.5733331    324.84629  0.027936558  0.028092479           11 
  970000   0.86674306   -6.5936332    324.60753  0.027887245  0.028075351            7 
  971000   0.85886964   -6.5878894    324.70184  0.027866618   0.02805811            7 
  972000   0.88836995   -6.5712086    325.38125  0.027896198  0.028040923            5 
  973000   0.86711063    -6.590596    325.29947  0.027860523  0.028023784           16 
  974000   0.87923648   -6.6107583      325.297  0.027831708  0.028006516           10 
  975000   0.87137626   -6.6181415    324.49748  0.027734827  0.027989251           12 
  976000   0.86835158   -6.5893005     324.8931   0.02774019  0.027972148           16 
  977000   0.85967969    -6.613333    326.03717   0.02780938  0.027955038            7 
  978000   0.83564898   -6.5865178    325.44335  0.027730347  0.027937862            9 
  979000   0.88076779   -6.6113416    326.31217  0.027775976  0.027920765           14 
  980000   0.86972794   -6.6121957    326.03307    0.0277239  0.027903709           13 
  981000   0.84885698   -6.5912606    326.80673   0.02776136  0.027886593            6 
  982000   0.86678954   -6.5878141     326.6812  0.027722437  0.027869574            9 
  983000   0.86169894   -6.5957826    327.29148  0.027745972  0.027852577            9 
  984000   0.87080498   -6.5938403    326.70597  0.027668189  0.027835604            9 
  985000   0.87430508   -6.5927304    326.30767  0.027606402  0.027818492            8 
  986000   0.86106069   -6.6201497    326.22433   0.02757136  0.027801275           16 
  987000   0.83359592   -6.6123863    327.07638  0.027615365  0.027784113           10 
  988000   0.87065817   -6.6172993    326.03202  0.027499327  0.027766772            6 
  989000   0.86680706    -6.578062    327.59904  0.027603559  0.027749602            8 
  990000   0.84986863   -6.6205598    326.99161  0.027524546  0.027732399            5 
  991000    0.8498614    -6.590804    327.23798  0.027517489  0.027715249            8 
  992000   0.85443366   -6.6176938    327.74267  0.027532147  0.027697921           16 
  993000   0.84721934   -6.5889777    327.55175  0.027488398  0.027680605           36 
  994000   0.87132772    -6.598686    327.32549  0.027441775  0.027663149           15 
  995000   0.87291653   -6.6052763    327.76813  0.027451267  0.027645663           17 
  996000   0.86144083   -6.6298277    327.19069  0.027375392  0.027628292           23 
  997000   0.86849769   -6.6074529    328.56105  0.027462475  0.027610952           14 
  998000   0.85811196   -6.6142851    327.89685  0.027379496   0.02759356            9 
  999000   0.85479706   -6.5898378    327.62306  0.027329251  0.027576226            9 
 1000000   0.86806302   -6.6096987    328.76555  0.027397129  0.027558882           10 
 1001000   0.84499969   -6.6422822    328.27491  0.027328914  0.027541586            8 
 1002000   0.87057816   -6.6086884    328.60316  0.027328939  0.027524271            7 
 1003000   0.85780968    -6.615068    328.17589  0.027266192  0.027506952            9 
 1004000   0.84535489   -6.6174403    328.29197   0.02724867  0.027489613            8 
 1005000    0.8302349   -6.6006907    329.61763  0.027331478  0.027472306           12 
 1006000   0.88582931   -6.6206601    329.28131  0.027276451  0.027455034           11 
 1007000   0.82993383   -6.6329827    329.69204  0.027283353  0.027437792            7 
 1008000   0.84186545   -6.6335087    330.73588  0.027342583  0.027420642            8 
 1009000   0.84965252   -6.6122051    330.06261  0.027259879  0.027403617            9 
 1010000   0.86792869   -6.6147547    329.99701  0.027227476  0.027386494           10 
 1011000   0.83375348   -6.6288265    329.17614  0.027132883  0.027369313            9 
 1012000   0.84165787   -6.6222601    330.34677  0.027202468  0.027352054           15 
 1013000   0.83104546   -6.6444438    330.72855  0.027207021  0.027334868            6 
 1014000   0.85010098   -6.6162196    330.19512  0.027136351  0.027317748           11 
 1015000   0.84035303   -6.6148276    331.53141  0.027219327  0.027300644           13 
 1016000   0.85008571   -6.6330393    331.39228  0.027181126  0.027283614            6 
 1017000   0.84287737   -6.6188491    331.26915   0.02714431   0.02726649           10 
 1018000    0.8524649   -6.6573158    330.97096  0.027093235  0.027249473           33 
 1019000   0.84143399   -6.6366475    331.29888  0.027093464  0.027232585           18 
 1020000   0.85315156   -6.6277188    332.07527  0.027130333  0.027215789            7 
 1021000   0.84420713   -6.6267555     331.7152  0.027074372  0.027198982           10 
 1022000   0.85871075   -6.6215962    331.92756  0.027065195  0.027181962            9 
 1023000   0.84598428   -6.6357326    331.88374  0.027035169    0.0271649           15 
 1024000   0.84631593   -6.6044624    332.53211  0.027061532  0.027147945            9 
 1025000   0.85692892   -6.6277641    331.63721  0.026962375  0.027131011           10 
 1026000   0.85202587   -6.6241682    331.99636  0.026965266  0.027113949            6 
 1027000    0.8573953    -6.676337    331.49735  0.026898519  0.027096889           30 
 1028000   0.85453746   -6.6327699    332.21081  0.026930189  0.027079793           27 
 1029000   0.83791501   -6.6178273    332.04807  0.026890838  0.027062937           13 
 1030000   0.84348024   -6.6305198    333.24959  0.026961941  0.027046103            8 
 1031000   0.86195871   -6.6634994    333.12536  0.026925748  0.027029292           21 
 1032000   0.83681352   -6.6539925    333.40741  0.026922433  0.027012511           38 
 1033000   0.84075089   -6.6424089    332.50744  0.026823769  0.026995788           24 
 1034000   0.84416424   -6.6563509    332.67994  0.026811729  0.026978979            9 
 1035000   0.83411496    -6.663935    333.50953  0.026852619  0.026962072           11 
 1036000   0.83906978   -6.5936011    333.44828  0.026821773  0.026945142            7 
 1037000   0.83957236   -6.6610689    333.62337  0.026809978    0.0269281           14 
 1038000   0.82954144    -6.646052    333.55254  0.026778464  0.026911093           16 
 1039000   0.84612877   -6.6682114    333.79133  0.026771842  0.026894036           15 
 1040000   0.82892353   -6.6688463    334.54855  0.026806775  0.026876902           18 
 1041000   0.83557087    -6.657842    333.57749   0.02670329  0.026859896           16 
 1042000   0.85195166    -6.628762    334.12217  0.026721223   0.02684297            6 
 1043000   0.83032862   -6.6337028    334.01834  0.026687307  0.026826074            7 
 1044000   0.83526443   -6.6454784    333.72607  0.026638415  0.026809097           26 
 1045000    0.8658832   -6.6864342    334.25798  0.026655341  0.026792018           14 
 1046000   0.83427862   -6.6296747     334.3378  0.026636218  0.026775103            7 
 1047000    0.8298646   -6.6446291    334.56181  0.026628606   0.02675828           12 
 1048000   0.83934282   -6.6802275     335.2422    0.0266573  0.026741301            9 
 1049000   0.84351569   -6.6741962    334.78647  0.026595684  0.026724282            6 
 1050000   0.83374034   -6.6846036     334.8513    0.0265755  0.026707139           21 
 1051000    0.8493351   -6.6844956    335.03555  0.026564823  0.026689949           11 
 1052000   0.83231258   -6.6359419     334.5322  0.026499699  0.026672756            9 
 1053000   0.83284061   -6.6409363    335.40724  0.026543783  0.026655605           13 
 1054000    0.8253409   -6.6336239    334.55368  0.026451113  0.026638448            6 
 1055000   0.84795683   -6.6605321    335.71537  0.026517802  0.026621337           12 
 1056000   0.82490529   -6.6463198    334.67128  0.026410297  0.026604218           13 
 1057000   0.83638134   -6.6625574    335.93258  0.026484751  0.026587152           10 
 1058000   0.82211874   -6.6546911    335.65298  0.026437696  0.026570071           22 
 1059000   0.82406975   -6.6360772    335.43619  0.026395671  0.026553122           29 
 1060000   0.82611812   -6.6563822    335.81632  0.026400654  0.026536141           15 
 1061000   0.81232615   -6.6752788    335.85697  0.026378964   0.02651917           11 
 1062000   0.83610749   -6.6784197    336.42924   0.02639903  0.026502025           19 
 1063000   0.83394763   -6.6916908    336.40003  0.026371906  0.026484963           29 
 1064000   0.82614626   -6.6701553    336.33658  0.026342151  0.026468003           40 
 1065000   0.83093767   -6.6782226    336.41851  0.026323827  0.026450999           39 
 1066000   0.83297791    -6.706651    336.38445   0.02629647  0.026434055           25 
 1067000   0.82278418   -6.6720765     337.1091  0.026328421  0.026417003           24 
 1068000   0.83139258    -6.656344    337.64245  0.026345385  0.026400056           14 
 1069000   0.83758937   -6.6657482    336.91541  0.026264064  0.026383267           15 
 1070000   0.81103571   -6.6817669    337.14567  0.026257451  0.026366481           41 
 1071000   0.81591739    -6.681758    337.92255  0.026293382  0.026349567           10 
 1072000   0.83852901   -6.6508562    338.05395   0.02627907  0.026332798           12 
 1073000   0.81868931   -6.6805988    337.78392  0.026233606  0.026316083           22 
 1074000   0.84036723   -6.6955173    337.80337   0.02621069  0.026299378            7 
 1075000   0.82909934   -6.6490748    337.35392  0.026151467  0.026282628           16 
 1076000   0.80288952   -6.6823855    337.86583  0.026166808  0.026265978            7 
 1077000   0.79816529   -6.6589758     338.2012  0.026168462  0.026249326           15 
 1078000   0.82727105   -6.6735255     338.6809  0.026181269  0.026232619           10 
 1079000   0.84737117   -6.6797979    338.95628  0.026178273  0.026216004           23 
 1080000   0.82605679   -6.7034136    338.71068  0.026135083  0.026199377           12 
 1081000   0.81593725   -6.6668768    339.04119  0.026136385   0.02618268           12 
 1082000   0.81602813   -6.6756157    339.66076  0.026159948  0.026166086           34 
 1083000   0.80313066   -6.6927175    339.36569  0.026113088  0.026149631           10 
 1084000   0.81698687   -6.6891842    339.51096  0.026100166  0.026133093           12 
 1085000   0.83541622   -6.6738205     340.2257  0.026131006  0.026116608           14 
 1086000   0.83304615   -6.6774589    340.22242  0.026106693  0.026100242           12 
 1087000   0.81692881   -6.6871526     339.4084   0.02602027  0.026083653           12 
 1088000   0.82176771   -6.6954765    339.14861  0.025976456  0.026067032           20 
 1089000   0.82018805   -6.6513911    340.34606  0.026044235  0.026050427            9 
 1090000    0.8094394   -6.6968962     339.4323  0.025950482  0.026033889            6 
 1091000   0.81743504   -6.7118176    341.12884  0.026056282  0.026017371           11 
 1092000   0.83230919   -6.7100474    340.29238  0.025968589  0.026000889           14 
 1093000   0.83062553   -6.6809373    340.74907  0.025979648  0.025984354           18 
 1094000   0.81741765   -6.6784774    340.14909  0.025910199  0.025967954           15 
 1095000   0.80974809   -6.6797765     340.7176  0.025929802  0.025951577           15 
 1096000   0.82706385   -6.7197412    340.83757  0.025915265  0.025935081            8 
 1097000   0.82836088   -6.7002888    340.75942  0.025885705  0.025918649            7 
 1098000    0.8148365   -6.7073402    340.77823  0.025863557  0.025902233            7 
 1099000   0.79983473   -6.6887176     340.9354  0.025851941  0.025885769           10 
 1100000   0.82297904   -6.7067106     341.0547  0.025837477  0.025869275           11 
 1101000    0.8210498    -6.663856    341.94481  0.025881381  0.025852939           19 
 1102000   0.80662882   -6.6847274    341.12492  0.025795895  0.025836454            9 
 1103000   0.83020742   -6.6951363    341.11256  0.025771574  0.025819968           14 
 1104000   0.81722169   -6.7048468    341.72751  0.025794649  0.025803414           14 
 1105000   0.82343126   -6.7141327    340.83796   0.02570422  0.025786781           12 
 1106000   0.81751585    -6.711211    340.90814  0.025686267  0.025770023           15 
 1107000   0.82100097   -6.7048998    341.91331  0.025738732  0.025753297           42 
 1108000   0.82038261   -6.7111419    341.08348  0.025653089  0.025736711           12 
 1109000   0.79041602   -6.7180245    341.59588  0.025668461  0.025720076           27 
 1110000    0.8299677   -6.6624334    342.02363   0.02567745  0.025703575           10 
 1111000    0.8127246   -6.6973127    342.20378   0.02566785  0.025687072           13 
 1112000   0.82974356   -6.7052753    342.70769  0.025682531  0.025670503           33 
 1113000   0.80537595   -6.7303948    341.64205  0.025579668  0.025653919            8 
 1114000   0.80552975    -6.689196    341.39347  0.025538111  0.025637256           11 
 1115000   0.81444773    -6.714511    342.23279  0.025577936  0.025620598           14 
 1116000   0.81883076   -6.7169769    342.62845  0.025584562   0.02560393           12 
 1117000   0.83126652   -6.6898328    342.11382  0.025523263  0.025587134           13 
 1118000   0.79280531   -6.6857953     342.5057  0.025529644  0.025570545           26 
 1119000   0.80612015   -6.7111009    341.31114  0.025417869  0.025553908            8 
 1120000   0.81527912   -6.6971463    341.88063  0.025437547  0.025537179           19 
 1121000   0.81998193   -6.7346944    342.37003  0.025451237  0.025520433            9 
 1122000   0.79124869   -6.7273231    342.43671  0.025433505  0.025503693           17 
 1123000   0.82143808   -6.7135487    343.11606  0.025461269  0.025486983           17 
 1124000     0.799747   -6.6786398    342.82434  0.025416988  0.025470373           12 
 1125000   0.79984709    -6.732696    343.51395  0.025445478  0.025453822            7 
 1126000    0.7973233   -6.7002123    343.25423  0.025403658  0.025437197            9 
 1127000   0.80149484   -6.7207092    343.21189  0.025377987   0.02542056           12 
 1128000   0.80002475   -6.7131864     343.3331  0.025364443  0.025403866           18 
 1129000   0.81226229   -6.7173651    343.92347  0.025385553  0.025387141           12 
 1130000   0.80719158   -6.7065654    343.18771  0.025308828  0.025370516           12 
 1131000   0.80276904   -6.7335673    342.74792  0.025254047  0.025353845            6 
 1132000   0.80125181   -6.6777938    343.37218  0.025277693  0.025337218            6 
 1133000   0.78688968    -6.737658    344.00768  0.025302124  0.025320682            7 
 1134000   0.81147716   -6.7234405    343.58065  0.025248431  0.025304004           13 
 1135000   0.80353735   -6.7243138     344.4273  0.025288348  0.025287482           17 
 1136000   0.81013177    -6.723845     343.5504   0.02520176  0.025271035           11 
 1137000   0.82652848   -6.6572521    344.53056  0.025251434  0.025254655            6 
 1138000   0.80496577   -6.7275465    344.14389   0.02520093  0.025238265           10 
 1139000   0.80266928   -6.7410925    344.42512   0.02519938  0.025221835            8 
 1140000   0.80015559   -6.7271705     343.9421  0.025141966  0.025205355           11 
 1141000   0.80339448   -6.7536536    345.04251    0.0252003  0.025188898           11 
 1142000   0.79415635    -6.717784    345.47322  0.025209663  0.025172428           22 
 1143000   0.78520857   -6.7238922    345.09897  0.025160321  0.025156112           24 
 1144000   0.76747633    -6.748575    345.07333  0.025136461  0.025139638           27 
 1145000   0.79197405   -6.7684986    344.46941  0.025070554   0.02512312           12 
 1146000   0.80931054   -6.7316909    344.43833  0.025046417  0.025106565           14 
 1147000   0.81645719   -6.7631556    344.88209  0.025056821  0.025090038           22 
 1148000   0.80029688   -6.7551934    344.78871  0.025028217  0.025073465           26 
 1149000   0.80482258   -6.7364943    344.47284  0.024983525     0.025057           13 
 1150000   0.78695703   -6.7389711    345.56848  0.025041194  0.025040471           15 
 1151000   0.80794672   -6.7310527    344.56097  0.024946494  0.025023931           10 
 1152000   0.79291106   -6.7236172    344.75776  0.024939074  0.025007308            6 
 1153000   0.80106644   -6.7486122    344.69375  0.024912818  0.024990676           18 
 1154000   0.79750229   -6.7347861    345.21967  0.024929208  0.024974043           20 
 1155000   0.78909596   -6.7515474    345.23419  0.024908672  0.024957423           17 
 1156000   0.79234313   -6.7497221    345.19588  0.024884363  0.024940735           14 
 1157000   0.79722809    -6.733875    345.33637  0.024872974   0.02492407           37 
 1158000   0.79049034   -6.7620211     345.7496  0.024881232  0.024907426           42 
 1159000   0.77617773     -6.76332    345.80049  0.024863423  0.024890716           23 
 1160000    0.7892302   -6.7536081    344.92228    0.0247789  0.024874013           28 
 1161000   0.78610044   -6.7346206    345.52562  0.024800863  0.024857411           17 
 1162000   0.80334787   -6.7519929    346.36203  0.024839503  0.024840876           18 
 1163000   0.79875447   -6.7547882    345.86735  0.024782699  0.024824361           25 
 1164000   0.77700899   -6.7712774    345.61794  0.024743552  0.024807747           40 
 1165000   0.78389008   -6.7325767    346.16088   0.02476115  0.024791078           15 
 1166000   0.79364757   -6.7477379    345.91001  0.024721985  0.024774493           20 
 1167000   0.79155629   -6.7630059    346.30664  0.024729123  0.024757877           29 
 1168000   0.77708753   -6.7664835    346.39663  0.024714372  0.024741318           12 
 1169000   0.79847867   -6.7582327    346.98446  0.024735134  0.024724748           16 
 1170000   0.79604847   -6.7438483    346.77922  0.024699374  0.024708241           38 
 1171000   0.78833267   -6.7367218    347.04071  0.024696891  0.024691858           22 
 1172000    0.8009819    -6.777444    347.50918  0.024709128  0.024675515           34 
 1173000   0.79024479   -6.7557544    347.87734  0.024714218  0.024659158           22 
 1174000   0.78452008   -6.7311674    347.08345  0.024636815  0.024642732           22 
 1175000   0.78231987   -6.7439344    347.93978   0.02467658  0.024626582           14 
 1176000   0.78027876   -6.6932108    349.61477   0.02477429  0.024610466           13 
 1177000   0.79599855    -6.738129     348.9442  0.024705763  0.024594326           12 
 1178000   0.79309556   -6.7488825    347.45314  0.024579311  0.024578157           25 
 1179000   0.78270028   -6.7315738    348.56934  0.024637358  0.024561912           16 
 1180000   0.78424077   -6.7612622    348.00637  0.024576721  0.024545657           33 
 1181000   0.79777832   -6.7583525    348.61223  0.024598661  0.024529476           47 
 1182000   0.78397311   -6.7704792    348.23517  0.024551267  0.024513357           45 
 1183000    0.7895879   -6.7718023    349.14316  0.024594474  0.024497207           21 
 1184000   0.78321124   -6.7700428    347.89689  0.024485986  0.024481103           19 
 1185000    0.7708207   -6.7689686    348.01707  0.024473774  0.024464915           32 
 1186000   0.77296784   -6.7649531    349.06204  0.024526563  0.024448739           26 
 1187000   0.78945737   -6.7812869    349.19316  0.024515105  0.024432522           29 
 1188000   0.77737152   -6.7476578    348.61247  0.024453737  0.024416219           12 
 1189000   0.77866037   -6.7350045    348.43972  0.024421062   0.02439998           19 
 1190000   0.77243471   -6.7476146    349.00094  0.024439842  0.024383843           20 
 1191000   0.76244807   -6.7521949    348.72146  0.024399766  0.024367688           17 
 1192000   0.77256225   -6.7788195    348.87995  0.024390377   0.02435143           14 
 1193000   0.77215829    -6.762964    349.11351  0.024386247  0.024335258           14 
 1194000   0.77686583   -6.7761118    348.38259  0.024314809  0.024318998           15 
 1195000    0.7780888   -6.7602717    349.64886  0.024382766   0.02430272           10 
 1196000    0.7655101   -6.7695046    348.99658   0.02431693  0.024286423            8 
 1197000   0.77278984   -6.7641868    349.05089  0.024300396  0.024270115           20 
 1198000   0.76879615   -6.7984365    349.46839  0.024309154  0.024253756           31 
 1199000   0.79009623   -6.7670484    349.24365  0.024273259  0.024237437           16 
 1200000   0.77751104   -6.7859628    348.63106   0.02421049  0.024221121           17 
 1201000    0.7805583   -6.7878044    349.57533  0.024255852  0.024204848           13 
 1202000   0.75874346   -6.7816127    349.38218  0.024222281  0.024188521           16 
 1203000   0.75785516   -6.7818705    348.97529   0.02417396  0.024172174           21 
 1204000   0.78738621   -6.7876896    348.90121  0.024148755  0.024155747           15 
 1205000    0.7815567   -6.8087901    348.90065  0.024128675  0.024139353           22 
 1206000   0.75453335     -6.79865    348.60489  0.024088232  0.024122871           36 
 1207000   0.76414938   -6.7922424    349.73809  0.024146513  0.024106465           32 
 1208000   0.75736298    -6.781684    349.35023  0.024099768   0.02409005           23 
 1209000   0.78181853   -6.7732062    350.27854   0.02414382  0.024073711           28 
 1210000   0.76123907   -6.7655121    349.18924  0.024048846  0.024057372           38 
 1211000   0.77061732   -6.7748889      350.185  0.024097509  0.024040993           31 
 1212000   0.77003982   -6.7955853     349.5804  0.024036056  0.024024709           27 
 1213000   0.76591047   -6.7950448    349.76935  0.024029222  0.024008427           17 
 1214000   0.76338186   -6.7701076    349.56474  0.023995383  0.023992146           20 
 1215000   0.76999546    -6.781386    349.86668  0.023996343  0.023975866           24 
 1216000    0.7691545   -6.7926078    349.46294  0.023948941  0.023959454           22 
 1217000   0.77463804   -6.7831458    349.28928  0.023917371  0.023943029           46 
 1218000   0.76019742   -6.7856575    349.75835  0.023929827  0.023926605           43 
 1219000   0.77474732   -6.7897228    349.93453   0.02392224  0.023910267           52 
 1220000   0.75931723    -6.794017    349.47748  0.023871413  0.023893858           58 
 1221000   0.78060702   -6.7949392     349.1099  0.023826775  0.023877483           47 
 1222000   0.76607292   -6.7877328    349.84498  0.023857404  0.023861034           38 
 1223000   0.77195081   -6.7974065    349.86932  0.023839556  0.023844622           59 
 1224000   0.75909116   -6.8117288    349.70608  0.023808965  0.023828202           37 
 1225000     0.766052   -6.7947375    350.66831  0.023854987  0.023811811           22 
 1226000   0.77821128   -6.7718024    350.53369  0.023826379   0.02379547           60 
 1227000   0.75955315   -6.8102552     350.0855  0.023776521  0.023779124           18 
 1228000   0.75959186   -6.7849807    349.84327  0.023740721  0.023762739           23 
 1229000    0.7618211   -6.7881662    350.42776  0.023761036  0.023746449           32 
 1230000    0.7666067   -6.8103851    350.59071  0.023752758  0.023730252           14 
 1231000   0.75763536   -6.8270816    351.07093  0.023765971  0.023714002           18 
 1232000   0.76133019   -6.7953292    350.97577  0.023740244  0.023697679           38 
 1233000   0.76712362   -6.7960361     350.8223  0.023710617  0.023681421           16 
 1234000   0.77421466   -6.8168911    351.29479  0.023723311  0.023665145           32 
 1235000   0.77618449    -6.804913    350.76361   0.02366826  0.023648855           52 
 1236000   0.75155746    -6.814755    351.52594  0.023700508  0.023632592           54 
 1237000   0.76096856    -6.797781    351.13815  0.023655225  0.023616351           21 
 1238000   0.75792073   -6.8124464    351.26706  0.023644794  0.023600199           13 
 1239000   0.74365703   -6.8197852    351.15391    0.0236181   0.02358409           19 
 1240000   0.75847723   -6.7892267    351.12427  0.023597061  0.023567986           15 
 1241000   0.76502671   -6.8150975    351.92215  0.023631625   0.02355191           22 
 1242000   0.76677131   -6.8196518    351.57785  0.023589496  0.023535776           13 
 1243000   0.75070935   -6.8190703    352.15587   0.02360927  0.023519664           13 
 1244000   0.75957577   -6.8099333    352.63925  0.023622672  0.023503539           17 
 1245000   0.77989189   -6.7973609    352.29118    0.0235804  0.023487406           11 
 1246000   0.76872216   -6.8157605    351.91263  0.023536158  0.023471279           46 
 1247000   0.75116679   -6.7990617    351.62584  0.023498118  0.023455137           30 
 1248000   0.75320975   -6.8418956    352.16858   0.02351553  0.023439068           40 
 1249000   0.73872611   -6.8117665    352.17362  0.023497039  0.023422855           34 
 1250000   0.75756001   -6.8034616    352.30441  0.023486961  0.023406646           22 
 1251000   0.75609631   -6.8310215    351.65897  0.023425191  0.023390454           30 
 1252000   0.73057667   -6.8106432    352.46088  0.023459856  0.023374296           34 
 1253000   0.74241795   -6.8104977    352.27133  0.023428527  0.023358122           36 
 1254000   0.73845789   -6.8218378    352.77808  0.023443519  0.023341964           19 
 1255000   0.74651799   -6.8178027    352.32384  0.023394677  0.023325884           36 
 1256000   0.75483529   -6.8239516    352.81572  0.023408686  0.023309773           40 
 1257000   0.76330618   -6.8249327    352.93027  0.023397658  0.023293689           37 
 1258000   0.75658527   -6.8368219    352.13175  0.023326162  0.023277583           47 
 1259000   0.75599444   -6.8227088    352.55979  0.023335967  0.023261583           34 
 1260000   0.76330611   -6.8190411    352.36148  0.023304331  0.023245496           38 
 1261000   0.75547101       -6.814      352.856  0.023318531  0.023229524           34 
 1262000   0.76020655   -6.8388785     351.8666   0.02323472    0.0232134           57 
 1263000    0.7435769   -6.8591626    352.28077  0.023243651  0.023197212           26 
 1264000   0.73502543   -6.8424457    352.59441  0.023245939  0.023181042           37 
 1265000   0.75076495   -6.8250772    353.11047   0.02326156  0.023164921           16 
 1266000   0.74203775   -6.8336292    352.92658  0.023231081    0.0231488           15 
 1267000   0.73753409   -6.8351731    352.42534  0.023179778  0.023132642           18 
 1268000   0.73318785   -6.8262943     352.9454  0.023195676  0.023116526           15 
 1269000   0.75290284   -6.8383598    353.51695   0.02321493  0.023100478           16 
 1270000   0.73586212   -6.8240088    354.05596  0.023232019  0.023084523           30 
 1271000   0.73385471   -6.8277632    353.09268  0.023150582  0.023068517           33 
 1272000   0.74157321   -6.8428299    353.58667  0.023164745  0.023052487           29 
 1273000   0.73369121   -6.8319551    353.39265  0.023133847  0.023036372           39 
 1274000   0.75224421   -6.8405886    352.74048   0.02307303  0.023020195           79 
 1275000   0.74607313   -6.8333325    353.17924  0.023083611  0.023004036           40 
 1276000   0.75617242   -6.8265032    353.82911  0.023107961  0.022987927           26 
 1277000   0.74422213   -6.8432016    353.29432  0.023054967  0.022971838           32 
 1278000   0.73071986   -6.8573457    353.13754  0.023026705  0.022955619           45 
 1279000   0.74905205   -6.8198833    354.30059   0.02308448  0.022939495           31 
 1280000   0.75487737   -6.8331655    353.12993   0.02299023  0.022923386           52 
 1281000   0.74306774   -6.8409647     352.9711   0.02296195  0.022907242           28 
 1282000   0.73354383   -6.8387258    353.11609  0.022953464  0.022891035           36 
 1283000   0.72671849   -6.8577391     353.0989  0.022934457  0.022874812           53 
 1284000   0.73254745   -6.8376951    353.24963  0.022926378  0.022858559           25 
 1285000   0.74868751   -6.8397312    352.70434  0.022873174  0.022842439           47 
 1286000   0.73379632   -6.8377026    353.06013  0.022878443  0.022826309           23 
 1287000   0.74832904   -6.8483853    353.98715  0.022920691  0.022810215           28 
 1288000   0.73795538   -6.8499332    353.95627  0.022900897  0.022794197           23 
 1289000   0.73404133   -6.8674995    354.13309  0.022894562  0.022778122           33 
 1290000   0.75393791   -6.8709983    353.57396  0.022840695  0.022762099           28 
 1291000   0.71778521   -6.8641912    353.06098   0.02278989  0.022746061           33 
 1292000   0.73945828   -6.8465275    355.20069  0.022910261  0.022730093           44 
 1293000   0.73312348   -6.8514964    354.03265  0.022817263  0.022714122           63 
 1294000   0.74557767   -6.8404716    354.31283  0.022817673  0.022698206           94 
 1295000   0.74182786   -6.8507655    353.88585  0.022772577  0.022682337          108 
 1296000   0.72489437   -6.8568103    355.07944  0.022831754  0.022666387          138 
 1297000   0.72953505    -6.870278     354.5875  0.022782543  0.022650504          126 
 1298000   0.73907433   -6.8724574    354.89672  0.022784843  0.022634696          130 
 1299000   0.72921837   -6.8378382    354.63008  0.022750198  0.022618903          138 
 1300000   0.72524374   -6.8623611    354.58284  0.022729669   0.02260304          223 
 1301000   0.72861348   -6.8597494    354.66175  0.022717253  0.022587213          105 
 1302000   0.73529631   -6.8515713    354.75158  0.022705554  0.022571429           90 
 1303000   0.73929069   -6.8527545    355.63437  0.022744588  0.022555779           94 
 1304000    0.7325995   -6.8655125    354.78652  0.022672963  0.022540123          191 
 1305000   0.73277513   -6.8686529    355.67758  0.022712489  0.022524464          195 
 1306000   0.73551123   -6.8787752    355.09975  0.022658228  0.022508744          194 
 1307000   0.74112226   -6.8591897    355.86669  0.022689792  0.022493051          106 
 1308000    0.7406409   -6.8635652    355.62409  0.022656988  0.022477415          103 
 1309000   0.73355504     -6.88304     355.4923   0.02263129  0.022461717          191 
 1310000   0.73472437   -6.8850515    354.85786  0.022573655  0.022446046          156 
 1311000   0.72879237   -6.8717963    355.88189  0.022621529  0.022430374          215 
 1312000   0.73151543   -6.8652111     355.2008  0.022561027  0.022414704          244 
 1313000   0.73132665   -6.9050239    355.37879   0.02255514  0.022399034          234 
 1314000   0.74580818   -6.8790319    356.33137  0.022598387  0.022383339          281 
 1315000   0.73041607   -6.8710214     355.6262  0.022536514  0.022367662          248 
 1316000   0.73501409   -6.8849666    356.06177  0.022546971  0.022352072          255 
 1317000   0.74057887    -6.875074    355.97285  0.022524225   0.02233649          313 
 1318000   0.73137964   -6.8938131    355.15228  0.022455253    0.0223208          375 
 1319000    0.7281765   -6.8586113    356.07612  0.022496596  0.022305112          293 
 1320000   0.73388004   -6.9076753    355.55565  0.022446695  0.022289441          318 
 1321000   0.72440123   -6.9065968    355.37398  0.022418242  0.022273758          393 
 1322000   0.73415642   -6.8856773    355.20954  0.022390919  0.022258111          350 
 1323000   0.72688597    -6.920548    355.39301  0.022385551  0.022242458          365 
 1324000   0.73719961   -6.9062423    355.80382    0.0223945  0.022226817          501 
 1325000   0.71942288   -6.9133863    355.88745  0.022382859  0.022211181          510 
 1326000   0.72189479   -6.9210403    356.53221  0.022406499  0.022195479          533 
 1327000   0.72903329   -6.9084375    356.04875  0.022359253  0.022179783          447 
 1328000   0.73011698    -6.911257    355.34856  0.022298479  0.022164103          442 
 1329000   0.71524034   -6.9238426    356.00605  0.022322927  0.022148403          663 
 1330000   0.72180964   -6.9297734    355.86663  0.022297408  0.022132663          627 
 1331000   0.72241196   -6.9229329    355.82722  0.022278188  0.022116925          611 
 1332000    0.7193217   -6.9494323    356.24071  0.022287332  0.022101169          715 
 1333000     0.720417    -6.922931    356.27737  0.022272904  0.022085346          724 
 1334000   0.73105149   -6.9117285    355.99221  0.022238394  0.022069604          669 
 1335000   0.72470439   -6.9434647    356.18307   0.02223365  0.022053845          672 
 1336000   0.73775147   -6.9529038    356.26239  0.022221956  0.022038069          785 
 1337000   0.72875983   -6.9449914    355.68849  0.022169564  0.022022278          854 
 1338000   0.73287514   -6.9523039    355.38743  0.022134244   0.02200648          831 
 1339000   0.73156406   -6.9802602    355.23116  0.022107989  0.021990621          844 
 1340000   0.72473986    -6.974438    356.26569  0.022155826  0.021974712         1152 
 1341000   0.71453492   -7.0005549    355.43814  0.022087878  0.021958787         1175 
 1342000   0.71618542   -6.9793364    354.91166  0.022038727  0.021942783         1242 
 1343000   0.71561347    -7.009783    354.24221  0.021980778  0.021926719         1451 
 1344000   0.70914201   -7.0093291    353.93454  0.021945346  0.021910587         1404 
 1345000    0.7035325   -7.0089387    354.61662   0.02197129  0.021894438         1534 
 1346000   0.70676812   -7.0243208    354.16373  0.021926927  0.021878236         1621 
 1347000   0.72503423   -7.0298722    353.53333  0.021871649  0.021861963         1749 
 1348000   0.71220588   -7.0211154    353.71915  0.021866911   0.02184565         1752 
 1349000   0.70781358   -7.0418611    354.21276  0.021881194  0.021829338         1826 
 1350000   0.70798202   -7.0480596    353.56157  0.021824788  0.021812974         1801 
 1351000    0.7242834   -7.0692133    353.75446  0.021820532  0.021796571         1917 
 1352000   0.71232083    -7.088117    353.26435  0.021774183  0.021780051         2077 
 1353000   0.72318153    -7.088446    352.40376  0.021705085  0.021763489         1990 
 1354000   0.72685116   -7.0708451    353.38556  0.021749481  0.021746961         2068 
 1355000   0.71299146   -7.0884982    352.67348  0.021689636  0.021730456         2109 
 1356000   0.70897602   -7.0911953    353.19288   0.02170556  0.021713911         2145 
 1357000   0.71206385   -7.0925601     352.6011  0.021653224    0.0216973         2280 
 1358000   0.71142639   -7.1155083    352.45376  0.021628237  0.021680666         2423 
 1359000   0.70967497   -7.1095274    352.49373  0.021614774  0.021663978         2432 
 1360000    0.7074355   -7.1605079    352.20739  0.021581335  0.021647197         2555 
 1361000   0.69776371   -7.1402972    351.72162  0.021535735  0.021630397         2657 
 1362000   0.71721441   -7.1434435    351.64105  0.021514993  0.021613539         2649 
 1363000   0.69955899    -7.160027    351.29458  0.021478025  0.021596622         2853 
 1364000   0.70918503   -7.1945948    350.98907  0.021443614  0.021579652         2899 
 1365000   0.71507946   -7.2037314    350.38076  0.021390767   0.02156263         2992 
 1366000    0.7014477   -7.1886798      350.895  0.021406479   0.02154554         3160 
 1367000   0.70538598   -7.2020207    350.67622  0.021377483  0.021528455         3115 
 1368000   0.71118066   -7.2203235     350.5431  0.021353746  0.021511317         3173 
 1369000    0.7144567   -7.2331971    350.35059   0.02132643  0.021494131         3183 
 1370000    0.7160262   -7.2327382    349.95709  0.021286927  0.021476927         3304 
 1371000   0.71376907   -7.2447103    349.08809  0.021218581  0.021459679         3338 
 1372000   0.71274478   -7.2590877    349.60967  0.021234795  0.021442387         3453 
 1373000   0.71052721   -7.2731089    349.88155  0.021235831   0.02142504         3409 
 1374000    0.6886218   -7.2932487    348.92052  0.021162088  0.021407601         3537 
 1375000   0.70263268   -7.2845948    350.79154  0.021260093  0.021390159         3552 
 1376000   0.69103796   -7.3051247    349.10492  0.021142498  0.021372708         3595 
 1377000   0.71780872   -7.3227671    349.09678  0.021126651  0.021355213         3575 
 1378000   0.72690417   -7.3174824    349.73897  0.021150155  0.021337723         3622 
 1379000    0.7065335   -7.3480227     349.2029  0.021102423  0.021320193         3651 
 1380000   0.70833992   -7.3297913    348.64721  0.021053575   0.02130264         3694 
 1381000   0.70637635   -7.3158415     348.7776  0.021046198  0.021285051         3676 
 1382000   0.71304859   -7.3293591    348.48302  0.021013207  0.021267451         3729 
 1383000   0.71618452   -7.3411037    348.49555  0.020998768  0.021249832         3688 
 1384000   0.70325414   -7.3381538    348.12868  0.020961506  0.021232228         3702 
 1385000   0.71037864   -7.3283927    348.61887  0.020975865  0.021214623         3703 
 1386000   0.70004454   -7.3306081    348.51236  0.020954327  0.021197065         3693 
 1387000   0.70439935   -7.3688832    348.26099  0.020924116  0.021179453         3685 
 1388000   0.69361316   -7.3585237    348.04646  0.020896161  0.021161864         3690 
 1389000   0.70341726   -7.3338633    348.63834  0.020916627   0.02114427         3730 
 1390000   0.70170271   -7.3509218    348.52557  0.020894818  0.021126663         3713 
 1391000   0.68609552   -7.3337012    348.30753  0.020866734  0.021109072         3720 
 1392000   0.69024756   -7.3732038    348.06805  0.020837407  0.021091517         3748 
 1393000   0.71025232   -7.3649931    348.54257  0.020850836  0.021073942         3706 
 1394000   0.69715925   -7.3586378    348.64628  0.020842078  0.021056356         3754 
 1395000   0.70592256   -7.3741397    347.27124  0.020744996  0.021038772         3738 
 1396000    0.6910308    -7.354043    347.97263  0.020772005  0.021021179         3715 
 1397000   0.69452211   -7.3489893    348.17544  0.020769234  0.021003613         3720 
 1398000   0.67519529   -7.3434601     348.3314  0.020763674  0.020986039         3708 
 1399000   0.70062524   -7.3639479     348.3512  0.020750012  0.020968475         3726 
 1400000   0.69633842   -7.3791961    347.35171  0.020675697  0.020950896         3726 
 1401000   0.69905617   -7.3499501     347.8953  0.020693273  0.020933317         3730 
 1402000   0.69842805   -7.3584646    348.02291  0.020686098  0.020915734         3743 
 1403000   0.69007515    -7.385742    347.49158  0.020639794  0.020898169         3772 
 1404000   0.69470573   -7.3803576    348.48249  0.020683909   0.02088058         3775 
 1405000   0.69440673    -7.362489    348.52588   0.02067176  0.020863019         3779 
 1406000   0.70574833   -7.3903771    346.86346  0.020558526  0.020845408         3769 
 1407000   0.68354776   -7.3785398    348.13351  0.020619137  0.020827811         3733 
 1408000   0.69943516   -7.3841486    347.59495  0.020572618   0.02081022         3763 
 1409000   0.69436435   -7.3915421    347.06524  0.020526688  0.020792639         3805 
 1410000   0.69419741   -7.4095926    347.85048  0.020558539  0.020775043         3810 
 1411000   0.68513767   -7.3837928    347.50002  0.020523271  0.020757431         3765 
 1412000   0.69228355   -7.3821899    347.10732  0.020485559   0.02073983         3778 
 1413000   0.69057879   -7.4144755    348.03381  0.020525702   0.02072225         3776 
 1414000   0.69438891   -7.4005201    347.48546   0.02047887    0.0207047         3785 
 1415000   0.68970086   -7.4147431    347.12638   0.02044325  0.020687145         3786 
 1416000   0.66946543   -7.4014127     348.2757  0.020496451  0.020669587         3774 
 1417000   0.67884154   -7.3863133    347.30454  0.020424873  0.020652023         3786 
 1418000   0.69153427   -7.4058396    347.26656  0.020408237  0.020634491         3799 
 1419000    0.6992188   -7.4107062    347.71675  0.020420293  0.020616955         3765 
 1420000   0.69081696   -7.4035347     346.4958   0.02033426  0.020599424         3753 
 1421000   0.68282841   -7.3983667    347.61537  0.020385607  0.020581884         3770 
 1422000   0.67777426   -7.4020574    346.85957  0.020326979  0.020564374         3796 
 1423000   0.68202231    -7.423796     346.9592  0.020318529  0.020546871         3794 
 1424000   0.68707886    -7.415503    347.53322  0.020337852  0.020529354         3790 
 1425000   0.67582878   -7.3915086    347.30441  0.020310199  0.020511892         3781 
 1426000   0.68753013   -7.4445974    347.14302  0.020286525  0.020494421         3809 
 1427000   0.69226965   -7.4017395     347.4105  0.020287929  0.020476937         3808 
 1428000   0.67591163   -7.4144862    346.86685  0.020241996  0.020459471         3762 
 1429000   0.68853577    -7.425772     347.2344  0.020249265  0.020442013         3803 
 1430000   0.68258843   -7.4296758    347.43616  0.020246863  0.020424577         3785 
 1431000    0.6836999   -7.4077813    347.37654  0.020229242  0.020407124         3771 
 1432000   0.67529671   -7.4272305    346.69502  0.020175455  0.020389687         3759 
 1433000   0.68745132   -7.4235297    346.65627  0.020159123  0.020372262         3804 
 1434000   0.68164888   -7.4057595    346.45636  0.020133447  0.020354841         3801 
 1435000   0.68755597   -7.4099212    346.73934   0.02013585  0.020337417         3804 
 1436000   0.68094493   -7.3974352    347.41328  0.020160938  0.020320005         3807 
 1437000    0.6798933   -7.4163292    346.81588  0.020112264  0.020302619         3783 
 1438000    0.6743298   -7.4345661     346.9135  0.020103935  0.020285242         3794 
 1439000   0.68031774    -7.413763    346.47285  0.020064446  0.020267856         3798 
 1440000   0.66960262   -7.4174275    346.38178  0.020045242  0.020250482         3798 
 1441000   0.67737781   -7.4121907    346.64402  0.020046496  0.020233101         3791 
 1442000   0.66764525   -7.4365498    347.24644  0.020067409  0.020215758         3812 
 1443000   0.68074586   -7.4437149    347.34146  0.020058989  0.020198435         3762 
 1444000   0.67683613   -7.4289055    346.89877   0.02001955  0.020181119         3792 
 1445000   0.67360553   -7.4294059    346.05248   0.01995689  0.020163793         3818 
 1446000   0.67954609   -7.4320192    346.72254  0.019981705  0.020146495         3812 
 1447000   0.68503014   -7.4174087    346.70191  0.019966708  0.020129198         3790 
 1448000   0.68826205   -7.4257633    347.15448  0.019978964  0.020111913         3801 
 1449000   0.69543098   -7.4099341    346.28555  0.019915203  0.020094646         3832 
 1450000   0.66428344   -7.4407505    346.93665  0.019938888  0.020077379         3809 
 1451000    0.6756597   -7.4290202    347.12427  0.019935922  0.020060109         3839 
 1452000    0.6702547   -7.4192756    346.25052  0.019872045  0.020042852         3819 
 1453000   0.67131694   -7.4393313    346.40662  0.019867322  0.020025609         3825 
 1454000    0.6765274   -7.4242505    346.79219  0.019875756  0.020008384         3814 
 1455000    0.6588633   -7.4354819    346.91045  0.019868869  0.019991182         3810 
 1456000   0.66644068   -7.4342119    346.19178   0.01981409  0.019973983         3827 
 1457000   0.67187595   -7.4352282    347.26397  0.019861815   0.01995679         3802 
 1458000   0.66296786   -7.4283126    346.98209  0.019832081  0.019939606         3810 
 1459000   0.67414003   -7.4297978    346.57514  0.019795244  0.019922445         3789 
 1460000   0.67091005   -7.4412455    346.94896  0.019803023   0.01990532         3796 
 1461000   0.67899483   -7.4161673     346.7208  0.019776454  0.019888198         3794 
 1462000   0.66699102   -7.4488834    346.30108  0.019739003  0.019871081         3816 
 1463000   0.66921103   -7.4424944    346.79125  0.019753432  0.019853971         3778 
 1464000   0.65549913   -7.4281049    347.00606  0.019752166  0.019836873         3834 
 1465000   0.66865335   -7.4310651    347.00265  0.019738489  0.019819769         3816 
 1466000   0.67125357   -7.4550879     346.9441  0.019721697  0.019802692         3794 
 1467000   0.66106305   -7.4397912    345.82263  0.019644549   0.01978562         3794 
 1468000   0.67176588   -7.4570555    346.60381  0.019675511   0.01976857         3810 
 1469000    0.6558762   -7.4377655    345.79563  0.019616271  0.019751512         3794 
 1470000   0.66298059   -7.4387492    346.17907  0.019624664  0.019734453         3804 
 1471000   0.67570423   -7.4250446    346.47104  0.019627863  0.019717414         3794 
 1472000    0.6681085   -7.4481416    346.81194  0.019633828    0.0197004         3805 
 1473000   0.65097042   -7.4332362    346.64206  0.019610888  0.019683394         3778 
 1474000   0.67044319   -7.4247175    346.81793  0.019607527  0.019666399         3798 
 1475000   0.66358909   -7.4223459    346.10492  0.019553951  0.019649423         3778 
 1476000   0.65866466   -7.4297322    346.30178  0.019551817  0.019632451         3801 
 1477000   0.65759981   -7.4334525    346.10923  0.019527715  0.019615491         3817 
 1478000   0.65651129   -7.4524713     346.3492  0.019528034  0.019598549         3805 
 1479000   0.66925539   -7.4565881    346.37074  0.019516044  0.019581615         3817 
 1480000   0.65024725   -7.4510907    346.26147  0.019496704  0.019564682         3827 
 1481000   0.66370054   -7.4497009    345.87166  0.019461606  0.019547762         3853 
 1482000   0.66508484   -7.4503718    345.66856  0.019437054   0.01953086         3808 
 1483000   0.64878377   -7.4498985    346.91905  0.019494215   0.01951398         3812 
 1484000   0.66694009   -7.4623867    346.65525  0.019466265  0.019497106         3832 
 1485000   0.67678966    -7.435571    346.90019  0.019466902  0.019480252         3800 
 1486000   0.66879484   -7.4415632    345.87483    0.0193963  0.019463414         3822 
 1487000   0.66609735   -7.4582424    346.51501  0.019419133  0.019446563         3812 
 1488000   0.66934846   -7.4291419    345.98177  0.019376219  0.019429739         3815 
 1489000   0.66852434   -7.4401016    346.53537  0.019394189  0.019412936         3803 
 1490000   0.66504546    -7.453715    345.72404  0.019335797  0.019396112         3805 
 1491000   0.64623263    -7.438517      346.125  0.019345238  0.019379315         3809 
 1492000   0.64298969   -7.4615819    346.67014   0.01936272  0.019362572         3790 
 1493000   0.65673149   -7.4633797    346.34068  0.019331362  0.019345803         3819 
 1494000    0.6551662     -7.43252    345.82236  0.019289512  0.019329051         3806 
 1495000   0.65613404   -7.4788517    345.91061  0.019281528  0.019312298         3822 
 1496000   0.65843355   -7.4667981    345.92598  0.019269495  0.019295562         3836 
 1497000   0.65637982   -7.4436214    346.39236  0.019282585   0.01927886         3830 
 1498000   0.66568538   -7.4595363    346.18326  0.019258081  0.019262179         3811 
 1499000    0.6428942   -7.4701452     346.6548  0.019271448  0.019245505         3808 
 1500000    0.6571672   -7.4466874    346.43923  0.019246624   0.01922883         3809 
 1501000   0.64663515    -7.473456    346.58298  0.019241782  0.019212164         3828 
 1502000   0.65573045   -7.4423211    345.88614  0.019190309  0.019195534         3827 
 1503000   0.66551703   -7.4472689    345.96204   0.01918175  0.019178915         3799 
 1504000   0.65920927   -7.4766591    345.43006   0.01913952  0.019162284         3810 
 1505000   0.65609641   -7.4648562    345.86295  0.019150773   0.01914569         3815 
 1506000   0.66145233   -7.4721328    345.61668  0.019124429  0.019129083         3813 
 1507000   0.65462547   -7.4707064    345.31935  0.019095297  0.019112486         3811 
 1508000   0.65949228   -7.4699981    345.82996  0.019110851  0.019095911         3800 
 1509000   0.63667998   -7.4823046    346.44905  0.019132375  0.019079349         3824 
 1510000   0.65078261   -7.4605178    345.82733  0.019085394  0.019062775         3808 
 1511000   0.62845952   -7.4721062     345.8661  0.019074901  0.019046236         3809 
 1512000   0.65182772   -7.4703246    346.15188  0.019078036  0.019029698         3818 
 1513000   0.66118074   -7.4564791    345.73364   0.01904239  0.019013207         3845 
 1514000   0.64090043   -7.4578124    346.36978  0.019064827  0.018996696         3829 
 1515000   0.64549476   -7.4731806    345.86616  0.019024541  0.018980206         3835 
 1516000   0.64428407   -7.4677223    345.98263  0.019018394   0.01896374         3807 
 1517000   0.63474862   -7.4681644    345.97435  0.019005402  0.018947296         3845 
 1518000   0.64386979   -7.4629706    346.37246  0.019014738  0.018930864         3833 
 1519000   0.67042161   -7.4709107    346.27928  0.018997108  0.018914443         3813 
 1520000   0.63763247    -7.472435    346.12322  0.018976054  0.018898036         3826 
 1521000   0.66137689   -7.4554393    346.18801  0.018967128  0.018881653         3836 
 1522000   0.64615345   -7.4910668    346.09702  0.018949683  0.018865267         3825 
 1523000   0.63850814   -7.4494844    346.10266   0.01893755  0.018848885         3791 
 1524000   0.65293984   -7.4802513     346.0413  0.018921768  0.018832527         3824 
 1525000   0.66168261   -7.4929021    345.74434  0.018893133  0.018816163         3811 
 1526000   0.64656426   -7.4863108    345.86224  0.018887191  0.018799834         3794 
 1527000   0.63433975   -7.4601029    345.28345  0.018843236  0.018783514         3834 
 1528000   0.65152547   -7.4962458    345.16961  0.018824695    0.0187672         3812 
 1529000   0.65213724   -7.4791579    345.80573  0.018847053  0.018750912         3844 
 1530000   0.64577086   -7.4864817    345.73484  0.018830873  0.018734654         3826 
 1531000   0.63944312   -7.4648866    345.64924  0.018813915  0.018718382         3800 
 1532000   0.62853599   -7.4776691    345.43158  0.018789794  0.018702129         3820 
 1533000   0.65083181   -7.5068914    345.99833  0.018808346  0.018685887         3802 
 1534000   0.62745462    -7.490121    345.44494  0.018766022  0.018669655         3831 
 1535000   0.63614585   -7.4754505    345.25806  0.018743651  0.018653448         3829 
 1536000   0.64102905   -7.4913445    346.11983  0.018778203  0.018637242         3810 
 1537000   0.64066392   -7.4685719    345.95233  0.018756904  0.018621067         3795 
 1538000   0.63945324   -7.4730435     346.4149  0.018769771  0.018604909         3786 
 1539000   0.63591016   -7.4806893    345.99621  0.018734904  0.018588782         3797 
 1540000   0.65331309   -7.4904419    345.86833  0.018715819  0.018572645         3820 
 1541000   0.62638828   -7.5114033    345.28286  0.018672013  0.018556522         3798 
 1542000   0.62276473   -7.4720171    345.47576  0.018670329  0.018540412         3825 
 1543000   0.63786173   -7.4929094    345.36288  0.018652132  0.018524314         3803 
 1544000   0.62999831   -7.4842992    345.52972  0.018649056   0.01850824         3823 
 1545000   0.62222816    -7.494601    345.62332  0.018642035  0.018492153         3820 
 1546000   0.63744903    -7.488672    345.30994  0.018613084   0.01847608         3803 
 1547000   0.62959072    -7.502411    345.40149  0.018605984  0.018460035         3817 
 1548000   0.63066643   -7.4721073    345.63641  0.018606611  0.018443993         3826 
 1549000   0.61543904    -7.499241    345.79315  0.018603032  0.018427963         3809 
 1550000   0.62125758   -7.4810075    345.96377  0.018600203  0.018411938         3804 
 1551000    0.6330325    -7.505211    345.42155  0.018559078  0.018395928         3833 
 1552000   0.62981337   -7.5003275    346.06081  0.018581444  0.018379943         3824 
 1553000   0.63071808   -7.5133813    345.72179  0.018551288  0.018363965         3837 
 1554000   0.64398727   -7.4756425    345.66558  0.018536335  0.018348025         3827 
 1555000   0.63510266   -7.5141461    345.73589  0.018528183  0.018332085         3827 
 1556000   0.63045263   -7.5061909    345.48942  0.018503075  0.018316161         3811 
 1557000   0.63257838   -7.4910635    345.52961  0.018493343  0.018300252         3816 
 1558000   0.62315467   -7.4751359    345.72877  0.018492125  0.018284355         3823 
 1559000   0.63396393   -7.5048108    345.94216   0.01849167  0.018268464         3802 
 1560000   0.63519411    -7.505352    345.66658  0.018465095  0.018252579         3832 
 1561000   0.62441007   -7.4764324    345.72863  0.018456579  0.018236742         3819 
 1562000   0.63284052   -7.5040316    345.58298  0.018436992  0.018220902         3835 
 1563000   0.63806314   -7.4963582    345.07884  0.018398318  0.018205069         3809 
 1564000   0.62621851    -7.511606    344.95552  0.018379983  0.018189262         3817 
 1565000   0.62967756   -7.4841256    345.61453   0.01840333  0.018173445         3816 
 1566000   0.61945705   -7.5051729    345.09405  0.018363881  0.018157652         3844 
 1567000   0.61994534   -7.5144658    345.51542   0.01837457  0.018141869         3818 
 1568000    0.6095307   -7.5132014    345.56406  0.018365437  0.018126098         3827 
 1569000   0.63654389   -7.5119005    345.54183  0.018352551  0.018110331         3809 
 1570000   0.60953409   -7.5204726    344.48988  0.018285025   0.01809458         3846 
 1571000   0.62389646   -7.4985573     345.1771   0.01830984  0.018078842         3836 
 1572000   0.62366383   -7.5245796    344.89756  0.018283374  0.018063123         3809 
 1573000   0.62834805   -7.5009296    346.04086  0.018332319  0.018047416         3828 
 1574000   0.62544901   -7.5155883    345.21681  0.018277044   0.01803173         3825 
 1575000   0.62595986   -7.5155978    345.18153  0.018263573  0.018016049         3827 
 1576000   0.61673364   -7.4975212     345.0726  0.018246225   0.01800038         3827 
 1577000   0.62572084   -7.5185569    345.24405  0.018243714  0.017984738         3825 
 1578000   0.64497853   -7.5044408    345.29167  0.018234668  0.017969097         3846 
 1579000    0.6340558   -7.5247219    344.99683  0.018207559  0.017953478         3824 
 1580000   0.62168364   -7.5120483    345.25871  0.018209847  0.017937869         3813 
 1581000   0.62407951   -7.5058071    344.61958  0.018164642  0.017922255         3834 
 1582000   0.61901919   -7.5081789     345.6051  0.018205073  0.017906676         3851 
 1583000    0.6225649   -7.5228789    345.45149  0.018185486  0.017891104         3831 
 1584000   0.61848621   -7.5047515     345.9717  0.018201373  0.017875559         3838 
 1585000   0.62050874    -7.491279    345.37868  0.018158711  0.017860023         3827 
 1586000   0.60900721   -7.5052914    345.49861  0.018153563  0.017844504         3832 
 1587000   0.63189759   -7.5139161    345.23461  0.018128262  0.017828996         3843 
 1588000   0.63077199   -7.5227466    345.44475  0.018127873  0.017813505         3816 
 1589000   0.62969642   -7.5091181    345.34503  0.018111235   0.01779802         3832 
 1590000   0.61987595   -7.5200419     345.1059  0.018087311  0.017782553         3815 
 1591000   0.62265713   -7.5220141    345.02105  0.018071499  0.017767109         3838 
 1592000   0.60919613    -7.516122    345.84964   0.01810352  0.017751661         3830 
 1593000   0.62966567   -7.5114032    344.77989  0.018036194  0.017736252         3853 
 1594000   0.63354881   -7.5054386    345.40364  0.018057489  0.017720846         3847 
 1595000   0.62289887   -7.5100117    344.81322   0.01801532  0.017705438         3829 
 1596000   0.61868754   -7.5408542    344.97295  0.018012372   0.01769005         3832 
 1597000   0.60768947   -7.5141349    344.98333  0.018001635  0.017674677         3851 
 1598000   0.61417476   -7.5076061    345.26307  0.018004958  0.017659318         3842 
 1599000   0.62378789   -7.5177588    345.01475  0.017980756   0.01764398         3818 
 1600000   0.61071945    -7.518846    345.15162  0.017976647   0.01762864         3844 
 1601000   0.60373047   -7.5376736    345.24706  0.017970386  0.017613302         3853 
 1602000   0.61041095   -7.5339898    345.37434   0.01796579  0.017597994         3826 
 1603000   0.61739251   -7.5264869    345.31372   0.01795143  0.017582708         3822 
 1604000   0.61155103   -7.5380786    344.56096   0.01790113  0.017567432         3839 
 1605000    0.6142414   -7.5377807    345.35935   0.01793143  0.017552151         3840 
 1606000   0.61341479   -7.5512851    345.08835  0.017906204  0.017536896         3827 
 1607000   0.62211756   -7.5294413    345.16395  0.017898981  0.017521657         3807 
 1608000    0.6179109   -7.5224228    345.48909    0.0179047  0.017506432         3841 
 1609000   0.61048143   -7.5328565    344.97946  0.017867177  0.017491229         3830 
 1610000    0.6152709   -7.5183059    345.37656  0.017876633  0.017476023         3837 
 1611000   0.63114649   -7.5391575    345.42497  0.017868041  0.017460848         3858 
 1612000   0.59559089   -7.5377259    345.22376  0.017846555   0.01744566         3831 
 1613000    0.6110934   -7.5211381    344.38855  0.017792341  0.017430502         3834 
 1614000   0.60596957   -7.5590679    345.07584  0.017816803  0.017415352         3828 
 1615000    0.6120941   -7.5500626    345.05574  0.017804734  0.017400232         3827 
 1616000   0.61134586   -7.5171114    344.60777  0.017770615  0.017385118         3836 
 1617000   0.61814392   -7.5124574    344.93089  0.017776278  0.017370029         3844 
 1618000   0.60863713   -7.5324179    345.35245  0.017787003  0.017354956         3831 
 1619000   0.59035244   -7.5287985    345.42857  0.017779934  0.017339899         3840 
 1620000   0.60298659   -7.5402446    344.87684  0.017740578  0.017324836         3834 
 1621000   0.59913662   -7.5177724    345.44016  0.017758593  0.017309786         3816 
 1622000   0.61032257   -7.5420584    344.80714  0.017715122  0.017294746         3853 
 1623000   0.60484946   -7.5373596    344.47013  0.017686903  0.017279746         3854 
 1624000   0.60535926   -7.5363899    345.08832  0.017707734  0.017264738         3804 
 1625000   0.60980126   -7.5312602    345.27173  0.017706242   0.01724975         3829 
 1626000   0.59942689   -7.5607152     344.8624  0.017674375  0.017234775         3834 
 1627000   0.60138039   -7.5262571    345.10486   0.01767593  0.017219802         3827 
 1628000   0.60032524    -7.526293    345.24783  0.017672391  0.017204858         3841 
 1629000   0.60532181   -7.5289946     344.6009  0.017628448  0.017189935         3824 
 1630000   0.59772913   -7.5324165    344.79953  0.017627788  0.017175014         3844 
 1631000   0.60237106   -7.5485471    344.84116  0.017619107  0.017160124         3823 
 1632000    0.6244894    -7.537731    344.47874  0.017589805  0.017145235         3840 
 1633000   0.59859938   -7.5455901    344.86543  0.017598766  0.017130363         3827 
 1634000    0.5998669    -7.555066    344.52869  0.017570822  0.017115485         3836 
 1635000   0.60894701   -7.5446173    344.91474  0.017579752  0.017100638         3845 
 1636000   0.59517872   -7.5370967    344.43291  0.017544464  0.017085805         3838 
 1637000   0.58245848   -7.5406393    345.12471  0.017568963  0.017070982         3844 
 1638000   0.60098241   -7.5487488    345.36561  0.017570493  0.017056165         3821 
 1639000   0.61301501   -7.5360134    344.77207  0.017529595  0.017041371         3820 
 1640000   0.59580339   -7.5397357    343.87329  0.017473236  0.017026603         3812 
 1641000   0.59869826   -7.5391866    344.46157  0.017492463  0.017011833         3825 
 1642000   0.59360116   -7.5587165    344.94142  0.017506162  0.016997083         3843 
 1643000    0.5925176   -7.5476012    345.18647  0.017507936  0.016982346         3818 
 1644000   0.57974859   -7.5421458    344.87899  0.017481701  0.016967623         3821 
 1645000   0.60069417   -7.5428933    344.16607  0.017434958  0.016952917         3859 
 1646000    0.6099311   -7.5566065    344.27033  0.017429644  0.016938217         3836 
 1647000   0.60913261   -7.5418758    344.97203  0.017454565  0.016923536         3864 
 1648000   0.59709991   -7.5621916    344.14117  0.017401961  0.016908856         3829 
 1649000   0.59693509   -7.5290544    344.71416  0.017420364  0.016894198         3849 
 1650000   0.60350737    -7.548869    344.31887  0.017389842  0.016879556         3876 
 1651000    0.5914537    -7.548855    344.55509  0.017391232  0.016864927         3837 
 1652000   0.59519963   -7.5545233    344.68183  0.017387098    0.0168503         3851 
 1653000   0.58199048   -7.5403887    344.36921  0.017360819  0.016835693         3850 
 1654000   0.61104449   -7.5503342    344.79975  0.017372015  0.016821117         3848 
 1655000   0.58959248   -7.5594571    344.83643  0.017363365  0.016806543         3842 
 1656000   0.58233171   -7.5506885    345.04486  0.017363369  0.016791987         3822 
 1657000    0.5775575   -7.5521866    344.53471  0.017327234  0.016777447         3814 
 1658000   0.60278465   -7.5327402    344.07244  0.017293549  0.016762915         3820 
 1659000   0.58512744   -7.5709572    344.42648  0.017300908  0.016748394         3854 
 1660000   0.59376402   -7.5723255    344.61853  0.017300127  0.016733879         3848 
 1661000   0.59658356   -7.5801595    344.76906  0.017297264  0.016719381         3876 
 1662000   0.59154033   -7.5481899    344.67134  0.017281957  0.016704916         3841 
 1663000   0.60087254    -7.559744    344.69122  0.017272561  0.016690459         3827 
 1664000   0.59509862   -7.5618034    345.16979  0.017286148  0.016676025         3853 
 1665000   0.57562605   -7.5514998    345.03972  0.017269255  0.016661597         3824 
 1666000   0.59347301   -7.5563145    344.88508  0.017251154  0.016647171         3849 
 1667000   0.58433913   -7.5690046    344.37825  0.017215469  0.016632768         3854 
 1668000   0.58703522    -7.560534    344.32167  0.017202322  0.016618381         3864 
 1669000   0.58819319   -7.5599255     344.2474  0.017188306  0.016604004         3854 
 1670000   0.58546448   -7.5586784    344.63047  0.017197129  0.016589648         3832 
 1671000   0.58382093   -7.5401412    344.28276  0.017169497  0.016575303         3831 
 1672000   0.58617675   -7.5557912    344.46826  0.017168474  0.016560973         3830 
 1673000   0.59020997   -7.5569027    344.21548  0.017145621  0.016546644         3841 
 1674000   0.58949119   -7.5532328    344.39668  0.017144399  0.016532326         3866 
 1675000   0.58036957   -7.5485512    343.99355  0.017114107  0.016518038         3835 
 1676000   0.58974105   -7.5711674    344.34479   0.01712136  0.016503762         3857 
 1677000   0.58873626   -7.5581861    343.93074  0.017090576  0.016489489         3864 
 1678000   0.58471024   -7.5423038    344.35879  0.017101649  0.016475243         3866 
 1679000   0.58958488   -7.5528965    344.12517  0.017079867  0.016461019         3864 
 1680000   0.58308161   -7.5664328     344.6095  0.017093725  0.016446805         3850 
 1681000   0.58897373   -7.5554468     343.7719  0.017042033  0.016432594         3860 
 1682000   0.56715402   -7.5691628    344.51978  0.017068955  0.016418417         3861 
 1683000   0.59202857   -7.5707038     344.1549  0.017040746  0.016404238         3842 
 1684000    0.5963414    -7.575014    344.60968  0.017053132  0.016390078         3868 
 1685000   0.59712275   -7.5627406    345.07687  0.017066116  0.016375931         3849 
 1686000   0.57188445   -7.5887577    343.96998  0.017001284  0.016361801         3835 
 1687000    0.5826488   -7.5668675    344.03935  0.016994633  0.016347687         3840 
 1688000   0.58142628   -7.5693442    343.68695  0.016967168  0.016333572         3852 
 1689000   0.57380485   -7.5869507    344.35105  0.016989888   0.01631948         3855 
 1690000    0.5846531   -7.5717092    344.25804  0.016975249  0.016305386         3837 
 1691000   0.57396988   -7.5645818    344.34844  0.016969665  0.016291321         3844 
 1692000   0.57795188   -7.5524212    344.67606  0.016975771  0.016277265         3836 
 1693000   0.57117436   -7.5854149    344.45675  0.016954949  0.016263237         3833 
 1694000   0.57812168   -7.5821926    344.44979  0.016944598  0.016249209         3855 
 1695000   0.58099451   -7.5742892    343.94818   0.01690994  0.016235194         3860 
 1696000   0.58406061   -7.5810151    344.39583  0.016921965  0.016221185         3848 
 1697000   0.55325407   -7.5652586    344.43023  0.016913682  0.016207208         3818 
 1698000   0.57399592   -7.5823817    344.34157   0.01689937  0.016193242         3861 
 1699000   0.56962956    -7.587081    344.19747  0.016882356  0.016179294         3840 
 1700000   0.57035804   -7.5591744    343.54346  0.016840366  0.016165358         3832 
 1701000   0.58100752   -7.5844465    343.82796  0.016844403   0.01615144         3836 
 1702000   0.56259946   -7.5658984    343.09027  0.016798388  0.016137521         3851 
 1703000   0.57570048   -7.5686502    343.92992   0.01682961  0.016123623         3840 
 1704000   0.58137483   -7.5526309    344.13426  0.016829727  0.016109744         3829 
 1705000   0.56971389    -7.596163    344.15271  0.016820758  0.016095872         3829 
 1706000   0.56592784   -7.5807729    343.84111  0.016795677  0.016082015         3850 
 1707000   0.57778612   -7.5614489    344.14973  0.016800905  0.016068179         3857 
 1708000   0.56812857   -7.5856567    344.18489  0.016792784  0.016054344         3847 
 1709000     0.578769   -7.5846658    344.04619  0.016776194  0.016040527         3847 
 1710000   0.56277218   -7.5956824    344.31425  0.016779447   0.01602671         3852 
 1711000   0.56263055   -7.5588727    343.75351   0.01674233  0.016012912         3847 
 1712000   0.57706767   -7.5664409    344.29118  0.016758722  0.015999133         3839 
 1713000   0.55995606   -7.5675184     343.6423  0.016717372  0.015985363         3865 
 1714000   0.57667637   -7.5837647    343.77405  0.016714024  0.015971612         3857 
 1715000   0.56882375   -7.5900105    344.36392  0.016732941  0.015957867         3849 
 1716000   0.56132535   -7.5842604    344.27171  0.016718712  0.015944136         3855 
 1717000    0.5764894    -7.587616    344.31977  0.016711307  0.015930415         3841 
 1718000   0.57312963    -7.593357    344.21675  0.016696583  0.015916718         3862 
 1719000   0.56864079   -7.5768967    343.37733  0.016646177  0.015903018         3848 
 1720000   0.55754368   -7.5888291    344.37713  0.016684938  0.015889332         3854 
 1721000   0.57020478   -7.5921893    344.02285  0.016658089  0.015875682         3860 
 1722000    0.5700941   -7.5851555    343.71441  0.016633488  0.015862021         3860 
 1723000   0.57030667   -7.6213398    344.20933  0.016647772  0.015848393         3838 
 1724000   0.56251458   -7.5926796     344.0232  0.016629119  0.015834772         3845 
 1725000    0.5668441   -7.5842226     343.4945  0.016593937  0.015821161         3842 
 1726000   0.56574062   -7.5810558    343.93034  0.016605366  0.015807577         3862 
 1727000   0.56522438   -7.6113275    343.78779  0.016588872   0.01579399         3845 
 1728000   0.56328862   -7.6144995    344.18742  0.016598544  0.015780431         3849 
 1729000   0.56954765   -7.5821724    343.29823  0.016546088  0.015766873         3857 
 1730000   0.55833915   -7.5921235    343.45948  0.016544291  0.015753334         3860 
 1731000   0.55401806   -7.6071762    343.98029  0.016559806  0.015739807         3860 
 1732000   0.55863455   -7.6202618    343.91929   0.01654731  0.015726298         3841 
 1733000   0.55229168   -7.5924974    343.87377  0.016535573  0.015712797         3844 
 1734000   0.54921207   -7.6016141    343.44517  0.016505439   0.01569931         3874 
 1735000    0.5639991   -7.6074399    343.84068  0.016514922  0.015685839         3855 
 1736000   0.56232848   -7.5990533    343.88896  0.016507727  0.015672367         3871 
 1737000   0.54358626   -7.6010892    343.99631  0.016503373  0.015658935         3855 
 1738000   0.55840897    -7.591267    343.49046  0.016469623  0.015645504         3881 
 1739000   0.55298115   -7.5947891    343.92909  0.016481172  0.015632086         3838 
 1740000   0.57058834   -7.6007527    343.86224  0.016468498  0.015618673         3859 
 1741000   0.56969396    -7.607636    344.27395  0.016478745  0.015605287         3854 
 1742000   0.56095263   -7.6043771    343.75592  0.016444504    0.0155919         3839 
 1743000   0.56313879   -7.6193612    343.86784  0.016440421  0.015578535         3847 
 1744000   0.54656641   -7.6050481    343.66036   0.01642108  0.015565185         3831 
 1745000   0.55113272    -7.593295    343.81025  0.016418828  0.015551843         3855 
 1746000    0.5614553   -7.5932946     343.8379  0.016410744  0.015538518         3851 
 1747000   0.54988659   -7.6083914    342.73726  0.016348849  0.015525202         3847 
 1748000   0.55365348   -7.5916492    343.66735  0.016383837  0.015511911         3848 
 1749000   0.55709661   -7.6016818     343.5971  0.016371122  0.015498631         3852 
 1750000   0.55717974    -7.585814    343.49281    0.0163568  0.015485362         3848 
 1751000   0.55360373   -7.6108179    343.76178   0.01636026  0.015472114         3857 
 1752000   0.55592784   -7.6062691    343.72578  0.016349209  0.015458871         3858 
 1753000   0.55666138   -7.5819045    344.15608  0.016360339  0.015445648         3848 
 1754000   0.55352744   -7.6098618     343.6188  0.016325485  0.015432439         3870 
 1755000   0.54208028   -7.6019273    343.42879   0.01630716   0.01541924         3852 
 1756000   0.55710166   -7.6031724     343.8784   0.01631921  0.015406052         3859 
 1757000   0.55645408   -7.6053083    343.33328  0.016284067  0.015392871         3870 
 1758000   0.55115811   -7.6262572    343.23736  0.016270258  0.015379694         3861 
 1759000    0.5673818   -7.6168134    343.13165     0.016256  0.015366542         3873 
 1760000   0.54923841    -7.604251    342.92142   0.01623681  0.015353393         3865 
 1761000   0.54797196    -7.614735    343.38776  0.016249657  0.015340259         3845 
 1762000   0.54086854   -7.5987354    343.25496  0.016234154  0.015327139         3857 
 1763000   0.54699577   -7.6251087    343.48124  0.016235642   0.01531405         3862 
 1764000   0.55371831   -7.6110417    343.54054  0.016229239  0.015300958         3842 
 1765000   0.55609214   -7.5961081    343.38063  0.016212494  0.015287888         3840 
 1766000   0.54241391    -7.602175    343.61701  0.016214468  0.015274832         3852 
 1767000   0.55784546   -7.6224611    343.15035  0.016183284  0.015261783         3827 
 1768000   0.54980685   -7.6043204     343.2062  0.016176763  0.015248741         3848 
 1769000   0.54236519   -7.6112212    343.44454  0.016178846  0.015235724         3871 
 1770000   0.55604739    -7.596763    342.86953  0.016142633  0.015222719         3856 
 1771000   0.54167509   -7.6055862      343.562  0.016166102  0.015209726         3863 
 1772000   0.54979942   -7.6022155    343.25217  0.016142408  0.015196751         3839 
 1773000   0.54852826   -7.6112742    343.21737  0.016131668  0.015183771         3862 
 1774000   0.54733472   -7.6260331    343.72554  0.016146446  0.015170816         3862 
 1775000   0.53925177   -7.6252701    343.26813  0.016115875   0.01515787         3840 
 1776000   0.55167536   -7.6230016     343.9692  0.016139696  0.015144943         3854 
 1777000   0.54109424   -7.6109074    343.47705  0.016107534  0.015132026         3858 
 1778000   0.53538834   -7.6259285    343.69668  0.016108768  0.015119121         3867 
 1779000   0.54750367   -7.6096967    343.44463  0.016087906  0.015106231         3848 
 1780000   0.54182254   -7.6136093    343.57921  0.016085169  0.015093354         3864 
 1781000   0.54772473   -7.6325873    343.60042   0.01607713  0.015080496         3859 
 1782000   0.54296252    -7.615349    343.15627  0.016047338  0.015067644         3848 
 1783000   0.54088798   -7.6438238      343.511  0.016054917  0.015054814         3856 
 1784000   0.52366328   -7.6088668    343.48835   0.01604486  0.015041993         3854 
 1785000   0.54154558   -7.6267963    343.36775   0.01603024  0.015029187         3863 
 1786000    0.5423706   -7.6153054    343.33633  0.016019799   0.01501638         3859 
 1787000    0.5354949   -7.6282835    343.10981  0.016000271  0.015003594         3872 
 1788000   0.54618276   -7.6187837    342.99682  0.015986056  0.014990819         3859 
 1789000   0.53262867   -7.6270248    343.15899  0.015984675  0.014978064         3859 
 1790000   0.54650306   -7.6314819    343.04029  0.015970218  0.014965313         3866 
 1791000   0.53417806   -7.6195147    343.27944  0.015972429  0.014952577         3864 
 1792000   0.52798435   -7.6070471    343.02248  0.015951566  0.014939843         3882 
 1793000   0.54740254   -7.6337727    342.49029  0.015917935  0.014927134         3859 
 1794000   0.52960897   -7.6307355     343.0347  0.015934351   0.01491444         3843 
 1795000   0.54402741   -7.6415517    343.17524  0.015931998  0.014901755         3850 
 1796000   0.53924951   -7.6249339    343.03497  0.015916619  0.014889076         3845 
 1797000   0.53682624   -7.6239845    343.04137  0.015908058  0.014876426         3834 
 1798000   0.53482338   -7.6514792    342.77377  0.015886808  0.014863774         3883 
 1799000   0.51830228   -7.6342437    343.67715  0.015919823  0.014851144         3858 
 1800000    0.5581346   -7.6318375    343.24253  0.015890858  0.014838528         3839 
 1801000   0.53411936     -7.62938    342.88545  0.015865512  0.014825929         3851 
 1802000   0.53549727   -7.6378238    343.01546   0.01586272  0.014813339         3854 
 1803000   0.53743943   -7.6196006    342.97946  0.015852258  0.014800754         3849 
 1804000   0.52860339   -7.6308671     343.0596  0.015847173  0.014788194         3847 
 1805000   0.54396262   -7.6359134    343.27209  0.015848204  0.014775645         3861 
 1806000   0.53022086   -7.6262767    343.03231  0.015828364  0.014763121         3861 
 1807000   0.53666539   -7.6348429    343.33149  0.015833402  0.014750588         3864 
 1808000    0.5349035   -7.6326394     343.6249  0.015838168  0.014738074         3859 
 1809000   0.53290638   -7.6262185    343.45268  0.015821479  0.014725583         3848 
 1810000   0.52750414    -7.650473    342.94902   0.01578955  0.014713094         3873 
 1811000   0.53022387    -7.623561    342.45701  0.015758191  0.014700621         3851 
 1812000   0.52809026   -7.6445662    342.73451  0.015762257  0.014688159         3872 
 1813000   0.53152784    -7.637302    342.90111  0.015761221  0.014675699         3862 
 1814000   0.52886566   -7.6247457      342.723   0.01574435  0.014663267         3863 
 1815000   0.52790397   -7.6218227    342.19298   0.01571134  0.014650846         3876 
 1816000     0.530693   -7.6566548    342.74519  0.015728028  0.014638434         3873 
 1817000   0.53562883   -7.6536081    342.88202  0.015725648  0.014626028         3858 
 1818000      0.52121   -7.6387825    342.33842   0.01569208  0.014613633         3853 
 1819000   0.51453723   -7.6354117    342.32933  0.015683037  0.014601256         3864 
 1820000   0.53476292   -7.6432334    343.05242  0.015707529  0.014588892         3866 
 1821000   0.53225305   -7.6378317    342.83393  0.015688904  0.014576541         3857 
 1822000   0.52637759   -7.6483971     343.1862  0.015696405  0.014564201         3857 
 1823000   0.52327624   -7.6599564    342.63073  0.015662403  0.014551873         3872 
 1824000   0.52431376   -7.6470771    342.36691  0.015641763  0.014539564         3858 
 1825000   0.51806622   -7.6504711    342.20234  0.015625678  0.014527263         3851 
 1826000   0.53232884   -7.6553091    342.43294  0.015627644  0.014514974         3862 
 1827000   0.52870445   -7.6472545    342.73972  0.015633084  0.014502705         3875 
 1828000   0.52987209   -7.6597366    342.71979  0.015623623  0.014490445         3857 
 1829000   0.52777175   -7.6512135    342.85643  0.015621306  0.014478194         3854 
 1830000   0.52212303   -7.6505554    342.74903  0.015607879  0.014465952         3871 
 1831000   0.51975943   -7.6633331    342.27291  0.015577686  0.014453721         3859 
 1832000   0.51876794    -7.652229    342.81114  0.015593666  0.014441511         3865 
 1833000   0.52843284   -7.6472254    342.20458  0.015557582  0.014429322         3859 
 1834000   0.51706725   -7.6584441    342.99012  0.015584793  0.014417144         3867 
 1835000   0.52335637   -7.6386905    342.16803  0.015538966  0.014404972         3863 
 1836000   0.51792018    -7.643307    342.18003  0.015531047  0.014392815         3859 
 1837000   0.51972775   -7.6673663    342.18658   0.01552289  0.014380674         3867 
 1838000   0.52347475   -7.6619666    343.43507   0.01557105  0.014368543         3845 
 1839000   0.52426354   -7.6425964    342.89048  0.015537905  0.014356419         3863 
 1840000   0.52051328   -7.6590116    342.96178  0.015532689  0.014344311         3863 
 1841000   0.51375898   -7.6358992    342.16446  0.015488161  0.014332204         3868 
 1842000   0.51581918   -7.6490848    342.22842  0.015482646  0.014320111         3852 
 1843000   0.52114333   -7.6405838    342.78032    0.0154992   0.01430804         3861 
 1844000   0.50850053   -7.6512749    342.51257  0.015478695  0.014295987         3891 
 1845000   0.51412049   -7.6665062     341.9186  0.015443478  0.014283928         3861 
 1846000   0.51454972   -7.6548612    342.15193  0.015445645   0.01427189         3862 
 1847000   0.51006395   -7.6541384    342.78006  0.015465622  0.014259869         3877 
 1848000   0.51503288   -7.6549471    342.43513    0.0154417  0.014247858         3870 
 1849000   0.51009731   -7.6559899    343.06187  0.015461595  0.014235857         3877 
 1850000   0.51540235   -7.6486541    342.75942  0.015439614  0.014223875         3863 
 1851000   0.51031269    -7.663955    342.94815  0.015439769  0.014211905         3859 
 1852000   0.51512785   -7.6450557    342.01865  0.015389608  0.014199952         3864 
 1853000    0.5054942   -7.6498488    342.89314  0.015420631  0.014188006         3872 
 1854000   0.50857388    -7.650513    342.75281  0.015406005  0.014176056         3868 
 1855000   0.52459399   -7.6516649    341.97268  0.015362654  0.014164127         3868 
 1856000   0.52438412   -7.6535281    342.06679  0.015358602  0.014152221         3848 
 1857000   0.50743095   -7.6565012    342.61201  0.015374799  0.014140322         3847 
 1858000   0.51613821   -7.6500992    341.83239  0.015331557  0.014128433         3860 
 1859000   0.51894686   -7.6572629    342.12897  0.015336604  0.014116558         3868 
 1860000   0.50643583   -7.6569859    341.84271  0.015315534  0.014104694         3855 
 1861000   0.51482981    -7.661783    341.90639  0.015310155  0.014092839         3863 
 1862000    0.5042652    -7.657412    342.12594  0.015311759  0.014080995         3844 
 1863000   0.51432811   -7.6773396    342.79825  0.015333613  0.014069164         3857 
 1864000   0.50062393   -7.6687511    342.04561  0.015291738  0.014057343         3859 
 1865000   0.51346456   -7.6471014    342.41663  0.015300117  0.014045532         3856 
 1866000   0.50985386   -7.6549885    342.31103  0.015287202  0.014033734         3868 
 1867000   0.51190159   -7.6718546    342.21627  0.015274784  0.014021953         3851 
 1868000   0.51939719   -7.6745317    341.75204  0.015245898  0.014010188         3870 
 1869000   0.50657439   -7.6765552    342.51419  0.015271722  0.013998442         3883 
 1870000   0.50916765   -7.6781304    341.64382  0.015224769  0.013986704         3862 
 1871000   0.51820411   -7.6566922    342.14364  0.015238894  0.013974971         3855 
 1872000   0.50730711   -7.6699043    342.27005   0.01523638  0.013963257         3856 
 1873000    0.5069201   -7.6724355    342.20973  0.015225562   0.01395155         3861 
 1874000   0.49572443   -7.6704516    342.20294  0.015217136  0.013939862         3849 
 1875000   0.51157279   -7.6779285    341.98043   0.01519913  0.013928185         3872 
 1876000   0.50499059   -7.6840836     342.2558  0.015203261  0.013916516         3875 
 1877000   0.50800178   -7.6730608    342.33829  0.015198823  0.013904862         3859 
 1878000   0.50716958   -7.6702371    341.85761  0.015169401  0.013893221         3843 
 1879000   0.50390489    -7.671206    342.33098  0.015182321   0.01388158         3860 
 1880000   0.49063716   -7.6765247    342.30155  0.015172941   0.01386996         3859 
 1881000   0.49842397   -7.6800827    342.23199  0.015161793  0.013858357         3876 
 1882000   0.51471391   -7.6616315    341.99572  0.015143275   0.01384676         3867 
 1883000   0.49544364   -7.6855551    342.38359  0.015152398  0.013835173         3862 
 1884000   0.50004719   -7.6718871    341.95127  0.015125233  0.013823606         3866 
 1885000   0.49151608   -7.6718994    342.22595  0.015129352  0.013812046         3863 
 1886000   0.49470715   -7.6834657    342.58269  0.015137093  0.013800494         3854 
 1887000   0.48322824   -7.6837318    342.39764  0.015120899   0.01378895         3854 
 1888000   0.50934627   -7.6859794    342.00474  0.015095548  0.013777425         3882 
 1889000    0.5039365   -7.6845179    342.30286  0.015100708   0.01376592         3870 
 1890000     0.496959   -7.6591523    342.08605  0.015083159  0.013754413         3856 
 1891000   0.50954435   -7.6778357    342.80031  0.015106659  0.013742919         3867 
 1892000    0.4898726   -7.6632807    342.10497  0.015068048  0.013731443         3849 
 1893000   0.49274707   -7.6768843    342.31182  0.015069194  0.013719978         3868 
 1894000   0.49698349   -7.6832823    342.03225  0.015048937  0.013708522         3861 
 1895000   0.49592422   -7.6727537    342.21463  0.015049016  0.013697083         3850 
 1896000   0.50126224   -7.6659302    342.03245  0.015033072  0.013685659         3875 
 1897000   0.50366456   -7.6940637    342.25012  0.015034709  0.013674245         3860 
 1898000   0.49625351   -7.6783134    342.39881  0.015033316  0.013662847         3889 
 1899000   0.49008483   -7.7082142    342.50316  0.015029979  0.013651459         3877 
 1900000   0.48665902   -7.6887589    341.89538  0.014995411  0.013640073         3864 
 1901000   0.49708945   -7.6695727    342.20319  0.015001017  0.013628705         3873 
 1902000   0.49190947   -7.6905496    342.17399   0.01499185  0.013617345         3880 
 1903000   0.48736428   -7.6883445    341.75019  0.014965414  0.013605998         3868 
 1904000    0.5017754   -7.7012009    341.92871  0.014965367  0.013594661         3858 
 1905000   0.48605281   -7.6850491    341.62792  0.014944353  0.013583344         3874 
 1906000   0.48648642   -7.6877382    342.04939   0.01495494  0.013572036         3873 
 1907000   0.49255803   -7.6853114    341.88241  0.014939801  0.013560748         3876 
 1908000   0.49733005   -7.6810939    341.55141  0.014917514  0.013549471         3865 
 1909000    0.5010187   -7.6786318    341.81878  0.014921371    0.0135382         3872 
 1910000   0.48831853   -7.6992934    341.92106  0.014918022  0.013526946         3876 
 1911000    0.4873994   -7.6903064    342.15451  0.014920396  0.013515699         3881 
 1912000   0.47675388   -7.6931027    341.64266  0.014890283  0.013504466         3871 
 1913000   0.50923514   -7.6895578    342.13079  0.014903763   0.01349324         3876 
 1914000   0.49722092   -7.6925754    341.77176  0.014880345  0.013482026         3866 
 1915000   0.48437494   -7.6779525    341.90702   0.01487846  0.013470825         3842 
 1916000   0.48604278   -7.6873498    341.54225   0.01485483  0.013459632         3869 
 1917000   0.48436674    -7.694305    341.78018  0.014857424  0.013448446         3861 
 1918000   0.48812406   -7.6985442    341.70718  0.014846506  0.013437277         3863 
 1919000   0.49293684    -7.689845    341.80896  0.014843189  0.013426124         3880 
 1920000   0.49551316   -7.7103041    342.16436  0.014850884  0.013414975         3835 
 1921000    0.4815927    -7.675057    342.03705   0.01483763   0.01340384         3867 
 1922000   0.49443406   -7.7001457    342.15666  0.014835096  0.013392719         3850 
 1923000    0.4718643   -7.6873781    341.99599  0.014820419  0.013381609         3862 
 1924000   0.47677336   -7.6952992    341.54963  0.014793383  0.013370503         3865 
 1925000   0.49241347   -7.6847985    341.82062  0.014797429   0.01335942         3869 
 1926000   0.48794278   -7.6923357    341.56644  0.014778749  0.013348344         3860 
 1927000   0.47783217   -7.7031838    341.45248  0.014766151  0.013337271         3869 
 1928000   0.48761734   -7.6979094    341.89612  0.014777668  0.013326219         3860 
 1929000   0.48658384   -7.7104143    342.14644  0.014780821  0.013315183         3876 
 1930000   0.47419954   -7.6802215    341.83912  0.014759893  0.013304153         3866 
 1931000   0.47238144    -7.697966    341.47026  0.014736331  0.013293131         3861 
 1932000    0.4798633   -7.7060508     341.9529  0.014749521  0.013282117         3852 
 1933000   0.48160302   -7.7116763    341.91546  0.014740277  0.013271122         3873 
 1934000   0.48682438   -7.6894942    341.76428  0.014726141  0.013260134         3858 
 1935000   0.46850598   -7.6881226    342.27191  0.014740392   0.01324916         3879 
 1936000   0.47702671    -7.694744    341.86373  0.014715209  0.013238201         3862 
 1937000   0.48061952   -7.7048344    340.91866  0.014666953  0.013227248         3887 
 1938000   0.47873358   -7.7123844    341.73636  0.014694546  0.013216302         3863 
 1939000   0.46755423   -7.7041297    341.57081  0.014679852  0.013205376         3866 
 1940000   0.48048333    -7.711243    341.63037  0.014674844  0.013194459         3867 
 1941000   0.48109425   -7.7050024    341.60062  0.014666006   0.01318356         3863 
 1942000   0.47757455   -7.7070888    341.74964  0.014664849  0.013172672         3862 
 1943000   0.46766164   -7.7109048    341.61183  0.014651391  0.013161789         3864 
 1944000   0.46975465   -7.7163776    341.71756  0.014648387  0.013150915         3878 
 1945000   0.48304505   -7.7282241    341.67438  0.014639005  0.013140057         3856 
 1946000   0.47157152   -7.6962926    341.37613  0.014618711  0.013129204         3871 
 1947000   0.47239539   -7.6850415    341.79333  0.014629059  0.013118375         3858 
 1948000   0.47652584   -7.6919257    341.37687  0.014603733  0.013107547         3883 
 1949000   0.47046367   -7.7061264    341.09778  0.014584307   0.01309673         3874 
 1950000    0.4805929   -7.7030591    341.13085  0.014578241  0.013085927         3855 
 1951000   0.47434597   -7.7121676    341.50395  0.014586706  0.013075142         3865 
 1952000   0.47791431   -7.7086634    341.35592  0.014572913  0.013064366         3869 
 1953000   0.47344734    -7.701801    341.45032  0.014569479  0.013053593         3872 
 1954000   0.46912892    -7.695412    340.89261  0.014538238  0.013042839         3871 
 1955000   0.46515396   -7.6988796    341.03222  0.014536753  0.013032092         3884 
 1956000   0.46586407   -7.7131263    341.41591  0.014545668  0.013021361         3868 
 1957000   0.48715814   -7.7049236     340.9366  0.014517825  0.013010639         3863 
 1958000   0.47655668   -7.7074755    341.81138  0.014547641   0.01299993         3869 
 1959000   0.46764741   -7.7137656    341.31849  0.014519248  0.012989226         3878 
 1960000   0.47075019   -7.7119369    341.48218    0.0145188  0.012978536         3877 
 1961000   0.47410743   -7.7095131    341.36581  0.014506451  0.012967856         3847 
 1962000   0.46577895   -7.7026483     341.2663  0.014494831  0.012957191         3863 
 1963000   0.46707391   -7.7100125    341.40688  0.014493415   0.01294654         3872 
 1964000   0.45745502   -7.7001655    341.41054  0.014486191  0.012935895         3871 
 1965000   0.47602243   -7.7195883    341.48982  0.014482181  0.012925263         3848 
 1966000   0.47354514   -7.7221059    341.43339  0.014472422  0.012914635         3870 
 1967000   0.46727608   -7.7035009    341.48178  0.014467115  0.012904015         3862 
 1968000   0.46171737   -7.7249058    341.82245  0.014474189  0.012893417         3872 
 1969000   0.46337083   -7.7285314    340.94304  0.014429619  0.012882827         3890 
 1970000   0.46249557   -7.7134182    341.21799  0.014433925  0.012872243         3878 
 1971000   0.47246241    -7.716955    341.63251  0.014444128  0.012861673         3869 
 1972000   0.47481276   -7.7120485    341.82133  0.014444782  0.012851119         3861 
 1973000   0.45718505   -7.7134386    341.26182  0.014413829   0.01284057         3864 
 1974000   0.46102158   -7.7126003    341.55623  0.014418956  0.012830036         3875 
 1975000   0.46394345   -7.7199527    341.45595  0.014407424  0.012819511         3871 
 1976000   0.45480873   -7.7365544    341.44314  0.014399593  0.012808996         3882 
 1977000    0.4656206   -7.7103765    341.03273   0.01437501  0.012798492         3879 
 1978000   0.46777272   -7.7224793    341.50417  0.014387604  0.012788005         3885 
 1979000   0.46332475   -7.7214249    341.46991  0.014378891  0.012777519         3862 
 1980000   0.45990499   -7.7129027    341.61342  0.014377669  0.012767055         3867 
 1981000   0.46829128   -7.7274083    341.50692  0.014365931  0.012756595         3869 
 1982000   0.45828306   -7.7320051    340.80511  0.014329176  0.012746145         3880 
 1983000   0.45605857   -7.7084883    341.42705  0.014348086  0.012735705         3891 
 1984000   0.45754726    -7.720445    341.37353  0.014338606   0.01272528         3873 
 1985000   0.46887001   -7.7140693    341.11812   0.01432066  0.012714866         3873 
 1986000   0.46413262    -7.723923    341.44916   0.01432734  0.012704461         3866 
 1987000   0.46363725   -7.7371124    341.27546  0.014312844  0.012694065         3874 
 1988000   0.45461262   -7.7369997    341.50988  0.014315471  0.012683684         3859 
 1989000   0.46480647   -7.7228732    341.29699  0.014299354  0.012673313         3865 
 1990000   0.45245683   -7.7065747    341.06661  0.014282521  0.012662952         3862 
 1991000    0.4579086   -7.7292931    341.32581  0.014286196  0.012652605         3865 
 1992000   0.45974627   -7.7281494    340.78785   0.01425652  0.012642264         3871 
 1993000   0.44953395   -7.7390622     341.3641  0.014273461  0.012631934         3880 
 1994000    0.4552814   -7.7286929    341.36217  0.014266222  0.012621616         3879 
 1995000   0.44693928   -7.7232055    341.33611  0.014257983  0.012611308         3871 
 1996000   0.45645347   -7.7274435    341.38366  0.014252825  0.012601021         3873 
 1997000   0.45293005   -7.7272639    341.36269  0.014244813  0.012590736         3853 
 1998000   0.45319717    -7.732291    341.26844  0.014233752  0.012580457         3878 
 1999000   0.46388839   -7.7311306    340.80535  0.014207327  0.012570192         3877 
 2000000   0.45718856   -7.7288524    341.52262  0.014230109  0.012559937         3876 
 2001000   0.45444391   -7.7483195    341.19263  0.014209255  0.012549698         3860 
 2002000   0.45289067   -7.7196329    340.87793  0.014189058  0.012539467         3871 
 2003000   0.44567212   -7.7440984    341.27325  0.014198421  0.012529246         3873 
 2004000    0.4472609   -7.7360626    341.01064  0.014180416  0.012519039         3845 
 2005000   0.45755103    -7.722293    341.13687   0.01417859  0.012508846         3877 
 2006000   0.45410812   -7.7412206    340.86755  0.014160333  0.012498656         3877 
 2007000    0.4529625   -7.7217566    340.29228  0.014129392  0.012488478         3867 
 2008000   0.44787397   -7.7342603    341.25855  0.014162457   0.01247831         3877 
 2009000   0.45185608   -7.7468509     341.1134  0.014149386  0.012468149         3875 
 2010000   0.45117879   -7.7366831    340.95258  0.014135679  0.012458002         3882 
 2011000   0.45623647   -7.7312969    341.23748  0.014140456  0.012447865         3859 
 2012000   0.44690777   -7.7329565    341.39916  0.014140124   0.01243774         3877 
Loop time of 4219.29 on 48 procs for 2000000 steps with 4000 atoms

Performance: 81909.565 tau/day, 474.014 timesteps/s
99.4% CPU use with 48 MPI tasks x no OpenMP threads

MPI task timing breakdown:
Section |  min time  |  avg time  |  max time  |%varavg| %total
---------------------------------------------------------------
Pair    | 260.36     | 273.53     | 292.32     |  42.5 |  6.48
Neigh   | 26.741     | 27.151     | 27.897     |   5.2 |  0.64
Comm    | 209.76     | 236        | 253.3      |  53.0 |  5.59
Output  | 4.5815     | 4.5834     | 4.6213     |   0.3 |  0.11
Modify  | 3615.8     | 3633.8     | 3649.7     |  14.3 | 86.12
Other   |            | 44.26      |            |       |  1.05

Nlocal:        83.3333 ave          88 max          78 min
Histogram: 2 3 3 4 8 1 9 8 5 5
Nghost:        1757.48 ave        1770 max        1745 min
Histogram: 2 4 4 4 10 4 12 3 2 3
Neighs:        10590.7 ave       11396 max        9688 min
Histogram: 1 2 4 9 7 1 11 8 4 1
FullNghs:      21181.2 ave       22455 max       19626 min
Histogram: 3 1 5 4 8 3 8 9 3 4

Total # of neighbors = 1016697
Ave neighs/atom = 254.17425
Neighbor list builds = 108000
Dangerous builds = 0

#clear
#
#next RN
#
#jump SELF
Total wall time: 1:10:22
