
units lj                  # Use reduced LJ style units
atom_style atomic         # Uncharged point particles
atom_modify map hash      # Needed for indexing of clusters etc
                          # Used to be able to find where atoms are in relation to each other.

lattice fcc 1.0 spacing 1 1 1
Lattice spacing in x,y,z = 1.5874011 1.5874011 1.5874011
region box block 0 10 0 10 0 10 units lattice
create_box 2 box
Created orthogonal box = (0.0000000 0.0000000 0.0000000) to (15.874011 15.874011 15.874011)
  3 by 4 by 4 MPI processor grid
create_atoms 1 box
Created 4000 atoms
  using lattice units in orthogonal box = (0.0000000 0.0000000 0.0000000) to (15.874011 15.874011 15.874011)
  create_atoms CPU = 0.002 seconds
set type 1 type/fraction 2 0.78 78393
Setting atom values ...
  3107 settings made for type/fraction
mass 1 1.0
mass 2 1.0
pair_style lj/cut  3.5
pair_modify tail  yes
pair_coeff 1  1  1.0  1.0   # Intearaction between 1 and 1 set with epsilon = 1 and sigma = 1
pair_coeff 1  2  1.5  0.8
pair_coeff 2  2  0.5  0.88

write_data data.0
System init for write_data ...
Neighbor list info ...
  update every 1 steps, delay 10 steps, check yes
  max neighbors/atom: 2000, page size: 100000
  master list distance cutoff = 3.8
  ghost atom cutoff = 3.8
  binsize = 1.9, bins = 9 9 9
  1 neighbor lists, perpetual/occasional/extra = 1 0 0
  (1) pair lj/cut, perpetual
      attributes: half, newton on
      pair build: half/bin/atomonly/newton
      stencil: half/bin/3d
      bin: standard
WARNING: Not all mixed pair coeffs generated from mixing. Use write_data with 'pair ij' option to store all pair coeffs. (../write_data.cpp:312)


#############################
#   M E L T   S Y S T E M   #
#############################

velocity all create 2.4 5300450 mom yes dist gaussian # Assign velocities
                                                    # Temperature 2.4, random number seed, zero linear momentum
                                                                                # Gaussian distribution

timestep 0.002   # simulation timestep
thermo 1000       # output thermodynamic data every 1000 steps bf 100

# Define a fix  in this case with index 1 applied to all
# particles in the simulation. This fix is for simulations
# in the anisotropic NPT ensemble. Note that we use the MTK
# correction.
fix 1 all npt temp 2.4 2.4 0.1 iso 5.68 5.68 0.5 mtk yes tchain 5 pchain 5 # Use NPT ensemble
                                                                         # Set temperature and pressure and damping
                                                                         # Numbers of thermostats in chain and in barostat
run 10000          # run for 10000 steps
Per MPI rank memory allocation (min/avg/max) = 3.642 | 3.644 | 3.648 Mbytes
Step Temp E_pair E_mol TotEng Press Volume 
       0          2.4   -3.8018078            0  -0.20270782   -3.3841895         4000 
    1000    2.4223743   -3.1998782            0   0.43277483    5.5929081    3785.2197 
    2000    2.3969422   -3.2246054            0   0.36990903    5.6219723    3760.4614 
    3000    2.3775695   -3.2274818            0    0.3379809    5.5672813    3774.3312 
    4000    2.4249398   -3.1892824            0   0.44721794    5.6658022    3788.8889 
    5000    2.3751051   -3.2226026            0   0.33916447    5.7165336     3745.645 
    6000    2.3641083   -3.2605404            0   0.28473557    5.5552565    3742.6293 
    7000    2.4356131   -3.2050876            0   0.44741868    5.8852686    3766.0208 
    8000    2.3509081   -3.2801358            0   0.24534477    5.5782317     3717.277 
    9000    2.3732689   -3.2426989            0   0.31631456    5.8138696    3735.0517 
   10000    2.3872246   -3.1917214            0   0.38822024     5.644117    3773.9608 
Loop time of 2.56998 on 48 procs for 10000 steps with 4000 atoms

Performance: 672378.335 tau/day, 3891.078 timesteps/s
99.6% CPU use with 48 MPI tasks x no OpenMP threads

MPI task timing breakdown:
Section |  min time  |  avg time  |  max time  |%varavg| %total
---------------------------------------------------------------
Pair    | 1.1478     | 1.2172     | 1.3577     |   3.2 | 47.36
Neigh   | 0.2127     | 0.21937    | 0.24572    |   1.0 |  8.54
Comm    | 0.74454    | 0.87177    | 0.97838    |   4.6 | 33.92
Output  | 0.00024206 | 0.00024704 | 0.00030445 |   0.0 |  0.01
Modify  | 0.2008     | 0.24608    | 0.28629    |   5.3 |  9.58
Other   |            | 0.01532    |            |       |  0.60

Nlocal:        83.3333 ave          94 max          74 min
Histogram: 2 2 3 8 13 9 2 6 1 2
Nghost:        1702.88 ave        1739 max        1665 min
Histogram: 2 1 8 6 6 6 10 4 1 4
Neighs:        10126.5 ave       11791 max        9051 min
Histogram: 5 0 14 8 10 4 3 1 1 2

Total # of neighbors = 486071
Ave neighs/atom = 121.51775
Neighbor list builds = 905
Dangerous builds = 211

# Equilibrate just above the melting temperature to avoid step fn in T

fix 1 all npt temp 1.25 1.25 0.1 iso 5.68 5.68 0.5 mtk yes tchain 5 pchain 5
run 2000
Per MPI rank memory allocation (min/avg/max) = 3.644 | 3.646 | 3.649 Mbytes
Step Temp E_pair E_mol TotEng Press Volume 
   10000    2.3872246   -3.1917214            0   0.38822024     5.644117    3773.9608 
   11000     1.228849   -4.7672281            0   -2.9244154    5.8928653    2865.6396 
   12000    1.2642568    -4.794594            0   -2.8986828    5.7599287    2863.4157 
Loop time of 0.69361 on 48 procs for 2000 steps with 4000 atoms

Performance: 498263.054 tau/day, 2883.467 timesteps/s
99.5% CPU use with 48 MPI tasks x no OpenMP threads

MPI task timing breakdown:
Section |  min time  |  avg time  |  max time  |%varavg| %total
---------------------------------------------------------------
Pair    | 0.27607    | 0.31229    | 0.35315    |   2.8 | 45.02
Neigh   | 0.041096   | 0.043629   | 0.049855   |   0.8 |  6.29
Comm    | 0.23798    | 0.28435    | 0.32279    |   3.3 | 41.00
Output  | 5.186e-05  | 5.3174e-05 | 6.9611e-05 |   0.0 |  0.01
Modify  | 0.044395   | 0.048527   | 0.051546   |   0.8 |  7.00
Other   |            | 0.004756   |            |       |  0.69

Nlocal:        83.3333 ave          91 max          75 min
Histogram: 1 5 1 7 7 8 9 5 3 2
Nghost:        2052.10 ave        2083 max        2024 min
Histogram: 3 4 3 4 10 9 10 4 0 1
Neighs:        13328.8 ave       14948 max       11441 min
Histogram: 2 1 3 7 8 9 6 6 3 3

Total # of neighbors = 639783
Ave neighs/atom = 159.94575
Neighbor list builds = 145
Dangerous builds = 12

#############################
# L I N E A R  Q U E N C H  #
#############################

# Define solid atoms. This closely follows ten Wolde  Ruiz-Montero and Frenkel  Faraday Discuss  1996  104  93-110
# Compute components of the per-atom q6 vector
compute q6 all orientorder/atom degrees 1 6 components 6 nnn NULL cutoff 1.3 # compute the Q6 parameter.
                                                                             # Use all neighbours within 1.3 unit cell.

# get number of connections
compute coord_number all coord/atom orientorder q6 0.5

# An atom is solid if it has 8 or more connections (of a possible 14)
variable is_solid atom c_coord_number>=8
group solid dynamic all var is_solid    # Must be dynamic to update
dynamic group solid defined

# do clustering
compute cluster solid cluster/atom 1.3 # Create a cluster where all atoms within are solid and max 1.3 units from another member

# define chunks one chunk per cluster
compute clus_chunks solid chunk/atom c_cluster nchunk every compress yes  # Says which atoms are in which chunk

# count the size of each chunk
compute size_chunks solid property/chunk clus_chunks count


# Find the maximum entry in the vector of chunk sizes
variable max_n equal max(c_size_chunks)


# Thermo style which includes this variable
# thermo_style custom step temp pe vol v_max_n

thermo ${N}  # Print the thermo information every 100 steps
thermo 1000  

# Reset the npt fix at a lower temperature (below freezing)
fix 1  all npt temp  ${temp} ${temp}  0.1  iso  5.68  5.68  0.5  mtk yes tchain  5  pchain  5
fix 1  all npt temp  0.45 ${temp}  0.1  iso  5.68  5.68  0.5  mtk yes tchain  5  pchain  5
fix 1  all npt temp  0.45 0.45  0.1  iso  5.68  5.68  0.5  mtk yes tchain  5  pchain  5

dump dmp2 all dcd ${N} traj.dcd
dump dmp2 all dcd 1000 traj.dcd


compute msd all msd com yes
variable twopoint equal c_msd[4]/6/(step*dt+1.0e-6)
fix 9 all vector 10 c_msd[4]
variable fit equal slope(f_9)/6/(10*dt)
thermo_style custom step temp pe c_msd[4] v_twopoint v_fit v_max_n

fix 1 all npt temp 1.25 ${temp} 0.1 iso 5.68 5.68 0.5 mtk yes tchain 5 pchain 5
fix 1 all npt temp 1.25 0.45 0.1 iso 5.68 5.68 0.5 mtk yes tchain 5 pchain 5
run 500000 # 5000000  # Run for this many steps
Neighbor list info ...
  update every 1 steps, delay 10 steps, check yes
  max neighbors/atom: 2000, page size: 100000
  master list distance cutoff = 3.8
  ghost atom cutoff = 3.8
  binsize = 1.9, bins = 8 8 8
  4 neighbor lists, perpetual/occasional/extra = 1 3 0
  (1) pair lj/cut, perpetual
      attributes: half, newton on
      pair build: half/bin/atomonly/newton
      stencil: half/bin/3d
      bin: standard
  (2) compute orientorder/atom, occasional
      attributes: full, newton on
      pair build: full/bin/atomonly
      stencil: full/bin/3d
      bin: standard
  (3) compute coord/atom, occasional
      attributes: full, newton on
      pair build: full/bin/atomonly
      stencil: full/bin/3d
      bin: standard
  (4) compute cluster/atom, occasional
      attributes: full, newton on
      pair build: full/bin/atomonly
      stencil: full/bin/3d
      bin: standard
Per MPI rank memory allocation (min/avg/max) = 9.836 | 9.844 | 9.850 Mbytes
Step Temp PotEng c_msd[4] v_twopoint v_fit v_max_n 
   12000    1.2642568    -4.794594 1.5008079e-30 1.0422276e-32 8.3333333e+20            3 
   13000    1.2410434   -4.8342441   0.73396171 0.0047048826   0.06220355            2 
   14000    1.2537625   -4.7625501    1.5059466 0.0089639675  0.062008038            1 
   15000    1.2336137   -4.7802129    2.2621015   0.01256723  0.062826606            1 
   16000    1.2187171   -4.8333435    2.9858328  0.015551212  0.063187437            2 
   17000     1.278325    -4.769024    3.7420248  0.018343258  0.062737211            3 
   18000    1.2238081   -4.7713846    4.4927857  0.020799933    0.0623204            1 
   19000    1.2721345   -4.8112465    5.2200219  0.022894832  0.062262606            1 
   20000    1.2320007   -4.8349964    6.0207346  0.025086394  0.062588123            1 
   21000    1.2277026   -4.7826085    6.9142531  0.027437512  0.063063497            2 
   22000    1.2572489   -4.8176328    7.6053804  0.028808259  0.063453582            2 
   23000     1.225506   -4.8327372    8.4062349  0.030457372  0.063677695            4 
   24000    1.2430316   -4.8191313    9.2148154  0.031995886  0.063886883            2 
   25000    1.2249025   -4.8191943    10.056875  0.033522916  0.064167924            1 
   26000    1.2402957   -4.7939074    10.804739  0.034630572  0.064445714            4 
   27000    1.2308709   -4.7911619    11.584777  0.035755483  0.064510766            6 
   28000    1.2055589   -4.8340154    12.238308  0.036423535  0.064536736            3 
   29000    1.2201811   -4.7988091    12.849295   0.03692326  0.064364901            6 
   30000    1.2397027   -4.8427162    13.433009  0.037313913  0.063970956            2 
   31000    1.2254498   -4.8711919    14.218961  0.038223013  0.063572206            1 
   32000    1.2044233   -4.8336924     14.89344  0.038784999  0.063246723            3 
   33000     1.190721   -4.8329153    15.729907  0.039721986  0.062963604            3 
   34000    1.2202996   -4.8297128    16.634303   0.04077035  0.062875751            2 
   35000    1.1975586    -4.868765    17.410158  0.041452758  0.062899014            2 
   36000    1.2312457   -4.9081231    18.243832  0.042231092  0.062961355            1 
   37000    1.2270518   -4.8657846    19.143015  0.043114898  0.063133527            2 
   38000    1.2356131     -4.90427    19.825101  0.043476098  0.063289598            2 
   39000    1.2078111   -4.8584188    20.541087  0.043891211  0.063327129            2 
   40000    1.1988366   -4.8451876    21.303221   0.04438171   0.06333574            2 
   41000    1.1964972   -4.8624175    22.186926  0.045095377  0.063412437            1 
   42000    1.2195813   -4.8164315    22.917374  0.045470979  0.063455699            1 
   43000    1.2144147   -4.8424764    23.490107  0.045523463  0.063455481            1 
   44000    1.1940279     -4.92883    24.149249  0.045737213  0.063460544            4 
   45000    1.1975023   -4.8461663    24.989622  0.046277077  0.063406783            2 
   46000    1.2242294   -4.8658504    25.898895  0.046918288   0.06340227            2 
   47000     1.219264   -4.8588879    26.648788  0.047249624  0.063392049            1 
   48000      1.20713   -4.8717258    27.201993  0.047225681  0.063335822            1 
   49000    1.1774315   -4.8931275    27.812554  0.047300261  0.063277349            2 
   50000    1.1864006    -4.904595    28.247503  0.047079171  0.063140052            2 
   51000    1.2032499   -4.8540605    28.976891   0.04734786  0.062967513            2 
   52000    1.1884358   -4.8875846    29.376857  0.047078296  0.062767682            2 
   53000    1.1805161   -4.9026629    30.048295  0.047245746  0.062524508            9 
   54000    1.1957685    -4.925258    30.839529  0.047591865  0.062288987            5 
   55000    1.1810936   -4.9156195     31.41742  0.047602151  0.062091701            3 
   56000    1.1966621    -4.904336    32.185312  0.047894809  0.061922477            5 
   57000    1.2101258   -4.9315852    32.788158  0.047935903  0.061750675            3 
   58000    1.1683647   -4.8785147     33.71468  0.048440632  0.061591218            3 
   59000    1.1818933   -4.9894144    34.211462  0.048321273  0.061468541            1 
   60000    1.1839539   -4.9368619    34.940727  0.048528788    0.0613317            3 
   61000    1.1704279   -4.9705641    35.397553  0.048357312  0.061181879            6 
   62000    1.1684389   -4.9024975    36.049859  0.048454111  0.060986513            3 
   63000    1.1564298   -4.9159241    36.683968  0.048523767  0.060777599            5 
   64000    1.1559958   -4.9351227    37.126153  0.048341345  0.060570899            6 
   65000    1.1365582   -4.9413119     37.54581  0.048135653  0.060353307            8 
   66000    1.1454606   -4.9270271    38.208737  0.048243354  0.060146139            1 
   67000    1.1675837   -4.8939328    38.947911  0.048442675   0.05994038            2 
   68000    1.1299872   -4.9195315    39.798473  0.048772638  0.059734024            1 
   69000    1.1825822   -4.9688834    40.315858  0.048690649  0.059554785            3 
   70000    1.1584539   -4.9516594    41.013051  0.048825061  0.059380028            1 
   71000    1.1503365   -4.9345561    41.411574  0.048605134   0.05919982            4 
   72000    1.1767587   -4.9358813    42.285713  0.048941797  0.059048065            3 
   73000    1.1140101   -4.9299637    42.860229  0.048927201  0.058906047            5 
   74000    1.1494198   -4.9764562    43.587853   0.04908542  0.058767211            3 
   75000    1.1731512   -4.9448363    44.173457  0.049081619  0.058639343            2 
   76000    1.1389567   -4.9756865     44.78494  0.049106294  0.058505966            2 
   77000    1.1545281   -4.9974795    45.354481  0.049084936  0.058366717            2 
   78000    1.1871892   -4.9462473    45.887975  0.049025614  0.058232561            2 
   79000    1.1354646   -4.9623132    46.365406  0.048908656  0.058082045            2 
   80000    1.1355174   -4.9816708    46.932809  0.048888342  0.057927225            4 
   81000    1.1396823   -4.9677497    47.604084  0.048975395  0.057771389            1 
   82000     1.127623   -4.9920932    48.217616  0.049001642  0.057611879            1 
   83000    1.1317825   -4.9483541    48.959177    0.0491558  0.057472681            6 
   84000    1.1624976   -4.9759777    49.498305  0.049105461   0.05734671            3 
   85000    1.1191202   -4.9928651    49.860803   0.04888314  0.057211053            2 
   86000     1.135712   -5.0047778    50.752908  0.049179174  0.057090546            1 
   87000    1.1263878   -4.9834644    51.234467  0.049075159    0.0569677            3 
   88000    1.1241086   -5.0441079    51.576634  0.048841509  0.056845394            3 
   89000     1.110637   -5.0244261    52.199872  0.048876284  0.056710811            1 
   90000     1.106116   -4.9908742    52.939802  0.049018335  0.056577333            2 
   91000    1.1228337   -5.0061219    53.370082  0.048873701  0.056450131            4 
   92000    1.1274628   -4.9938321    54.062182  0.048969367  0.056324929            5 
   93000    1.1202621   -5.0032111     54.68214  0.048998333  0.056200857           11 
   94000     1.158615   -5.0093757    55.029235  0.048784783  0.056077789            4 
   95000    1.0990063    -5.037554     55.71195  0.048870131  0.055950987            5 
   96000    1.1231071   -5.0263874    56.551023  0.049089429  0.055838116            2 
   97000    1.0965402   -5.0296748    56.832372  0.048825061  0.055713113            1 
   98000    1.1167389   -5.0383683    57.318718  0.048740406  0.055588642            3 
   99000    1.1298723   -5.0388377    57.987666  0.048811167  0.055468491            3 
  100000    1.1156463   -5.0482704     58.36718  0.048639316   0.05534719            3 
  101000     1.066555   -5.0773628    59.152412   0.04880562  0.055232109            2 
  102000     1.122886    -5.031254    59.735093   0.04880318  0.055114584            4 
  103000    1.1115436    -5.026641    60.175499  0.048685679  0.054996366            1 
  104000    1.0921165   -5.0633574    60.805023  0.048721973  0.054879256            3 
  105000    1.0985208   -5.0711754    60.910933   0.04834201  0.054753455            2 
  106000    1.0809031   -5.0681535    61.663914  0.048477919  0.054627517            2 
  107000    1.1111358    -5.060312    62.122914  0.048382332  0.054503741            3 
  108000    1.1004681   -5.0496935    62.704855  0.048383375  0.054382082            3 
  109000    1.1103476   -5.0766731    62.949528   0.04812655  0.054248932            4 
  110000    1.1010445   -5.0557515     63.48625  0.048095644  0.054120348            2 
  111000     1.089561   -5.0922732    63.645559  0.047781951  0.053981834            2 
  112000    1.0885386   -5.0782261      64.3035  0.047844866  0.053838866            7 
  113000    1.0967522   -5.0935549    64.715699  0.047725442  0.053697962            3 
  114000    1.0932411   -5.1083124    65.222602   0.04767734  0.053554252            3 
  115000    1.0750069   -5.1252201    65.264277  0.047292954  0.053406739            5 
  116000    1.0852848   -5.0853346    66.029116  0.047434709  0.053261628            3 
  117000    1.0912136   -5.0670833    66.459984   0.04733617  0.053117003            2 
  118000    1.1100967   -5.0930481    66.969272  0.047294683  0.052967932            4 
  119000    1.0863743   -5.1123706    67.407115  0.047203862  0.052824548            3 
  120000    1.0636232   -5.1440585    67.479908  0.046861047  0.052679133            6 
  121000    1.0920148   -5.1340006    68.253455  0.047006512   0.05252692            3 
  122000    1.0902631   -5.1023242    68.684007  0.046915305  0.052381747            3 
  123000    1.0833012    -5.114813     69.14566  0.046846653  0.052238965            2 
  124000    1.0639422   -5.1198874    69.763819  0.046884287  0.052101706            7 
  125000    1.0668182   -5.1304708    70.405836  0.046937224  0.051964427            5 
  126000    1.0453759   -5.1381947    70.898721  0.046890688  0.051834286            2 
  127000     1.079493   -5.0890035    71.289328  0.046777774  0.051705922            8 
  128000    1.0563101   -5.1391913    71.427153  0.046502052  0.051573769            1 
  129000    1.0640441   -5.1031316    72.375799  0.046754392  0.051436178            3 
  130000    1.0820872   -5.1349818    72.545935  0.046503804  0.051303374            2 
  131000    1.0647067   -5.1355571    73.154086  0.046535678   0.05117227            3 
  132000    1.0410122   -5.1159077    73.649691  0.046496017  0.051037498            2 
  133000    1.0663625   -5.1657899    73.791907  0.046235531   0.05090753            6 
  134000    1.1011811   -5.1503715    74.396608  0.046266547   0.05077467            3 
  135000    1.0380925   -5.1419787     74.67875  0.046097993  0.050649257            3 
  136000    1.0653188   -5.1589845    75.062746   0.04599433  0.050520797            2 
  137000    1.0590207   -5.1730101    75.481831  0.045913523   0.05038853            2 
  138000    1.0505787   -5.1438038    75.947166  0.045861815  0.050258189            1 
  139000    1.0403634   -5.1706556    76.428042  0.045820169   0.05013025            2 
  140000    1.0280576   -5.1629625    76.732774   0.04567427  0.050004276            2 
  141000    1.0538904    -5.135399     77.59584  0.045860425  0.049882704            4 
  142000    1.0783217    -5.185886    77.862563  0.045693992  0.049761641            3 
  143000    1.0359483    -5.195895    78.157635  0.045546407  0.049644895            2 
  144000    1.0586417   -5.1975049    78.720155  0.045555645  0.049523203            2 
  145000    1.0286594   -5.1877093    79.142765  0.045484347  0.049402708            4 
  146000     1.021699   -5.1713188    79.740478  0.045513971  0.049284017            7 
  147000    1.0228499   -5.2118418    79.966085  0.045332247  0.049162235            2 
  148000    1.0353099   -5.1929934    80.386362  0.045262591   0.04904407            5 
  149000    1.0302376   -5.2149243    80.932192  0.045264089   0.04892443            2 
  150000    1.0051839   -5.1989799    81.200951   0.04511164  0.048810216            1 
  151000    1.0097842   -5.2142422    81.723435  0.045101233  0.048696165            3 
  152000    1.0248337   -5.2069045    82.324757  0.045134187  0.048588062            4 
  153000    1.0230457   -5.1837127    83.110471  0.045267141  0.048484724            6 
  154000    1.0325648   -5.1987245    83.564105  0.045218671  0.048385252            2 
  155000    1.0430044   -5.1962973    83.747558  0.045025569  0.048287298            3 
  156000    1.0193904   -5.2303372     84.17946   0.04496766  0.048184321            3 
  157000    1.0223287   -5.2214629     84.79162  0.045006168  0.048082569            2 
  158000    1.0205537   -5.2493002     84.79314   0.04472212  0.047983394            3 
  159000    0.9901056   -5.2161631    85.385334  0.044751223  0.047879719            6 
  160000    1.0003431   -5.2243275    85.955232   0.04476835  0.047778253            4 
  161000    1.0239232   -5.2205314    86.363514  0.044701611  0.047675226            7 
  162000   0.99691597    -5.224503    86.819885  0.044660434  0.047574631            3 
  163000    1.0082095   -5.2432699    86.994188  0.044475556   0.04747379            2 
  164000    1.0140781    -5.261532    87.453017  0.044437508  0.047377165            4 
  165000   0.99980548    -5.260809    88.186166  0.044538468  0.047284177            5 
  166000    1.0277457   -5.2640066    88.707429  0.044531842  0.047186163            5 
  167000   0.99625491   -5.2786247    88.680286   0.04425164  0.047085753            2 
  168000    1.0062072   -5.2517832    89.044909  0.044169101  0.046986324            3 
  169000    1.0008084   -5.2484833    89.459609  0.044112233  0.046886008            3 
  170000   0.96592256   -5.2707917    89.622825  0.043932757  0.046784748            5 
  171000     1.015523   -5.2978869    89.686994  0.043707112   0.04668152            3 
  172000   0.98735409    -5.277983    90.516938  0.043855105  0.046579094            2 
  173000   0.99688517   -5.2594246    91.002306  0.043835407  0.046476221            2 
  174000    0.9947421   -5.2550101    91.051907  0.043607235  0.046373554            6 
  175000   0.99198805   -5.2831135     90.85663  0.043265062  0.046264441            2 
  176000   0.97899063   -5.2519899     91.68795  0.043412855  0.046154169            2 
  177000   0.96738549   -5.3095454    91.365998  0.043016006  0.046043109            5 
  178000   0.96090595   -5.2624898    91.911449  0.043029704  0.045929396            3 
  179000   0.98841014   -5.2937234    92.149628  0.042900199  0.045814452            4 
  180000   0.99295042   -5.3102741    92.440908  0.042796717  0.045700307            3 
  181000   0.96837236   -5.3331678    92.558678  0.042614492  0.045585505            3 
  182000   0.96195068    -5.318517    92.954616  0.042561637  0.045466643            3 
  183000   0.94846066   -5.3016617    93.502685  0.042578636  0.045351371            6 
  184000   0.96001429   -5.3080428    93.907002  0.042530345  0.045238903            5 
  185000   0.97728214   -5.3370559    94.353877  0.042501746  0.045129959            5 
  186000   0.97206965   -5.3312761    94.921279  0.042527454  0.045025163            3 
  187000   0.96806182   -5.3466313    94.988948   0.04233019  0.044922636            3 
  188000   0.97175932    -5.354087    95.509861  0.042335931  0.044819106            4 
  189000   0.95250326    -5.319567    96.117711  0.042379943  0.044716606            6 
  190000   0.97443963   -5.3227041    96.379081  0.042271527   0.04461821            5 
  191000   0.96337876   -5.3380781    96.758717  0.042215845   0.04452002            3 
  192000   0.97550475   -5.3578183    96.928517  0.042069669  0.044421037            5 
  193000   0.94745877   -5.3417441    97.612778  0.042147141  0.044321197            7 
  194000   0.96916628   -5.3298721    97.878939  0.042044217  0.044223088            4 
  195000   0.96090368   -5.3267521    98.357658  0.042033187  0.044128612            2 
  196000   0.94969277   -5.3517614    98.807588  0.042010029  0.044033921            2 
  197000   0.95280255   -5.3326787    99.171896  0.041950887  0.043938681            4 
  198000   0.93878208   -5.3704715    99.033508  0.041680769  0.043840163            6 
  199000   0.93137549   -5.3616236    99.385672   0.04161879  0.043741557            3 
  200000    0.9297752   -5.3604283    99.777206  0.041573836  0.043643202            3 
  201000   0.91481862   -5.3682417    100.06705  0.041487167  0.043544216            4 
  202000    0.9480581   -5.3669698     99.98146  0.041246477  0.043443887            3 
  203000   0.93647118   -5.3860526    100.56789  0.041284025   0.04334501            4 
  204000   0.95834474   -5.3671216    100.78499  0.041170339  0.043244321            4 
  205000   0.92519964   -5.4135757    100.96674  0.041043389  0.043145007            5 
  206000   0.94260901   -5.3812642    101.40243    0.0410204  0.043045974            7 
  207000   0.92225747   -5.3913294    101.54683  0.040880365  0.042946705            5 
  208000   0.94034203   -5.3640835      101.785  0.040779249  0.042845564            3 
  209000   0.95479508   -5.3753299    102.11532  0.040715838  0.042744137            4 
  210000   0.95563455   -5.4052208    102.52222  0.040683421  0.042642508            6 
  211000   0.94257458   -5.4085149     102.4933  0.040479185  0.042541636            2 
  212000   0.93073724   -5.4143368    102.84387   0.04042605  0.042441384            3 
  213000   0.92531297   -5.3816229    103.33082  0.040426768  0.042342691            2 
  214000   0.93153773   -5.3994583    103.37618   0.04025552   0.04224223            4 
  215000   0.92339029   -5.4203662    103.76723  0.040219855  0.042143068            9 
  216000   0.92790013   -5.4255856    104.11726  0.040168697   0.04204409            4 
  217000    0.9256026   -5.4147937    104.71098  0.040211589  0.041946026            5 
  218000   0.90747261   -5.4398693    104.68421    0.0400169  0.041846594            7 
  219000   0.92665402   -5.4185066     105.0097  0.039958029  0.041747218            3 
  220000   0.92300332   -5.4173228    105.44495   0.03994127  0.041647477            4 
  221000   0.94788409   -5.4083797    105.49939  0.039781066   0.04154954            5 
  222000   0.91775708   -5.4521124     105.4928    0.0395994  0.041450092            4 
  223000   0.90029677   -5.4521083    106.21786  0.039692774  0.041351217            4 
  224000   0.90920378   -5.4335702    106.32957  0.039557132   0.04125217            4 
  225000   0.91265588   -5.4317882    106.55512  0.039464859  0.041154766            5 
  226000   0.91939593   -5.4336963    106.72869  0.039354237  0.041053868            4 
  227000   0.90840727   -5.4819225    106.64501  0.039150151  0.040954496            4 
  228000   0.88659246   -5.4567154    107.23777  0.039195092  0.040855675            3 
  229000    0.8937544   -5.4882662    107.39645  0.039081676  0.040757186            4 
  230000   0.88232505   -5.4295312    107.63813  0.038999323  0.040659083            2 
  231000   0.90810012   -5.4693589    108.05578   0.03898116  0.040562414            3 
  232000   0.88536492   -5.4733867    108.63551  0.039021377  0.040465202            7 
  233000   0.88410826   -5.4705234     108.5997  0.038841093  0.040369046            4 
  234000   0.89179899   -5.5030356    108.93875  0.038795852  0.040275093            2 
  235000   0.89997577   -5.5095791    108.96188  0.038638964  0.040180168            2 
  236000   0.90448385   -5.5112294    109.51767  0.038671492  0.040084665            3 
  237000   0.86332161   -5.5115129    109.31642  0.038437561  0.039990658            4 
  238000   0.89065954   -5.4667989    109.95781  0.038500634  0.039896007            2 
  239000   0.87993625   -5.5445074     109.8802  0.038312484   0.03980096            6 
  240000   0.87378855   -5.4939186    110.33538  0.038310895  0.039703828            6 
  241000   0.87543137    -5.504235    109.98405  0.038030445   0.03960576            4 
  242000   0.86516414   -5.5262336    110.20882  0.037950697  0.039507232            4 
  243000   0.87659191   -5.5013402     110.7868  0.037992729  0.039409318            3 
  244000   0.86744118   -5.5145881    110.93074  0.037886183  0.039313335            4 
  245000    0.8961305   -5.4900194    111.18112  0.037816708   0.03921858            5 
  246000   0.87383791   -5.5155326    111.57779  0.037797355  0.039125119            7 
  247000   0.87473689   -5.5330362    111.92853  0.037762664  0.039031431            3 
  248000    0.8878173   -5.5144662    111.96343  0.037622122  0.038938445           10 
  249000   0.87045952   -5.5164051    112.53324  0.037661727  0.038846119            6 
  250000   0.88688747   -5.5074562    112.67199  0.037557331  0.038753004            3 
  251000   0.86156771   -5.5270124    112.88224  0.037477504  0.038660494            6 
  252000     0.859139   -5.5188361    113.69204  0.037596575  0.038570273            3 
  253000    0.8546431   -5.5479435    113.66079  0.037437676  0.038481685            4 
  254000   0.85983206    -5.527834    113.89429  0.037366893  0.038392663            5 
  255000   0.85482022   -5.5757328    113.88812  0.037218341  0.038301912            8 
  256000   0.85097299   -5.5843958    114.10513  0.037143597  0.038212575            4 
  257000   0.85167332   -5.5674919     114.3727   0.03708583  0.038123712            8 
  258000   0.86511114   -5.5990889    114.47345  0.036974627  0.038033339            3 
  259000   0.85352785   -5.5810977    114.92466  0.036977047  0.037945156            3 
  260000   0.86393305   -5.5670153    114.96821  0.036848786   0.03785774            4 
  261000   0.85998121   -5.5738934    115.27819  0.036806574  0.037770552            6 
  262000   0.83180512   -5.5774247    115.69264  0.036797914  0.037683442            3 
  263000   0.86210538   -5.5955297    116.03715  0.036767158  0.037596683            8 
  264000   0.85347614   -5.5807855     116.0488  0.036631564  0.037509876            9 
  265000   0.84122758   -5.5983277    116.31709  0.036577702  0.037422698            7 
  266000   0.84863682   -5.5759398    116.79006  0.036588364  0.037335603            4 
  267000   0.84545347   -5.5866104    116.77459    0.0364465  0.037249781            7 
  268000   0.85805861   -5.5916185    116.76698   0.03630814  0.037165159            4 
  269000   0.85486622   -5.5993262    117.38151  0.036363541  0.037080104            3 
  270000   0.82831238   -5.6418649      117.065  0.036131172  0.036994335           10 
  271000    0.8455407   -5.6112582    117.65334  0.036178764  0.036907859            4 
  272000   0.84580457   -5.5948167    117.43023  0.035977398  0.036820703            8 
  273000   0.84648837   -5.6118529    117.50218  0.035867577   0.03673395           11 
  274000   0.84165194   -5.6160893    117.73802  0.035808401  0.036646399           10 
  275000   0.83955928   -5.6783962    117.33062  0.035554734  0.036558484            6 
  276000   0.83004692   -5.6272176    117.99236  0.035625712   0.03647043            9 
  277000   0.82665169   -5.6107985    117.85666  0.035456277  0.036381459            7 
  278000   0.80528922   -5.6592886    118.24608  0.035445467   0.03629243            4 
  279000   0.84091741   -5.6829927    118.26293  0.035323457  0.036203846            7 
  280000   0.81789539   -5.6229607    118.78773  0.035353491  0.036114878            9 
  281000   0.82685961   -5.6478393    119.05239  0.035306165  0.036027532            9 
  282000   0.80251299   -5.6585997    118.81023  0.035109406  0.035939535            5 
  283000   0.81220266   -5.6092414    119.26206  0.035118393  0.035851416            9 
  284000    0.8276372   -5.6720242    119.19092  0.034973863  0.035764396            4 
  285000   0.81415179   -5.7138772    118.78951  0.034733773  0.035675932           16 
  286000   0.81294297    -5.656675    119.59302  0.034846452  0.035588287            5 
  287000   0.80426855    -5.649297     119.8398   0.03479669  0.035501363            7 
  288000    0.8189578   -5.6823842    120.07624  0.034744283  0.035414539            7 
  289000   0.80634079   -5.6801739    120.28033  0.034682911  0.035328543            9 
  290000   0.80833912   -5.6597692    120.33236  0.034578265  0.035242779            6 
  291000   0.80603708   -5.7349678    120.44766  0.034492457  0.035157936           19 
  292000   0.79716673   -5.6782572     120.8609  0.034492266  0.035073493            8 
  293000   0.81438413   -5.6945629    120.86894  0.034376832  0.034989965           12 
  294000    0.7884581   -5.7027442    121.22167  0.034359884  0.034906047            7 
  295000   0.79369736   -5.7125145    121.41996  0.034299424  0.034821626            6 
  296000   0.78375905   -5.7186376    121.13405  0.034103054   0.03473802            4 
  297000    0.7926895    -5.714609    121.59083  0.034116395  0.034655696            6 
  298000    0.7984488   -5.7057095    121.82289  0.034066804  0.034573225           24 
  299000   0.79038489   -5.7321963    121.73495  0.033928357  0.034490399            6 
  300000   0.78696109   -5.6923154    122.34799  0.033985553  0.034407529           12 
  301000   0.78200581   -5.7077907    122.29306  0.033857437  0.034325175            5 
  302000   0.80423602    -5.699598    122.43243  0.033783784  0.034242474            3 
  303000   0.79115564   -5.7325865    122.41194   0.03366665  0.034161032            5 
  304000   0.78613117   -5.7343631    122.73902  0.033645566  0.034078373           11 
  305000   0.78740197   -5.7545202    122.60787  0.033499419  0.033996136            6 
  306000   0.76403601   -5.7684995     123.0577  0.033512447  0.033912744            4 
  307000   0.77875645   -5.7750256    122.82232  0.033339392  0.033829405           15 
  308000   0.78230214   -5.7755887    122.74435  0.033210053  0.033746451            5 
  309000   0.76126092    -5.759097    123.17129  0.033217715  0.033662996            8 
  310000   0.77065027   -5.7604147    123.22575  0.033125202    0.0335799           10 
  311000   0.77508752   -5.7544779    123.31527  0.033042676  0.033497468            6 
  312000   0.78489961   -5.7655766    123.74427  0.033051354  0.033415264            8 
  313000   0.77090139   -5.7654969    123.83613  0.032970216  0.033334001           19 
  314000    0.7564038   -5.7859967    123.81624  0.032859936  0.033252534            4 
  315000   0.76741602   -5.7849954    124.04884  0.032817154  0.033170554           13 
  316000   0.77651373   -5.7852186    124.04636  0.032712648  0.033088557            5 
  317000   0.75181246   -5.7760953    124.65666  0.032769891  0.033007434            6 
  318000   0.76554312   -5.8111258    124.29699  0.032572587  0.032927127            2 
  319000   0.75172254   -5.8006761    124.37972  0.032492089  0.032846074            5 
  320000   0.77007229   -5.7831415    124.74775  0.032486393  0.032764935           16 
  321000    0.7505886   -5.7975115    125.05722   0.03246553  0.032684285           23 
  322000   0.75008605   -5.8059888    124.83886  0.032308193  0.032602907           10 
  323000   0.75129819   -5.8201314    124.71889  0.032177216  0.032521634            7 
  324000   0.75107186   -5.8012409     125.0549  0.032164325  0.032440276            8 
  325000   0.75982403   -5.8112253    124.88674   0.03202224  0.032359234            4 
  326000   0.73927895   -5.7819506    125.21529  0.032007999  0.032278509           10 
  327000   0.74325099   -5.8315462    125.77512  0.032052783   0.03219855            9 
  328000   0.73028498   -5.8533313    125.35124  0.031847369  0.032118822           16 
  329000   0.74964916   -5.8502848    125.63521  0.031822494  0.032038535            7 
  330000   0.73565315   -5.8646717    125.48087  0.031687089  0.031958475           10 
  331000   0.73267021   -5.8255002    125.93214  0.031704971  0.031879084            8 
  332000   0.73321835   -5.8505813    126.08943  0.031648953  0.031798932            8 
  333000   0.76603669   -5.8311569    126.12466  0.031562729  0.031719889            9 
  334000   0.72310802   -5.8272733    126.06749  0.031453965  0.031641454            8 
  335000   0.71875669   -5.8509264    126.41043   0.03144538  0.031562331           18 
  336000   0.72295321   -5.8772078    126.05988  0.031264852  0.031481482           12 
  337000   0.73117938   -5.8863421    126.33722  0.031240659  0.031401318           10 
  338000   0.71764324   -5.8773306    126.29004  0.031136599  0.031321608            8 
  339000   0.72439533   -5.8865914    126.29049   0.03104486  0.031241888            7 
  340000   0.73484559   -5.9063996     126.3763  0.030974584  0.031161591           10 
  341000   0.72361207   -5.8718119    127.00297  0.031036893  0.031081975           14 
  342000   0.71396338   -5.8767262    126.72085  0.030877399  0.031003079            7 
  343000   0.71468688   -5.8566457    126.87176  0.030824042  0.030923953           12 
  344000   0.72396978   -5.8715464    127.18824  0.030811105  0.030845842           13 
  345000   0.73020748   -5.8969793    127.11568   0.03070427   0.03076824           10 
  346000   0.71916584   -5.9169168    126.53516  0.030475712  0.030689955           23 
  347000   0.72579193   -5.8762103    127.15419   0.03053655  0.030611058            7 
  348000   0.70464046   -5.8874725    127.04823  0.030423426  0.030531727           10 
  349000   0.70042013   -5.8938958    127.03987  0.030334257  0.030452898            7 
  350000   0.71213063    -5.914904    126.83493  0.030198793  0.030373901           10 
  351000   0.70417379   -5.9021908    126.86513  0.030119926  0.030294305            9 
  352000    0.6880703   -5.9153782    127.02475  0.030072147  0.030214473           18 
  353000    0.7113423   -5.9035719     127.0833  0.030000779   0.03013459            7 
  354000   0.70008051   -5.9361573    126.83496   0.02985757  0.030054828            7 
  355000   0.71042435   -5.9053354    127.59653  0.029952237  0.029975027            7 
  356000   0.71170594   -5.9085051    127.36127  0.029813032  0.029896351            6 
  357000   0.69638645   -5.9474674      127.382  0.029734361  0.029817078           11 
  358000   0.69879675   -5.9454447     127.4346  0.029663548  0.029738365           10 
  359000   0.69698131   -5.9385136    127.38968  0.029570493  0.029659835            7 
  360000   0.69045324   -5.9615222     127.4719  0.029507385  0.029580977           13 
  361000   0.68363727   -5.9402497    127.81346  0.029504493  0.029503366           13 
  362000   0.67474642   -5.9430338    127.89089  0.029440811  0.029425945           12 
  363000   0.69313045   -5.9523802    127.87405  0.029355843  0.029348234           15 
  364000   0.68702621   -5.9693877    127.69984  0.029235312  0.029270332           22 
  365000   0.68651345   -5.9745652    127.64045  0.029141656  0.029192242           10 
  366000   0.69488562   -5.9828348     127.3812  0.029003005  0.029114228           11 
  367000   0.68426695   -5.9996835    127.80707  0.029020679   0.02903649           16 
  368000   0.67092655   -6.0029703    128.04542  0.028995792   0.02895853           18 
  369000   0.66971778   -5.9704956    127.65045  0.028828016   0.02888043           16 
  370000     0.682309    -5.984175    128.04208  0.028838307  0.028803047           13 
  371000   0.67831681   -6.0048201    127.66551  0.028675991  0.028725212           12 
  372000   0.66742726   -6.0300614     127.8895  0.028649081  0.028647517           23 
  373000   0.68319749   -5.9636169     128.3354  0.028671895  0.028569747           41 
  374000   0.67017521   -5.9860768    128.10148  0.028543111  0.028491964            9 
  375000    0.6724199   -6.0140265    128.23228  0.028496062  0.028414293           13 
  376000   0.67544632   -6.0206777    128.07758  0.028385988  0.028337011           21 
  377000   0.67391994   -6.0127839    127.91693  0.028275184  0.028259943           13 
  378000   0.66123314   -6.0068744    128.40314   0.02830757  0.028182758           32 
  379000   0.67221316   -6.0134036    128.57574  0.028270832  0.028106538           25 
  380000   0.65612037   -6.0266153    128.82342   0.02825075  0.028030438           16 
  381000   0.66583236   -6.0373871    128.37784  0.028079142  0.027954374           12 
  382000   0.66695884    -6.036021    128.64526  0.028063975  0.027878215            6 
  383000   0.63565404   -6.0432411    128.46149  0.027950717  0.027802253           17 
  384000    0.6565642   -6.0354401    128.53338  0.027893529  0.027726547           17 
  385000   0.66152141   -6.0515577    128.70785  0.027858842  0.027651619           24 
  386000   0.63807699   -6.0441075       128.79  0.027804405  0.027576914           11 
  387000   0.65206096   -6.0608524    128.77638  0.027729626  0.027502052           10 
  388000   0.64432536   -6.0745073    128.73552  0.027649382  0.027427049           13 
  389000   0.65883414   -6.0631849    128.91797  0.027617389  0.027351996            9 
  390000   0.63525869   -6.0480796    128.83586  0.027529029  0.027277012           14 
  391000   0.63970848   -6.0637523    128.75856  0.027442149  0.027202093            9 
  392000   0.64508743   -6.0468816    129.03009  0.027429867   0.02712715            8 
  393000   0.64604647   -6.0626072    128.60896  0.027270771  0.027052565           11 
  394000   0.64593035   -6.0857589    128.78074  0.027237889  0.026978465           21 
  395000   0.64758913   -6.0911768    128.63132  0.027137409  0.026904204           10 
  396000   0.63796682   -6.1074196     128.6596  0.027074832   0.02682947           10 
  397000   0.63466589   -6.0712682    128.83309  0.027043051   0.02675525           12 
  398000   0.62740492   -6.0884054     128.7639  0.026960615  0.026681284           11 
  399000   0.63381441   -6.0794797    128.91384  0.026924361  0.026607823            9 
  400000   0.62872527   -6.1028575    128.65626  0.026803387  0.026534224            7 
  401000   0.62769007    -6.104546    128.75983   0.02675807   0.02646027           21 
  402000   0.62669181   -6.1219874    128.89951  0.026720463  0.026386998           14 
  403000   0.63266676   -6.1111797    128.91653  0.026657678  0.026313668           42 
  404000   0.62187304   -6.1064925    129.15282  0.026640434  0.026240518           34 
  405000   0.61805123   -6.1082848    129.13336   0.02657065  0.026167526           31 
  406000    0.6204621   -6.1461327    128.93501  0.026464494  0.026094826           25 
  407000   0.62176409   -6.1172651    129.10944  0.026435185  0.026022016           38 
  408000   0.64000391    -6.121552    129.30438  0.026410207  0.025949619           47 
  409000   0.62068208   -6.1310151    128.94416  0.026272242  0.025877309           32 
  410000   0.59037457   -6.1364621    128.85742  0.026190532  0.025805124           49 
  411000   0.62711797   -6.1319227     129.0227  0.026160321  0.025733128           11 
  412000   0.62054774   -6.1342997    128.98403  0.026089002  0.025661346           17 
  413000     0.614391   -6.1626276    129.19899  0.026069208  0.025589661           32 
  414000   0.60721366   -6.1556138    129.19961  0.026006363  0.025518292           23 
  415000   0.61767548   -6.1538396    129.18288  0.025940336  0.025446881           21 
  416000   0.60535658   -6.1566513    129.11927  0.025865238  0.025375316           15 
  417000   0.59517974   -6.1699938    129.25574  0.025830483  0.025303835           21 
  418000   0.59040924   -6.1812249    129.13116  0.025743852  0.025232558           42 
  419000   0.60446612   -6.2119007    129.02468  0.025661234  0.025160979           21 
  420000   0.60628282   -6.1968047    129.07356  0.025609834  0.025089329           15 
  421000   0.59343039   -6.2079778    128.86869   0.02550845  0.025018014           34 
  422000   0.59553758   -6.1858679    129.03782  0.025481402  0.024947069           22 
  423000   0.59235025   -6.1920245    128.97676  0.025409132  0.024876525           12 
  424000   0.57845572   -6.1981835     128.9009  0.025334297  0.024805847           23 
  425000   0.58477334   -6.1865474    129.26743  0.025346555  0.024735417           24 
  426000   0.58714195   -6.1845514    129.28411  0.025290318  0.024665465           11 
  427000   0.58799599   -6.2094387    129.23451  0.025221411  0.024595729            9 
  428000   0.58553547   -6.1872245    129.09994  0.025136281  0.024526257           14 
  429000   0.59551711   -6.2064467    129.58731   0.02517236  0.024457125            8 
  430000   0.57472691       -6.215    129.22982  0.025044539  0.024388088           18 
  431000   0.58042275   -6.2103066    129.42618  0.025024396  0.024319327           56 
  432000   0.57864031   -6.2182184    129.42996  0.024967198  0.024250687           41 
  433000   0.58122247   -6.2338491    129.27888  0.024880462  0.024182283           49 
  434000   0.55717675   -6.2295989    129.20731  0.024809391  0.024113918           55 
  435000   0.56284028   -6.2502302    129.23759   0.02475816  0.024045542           31 
  436000   0.56316118   -6.2467599    129.40301  0.024732991  0.023977039           18 
  437000   0.57024523   -6.2411704     129.0267  0.024604634  0.023908793           66 
  438000   0.57888874   -6.2500217    128.84168  0.024513257  0.023840571           47 
  439000   0.57705776   -6.2417552    129.00201  0.024487853  0.023772415           27 
  440000    0.5634739   -6.2603475    129.19167  0.024468119  0.023704802           71 
  441000   0.56209828   -6.2771854    128.92814  0.024362839  0.023637184           24 
  442000   0.55029436    -6.249943     129.0004  0.024321343  0.023569546           63 
  443000   0.56699697   -6.2671641     129.1198  0.024288901  0.023502304           84 
  444000   0.55225507   -6.2720439    129.10929  0.024232224  0.023435191           31 
  445000   0.55213365   -6.2928906    129.05842  0.024168244  0.023368067           34 
  446000    0.5603249   -6.2884325     129.1245  0.024126402  0.023300929           70 
  447000   0.55694937   -6.2870886     129.0751  0.024063217  0.023233931           35 
  448000   0.54442243   -6.2930354    128.77922  0.023954467  0.023167044           53 
  449000   0.53578428   -6.2962681    128.92784  0.023928701  0.023100341           33 
  450000   0.55415302   -6.3148347    128.79692  0.023851281  0.023033634           18 
  451000   0.54446985    -6.293704    129.01127  0.023838003  0.022967062           43 
  452000   0.53311103    -6.285843    129.18978  0.023818175  0.022900855           29 
  453000   0.54630392   -6.3163375    128.91665  0.023715352  0.022834942           31 
  454000   0.53361834   -6.3133779    129.01183  0.023680586  0.022769242           35 
  455000   0.53818233   -6.3001451    128.91298  0.023610436  0.022703593           51 
  456000   0.53454831   -6.3216256    128.83426  0.023544273  0.022637875           41 
  457000   0.53059568   -6.3221555    128.60612  0.023451152   0.02257236           65 
  458000   0.52463194   -6.3112183    128.86414  0.023446897  0.022506853           55 
  459000   0.54206202   -6.3138823    128.86738  0.023396402  0.022441574           88 
  460000   0.53690913   -6.3332727    128.59476  0.023296151  0.022376486           77 
  461000   0.52688594   -6.3496551    128.66609  0.023258512  0.022311351           29 
  462000   0.52288099   -6.3445252    128.09766  0.023105638  0.022246439           98 
  463000   0.52887838   -6.3510697    128.46292  0.023121476  0.022181747          129 
  464000   0.52086591   -6.3382574    128.46991  0.023072901  0.022117189           94 
  465000    0.5306216   -6.3712476    128.59939  0.023046486  0.022052904          112 
  466000   0.53228542   -6.3663306    128.54405  0.022987133  0.021988718           99 
  467000   0.52385863   -6.3674482    128.44584  0.022920386  0.021924654          150 
  468000   0.52653259   -6.3595231    128.72891  0.022921814  0.021860797          110 
  469000   0.52206078   -6.3604806    128.46971  0.022826886  0.021797248           74 
  470000   0.50642429   -6.3851733    128.61015  0.022803219  0.021733751          117 
  471000   0.51043369   -6.3800303    128.52955  0.022740542  0.021670452           82 
  472000   0.51220366   -6.3841179    128.55381  0.022696647    0.0216074          159 
  473000   0.52026934   -6.3947739    128.45872   0.02263191  0.021544456          182 
  474000    0.5078925   -6.3775529    128.48202   0.02258826  0.021481721           74 
  475000   0.50419389   -6.3814845     128.2183  0.022494439  0.021419128          196 
  476000   0.50843387   -6.3985165    128.43785  0.022485617  0.021356461           69 
  477000   0.51065581   -6.4015864    128.31944  0.022417793  0.021293936          225 
  478000   0.49970115    -6.401831    128.18172  0.022346883  0.021231646          116 
  479000   0.49946405   -6.4165626     128.4101  0.022339961  0.021169535          168 
  480000   0.50317084   -6.4039414    128.55682  0.022318892  0.021107709           69 
  481000   0.50189661   -6.3985759    128.42408  0.022249494   0.02104603          132 
  482000   0.50393596   -6.4113183    128.24616  0.022172573  0.020984426          128 
  483000   0.49565317   -6.4180308    128.29102  0.022134407  0.020923012           96 
  484000    0.4849755   -6.4104378    128.05549  0.022048122  0.020861698          126 
  485000    0.5019042   -6.4363579    128.21371  0.022029847  0.020800645          177 
  486000   0.49439569   -6.4416322    128.21255  0.021984318  0.020739666           97 
  487000   0.49350155   -6.4345478    128.18152  0.021933867  0.020678815          207 
  488000   0.49813015   -6.4507773    128.00052  0.021858013  0.020618166          194 
  489000   0.49057001   -6.4450561    128.00404  0.021813913  0.020557617          220 
  490000   0.47952347   -6.4338869    128.03303  0.021774325  0.020497309           88 
  491000   0.48611089   -6.4649331    128.10588  0.021742343  0.020437146           59 
  492000   0.47155022   -6.4557545    127.98501  0.021677678  0.020377104          130 
  493000   0.49339568   -6.4629823    127.86016  0.021612603  0.020317225           93 
  494000   0.49425025    -6.451135    127.95156  0.021584271  0.020257517          192 
  495000   0.48307744   -6.4679118    127.99236  0.021547535  0.020197984           97 
  496000   0.48562764    -6.474625    127.81348  0.021474038  0.020138701          121 
  497000   0.46976289   -6.4670768    127.75052  0.021420275  0.020079516          220 
  498000   0.46598287   -6.4868839    127.87706  0.021398436  0.020020617          140 
  499000   0.47188089   -6.4724804    127.83117   0.02134789  0.019961838          169 
  500000   0.47807141   -6.4736614    127.90628  0.021317713  0.019903185          179 
  501000    0.4691394   -6.4815972    127.60199  0.021224549  0.019844695          111 
  502000   0.46621329   -6.4895523    127.80759    0.0212164  0.019786416          119 
  503000   0.46660288   -6.4962094    127.50736  0.021124479  0.019728337          229 
  504000   0.46487915   -6.5087263     127.8385  0.021137319   0.01967043          152 
  505000   0.46793671   -6.4898048    127.62719  0.021060592  0.019612713          175 
  506000     0.462788   -6.5002503    127.65623  0.021023754   0.01955515          318 
  507000   0.45972493   -6.4909399    127.60817  0.020974386  0.019497866          220 
  508000   0.45495461   -6.5190102    127.65148  0.020940203  0.019440657          293 
  509000   0.46102019   -6.5008198     127.6896  0.020905304  0.019383681          227 
  510000   0.44738418    -6.492836    127.68745  0.020863963  0.019326968          337 
  511000   0.45093956   -6.5053285    127.89004  0.020856171  0.019270481          184 
  512000   0.45245773   -6.5232493    127.73521  0.020790235  0.019214189          300 
Loop time of 1277.6 on 48 procs for 500000 steps with 4000 atoms

Performance: 67627.020 tau/day, 391.360 timesteps/s
99.4% CPU use with 48 MPI tasks x no OpenMP threads

MPI task timing breakdown:
Section |  min time  |  avg time  |  max time  |%varavg| %total
---------------------------------------------------------------
Pair    | 88.44      | 96.599     | 103.23     |  33.1 |  7.56
Neigh   | 8.7861     | 9.0922     | 9.5367     |   5.5 |  0.71
Comm    | 84.234     | 88.939     | 97.118     |  35.9 |  6.96
Output  | 0.89795    | 0.89873    | 0.92022    |   0.3 |  0.07
Modify  | 1064.8     | 1070.3     | 1076.3     |   7.1 | 83.77
Other   |            | 11.8       |            |       |  0.92

Nlocal:        83.3333 ave          90 max          75 min
Histogram: 1 0 5 5 9 3 13 2 7 3
Nghost:        2374.79 ave        2394 max        2352 min
Histogram: 1 2 2 5 6 15 6 7 2 2
Neighs:        16307.8 ave       19263 max       14125 min
Histogram: 3 10 5 5 7 5 4 5 2 2
FullNghs:      32614.6 ave       35480 max       29542 min
Histogram: 1 3 5 9 4 7 8 5 3 3

Total # of neighbors = 1565503
Ave neighs/atom = 391.37575
Neighbor list builds = 26856
Dangerous builds = 0

#clear
#
#next RN
#
#jump SELF
Total wall time: 0:21:21
