
units lj                  # Use reduced LJ style units
atom_style atomic         # Uncharged point particles
atom_modify map hash      # Needed for indexing of clusters etc
                          # Used to be able to find where atoms are in relation to each other.

lattice fcc 1.0 spacing 1 1 1
Lattice spacing in x,y,z = 1.5874011 1.5874011 1.5874011
region box block 0 10 0 10 0 10 units lattice
create_box 2 box
Created orthogonal box = (0.0000000 0.0000000 0.0000000) to (15.874011 15.874011 15.874011)
  3 by 4 by 4 MPI processor grid
create_atoms 1 box
Created 4000 atoms
  using lattice units in orthogonal box = (0.0000000 0.0000000 0.0000000) to (15.874011 15.874011 15.874011)
  create_atoms CPU = 0.019 seconds
set type 1 type/fraction 2 0.03 78393
Setting atom values ...
  125 settings made for type/fraction
mass 1 1.0
mass 2 1.0
pair_style lj/cut  3.5
pair_modify tail  yes
pair_coeff 1  1  1.0  1.0   # Intearaction between 1 and 1 set with epsilon = 1 and sigma = 1
pair_coeff 1  2  1.5  0.8
pair_coeff 2  2  0.5  0.88

write_data data.0
System init for write_data ...
Neighbor list info ...
  update every 1 steps, delay 10 steps, check yes
  max neighbors/atom: 2000, page size: 100000
  master list distance cutoff = 3.8
  ghost atom cutoff = 3.8
  binsize = 1.9, bins = 9 9 9
  1 neighbor lists, perpetual/occasional/extra = 1 0 0
  (1) pair lj/cut, perpetual
      attributes: half, newton on
      pair build: half/bin/atomonly/newton
      stencil: half/bin/3d
      bin: standard
WARNING: Not all mixed pair coeffs generated from mixing. Use write_data with 'pair ij' option to store all pair coeffs. (../write_data.cpp:312)


#############################
#   M E L T   S Y S T E M   #
#############################

velocity all create 2.4 3143649 mom yes dist gaussian # Assign velocities
                                                    # Temperature 2.4, random number seed, zero linear momentum
                                                                                # Gaussian distribution

timestep 0.002   # simulation timestep
thermo 1000       # output thermodynamic data every 1000 steps bf 100

# Define a fix  in this case with index 1 applied to all
# particles in the simulation. This fix is for simulations
# in the anisotropic NPT ensemble. Note that we use the MTK
# correction.
fix 1 all npt temp 2.4 2.4 0.1 iso 5.68 5.68 0.5 mtk yes tchain 5 pchain 5 # Use NPT ensemble
                                                                         # Set temperature and pressure and damping
                                                                         # Numbers of thermostats in chain and in barostat
run 10000          # run for 10000 steps
Per MPI rank memory allocation (min/avg/max) = 3.642 | 3.644 | 3.648 Mbytes
Step Temp E_pair E_mol TotEng Press Volume 
       0          2.4    -8.178823            0    -4.579723   -2.4950487         4000 
    1000    2.3934137   -4.4999374            0  -0.91071434    5.5091459    5089.1906 
    2000     2.378796   -4.4021354            0  -0.83483346    5.8213302    5113.6262 
    3000    2.4028598   -4.4416511            0  -0.83826255    5.4506893    5140.2819 
    4000    2.4250178   -4.4137863            0  -0.77716891    5.9374831    5088.2671 
    5000    2.4087831    -4.494221            0  -0.88194967    5.8284954    5058.9107 
    6000    2.3878115   -4.4423948            0  -0.86157299    5.6384381    5105.5585 
    7000    2.4571174   -4.4117094            0  -0.72695466    5.9456642    5092.9582 
    8000    2.4099865    -4.476176            0  -0.86209998    5.5583671     5107.974 
    9000    2.3844004   -4.4259796            0  -0.85027315    5.6437659    5121.2068 
   10000    2.4217826   -4.4402076            0  -0.80844199     5.786684    5093.6831 
Loop time of 2.12237 on 48 procs for 10000 steps with 4000 atoms

Performance: 814183.756 tau/day, 4711.712 timesteps/s
99.6% CPU use with 48 MPI tasks x no OpenMP threads

MPI task timing breakdown:
Section |  min time  |  avg time  |  max time  |%varavg| %total
---------------------------------------------------------------
Pair    | 0.84256    | 0.92232    | 1.111      |   4.7 | 43.46
Neigh   | 0.16555    | 0.17349    | 0.20679    |   1.8 |  8.17
Comm    | 0.52883    | 0.74226    | 0.83892    |   6.6 | 34.97
Output  | 0.00023663 | 0.00024381 | 0.0003933  |   0.0 |  0.01
Modify  | 0.23459    | 0.26995    | 0.33202    |   5.1 | 12.72
Other   |            | 0.01412    |            |       |  0.67

Nlocal:        83.3333 ave          91 max          76 min
Histogram: 3 3 6 5 10 5 4 4 4 4
Nghost:        1404.00 ave        1422 max        1387 min
Histogram: 1 2 7 7 10 6 5 6 3 1
Neighs:        7477.52 ave        8593 max        6725 min
Histogram: 6 3 9 9 7 2 5 2 3 2

Total # of neighbors = 358921
Ave neighs/atom = 89.730250
Neighbor list builds = 902
Dangerous builds = 182

# Equilibrate just above the melting temperature to avoid step fn in T

fix 1 all npt temp 1.25 1.25 0.1 iso 5.68 5.68 0.5 mtk yes tchain 5 pchain 5
run 2000
Per MPI rank memory allocation (min/avg/max) = 3.643 | 3.645 | 3.648 Mbytes
Step Temp E_pair E_mol TotEng Press Volume 
   10000    2.4217826   -4.4402076            0  -0.80844199     5.786684    5093.6831 
   11000    1.2320134   -5.9342788            0   -4.0867208    5.8327748    4227.5376 
   12000    1.2569947   -5.9380883            0   -4.0530677    5.5861788    4246.3952 
Loop time of 0.447337 on 48 procs for 2000 steps with 4000 atoms

Performance: 772571.366 tau/day, 4470.899 timesteps/s
99.7% CPU use with 48 MPI tasks x no OpenMP threads

MPI task timing breakdown:
Section |  min time  |  avg time  |  max time  |%varavg| %total
---------------------------------------------------------------
Pair    | 0.19431    | 0.20919    | 0.23094    |   1.8 | 46.76
Neigh   | 0.030718   | 0.031954   | 0.035343   |   0.5 |  7.14
Comm    | 0.12605    | 0.1533     | 0.16884    |   2.6 | 34.27
Output  | 4.7935e-05 | 5.109e-05  | 6.5505e-05 |   0.0 |  0.01
Modify  | 0.041718   | 0.048667   | 0.060212   |   2.1 | 10.88
Other   |            | 0.004176   |            |       |  0.93

Nlocal:        83.3333 ave          90 max          77 min
Histogram: 3 2 7 9 5 6 6 2 3 5
Nghost:        1577.56 ave        1594 max        1552 min
Histogram: 3 1 2 5 6 7 4 4 8 8
Neighs:        8971.31 ave        9973 max        8096 min
Histogram: 3 2 7 9 6 7 6 2 4 2

Total # of neighbors = 430623
Ave neighs/atom = 107.65575
Neighbor list builds = 143
Dangerous builds = 5

#############################
# L I N E A R  Q U E N C H  #
#############################

# Define solid atoms. This closely follows ten Wolde  Ruiz-Montero and Frenkel  Faraday Discuss  1996  104  93-110
# Compute components of the per-atom q6 vector
compute q6 all orientorder/atom degrees 1 6 components 6 nnn NULL cutoff 1.3 # compute the Q6 parameter.
                                                                             # Use all neighbours within 1.3 unit cell.

# get number of connections
compute coord_number all coord/atom orientorder q6 0.5

# An atom is solid if it has 8 or more connections (of a possible 14)
variable is_solid atom c_coord_number>=8
group solid dynamic all var is_solid    # Must be dynamic to update
dynamic group solid defined

# do clustering
compute cluster solid cluster/atom 1.3 # Create a cluster where all atoms within are solid and max 1.3 units from another member

# define chunks one chunk per cluster
compute clus_chunks solid chunk/atom c_cluster nchunk every compress yes  # Says which atoms are in which chunk

# count the size of each chunk
compute size_chunks solid property/chunk clus_chunks count


# Find the maximum entry in the vector of chunk sizes
variable max_n equal max(c_size_chunks)


# Thermo style which includes this variable
# thermo_style custom step temp pe vol v_max_n

thermo ${N}  # Print the thermo information every 100 steps
thermo 1000  

# Reset the npt fix at a lower temperature (below freezing)
fix 1  all npt temp  ${temp} ${temp}  0.1  iso  5.68  5.68  0.5  mtk yes tchain  5  pchain  5
fix 1  all npt temp  0.45 ${temp}  0.1  iso  5.68  5.68  0.5  mtk yes tchain  5  pchain  5
fix 1  all npt temp  0.45 0.45  0.1  iso  5.68  5.68  0.5  mtk yes tchain  5  pchain  5

dump dmp2 all dcd ${N} traj.dcd
dump dmp2 all dcd 1000 traj.dcd


compute msd all msd com yes
variable twopoint equal c_msd[4]/6/(step*dt+1.0e-6)
fix 9 all vector 10 c_msd[4]
variable fit equal slope(f_9)/6/(10*dt)
thermo_style custom step temp pe c_msd[4] v_twopoint v_fit v_max_n

fix 1 all npt temp 1.25 ${temp} 0.1 iso 5.68 5.68 0.5 mtk yes tchain 5 pchain 5
fix 1 all npt temp 1.25 0.45 0.1 iso 5.68 5.68 0.5 mtk yes tchain 5 pchain 5
run 500000 # 5000000  # Run for this many steps
Neighbor list info ...
  update every 1 steps, delay 10 steps, check yes
  max neighbors/atom: 2000, page size: 100000
  master list distance cutoff = 3.8
  ghost atom cutoff = 3.8
  binsize = 1.9, bins = 9 9 9
  4 neighbor lists, perpetual/occasional/extra = 1 3 0
  (1) pair lj/cut, perpetual
      attributes: half, newton on
      pair build: half/bin/atomonly/newton
      stencil: half/bin/3d
      bin: standard
  (2) compute orientorder/atom, occasional
      attributes: full, newton on
      pair build: full/bin/atomonly
      stencil: full/bin/3d
      bin: standard
  (3) compute coord/atom, occasional
      attributes: full, newton on
      pair build: full/bin/atomonly
      stencil: full/bin/3d
      bin: standard
  (4) compute cluster/atom, occasional
      attributes: full, newton on
      pair build: full/bin/atomonly
      stencil: full/bin/3d
      bin: standard
Per MPI rank memory allocation (min/avg/max) = 9.734 | 9.738 | 9.743 Mbytes
Step Temp PotEng c_msd[4] v_twopoint v_fit v_max_n 
   12000    1.2569947   -5.9380883 8.5709737e-31 5.9520648e-33 8.3333333e+20            2 
   13000    1.2266001   -5.9937698    0.5596715 0.0035876377  0.045490417            3 
   14000    1.2639212   -5.9490332    1.1018517 0.0065586411  0.046482069            2 
   15000    1.2456195   -5.9767154     1.670619 0.0092812163  0.045356576            5 
   16000    1.2524429   -5.9683288    2.1894426  0.011403346  0.045666468            3 
   17000    1.2559475    -5.976984    2.6826471   0.01315023  0.044909642            9 
   18000    1.2345165   -5.9721895    3.1854119  0.014747277  0.044158321            2 
   19000    1.2212955   -5.9532071    3.7748747  0.016556468  0.044145494            6 
   20000    1.2171347    -5.995427    4.2713082  0.017797117  0.044210794            3 
   21000    1.2391509   -5.9708908    4.8802794  0.019366188  0.044360649            5 
   22000    1.2281329   -5.9824779    5.4437683  0.020620334   0.04462518            2 
   23000    1.2455414   -5.9774586    5.9995682  0.021737565   0.04489001            4 
   24000    1.2578799   -6.0103051     6.529657   0.02267242  0.045088442            2 
   25000    1.2339557   -6.0015924    6.9247668  0.023082556  0.045017362            3 
   26000    1.1892881   -6.0491946    7.5345587  0.024149226  0.044914477            1 
   27000     1.236689   -5.9669441    8.1271339  0.025083746  0.044898636            4 
   28000    1.2414677   -6.0122689    8.5540065  0.025458352  0.044873906            2 
   29000    1.1938095   -6.0098331    8.9600318  0.025747217  0.044701698            2 
   30000    1.1985502   -5.9739927    9.4202038  0.026167232  0.044393576            5 
   31000    1.1886079   -5.9800381    9.8656424  0.026520544  0.044035559            4 
   32000    1.2611718   -6.0209468    10.435373  0.027175451  0.043722553            3 
   33000    1.2194023    -6.015168    10.987273  0.027745638  0.043531127            2 
   34000    1.2266984   -6.0590955    11.556791  0.028325468  0.043492077            4 
   35000     1.213518   -5.9979951    12.088662  0.028782528  0.043466805            3 
   36000    1.2343421   -6.0293202    12.477958  0.028884161  0.043369495            6 
   37000     1.200152   -5.9721093    12.999948  0.029279163  0.043270146            4 
   38000     1.182555   -6.0294345    13.674604  0.029988165  0.043238008            4 
   39000    1.2114541   -6.0653483    14.271159   0.03049393  0.043303589            5 
   40000    1.2099896   -5.9998539    14.780092  0.030791858  0.043366418            3 
   41000    1.2119795   -5.9982131    15.300861   0.03109931  0.043423916            2 
   42000    1.2101036   -6.0448313    15.826645  0.031402073   0.04345689            2 
   43000    1.2231423   -6.0622647    16.285299  0.031560657  0.043473936            3 
   44000    1.1939906   -6.0053324    16.836105  0.031886562  0.043461024            6 
   45000    1.1961781   -6.0002231    17.163656  0.031784547  0.043441391            2 
   46000    1.1861474   -6.0444378    17.613012   0.03190763  0.043351925            5 
   47000    1.2090859   -6.0140048     17.99981  0.031914556  0.043243035            2 
   48000    1.1780005   -6.0809831    18.377985  0.031906223  0.043113291            3 
   49000    1.1853872   -6.0286469     18.77687  0.031933452   0.04296075            7 
   50000    1.1474723   -6.0412524    19.474629  0.032457714  0.042822108            4 
   51000    1.1821971   -6.0361116    20.122234  0.032879467  0.042765167            2 
   52000    1.1776077   -6.0502732    20.646846  0.033087894  0.042736336            3 
   53000    1.1838185   -6.0561686    20.983058  0.032992229  0.042688335            5 
   54000    1.1727728   -6.0889111    21.504308  0.033185659  0.042632499           10 
   55000    1.1685379   -6.0697607    22.017379  0.033359666  0.042569874            4 
   56000    1.1987481   -6.0613562    22.536111  0.033535879  0.042513074            2 
   57000    1.1676377   -6.0617698    23.121442  0.033803278  0.042473797            4 
   58000      1.20409   -6.0836339    23.435592  0.033671827  0.042433863            3 
   59000    1.1784154   -6.1123777     24.08654  0.034020537  0.042385122            2 
   60000    1.1771183   -6.0453748    24.487213  0.034010018  0.042355828            7 
   61000    1.1616176   -6.0494486    24.954651  0.034091053  0.042306895            3 
   62000    1.1784459   -6.1118537    25.316514  0.034027572  0.042256897            4 
   63000    1.1556013   -6.0803025    25.739344  0.034046751  0.042191024            2 
   64000     1.141765   -6.1482423    26.266965  0.034201777  0.042129859            5 
   65000    1.1554595   -6.1226546    26.652985  0.034170493  0.042061236            6 
   66000    1.1356192    -6.083061    26.994953  0.034084536  0.041971174            2 
   67000    1.1737793   -6.1059198    27.520691  0.034229715  0.041888802            3 
   68000    1.1456701   -6.1113656    28.041541  0.034364634  0.041811375            2 
   69000    1.1326714   -6.1206951    28.312329  0.034193634  0.041726936            3 
   70000    1.1583503   -6.1641505    28.786982  0.034270216  0.041627626            2 
   71000    1.1483999   -6.0736191    29.239305  0.034318432  0.041542356            8 
   72000    1.1436825    -6.150019    29.509163  0.034154123  0.041452452            4 
   73000    1.1519475   -6.1085271    30.029584  0.034280346  0.041343435            2 
   74000    1.1590987   -6.1225168    30.477783  0.034321828  0.041233342            3 
   75000    1.1621958   -6.0864782    31.011669  0.034457409  0.041144042            2 
   76000    1.1420415   -6.1185546    31.339229   0.03436319  0.041055745            2 
   77000    1.1658684   -6.1249083    31.867556  0.034488696  0.040968898            7 
   78000    1.1811397   -6.1441472    32.306974  0.034515998   0.04088398            8 
   79000    1.1239225   -6.1272843    32.737457  0.034533182  0.040798767            3 
   80000    1.1260614   -6.1378897    33.013205  0.034388755  0.040714179            4 
   81000    1.1545795    -6.141902    33.514216  0.034479646  0.040624083            6 
   82000    1.1560707   -6.1240039    33.893027  0.034444133  0.040525741            3 
   83000    1.1399299   -6.1552473    34.161259  0.034298453  0.040428313            4 
   84000    1.1450583   -6.1255682    34.497343  0.034223555  0.040336664            7 
   85000    1.1291034   -6.1491859    34.846867  0.034163595  0.040230141            5 
   86000     1.148078   -6.1923562    35.369804  0.034273066  0.040128207            4 
   87000    1.1372253   -6.1629292    35.798332  0.034289589  0.040032012            9 
   88000    1.1124073   -6.1110217    36.403586  0.034473092  0.039946265            3 
   89000    1.1183697   -6.1808608    36.734136  0.034395259  0.039862628            5 
   90000    1.1248533   -6.1864232      37.0421  0.034298241  0.039771106            4 
   91000    1.1095092   -6.1511621    37.300246  0.034157735  0.039672336            2 
   92000    1.1205263   -6.1714279    37.656594  0.034109233  0.039572893            3 
   93000    1.1217308   -6.1733406    38.045153  0.034090639  0.039472137            4 
   94000    1.1236475   -6.1304833     38.44378  0.034081365  0.039362198            6 
   95000    1.1021286   -6.2234133    38.749671   0.03399094  0.039246495            5 
   96000    1.1057398   -6.1526859    39.170544  0.034002208  0.039133943            3 
   97000    1.1228844   -6.1761652    39.579791  0.034003257   0.03902942            4 
   98000    1.1364679   -6.1510986    39.863499  0.033897533  0.038929427            4 
   99000    1.0846987   -6.1894847    40.343673  0.033959321  0.038826569            5 
  100000    1.1168039   -6.1894922    40.471915  0.033726596  0.038719002            5 
  101000    1.1157701   -6.1817931    40.864053  0.033716215  0.038616931            2 
  102000    1.0783165   -6.2448416    41.249335  0.033700437  0.038513978            5 
  103000    1.0830168   -6.1883852    41.594152  0.033652226  0.038408327            6 
  104000     1.090107   -6.1904923    41.948549   0.03361262  0.038300278            3 
  105000    1.0914082    -6.178834    42.307864   0.03357767  0.038194707            4 
  106000    1.1014041   -6.1911425    42.784134  0.033635325    0.0380912            5 
  107000    1.0991251   -6.2192031    43.232499   0.03367017   0.03799537            4 
  108000     1.092284   -6.2079523    43.524332  0.033583589  0.037906362            2 
  109000    1.0739475   -6.1832346    43.941358   0.03359431  0.037812559            8 
  110000    1.1151498   -6.2154995    44.188243  0.033475941  0.037718808            5 
  111000    1.1111976   -6.2214973    44.836474  0.033661016  0.037631198            4 
  112000    1.1039165   -6.1941393    45.121088  0.033572238  0.037547821            7 
  113000    1.0857879   -6.2391004    45.512585  0.033563853  0.037459373            8 
  114000    1.0798721   -6.2289084    45.837756  0.033507132  0.037374293            5 
  115000    1.0848006   -6.2450336    46.278671  0.033535269  0.037293946            6 
  116000     1.083615   -6.2102697    46.934449  0.033717277  0.037222921            3 
  117000    1.0979824   -6.2228387    47.170706  0.033597369  0.037154508            4 
  118000    1.0665695   -6.2489546    47.534709   0.03356971  0.037084029            4 
  119000    1.0903299   -6.2081394    47.907259  0.033548501  0.037009889            4 
  120000    1.0644519   -6.2143231    48.094893  0.033399231  0.036934207            8 
  121000    1.0642701   -6.2246407    48.511931  0.033410421  0.036857775           12 
  122000    1.0771984   -6.2576667    48.611471  0.033204557  0.036781708           14 
  123000     1.045332   -6.2563624    49.444111   0.03349872  0.036710951            3 
  124000    1.0574272   -6.2738321    49.933479  0.033557445  0.036650497            2 
  125000    1.0886435   -6.2580688    50.162726  0.033441817  0.036591699            4 
  126000    1.0716311   -6.2655347    50.514313  0.033408937   0.03652907            2 
  127000    1.0397993   -6.2604364    50.707327  0.033272524  0.036460705            3 
  128000    1.0645387   -6.2762628      51.1047  0.033271289  0.036394554            5 
  129000    1.0756116   -6.2809979    51.538674  0.033293717  0.036331889            4 
  130000    1.0459806   -6.2877511    51.701499  0.033141987  0.036266044            2 
  131000    1.0613793   -6.2997756    52.119126   0.03315466  0.036200651            5 
  132000    1.0672785   -6.3175547    52.468016  0.033123748  0.036135786            3 
  133000    1.0562946   -6.2539387      52.6925  0.033015351  0.036067689            4 
  134000    1.0516584   -6.2553021      52.8704  0.032879602  0.035992932            5 
  135000    1.0698155   -6.2879784    53.182934  0.032828971  0.035918403            3 
  136000    1.0340269   -6.3018352    53.600915  0.032843698  0.035848616            7 
  137000     1.046729   -6.2701123    53.822807  0.032738934  0.035772649            8 
  138000    1.0437701   -6.3263052    54.013735  0.032616989  0.035696346            6 
  139000    1.0420751   -6.2779277     54.46525  0.032653028  0.035617653            4 
  140000    1.0443985    -6.289583    55.042812  0.032763579  0.035543156            4 
  141000    1.0395028   -6.3157955    55.166897  0.032604549  0.035469272            2 
  142000    1.0512852   -6.3143791    55.473435  0.032554833  0.035393892            9 
  143000    1.0573591   -6.3332967    55.817349  0.032527592  0.035321878            4 
  144000    1.0397394   -6.3089934    56.073962  0.032450209  0.035248525            3 
  145000    1.0567214   -6.3135156    56.178535  0.032286514  0.035173782            5 
  146000    1.0568167    -6.327397    56.627705  0.032321749  0.035098346            7 
  147000    1.0322924   -6.3431822    56.632544  0.032104617  0.035019334            3 
  148000    1.0143262   -6.3278458    56.903439  0.032040225  0.034938415            8 
  149000    1.0454873   -6.3323554     57.25709  0.032022981  0.034856207            7 
  150000    1.0221835   -6.3355192     57.56127  0.031978483  0.034773785            5 
  151000    1.0192734   -6.3126122    58.010631  0.032014697  0.034693738            6 
  152000    1.0475846   -6.3337553    58.390402  0.032012282  0.034617381            5 
  153000    1.0220301   -6.3461551    58.757971  0.032003252  0.034543267            8 
  154000    1.0359459   -6.3497271     59.03335  0.031944453  0.034470611            3 
  155000    1.0013673   -6.3523399    59.458269  0.031966811  0.034401537            3 
  156000    1.0289934   -6.3905223    59.415854  0.031739238  0.034326665            6 
  157000    1.0164519   -6.3443907     59.81199  0.031747341  0.034253174            8 
  158000    1.0112108   -6.3880002    60.071603  0.031683335  0.034179926            3 
  159000    1.0052139   -6.3458297    60.589809  0.031755665  0.034110059            4 
  160000    1.0146819   -6.3824968     60.86064   0.03169825  0.034040291            3 
  161000    1.0184845    -6.394108    61.288123  0.031722631  0.033971011            9 
  162000    1.0216026   -6.3710456    61.668428  0.031722442  0.033902682            8 
  163000    1.0215547   -6.3714484    61.992668  0.031693593  0.033837399            6 
  164000   0.99640734   -6.3810059    62.299216  0.031656106  0.033773714            6 
  165000    1.0140492    -6.380177    62.465047  0.031548003  0.033707471            5 
  166000    1.0112825   -6.3834244    62.659925  0.031455785  0.033639871           11 
  167000   0.99400002    -6.350531    62.852527  0.031363536  0.033568422            3 
  168000    1.0006984   -6.3556777    63.122633   0.03131083   0.03349723            6 
  169000   0.98006839   -6.3978498    63.304367  0.031215171  0.033423143            3 
  170000   0.98592205   -6.3932195    63.361516  0.031059567  0.033349796            5 
  171000    1.0133441   -6.4227287     63.83162  0.031107027  0.033277536            3 
  172000   0.98182517   -6.4154673    63.935161  0.030976337  0.033205292            7 
  173000    1.0095241   -6.3666599    64.262931  0.030955169  0.033131731            3 
  174000   0.99999497   -6.3927572    64.793688   0.03103146  0.033061822            7 
  175000   0.98953384    -6.389313    65.229586  0.031061708   0.03299461            4 
  176000   0.96779312   -6.4244198     65.46014  0.030994384  0.032929765            4 
  177000   0.99943487   -6.3825216    65.815546  0.030986604  0.032863566            7 
  178000   0.97649394   -6.4076446    65.670338   0.03074454  0.032794158           10 
  179000   0.97489297   -6.4139877    65.990258  0.030721722  0.032724362            5 
  180000   0.96238545   -6.4134071    66.119913  0.030611071  0.032654672           12 
  181000   0.98494029   -6.4191738    66.614641  0.030669724  0.032585836           12 
  182000   0.99327449   -6.4166413    66.592307  0.030490983  0.032514591            5 
  183000   0.96712324   -6.4310389    66.994582  0.030507551  0.032445576            7 
  184000   0.97184092    -6.415824    67.401506  0.030526044  0.032377831            6 
  185000   0.97480764   -6.4485725    67.502421  0.030406496    0.0323103            7 
  186000   0.97607279   -6.4387529    67.576113  0.030276036  0.032240263           11 
  187000   0.97279718   -6.4292111    68.002293  0.030304052  0.032169991            4 
  188000   0.94570497   -6.4336377    68.270961  0.030261951  0.032102437            5 
  189000   0.95815782   -6.4169283    68.855259  0.030359462  0.032037683            4 
  190000   0.96239645   -6.4695418    69.047029  0.030283784  0.031974002            8 
  191000   0.96448254   -6.4300688    69.445434  0.030299055  0.031910069           12 
  192000   0.94678553   -6.4630609     69.37154  0.030109175  0.031846956            7 
  193000   0.96613837   -6.4761437    69.812184   0.03014343  0.031782658            6 
  194000    0.9588238    -6.476591    69.947477  0.030046167  0.031716684            9 
  195000   0.93114232   -6.4882625     70.05711  0.029938936  0.031649828            5 
  196000   0.97277074   -6.4776795    70.238886  0.029863472  0.031582222           11 
  197000   0.96389616   -6.5002648    70.547408  0.029842389  0.031515694            9 
  198000   0.97317552   -6.5023318    70.793529  0.029795256  0.031448868            6 
  199000   0.96697194   -6.4886286    70.979152  0.029723263   0.03138217            8 
  200000   0.94867894   -6.4982537    71.217184  0.029673827  0.031315005            8 
  201000   0.94622716   -6.4702238    71.324619  0.029570737   0.03124554           14 
  202000   0.95586162   -6.5037044    71.342711  0.029431811  0.031174851           14 
  203000    0.9371725   -6.4599437    71.606374  0.029395063  0.031103734            7 
  204000   0.93356659   -6.4937558    71.786712  0.029324637  0.031034294            6 
  205000   0.94814243   -6.5213278    71.955114  0.029250046  0.030964101           13 
  206000   0.94135298   -6.4948615    72.137112  0.029181679  0.030893308           17 
  207000    0.9605871    -6.502129    72.426998  0.029157407  0.030820957            8 
  208000   0.92294254   -6.4735307    72.605494   0.02908874  0.030749387            5 
  209000   0.94763172   -6.5477599    72.670179  0.028975351  0.030676105           11 
  210000   0.92156778   -6.4718885    73.213039  0.029052793  0.030603736            6 
  211000   0.92988429   -6.5051974    73.534086  0.029041898  0.030533941            7 
  212000   0.93753502    -6.521558    73.612305  0.028935654  0.030465191           11 
  213000   0.93071411   -6.5652681    73.495124  0.028753961  0.030393056            7 
  214000   0.92351757      -6.5441    73.529159   0.02863285  0.030319751           10 
  215000   0.91488202    -6.483252    73.702323  0.028566792  0.030245665            4 
  216000   0.93045342   -6.5190152    74.097507  0.028587001  0.030172399            7 
  217000   0.92387942   -6.5324998    74.280737  0.028525628  0.030100103            4 
  218000   0.93810075   -6.5516799    74.604382  0.028518495  0.030028003            4 
  219000   0.91187693   -6.5403684    74.677764  0.028416196  0.029956078            8 
  220000   0.91734236   -6.5552459    74.930383  0.028382721  0.029885751            5 
  221000   0.92201263   -6.5490097    75.031609  0.028292462  0.029814338            5 
  222000   0.92278693   -6.5454616    75.091927   0.02818766  0.029742435            6 
  223000    0.9058145   -6.5580505    75.155095  0.028084864  0.029669614           17 
  224000   0.90830787   -6.5842929    75.284788  0.028007734  0.029595977            5 
  225000   0.90013469    -6.574782    75.587491  0.027995367  0.029523094           10 
  226000   0.90534266    -6.543113    75.627162  0.027886122  0.029450102            3 
  227000   0.89485114   -6.5509823    76.021254  0.027907949  0.029377568            9 
  228000   0.89628368   -6.5506616    76.101815  0.027814991  0.029305482            8 
  229000   0.92491727   -6.6005523    76.308009  0.027768562  0.029232953            9 
  230000   0.89294121   -6.6093124     76.46888  0.027706116   0.02915905            8 
  231000   0.91026997   -6.5824597    76.448331  0.027578763  0.029083976           10 
  232000   0.90872165   -6.6304344    76.333702  0.027418715  0.029008577            9 
  233000   0.90865839   -6.5746212    76.533203   0.02737239  0.028931898            4 
  234000   0.88842248   -6.5290028    76.679908  0.027307659  0.028855484           17 
  235000     0.904315   -6.5816048    76.789272  0.027230238  0.028779135           38 
  236000   0.90619498   -6.5833063    76.972855   0.02717968  0.028703751           25 
  237000   0.84893781   -6.6079841    77.114476  0.027114795  0.028627595            6 
  238000   0.88632349   -6.5629336    77.242535  0.027045706  0.028550322            5 
  239000   0.87169702   -6.6286257    77.125871  0.026891866  0.028471601           10 
  240000    0.8889745   -6.5677821    77.542078  0.026924333  0.028393206           13 
  241000    0.8805547   -6.5880833    77.666792  0.026855737  0.028316717           12 
  242000   0.88507922   -6.6195102     77.74076  0.026770234  0.028239781           10 
  243000   0.89263966   -6.6173752    77.797244  0.026679439  0.028161913            8 
  244000   0.88661575   -6.6464579    77.753259  0.026555075  0.028083932           21 
  245000   0.86774594   -6.6219476    78.192037  0.026595931  0.028006934            6 
  246000   0.87083191   -6.6315263    78.478653  0.026584909  0.027931587            7 
  247000   0.87640499   -6.6285431    78.403729     0.026452  0.027856214           11 
  248000    0.8818238   -6.6487855    78.586501  0.026406754  0.027780711           13 
  249000   0.86644658   -6.6758933    78.566734  0.026294088  0.027705004           13 
  250000   0.86182736   -6.6096858    78.811496  0.026270499  0.027629381            7 
  251000   0.88084179   -6.6592509    78.788954  0.026158351  0.027552743            5 
  252000   0.84054367   -6.6227289    79.160119  0.026177288  0.027476738           18 
  253000   0.87069545   -6.6413199    79.225837  0.026095467  0.027401381           12 
  254000   0.84283857   -6.6581062    79.116427  0.025956833  0.027325311            9 
  255000   0.87745535   -6.6643082    79.089052  0.025846096  0.027248628           12 
  256000   0.85583569    -6.686549    79.484794  0.025873956  0.027172408            7 
  257000   0.87152339   -6.6411662    79.549637  0.025794305  0.027096876           15 
  258000   0.85595782   -6.6555608    79.807006  0.025777457  0.027022987           11 
  259000   0.84599234   -6.6662709      80.1011  0.025772555   0.02694957           19 
  260000   0.84461637   -6.6805746    80.170924  0.025695809  0.026875645           11 
  261000   0.86467671   -6.6691728    80.273653  0.025630157  0.026800811           12 
  262000    0.8514252   -6.6505809    80.230107  0.025518482   0.02672552           11 
  263000   0.86105972   -6.6702079    80.131956  0.025390354  0.026649588           14 
  264000    0.8518078   -6.6739049    80.321876  0.025354127  0.026574251           18 
  265000    0.8472042   -6.6304581    80.540526  0.025327209  0.026499345            9 
  266000   0.85355625   -6.6709017    80.378226  0.025181148  0.026423908           12 
  267000   0.83101974   -6.6906957    80.486706  0.025120695   0.02634822           13 
  268000   0.83631596   -6.7117753    80.453409  0.025016607  0.026272608           16 
  269000   0.83513257   -6.7221335    80.604197  0.024970321  0.026196786           10 
  270000    0.8395297   -6.6929597    80.742813  0.024920621  0.026120924           15 
  271000   0.82137067   -6.7216029    80.879223   0.02487061  0.026045416            8 
  272000   0.83368758   -6.7050442    81.222538  0.024884356  0.025970573            8 
  273000   0.82936866   -6.7037293    81.384263  0.024842571  0.025896616            8 
  274000   0.83514941   -6.7014225    81.302514  0.024727042  0.025822999            8 
  275000   0.84752615   -6.7438738    81.520215  0.024703095  0.025749238           29 
  276000   0.83150055   -6.7008132    81.588972  0.024634352  0.025675409           24 
  277000    0.8353103   -6.7439314     81.74288  0.024591721  0.025601644           12 
  278000    0.8429774   -6.7099506    81.730256  0.024499477  0.025528384           15 
  279000   0.83458276    -6.733077    81.901616  0.024462848  0.025455461            5 
  280000   0.81956888   -6.7324882    81.923911  0.024382116  0.025382681           16 
  281000   0.80335181   -6.7501848    81.939686  0.024300025  0.025309884           14 
  282000   0.82206371   -6.7431646    82.163878  0.024280106  0.025237097           24 
  283000    0.8077893   -6.7356368    82.328624  0.024242822  0.025164399           23 
  284000   0.82138461   -6.7289286    82.339767   0.02416073  0.025092508           17 
  285000   0.81088445   -6.7126105    82.310821  0.024067491  0.025020723           14 
  286000   0.80490139   -6.7347253    82.549901  0.024053001  0.024949098           10 
  287000   0.80403858   -6.7430861    82.517309   0.02395973  0.024877556           11 
  288000      0.80355   -6.7391444     82.70874  0.023931927   0.02480596            9 
  289000   0.80093135   -6.7269652    82.833586  0.023885117  0.024735136            9 
  290000   0.79834937   -6.7740287    82.781574  0.023787809   0.02466366           20 
  291000    0.7880822   -6.7811789    82.885314  0.023735772  0.024592051           28 
  292000   0.79678871   -6.7849355    82.878037  0.023652408   0.02452083           24 
  293000   0.79958691   -6.7843544    82.627223  0.023500348  0.024449326           20 
  294000   0.80550915    -6.742218    82.817726  0.023474412   0.02437716            9 
  295000   0.78899483   -6.7685542    82.852945  0.023404787  0.024305594            9 
  296000   0.80500411   -6.7822704    83.154126  0.023410508  0.024234207           11 
  297000   0.78857936   -6.7676707    83.174276  0.023337339  0.024162908           14 
  298000   0.80538005   -6.8084836    83.253928    0.0232813  0.024091903           13 
  299000   0.78255152   -6.7977192    83.328958  0.023224347  0.024021067           25 
  300000   0.80131334   -6.7836839    83.463179  0.023184216  0.023950527            8 
  301000   0.77544819    -6.820117    83.411349  0.023092843  0.023880444           52 
  302000    0.7910042   -6.7936682    83.444339   0.02302548  0.023810677           19 
  303000   0.78040841   -6.7914789    83.451264  0.022951393  0.023741127           27 
  304000   0.77914736   -6.8012073     83.64864      0.02293   0.02367101           20 
  305000   0.78094595   -6.8068442    83.621369  0.022847369  0.023601006           10 
  306000   0.77452454    -6.808712    83.703332  0.022795025   0.02353133           17 
  307000   0.77139938   -6.8023499     83.90662  0.022775955   0.02346246           12 
  308000   0.78080494   -6.8114294    83.923192  0.022706491  0.023393018           13 
  309000   0.76608883   -6.8194075    84.258607  0.022723465  0.023324821           29 
  310000   0.76670988   -6.8270599    84.101847  0.022608023  0.023256994           18 
  311000    0.7769267   -6.8184055    84.188549  0.022558561  0.023189638           22 
  312000   0.76633402   -6.8378012    84.154589  0.022477187  0.023121459           26 
  313000    0.7907858    -6.819712    84.178687  0.022411791  0.023053126           21 
  314000   0.76838297   -6.8543362    84.415261  0.022403201  0.022984537           13 
  315000   0.76134037   -6.8207855    84.369185   0.02231989  0.022916018           14 
  316000   0.75958506   -6.8327691     84.29187  0.022228869  0.022848134           26 
  317000   0.76539713   -6.7987117    84.387799  0.022183964  0.022780413           23 
  318000   0.76531004   -6.8548888     84.48377  0.022139353  0.022712602           21 
  319000   0.75879767   -6.8590712    84.572249  0.022093064  0.022644859           27 
  320000   0.74575256   -6.8677391    84.567632  0.022022821  0.022577205           22 
  321000    0.7406459   -6.8644344    84.670615  0.021980949   0.02250972           22 
  322000   0.74705153    -6.841459    84.846793   0.02195828  0.022442662           16 
  323000   0.74312525   -6.8533051    84.940312  0.021914425   0.02237583           41 
  324000   0.74235791   -6.8695706    84.653046  0.021772903  0.022308808           28 
  325000   0.76844559   -6.8838477     84.65796  0.021707169  0.022241696           12 
  326000   0.74750584   -6.8818069    84.870806  0.021694991  0.022174804           28 
  327000   0.74299665   -6.8873505     84.67106  0.021577742  0.022107727           66 
  328000   0.73495146   -6.9100923    84.787462   0.02154153  0.022040534           54 
  329000   0.73309455   -6.8718723    84.809981  0.021481758  0.021973346           50 
  330000   0.73540761   -6.9088754    84.850813  0.021426973  0.021906218           45 
  331000   0.72708236   -6.8909727    85.143499  0.021435926  0.021839368           42 
  332000   0.73875144   -6.9288687    84.705727  0.021261478  0.021772408           57 
  333000   0.72792961   -6.9162967    84.970064   0.02126378  0.021705384           40 
  334000   0.71921932   -6.9027611    85.044696  0.021218737  0.021639372           43 
  335000   0.71604385   -6.8938677    84.881816  0.021114879  0.021572889           23 
  336000   0.72265083   -6.9086959    85.189408  0.021128325  0.021506779           18 
  337000   0.73974244   -6.9062228    85.317197   0.02109723  0.021440732           31 
  338000   0.73228372   -6.9120263    85.251789  0.021018686  0.021374977           18 
  339000   0.72835411    -6.897787    85.101482  0.020919735   0.02130935           13 
  340000   0.72250444   -6.9095959      85.3293  0.020914044  0.021244512           22 
  341000   0.71007756    -6.911355    85.199257  0.020820933  0.021179509           42 
  342000   0.72516076   -6.9004493     85.34971  0.020796713  0.021114626            8 
  343000   0.72016933   -6.9199921     85.09192   0.02067345  0.021049652           27 
  344000   0.71715074   -6.9128453    85.274572    0.0206576  0.020984686           52 
  345000   0.71541787   -6.9350849    85.342411  0.020614109  0.020920255           17 
  346000   0.71238718   -6.9354063    85.480077  0.020587687  0.020856167           23 
  347000   0.71936718    -6.937667    85.399468  0.020508998  0.020792199           14 
  348000   0.70914893   -6.9246072    85.229596  0.020409386   0.02072802           21 
  349000   0.72174218   -6.9333309    85.402089  0.020392094  0.020663585           23 
  350000   0.70650053   -6.9400549    85.487083  0.020354067  0.020599564           48 
  351000   0.69636261   -6.9320969    85.501494    0.0202995  0.020536109           20 
  352000   0.71999035   -6.9709672    85.376334    0.0202122  0.020472435           11 
  353000   0.71767648   -6.9615908       85.549  0.020195704   0.02040884           47 
  354000   0.70027304   -6.9758617    85.567315  0.020142965  0.020345399           40 
  355000   0.70545663   -6.9775534    85.514605  0.020073851  0.020282282           73 
  356000   0.70007488   -6.9664212     85.68651  0.020057704   0.02021929           28 
  357000   0.69688826   -6.9849674    85.709825  0.020006962  0.020156296           40 
  358000   0.69294195   -6.9854574    85.325161  0.019861536  0.020093391           33 
  359000   0.69109145   -6.9771884    85.532843   0.01985442  0.020030249           41 
  360000   0.69451138   -6.9812734    85.395036  0.019767369  0.019966946           41 
  361000   0.68037038   -6.9943776    85.455175  0.019726495  0.019903885           65 
  362000   0.68459398   -6.9817269    85.406909  0.019660891  0.019840993           63 
  363000   0.67973747   -7.0039791    85.631428  0.019658271  0.019778386           86 
  364000   0.69749066   -6.9788445    85.466012  0.019566395  0.019716049          151 
  365000   0.67704635   -6.9959389     85.72323  0.019571514  0.019653955           61 
  366000   0.67472893   -7.0016097    85.852663   0.01954751  0.019592564          184 
  367000   0.68522909   -7.0245956    85.687327  0.019456705  0.019531088          221 
  368000   0.66498335   -7.0487484    85.901985  0.019452442  0.019469857          323 
  369000   0.67201397   -7.0070333    85.757879  0.019367181   0.01940881          232 
  370000   0.66761633   -7.0231786    85.719232  0.019306133  0.019348074          142 
  371000   0.67712297   -7.0310067    85.713205  0.019252741  0.019287587          274 
  372000   0.68328828   -7.0395416    85.940674  0.019251943  0.019227422          349 
  373000   0.67306045   -7.0461185    86.010775  0.019215991  0.019167458          412 
  374000    0.6759575   -7.0642022    86.043452  0.019171892  0.019107981          515 
  375000   0.67936921   -7.0478658    85.993662  0.019109703  0.019048519          453 
  376000   0.65828554    -7.058986    86.165119  0.019096879  0.018989275          352 
  377000   0.66383228   -7.0517743    86.043337  0.019019305  0.018930228          301 
  378000    0.6686709   -7.0821701    86.249207  0.019014375  0.018871181          415 
  379000   0.65426262   -7.0729039    86.061083  0.018922842  0.018812202          386 
  380000   0.66446859   -7.0768883    86.123858  0.018886811  0.018753601          455 
  381000   0.64466509   -7.0801258     86.03265   0.01881729  0.018695022          418 
  382000   0.66343774   -7.0931857    85.999015  0.018760693  0.018636556          518 
  383000   0.65537289    -7.078382        85.95  0.018701044  0.018578116          520 
  384000   0.65180784   -7.0880195    86.143909  0.018694425  0.018519978          555 
  385000   0.65913106   -7.0885316    86.123662  0.018641485  0.018461933          600 
  386000   0.63892259   -7.1182679    86.275208  0.018625909  0.018404207          603 
  387000   0.65783428   -7.0868428    86.036339  0.018526343  0.018346496          549 
  388000   0.63727733   -7.0910138    86.269649  0.018528705  0.018289053          544 
  389000   0.65778058   -7.1251265    86.098788   0.01844447  0.018231602          696 
  390000    0.6386246   -7.1277256    86.172863  0.018413005  0.018174201          714 
  391000   0.65966795   -7.1279489    85.973454  0.018323413  0.018116875          855 
  392000   0.65098941   -7.1301849    86.106709  0.018304998  0.018059975          771 
  393000   0.63730845   -7.1256978    86.190075  0.018276097  0.018003151          807 
  394000   0.64058721   -7.1315678    86.029596  0.018195769   0.01794658          904 
  395000   0.64585491   -7.1393895     86.00856  0.018145266  0.017890024          916 
  396000   0.64989134   -7.1314653    86.200715  0.018139881  0.017833742         1027 
  397000    0.6335193   -7.1392307    86.200218  0.018094084  0.017777784         1004 
  398000   0.63135059    -7.174673    86.094627  0.018026513  0.017721832         1040 
  399000   0.64429213    -7.172664     86.20871  0.018005161  0.017666068         1143 
  400000    0.6251271   -7.1724469     86.02006  0.017920846  0.017610422         1197 
  401000   0.62131702   -7.1811697    86.126725  0.017898322  0.017554714         1195 
  402000   0.62343349      -7.1751     85.95216  0.017817612  0.017499076         1123 
  403000   0.62080318    -7.177691    85.952283  0.017773425  0.017443423         1285 
  404000   0.62529265   -7.1752656     85.63545  0.017664078   0.01738787         1143 
  405000   0.63899064   -7.2043348    85.909864  0.017676927  0.017332417         1209 
  406000   0.63183083   -7.2011942     85.84392  0.017619852  0.017277092         1222 
  407000   0.61765457   -7.1926198     85.87857  0.017583655  0.017221884         1304 
  408000    0.6102059   -7.1929563    85.882688  0.017541399  0.017166743         1413 
  409000   0.62319273   -7.2216161    85.841539  0.017490126  0.017111726         1358 
  410000   0.61259416   -7.2004202    85.885139  0.017456329   0.01705687         1484 
  411000   0.61893513   -7.2353077    85.776087  0.017391745  0.017002082         1451 
  412000   0.61217356   -7.2340237    85.668397   0.01732775  0.016947492         1555 
  413000   0.60622444   -7.2340221    85.772494  0.017306799  0.016892906         1544 
  414000    0.6227383   -7.2352858    85.881445  0.017286925  0.016838649         1621 
  415000   0.61291809   -7.2614699    85.775638  0.017224024  0.016784633         1732 
  416000   0.59747971   -7.2505244     85.81696  0.017190897  0.016730729         1667 
  417000   0.60512415   -7.2445323    85.716868   0.01712967  0.016676887         1695 
  418000   0.60040495   -7.2412073    85.760559    0.0170974  0.016623164         1732 
  419000   0.59301723   -7.2754599    85.664766  0.017037543  0.016569619         1797 
  420000   0.58927491   -7.2876599    85.791996  0.017022221  0.016516203         1812 
  421000   0.59986754   -7.2511205    85.716459  0.016966837  0.016462833         1831 
  422000   0.59725122   -7.2744443    85.665273  0.016916523  0.016409548         1842 
  423000   0.57993915   -7.2806497    85.649036  0.016873333  0.016356469         1817 
  424000   0.59321287   -7.2979487    85.571293  0.016818257  0.016303636         1829 
  425000   0.58708207   -7.2969191    85.600263  0.016784365  0.016250945         1933 
  426000   0.58290869   -7.2861405    85.600367  0.016744986  0.016198525         1870 
  427000   0.58994004   -7.3109094    85.620006  0.016709603  0.016146272         1950 
  428000   0.57725544   -7.2984153    85.660909  0.016678526  0.016094229         1889 
  429000   0.58625025   -7.3235265    85.664479  0.016640342  0.016042149         1998 
  430000   0.57526276   -7.3172161    85.609137  0.016590918  0.015990246         1999 
  431000   0.58482681    -7.315103    85.431647  0.016518106  0.015938515         1946 
  432000   0.57712093   -7.3175064    85.568054  0.016506183   0.01588693         1944 
  433000   0.56818625   -7.3167742    85.423284  0.016440201  0.015835472         1955 
  434000   0.56180773   -7.3299966      85.5926  0.016434831  0.015784263         1982 
  435000   0.58019716   -7.3327967    85.645157  0.016407118  0.015733233         1919 
  436000   0.57744903   -7.3389897    85.468803   0.01633578  0.015682444         2084 
  437000    0.5708875   -7.3746228    85.397636  0.016284828  0.015631682         2148 
  438000   0.56169194   -7.3408673    85.464739  0.016260415  0.015580982         2131 
  439000   0.57400028   -7.3428836    85.407923   0.01621259  0.015530552         2189 
  440000   0.58104249   -7.3515436    85.504422  0.016194019  0.015480386         2131 
  441000   0.56956729   -7.3570774    85.444501  0.016145975   0.01543038         2218 
  442000   0.55867748    -7.352739    85.407786  0.016102524  0.015380493         2221 
  443000   0.55528437     -7.35945    85.406107  0.016065859  0.015330742         2184 
  444000   0.54424744   -7.3605287    85.462326  0.016040226  0.015281159         2201 
  445000    0.5475597   -7.3757447     85.38387  0.015989489  0.015231756         2243 
  446000   0.55246249   -7.3747674    85.346969  0.015946743  0.015182527         2208 
  447000   0.55448729   -7.3833152    85.293585  0.015901116  0.015133428         2187 
  448000   0.55538829   -7.3749894    85.391601  0.015883854  0.015084438         2251 
  449000   0.56323794    -7.386769    85.337202  0.015838382  0.015035647         2227 
  450000   0.54538659   -7.3958415     85.41165  0.015816972  0.014986923         2203 
  451000   0.54263139   -7.4022626    85.198297  0.015742479  0.014938388         2318 
  452000    0.5354033   -7.3802333    85.278142  0.015722371  0.014890054         2274 
  453000   0.54823003   -7.3936211    85.238558  0.015680382  0.014841817         2281 
  454000   0.55210304    -7.388575    85.102121    0.0156208  0.014793763         2261 
  455000   0.54310214   -7.3972284    85.202151   0.01560479  0.014745909         2304 
  456000    0.5374202   -7.3955825    85.222827  0.015574347  0.014698168         2314 
  457000   0.54001908   -7.4163909    85.158571  0.015528551  0.014650553         2329 
  458000   0.53435224    -7.389364     85.15881  0.015494689  0.014603131         2273 
  459000   0.53826816       -7.403     85.17284  0.015463479   0.01455588         2327 
  460000   0.53388554   -7.4126486    85.148901  0.015425525  0.014508783         2375 
  461000     0.543889   -7.4040053    85.229935  0.015406713  0.014461873         2389 
  462000    0.5355421   -7.4264695    84.971514  0.015326752  0.014415113         2459 
  463000   0.52762197   -7.4308933    85.225965  0.015339446  0.014368548         2459 
  464000   0.52324741   -7.4379497    85.164707  0.015295386  0.014322178         2471 
  465000   0.52294043   -7.4163505    85.101409  0.015251148   0.01427601         2476 
  466000   0.52927935   -7.4151523    85.152025  0.015227472  0.014230002         2497 
  467000   0.52127746   -7.4188203    85.149573  0.015194428  0.014184218         2405 
  468000   0.52510409   -7.4319451    85.097334  0.015152659  0.014138547         2520 
  469000   0.52156368    -7.440849    85.067752  0.015115095  0.014093023         2555 
  470000   0.50343148   -7.4477684    85.032151  0.015076622  0.014047599         2511 
  471000   0.51994779   -7.4404938    85.135082  0.015062824  0.014002318         2581 
  472000   0.51844175   -7.4432589    85.057986    0.0150173  0.013957187         2588 
  473000   0.50228642    -7.460229    84.992858  0.014974076  0.013912276         2639 
  474000   0.51542998   -7.4494239    84.892027  0.014924759   0.01386753         2658 
  475000   0.50482129   -7.4636972    84.879411  0.014891125  0.013822875         2608 
  476000   0.51496096    -7.474988    84.953477  0.014872808  0.013778386         2638 
  477000    0.5020679   -7.4617773    84.946266  0.014840368  0.013734014         2606 
  478000   0.51142267   -7.4750441    84.795795  0.014783088  0.013689837         2638 
  479000   0.51135494    -7.467398    84.994003  0.014786709  0.013645781         2653 
  480000   0.49925709   -7.4840727    84.967641  0.014751326  0.013601976         2647 
  481000   0.50373299      -7.4976    84.998639  0.014726029  0.013558259         2734 
  482000   0.49835958   -7.4743722    84.953099  0.014687604  0.013514771         2718 
  483000   0.49200145    -7.473546    84.882436  0.014645003  0.013471422         2727 
  484000   0.50175162   -7.4865849    84.889876  0.014616026  0.013428251         2729 
  485000   0.48779637   -7.4941457    84.913674  0.014589978  0.013385202         2711 
  486000    0.4865591   -7.4946698    84.858315  0.014550466   0.01334235         2722 
  487000   0.50241447   -7.5123431    84.834985  0.014516596  0.013299651         2698 
  488000   0.48989609   -7.4971888    84.685173  0.014461266  0.013257007         2765 
  489000   0.48907691   -7.5017298    84.768541    0.0144459  0.013214557         2737 
  490000   0.48529222   -7.5111844    84.768484  0.014416409    0.0131724         2756 
  491000   0.48798646   -7.5075213    84.695868  0.014374723  0.013130325         2831 
  492000   0.47797446   -7.5165594    84.661617  0.014339705   0.01308833         2868 
  493000   0.47318965   -7.5210275    84.667895  0.014311679  0.013046491         2873 
  494000   0.47840005   -7.5245466    84.697696  0.014287735   0.01300481         2874 
  495000   0.48244269   -7.5390198    84.665908   0.01425352  0.012963327         2879 
  496000   0.47023756    -7.541637     84.63634  0.014219815  0.012921947         2805 
  497000   0.47903388   -7.5292539    84.581132  0.014181947   0.01288073         2911 
  498000   0.46163902   -7.5327676    84.628547  0.014161403  0.012839662         2851 
  499000   0.48010327   -7.5414239    84.685545  0.014142543  0.012798754         2878 
  500000    0.4761796   -7.5227078    84.720067  0.014120011  0.012758025         2865 
  501000   0.47206771   -7.5458063    84.726242  0.014092855  0.012717424         2940 
  502000   0.46584862   -7.5591401    84.505281  0.014028101  0.012676936         2897 
  503000   0.46975851   -7.5724813    84.696534  0.014031898   0.01263666         2911 
  504000   0.46734252   -7.5619746    84.548412  0.013979565  0.012596493         2888 
  505000   0.45839135    -7.566509    84.654328  0.013969361  0.012556469         2911 
  506000   0.44665816   -7.5426733    84.504663  0.013917105  0.012516616         2880 
  507000   0.46181485   -7.5736385     84.64051  0.013911984  0.012476913         2920 
  508000    0.4569308   -7.5846374    84.503897  0.013862188  0.012437395         2912 
  509000   0.45847211   -7.5709589    84.674158  0.013862829  0.012397978         2920 
  510000   0.45210253   -7.5867421    84.454459  0.013799748  0.012358748         2960 
  511000   0.44331269   -7.5884119    84.559757  0.013789915  0.012319682         3016 
  512000    0.4400227   -7.5747848    84.381865  0.013734027  0.012280754         2971 
Loop time of 1064.92 on 48 procs for 500000 steps with 4000 atoms

Performance: 81132.905 tau/day, 469.519 timesteps/s
99.4% CPU use with 48 MPI tasks x no OpenMP threads

MPI task timing breakdown:
Section |  min time  |  avg time  |  max time  |%varavg| %total
---------------------------------------------------------------
Pair    | 65.522     | 68.8       | 74.481     |  23.3 |  6.46
Neigh   | 6.6152     | 6.7962     | 6.9965     |   3.1 |  0.64
Comm    | 58.163     | 63.748     | 67.893     |  25.0 |  5.99
Output  | 0.89982    | 0.90032    | 0.90919    |   0.1 |  0.08
Modify  | 906.74     | 912        | 916.82     |   8.8 | 85.64
Other   |            | 12.68      |            |       |  1.19

Nlocal:        83.3333 ave          90 max          77 min
Histogram: 2 3 1 15 5 9 7 0 2 4
Nghost:        1756.42 ave        1777 max        1733 min
Histogram: 4 4 3 2 8 6 5 8 4 4
Neighs:        10621.0 ave       11531 max        9710 min
Histogram: 3 0 4 8 12 6 6 2 4 3
FullNghs:      21240.9 ave       23005 max       19584 min
Histogram: 2 3 5 8 9 7 7 1 2 4

Total # of neighbors = 1019564
Ave neighs/atom = 254.89100
Neighbor list builds = 27011
Dangerous builds = 0

#clear
#
#next RN
#
#jump SELF
Total wall time: 0:17:47
