
units lj                  # Use reduced LJ style units
atom_style atomic         # Uncharged point particles
atom_modify map hash      # Needed for indexing of clusters etc
                          # Used to be able to find where atoms are in relation to each other.

lattice fcc 1.0 spacing 1 1 1
Lattice spacing in x,y,z = 1.5874011 1.5874011 1.5874011
region box block 0 10 0 10 0 10 units lattice
create_box 2 box
Created orthogonal box = (0.0000000 0.0000000 0.0000000) to (15.874011 15.874011 15.874011)
  3 by 4 by 4 MPI processor grid
create_atoms 1 box
Created 4000 atoms
  using lattice units in orthogonal box = (0.0000000 0.0000000 0.0000000) to (15.874011 15.874011 15.874011)
  create_atoms CPU = 0.002 seconds
set type 1 type/fraction 2 0.38 78393
Setting atom values ...
  1537 settings made for type/fraction
mass 1 1.0
mass 2 1.0
pair_style lj/cut  3.5
pair_modify tail  yes
pair_coeff 1  1  1.0  1.0   # Intearaction between 1 and 1 set with epsilon = 1 and sigma = 1
pair_coeff 1  2  1.5  0.8
pair_coeff 2  2  0.5  0.88

write_data data.0
System init for write_data ...
Neighbor list info ...
  update every 1 steps, delay 10 steps, check yes
  max neighbors/atom: 2000, page size: 100000
  master list distance cutoff = 3.8
  ghost atom cutoff = 3.8
  binsize = 1.9, bins = 9 9 9
  1 neighbor lists, perpetual/occasional/extra = 1 0 0
  (1) pair lj/cut, perpetual
      attributes: half, newton on
      pair build: half/bin/atomonly/newton
      stencil: half/bin/3d
      bin: standard
WARNING: Not all mixed pair coeffs generated from mixing. Use write_data with 'pair ij' option to store all pair coeffs. (../write_data.cpp:312)


#############################
#   M E L T   S Y S T E M   #
#############################

velocity all create 2.4 1741580 mom yes dist gaussian # Assign velocities
                                                    # Temperature 2.4, random number seed, zero linear momentum
                                                                                # Gaussian distribution

timestep 0.002   # simulation timestep
thermo 1000       # output thermodynamic data every 1000 steps bf 100

# Define a fix  in this case with index 1 applied to all
# particles in the simulation. This fix is for simulations
# in the anisotropic NPT ensemble. Note that we use the MTK
# correction.
fix 1 all npt temp 2.4 2.4 0.1 iso 5.68 5.68 0.5 mtk yes tchain 5 pchain 5 # Use NPT ensemble
                                                                         # Set temperature and pressure and damping
                                                                         # Numbers of thermostats in chain and in barostat
run 10000          # run for 10000 steps
Per MPI rank memory allocation (min/avg/max) = 3.642 | 3.644 | 3.648 Mbytes
Step Temp E_pair E_mol TotEng Press Volume 
       0          2.4   -5.9717516            0   -2.3726516   -4.1474152         4000 
    1000    2.4007634   -5.0558312            0   -1.4555865    5.4799631    3946.9291 
    2000    2.4372172   -5.0464839            0   -1.3915721    5.7379734    3932.1798 
    3000    2.4063736   -5.0131615            0   -1.4045036    5.8169966    3940.3446 
    4000    2.3826733    -4.990118            0   -1.4170015    5.5602455    3969.3935 
    5000    2.3593203    -5.029781            0   -1.4916854    5.4829422    3942.4664 
    6000    2.4266588   -4.9985522            0   -1.3594741    5.7408283    3942.0038 
    7000    2.4180147    -5.013146            0   -1.3870307    5.3840715    3985.9127 
    8000    2.4590962   -5.0247485            0   -1.3370263    5.7473508    3940.1375 
    9000    2.4501867   -5.0764727            0   -1.4021115     5.623284    3930.8092 
   10000    2.3382929   -5.0395673            0   -1.5330048    5.4990492    3937.2423 
Loop time of 2.52692 on 48 procs for 10000 steps with 4000 atoms

Performance: 683836.264 tau/day, 3957.386 timesteps/s
99.6% CPU use with 48 MPI tasks x no OpenMP threads

MPI task timing breakdown:
Section |  min time  |  avg time  |  max time  |%varavg| %total
---------------------------------------------------------------
Pair    | 1.1083     | 1.1755     | 1.2805     |   3.2 | 46.52
Neigh   | 0.2112     | 0.21907    | 0.22924    |   1.0 |  8.67
Comm    | 0.77113    | 0.85067    | 0.90321    |   3.5 | 33.66
Output  | 0.00024641 | 0.00025014 | 0.00031699 |   0.0 |  0.01
Modify  | 0.23098    | 0.26624    | 0.2946     |   3.4 | 10.54
Other   |            | 0.01522    |            |       |  0.60

Nlocal:        83.3333 ave          91 max          72 min
Histogram: 1 1 1 4 8 8 10 9 2 4
Nghost:        1662.42 ave        1689 max        1638 min
Histogram: 4 2 8 3 9 7 7 2 4 2
Neighs:        9685.56 ave       10751 max        7971 min
Histogram: 1 1 2 2 6 10 10 6 6 4

Total # of neighbors = 464907
Ave neighs/atom = 116.22675
Neighbor list builds = 911
Dangerous builds = 250

# Equilibrate just above the melting temperature to avoid step fn in T

fix 1 all npt temp 1.25 1.25 0.1 iso 5.68 5.68 0.5 mtk yes tchain 5 pchain 5
run 2000
Per MPI rank memory allocation (min/avg/max) = 3.643 | 3.645 | 3.649 Mbytes
Step Temp E_pair E_mol TotEng Press Volume 
   10000    2.3382929   -5.0395673            0   -1.5330048    5.4990492    3937.2423 
   11000    1.2465012   -6.9914928            0   -5.1222085    5.6769024    3140.2225 
   12000    1.2471186   -7.0163139            0   -5.1461036    5.7137375    3129.9189 
Loop time of 0.608599 on 48 procs for 2000 steps with 4000 atoms

Performance: 567861.663 tau/day, 3286.236 timesteps/s
99.6% CPU use with 48 MPI tasks x no OpenMP threads

MPI task timing breakdown:
Section |  min time  |  avg time  |  max time  |%varavg| %total
---------------------------------------------------------------
Pair    | 0.27087    | 0.29352    | 0.34078    |   2.2 | 48.23
Neigh   | 0.039384   | 0.041375   | 0.048051   |   0.7 |  6.80
Comm    | 0.17218    | 0.22473    | 0.24706    |   2.9 | 36.93
Output  | 5.2274e-05 | 5.4368e-05 | 7.0531e-05 |   0.0 |  0.01
Modify  | 0.039121   | 0.044008   | 0.048205   |   1.3 |  7.23
Other   |            | 0.004913   |            |       |  0.81

Nlocal:        83.3333 ave          90 max          74 min
Histogram: 2 3 0 7 3 8 9 2 7 7
Nghost:        1932.40 ave        1961 max        1905 min
Histogram: 3 4 4 7 10 5 5 4 2 4
Neighs:        12198.8 ave       13537 max       10343 min
Histogram: 1 1 1 7 10 7 3 9 6 3

Total # of neighbors = 585542
Ave neighs/atom = 146.38550
Neighbor list builds = 141
Dangerous builds = 5

#############################
# L I N E A R  Q U E N C H  #
#############################

# Define solid atoms. This closely follows ten Wolde  Ruiz-Montero and Frenkel  Faraday Discuss  1996  104  93-110
# Compute components of the per-atom q6 vector
compute q6 all orientorder/atom degrees 1 6 components 6 nnn NULL cutoff 1.3 # compute the Q6 parameter.
                                                                             # Use all neighbours within 1.3 unit cell.

# get number of connections
compute coord_number all coord/atom orientorder q6 0.5

# An atom is solid if it has 8 or more connections (of a possible 14)
variable is_solid atom c_coord_number>=8
group solid dynamic all var is_solid    # Must be dynamic to update
dynamic group solid defined

# do clustering
compute cluster solid cluster/atom 1.3 # Create a cluster where all atoms within are solid and max 1.3 units from another member

# define chunks one chunk per cluster
compute clus_chunks solid chunk/atom c_cluster nchunk every compress yes  # Says which atoms are in which chunk

# count the size of each chunk
compute size_chunks solid property/chunk clus_chunks count


# Find the maximum entry in the vector of chunk sizes
variable max_n equal max(c_size_chunks)


# Thermo style which includes this variable
# thermo_style custom step temp pe vol v_max_n

thermo ${N}  # Print the thermo information every 100 steps
thermo 1000  

# Reset the npt fix at a lower temperature (below freezing)
fix 1  all npt temp  ${temp} ${temp}  0.1  iso  5.68  5.68  0.5  mtk yes tchain  5  pchain  5
fix 1  all npt temp  0.45 ${temp}  0.1  iso  5.68  5.68  0.5  mtk yes tchain  5  pchain  5
fix 1  all npt temp  0.45 0.45  0.1  iso  5.68  5.68  0.5  mtk yes tchain  5  pchain  5

dump dmp2 all dcd ${N} traj.dcd
dump dmp2 all dcd 1000 traj.dcd


compute msd all msd com yes
variable twopoint equal c_msd[4]/6/(step*dt+1.0e-6)
fix 9 all vector 10 c_msd[4]
variable fit equal slope(f_9)/6/(10*dt)
thermo_style custom step temp pe c_msd[4] v_twopoint v_fit v_max_n

fix 1 all npt temp 1.25 ${temp} 0.1 iso 5.68 5.68 0.5 mtk yes tchain 5 pchain 5
fix 1 all npt temp 1.25 0.45 0.1 iso 5.68 5.68 0.5 mtk yes tchain 5 pchain 5
run 2000000 # 5000000  # Run for this many steps
Neighbor list info ...
  update every 1 steps, delay 10 steps, check yes
  max neighbors/atom: 2000, page size: 100000
  master list distance cutoff = 3.8
  ghost atom cutoff = 3.8
  binsize = 1.9, bins = 8 8 8
  4 neighbor lists, perpetual/occasional/extra = 1 3 0
  (1) pair lj/cut, perpetual
      attributes: half, newton on
      pair build: half/bin/atomonly/newton
      stencil: half/bin/3d
      bin: standard
  (2) compute orientorder/atom, occasional
      attributes: full, newton on
      pair build: full/bin/atomonly
      stencil: full/bin/3d
      bin: standard
  (3) compute coord/atom, occasional
      attributes: full, newton on
      pair build: full/bin/atomonly
      stencil: full/bin/3d
      bin: standard
  (4) compute cluster/atom, occasional
      attributes: full, newton on
      pair build: full/bin/atomonly
      stencil: full/bin/3d
      bin: standard
Per MPI rank memory allocation (min/avg/max) = 9.821 | 9.827 | 9.832 Mbytes
Step Temp PotEng c_msd[4] v_twopoint v_fit v_max_n 
   12000    1.2471186   -7.0163139 1.5376871e-30 1.0678382e-32 8.3333333e+20            1 
   13000    1.2853395   -7.0906975   0.48878757 0.0031332536  0.040095559            1 
   14000    1.2563319   -7.0851986   0.93661951  0.005575116   0.03810112            1 
   15000    1.2399143    -7.033417    1.3730112   0.00762784  0.037451186            1 
   16000    1.2428756   -7.0430842    1.8389757  0.009577998  0.037487219            1 
   17000     1.254043    -7.036269    2.2908503  0.011229658  0.037522542            2 
   18000    1.2481586   -7.0689682     2.684478  0.012428138  0.037187349            1 
   19000    1.2645403   -7.0573567    3.1261728  0.013711284  0.036878083            1 
   20000    1.2230543   -7.0367303    3.6619346   0.01525806  0.037007724            2 
   21000    1.2516014   -7.0723743    4.1563709  0.016493535  0.037490123            1 
   22000    1.2449053   -7.0815941    4.5379569   0.01718923  0.037683939            2 
   23000    1.2275468   -7.0772948    5.0449992  0.018278982  0.037723913            2 
   24000    1.2803289   -7.1130096    5.4948872  0.019079469  0.037907472            2 
   25000    1.2458863   -7.0901238    5.8785515  0.019595171  0.037858636            2 
   26000    1.2393575   -7.0660797    6.3927586  0.020489611  0.037883209            3 
   27000    1.2353948   -7.0972886    6.8469398   0.02113253  0.037938344            1 
   28000    1.2307944   -7.1119003     7.251754  0.021582601  0.037904374       -1e+20 
   29000    1.2406846   -7.1102527    7.7210357  0.022186884   0.03781954            2 
   30000    1.2256536   -7.1180927    8.1631961  0.022675544  0.037841547            1 
   31000    1.2461623    -7.060342    8.5060972  0.022865852  0.037699138            1 
   32000     1.246445   -7.1136591    8.9266768  0.023246554  0.037527039            1 
   33000    1.2167055   -7.0843673    9.3944844  0.023723445  0.037435754            2 
   34000    1.2578406   -7.1044269    9.7898518  0.023994734  0.037328903            2 
   35000    1.2598466   -7.0796615    10.106783  0.024063769  0.037173583            2 
   36000    1.2378292   -7.1075415    10.454817  0.024200964    0.0369452            4 
   37000    1.2430143   -7.1222292    10.978057  0.024725352  0.036761234            2 
   38000    1.2473815   -7.0529789    11.457716  0.025126571  0.036669962            3 
   39000    1.2501424   -7.0940797    11.900814  0.025429089  0.036599136            1 
   40000    1.2359174   -7.0830154    12.342417  0.025713368  0.036539108            1 
   41000    1.2476621   -7.1293115    12.710173  0.025833685  0.036475863            1 
   42000    1.2655752   -7.0662418    13.252432  0.026294507  0.036421845            1 
   43000      1.23402   -7.1039851    13.603522  0.026363414   0.03640837            1 
   44000     1.224855   -7.1126503    14.051397  0.026612494  0.036367749            1 
   45000    1.2433318   -7.0787709    14.386846  0.026642308  0.036291289            2 
   46000    1.2543501   -7.1110207    14.772081  0.026761016  0.036211657            4 
   47000    1.2385537   -7.1411627    15.146403  0.026855323   0.03612969            2 
   48000    1.2304686   -7.1241712    15.634361  0.027142987  0.036072564            3 
   49000    1.2072423    -7.088176    16.180488  0.027517836  0.036055091            1 
   50000     1.226174   -7.1582648    16.601501  0.027669168  0.036038948            1 
   51000    1.2260007   -7.0527891    17.044564  0.027850595  0.036031599            1 
   52000    1.2320284    -7.070074    17.322884  0.027761031   0.03599024            2 
   53000    1.2324666   -7.1103008    17.774464   0.02794727  0.035940655            2 
   54000    1.2323698   -7.1108323    18.237315  0.028144004  0.035907363            1 
   55000     1.214466   -7.1280109    18.778875   0.02845284  0.035905382            2 
   56000    1.2269555   -7.0332059    19.202308  0.028574862  0.035894114            2 
   57000    1.2357271   -7.0852924    19.602718  0.028658944  0.035890862            3 
   58000    1.2094227    -7.132302    20.026731  0.028774039  0.035888988            1 
   59000    1.2453343    -7.089296    20.442364  0.028873395   0.03588976            2 
   60000    1.2414944   -7.1055036    20.848937  0.028956857  0.035875489            1 
   61000    1.2535167   -7.1316736     21.24638  0.029025109  0.035869552            1 
   62000    1.2436709   -7.1054416    21.627566  0.029069309  0.035854185            3 
   63000    1.2278763   -7.0852819    21.989524  0.029086672  0.035832235            1 
   64000    1.2273852   -7.1044643    22.510845  0.029310996  0.035809459            2 
   65000    1.2421598   -7.0704217    22.857104  0.029303979  0.035786066            2 
   66000    1.2155968   -7.1402783    23.241047  0.029344756  0.035753639            2 
   67000    1.2227474   -7.1086038    23.785882   0.02958443  0.035735532            2 
   68000    1.2186582   -7.1358811    24.138193  0.029581119  0.035724312            2 
   69000    1.2361149   -7.1585451    24.470972  0.029554314  0.035707674            2 
   70000    1.2181691   -7.1233561    25.097672  0.029878181  0.035694124            2 
   71000    1.2302167   -7.1415059    25.415997  0.029830982   0.03568738            2 
   72000    1.2193262   -7.1661057    25.926017  0.030006964  0.035678249            3 
   73000    1.2040144   -7.1657484    26.462448  0.030208274  0.035676625            2 
   74000     1.230973   -7.1140758    26.936651  0.030334066  0.035699337            2 
   75000    1.2140875   -7.1069659    27.282615  0.030314016  0.035708992            1 
   76000    1.2470405   -7.1388023    27.748379  0.030425854  0.035708966            2 
   77000    1.2199291   -7.1329838    28.359786  0.030692409  0.035722874            1 
   78000    1.2438508   -7.1262749    28.778478  0.030746237  0.035752906            3 
   79000     1.198197   -7.1463166    29.240659  0.030844577  0.035783673            1 
   80000    1.2172061   -7.0881208     29.79638  0.031037896  0.035817449            4 
   81000    1.2188678   -7.0887121    30.345273  0.031219416  0.035854757            1 
   82000      1.20891   -7.1443655    30.721088  0.031220618  0.035893556            1 
   83000    1.2393392   -7.1463776    31.163461  0.031288615  0.035927326            1 
   84000    1.2080964   -7.1291739    31.642352  0.031391222  0.035958904            1 
   85000    1.2024135   -7.1647439    31.813264  0.031189474  0.035983172            1 
   86000    1.2447739   -7.1002732    32.303671  0.031302007  0.035991848            1 
   87000    1.2121441   -7.1327983    32.482336  0.031113348  0.035996152            1 
   88000    1.1992172   -7.1318348     33.08606  0.031331496  0.035995962            2 
   89000     1.216199   -7.1291086    33.617661  0.031477211  0.036006283            1 
   90000    1.2168407    -7.180159    33.955114   0.03143992  0.036022227            2 
   91000    1.2011128   -7.1240509     34.51764  0.031609561  0.036031499            1 
   92000    1.2010622   -7.1376065    34.644774  0.031381136  0.036031897            1 
   93000    1.2006278   -7.1207856    35.157142  0.031502815  0.036021299            3 
   94000    1.2078444    -7.143078     35.54537  0.031511852  0.036017955            2 
   95000    1.2155017   -7.1794729    35.823536  0.031424154  0.036007264            3 
   96000    1.2120348   -7.1515219    36.177409     0.031404  0.035987357            2 
   97000    1.2122126   -7.1304391       36.538  0.031390034  0.035965499            1 
   98000    1.1958995   -7.1541538    37.087223  0.031536754  0.035948859       -1e+20 
   99000    1.2126217   -7.1407814    37.736507  0.031764736  0.035942443            1 
  100000    1.2080711   -7.1745836    37.982276  0.031651897  0.035931947            3 
  101000    1.1997994   -7.1583348    38.389574  0.031674566   0.03592276            4 
  102000    1.2329328   -7.1425141    38.745095  0.031654489  0.035905811            1 
  103000    1.2264281   -7.1262197    39.074324  0.031613531  0.035883721            2 
  104000    1.2226658   -7.1553449    39.214819  0.031422131  0.035854763            1 
  105000    1.1958809   -7.1645331    39.461898  0.031318966   0.03581494            1 
  106000    1.1949468   -7.1525378    39.789996  0.031281443  0.035769515            1 
  107000    1.1978377   -7.1951971    40.140409  0.031262001  0.035722331            1 
  108000    1.2051368   -7.1474561    40.608415  0.031333654  0.035678197            1 
  109000    1.2232656   -7.1444253    41.119352  0.031436813  0.035638651            1 
  110000    1.1923727   -7.1609315    41.561709  0.031486143  0.035606026            2 
  111000    1.2122625   -7.1692912    42.050757  0.031569637  0.035574058            1 
  112000    1.2015148   -7.1736491    42.330639  0.031496011  0.035540272            1 
  113000    1.1999099   -7.1894762    42.729762  0.031511624  0.035507564            1 
  114000    1.1887426   -7.1820933    43.181547  0.031565458  0.035472846            2 
  115000    1.2107807   -7.2036366    43.471159  0.031500839   0.03543798       -1e+20 
  116000    1.2030934    -7.131994    43.997978  0.031607743  0.035406075            2 
  117000    1.2152509   -7.2150625    44.245891  0.031514167  0.035376756            1 
  118000    1.2166178   -7.1588501    44.657794   0.03153799  0.035346837            1 
  119000    1.2234408   -7.1899385     45.03188   0.03153493  0.035316273            1 
  120000    1.2236019   -7.1508056    45.475795  0.031580413  0.035286152            1 
  121000    1.2009058   -7.1636345    45.909749  0.031618285  0.035253695            3 
  122000    1.1976084   -7.1901192    46.256134   0.03159572  0.035222282            1 
  123000    1.1861719   -7.1783968    46.379579  0.031422479  0.035192015            1 
  124000    1.2123025   -7.1360542    46.864841  0.031495188  0.035157188            1 
  125000     1.213089   -7.1476547    47.062498  0.031374998  0.035115532            1 
  126000    1.2017459    -7.199093    47.393303  0.031344777  0.035072051            1 
  127000    1.2200836   -7.1816468    47.779387  0.031351304  0.035032509            2 
  128000    1.1928635   -7.1504338    48.378026   0.03149611  0.034994536            1 
  129000    1.1934755    -7.146736    48.405621  0.031269781  0.034954111            2 
  130000    1.2090922   -7.2145413    48.860509  0.031320839  0.034912406            6 
  131000    1.1974426   -7.2139785    49.318726  0.031373235  0.034869193            1 
  132000    1.2021498   -7.1492977    49.792324  0.031434548  0.034829463            1 
  133000    1.1994612   -7.1491913    50.123328  0.031405594  0.034793046            1 
  134000    1.2230842    -7.146316    50.369684  0.031324431  0.034754692            1 
  135000    1.2240345   -7.1991435    50.649183  0.031264928  0.034712543            1 
  136000    1.1749452   -7.1996109    50.899063  0.031188151   0.03466723            1 
  137000    1.2006536   -7.1491879    51.342392  0.031230166  0.034624432            4 
  138000    1.2102578   -7.1828008    51.950932  0.031371336   0.03458588            4 
  139000    1.1929338   -7.1691013    52.042761  0.031200696  0.034545655            1 
  140000    1.1871556   -7.1523112    52.526689  0.031265886  0.034505268            1 
  141000    1.2029269   -7.1697532    52.950947  0.031294886  0.034468626            3 
  142000    1.2276898   -7.1902909    53.377805  0.031325003  0.034432247            1 
  143000    1.1984813   -7.2028663    53.705884  0.031297135  0.034400495            1 
  144000    1.1878925   -7.2107748    53.936906  0.031213487  0.034365548            1 
  145000    1.2076828   -7.2218188    54.399183  0.031263898  0.034327813            1 
  146000    1.2196832   -7.2075427    54.720253  0.031233021  0.034288339            1 
  147000    1.2043629   -7.2459198    55.025662  0.031193686  0.034250706            1 
  148000    1.2015198   -7.2066989    55.555781  0.031281408   0.03421557            2 
  149000    1.2113839    -7.196535    56.076078   0.03136246  0.034181668            4 
  150000    1.1938495   -7.1988944    56.094576  0.031163653  0.034144581            2 
  151000    1.2031254   -7.1546859    56.474432  0.031166905  0.034107421            1 
  152000    1.1995441   -7.2144463    56.929222  0.031211196  0.034072292            2 
  153000    1.1747021     -7.22186    57.234671  0.031173568  0.034034051            1 
  154000    1.1818276   -7.1570429    57.535759  0.031134069  0.033993995            2 
  155000    1.2111278   -7.1717129    57.577697  0.030955751  0.033952989            2 
  156000    1.1932473   -7.2189316     58.10174  0.031037254  0.033910812            2 
  157000    1.1763175   -7.2113917    58.566145  0.031086064  0.033872424            2 
  158000    1.1639581   -7.2007791    58.923016   0.03107754  0.033837432            1 
  159000    1.1787198   -7.1556117      59.6362   0.03125587  0.033803501            1 
  160000    1.1973026   -7.1947646    59.534303  0.031007449  0.033766559            1 
  161000    1.1970406    -7.206594    59.810505  0.030957818  0.033731829            1 
  162000    1.2051573   -7.1792948    60.242182  0.030988777  0.033694033            2 
  163000    1.1873367   -7.2396598    60.294924  0.030825626  0.033654923            1 
  164000    1.2157902   -7.2208229    60.723701  0.030855539  0.033614634            4 
  165000    1.1974923   -7.1637133    61.188262  0.030903162  0.033574339            2 
  166000    1.1967168   -7.2415134    61.224097  0.030734988  0.033534134            1 
  167000    1.1991672   -7.2085653    61.663147  0.030770033  0.033492517            5 
  168000    1.1931344    -7.218848    61.982481  0.030745278  0.033453334            5 
  169000    1.1776326    -7.196317    62.252691  0.030696593  0.033409345            6 
  170000    1.1791455   -7.1566198    62.743641  0.030756686  0.033368914            2 
  171000    1.1813685   -7.2193486    63.074925  0.030738267  0.033328282            2 
  172000     1.181426    -7.242796    63.212974  0.030626441  0.033287478            2 
  173000    1.1785193   -7.2358012     63.69204  0.030680173   0.03324895            1 
  174000    1.1760081    -7.192853    64.029426  0.030665434   0.03320861            1 
  175000    1.1998168   -7.2055945    64.766341  0.030841115  0.033171665            1 
  176000    1.1702037    -7.243378    64.580565  0.030577919  0.033134016            1 
  177000    1.1826841   -7.2060728    65.159823  0.030677883  0.033093718            1 
  178000    1.1797152   -7.2266116    65.451885  0.030642268  0.033056631            1 
  179000    1.1799269   -7.2555543    65.936127  0.030696521  0.033018558            2 
  180000    1.2036197   -7.2066791    66.272072  0.030681515  0.032982042            4 
  181000    1.1911639   -7.2207214    66.844534  0.030775568   0.03294893            1 
  182000    1.1656947   -7.2203963    67.237901  0.030786585  0.032916967            1 
  183000    1.1676186   -7.2121892    67.281005   0.03063798  0.032885198            2 
  184000    1.1512629   -7.2026831    67.875798  0.030740851  0.032854336            1 
  185000    1.2002016   -7.2118201    68.039855  0.030648583  0.032824512            2 
  186000     1.153252   -7.2147919    68.581053  0.030726278  0.032795484            1 
  187000    1.2090363   -7.2342248    68.825443  0.030670875  0.032765248            1 
  188000    1.1852691   -7.2274308    68.961805  0.030568176  0.032733719            1 
  189000    1.2070032   -7.2085743     69.03554   0.03043895  0.032701937            4 
  190000     1.177134   -7.2474864      69.5828  0.030518772  0.032669081            1 
  191000    1.2010094   -7.2420299    69.992273  0.030537641   0.03263638            1 
  192000    1.1622857   -7.2421478    70.497713  0.030597966  0.032606993            1 
  193000    1.1785209   -7.2279826    70.747486  0.030547274  0.032579633            2 
  194000    1.1710106   -7.2415481    70.970397  0.030485566  0.032550908            1 
  195000    1.1818829   -7.2312698     71.42493  0.030523474  0.032521734            1 
  196000    1.1922073   -7.2848312    71.433986  0.030371592  0.032491272            3 
  197000    1.1752225   -7.1947702      72.1944  0.030539086  0.032460168            2 
  198000    1.1837159   -7.2374422     72.39136  0.030467744  0.032429947            1 
  199000    1.1690321    -7.248352    72.789136  0.030481213   0.03240104            1 
  200000    1.1838566   -7.2382607    73.245386  0.030518911   0.03237145            1 
  201000    1.1824646   -7.3058064    73.500783  0.030472961  0.032342873            2 
  202000      1.15569   -7.2495138     73.66572  0.030390148  0.032315102            3 
  203000    1.1908116   -7.2480711    74.363468  0.030526875  0.032287274            1 
  204000    1.1680391   -7.2601219    74.394755  0.030390014  0.032257103            2 
  205000    1.1532199    -7.211123    74.801889  0.030407272  0.032227936            2 
  206000    1.1842961   -7.2341661    75.066666  0.030366774  0.032199839            2 
  207000    1.1731515   -7.2617744    75.103974  0.030235094  0.032171595            2 
  208000    1.1625516   -7.2182251    75.767644  0.030355627  0.032142841            2 
  209000    1.1674219    -7.244783    76.075177  0.030333005  0.032114284            2 
  210000    1.1804418   -7.2550228    76.560614  0.030381196  0.032086804            2 
  211000    1.1600659   -7.2069682    77.082186  0.030443201  0.032060668            1 
  212000    1.1680492   -7.2919952     77.08366  0.030300181  0.032033691            3 
  213000    1.1506195   -7.2560412    77.837445  0.030452835  0.032005499            2 
  214000    1.1711809   -7.2506077    77.701015  0.030257405  0.031979227            1 
  215000    1.1557298    -7.282132    77.969805  0.030220854  0.031951611            1 
  216000    1.1677521   -7.2249708    78.178146  0.030161322  0.031922679            1 
  217000    1.1824154   -7.2291634    78.202017  0.030031496  0.031892209            2 
  218000    1.2012288   -7.2421487    78.862573  0.030146243  0.031861184            1 
  219000    1.1688017   -7.2981507    78.911622  0.030027254  0.031829914            3 
  220000    1.1833213   -7.2536439    79.446505  0.030093373  0.031798994            1 
  221000    1.1600266   -7.2576761     79.77762  0.030082059  0.031768705            2 
  222000    1.1779273   -7.2358172    79.862556  0.029978437  0.031738285            1 
  223000    1.1820158    -7.300074     80.21038  0.029973984  0.031706836            1 
  224000    1.1603127   -7.2880716    80.581573  0.029978264  0.031677314            2 
  225000    1.1557578    -7.279902       81.007  0.030002592  0.031647398            2 
  226000    1.1319836    -7.310158     81.09442  0.029902072  0.031616855            1 
  227000    1.1500726    -7.245695    81.698681  0.029992174   0.03158692            2 
  228000    1.1658883   -7.2273913    81.904392  0.029935816  0.031556424            2 
  229000     1.186953    -7.201297    82.206005  0.029914849  0.031525629            1 
  230000    1.1549886   -7.3073027    82.212829  0.029787257  0.031494448            1 
  231000    1.1684922   -7.2505083    82.574793  0.029788886  0.031464949            2 
  232000    1.1558383   -7.2634834    83.291962   0.02991809  0.031436537            1 
  233000    1.1564991   -7.2693222     83.50041  0.029864238  0.031408765            3 
  234000    1.1742534   -7.2411882    84.075473  0.029941408  0.031382177            3 
  235000    1.1681565   -7.2588633    84.014433  0.029792352  0.031354317            2 
  236000    1.1636323   -7.2217543    84.691549  0.029905208  0.031327442            2 
  237000     1.152905   -7.2965267    85.100254  0.029922733  0.031301397            2 
  238000    1.1375406   -7.2281838     85.33636  0.029879678  0.031277539            1 
  239000    1.1448027   -7.3168537    86.157833  0.030041085  0.031255562            2 
  240000    1.1464367   -7.2871654    86.871255   0.03016363   0.03123609            1 
  241000    1.1524075   -7.2715087    87.414819  0.030226424  0.031219983            2 
  242000    1.1686955   -7.2675882    87.786928  0.030229658  0.031204135            1 
  243000    1.1531352   -7.2621376    87.875816  0.030135739  0.031188874            2 
  244000    1.1517417   -7.2758321    88.484676  0.030220176  0.031173617            2 
  245000    1.1460113   -7.2637261    88.919016  0.030244563  0.031159402            3 
  246000    1.1608578   -7.3126693    88.901032  0.030115526   0.03114571            1 
  247000    1.1565928   -7.3038423    89.503278  0.030196787  0.031131117            3 
  248000    1.1326843   -7.2861412    89.894095  0.030206349  0.031117294            1 
  249000    1.1488078   -7.2710709    90.228821  0.030197062  0.031103432       -1e+20 
  250000    1.1405114   -7.2824785    90.786596  0.030262199  0.031090421            2 
  251000    1.1196609   -7.2957367    90.633801  0.030090903  0.031076629            2 
  252000    1.1387551   -7.3113061     91.22918   0.03016838  0.031063427            1 
  253000    1.1256193   -7.2984312    91.265946  0.030061247  0.031050441            1 
  254000    1.1541317   -7.2706935    92.092259  0.030213996  0.031036753            2 
  255000    1.1436457   -7.2877774    92.390592  0.030193004  0.031024772            2 
  256000    1.1356695   -7.3145551    92.502673  0.030111547  0.031013048            1 
  257000    1.1647499   -7.2909672    92.607694  0.030028435  0.030998837            1 
  258000     1.162043   -7.2777212    92.949549  0.030022464  0.030983489            4 
  259000     1.160053   -7.2730517    93.207126  0.029989423  0.030968942            1 
  260000    1.1508199   -7.3240947    93.371253  0.029926684  0.030953229            1 
  261000    1.1293874    -7.286553    93.999228  0.030012525  0.030937359            1 
  262000    1.1628577   -7.2916129    94.146852  0.029944928  0.030920916            3 
  263000    1.1368254    -7.306284    94.318762  0.029885539  0.030903046            3 
  264000    1.1503096   -7.2972701    94.619561  0.029867286  0.030883915            2 
  265000    1.1385196   -7.2994134    94.816707  0.029816575  0.030863934            1 
  266000    1.1457355   -7.3446399    94.330065  0.029552025  0.030841749            2 
  267000     1.141827   -7.2925466    94.960664   0.02963816  0.030819695            1 
  268000    1.1316574   -7.3206123    95.094802  0.029569279  0.030797639            1 
  269000    1.1420456   -7.3278947    95.486557  0.029580718  0.030775171            1 
  270000    1.1218455   -7.3197116     95.82756  0.029576407  0.030752654            5 
  271000     1.165122   -7.2942012    96.207523  0.029584109    0.0307315            1 
  272000    1.1485317   -7.2965154    96.536924  0.029576263  0.030710798            6 
  273000    1.1688589   -7.2966224    97.066781  0.029629664  0.030691654            1 
  274000    1.1487211    -7.336814    97.344397   0.02960596  0.030672721            3 
  275000    1.1591958   -7.3385846     97.74946  0.029621049  0.030653223            1 
  276000    1.1616226    -7.306844     97.88315  0.029554091  0.030633779            2 
  277000    1.1149209   -7.3238138    98.338504  0.029584387  0.030613327            2 
  278000    1.1393392   -7.3099896    98.506119  0.029528213  0.030591991            1 
  279000    1.1420935   -7.3051171    98.802547  0.029510916  0.030571491            1 
  280000    1.1504385   -7.3054017    99.277703  0.029546936  0.030551726            2 
  281000    1.1342365       -7.285    99.578565   0.02953101  0.030531216            2 
  282000    1.1079487   -7.3340684    99.423663  0.029380515  0.030509496            1 
  283000    1.1355346   -7.2684941    100.10609  0.029477647   0.03049002            2 
  284000    1.1373427   -7.3079701    100.60365  0.029519851  0.030469848            1 
  285000    1.1323478   -7.2830436    101.14232  0.029573778  0.030451025            1 
  286000    1.1170556   -7.2907378    101.30713  0.029518396  0.030432444            1 
  287000    1.1565665   -7.3205789    101.79509  0.029557227  0.030414342            3 
  288000    1.1667069   -7.3587525    101.69656  0.029426088   0.03039587            2 
  289000    1.1152453   -7.2898824    102.21912  0.029474949  0.030377391            1 
  290000    1.1241491   -7.3243565    102.53937  0.029465336  0.030359471            6 
  291000    1.1334013   -7.2989655    102.96461  0.029485857  0.030341106            2 
  292000    1.1379299   -7.2742422    103.23971  0.029463386  0.030323173            1 
  293000    1.1526718   -7.3224787    103.72183  0.029499951  0.030305365            2 
  294000     1.106215   -7.2775225    103.73242  0.029402612  0.030288227            2 
  295000    1.1372759   -7.3404321    103.88715  0.029346653  0.030270077            1 
  296000    1.1304588   -7.3140054    104.30718  0.029365759  0.030252362            4 
  297000    1.1489855   -7.3510957    104.62882  0.029357133  0.030234865            4 
  298000    1.1401831   -7.3067915    104.94473  0.029346961  0.030217529            1 
  299000    1.1362306   -7.3527804     105.2088  0.029322409  0.030199316            1 
  300000    1.1414149   -7.2934953     105.6577  0.029349361  0.030182298            2 
  301000    1.1010114   -7.3232152    105.73538  0.029273362  0.030164578            1 
  302000    1.1387954   -7.3142103    105.97209  0.029241746  0.030145172            2 
  303000    1.1154496   -7.3079177    106.37123  0.029255015  0.030127378            2 
  304000    1.1237302   -7.3283989    106.64906   0.02923494  0.030107742            1 
  305000    1.1179647   -7.3552766    106.66878  0.029144475  0.030087122            1 
  306000    1.1548319     -7.30815    107.02905  0.029147344  0.030067043            3 
  307000    1.1293817   -7.3755683    106.98045   0.02903921  0.030046715            2 
  308000    1.1335285   -7.3237197     107.6734  0.029132413  0.030027143            2 
  309000     1.115434   -7.3539195    108.15028  0.029166741  0.030007234            1 
  310000    1.1334364   -7.2889086    108.39719  0.029139028  0.029989304            3 
  311000    1.1089012   -7.3238108    109.24976  0.029273783  0.029972798            4 
  312000     1.131317   -7.3339947    109.27027  0.029185436  0.029955534            1 
  313000    1.1028094   -7.3258314    109.56413  0.029170428   0.02993865            2 
  314000    1.1232648   -7.3287871    109.56545   0.02907788  0.029921169            1 
  315000     1.134503   -7.3139981    110.03214  0.029109032   0.02990352            2 
  316000    1.1278001   -7.3305325    110.55526  0.029154867   0.02988558            3 
  317000     1.133315    -7.330932    110.88485   0.02914954  0.029868106            4 
  318000    1.1174152   -7.3156758    111.22771  0.029147722  0.029850859            1 
  319000    1.1134722   -7.3880608    110.39973  0.028840054  0.029833339            1 
  320000    1.1372634   -7.3355723    111.36435  0.029001132  0.029815056            3 
  321000    1.1104111   -7.3153329    112.07579  0.029095479  0.029797291            1 
  322000     1.123898   -7.3975478    112.28701  0.029059786   0.02977982            2 
  323000     1.128925   -7.3538598    112.25992  0.028962827  0.029762505            2 
  324000    1.1084556   -7.3547328    112.52787  0.028942354  0.029746026            1 
  325000     1.124341   -7.3409439    113.12313   0.02900593  0.029729317            3 
  326000    1.1269988   -7.3606554    113.38359  0.028983536  0.029712534            1 
  327000    1.1402841   -7.3849631    113.73239  0.028983788  0.029695675            2 
  328000       1.1272    -7.346175    114.35151  0.029052721  0.029679917            2 
  329000    1.1181833   -7.3303657     114.9054  0.029104712  0.029664103            1 
  330000    1.1437822   -7.3432949    115.03362  0.029048895  0.029649199            2 
  331000      1.10955   -7.3490269    115.24171  0.029013522   0.02963458            1 
  332000    1.1126577   -7.4159549    114.82594  0.028821773  0.029618991            2 
  333000    1.1279528   -7.3973906    115.18912  0.028826106  0.029602414            2 
  334000    1.1194769   -7.3777034    115.40696  0.028794152  0.029585141            1 
  335000    1.1362397   -7.3659526    115.86091  0.028821123  0.029567077            2 
  336000    1.1254706     -7.35268    116.39154  0.028866948  0.029549542            2 
  337000     1.135843   -7.3833336     116.6073  0.028834643   0.02953258            2 
  338000    1.1217062   -7.3653353    117.30453  0.028921235  0.029515949            1 
  339000    1.1287319   -7.3956376    117.16758  0.028802257  0.029498959            3 
  340000    1.1424902   -7.4038511    117.43332  0.028782677  0.029482364       -1e+20 
  341000      1.15698   -7.3928089    117.44385  0.028700844  0.029465059            3 
  342000     1.124729    -7.343676    118.19675  0.028800379  0.029448045            1 
  343000    1.1273491   -7.3994247    118.29998  0.028741493  0.029430397            2 
  344000     1.097496   -7.3513594    118.69752  0.028754243  0.029413388            3 
  345000    1.0949225   -7.3592117    118.76804  0.028687931  0.029396618            3 
  346000    1.1070599   -7.3852299    119.23558  0.028717625  0.029379867            2 
  347000    1.1071039   -7.3590502    119.65517   0.02873563  0.029364124            1 
  348000    1.1113645   -7.3582415    120.06719  0.028751721  0.029348321            1 
  349000    1.1122268   -7.3753512    120.02672  0.028659676  0.029332433            2 
  350000    1.1219226   -7.4039723    120.55929  0.028704592   0.02931625            2 
  351000    1.1432792   -7.4021796    121.07918  0.028746243  0.029300881            1 
  352000    1.0904273   -7.3900648    121.24425  0.028703657  0.029286067            1 
  353000    1.0999346   -7.3889443    121.81085  0.028756103  0.029271198            1 
  354000    1.0934662   -7.4055243    121.54524  0.028612344  0.029255904            2 
  355000    1.1098033   -7.4090463    121.81346  0.028594709  0.029240096            1 
  356000    1.1352345    -7.388304    122.20967  0.028607133  0.029223413            2 
  357000    1.1355453   -7.3481831    122.61742  0.028622181  0.029207734            2 
  358000    1.1210936   -7.3703699    122.93087  0.028615194   0.02919147            1 
  359000    1.1097405   -7.3621731    123.09857  0.028574414  0.029175841            2 
  360000    1.1205847   -7.3868495    123.90686  0.028682144  0.029160667            2 
  361000    1.1241129   -7.3933222    124.26176  0.028684617  0.029146262            1 
  362000     1.092854   -7.4097021    124.59414  0.028681892   0.02913205            1 
  363000    1.1208461   -7.4176335    124.74616  0.028637778  0.029118322            1 
  364000    1.1101228   -7.4214531    125.06379  0.028631819  0.029104638            1 
  365000    1.1148134   -7.4143405    125.20758  0.028586206  0.029090404            2 
  366000     1.136123   -7.3901815    125.37883  0.028547092  0.029076098            1 
  367000    1.1165705   -7.4098889    125.82086  0.028569678  0.029062716            1 
  368000    1.0995812   -7.3940674    126.24186  0.028587378  0.029048304            1 
  369000    1.0779981   -7.3743576    126.76828   0.02862879  0.029034295            4 
  370000    1.1085621   -7.4426925    126.75389  0.028548174   0.02902003            2 
  371000    1.1190575   -7.4137479    126.91731  0.028507932   0.02900554            2 
  372000    1.1351851   -7.4071908    127.15048   0.02848353  0.028991387            2 
  373000    1.0951759   -7.4148458    127.50082  0.028485437  0.028977017            3 
  374000    1.1135781   -7.3874288    127.79577  0.028474994  0.028962497            2 
  375000    1.0817536   -7.4448313    127.77468  0.028394373  0.028947468            2 
  376000    1.1260709    -7.440498    127.86737  0.028339399  0.028931946            1 
  377000     1.129563   -7.4121702    128.60653  0.028427615  0.028916453            1 
  378000    1.0891313   -7.4047707    128.67667  0.028367873  0.028901032            1 
  379000    1.0997439   -7.4353866    129.12028  0.028390562  0.028885833            4 
  380000    1.0788346   -7.4098012    129.50825  0.028400931  0.028871497            2 
  381000    1.0812605   -7.3992876     129.5439  0.028334185  0.028856644            1 
  382000    1.0954531   -7.4214596    130.04637  0.028369627  0.028842205            1 
  383000    1.1057179   -7.4331621    129.96358  0.028277542  0.028827006            2 
  384000     1.111946   -7.4009072    130.29124  0.028275009  0.028811144            1 
  385000    1.1158183   -7.4389171    130.44903  0.028235721  0.028795345            2 
  386000    1.0841416   -7.4256313    130.10483  0.028088263  0.028778662            2 
  387000    1.0895861   -7.4571713    130.50432  0.028101706  0.028761588            2 
  388000    1.0874903   -7.3907132    131.11316  0.028160043  0.028745001            2 
  389000    1.1203676   -7.4561708    131.04544  0.028073145  0.028728687            1 
  390000    1.1001063   -7.4518485    131.43446  0.028084286  0.028711861            1 
  391000    1.1005128   -7.4311437    132.07245  0.028148433  0.028695866            4 
  392000    1.1026993   -7.4334753    132.22726  0.028109537  0.028679544            2 
  393000    1.1027115   -7.4426661     132.5377  0.028103839  0.028663095            2 
  394000    1.1112151   -7.4194438    132.71069  0.028069097   0.02864681            3 
  395000    1.0783466   -7.4400558    133.18386   0.02809786  0.028630223            4 
  396000    1.1018056   -7.4229209    133.38174  0.028068547  0.028613378            3 
  397000    1.1031637   -7.4452346    133.19484  0.027958614  0.028596335            1 
  398000    1.0822853   -7.4318709    133.78347  0.028011615  0.028579445            3 
  399000    1.1064956   -7.4209875    133.87407  0.027960333  0.028562824            1 
  400000    1.0929459   -7.4330924    134.27725  0.027974427  0.028545891            3 
  401000    1.1091685   -7.4403009     134.1277  0.027873588  0.028529223            2 
  402000    1.0984462   -7.4517118    134.26299  0.027832296  0.028512097            2 
  403000    1.0944183   -7.3840765    134.62543  0.027838179  0.028495333            2 
  404000    1.0668852    -7.380551    135.23166  0.027894319  0.028478022            1 
  405000    1.1088467   -7.3825838    136.06876  0.027997687  0.028461659            2 
  406000    1.0959789   -7.3770461    135.80046  0.027873657  0.028445252            3 
  407000     1.102093   -7.3871495    136.12869  0.027872377  0.028427907            2 
  408000    1.0935708   -7.4420116    135.61313   0.02769876  0.028409592            1 
  409000    1.1080336   -7.4038865    136.46338  0.027804275  0.028391156            1 
  410000    1.1061125   -7.3882048    136.57067  0.027758266  0.028372767            1 
  411000    1.1021151    -7.417804    136.49854  0.027676103  0.028354339            1 
  412000    1.0954711   -7.4582061    136.53085  0.027615464  0.028335553            2 
  413000     1.104168   -7.4427391    136.30601  0.027503231  0.028316027            1 
  414000    1.0766922   -7.4109082     137.1915  0.027615035    0.0282967            3 
  415000    1.0752417   -7.4782497    137.38214  0.027586776  0.028277458            1 
  416000    1.0817637    -7.456753    137.58555  0.027561208  0.028258313            1 
  417000    1.1045391   -7.3878863    137.75629  0.027529234  0.028239047            2 
  418000    1.0925597   -7.4017876    138.23841  0.027559492  0.028219177            1 
  419000    1.0887837    -7.433376    137.77271  0.027401096  0.028198803            1 
  420000    1.0877098   -7.4579492    138.04614  0.027390107    0.0281778            1 
  421000    1.0798359   -7.4394888    138.05806  0.027327406  0.028156662            2 
  422000     1.059324    -7.417338    138.44915  0.027339879  0.028135974            2 
  423000    1.0806062   -7.4696641    138.31494  0.027248806  0.028115063            4 
  424000    1.0990525   -7.4743848     138.7595  0.027271915  0.028093909            4 
  425000      1.08353   -7.4546284    139.19541  0.027293217  0.028072608            2 
  426000    1.0963744   -7.4596832    139.17906  0.027225951  0.028051299            1 
  427000     1.089504    -7.456549    139.17619   0.02716163  0.028029788            1 
  428000    1.0644546    -7.452667    140.11359  0.027280683  0.028009064            4 
  429000    1.0754699   -7.4190358    140.21032  0.027235882   0.02798887            3 
  430000    1.0796946   -7.4169228    141.06582  0.027338336   0.02796881            3 
  431000    1.0814833   -7.4487944    141.06786  0.027275302  0.027949911            4 
  432000     1.073867   -7.4809992    141.64511  0.027323516  0.027931662            3 
  433000    1.0778356   -7.4754741    141.88963  0.027307473  0.027913291            1 
  434000    1.0767131    -7.505056    141.63883  0.027196395  0.027894639            3 
  435000    1.1040716   -7.4843597    142.11055  0.027224244  0.027875918            1 
  436000    1.0883323   -7.4419018    142.52847   0.02724168   0.02785719            1 
  437000    1.0815219   -7.4632868    142.93751  0.027257344  0.027839117            3 
  438000    1.0778954   -7.4648017    143.21656  0.027248204  0.027820592            2 
  439000    1.0735426   -7.4333527    143.01295  0.027147486  0.027801909            2 
  440000    1.1087239   -7.4450066    143.79306  0.027233534   0.02778368            1 
  441000    1.0792407   -7.4561429    143.68077  0.027150561  0.027765541            2 
  442000    1.0783808   -7.4666928    143.60537   0.02707492  0.027746791            1 
  443000    1.0614886   -7.4599515    143.77457   0.02704563  0.027727812            2 
  444000     1.084787   -7.4977458    144.35346  0.027093368  0.027708503            1 
  445000    1.0815615   -7.4141023     144.7117  0.027099569  0.027689514            1 
  446000    1.0641245   -7.4883268     144.7393  0.027043964  0.027670928            3 
  447000    1.0901208   -7.4429607    145.00293  0.027032613  0.027652039            1 
  448000     1.051207   -7.4574599    145.74226  0.027109794  0.027633565            2 
  449000    1.0881717   -7.4724351    145.47102  0.026999075  0.027615126            1 
  450000    1.0946145   -7.4252931    146.08801  0.027053335  0.027596097            2 
  451000    1.0724079   -7.4828829    146.31251  0.027034832   0.02757725            2 
  452000     1.073906   -7.4823407      146.545  0.027017884  0.027559082            3 
  453000    1.0806594   -7.4573623    146.96056  0.027034688  0.027540923            3 
  454000    1.0804958   -7.4331647    147.49785  0.027073761  0.027522638            2 
  455000    1.0662183   -7.5002565    146.95477  0.026914794  0.027504437            1 
  456000    1.0744003   -7.5383813    147.17945   0.02689683  0.027485935            1 
  457000    1.0439966   -7.4857265     147.7507  0.026942141  0.027468078            2 
  458000    1.0694254   -7.5281108    147.64595  0.026864255  0.027450066            1 
  459000    1.0674214   -7.5110427    148.34261   0.02693221  0.027432343            1 
  460000    1.0818443   -7.4706503    147.84358  0.026783258  0.027413773            4 
  461000    1.0911331   -7.5065367    147.94894  0.026744205  0.027395419            2 
  462000    1.0575538   -7.5081382    148.29974  0.026749593  0.027376177            2 
  463000    1.0602199   -7.5559351    148.22292  0.026677991  0.027357046            4 
  464000    1.0786365   -7.5011929    148.38626  0.026649831  0.027337334            2 
  465000    1.0524913   -7.5015848    148.83814  0.026673502  0.027317698            1 
  466000    1.0733574   -7.5191267    149.01708  0.026648262  0.027298273            1 
  467000    1.0660978    -7.521183    149.37407  0.026654902  0.027279081            1 
  468000    1.0651128   -7.4850503    149.68444  0.026653212  0.027259446            2 
  469000     1.072208   -7.4732916    149.96668  0.026646531  0.027240488            1 
  470000    1.0631299   -7.5231432    150.32488  0.026653348  0.027221233            2 
  471000    1.0725255   -7.5131229    150.20134    0.0265749  0.027201987            2 
  472000    1.0765256   -7.4841484    150.82714  0.026629086   0.02718298            1 
  473000    1.0514433   -7.5262649    151.01341  0.026605605  0.027163718            1 
  474000    1.0533205   -7.4772049    151.58801  0.026650494  0.027144968            1 
  475000    1.0702037   -7.4646975    151.86161  0.026642388  0.027126466            2 
  476000    1.0426939   -7.4699817    151.67761  0.026554204  0.027107648            2 
  477000    1.0804535   -7.5101401     151.2443  0.026422834   0.02708837            1 
  478000    1.0403387   -7.5324787    151.97226  0.026494466  0.027069442            2 
  479000    1.0766861   -7.5176438    151.91827  0.026429762  0.027050528            2 
  480000    1.0637504   -7.4665332    153.08346   0.02657699  0.027032029            2 
  481000    1.0637023   -7.4961231    153.15207  0.026533623  0.027013733            1 
  482000    1.0615279   -7.4973574    153.55107  0.026547557  0.026995244            1 
  483000    1.0575831   -7.5173474    153.28978  0.026447512  0.026976376            1 
  484000    1.0577322   -7.5309946    152.82521   0.02631288  0.026956963            3 
  485000    1.0793231   -7.4837131    153.47298  0.026369928  0.026937819            3 
  486000    1.0449797   -7.4790698    153.67742  0.026350723  0.026918686            2 
  487000    1.0501376   -7.5029609    154.18605   0.02638365  0.026899665            1 
  488000    1.0682735   -7.5073086    153.92317  0.026284695   0.02688013            4 
  489000    1.0334398   -7.5177856     154.0791  0.026257515  0.026860546            2 
  490000    1.0480799    -7.537465    154.09757   0.02620707  0.026841089            5 
  491000    1.0455462   -7.5135151    154.45138  0.026213744  0.026821354            3 
  492000    1.0652772   -7.5112001    154.47338  0.026164191   0.02680135            1 
  493000    1.0649678   -7.4928645    155.36292   0.02626148  0.026781673            1 
  494000    1.0746246   -7.5085657    155.45517  0.026223882  0.026762618            1 
  495000    1.0458576   -7.4899743    155.42016  0.026165009  0.026743179            1 
  496000    1.0636905   -7.5004879    156.40872  0.026278347  0.026724153            3 
  497000    1.0524808   -7.5067767    156.18941  0.026188701  0.026705516            2 
  498000    1.0364481    -7.488855    156.21938  0.026141128  0.026686762            4 
  499000    1.0473999   -7.4948613    156.90155  0.026202664  0.026668178            1 
  500000    1.0612859    -7.491049    156.59035  0.026098392  0.026649695            4 
  501000    1.0571108   -7.5091017    157.35261  0.026173088  0.026631211            1 
  502000    1.0550976   -7.5419093     157.3377  0.026118476  0.026612893            2 
  503000     1.045203   -7.5059998    157.79761  0.026142745  0.026594551            3 
  504000    1.0551541    -7.545957    157.56624  0.026052619  0.026575728            2 
  505000    1.0530829   -7.5374909    158.12287  0.026092884   0.02655708            1 
  506000    1.0320978   -7.5384425    157.88551  0.026002224  0.026538283            1 
  507000      1.03647   -7.5891064    158.54932  0.026060045  0.026519233            1 
  508000    1.0407318    -7.563507     158.2019  0.025951754  0.026500323            1 
  509000    1.0424397   -7.5240104    158.70988  0.025983936  0.026481707            1 
  510000    1.0490753   -7.5212621    159.55229  0.026070635  0.026462949            2 
  511000    1.0790607   -7.5405326    158.82108  0.025900372  0.026444256            3 
  512000    1.0338921   -7.5702694    159.26842  0.025922594  0.026425291            1 
  513000    1.0458172   -7.5187341    159.75755  0.025951518  0.026406567            1 
  514000    1.0614621   -7.5252862    159.96887   0.02593529   0.02638818            2 
  515000    1.0479031   -7.5272138    160.66518  0.025997602  0.026370178            1 
  516000    1.0257352    -7.561979    160.51846  0.025923525  0.026351936            1 
  517000    1.0732107   -7.5389411    160.42752  0.025858723  0.026333444            2 
  518000     1.046199   -7.5659205    160.41402  0.025806631  0.026314643            6 
  519000    1.0382044   -7.5346476    160.55978  0.025780311  0.026295766            3 
  520000    1.0421519   -7.5491266    160.87369   0.02578104  0.026276832            1 
  521000    1.0460472   -7.5412285    161.01247  0.025753754  0.026258096            1 
  522000    1.0484499   -7.5462041    161.14638  0.025725795  0.026239277            2 
  523000     1.057825   -7.5035481    162.23989  0.025850843  0.026220689            1 
  524000    1.0432169   -7.5472506    162.06802  0.025774176  0.026202829            2 
  525000    1.0492481   -7.5635121    162.45678  0.025786791   0.02618454            2 
  526000    1.0510091   -7.4953211    163.01158  0.025825662  0.026166587            3 
  527000    1.0309169   -7.5730622    162.63889  0.025717725  0.026148661            2 
  528000    1.0498297   -7.5461005    163.21872   0.02576053  0.026130834            2 
  529000    1.0380517   -7.5358964    163.09556  0.025692433  0.026112738            2 
  530000    1.0588729   -7.5492488    163.43383  0.025697143  0.026094992            2 
  531000    1.0507651   -7.5461728    163.18631  0.025609904  0.026076853            1 
  532000     1.055784    -7.530985    163.75632  0.025651053  0.026059066            3 
  533000    1.0450187   -7.5917557    163.87761  0.025621891  0.026041119            2 
  534000    1.0495965   -7.5588561     164.2718  0.025635424  0.026022924            3 
  535000    1.0596509   -7.5414626    164.46995  0.025618372   0.02600499            1 
  536000    1.0299477   -7.5642935    164.85973  0.025631177   0.02598713            2 
  537000    1.0266971   -7.5478094    164.70471   0.02555939  0.025969228            1 
  538000    1.0387976   -7.5529503    164.87451  0.025538183  0.025951276            2 
  539000    1.0387097   -7.5631113    165.04564  0.025517261  0.025933273            1 
  540000    1.0555845   -7.5392366     165.0638  0.025472808   0.02591517            2 
  541000    1.0466607   -7.5571516    165.62274   0.02551182  0.025897223            4 
  542000    1.0432419    -7.535098    165.88988  0.025505824  0.025879079            2 
  543000    1.0449447   -7.5516071    165.86971  0.025455757   0.02586071            2 
  544000    1.0383382   -7.5479457    165.72178  0.025386302  0.025842153            2 
  545000    1.0676171   -7.5645378    165.82223  0.025355081  0.025823486            1 
  546000    1.0224665   -7.6065843    165.92095   0.02532371  0.025804824            2 
  547000    1.0294826   -7.6406933    166.25311  0.025328019  0.025785904            2 
  548000    1.0597398   -7.6023227    166.13033  0.025263128  0.025767174            1 
  549000    1.0116546   -7.5853869    167.00068  0.025349222  0.025748739            1 
  550000     1.021501   -7.5414332     167.6198  0.025396939  0.025730694            1 
  551000    1.0303525   -7.5689932    167.78339  0.025375588  0.025712803            1 
  552000     1.035745   -7.5772588    167.75556  0.025325416   0.02569475            2 
  553000    1.0178248   -7.5733367    168.11346  0.025333553  0.025676834            4 
  554000     1.032958   -7.5639593    168.18431  0.025298483  0.025658923            1 
  555000    1.0400273   -7.5602171     168.5576  0.025308948  0.025641349            2 
  556000    1.0126986   -7.5487128    168.93565  0.025320092   0.02562387            4 
  557000    1.0594317   -7.5967329    169.07109  0.025294896  0.025606608            1 
  558000    1.0492065   -7.6019936    168.63789   0.02518487  0.025589102            1 
  559000    1.0127348    -7.602412    169.87151  0.025323719  0.025571455            1 
  560000    1.0496538   -7.5572541    170.00595  0.025298505  0.025554313            2 
  561000    1.0290018   -7.5403916    169.96092  0.025246719   0.02553708            2 
  562000    1.0432862   -7.5556694    170.30909  0.025253424    0.0255197            1 
  563000    1.0218375   -7.5691331    170.02613  0.025166686  0.025502369            3 
  564000    1.0227533   -7.5539381    170.81899  0.025239212  0.025485655            1 
  565000    1.0356618   -7.5813953    170.76618  0.025186751  0.025468863            1 
  566000    1.0319069   -7.5954546    170.80307  0.025147684  0.025451608            3 
  567000   0.99772397   -7.5752298    170.48173  0.025056104  0.025434123            1 
  568000    1.0147927   -7.6005813    170.73615  0.025049318  0.025416279            3 
  569000     1.056688   -7.5715834    170.99986  0.025043916  0.025398692            4 
  570000    1.0502781   -7.6081358    171.34733  0.025050779  0.025381396            1 
  571000     1.009171   -7.6495745    171.17089  0.024981158  0.025363523            1 
  572000    1.0165379   -7.5749603    171.28278  0.024953785  0.025345596            2 
  573000     1.026082   -7.5707171    171.94096  0.025005957  0.025327818            1 
  574000    1.0269415     -7.58349    171.85197  0.024949473  0.025309933            1 
  575000    1.0037057   -7.6091554    171.95321  0.024920756  0.025291943            2 
  576000    1.0073593   -7.6289393    171.99273  0.024883207  0.025273713            1 
  577000    1.0324597   -7.6411235     171.9922  0.024840006  0.025255102            1 
  578000    1.0481507   -7.5997152    172.23135   0.02483151  0.025236929            1 
  579000    1.0068321   -7.6138595    172.56094  0.024836059  0.025218792            6 
  580000    1.0089008    -7.600481    172.77491  0.024823981  0.025200581            1 
  581000    1.0024525   -7.6081536    172.73347  0.024775311  0.025182633            1 
  582000    1.0340818   -7.5692426    173.31169  0.024815535   0.02516426            4 
  583000    1.0273504   -7.5930456     173.4914  0.024798657  0.025146431            4 
  584000     1.014634   -7.6174837     173.3194   0.02473165    0.0251284            1 
  585000    1.0353765   -7.6190689    173.58264  0.024726871  0.025110159            1 
  586000     1.013659   -7.6151255     174.1351  0.024763239  0.025092264            2 
  587000    1.0429855   -7.5973587     174.2229  0.024733518  0.025074421            2 
  588000     1.031607    -7.624767    174.88902  0.024785859   0.02505673            3 
  589000    1.0222059   -7.5867411    174.66596  0.024712219  0.025038982            3 
  590000    1.0419482   -7.6155763    175.03292  0.024722164  0.025021129            1 
  591000   0.98991055   -7.6228577    174.42534  0.024594662  0.025002981            2 
  592000    1.0177968   -7.6088209    175.29247  0.024675178  0.024984885            2 
  593000     1.019547   -7.6155348    175.44211  0.024654596  0.024966722            1 
  594000   0.99895745   -7.6242729    175.49531  0.024620555  0.024948655            2 
  595000    1.0103195   -7.5914577    175.62487  0.024597321  0.024930703            1 
  596000   0.99805033   -7.5914703    175.91314  0.024596357   0.02491276            2 
  597000    1.0047344   -7.6309771    175.95836  0.024561468  0.024895071            1 
  598000    1.0297895   -7.6054959    176.66702   0.02461915  0.024877602            1 
  599000    1.0158653   -7.6194899    176.97001  0.024620202  0.024860259            2 
  600000    1.0268361   -7.5828096    177.56123  0.024661282  0.024843307            3 
  601000    1.0056234   -7.5959023    176.87222  0.024524711  0.024825931            1 
  602000    1.0315489   -7.6490943    176.60869  0.024447493  0.024808368            2 
  603000    1.0071094   -7.6196339      177.196  0.024488115  0.024790449            2 
  604000      1.00542   -7.6010717    177.39995  0.024475711  0.024772432            1 
  605000   0.98222205   -7.6445354    176.95263  0.024373641  0.024754486            3 
  606000    1.0138825   -7.6184077    178.06337  0.024486162  0.024736596            1 
  607000    1.0083235   -7.6309807    177.82195  0.024412678  0.024718816            1 
  608000    1.0091608   -7.6284505    177.76536  0.024364769  0.024701134            4 
  609000     1.000754   -7.5882159    178.07379  0.024366966  0.024683028            2 
  610000    1.0134759   -7.5953655    178.43526  0.024376401    0.0246651            1 
  611000    1.0217423   -7.6395944    178.49277  0.024344349  0.024647246            5 
  612000    1.0253859   -7.6307705    178.73441  0.024337474  0.024629062            1 
  613000    1.0140038     -7.62911    178.90726   0.02432127  0.024611398            2 
  614000    1.0108374   -7.6138509     178.9466  0.024286998  0.024593822            2 
  615000    1.0021093   -7.6386499    179.00395  0.024255278  0.024576333            1 
  616000    1.0112669   -7.6803301    178.62628   0.02416481  0.024558566            2 
  617000    1.0134642   -7.6725064    179.54602  0.024249867  0.024540625            1 
  618000   0.98946535   -7.6216832    180.55397  0.024346544   0.02452318            2 
  619000   0.99692321   -7.6259958    180.66837  0.024322613  0.024506217            2 
  620000   0.99507107   -7.6335576    180.37742  0.024244277  0.024489251            2 
  621000   0.99329391   -7.6101177    180.50402  0.024222225  0.024472388            2 
  622000     1.024441   -7.6941652    180.97423   0.02424628  0.024455433            4 
  623000    1.0341045   -7.6788685      180.382  0.024128143  0.024437978            1 
  624000    1.0171753   -7.6380326    181.47223  0.024235073  0.024420736            2 
  625000    1.0017656   -7.6437952    181.64742  0.024219656  0.024403451            1 
  626000    1.0107279   -7.6764846    181.54706  0.024167607  0.024386247            2 
  627000     1.012721     -7.61622    182.38759  0.024240775  0.024369334            3 
  628000    1.0085572   -7.6682741    182.01378  0.024152572  0.024352159            1 
  629000    1.0189824   -7.6886362    182.16449   0.02413414  0.024335128            3 
  630000    1.0105437   -7.6679376    182.29775  0.024113459  0.024318448            2 
  631000    1.0003922   -7.6747602    182.23185  0.024066541  0.024301485            2 
  632000    1.0069323   -7.7162391    182.24046  0.024029597  0.024284203            1 
  633000    1.0219541   -7.7074655    182.46562  0.024021277  0.024266907            2 
  634000    1.0086748   -7.6521234    182.44773  0.023981037  0.024249568            3 
  635000    1.0167133   -7.6577308     182.7449  0.023982271    0.0242322            1 
  636000    0.9895587   -7.6498129     182.9957  0.023977423  0.024214718            2 
  637000     1.004652    -7.684328    182.41764   0.02386416  0.024197001            3 
  638000     1.004087   -7.6649949    183.07132  0.023912137  0.024179419            8 
  639000     1.015432   -7.6563813    183.26151  0.023899518  0.024161466            3 
  640000   0.98966499    -7.683756    182.74725  0.023795214  0.024143272            2 
  641000    1.0147029    -7.653907    183.22107  0.023819692  0.024124982            2 
  642000   0.98004297   -7.6532934    183.33244  0.023797046  0.024106838            2 
  643000    1.0020242   -7.6589559    183.15453  0.023736979  0.024088934            1 
  644000   0.99813913   -7.6553951    183.57571  0.023754621  0.024071002            1 
  645000    1.0016316   -7.6638367    183.86628  0.023755333  0.024053022            1 
  646000   0.98846502    -7.658995    184.26526  0.023770028  0.024034854            2 
  647000    1.0136187   -7.6550634     184.4619  0.023758617  0.024016604            2 
  648000   0.98066123   -7.6600442     184.2954   0.02370054  0.023998744            2 
  649000   0.99085581    -7.655397    185.19829  0.023779955  0.023981092            3 
  650000    1.0030673   -7.6735959    185.49874   0.02378189  0.023963576            2 
  651000    1.0055864   -7.6480611    185.00089   0.02368163  0.023946259            1 
  652000   0.99377965   -7.6774311    185.64552  0.023727699  0.023928824            2 
  653000    1.0097402   -7.6525035    185.65084  0.023692042  0.023911594            1 
  654000   0.97820485   -7.6479866    185.68848  0.023660611    0.0238942            2 
  655000   0.96657969   -7.6512639    185.90189   0.02365164  0.023877122            7 
  656000   0.98875441   -7.6652747    185.94908   0.02362158  0.023859853            2 
  657000   0.99754566   -7.6575098    186.63803  0.023673012  0.023842457            2 
  658000   0.99257711   -7.6825943    185.91421  0.023545366  0.023825054            4 
  659000    0.9702942   -7.6366901    186.93566  0.023638804  0.023807623            3 
  660000   0.98461446   -7.6484563    186.55431  0.023554837  0.023790109            2 
  661000   0.98139079    -7.704245    186.32038   0.02348971  0.023772792            2 
  662000   0.99633278   -7.6765333    187.37049  0.023586417  0.023755696            1 
  663000   0.97561501   -7.6776984    186.94369  0.023497196  0.023738404            3 
  664000   0.99719568   -7.6677221    187.53204  0.023535648   0.02372147            2 
  665000    1.0062139   -7.6450285    188.08119  0.023569071   0.02370471            1 
  666000   0.98542947   -7.6589119     188.3995  0.023573511  0.023688188            3 
  667000    0.9796146   -7.6969167    188.15436  0.023507541  0.023671777            2 
  668000     1.010054   -7.7491421    188.20173  0.023478259  0.023655548            1 
  669000   0.99289062   -7.6939502    189.04273  0.023547924  0.023639355            2 
  670000   0.95808553    -7.689313    189.02728  0.023510856  0.023623172            2 
  671000   0.98909739   -7.6928136    189.39935  0.023522026  0.023607149            1 
  672000    1.0005327   -7.6996266    189.45808  0.023494306  0.023591095            2 
  673000   0.98323586   -7.7080733     189.2226  0.023430237  0.023574826            1 
  674000   0.98831411   -7.6871357    190.22659  0.023519608  0.023558555            4 
  675000   0.97232428   -7.6694365    190.46947   0.02351475  0.023542423            2 
  676000   0.97874395   -7.7098711    189.99346  0.023421285  0.023526266            3 
  677000    0.9886892   -7.6412621    191.13612  0.023527341  0.023510381            1 
  678000    1.0085563   -7.6894769    190.71786  0.023441231  0.023494599            2 
  679000   0.97293648   -7.6541092    191.29919  0.023478055  0.023478868            1 
  680000   0.99524338   -7.7088992    190.69404  0.023369368  0.023463041            4 
  681000   0.97339742     -7.71042    191.23063  0.023400714  0.023447197            1 
  682000   0.97484593   -7.6933909    191.70119  0.023423899  0.023431524            1 
  683000   0.97699326    -7.695782    192.15363  0.023444806  0.023416026            2 
  684000   0.98630155   -7.7216442    191.82171  0.023370092  0.023400637            1 
  685000   0.98185334   -7.6895234    192.07005  0.023366186  0.023385236            1 
  686000   0.97075322   -7.6687834    192.67183  0.023405227  0.023370063            1 
  687000   0.97604583   -7.7010373    192.50031  0.023350353  0.023354747            3 
  688000    0.9704672   -7.7199983    192.69892   0.02334047  0.023339588            1 
  689000   0.97400581   -7.6916208    193.45067  0.023397517  0.023324388            4 
  690000   0.98419609   -7.6924773    193.32308  0.023348199  0.023309341            3 
  691000   0.95338513   -7.6881632    193.78606  0.023370243  0.023294196            1 
  692000   0.97152688   -7.7281981    193.79943  0.023338082  0.023279145            3 
  693000    1.0117592   -7.6875578    194.06096  0.023335854  0.023264222            2 
  694000    0.9765688   -7.7126457    194.03542  0.023299162  0.023249595            2 
  695000   0.96747151   -7.6888036    193.90404  0.023249884  0.023234637            2 
  696000   0.97096257   -7.7450378    193.58035  0.023177724   0.02321939            2 
  697000   0.97866785   -7.6970385    194.84487  0.023295657  0.023204112            1 
  698000   0.98003718   -7.7470452    194.10591  0.023174058   0.02318878            1 
  699000   0.99683647    -7.725644    194.57976  0.023197396  0.023173218            1 
  700000    0.9956999   -7.7383307    194.67784  0.023175934  0.023157976            3 
  701000    0.9755696   -7.7034939    194.92585  0.023172355  0.023142748            2 
  702000   0.98340869   -7.7322039    194.32853  0.023068439  0.023127371            2 
  703000   0.96807832   -7.7216307    195.17118  0.023135512  0.023112004            2 
  704000   0.96613833     -7.74476     195.2421  0.023111044  0.023096337            1 
  705000   0.96442732    -7.744405    195.06613  0.023057463  0.023080673            7 
  706000   0.95346391   -7.7560801    195.35752  0.023059197  0.023065036            1 
  707000   0.95606183   -7.6976104    195.83803  0.023083219  0.023049398            5 
  708000   0.94827947   -7.7472603    195.28566  0.022985601  0.023033755            4 
  709000   0.97914286   -7.7635359    195.10664  0.022932139  0.023018048            2 
  710000   0.95977701   -7.7211845    196.33177  0.023043635  0.023002467            2 
  711000   0.94869466   -7.7508174    195.99294  0.022971512  0.022986908            4 
  712000   0.97323296   -7.7105218    196.34203  0.022980106  0.022971214            1 
  713000   0.97040272   -7.7230809    196.25835  0.022938096  0.022955447            2 
  714000   0.96362311   -7.6811004    196.70916  0.022958585  0.022939891            2 
  715000   0.98115736   -7.6979041     196.7994  0.022936993  0.022924457            2 
  716000   0.98144278   -7.7180917    196.70927  0.022894468  0.022908915            6 
  717000   0.98130425   -7.7635269    196.61744  0.022851865  0.022893497            2 
  718000   0.96643011   -7.7756763    196.86602  0.022848888  0.022877705            1 
  719000   0.95820164   -7.7695647    196.60248  0.022786564  0.022861983            2 
  720000   0.95733308   -7.7897772    197.68053  0.022879691  0.022846484            1 
  721000   0.97396998   -7.7520066    197.34612  0.022809306  0.022831066            1 
  722000   0.97576721   -7.7456326    198.13777  0.022869087  0.022815684            1 
  723000   0.97577505   -7.7608865     197.7231  0.022789661  0.022800426            3 
  724000   0.98333827   -7.7555186    197.70668  0.022756294  0.022784924            1 
  725000   0.98020723   -7.7761148    197.84737  0.022741077  0.022769427            2 
  726000   0.96632582   -7.7370585     197.8084   0.02270528  0.022753756            6 
  727000   0.94565475   -7.7755061    197.88712  0.022683072  0.022738017            2 
  728000   0.97587113   -7.7330139    198.84407  0.022761455  0.022722424            1 
  729000   0.96746589   -7.7436293    198.57129   0.02269905  0.022707029            2 
  730000   0.92991029   -7.7320348    198.79256  0.022693215  0.022691599            2 
  731000   0.99069101   -7.7572818    198.51561  0.022630599  0.022675989            2 
  732000   0.96713469   -7.7642733     198.8019  0.022632275  0.022660246            2 
  733000   0.95733506   -7.7474839    199.27445  0.022655122  0.022644518            2 
  734000   0.95321297   -7.7322076    199.09336  0.022603696  0.022628825            2 
  735000   0.96803541   -7.7458667    198.63416   0.02252088  0.022612993            1 
  736000   0.94837302   -7.7595608    198.95011  0.022526054  0.022597097            2 
  737000   0.94076222   -7.7692406    199.07937  0.022510105   0.02258112            2 
  738000   0.97475918   -7.7686702    199.59207  0.022537497   0.02256524            1 
  739000   0.95902467   -7.8214451    199.00961  0.022441319  0.022549132            2 
  740000   0.93904428   -7.7839557     199.0174  0.022411869  0.022532999            2 
  741000   0.96362283   -7.8025257    199.76108  0.022465258  0.022516911            2 
  742000   0.96484404   -7.7674902    199.92859  0.022453795  0.022501131            2 
  743000   0.94869581   -7.7846908    199.63522  0.022390671  0.022485225            1 
  744000   0.95388343   -7.7845653    199.90664  0.022390977  0.022468993            2 
  745000   0.96354694   -7.7590177    200.63928  0.022442873  0.022453164            3 
  746000   0.94855325   -7.7851597    200.29403  0.022374221  0.022437216            2 
  747000   0.96555634   -7.7743398    199.69118  0.022277017  0.022421208            3 
  748000   0.97287845   -7.7720665    200.45349  0.022332163  0.022405046            2 
  749000   0.93808102   -7.7834932    200.70418  0.022330238  0.022388891            2 
  750000   0.95299707    -7.788879    200.73491  0.022303879  0.022372667            3 
  751000   0.96565014   -7.8048315    200.88244   0.02229055  0.022356401            2 
  752000   0.94883245   -7.7806767    201.01847  0.022275983  0.022340257            1 
  753000   0.93054674   -7.8218247    201.02232  0.022246826  0.022324014            2 
  754000   0.96653339   -7.7763592    201.09717  0.022225593   0.02230793            2 
  755000   0.95327677   -7.7783149     201.0096   0.02218649   0.02229192            3 
  756000   0.96727379   -7.7916776    201.58817  0.022220918  0.022275759            1 
  757000   0.97267457   -7.7781572    201.89053  0.022224849  0.022259765            2 
  758000   0.95333909   -7.7800233    201.21465  0.022121223  0.022243636            4 
  759000   0.94269464   -7.8022991    201.33047  0.022104795   0.02222725            2 
  760000   0.95378225   -7.8014071    201.64821   0.02211055  0.022210877            3 
  761000   0.93785801   -7.7864944    202.50395  0.022175203  0.022194986            2 
  762000   0.93816355   -7.7908126    202.09886    0.0221018  0.022178812            1 
  763000   0.95277064   -7.7957039    202.28894  0.022093594  0.022162909            1 
  764000   0.94577494   -7.8388457     202.3915  0.022075861  0.022146735            3 
  765000   0.93593894   -7.7863286    202.30616  0.022037708  0.022130586            5 
  766000   0.94495142   -7.7646386    203.16718  0.022102608   0.02211459            2 
  767000    0.9393686   -7.7709353    203.44929  0.022104443  0.022098752            1 
  768000   0.93279743   -7.7812254    203.45509  0.022076291   0.02208292            1 
  769000    0.9477537   -7.7998411    203.02893  0.022001401  0.022066982            2 
  770000   0.93965381   -7.8313285    203.10504  0.021981065  0.022050672            2 
  771000   0.96432508   -7.8434385    202.81923  0.021921663  0.022034509            1 
  772000   0.93678125   -7.7815664    203.90846  0.022010844  0.022018466            3 
  773000   0.93353554   -7.8140363    203.30802  0.021917639  0.022002552            2 
  774000   0.96163773   -7.7783113    203.48392   0.02190826  0.021986352            3 
  775000   0.95148483   -7.7913501    203.87081  0.021921592  0.021969982            1 
  776000   0.96400195    -7.780113    204.06023  0.021913684   0.02195392            1 
  777000    0.9648745   -7.8066722    203.87791  0.021865927  0.021937765            1 
  778000   0.95514234   -7.7881213    205.15599   0.02197472  0.021921798            2 
  779000   0.93297068   -7.7876219     204.6189  0.021889057    0.0219059            2 
  780000   0.94677771   -7.7578215    205.10817  0.021913266  0.021890219            3 
  781000   0.93106033   -7.7665461    205.42171  0.021918663  0.021874428            2 
  782000   0.94305846    -7.776008     205.3369  0.021881596  0.021858744            3 
  783000   0.92234423   -7.7978263    204.76855  0.021793162  0.021843097            2 
  784000    0.9600612   -7.8180524    205.27271  0.021818953  0.021827337            2 
  785000   0.93424056   -7.8060882    205.41208  0.021805954  0.021811681            1 
  786000   0.94440367    -7.823371     206.0639  0.021847318   0.02179619            4 
  787000    0.9448329   -7.8257058    205.53744  0.021763812  0.021780398            1 
  788000    0.9394237   -7.8313797    205.17598  0.021697967   0.02176461            1 
  789000   0.95243129   -7.8180086    205.87578  0.021744378  0.021748994            2 
  790000   0.93100664    -7.841197    206.64524  0.021798021  0.021733546            2 
  791000   0.94680367   -7.7879763    207.17681  0.021826466  0.021718301            2 
  792000   0.93480426    -7.781469    206.79205  0.021758422  0.021703108            1 
  793000   0.91657066   -7.7950467      206.928  0.021745271  0.021687729            1 
  794000   0.93554109   -7.7653675    206.85536   0.02171026  0.021672216            3 
  795000   0.92298233   -7.8424533    206.43616   0.02163901  0.021656492            1 
  796000   0.95345611   -7.8380126    206.07778  0.021574307  0.021640614            2 
  797000   0.92131814    -7.828797    206.30398  0.021570888  0.021624618            1 
  798000   0.94888785    -7.850518    206.76593  0.021592098  0.021608561            3 
  799000   0.92955925   -7.8342997     206.9907  0.021588517  0.021592565            3 
  800000   0.92328945   -7.8251881    207.27997  0.021591663  0.021576739            2 
  801000   0.93266679   -7.8710699    206.89134  0.021524276  0.021560896            1 
  802000   0.92105208   -7.8309702    207.51084  0.021561808  0.021545133            2 
  803000   0.95401715   -7.8198725    207.23835  0.021506678  0.021529316            2 
  804000   0.93479793   -7.8160064    206.79515  0.021433991  0.021513434            5 
  805000   0.92877201   -7.8343538    207.83923  0.021515448  0.021497539            4 
  806000   0.93633465    -7.800811    207.39909  0.021443247  0.021481484            1 
  807000    0.9398596   -7.8450451    207.06964  0.021382656  0.021465253            2 
  808000   0.91494154   -7.8335161     207.6701  0.021418121  0.021449022            1 
  809000   0.93354534   -7.8562525    207.58299  0.021382673  0.021432949            2 
  810000   0.93585451   -7.8274688    207.89726  0.021388607  0.021416949            2 
  811000   0.92539965   -7.8377753    207.41343  0.021312518  0.021400881            2 
  812000   0.93529483    -7.821898     207.7009  0.021315774  0.021384735            2 
  813000   0.92176958   -7.8171767    207.82026  0.021301789  0.021368685            1 
  814000   0.93163956   -7.8456833    207.82999  0.021276616  0.021352756       -1e+20 
  815000   0.93947785    -7.801996    209.30216  0.021401039  0.021337067            2 
  816000   0.91811621   -7.8181093    208.55589  0.021298599  0.021321464            1 
  817000   0.91809912   -7.8485031    208.90344   0.02130798  0.021305745            4 
  818000   0.93379503     -7.82579    209.19123   0.02131125  0.021290101            2 
  819000   0.92745774   -7.8535178    209.04275  0.021270121  0.021274351            2 
  820000   0.91713594   -7.8600664    208.94938  0.021234693  0.021258542            2 
  821000    0.9343229   -7.8817749     208.2665  0.021139515  0.021242489            3 
  822000   0.89756467    -7.884334    208.80992  0.021168889  0.021226263            2 
  823000   0.95040692   -7.8473676    209.18959  0.021181611  0.021210223            7 
  824000   0.93163354   -7.8467725    209.38827  0.021175998  0.021194278            2 
  825000   0.93063207   -7.8802572    208.92698  0.021103735  0.021178333            1 
  826000   0.92762138   -7.8548773     209.5357  0.021139599  0.021162597            4 
  827000   0.92020659   -7.8860388    209.08855  0.021068979  0.021146695            2 
  828000   0.93676798   -7.8421512    210.54731  0.021190349  0.021130954            2 
  829000    0.9251835   -7.8733916    209.71708  0.021081331   0.02111524            3 
  830000   0.92528541   -7.8530893    210.45655  0.021130176  0.021099371            1 
  831000   0.93288898   -7.8336783    210.77238   0.02113642  0.021083684            1 
  832000   0.92470102   -7.8705597    210.57667  0.021091414   0.02106802            1 
  833000   0.92560621   -7.8632165    210.84995  0.021093433  0.021052399            5 
  834000   0.91590591   -7.8475437    210.74737   0.02105789  0.021036901            1 
  835000   0.94949196   -7.8369171    210.55117  0.021013091  0.021021339            1 
  836000   0.90775059   -7.8141276    211.10265  0.021042928  0.021005712            2 
  837000   0.92190977   -7.8548183    211.40297  0.021047687  0.020990203            1 
  838000   0.92403221   -7.8781111    210.98957  0.020981461  0.020974631            2 
  839000   0.89474459   -7.8508169    211.03652  0.020961116  0.020959032            2 
  840000   0.91465281   -7.8953434    211.69798  0.021001784  0.020943529            3 
  841000   0.90694373     -7.84686    211.69725  0.020976739  0.020928156            3 
  842000   0.91743712   -7.8417744    211.69376  0.020951481   0.02091279            1 
  843000    0.9253842   -7.8404794    211.97652  0.020954579  0.020897519            2 
  844000   0.90350692   -7.8652385    211.67682   0.02090016  0.020882134            2 
  845000   0.91960991   -7.8426837    212.19088  0.020926122  0.020866708            2 
  846000   0.93298051   -7.8850101    212.57618   0.02093934  0.020851232            3 
  847000   0.90561034   -7.8525757    212.38289  0.020895602  0.020835703            2 
  848000   0.91090265   -7.8845637    212.69205  0.020901342  0.020820263            4 
  849000   0.90093743   -7.8642401    212.76168  0.020883557  0.020804934            3 
  850000   0.92885342   -7.8430482    213.14398  0.020896468  0.020789564            4 
  851000   0.93859307   -7.8565665    212.94762  0.020852685  0.020774125            1 
  852000   0.91286573   -7.8908453    213.21379  0.020854244  0.020758692            1 
  853000   0.90641118   -7.8731427    213.18546  0.020827028  0.020743237            1 
  854000   0.93218871    -7.856508    213.25415  0.020809343  0.020727839            1 
  855000   0.92148245   -7.9139393    212.44236  0.020705883   0.02071241            1 
  856000   0.89103496   -7.8699857    212.73325  0.020710013  0.020696838            2 
  857000    0.8982309   -7.8669558    213.69781  0.020779639  0.020681619            2 
  858000   0.91714899   -7.8701315    213.67831  0.020753526  0.020666377            1 
  859000   0.91719309   -7.8817596    213.09783  0.020673053  0.020650994            2 
  860000   0.91583909   -7.8958026    213.33168  0.020671674  0.020635516            1 
  861000   0.92142448   -7.9075065    213.56688  0.020670429  0.020620127            1 
  862000   0.90381096   -7.8860682     213.6161  0.020651209  0.020604741            2 
  863000    0.9293744   -7.8821167    214.02008  0.020666289  0.020589267            2 
  864000   0.89710956   -7.8750405    214.17256  0.020657076   0.02057382            4 
  865000   0.91885182   -7.8873129    213.95923  0.020612643  0.020558379            2 
  866000   0.88742073     -7.88408    213.91812  0.020584884  0.020542994            3 
  867000   0.89124038   -7.8686081    214.44102  0.020611402  0.020527633            2 
  868000     0.911515   -7.8713305    214.39179  0.020582929  0.020512316            5 
  869000   0.91251728   -7.9100763    214.28719  0.020549212  0.020497017            1 
  870000   0.90209067   -7.9189826    214.74161  0.020569119  0.020481709            2 
  871000   0.90469867   -7.8954453    214.23997  0.020497509  0.020466304            1 
  872000   0.90195122   -7.9091258    214.68852  0.020516869  0.020450832            2 
  873000   0.92592518    -7.867983    215.37821  0.020559203  0.020435462            2 
  874000   0.93045471   -7.9018749    215.60809  0.020557598  0.020420237            1 
  875000    0.9269058   -7.8958581    215.37439  0.020511847  0.020405171            2 
  876000   0.90288287   -7.8951801    214.96254  0.020449253  0.020390006            1 
  877000   0.91973246   -7.9045485    215.30476  0.020458453  0.020374775            1 
  878000   0.91151289   -7.9184423    215.05595  0.020411537  0.020359675            1 
  879000   0.91573767   -7.8691031    215.88439  0.020466855   0.02034456            4 
  880000   0.88590339   -7.8933046     215.4156  0.020399204  0.020329464            1 
  881000   0.90066468   -7.9071493    215.13585  0.020349589  0.020314136            4 
  882000   0.91916518   -7.9245475    215.21423  0.020333922  0.020298742            1 
  883000   0.89253762   -7.9063694    215.64821  0.020351851  0.020283408            2 
  884000   0.89805056   -7.9343713    215.50275  0.020315116  0.020268002            2 
  885000   0.88955872   -7.8907852    215.62804  0.020303959  0.020252566            1 
  886000   0.91045162   -7.8815656    216.10636  0.020326031   0.02023716            1 
  887000   0.91354096   -7.9150072    215.96617  0.020289944  0.020221959            1 
  888000   0.89344171   -7.9245599    216.00997  0.020271206  0.020206715            1 
  889000   0.89534987   -7.9381438     215.8058  0.020229265  0.020191374            2 
  890000   0.91658077   -7.9041659    215.92793  0.020217971  0.020176028            3 
  891000   0.90688669   -7.9087327    216.11446  0.020212725  0.020160723            2 
  892000   0.88927585   -7.9159973    216.39914  0.020216661  0.020145441            1 
  893000   0.89415175    -7.964293    215.88394  0.020145944  0.020129953            2 
  894000   0.90128253   -7.9200589    216.89577  0.020217727  0.020114675            2 
  895000   0.89965736   -7.9034668    216.31275  0.020140852  0.020099455            2 
  896000   0.88726615   -7.9525739    215.92877  0.020082661  0.020084101            2 
  897000   0.88026111   -7.9282946    216.37206  0.020101455  0.020068612            1 
  898000   0.91425687   -7.9615224    216.92801  0.020130662  0.020053056            2 
  899000   0.88999565   -7.9458624    216.84343  0.020100429   0.02003758            2 
  900000   0.88314962   -7.9294392    216.78099  0.020072314  0.020022227            3 
  901000    0.8938532    -7.941943    217.15782  0.020084889  0.020007006            2 
  902000   0.88054323   -7.9128508    217.43089   0.02008785  0.019991897            2 
  903000   0.90149181   -7.9409371    217.56954    0.0200784  0.019976896            3 
  904000   0.88218086   -7.9309483    218.28878  0.020122491  0.019961936            3 
  905000   0.90061812   -7.9741103    217.59955  0.020036791  0.019947006            3 
  906000   0.88234276   -7.9541054    217.85571  0.020038237  0.019932191            1 
  907000   0.88913072   -7.9518475    218.14264  0.020042506  0.019917464            3 
  908000   0.87696598    -7.928302    219.15574  0.020113412   0.01990285            1 
  909000   0.89318511   -7.9337572    219.49774  0.020122639  0.019888332            2 
  910000   0.88967914   -7.9633926    218.55618  0.020014303  0.019873731            3 
  911000   0.88438129   -7.9512854     218.8724  0.020021259  0.019858974            2 
  912000   0.89962122   -7.9282325    219.46585  0.020053531  0.019844391            1 
  913000   0.87504382    -7.913263    219.20546    0.0200078  0.019829896            3 
  914000   0.88791699   -7.9651392    219.53001  0.020015501  0.019815372            1 
  915000   0.89411927   -7.9539489    219.56355   0.01999668   0.01980088            2 
  916000   0.89921148   -7.9258332    219.63176  0.019981055  0.019786502            1 
  917000   0.89406607   -7.9554823    219.30687  0.019929741  0.019772143            2 
  918000   0.85918593   -7.9116742    220.18964  0.019988166  0.019757758            1 
  919000   0.88628846   -7.9661684      219.394  0.019894269   0.01974335            4 
  920000   0.88815397   -7.9399568     220.2302  0.019948388  0.019728915            3 
  921000     0.867578   -7.9499622    220.53969  0.019954732  0.019714541            2 
  922000    0.9084456   -7.9542448    219.92374  0.019877417  0.019700024            3 
  923000   0.88382893      -7.9841    220.32622  0.019892219   0.01968553            2 
  924000   0.89456006   -7.9825709    220.55494  0.019891319  0.019671134            2 
  925000    0.8893336   -7.9884655    219.97838  0.019817872  0.019656607            2 
  926000   0.88405125   -7.9701186    220.21102  0.019817407  0.019642099            6 
  927000   0.86892299   -7.9670168    219.97793  0.019775075  0.019627618            2 
  928000   0.88634117   -7.9408366    220.41677  0.019793172  0.019613077            2 
  929000   0.87443367   -7.9528545    220.47884  0.019777435  0.019598485            2 
  930000   0.87243779   -7.9540285    220.64521  0.019771076  0.019583857            2 
  931000   0.88651942   -7.9737329    220.51393  0.019738089  0.019569212            1 
  932000   0.89433681   -7.9882193     220.4393  0.019710238  0.019554408            2 
  933000   0.87807444   -7.9564241    221.16949  0.019754331   0.01953963            2 
  934000   0.87209485    -7.986015    220.72158  0.019693218  0.019525014            7 
  935000   0.89300143   -7.9478196     220.9339  0.019691079  0.019510336            4 
  936000    0.8633292   -7.9373816    220.61873  0.019641981  0.019495663            1 
  937000   0.89180661   -7.9627342    221.30974  0.019682474  0.019480977            4 
  938000   0.85904591   -7.9605434    221.36065  0.019666013  0.019466335            2 
  939000   0.86503065   -7.9676143    221.16769  0.019627945  0.019451665            2 
  940000   0.90703626   -7.9461083    220.81455  0.019575758  0.019437192            5 
  941000   0.87058811   -7.9679267     221.2859  0.019596696  0.019422731            4 
  942000   0.90216631   -7.9468498    221.88564  0.019628949  0.019408274            5 
  943000   0.89549694   -7.9462305    221.81685  0.019602055  0.019393813            1 
  944000   0.86806145    -7.943053     221.4953  0.019552904   0.01937937            2 
  945000   0.87625495   -7.9992505    221.39075  0.019522994  0.019364747            2 
  946000    0.8812454   -7.9585426    221.75594  0.019534526  0.019350131            5 
  947000   0.86053869   -7.9813802    221.65332  0.019504868  0.019335555            2 
  948000    0.8787492   -7.9717632    221.76753  0.019494333  0.019321062            2 
  949000   0.88700186   -7.9740709    222.10339  0.019503283  0.019306541            3 
  950000   0.87357655   -7.9591702     222.1335  0.019485395  0.019291969            3 
  951000   0.87480187   -7.9762842    222.01629  0.019454634  0.019277368            3 
  952000   0.90552868   -7.9895685    222.08775  0.019440454  0.019262796            2 
  953000   0.86043512   -7.9752092    221.87187  0.019401178  0.019248252            4 
  954000   0.88493539   -7.9975981    222.29241  0.019417576  0.019233712            1 
  955000   0.86398457   -8.0032571    222.68548  0.019431542   0.01921907            1 
  956000    0.8560189   -8.0097693    221.53259  0.019310721  0.019204305            3 
  957000   0.86947461   -8.0067851    222.12981  0.019342547  0.019189567            2 
  958000   0.88878656   -8.0059606    222.13267  0.019322605  0.019174856            3 
  959000   0.86447611   -7.9886142    222.41079  0.019326624  0.019160049            3 
  960000   0.86541921   -8.0074466    222.37137  0.019303071  0.019145232            2 
  961000   0.85812509   -7.9959861    222.84586   0.01932413  0.019130487            1 
  962000   0.86238766   -7.9747508    223.03495  0.019320422  0.019115767            2 
  963000   0.87408144   -7.9970716    222.85805  0.019285051  0.019101225            5 
  964000   0.86514398   -7.9877016    222.87264  0.019266307  0.019086678            2 
  965000   0.85342994    -7.953889    222.93458  0.019251691  0.019072204            2 
  966000   0.86770693      -7.9675    223.43481  0.019274915  0.019057663            1 
  967000   0.85956598   -8.0031165    222.96257  0.019214286  0.019043139            3 
  968000   0.87360562   -7.9814529    223.69632  0.019257603  0.019028581            2 
  969000   0.86520179   -7.9989321    223.22954  0.019197587  0.019013992            1 
  970000   0.88359842   -8.0062033    223.23293  0.019178087  0.018999423            4 
  971000   0.86969134   -8.0079044    223.37292  0.019170351  0.018984822            2 
  972000   0.86175827    -7.992644    223.14655   0.01913122  0.018970231            2 
  973000   0.86786288   -8.0364935    222.35821   0.01904404  0.018955544            2 
  974000   0.85899485   -8.0418244    223.33102  0.019107719  0.018940755            3 
  975000   0.88193154   -8.0174879    223.16225  0.019073697  0.018926057            6 
  976000   0.86214992   -8.0176465    223.39419  0.019073957   0.01891132            2 
  977000    0.8629005   -8.0302952    223.51541  0.019064774  0.018896641            2 
  978000   0.86824306   -8.0774859    222.95253  0.018997319  0.018881974            1 
  979000   0.85596319    -8.011772    223.71004  0.019042393  0.018867243            2 
  980000   0.85389316   -8.0042987     223.1345  0.018974022  0.018852587            1 
  981000   0.86579153   -8.0039455    224.20402  0.019045534  0.018837789            2 
  982000   0.85484219   -8.0081455    223.94157  0.019003867  0.018823025            1 
  983000   0.85790957   -8.0020764    223.58414  0.018954234  0.018808188            2 
  984000   0.85611215   -8.0153642    223.83457   0.01895618  0.018793377            3 
  985000   0.85266868   -8.0455113     223.2974  0.018891489  0.018778498            3 
  986000    0.8463526   -7.9985869    223.48216  0.018887944  0.018763564            3 
  987000   0.88374763   -8.0778017    222.56545  0.018791409   0.01874864            3 
  988000   0.86930754   -8.0524957    222.88601  0.018799427  0.018733627            2 
  989000   0.85098117   -8.0399041    223.59518  0.018840174  0.018718513            3 
  990000   0.85537343   -8.0600334    222.99212  0.018770381   0.01870326            2 
  991000   0.85166648   -8.0257932    223.30408  0.018777672  0.018688043            1 
  992000   0.86284268   -8.0622946     223.3444   0.01876213  0.018672869            3 
  993000   0.86075245    -8.098439    223.33946  0.018742821  0.018657818            2 
  994000   0.85472982   -8.0389203    223.49429  0.018736946  0.018642721            1 
  995000   0.86275089   -8.0511805     223.6931  0.018734766  0.018627693            8 
  996000   0.83312803   -8.0347456    224.26176  0.018763534  0.018612849            1 
  997000   0.86425199   -8.0109711    224.69222  0.018780694  0.018598096            1 
  998000   0.84673088   -8.0502168    224.30491  0.018729535  0.018583324            1 
  999000   0.84780156    -8.059172    224.39117  0.018717982  0.018568424            2 
 1000000   0.85365622   -8.0302627    224.51115  0.018709263  0.018553706            2 
 1001000   0.83777341   -8.0530989     224.8733  0.018720721  0.018539024            4 
 1002000   0.84450345   -8.0496631    224.38319  0.018661276  0.018524255            1 
 1003000   0.84309405   -8.0668475    224.41369  0.018645205  0.018509398            2 
 1004000   0.86434196   -8.0856539    224.22691  0.018611131  0.018494513            1 
 1005000   0.85979869   -8.0545404    224.98108  0.018655148  0.018479736            1 
 1006000   0.82765919   -8.0062825    224.54795  0.018600724  0.018465036            3 
 1007000   0.86806046   -8.0370622    224.59309  0.018585989  0.018450319            1 
 1008000     0.836221   -8.0279219    224.66373  0.018573391  0.018435614            1 
 1009000   0.86342191   -8.0546604    225.15092   0.01859522   0.01842092            2 
 1010000     0.882945   -8.0264956    225.20475   0.01858125  0.018406268            2 
 1011000   0.85688531   -8.0675893    224.69439  0.018520803  0.018391577            4 
 1012000   0.83929529   -8.0377405    225.09305   0.01853533  0.018376858            2 
 1013000    0.8580645   -8.0801866    225.58378  0.018557402  0.018362204            2 
 1014000   0.83385455   -8.0527703    224.95569  0.018487483  0.018347506            3 
 1015000   0.82985396   -8.0156983    225.26718  0.018494842  0.018332837            1 
 1016000    0.8395277   -8.0389729    225.65691  0.018508605  0.018318116            2 
 1017000   0.84165454   -8.0548873    225.01275  0.018437623  0.018303487            1 
 1018000   0.86272919   -8.0477271    225.13991  0.018429921  0.018288853            2 
 1019000   0.81272057   -8.0545365    225.69554  0.018457274  0.018274111            2 
 1020000   0.84191451   -8.0507582    225.33641  0.018409838  0.018259328            1 
 1021000   0.84178132   -8.0720658     225.3969  0.018396743  0.018244607            1 
 1022000   0.85066566   -8.0530575    224.98984  0.018345552  0.018229869            3 
 1023000    0.8304389   -8.0487347    225.45735  0.018365701  0.018215177            1 
 1024000   0.84212438   -8.0877051    225.67704  0.018365644  0.018200477            4 
 1025000   0.85075793   -8.0542076    225.43757  0.018328258  0.018185837            1 
 1026000   0.84493514   -8.0561385    225.34963  0.018303251  0.018171271            2 
 1027000   0.85885449   -8.0455259    226.06379  0.018343378   0.01815661            2 
 1028000   0.82951754   -8.0431924    226.20859  0.018337272   0.01814197            2 
 1029000    0.8482756   -8.0687477    225.87438  0.018292386  0.018127333            1 
 1030000   0.84529374   -8.0886666    226.24264  0.018304421  0.018112665            2 
 1031000   0.84652737   -8.0490787    225.82565  0.018252962  0.018097988            2 
 1032000   0.83719218   -8.0640422    226.07634  0.018255518   0.01808342            1 
 1033000   0.85632819   -8.0543829    226.43011  0.018266385    0.0180688            2 
 1034000   0.83295471   -8.0888746    225.46239  0.018170728  0.018054133            3 
 1035000   0.85024937   -8.0748948    226.10182  0.018204655  0.018039343            2 
 1036000   0.80875321   -8.1143297    226.13809  0.018190001  0.018024588            2 
 1037000   0.85512477   -8.0982326    225.96838  0.018158822   0.01800982            2 
 1038000   0.84943834   -8.0366265    226.42457  0.018177952  0.017995189            2 
 1039000   0.85343993   -8.1213237    225.76735  0.018107744  0.017980545            1 
 1040000   0.84994272   -8.0789556    226.32171  0.018134752   0.01796576            2 
 1041000   0.84403146   -8.0671412    226.36432  0.018120743  0.017951058            1 
 1042000   0.83457398   -8.0971323    226.35096  0.018102284  0.017936393            2 
 1043000    0.8356761   -8.0777922    226.50488  0.018097226  0.017921734            3 
 1044000   0.84315276   -8.1055197    226.06511  0.018044788  0.017907044            2 
 1045000   0.83877102   -8.0610275    226.42268  0.018056035  0.017892421            1 
 1046000   0.82486044    -8.090238    226.49866  0.018044826  0.017877749            3 
 1047000   0.84788554   -8.0699824    227.02429  0.018069427  0.017863061            2 
 1048000   0.84121779   -8.0859078    227.20015   0.01806617  0.017848471            2 
 1049000   0.83318555   -8.0874649    227.22249  0.018050722  0.017833898            5 
 1050000   0.83175126   -8.0715348    226.62712  0.017986279  0.017819387            1 
 1051000   0.83301016   -8.1028697    226.59256  0.017966426  0.017804938            2 
 1052000   0.83016634   -8.0868638    227.49233  0.018020622  0.017790391            2 
 1053000    0.8264155   -8.0863327    227.47238   0.01800193  0.017775844            2 
 1054000   0.81870575   -8.1033165    226.77157  0.017929441  0.017761361            3 
 1055000   0.82117767   -8.1002372    226.91704  0.017923937  0.017746874            2 
 1056000   0.82133255   -8.0891173    227.09208  0.017920777  0.017732397            2 
 1057000   0.82091657   -8.0861662    227.80139  0.017959743  0.017717949            2 
 1058000   0.82756216   -8.1339651    227.05713  0.017884147  0.017703425            1 
 1059000   0.83756255    -8.096818    227.21968   0.01788005  0.017688957            2 
 1060000   0.83610469    -8.101679    227.21676  0.017862953  0.017674637            3 
 1061000   0.82750359   -8.0662724    228.29941  0.017931151  0.017660364            3 
 1062000   0.83248351   -8.1118708    227.68472  0.017866033  0.017646017            2 
 1063000   0.84094717   -8.1077852    228.04229  0.017877257   0.01763172            2 
 1064000   0.81098069   -8.0599182    228.02242  0.017858899  0.017617475            1 
 1065000   0.83194717   -8.1012087    228.28655  0.017862797  0.017603289            2 
 1066000   0.83791322   -8.1169981    227.60756  0.017792961  0.017588931            3 
 1067000   0.82311063   -8.1182511    227.48588  0.017766782  0.017574572            2 
 1068000   0.83098516   -8.1050814    227.76419  0.017771862  0.017560243            5 
 1069000   0.83049123   -8.1167176    227.83058  0.017760413  0.017545888            4 
 1070000   0.82780934   -8.1295056    228.28204  0.017778975  0.017531581            1 
 1071000   0.81493523   -8.1327224    227.62082  0.017710926  0.017517256            2 
 1072000   0.82291045   -8.1329283    228.00452  0.017724232  0.017502909            3 
 1073000     0.805853   -8.0804815    228.17702   0.01772111  0.017488516            1 
 1074000   0.82909242   -8.0873813    228.13992  0.017701731  0.017474223            1 
 1075000   0.83693533   -8.0989417    227.99778  0.017674246  0.017459853            2 
 1076000   0.81635743    -8.134276     228.1992   0.01767342  0.017445445            2 
 1077000   0.84362467    -8.099879    228.31267   0.01766579  0.017431201            3 
 1078000   0.83706468   -8.1159912    228.28314  0.017647119  0.017416912            2 
 1079000   0.81448121   -8.0965781    228.75868  0.017667492  0.017402716            1 
 1080000     0.828527   -8.1156267    228.23908   0.01761104  0.017388494            1 
 1081000   0.83578802   -8.0968937    229.06213  0.017658197  0.017374256            2 
 1082000   0.81960818   -8.1154408    228.54859  0.017602325  0.017360046            3 
 1083000   0.82985901   -8.0932148    228.76615  0.017602813  0.017345826            2 
 1084000   0.82626686   -8.1099266    228.18516   0.01754191  0.017331586            2 
 1085000   0.82068966   -8.0865024    228.40736  0.017542808  0.017317325            3 
 1086000   0.80166947   -8.1043031    228.99481  0.017571732   0.01730307            3 
 1087000   0.82998915   -8.1323833    228.38155  0.017508552  0.017288856            1 
 1088000   0.81985425    -8.131099    229.03204  0.017542282  0.017274613            2 
 1089000   0.83866673    -8.149319    227.88057   0.01743806  0.017260326            3 
 1090000     0.816364   -8.1254621    228.83362  0.017494925  0.017246058            2 
 1091000   0.82328085   -8.1558325    228.45935  0.017450301  0.017231896            2 
 1092000   0.80517542   -8.1522919    229.00244  0.017475766  0.017217704            3 
 1093000   0.79732767   -8.1403447    229.13618  0.017469974  0.017203567            2 
 1094000   0.83601002   -8.1318822    228.80117  0.017428486   0.01718945            3 
 1095000   0.80889341   -8.1587147    228.93719  0.017422921  0.017175311            2 
 1096000   0.81616146   -8.1462549     228.7108  0.017389811  0.017161171            4 
 1097000    0.8199273   -8.1617237    228.92543  0.017390264  0.017146945            4 
 1098000   0.81249404    -8.163084    228.66421    0.0173546  0.017132753            2 
 1099000   0.80793413   -8.1732238    229.31109   0.01738786  0.017118589            4 
 1100000   0.81749635   -8.1622325    229.17857  0.017362013  0.017104506            2 
 1101000   0.82930564   -8.1215292    228.91107  0.017325997  0.017090447            1 
 1102000   0.79512011   -8.1353372    229.42781  0.017349351  0.017076357            1 
 1103000   0.81667667   -8.1549511    229.34011  0.017326995  0.017062242            3 
 1104000   0.80796339   -8.1740215    229.14834  0.017296825  0.017048047            2 
 1105000    0.8234197   -8.1887129    228.85942  0.017259383  0.017033809            1 
 1106000   0.82164647   -8.1630312    228.74862  0.017235429  0.017019628            3 
 1107000   0.82832886   -8.1773446    229.33691  0.017264146  0.017005478            3 
 1108000   0.80209301   -8.1524808    229.64476  0.017271718  0.016991487            1 
 1109000   0.82179904   -8.1561081    229.37499  0.017235872  0.016977464            3 
 1110000   0.80692554   -8.1631444    229.43102  0.017224551  0.016963386            3 
 1111000   0.80669146   -8.1814032    229.69898  0.017229147  0.016949244            2 
 1112000   0.81871935   -8.1503327    229.73061  0.017216023  0.016935176            1 
 1113000   0.81633767   -8.1433122     229.6318  0.017193157  0.016921166            3 
 1114000   0.79495546   -8.1539464    229.78591  0.017189251  0.016907224            2 
 1115000   0.80784872   -8.1689693    230.31441  0.017213334  0.016893336            3 
 1116000   0.79165813   -8.1586653    229.18825  0.017113818  0.016879408            1 
 1117000   0.79901288   -8.1412895    229.58964  0.017128442  0.016865487            2 
 1118000    0.8268625   -8.1760089      229.926  0.017138193  0.016851537            5 
 1119000   0.80005182   -8.1880856    229.16852  0.017066467   0.01683748            2 
 1120000    0.8128954   -8.1638025    229.96447  0.017110452   0.01682349            3 
 1121000    0.8170775   -8.1769199    230.25396  0.017116708  0.016809613            4 
 1122000   0.79788618   -8.1668509    230.81398  0.017143046  0.016795776            3 
 1123000   0.80653056   -8.1790571    229.86846  0.017057618  0.016781881            3 
 1124000   0.80564058   -8.1795495    229.77162  0.017035262  0.016768052            3 
 1125000    0.8178726    -8.158959    230.40724  0.017067203  0.016754236            2 
 1126000   0.79905354   -8.1683388    230.47076  0.017056747  0.016740389            2 
 1127000   0.80086709   -8.1647666    229.89588  0.016999104   0.01672649            2 
 1128000   0.80371524    -8.165646    230.66416  0.017040792  0.016712594            1 
 1129000   0.78935447   -8.1679592    230.38526  0.017005112  0.016698691            2 
 1130000   0.80413947   -8.1895113    230.18106  0.016975005  0.016684756            4 
 1131000   0.79841209   -8.1937547    230.14943  0.016957665  0.016670823            1 
 1132000   0.79066273    -8.175962    230.53983  0.016971425  0.016656939            2 
 1133000    0.8209388   -8.2324133    230.14488  0.016927397  0.016642998            2 
 1134000    0.7952837   -8.1573503    230.73609  0.016955915  0.016629088            2 
 1135000   0.79147175   -8.1154259    230.96375  0.016957691  0.016615298            4 
 1136000   0.81001286   -8.2047453    230.17205  0.016884687   0.01660151            2 
 1137000   0.79792125    -8.191383      230.703  0.016908751  0.016587725            4 
 1138000   0.79443232   -8.1976445     230.9677  0.016913277   0.01657395            4 
 1139000   0.80228006   -8.1963975    230.68225  0.016877542   0.01656015            3 
 1140000   0.80004884   -8.2095437    231.04855  0.016889514  0.016546362            4 
 1141000   0.81913296   -8.1956294    230.68641  0.016848262  0.016532641            3 
 1142000   0.78965743   -8.1961273    230.26823  0.016802994  0.016518866            2 
 1143000     0.793471   -8.1826291    230.60823  0.016813082  0.016505144            1 
 1144000   0.79707679   -8.1806084     230.9622   0.01682417   0.01649145            1 
 1145000   0.78596852   -8.1801326    232.05379  0.016888922  0.016477869            6 
 1146000   0.79116429   -8.1875277    231.27974  0.016817898  0.016464349           11 
 1147000   0.81249597   -8.1855947     231.1714  0.016795365  0.016450745            1 
 1148000   0.80044082   -8.1871823    231.45555  0.016801361  0.016437155            1 
 1149000   0.79889413   -8.2084531     231.8032  0.016811952  0.016423578            1 
 1150000   0.80184501   -8.1783085    231.62681  0.016784552  0.016410091            3 
 1151000    0.8010146   -8.1647658    231.58546  0.016766975   0.01639659            2 
 1152000   0.78986203   -8.1889008    230.98976  0.016709329   0.01638311            3 
 1153000   0.78571423   -8.1988562    231.44533  0.016727763  0.016369575            2 
 1154000   0.80470907   -8.2029175    231.79281   0.01673836  0.016356029            2 
 1155000    0.7907842   -8.1812049    231.57805  0.016708373  0.016342463            2 
 1156000   0.80953238   -8.1861334    231.57614  0.016693782  0.016328975            4 
 1157000   0.78010367   -8.1773354    231.68301   0.01668705  0.016315523           10 
 1158000   0.79820924   -8.2118024     231.6812   0.01667251  0.016302081            2 
 1159000   0.78885216   -8.1975537    231.77651  0.016664978  0.016288605            2 
 1160000   0.78271991   -8.2076839    231.68961  0.016644369  0.016275148            2 
 1161000   0.78784359   -8.1455288    231.89109  0.016644494  0.016261706            3 
 1162000   0.78283695   -8.2067939     231.6772  0.016614831  0.016248282            2 
 1163000   0.80416858    -8.210963    231.67421   0.01660033  0.016234833            4 
 1164000   0.79831202   -8.2387533    231.23984  0.016554971  0.016221319            2 
 1165000   0.80271512   -8.1996651    231.78593  0.016579824  0.016207781            2 
 1166000   0.77779144   -8.2279064    231.57628   0.01655062  0.016194231            6 
 1167000   0.80244465   -8.2207123    231.62555  0.016539956  0.016180699            2 
 1168000   0.78877635   -8.2054496    231.18689  0.016494499  0.016167189            3 
 1169000   0.80175844   -8.1992813    231.52994  0.016504843  0.016153657            5 
 1170000   0.80344414   -8.2518791    231.21162  0.016468064  0.016140106            2 
 1171000   0.77370416   -8.2346167    231.46544  0.016472063  0.016126532            2 
 1172000   0.78964946   -8.2350623    231.70845  0.016475288  0.016112977            4 
 1173000   0.78550016   -8.2544056     231.7885   0.01646693  0.016099485            7 
 1174000   0.78561274   -8.2533508    231.71378  0.016447599  0.016085962            3 
 1175000   0.77980705   -8.2159755    231.30448  0.016404573  0.016072409            1 
 1176000   0.79977491   -8.2240692      231.351   0.01639392  0.016058909            2 
 1177000    0.7863207   -8.2459197    231.74328  0.016407766  0.016045475            5 
 1178000   0.80018737   -8.2227758    232.33884  0.016435968   0.01603206            4 
 1179000   0.79018324   -8.2291954    232.72581  0.016449379  0.016018723            1 
 1180000   0.77226218   -8.2033021    232.47822  0.016417953  0.016005441            6 
 1181000   0.79759419   -8.2300614    232.59933  0.016412597  0.015992132            4 
 1182000   0.78585082   -8.2424984    232.38738  0.016383769   0.01597882            3 
 1183000   0.79043349   -8.2404737    232.17966  0.016355287  0.015965477            3 
 1184000   0.79465684   -8.2224776    232.60072  0.016371109  0.015952171            2 
 1185000   0.78546753   -8.2291411    232.54426  0.016353323   0.01593883            2 
 1186000   0.76846556   -8.2829979    231.76358  0.016284681  0.015925479            1 
 1187000   0.78367859   -8.2311523    232.08632   0.01629362  0.015912177            2 
 1188000   0.76882476   -8.2402523    232.35774  0.016298943  0.015898898            3 
 1189000   0.79553355   -8.2124073    232.41256  0.016289078  0.015885671            3 
 1190000   0.80437473   -8.2473358    232.69212  0.016294966  0.015872489            2 
 1191000   0.79172929   -8.2466136    232.60772  0.016275379  0.015859281            5 
 1192000   0.77325569   -8.2143217    233.37821  0.016315591  0.015846135            4 
 1193000    0.7934447   -8.2412302    232.95547  0.016272385  0.015832973            2 
 1194000   0.80055473   -8.2433421    232.59605  0.016233672  0.015819808            2 
 1195000   0.77501388   -8.2237687    232.75317  0.016231044  0.015806566            3 
 1196000   0.78972446   -8.2591287    232.70253  0.016213944  0.015793328            6 
 1197000   0.77666986    -8.213954    232.45531  0.016183188  0.015780081            2 
 1198000   0.75799496    -8.227379    232.75229  0.016190338  0.015766843            1 
 1199000   0.79328217   -8.2777459     232.4687  0.016157124  0.015753659            1 
 1200000    0.7855991   -8.2365258    232.29588  0.016131658  0.015740413            2 
 1201000   0.76642719   -8.2498876    233.00727  0.016167588  0.015727187            3 
 1202000   0.78132631   -8.2401629    233.05117   0.01615718   0.01571402            1 
 1203000   0.77844943   -8.2526894    232.96213  0.016137582  0.015700874            1 
 1204000   0.78811632   -8.2554014    232.62327  0.016100724  0.015687752            4 
 1205000   0.77132766   -8.2541012    232.68254  0.016091462  0.015674615            3 
 1206000   0.78015584   -8.2679505    233.20778  0.016114413  0.015661538            3 
 1207000   0.75667045   -8.2517784    232.86744  0.016077564  0.015648468            5 
 1208000   0.77537598    -8.271161    233.46506  0.016105481  0.015635344            4 
 1209000   0.78622869   -8.2365631    233.70475  0.016108682  0.015622257            2 
 1210000   0.78326287   -8.2538429    233.41268  0.016075253  0.015609164            3 
 1211000   0.77315966   -8.2731263    232.86534  0.016024315  0.015596119            2 
 1212000   0.76385552   -8.2614018    232.96153  0.016017707  0.015583044            5 
 1213000   0.77042157   -8.2894473    233.17277  0.016019014  0.015569936            2 
 1214000    0.7742228   -8.2796663    233.08274  0.015999639  0.015556912            8 
 1215000   0.77144409   -8.2612161    233.08896  0.015986897  0.015543869            5 
 1216000   0.77459056    -8.277462    233.24904   0.01598472  0.015530849            5 
 1217000   0.75898736   -8.2842549    233.15292  0.015965004  0.015517815            2 
 1218000   0.75256678    -8.240422     232.9009  0.015934654  0.015504815            2 
 1219000   0.78208664   -8.2485055    233.40316  0.015955918  0.015491801            1 
 1220000   0.76472343   -8.2861033    233.48974  0.015948753  0.015478826            6 
 1221000   0.77028555   -8.2626391    233.47378  0.015934601   0.01546587            3 
 1222000   0.76342289   -8.2622788    233.15394   0.01589975  0.015452881            3 
 1223000   0.74951725   -8.2769132    233.64038  0.015919895  0.015439933            2 
 1224000   0.77691597   -8.2694566    233.73678  0.015913452  0.015426962            4 
 1225000   0.76860341   -8.2898662    232.95013  0.015846948  0.015413993            3 
 1226000   0.76228661   -8.2772023    232.83568  0.015826243  0.015401063            4 
 1227000   0.76750055   -8.2948038    232.91213  0.015818536  0.015388065            2 
 1228000   0.76641613   -8.2759033    233.77038  0.015863896  0.015375046            3 
 1229000   0.75094663   -8.3101907    232.85329  0.015788804  0.015362049            9 
 1230000   0.78472732   -8.3151767    232.75677  0.015769429  0.015349049            6 
 1231000    0.7503204   -8.3032852    233.14911  0.015783179  0.015336096            3 
 1232000   0.76312609   -8.2675433    233.53954  0.015796776   0.01532318            3 
 1233000   0.76238837   -8.3182456    232.88201  0.015739525  0.015310272            2 
 1234000   0.75834045   -8.3006629    233.21812  0.015749468  0.015297338            3 
 1235000   0.75532746   -8.2772242    233.58147  0.015761233  0.015284382            1 
 1236000   0.75394545   -8.2571878    233.05104  0.015712719   0.01527141            1 
 1237000    0.7463747   -8.3024683    233.71645  0.015744843  0.015258454            3 
 1238000   0.76313643   -8.3077623    232.78956  0.015669734  0.015245498            2 
 1239000   0.74649894   -8.3117661    233.34016  0.015694119  0.015232472            2 
 1240000   0.75795556   -8.3438509    232.80119  0.015645241  0.015219453            2 
 1241000   0.76412008   -8.3263103    232.59136  0.015618544  0.015206389            3 
 1242000   0.74529874   -8.3425551    232.82169  0.015621423   0.01519333            2 
 1243000   0.76733543   -8.3106617    232.79873  0.015607316  0.015180327            2 
 1244000   0.76484066   -8.3038611    233.09281   0.01561447   0.01516733            2 
 1245000   0.76568129   -8.3363497     233.3865  0.015621586  0.015154344            7 
 1246000   0.77422915   -8.2988279    233.11172  0.015590671  0.015141344            1 
 1247000   0.74923059   -8.3140597    233.34189  0.015593551  0.015128348            3 
 1248000    0.7516535   -8.2875461    233.68411  0.015603907  0.015115409            4 
 1249000   0.76382465   -8.3090242    233.11803  0.015553645   0.01510246            2 
 1250000    0.7447495   -8.3262863    233.30364  0.015553576  0.015089567            2 
 1251000   0.74363624   -8.3164177    233.45325  0.015551109  0.015076658            3 
 1252000   0.75015928   -8.3227161    233.23869  0.015524407  0.015063798            2 
 1253000   0.73963118    -8.317943     233.1292  0.015504735  0.015050902            7 
 1254000   0.75345749   -8.3100144    233.74408  0.015533233  0.015038052            9 
 1255000   0.76288133   -8.3201485    233.66587  0.015515662  0.015025216            4 
 1256000   0.74397316   -8.3319295    233.25556  0.015476085  0.015012359            2 
 1257000   0.73102793   -8.3396217    233.39035   0.01547271  0.014999529            2 
 1258000   0.74500791   -8.3381511    233.48908   0.01546695   0.01498671            1 
 1259000   0.74257668   -8.2948164    233.30151   0.01544225  0.014973893            3 
 1260000   0.75843362   -8.3060096    233.86562  0.015467303  0.014961084            3 
 1261000   0.74608206   -8.3442787    233.05971  0.015401778  0.014948277            2 
 1262000   0.75887266   -8.3310188    233.32022  0.015406776  0.014935469            4 
 1263000   0.73118485   -8.3356427    233.39419  0.015399458  0.014922668            3 
 1264000   0.73839446   -8.3194336    233.12349  0.015369428  0.014909859            5 
 1265000   0.74293955   -8.3334489    233.25226  0.015365761  0.014897017            2 
 1266000   0.73589102   -8.3428527    233.44788  0.015366501  0.014884233            2 
 1267000   0.73613341   -8.3396259    233.43277  0.015353379  0.014871396            7 
 1268000   0.74183287   -8.3548082     233.1732  0.015324211  0.014858588            2 
 1269000   0.75086503   -8.3226002     233.4295  0.015328966   0.01484578            2 
 1270000   0.74038923   -8.3357754    233.59581  0.015327809   0.01483299            2 
 1271000   0.74756338    -8.337668    233.27278   0.01529457  0.014820209            3 
 1272000   0.74864795   -8.3493589    233.49029  0.015296796  0.014807437            3 
 1273000    0.7610819   -8.3791768    233.51664  0.015286504  0.014794683            5 
 1274000   0.76087101    -8.365124    233.68891  0.015285774  0.014781909            2 
 1275000   0.74181286   -8.3588762    233.81027  0.015281717  0.014769133            2 
 1276000   0.74737874   -8.3573504    233.40421  0.015243222  0.014756309            3 
 1277000   0.74028735   -8.3417983    233.08695  0.015210581   0.01474352            4 
 1278000   0.73268909   -8.3660749     233.3044  0.015212858  0.014730734            8 
 1279000   0.75419839   -8.3494476     234.1438  0.015255655  0.014718019            4 
 1280000   0.74246066   -8.3635847    233.19899  0.015182226  0.014705318            1 
 1281000   0.73632684   -8.3664495    233.52314  0.015191461  0.014692567            2 
 1282000   0.75279529   -8.3731117    233.17845  0.015157205   0.01467983            2 
 1283000   0.75454355   -8.3681146    233.18566   0.01514586  0.014667113            1 
 1284000    0.7364122   -8.3808815    233.69347  0.015167022  0.014654449            3 
 1285000   0.73702554    -8.368811     233.3628  0.015133774  0.014641795            1 
 1286000   0.73670439   -8.3793191     233.4138  0.015125311  0.014629153            3 
 1287000   0.75128152   -8.3592419    233.51054  0.015119823  0.014616518            5 
 1288000   0.72778204   -8.3481301    233.92898  0.015135156  0.014603899            2 
 1289000   0.72530043    -8.365684    233.70121  0.015108689  0.014591335            3 
 1290000   0.74355267   -8.3560571    233.83274  0.015105474   0.01457881            3 
 1291000   0.73933667   -8.3400198     234.3822  0.015129241   0.01456631            2 
 1292000    0.7451268    -8.364136    234.07589  0.015097774  0.014553746            3 
 1293000   0.72319336   -8.3514615    234.13751  0.015090069  0.014541226            2 
 1294000   0.73605711   -8.3861844    233.36725  0.015028803  0.014528718            3 
 1295000   0.74362382   -8.3366346    234.28789  0.015076441  0.014516192            3 
 1296000   0.71521409   -8.3715327    233.72591  0.015028672  0.014503702            4 
 1297000     0.734788   -8.3646688    233.69445  0.015015064  0.014491157            2 
 1298000   0.73603887    -8.377954    233.72625  0.015005537  0.014478639            3 
 1299000   0.72679539   -8.3773757    233.50021  0.014979485  0.014466126            4 
 1300000    0.7272793   -8.3911759    233.65994  0.014978201  0.014453584            2 
 1301000   0.73821147   -8.4072274    233.34112  0.014946267  0.014441045            3 
 1302000   0.73258094   -8.3721422    234.37149  0.015000735  0.014428571            7 
 1303000   0.74651932   -8.3766254    233.98495  0.014964502  0.014416121            1 
 1304000   0.71976157   -8.3849981    233.48435  0.014921035  0.014403695            4 
 1305000   0.72971286   -8.3530916    233.87965  0.014934844  0.014391281            6 
 1306000   0.72741515   -8.3924571    233.77227  0.014916556  0.014378878            5 
 1307000   0.73828682   -8.4249747    233.90321  0.014913492  0.014366438            2 
 1308000   0.72876997   -8.3774501    233.62447  0.014884332  0.014353982            4 
 1309000   0.75154732    -8.400807    233.74117  0.014880391  0.014341525            2 
 1310000   0.74489227   -8.3782129    233.86148  0.014876684  0.014329084            2 
 1311000   0.72131425   -8.3969442    233.90966    0.0148684  0.014316658            2 
 1312000   0.72219399    -8.396896    233.95668  0.014860053  0.014304219            4 
 1313000   0.74551183   -8.3676205    233.44098  0.014816006  0.014291788            3 
 1314000   0.70984773   -8.3912371    233.41394  0.014803015  0.014279323            1 
 1315000   0.73522647   -8.4239495    233.42497  0.014792457  0.014266881            2 
 1316000   0.73821023   -8.4091668     233.4862  0.014785093  0.014254434            5 
 1317000   0.72202609   -8.3897084    233.25072  0.014758967  0.014242004            1 
 1318000   0.73205301   -8.4371848    233.54607  0.014766443  0.014229541            2 
 1319000   0.72761544   -8.3797801    233.61514  0.014759612  0.014217098            2 
 1320000   0.74566158   -8.3831541    233.37744  0.014733424  0.014204706            2 
 1321000   0.72750898   -8.3830978    233.56851  0.014734324  0.014192282            4 
 1322000   0.71621576   -8.4068573    233.32969  0.014708125  0.014179866            3 
 1323000   0.72985396   -8.4084422    233.61094  0.014714723  0.014167453            2 
 1324000   0.72818653   -8.3754984    233.23867  0.014680178  0.014155036            3 
 1325000   0.74015908   -8.3955792    233.48662  0.014684693  0.014142618            2 
 1326000   0.73374605   -8.4174647    233.91389   0.01470047  0.014130234            3 
 1327000   0.71971222   -8.4102538    233.46394  0.014661136  0.014117827            3 
 1328000   0.72210349    -8.393878    233.82201  0.014672566  0.014105481            2 
 1329000   0.72831021   -8.3848745    232.97107  0.014608169  0.014093134            1 
 1330000   0.71780692   -8.3948487     233.7944  0.014648772  0.014080827            4 
 1331000   0.72441223    -8.386207    234.26092  0.014666975  0.014068529            2 
 1332000    0.7271839   -8.4182479    233.85838   0.01463078  0.014056284            3 
 1333000   0.70989487   -8.4161252     233.5326  0.014599438  0.014044011            2 
 1334000   0.70956614   -8.4401893    233.42846  0.014581988  0.014031668            2 
 1335000   0.70211785   -8.4027966    233.67373  0.014586375  0.014019363            2 
 1336000   0.72287673   -8.4109841    233.63289   0.01457291  0.014007072            4 
 1337000   0.71619223   -8.4030215    233.56504  0.014557781  0.013994771            3 
 1338000   0.73246412   -8.3986058    234.27012  0.014590814  0.013982549            3 
 1339000   0.71258453   -8.3961952    233.96499  0.014560928  0.013970309            2 
 1340000   0.72835343   -8.4353414    233.85953  0.014543503  0.013958059            4 
 1341000   0.72260064   -8.4308455    233.60105  0.014516595  0.013945806            2 
 1342000   0.70557826   -8.4283755    233.91533  0.014525294  0.013933616            3 
 1343000    0.7208398    -8.390113      233.946  0.014516381  0.013921406            2 
 1344000   0.72479553     -8.43844    233.53853  0.014480315  0.013909197            4 
 1345000   0.70468324   -8.4328533    233.70079  0.014479603  0.013896983            4 
 1346000   0.69768906   -8.4223837    233.31865  0.014445187   0.01388478            2 
 1347000   0.71931518   -8.4330983     233.6172  0.014452932  0.013872519            3 
 1348000   0.71085634   -8.4329762    234.07038  0.014470226  0.013860295            3 
 1349000   0.71464585   -8.4127543    233.28706  0.014411111  0.013848097            2 
 1350000   0.73570545   -8.4094452    233.15597  0.014392344  0.013835886            5 
 1351000   0.70563298   -8.4403967      233.346  0.014393412  0.013823677            2 
 1352000    0.7105105    -8.425761     233.2119  0.014374501  0.013811472            3 
 1353000   0.70724671   -8.4410649    233.24139  0.014365693  0.013799259            1 
 1354000   0.71358998   -8.4498067    233.74814  0.014386272  0.013787069            3 
 1355000   0.72034045   -8.4621278    233.18204  0.014340839  0.013774863            8 
 1356000   0.69991615   -8.4388858    233.76737  0.014366235  0.013762652            3 
 1357000   0.70307075   -8.4424892    233.81208  0.014358393  0.013750462            3 
 1358000   0.70799857   -8.4301819    233.59441  0.014334463  0.013738292            4 
 1359000   0.71129986   -8.4380067    233.45976  0.014315658  0.013726118            6 
 1360000   0.71358278   -8.4435888    233.41369  0.014302309  0.013713933            3 
 1361000   0.71448246   -8.4633025    233.38715  0.014290176  0.013701768            2 
 1362000   0.70838939    -8.419917    233.26891  0.014272449  0.013689638            2 
 1363000   0.70195848   -8.4411811    233.37093  0.014268215  0.013677484            5 
 1364000   0.72475447   -8.4577172    233.54794  0.014268569  0.013665394            2 
 1365000   0.72403145   -8.4245175    233.79852  0.014273414  0.013653304            7 
 1366000   0.69494051   -8.4567843     233.3257   0.01423412  0.013641212            4 
 1367000   0.72014109   -8.4395726    233.26265  0.014219864  0.013629102            1 
 1368000   0.70715339   -8.4531545     233.1704   0.01420385   0.01361698            5 
 1369000   0.71710289   -8.4612781    233.44332  0.014210088  0.013604925            2 
 1370000   0.71300453   -8.4470276    233.85267  0.014224615  0.013592891            1 
 1371000   0.70049195    -8.463588     233.4698  0.014190968  0.013580858            1 
 1372000   0.71340581   -8.4468887    233.85811   0.01420421  0.013568854            3 
 1373000   0.69981368   -8.4705826    233.61577  0.014179155   0.01355683            2 
 1374000   0.70349982   -8.4495343    233.79395  0.014179643  0.013544839            3 
 1375000   0.71532971   -8.4742805    233.85683  0.014173141  0.013532824            2 
 1376000   0.70053472   -8.4558901    233.94629  0.014168259  0.013520861            2 
 1377000   0.69860632   -8.4652231    233.42397   0.01412636  0.013508877            6 
 1378000   0.70937329   -8.4564073    233.52637  0.014122301   0.01349687            7 
 1379000   0.71207844   -8.4595506    233.47427  0.014108912  0.013484884            4 
 1380000   0.70014788   -8.4897309    233.19296  0.014081701  0.013472882            3 
 1381000    0.7077197   -8.4518736    233.52596  0.014091598  0.013460925            2 
 1382000    0.6910595    -8.441197    234.04498  0.014112698  0.013449007            4 
 1383000   0.68751941   -8.4691799    233.29689  0.014057417  0.013437132            3 
 1384000   0.69459767   -8.4906641    233.42429  0.014054931  0.013425218            4 
 1385000   0.69125741   -8.4733774    233.35051  0.014040344  0.013413328            3 
 1386000   0.68605343   -8.4731984    233.80891  0.014057775  0.013401445            2 
 1387000   0.69205557   -8.4503471    233.49166  0.014028578  0.013389597            1 
 1388000   0.70337012   -8.4875903    233.30485  0.014007256  0.013377738            2 
 1389000   0.69283315   -8.4786186    233.75551  0.014024209  0.013365903            3 
 1390000   0.68562402   -8.4710058    233.86205  0.014020507  0.013354049            4 
 1391000   0.70464828   -8.4565819    234.03087  0.014020541  0.013342217            3 
 1392000   0.70930071   -8.4759233    233.41071  0.013973342  0.013330395            3 
 1393000   0.70411613   -8.4632226    233.58411  0.013973684  0.013318619            1 
 1394000   0.71063594   -8.4731302    233.76757  0.013974628  0.013306834            1 
 1395000   0.69471296   -8.4446634    233.72612  0.013962134  0.013295093            2 
 1396000   0.68651565   -8.4682632    234.14241  0.013976982  0.013283343            2 
 1397000    0.6821093   -8.4886285    233.88535  0.013951643  0.013271602            5 
 1398000   0.69215383   -8.4690966    233.71176  0.013931316  0.013259882            2 
 1399000    0.6975204   -8.4449272    233.60485   0.01391499  0.013248147            1 
 1400000   0.68779006   -8.4640646    233.77599  0.013915237  0.013236437            3 
 1401000   0.69454666    -8.466108    233.78492  0.013905836  0.013224752            3 
 1402000   0.69182184   -8.4400995    233.85113  0.013899853  0.013213075            1 
 1403000   0.69553039   -8.4707167     233.4513  0.013866197  0.013201412            2 
 1404000    0.6907813    -8.473826    234.03694  0.013891081  0.013189775            2 
 1405000   0.69228254   -8.4500344     233.9448   0.01387573  0.013178136            4 
 1406000   0.69158591   -8.4898809    233.92516  0.013864696  0.013166494            1 
 1407000   0.69340412   -8.4824652    234.02315  0.013860646  0.013154881            4 
 1408000   0.68461231   -8.4782433    234.35129  0.013870223  0.013143273            3 
 1409000   0.70831346   -8.5041607    233.53042   0.01381183  0.013131677            3 
 1410000   0.67846483   -8.4775028    233.69872  0.013811981  0.013120051            6 
 1411000   0.67655315   -8.4788796    233.95526  0.013817344  0.013108432            1 
 1412000   0.68429183   -8.4971704    234.12767  0.013817733  0.013096802            5 
 1413000   0.69698956   -8.4892825    233.59594  0.013776595  0.013085195            3 
 1414000   0.68490853   -8.4884389     233.3893  0.013754673  0.013073623            2 
 1415000   0.69479619   -8.5020731    233.39876   0.01374551  0.013062036            3 
 1416000   0.70040938    -8.473728     233.7857  0.013758574  0.013050471            1 
 1417000   0.69446865   -8.4989525    233.78422  0.013748778  0.013038901            3 
 1418000   0.67432469   -8.5157526    233.82642  0.013741562  0.013027312            5 
 1419000   0.67603128   -8.5000943    233.62697  0.013720165  0.013015723            4 
 1420000   0.68210502   -8.4985826    233.34526  0.013693971  0.013004145            4 
 1421000    0.6812068   -8.4885607    234.04196  0.013725191  0.012992593            4 
 1422000   0.68952545   -8.4960057    233.60231  0.013689774  0.012981062            5 
 1423000   0.69977992    -8.482904    233.67182  0.013684224  0.012969542            4 
 1424000    0.6949378   -8.4856304    233.77629  0.013680729   0.01295804            3 
 1425000   0.68929962   -8.4905722    233.31371  0.013644077  0.012946546            2 
 1426000   0.69105196   -8.4943832    233.74477  0.013659699   0.01293507            4 
 1427000   0.68014974   -8.4791373    234.16331  0.013674569  0.012923615            9 
 1428000   0.68535923   -8.4889115    233.22097  0.013610001  0.012912153            3 
 1429000   0.68115712   -8.5158773    233.61997  0.013623744  0.012900693            4 
 1430000   0.68254957   -8.5142062      233.272  0.013593939  0.012889221            3 
 1431000   0.67707155   -8.5114754    233.57009  0.013601799  0.012877762            6 
 1432000   0.69179145   -8.4982679    233.67635  0.013598484  0.012866309            5 
 1433000   0.68714852   -8.4715406    234.05564  0.013611051  0.012854885            8 
 1434000   0.67791951   -8.5191672    233.92285  0.013593843  0.012843475            2 
 1435000   0.68357275   -8.5155446     233.4622  0.013557619  0.012832053            2 
 1436000   0.69152173   -8.5095682    233.74137  0.013564378  0.012820646            3 
 1437000   0.68558398   -8.5173393    233.17794  0.013522265  0.012809246            1 
 1438000   0.67456018   -8.5076291    233.53005  0.013533267  0.012797866            2 
 1439000   0.67623949   -8.5035168    233.42997  0.013518066  0.012786501            4 
 1440000   0.68549359   -8.4828565     233.9219  0.013537147  0.012775148            5 
 1441000   0.68363788    -8.504053    233.70094  0.013514975  0.012763792            4 
 1442000   0.68726907   -8.4934853    233.54814  0.013496772  0.012752479            3 
 1443000   0.68737214   -8.5358852    233.72973  0.013497906  0.012741145            1 
 1444000   0.65708473   -8.5290123    233.29774  0.013463628  0.012729831            3 
 1445000   0.66913672   -8.5110814    233.56516  0.013469732  0.012718519            3 
 1446000   0.66735925   -8.5051636    233.79551  0.013473692  0.012707223            3 
 1447000   0.66745127   -8.5333402    233.44968  0.013444465  0.012695938            4 
 1448000    0.6772452   -8.5254409    233.50106  0.013438137   0.01268465            2 
 1449000   0.69504354   -8.5341265    233.77203  0.013444446  0.012673344            2 
 1450000   0.65993956   -8.5305928    233.37664  0.013412451  0.012662039            5 
 1451000    0.6747614   -8.5700904    233.30359  0.013399012   0.01265073            3 
 1452000   0.68057048   -8.5423265    233.42359  0.013396671   0.01263943            2 
 1453000   0.67748289   -8.5226315      233.391  0.013385582  0.012628158            2 
 1454000   0.67596331   -8.5338376    233.31038  0.013371755  0.012616909            2 
 1455000   0.66631739   -8.5072778     233.8981  0.013396226  0.012605663            4 
 1456000   0.66950109   -8.5171995    233.30033  0.013352812  0.012594427            2 
 1457000   0.67403008   -8.5217222    233.27512  0.013342205  0.012583209            1 
 1458000   0.66696785   -8.5407202    233.14664  0.013325711  0.012571971            2 
 1459000   0.65380018   -8.5328947    233.27474  0.013323894  0.012560742            1 
 1460000   0.66342644   -8.5279275    233.09709  0.013304629  0.012549519            2 
 1461000   0.68240145    -8.538929     233.2545    0.0133045  0.012538328            2 
 1462000   0.68440891   -8.5284631    233.43961  0.013305951  0.012527119            2 
 1463000   0.66637564   -8.5474581    233.05702  0.013275064   0.01251591            3 
 1464000   0.66498981   -8.5251252    233.25121   0.01327705  0.012504728            2 
 1465000   0.66392024   -8.5425497    232.82379  0.013243674  0.012493553            2 
 1466000   0.66316707   -8.5399314    233.10336  0.013250532  0.012482375            2 
 1467000   0.66830103   -8.5363055     233.5693  0.013267968  0.012471206            2 
 1468000   0.67428265   -8.5469947    233.55689  0.013258225  0.012460038            4 
 1469000   0.66116352   -8.5326129    233.59106  0.013251138  0.012448904            2 
 1470000   0.66892446   -8.5328257    233.20986  0.013220514  0.012437769            3 
 1471000   0.69001989   -8.5496656    232.88712  0.013193243  0.012426633            5 
 1472000   0.65473584   -8.5500831      232.908  0.013185462  0.012415499            3 
 1473000   0.66071072   -8.5441916    233.07532  0.013185977  0.012404375            3 
 1474000   0.66509975   -8.5492424    232.98305  0.013171814  0.012393267            2 
 1475000   0.64568067   -8.5557266    232.96233  0.013161714  0.012382164            2 
 1476000   0.68519676   -8.5636512    232.99264  0.013154508  0.012371052            2 
 1477000   0.65191177    -8.567327    233.12436  0.013153033  0.012359942            3 
 1478000   0.66624722    -8.557837    232.84518  0.013128393  0.012348826            3 
 1479000    0.6578412    -8.555608    233.40161  0.013150868  0.012337745            1 
 1480000   0.65350456   -8.5648311    232.96745  0.013117537  0.012326665            1 
 1481000   0.66435077   -8.5831241    233.29213  0.013126948  0.012315595            2 
 1482000   0.65141837   -8.5528022    233.01409  0.013102457  0.012304536            4 
 1483000   0.66896656   -8.5527491    233.04409  0.013095307  0.012293478            1 
 1484000   0.65342187   -8.5761795    232.88891  0.013077769   0.01228244            2 
 1485000   0.66450576   -8.5710844     232.8239  0.013065314  0.012271394            3 
 1486000   0.66406448   -8.5808304    232.85752  0.013058407  0.012260358            2 
 1487000   0.65264281   -8.5753384    232.62971  0.013036859   0.01224933            4 
 1488000   0.65294181   -8.5626188    232.65157  0.013029322    0.0122383            3 
 1489000   0.66374394   -8.5686796    232.70371   0.01302349  0.012227295            3 
 1490000   0.66191064   -8.5755988    232.89725  0.013025573  0.012216303            6 
 1491000    0.6588607   -8.5704448    232.90028  0.013017006  0.012205305            2 
 1492000   0.65437235   -8.5714296    232.91933  0.013009346  0.012194338            2 
 1493000   0.66758217   -8.5812615    232.65911  0.012986108   0.01218337            6 
 1494000   0.65384437   -8.5748221    233.11437   0.01300281  0.012172431            7 
 1495000   0.65621119    -8.595585    232.73468  0.012972948  0.012161506            5 
 1496000   0.64684676   -8.5788366     232.6074  0.012957186  0.012150569            3 
 1497000   0.65374255   -8.5738546    232.84472  0.012961741  0.012139624            2 
 1498000   0.65276891   -8.5925611    232.49541  0.012933657  0.012128681            3 
 1499000   0.65576535    -8.607359    232.79788  0.012941843   0.01211775            4 
 1500000   0.65048819   -8.5962839     232.3866  0.012910367  0.012106828            3 
 1501000   0.64869295   -8.5971912      232.777   0.01292344  0.012095916            5 
 1502000   0.65333334    -8.580626    233.34829  0.012946532  0.012085035            4 
 1503000    0.6566937   -8.6088658    232.90238  0.012913195  0.012074164            4 
 1504000   0.65068916   -8.5917373    232.72872  0.012894987  0.012063288            5 
 1505000    0.6447706   -8.5862696    232.52807  0.012875308  0.012052435            9 
 1506000    0.6569145   -8.6113262    232.89626  0.012887132  0.012041591            4 
 1507000   0.64802105   -8.5984756    232.77177  0.012871697  0.012030748            1 
 1508000   0.65154307   -8.5933573    232.69062  0.012858677  0.012019933            6 
 1509000   0.64944039   -8.5762034    232.58108  0.012844107  0.012009115            6 
 1510000   0.64062772   -8.5861919    232.37221  0.012824074  0.011998332            4 
 1511000   0.64785881    -8.606384     232.7014  0.012833741  0.011987537            4 
 1512000    0.6476212   -8.5889416    232.99646  0.012841516   0.01197675            5 
 1513000     0.659574   -8.6009591    232.58059  0.012810123  0.011965972            3 
 1514000   0.64864703   -8.5979852    233.01175  0.012825393  0.011955206            3 
 1515000   0.64631719   -8.5972601    232.93188  0.012812534  0.011944465            5 
 1516000   0.65651496    -8.607114    232.83818  0.012798932  0.011933712            4 
 1517000   0.64960931   -8.5968999    232.60523  0.012777699  0.011922979            5 
 1518000    0.6527159   -8.5975141    232.86161  0.012783356  0.011912247            5 
 1519000   0.65161686   -8.5975957    232.47754   0.01275387  0.011901523            2 
 1520000   0.63938147   -8.5965494    232.52667  0.012748173  0.011890847            2 
 1521000   0.64564006    -8.594218    232.68092  0.012748242  0.011880178            3 
 1522000    0.6334822   -8.6058335    232.94508   0.01275433  0.011869501            2 
 1523000   0.64714143   -8.5850203    232.42329  0.012717405   0.01185882            2 
 1524000   0.64645653   -8.6093552    232.63894  0.012720852  0.011848183            8 
 1525000    0.6526096   -8.5978541     232.8441  0.012723721  0.011837525            3 
 1526000   0.64725356    -8.598648    232.83244  0.012714747  0.011826889            6 
 1527000   0.65274558   -8.6056319    232.41031  0.012683383  0.011816263            5 
 1528000   0.63923607   -8.5921097    232.74274  0.012693212  0.011805639            9 
 1529000   0.64048951   -8.5946013    232.37616  0.012664932  0.011795031            5 
 1530000   0.64694038   -8.6113027    232.45828  0.012661126  0.011784416            2 
 1531000   0.63594357   -8.6032588     232.3518  0.012647061    0.0117738            3 
 1532000   0.63259743   -8.6017947      232.164   0.01262859  0.011763208            3 
 1533000    0.6481764   -8.6311776    232.17883  0.012621158  0.011752637            2 
 1534000   0.65302118   -8.6205248    232.45686  0.012628035  0.011742061            2 
 1535000   0.64764362    -8.639079     232.4174  0.012617665  0.011731522            4 
 1536000   0.62822719     -8.60101    232.76843  0.012628496  0.011720994            6 
 1537000   0.64696734   -8.6142309    232.98501  0.012632022  0.011710478            7 
 1538000   0.61893987   -8.6061405    232.52452  0.012598858  0.011699967            3 
 1539000   0.64323416   -8.6275976    232.75618  0.012603215  0.011689472            2 
 1540000   0.63505765   -8.6118182    233.13552  0.012615558  0.011678993            3 
 1541000   0.64649961   -8.6222839    232.88155  0.012593638  0.011668543            2 
 1542000   0.65128372   -8.6025111    233.06219  0.012595233  0.011658105            3 
 1543000   0.64191022   -8.5827308    233.03123  0.012585398  0.011647694            4 
 1544000   0.62553334   -8.6117279    232.37875  0.012542031  0.011637283            5 
 1545000   0.62737074   -8.6201752     232.3942  0.012534747  0.011626875            2 
 1546000   0.64251598   -8.5860133    232.88218  0.012552942  0.011616465            3 
 1547000   0.64828901    -8.627518    232.52188  0.012525419  0.011606077            1 
 1548000   0.64113873   -8.6293101    232.57515  0.012520196  0.011595678            3 
 1549000   0.63093285   -8.6000273    232.78942   0.01252364  0.011585304            2 
 1550000   0.63238316   -8.6012343    232.60806   0.01250581  0.011574946            5 
 1551000   0.63449517   -8.6295725    232.63076  0.012498966  0.011564581            4 
 1552000     0.645069   -8.6144791    232.83018  0.012501621  0.011554241            3 
 1553000   0.63338532   -8.6098304    232.86592  0.012495488  0.011543907            6 
 1554000   0.64229566   -8.6318311       232.56  0.012471042  0.011533568            2 
 1555000   0.63209249   -8.6003616    233.16893  0.012495655   0.01152325            1 
 1556000   0.62855283   -8.6168362    232.92764  0.012474702   0.01151293            5 
 1557000   0.64183626   -8.6090858    232.57159  0.012447634  0.011502631            3 
 1558000   0.62799687   -8.6504338    232.69559  0.012446277  0.011492319            4 
 1559000   0.62149732   -8.6166447    232.67141  0.012437001  0.011482004            3 
 1560000   0.62986171   -8.6384724    232.52111  0.012420999  0.011471709            4 
 1561000   0.62163791   -8.6273084    232.17116   0.01239436  0.011461421            3 
 1562000   0.62679182   -8.6418896    232.67525  0.012413319  0.011451146            2 
 1563000   0.61604679   -8.6441189     232.6266  0.012402783  0.011440891            2 
 1564000   0.63885789   -8.6557816    232.45126  0.012385511  0.011430642            3 
 1565000   0.63203451   -8.6399564    232.54657  0.012382671  0.011420408            3 
 1566000   0.62603532   -8.6326082    232.39894  0.012366908  0.011410175            2 
 1567000   0.62374758   -8.6558692    232.49361  0.012364051  0.011399947            1 
 1568000   0.63195685   -8.6412113    232.34163  0.012348088  0.011389716            3 
 1569000   0.63076395   -8.6546718    232.28185  0.012337043  0.011379497            4 
 1570000   0.62752152   -8.6559913    232.53775  0.012342768  0.011369297            3 
 1571000   0.63106678   -8.6582539    232.57075  0.012336662  0.011359111            3 
 1572000   0.63024218   -8.6391183    232.35773  0.012317522  0.011348909            2 
 1573000   0.62351842   -8.6565636    232.42318  0.012313158  0.011338722            8 
 1574000   0.63125944   -8.6411955    232.33306  0.012300565  0.011328541            4 
 1575000   0.61396728   -8.6445271    232.43831  0.012298323  0.011318365            3 
 1576000    0.6379727   -8.6562247     232.5639  0.012297161  0.011308199            5 
 1577000   0.62850243   -8.6703578    232.75585  0.012299506  0.011298051            2 
 1578000   0.61484825   -8.6639159    232.36421  0.012271029  0.011287909            6 
 1579000   0.61001932   -8.6512904    232.41047  0.012265699  0.011277774            3 
 1580000   0.62571122   -8.6557672     232.5258  0.012264019  0.011267681            3 
 1581000   0.62879372   -8.6634058    232.31675  0.012245243  0.011257575            3 
 1582000   0.62283131   -8.6663401    232.70613  0.012258014  0.011247492            4 
 1583000   0.61870533   -8.6662257    232.03409  0.012214892  0.011237405            1 
 1584000   0.62730721   -8.6466939    232.66903  0.012240584  0.011227339            3 
 1585000   0.63695106    -8.656347    232.62832  0.012230721   0.01121729            3 
 1586000   0.60589251   -8.6735186    232.18795  0.012199871  0.011207239            2 
 1587000   0.61607047   -8.6642492    232.57762  0.012212645  0.011197212            3 
 1588000   0.61004967   -8.6647577    232.59683  0.012205963  0.011187197            2 
 1589000   0.62693669    -8.684707    232.16017  0.012175381  0.011177185            3 
 1590000   0.63154246   -8.6589816    232.25715  0.012172806  0.011167203            2 
 1591000   0.60190975   -8.6625053    232.52729  0.012179305  0.011157206            2 
 1592000    0.6126457    -8.661608      232.254  0.012157349  0.011147212            3 
 1593000   0.62982685   -8.6717521    232.22292  0.012148092  0.011137236            2 
 1594000   0.62040017   -8.6630536    231.84683  0.012120809  0.011127271            3 
 1595000    0.6320129   -8.6824262    232.17914  0.012130572  0.011117309            4 
 1596000   0.62393077   -8.6685953    232.11653  0.012119702   0.01110736            4 
 1597000   0.62221333   -8.6873387    232.11377  0.012111969  0.011097421            2 
 1598000   0.61497966   -8.6871715    232.00084    0.0120985   0.01108749            2 
 1599000   0.61291743   -8.6624185    232.20192  0.012101413  0.011077566            8 
 1600000   0.60875888   -8.6573149    232.38109  0.012103182  0.011067647            7 
 1601000   0.61597808   -8.6865717    231.97902  0.012074694  0.011057749            6 
 1602000   0.61820314    -8.667304    232.47838  0.012093133  0.011047834            4 
 1603000   0.61930868    -8.662925    232.29446  0.012076027  0.011037957            2 
 1604000   0.60544007   -8.6656582    232.14435    0.0120607  0.011028097            2 
 1605000   0.60649069   -8.6898261    232.40642  0.012066792  0.011018235            2 
 1606000   0.60655532   -8.6750775    232.30596  0.012054066  0.011008382            2 
 1607000   0.62438774   -8.6884814    232.30711  0.012046625  0.010998546            1 
 1608000   0.61351051   -8.6788069     232.1701  0.012032032  0.010988711            4 
 1609000   0.60664891   -8.6813752    232.25396  0.012028898  0.010978879            1 
 1610000   0.61799596   -8.6772231    232.29403  0.012023501  0.010969058            2 
 1611000   0.61865163   -8.6900716    232.24145  0.012013317  0.010959246            1 
 1612000   0.59912965   -8.6682286    231.99011  0.011992872  0.010949428            2 
 1613000   0.60338698   -8.6694094    232.57186  0.012015492  0.010939625            3 
 1614000    0.5973341   -8.6911742    232.05605  0.011981415  0.010929827            2 
 1615000    0.6158293   -8.6717446     231.8369  0.011962688  0.010920046            3 
 1616000   0.61739291   -8.6824761    232.44926  0.011986864  0.010910266            4 
 1617000   0.60707973   -8.6820486    231.56186  0.011933718  0.010900498            2 
 1618000   0.60021298   -8.6806036    232.50979  0.011975165  0.010890721            1 
 1619000    0.6194729   -8.6818517    232.12453  0.011947938  0.010880963            3 
 1620000   0.60007867   -8.6971496     232.0421  0.011936322  0.010871222            6 
 1621000   0.61274568   -8.6930957    231.55837  0.011904091  0.010861479            2 
 1622000   0.60563505   -8.6945241    232.15801  0.011927559  0.010851761            1 
 1623000   0.61042293   -8.7085223    231.98893  0.011911528  0.010842047            4 
 1624000   0.60986023   -8.6967083    231.72796  0.011890803  0.010832349            3 
 1625000   0.60296363    -8.676058    232.34038  0.011914891  0.010822655            3 
 1626000   0.61155007   -8.6944251    232.41016   0.01191114  0.010812981            2 
 1627000   0.60986828   -8.6795835    232.09762  0.011887811  0.010803328            3 
 1628000   0.58243919   -8.6918612    231.87737  0.011869235  0.010793671            4 
 1629000   0.60938783   -8.6834147    232.07894   0.01187226  0.010784042            2 
 1630000   0.60771928   -8.6909132    232.29408  0.011875976  0.010774411            4 
 1631000   0.60984003   -8.7057947    232.16967  0.011862337  0.010764811            2 
 1632000   0.59448391   -8.7038737    231.77133  0.011834729  0.010755203            2 
 1633000   0.59585086   -8.6951411    232.21953  0.011850354  0.010745607            1 
 1634000   0.59728018   -8.7008216    232.14174  0.011839134  0.010736023            2 
 1635000   0.60143256    -8.701667    232.02213  0.011825797  0.010726439            1 
 1636000   0.61803764   -8.7018552     231.9324  0.011813998  0.010716874            2 
 1637000   0.61362547   -8.7126785     231.9093  0.011805605  0.010707318            2 
 1638000   0.60193479   -8.6793702    232.17377  0.011811852  0.010697784            1 
 1639000   0.59103566   -8.6914689     231.9053  0.011790995  0.010688259            3 
 1640000   0.60096478   -8.6968119    231.74472  0.011775646  0.010678742            3 
 1641000   0.59939619   -8.6877033    231.79236   0.01177089   0.01066922            2 
 1642000   0.59241636    -8.694122    232.04028  0.011776303  0.010659723            3 
 1643000   0.60051381   -8.7045772    231.97461  0.011765805   0.01065023            2 
 1644000   0.61094717   -8.7105324    232.15818  0.011767953  0.010640752            2 
 1645000   0.60713431   -8.7031615    232.00968  0.011753277  0.010631273            2 
 1646000   0.59545218   -8.7084501    232.00066   0.01174568  0.010621814            1 
 1647000   0.59612682   -8.7098588    231.86336  0.011731601  0.010612365            3 
 1648000   0.61866023    -8.707312    231.68001  0.011715211  0.010602916            2 
 1649000   0.59505718   -8.7029884    231.79398  0.011713866  0.010593473            2 
 1650000   0.60241865   -8.7208491      231.779   0.01170601  0.010584047            2 
 1651000   0.58836077    -8.710184    232.29669   0.01172505  0.010574617            4 
 1652000   0.58175542    -8.716231     231.9693  0.011701438  0.010565209            2 
 1653000   0.60780864   -8.7157799    231.76344  0.011683981  0.010555806            3 
 1654000   0.60121432   -8.7018776    232.28355  0.011703121    0.0105464            2 
 1655000   0.59720455   -8.7102231    231.83273   0.01167335  0.010537015            1 
 1656000     0.594701   -8.7449619    231.79422  0.011664363   0.01052763            2 
 1657000   0.57907904   -8.7188716    231.72707  0.011653947  0.010518247            2 
 1658000   0.58933665   -8.7032436    231.70217  0.011645666  0.010508873            1 
 1659000   0.58806303   -8.7139328    231.19774  0.011613308  0.010499502            1 
 1660000   0.57924963   -8.7369408     231.4839  0.011620678  0.010490147            3 
 1661000   0.57996739   -8.7401402    231.70208  0.011624628  0.010480799            3 
 1662000   0.59787149   -8.7523317    231.58829  0.011611928  0.010471463            2 
 1663000   0.58727215   -8.7099775    231.54246  0.011602649  0.010462137            1 
 1664000   0.59353891   -8.7343576    231.45038  0.011591064  0.010452821            2 
 1665000    0.6016337   -8.7442497    231.49805  0.011586489  0.010443525            2 
 1666000   0.59953082   -8.7061226    231.71084  0.011590178  0.010434234            3 
 1667000   0.58779844   -8.7251667    231.65889  0.011580629  0.010424953            3 
 1668000   0.58608282   -8.7339362    231.47992  0.011564744   0.01041568            2 
 1669000   0.58194542   -8.7343744    231.41396  0.011554521  0.010406408            3 
 1670000   0.59164337   -8.7140926    231.74942  0.011564342  0.010397154            1 
 1671000   0.59659099   -8.7323786    231.71917  0.011555913  0.010387908            1 
 1672000   0.57352622    -8.736853    231.45583  0.011535877  0.010378674            4 
 1673000   0.58135477   -8.7144514    231.52943  0.011532647  0.010369446            5 
 1674000    0.5851375   -8.7462346    231.30489   0.01151458  0.010360218            3 
 1675000   0.57603825   -8.7438873    231.98249  0.011541417  0.010351013            2 
 1676000   0.59571483   -8.7216261     231.3451  0.011502839  0.010341808            1 
 1677000   0.58657047   -8.7350388    231.65415  0.011511337  0.010332609            2 
 1678000   0.58540658    -8.738577    231.06001   0.01147497  0.010323429            3 
 1679000   0.59163913   -8.7241101     231.6018  0.011495027  0.010314255            1 
 1680000    0.5802686   -8.7735344    231.59667   0.01148793  0.010305088            2 
 1681000    0.5715414   -8.7307798    231.34887  0.011468811  0.010295928            2 
 1682000   0.58619558   -8.7344107    231.56524  0.011472713  0.010286786            1 
 1683000   0.58767308   -8.7378079    231.88357  0.011481658  0.010277648            1 
 1684000   0.59184768   -8.7469552    231.83202  0.011472289  0.010268523            2 
 1685000   0.58152613   -8.7577554    231.72194  0.011460037  0.010259401            2 
 1686000     0.586975   -8.7430135    231.33799  0.011434262  0.010250297            1 
 1687000   0.59187702   -8.7424576    231.90097  0.011455294  0.010241201            1 
 1688000   0.58585559   -8.7534345    231.49976  0.011428701  0.010232104            2 
 1689000   0.58700549   -8.7230341    231.80091  0.011436793  0.010223011            1 
 1690000   0.57217454   -8.7524644    231.19934  0.011400362  0.010213939            2 
 1691000    0.5777599   -8.7502927    231.69724  0.011418157  0.010204888            2 
 1692000    0.5831165   -8.7415543    231.30976  0.011392325  0.010195831            2 
 1693000   0.57063745   -8.7330571    231.48148  0.011394048  0.010186779            1 
 1694000   0.56547566   -8.7591052    232.04013  0.011414803  0.010177748            2 
 1695000   0.57597628   -8.7378612    231.61992   0.01138741   0.01016873            1 
 1696000   0.57056286   -8.7335606    231.67547  0.011383425  0.010159715            3 
 1697000   0.56000929   -8.7511487    231.28814  0.011357697  0.010150698            2 
 1698000   0.56519263   -8.7488566    231.18281  0.011345839  0.010141691            2 
 1699000   0.58056644   -8.7432022     231.3743  0.011348553  0.010132689            2 
 1700000   0.58285916   -8.7643551    231.11271  0.011329054  0.010123701            2 
 1701000   0.57270981   -8.7524901    231.11585  0.011322548  0.010114723            2 
 1702000   0.57064317   -8.7439937    231.43236  0.011331392  0.010105765            2 
 1703000     0.562445   -8.7560705    231.09064  0.011308017  0.010096811            6 
 1704000   0.57188808   -8.7551083    231.57989  0.011325308  0.010087863            2 
 1705000   0.58690306   -8.7649859    231.00198  0.011290419  0.010078917            2 
 1706000   0.58313216   -8.7661621     231.1591  0.011291476  0.010069985            2 
 1707000   0.57377886   -8.7501557    231.30691  0.011292077  0.010061053            1 
 1708000   0.56994341   -8.7573766    231.24271  0.011282334  0.010052136            2 
 1709000   0.58059052    -8.783477     231.0173  0.011264741  0.010043227            2 
 1710000   0.56422712   -8.7649488     231.1415  0.011264206  0.010034342            2 
 1711000   0.56610718   -8.7579812    231.29581  0.011265138  0.010025453            3 
 1712000   0.55946764   -8.7730806    231.41633  0.011264424   0.01001657            1 
 1713000   0.57542681   -8.7670468    230.68792  0.011222413  0.010007685            4 
 1714000   0.57793716   -8.7643109    231.17897   0.01123974 0.0099988181            2 
 1715000    0.5673219   -8.7636625    231.52092  0.011249802 0.0099899587            3 
 1716000   0.56084379   -8.7573097    231.34943  0.011234918  0.009981126            3 
 1717000   0.56395162   -8.7803525     230.9663   0.01120978 0.0099722899            1 
 1718000   0.56090821   -8.7675133    231.21156  0.011215151 0.0099634697            2 
 1719000   0.56081137   -8.7671139    231.07445   0.01120198 0.0099546626            2 
 1720000   0.56362187    -8.781821    231.07675  0.011195579 0.0099458515            2 
 1721000   0.55999169   -8.7477446    230.86965  0.011179046 0.0099370578            1 
 1722000   0.55394321   -8.7859704    231.16102  0.011186654  0.009928272            2 
 1723000   0.55739348   -8.7870938    231.01279  0.011172992  0.009919476            3 
 1724000   0.56250127   -8.7619922     231.1312  0.011172235 0.0099107096            2 
 1725000   0.56074692   -8.7680109    231.54921  0.011185952 0.0099019392            4 
 1726000    0.5623335   -8.7780016    230.92738  0.011149449   0.00989319            2 
 1727000   0.56123282   -8.7712247    230.85437  0.011139469 0.0098844436            1 
 1728000   0.55335796   -8.7745702    231.17692  0.011148578 0.0098757089            1 
 1729000   0.56549045    -8.769824    231.50079   0.01115774 0.0098669851            2 
 1730000   0.56688124   -8.7677004    231.01383  0.011127834 0.0098582803            3 
 1731000   0.56130683   -8.7809791    231.20333  0.011130528 0.0098495697            2 
 1732000   0.55863116   -8.7639519    231.20238  0.011124056 0.0098408638            4 
 1733000   0.56294581   -8.7748693    230.80548  0.011098551 0.0098321777            4 
 1734000   0.56387573   -8.7941294    230.97933  0.011100506 0.0098234976            2 
 1735000   0.56081713   -8.7923312    231.11709  0.011100725 0.0098148296            4 
 1736000   0.55801818   -8.7772729    230.81374  0.011079769 0.0098061627            4 
 1737000   0.56318915   -8.7799055    230.87277  0.011076222 0.0097975039            4 
 1738000   0.56588355   -8.8033044    231.24655  0.011087771 0.0097888651            2 
 1739000   0.54940571   -8.7709554    231.01388  0.011070246 0.0097802316            2 
 1740000    0.5534891   -8.7708723    230.29226  0.011029323 0.0097716052            2 
 1741000   0.56850292   -8.7895758    230.98142  0.011055974 0.0097629856            2 
 1742000   0.55709714   -8.7885355    230.94876  0.011048066 0.0097543765            2 
 1743000    0.5592333   -8.8017884     231.0731  0.011047672  0.009745771            4 
 1744000   0.55403756   -8.7848863    230.70598  0.011023795 0.0097371771            3 
 1745000   0.55502661    -8.793346    231.04041  0.011033449 0.0097285965            3 
 1746000   0.55613351   -8.7847436    231.06802  0.011028447 0.0097200153            1 
 1747000   0.54576047   -8.7855489    231.10736  0.011024011 0.0097114443            4 
 1748000   0.54704554   -8.7924549     230.8898  0.011007332  0.009702883            6 
 1749000    0.5496882   -8.8019277     230.6825  0.010991162 0.0096943305            1 
 1750000   0.54967402    -8.789645    230.95403  0.010997811 0.0096857939            5 
 1751000   0.55158972   -8.8041008    230.87075  0.010987567 0.0096772585            2 
 1752000   0.55206072   -8.7985433    230.68888  0.010972645 0.0096687376            2 
 1753000   0.55987243   -8.7854861    230.64774  0.010964429 0.0096602207            3 
 1754000   0.56565441   -8.7954958    230.98571  0.010974236 0.0096517192            3 
 1755000   0.55329591    -8.802657    231.02075  0.010969646 0.0096432283            1 
 1756000   0.54546665   -8.7938313    231.19157  0.010971506 0.0096347426            2 
 1757000   0.55334543   -8.7959294    231.18616  0.010965005 0.0096262691            2 
 1758000   0.55380329   -8.8016432    231.11193  0.010955249 0.0096178006            2 
 1759000   0.55585391   -8.8080488     230.7506  0.010931902 0.0096093334            2 
 1760000   0.55085755   -8.7937164    230.91949  0.010933688 0.0096008907            3 
 1761000   0.55270287   -8.8008967      231.138   0.01093782  0.009592454            4 
 1762000   0.54218488    -8.813152    231.08756  0.010929226 0.0095840266            3 
 1763000   0.55231672   -8.7903133    230.66108  0.010902868 0.0095756204            3 
 1764000   0.55613818   -8.8049472    230.27862   0.01087862  0.009567214            3 
 1765000   0.54948155   -8.7979878    230.72837  0.010893691 0.0095588065            4 
 1766000   0.53124325    -8.821501     230.5795  0.010880497  0.009550417            5 
 1767000   0.55763364   -8.8198623    230.68067  0.010879111 0.0095420263            3 
 1768000   0.54019178   -8.8166728    230.59531  0.010868934 0.0095336608            3 
 1769000    0.5452247   -8.8072811    230.70972   0.01086818 0.0095252883            2 
 1770000   0.54811569    -8.812932    230.54512   0.01085429 0.0095169327            3 
 1771000   0.53461297   -8.8125508    230.71158  0.010855994 0.0095085801            3 
 1772000   0.54604462   -8.8112421    230.54536  0.010842051 0.0095002303            2 
 1773000   0.54026423   -8.8187358    230.39351  0.010828798 0.0094919041            2 
 1774000   0.54585399     -8.80317    230.91311  0.010847102 0.0094835768            3 
 1775000   0.54151577   -8.8139709     230.6225  0.010827347 0.0094752587            2 
 1776000   0.55081717   -8.8103663    230.87009  0.010832869 0.0094669511            3 
 1777000   0.54277408   -8.7955813    231.00451  0.010833076 0.0094586574            4 
 1778000    0.5321606   -8.8077365    230.47691  0.010802255 0.0094503684            1 
 1779000   0.55031709   -8.8198163    230.82677  0.010812571 0.0094420932            3 
 1780000   0.54208748   -8.8226234    230.43514  0.010788162 0.0094338194            6 
 1781000   0.52973543   -8.8016489    230.94081  0.010805765  0.009425559            2 
 1782000    0.5441186   -8.8084219    230.80838  0.010793508 0.0094173097            3 
 1783000   0.53732744   -8.8359814    230.69973  0.010782377 0.0094090635            5 
 1784000   0.54104572   -8.8096171    230.73441  0.010777952 0.0094008258            3 
 1785000   0.52122047   -8.8204021    230.39244   0.01075595 0.0093925989            3 
 1786000   0.54642587   -8.7999365    230.64285  0.010761611 0.0093843746            3 
 1787000   0.54640261   -8.8328395    230.85354  0.010765414 0.0093761709            5 
 1788000   0.54274209   -8.8100455    230.67638  0.010751136 0.0093679648            3 
 1789000   0.53759517   -8.8195493    230.79527  0.010750665 0.0093597679            3 
 1790000    0.5411998   -8.8378241    230.47685  0.010729835 0.0093515785            2 
 1791000   0.54383116   -8.8323814    230.60004  0.010729576 0.0093433912            2 
 1792000   0.53375324   -8.8048685     230.3551  0.010712198  0.009335213            7 
 1793000   0.54644512   -8.8188448    231.14899  0.010743121 0.0093270556            4 
 1794000   0.53689486   -8.8176292    230.38539  0.010701663 0.0093188934            3 
 1795000   0.54251648   -8.8300982    230.34998  0.010694057 0.0093107473            3 
 1796000   0.53817615   -8.8232039    230.43292  0.010691951 0.0093026072            4 
 1797000   0.53399995   -8.8433972    230.15477  0.010673102 0.0092944671            3 
 1798000   0.52786565   -8.8019985    230.42565   0.01067972 0.0092863518            2 
 1799000   0.53391889   -8.8415714    230.91477  0.010696441 0.0092782423            2 
 1800000   0.53670114   -8.8234278    230.61015  0.010676396 0.0092701407            2 
 1801000   0.53293435    -8.823921    230.78106  0.010678376 0.0092620482            3 
 1802000   0.53944617   -8.8187629    230.61785  0.010664902 0.0092539675            3 
 1803000   0.53534433   -8.8206723    230.73033  0.010664186 0.0092458946            3 
 1804000   0.54510113   -8.8316924    230.41145  0.010643545 0.0092378354            2 
 1805000    0.5377113   -8.8399838    230.46668  0.010640198 0.0092297765            2 
 1806000   0.53824406   -8.8285024    230.18634   0.01062137 0.0092217362            4 
 1807000   0.52171597   -8.8592588    230.39098   0.01062493 0.0092136912            3 
 1808000   0.53903031   -8.8291237    229.96187  0.010599275 0.0092056569            4 
 1809000   0.53276007   -8.8331731    230.13485  0.010601384 0.0091976264            3 
 1810000   0.52859813   -8.8355985    230.36073  0.010605927 0.0091896058            4 
 1811000   0.52587632   -8.8488405    230.36704  0.010600361 0.0091815967            3 
 1812000   0.52681551   -8.8313604    230.46344  0.010598944 0.0091735963            4 
 1813000   0.52278988   -8.8255678    230.79109  0.010608158  0.009165597            2 
 1814000   0.53537286   -8.8323775    230.42868  0.010585662  0.009157612            5 
 1815000   0.52808089   -8.8380236    230.67404  0.010591094  0.009149634            3 
 1816000   0.52916634   -8.8256608    230.49542  0.010577066 0.0091416721            1 
 1817000   0.52417364   -8.8386337    230.21315  0.010558299 0.0091337224            3 
 1818000   0.52354578   -8.8476854    230.07162  0.010546004 0.0091257748            2 
 1819000   0.53262877   -8.8550431     230.4452  0.010557321 0.0091178282            4 
 1820000   0.53389759   -8.8406554    230.04005  0.010532969 0.0091098949            4 
 1821000   0.52742544   -8.8545676    230.41401  0.010544298 0.0091019622            3 
 1822000   0.53084174   -8.8312603    230.57051  0.010545669 0.0090940464            4 
 1823000   0.51895723   -8.8470454    230.13011  0.010519753  0.009086135            3 
 1824000   0.52008544   -8.8273279    230.52404  0.010531983 0.0090782301            7 
 1825000   0.51543081   -8.8415864    230.34867  0.010518204 0.0090703321            5 
 1826000   0.52320812   -8.8516642    230.29089  0.010509807 0.0090624563            2 
 1827000   0.51796053    -8.850777    230.09666  0.010495195 0.0090545779            5 
 1828000   0.52232137    -8.847869    230.10273   0.01048973 0.0090467116            7 
 1829000   0.52258379   -8.8628428    229.63041  0.010462475 0.0090388449            4 
 1830000   0.51280291   -8.8457565    230.27362  0.010486048 0.0090309874            3 
 1831000   0.53013607   -8.8467185     230.3683   0.01048463 0.0090231434            3 
 1832000   0.50245961   -8.8477909    230.35847   0.01047846 0.0090153126            4 
 1833000   0.53062165   -8.8419766    230.51944  0.010480062 0.0090074912            4 
 1834000   0.50827989   -8.8474741    230.40113  0.010468972 0.0089996742            2 
 1835000   0.51116562   -8.8535145    230.24321  0.010456095 0.0089918643            3 
 1836000   0.52110395    -8.857965    230.29597  0.010452794 0.0089840677            3 
 1837000   0.51546803   -8.8625878    230.22482  0.010443877 0.0089762746            3 
 1838000   0.52823635   -8.8536637    230.06458   0.01043093  0.008968488            4 
 1839000   0.52472277   -8.8509771     230.2564   0.01043395 0.0089607081            3 
 1840000   0.52512724   -8.8484284    230.34428  0.010432259 0.0089529513            5 
 1841000    0.5195754   -8.8708228    229.87668  0.010405427 0.0089451918            4 
 1842000   0.52908499   -8.8565643    230.29607  0.010418751 0.0089374405            4 
 1843000   0.51280399   -8.8751434    229.94874  0.010397393 0.0089296915            3 
 1844000   0.50960967   -8.8606972    230.53564  0.010418277 0.0089219514            2 
 1845000   0.51223017    -8.869921    229.81616  0.010380134 0.0089142207            3 
 1846000   0.52162121    -8.858021    230.01659  0.010383559    0.0089065            5 
 1847000   0.51913619   -8.8543999    230.18131  0.010385369 0.0088987827            3 
 1848000   0.51641803   -8.8698647    229.60023  0.010353546 0.0088910683            3 
 1849000   0.50397246   -8.8756829    230.00639  0.010366251 0.0088833652            3 
 1850000    0.5119882   -8.8602365    229.96785  0.010358912 0.0088756673            4 
 1851000   0.51229036   -8.8725516    230.20005   0.01036377 0.0088679891            5 
 1852000    0.5049998   -8.8741967    230.10219   0.01035377 0.0088603164            3 
 1853000   0.51625119   -8.8622472     230.2529   0.01035496 0.0088526482            4 
 1854000   0.51085016   -8.8621994    230.33892  0.010353242 0.0088449941            4 
 1855000   0.52018899   -8.8679284    229.94548  0.010329986 0.0088373462            4 
 1856000   0.51155854   -8.8629949    230.00949  0.010327294  0.008829715            5 
 1857000    0.5234999   -8.8627257    229.77158  0.010311056 0.0088220818            6 
 1858000   0.51142496   -8.8481076    230.23893  0.010326468 0.0088144598            3 
 1859000   0.51551725   -8.8431559    229.76036   0.01029946 0.0088068546            5 
 1860000    0.5068768   -8.8866183     229.9748   0.01030353 0.0087992549            4 
 1861000   0.51553795   -8.8684371    230.15165  0.010305913 0.0087916628            4 
 1862000   0.51258001   -8.8637295    230.17765  0.010301542 0.0087840802            3 
 1863000   0.49918413   -8.8733245    230.11785  0.010293337 0.0087764987            3 
 1864000   0.51786674   -8.8677728    229.72206  0.010270121 0.0087689388            4 
 1865000   0.51297637   -8.8701955    229.85612  0.010270604  0.008761376            4 
 1866000   0.51131312   -8.8652641    230.09199  0.010275634 0.0087538192            4 
 1867000   0.51231764   -8.8652281    230.29998  0.010279414 0.0087462774            3 
 1868000   0.51500302   -8.8818551    229.86024  0.010254293 0.0087387514            2 
 1869000   0.50756909   -8.8829781    229.82086  0.010247051 0.0087312283            2 
 1870000   0.50946995    -8.873433    230.24281  0.010260375 0.0087237078            3 
 1871000   0.50497302   -8.8742092    229.71362  0.010231321 0.0087161913            2 
 1872000   0.51667889   -8.8701372    229.99036  0.010238175 0.0087086824            3 
 1873000    0.5058019   -8.8754511    229.79912    0.0102242  0.008701185            3 
 1874000   0.50416169   -8.8972325    229.68858  0.010213829 0.0086937057            3 
 1875000   0.50664344    -8.874248    230.11492   0.01022733 0.0086862301            5 
 1876000   0.50554227   -8.8694658    229.68259  0.010202674 0.0086787573            7 
 1877000   0.51471358   -8.8850773    229.62991  0.010194899 0.0086712885            5 
 1878000   0.50411788   -8.8724224    230.45688  0.010226166  0.008663834            6 
 1879000   0.50374318   -8.8839039    230.17053  0.010208024 0.0086563897            6 
 1880000   0.50966157   -8.8887071    229.58151  0.010176485 0.0086489529            3 
 1881000   0.50219517   -8.8733352     230.0511  0.010191879  0.008641521            2 
 1882000   0.50234228   -8.8655991    230.09689  0.010188492 0.0086340999            3 
 1883000   0.50488878   -8.8884529    229.80662  0.010170234 0.0086266833            6 
 1884000   0.50308848   -8.8868912    229.98573  0.010172759  0.008619269            6 
 1885000   0.49166419   -8.8783095    229.71868  0.010155556  0.008611866            4 
 1886000   0.49625914   -8.8774947    229.99719  0.010162478 0.0086044671            4 
 1887000   0.50123529   -8.8812361    229.48801  0.010134606 0.0085970749            4 
 1888000   0.50932025   -8.8960076    229.73661   0.01014021 0.0085896994            3 
 1889000   0.49606401   -8.8858507    229.50402  0.010124582 0.0085823222            4 
 1890000   0.49984491   -8.8971349     229.8373   0.01013392 0.0085749575            4 
 1891000   0.49442971   -8.8886926    229.79774  0.010126817 0.0085676047            2 
 1892000   0.49744164    -8.904925    229.80497  0.010121783 0.0085602489            3 
 1893000   0.49030123   -8.8965594    229.80765  0.010116554 0.0085529056            5 
 1894000   0.49819859   -8.9022516    229.59629  0.010101913 0.0085455752            3 
 1895000   0.49893048   -8.9060809    229.45711  0.010090462 0.0085382463            5 
 1896000   0.49353326   -8.8919783    230.14951  0.010115573 0.0085309303            4 
 1897000   0.49482917   -8.8845228     229.8964  0.010099121 0.0085236297            2 
 1898000   0.49430034   -8.8844608    229.67204   0.01008395 0.0085163341            5 
 1899000   0.50013005   -8.8868456    229.54885  0.010073234 0.0085090495            3 
 1900000   0.49361069    -8.892206    229.85627  0.010081415 0.0085017678            5 
 1901000   0.49209781   -8.8874325    229.53288  0.010061936 0.0084944898            5 
 1902000   0.50183562   -8.8808295    230.01747  0.010077877 0.0084872279            5 
 1903000   0.49071677   -8.8824235    230.24574  0.010082578 0.0084799723            4 
 1904000   0.50118471   -8.9094466    229.63761  0.010050666 0.0084727121            3 
 1905000   0.48185813   -8.8991814    229.69892  0.010048072 0.0084654753            5 
 1906000   0.48767988   -8.8927371    229.49578  0.010033919 0.0084582408            4 
 1907000   0.48808361   -8.9014827    229.90698  0.010046626 0.0084510182            4 
 1908000   0.48928742   -8.8863274    229.45074  0.010021433 0.0084437961            4 
 1909000   0.49774529   -8.9090778    229.96501  0.010038633 0.0084365807            8 
 1910000   0.48773713    -8.912606    229.83472  0.010027693 0.0084293848            2 
 1911000   0.49030701   -8.9030553    230.01344  0.010030239 0.0084221841            6 
 1912000   0.49292683   -8.8892076    229.76167   0.01001402  0.008414993            5 
 1913000   0.50362383   -8.8915344    229.61599  0.010002439 0.0084078141            3 
 1914000   0.47970203   -8.8895861    229.59181 0.0099961603 0.0084006493            5 
 1915000   0.49214014   -8.9076066    229.60956 0.0099917126 0.0083934808            3 
 1916000   0.49741756   -8.9001531    229.89322 0.0099988353 0.0083863275            3 
 1917000   0.48458409   -8.8997122    229.78582 0.0099889505 0.0083791777            3 
 1918000   0.48722214   -8.9072641      229.828 0.0099855753 0.0083720331            7 
 1919000   0.49511233   -8.8950793    229.73889 0.0099765019 0.0083649007            3 
 1920000   0.49378162   -8.9097193    229.49122 0.0099605562 0.0083577713            3 
 1921000   0.48307085   -8.9023089    229.83765 0.0099703995 0.0083506462            3 
 1922000   0.48020217   -8.8974059    229.66279 0.0099576305 0.0083435288            3 
 1923000   0.48120477    -8.903999    229.42138 0.0099419907 0.0083364237            4 
 1924000   0.49412811   -8.9211511    229.69856 0.0099488289 0.0083293252            3 
 1925000   0.48570341   -8.9096953    229.75678 0.0099461811 0.0083222454            3 
 1926000   0.48830459   -8.8984119     229.5873 0.0099336837 0.0083151602            3 
 1927000   0.48416834   -8.9137564    229.32829  0.009917328 0.0083080901            5 
 1928000   0.47675418   -8.9129725    229.49914 0.0099195687 0.0083010294            4 
 1929000   0.47772509   -8.9049253    229.49501 0.0099142477 0.0082939779            4 
 1930000   0.47250189   -8.9054487    229.69992 0.0099179587 0.0082869263            7 
 1931000   0.49051609   -8.9132046    229.67413 0.0099117094 0.0082798823            3 
 1932000   0.48231721   -8.8947487    229.62153 0.0099043104 0.0082728492            5 
 1933000   0.47162339   -8.9044932    229.72615 0.0099036969 0.0082658205            6 
 1934000    0.4850589    -8.920346    229.34354 0.0098820896 0.0082587973            4 
 1935000   0.49295244   -8.9296923    229.51088 0.0098841895 0.0082517895            4 
 1936000   0.48407446   -8.9047377    229.68713 0.0098866706 0.0082447819            7 
 1937000   0.47526906   -8.9048121    229.33308 0.0098663347 0.0082377835            3 
 1938000   0.47811724   -8.9064073    229.32838 0.0098610414 0.0082307955            3 
 1939000   0.47359917   -8.9157386    229.51386 0.0098639271  0.008223813            3 
 1940000   0.46798774   -8.9079661    229.30787 0.0098499946   0.00821684            2 
 1941000   0.47579879   -8.9226557     229.5345 0.0098546496 0.0082098812            9 
 1942000   0.47465377   -8.9278312    229.74426 0.0098585761 0.0082029326            3 
 1943000   0.47674766   -8.9337011    229.44737 0.0098407692 0.0081959824            2 
 1944000   0.46672521   -8.9208926    229.53292 0.0098393743 0.0081890452            3 
 1945000    0.4879127   -8.9210967    229.40732 0.0098289342 0.0081821126            4 
 1946000   0.47302939   -8.9126855    229.20884 0.0098153837 0.0081751771            3 
 1947000   0.47752479    -8.914202    229.68513 0.0098307282 0.0081682592            3 
 1948000   0.47228247   -8.9198956    229.16098 0.0098032591 0.0081613431            4 
 1949000   0.47305337   -8.9061815     229.7664 0.0098241151 0.0081544398            6 
 1950000   0.47084689   -8.9301521    229.43508 0.0098049181 0.0081475437            5 
 1951000   0.48151645   -8.9199174    229.25658 0.0097922679 0.0081406556            3 
 1952000   0.48105216   -8.9150284      229.528 0.0097988389 0.0081337715            6 
 1953000   0.46572295   -8.9105119    229.00988 0.0097717134 0.0081268909            3 
 1954000   0.47452389   -8.9199862     229.3051 0.0097793031 0.0081200155            3 
 1955000   0.47609024   -8.9247137    229.40075  0.009778378 0.0081131559            6 
 1956000   0.48188215   -8.9371153    229.12261 0.0097615292 0.0081063012            4 
 1957000   0.47616576   -8.9309762    229.33979  0.009765789 0.0080994576            4 
 1958000   0.46317251   -8.9147702    229.21316 0.0097554121 0.0080926299            6 
 1959000   0.47371201   -8.9214271    229.16156 0.0097482372 0.0080857948            3 
 1960000   0.47141949   -8.9130432    229.59247 0.0097615845 0.0080789651            3 
 1961000   0.47489383   -8.9092988    229.31401 0.0097447734 0.0080721454            6 
 1962000   0.46523059   -8.9264916     229.6325 0.0097533341 0.0080653388            3 
 1963000   0.47105631    -8.934769    229.19146 0.0097296426  0.008058532            3 
 1964000   0.46524687     -8.92295    229.39417 0.0097332897 0.0080517377            3 
 1965000   0.46801617   -8.9352373     229.2938 0.0097240796 0.0080449556            4 
 1966000   0.46113129   -8.9345441    229.33004 0.0097206698 0.0080381743            7 
 1967000   0.47364781   -8.9324744    228.81634 0.0096939648 0.0080314038            4 
 1968000   0.46236274    -8.940783    229.15796 0.0097035045  0.008024645            5 
 1969000   0.46494826   -8.9337367    229.27474 0.0097035188 0.0080178882            3 
 1970000   0.46083535   -8.9442046    229.39028 0.0097034804 0.0080111357            3 
 1971000   0.46231144   -8.9560581    229.72716 0.0097128005 0.0080043962            5 
 1972000   0.47052714   -8.9156333    229.44091 0.0096957789 0.0079976631            2 
 1973000   0.46524673   -8.9394948    229.14817 0.0096785001 0.0079909378            3 
 1974000   0.46458239   -8.9241939    229.38412 0.0096835579 0.0079842231            3 
 1975000   0.46802852    -8.937247    229.39246 0.0096790069 0.0079775099            2 
 1976000   0.46515894   -8.9303088    229.00747 0.0096578722 0.0079708074            5 
 1977000    0.4667111   -8.9448968    229.15265 0.0096591066 0.0079641116            4 
 1978000   0.46005555   -8.9341967    229.57371 0.0096719629 0.0079574254            4 
 1979000   0.46841204   -8.9356767    228.83235 0.0096358579 0.0079507401            3 
 1980000   0.46053452   -8.9474397    229.14789 0.0096442715 0.0079440602            4 
 1981000    0.4686124     -8.95123    229.67696 0.0096616589 0.0079373916            4 
 1982000    0.4685215   -8.9471896    228.83912 0.0096215574  0.007930728            4 
 1983000    0.4595301   -8.9494074    229.12834 0.0096288596  0.007924073            4 
 1984000   0.45882351   -8.9545273    229.39105 0.0096350407  0.007917423            3 
 1985000   0.46369875   -8.9469568    229.14108 0.0096196926 0.0079107862            4 
 1986000   0.46724255   -8.9434715     229.1858 0.0096167256 0.0079041527            5 
 1987000   0.46304521   -8.9417492    229.27525 0.0096156371 0.0078975229            8 
 1988000   0.45116803   -8.9593977    229.45387 0.0096182874 0.0078908987            3 
 1989000   0.46349026   -8.9252077    229.48342   0.00961469 0.0078842881            2 
 1990000   0.45250342   -8.9449617    228.88843 0.0095849427 0.0078776832            5 
 1991000   0.46891457   -8.9489937    229.14308 0.0095907868 0.0078710823            6 
 1992000   0.45440615   -8.9607989    229.24534   0.00959025 0.0078644915            6 
 1993000   0.46255679   -8.9576532    229.10746 0.0095796729 0.0078579092            4 
 1994000   0.45431652   -8.9299762     229.1393 0.0095761992 0.0078513386            5 
 1995000   0.45485218   -8.9483228    229.18642 0.0095733675 0.0078447709            2 
 1996000   0.45138344   -8.9486328     229.3277 0.0095744697 0.0078382154            3 
 1997000   0.45977951   -8.9491122    229.02157 0.0095569009 0.0078316582            3 
 1998000   0.45077583   -8.9638001     229.3634 0.0095663747  0.007825108            3 
 1999000   0.44854222   -8.9724389     229.0316 0.0095477572 0.0078185667            5 
 2000000   0.46164088   -8.9631402    229.00519 0.0095418828 0.0078120302            4 
 2001000   0.45029453   -8.9597958    229.25038 0.0095473255 0.0078054999            5 
 2002000   0.45442227   -8.9521013    229.10314 0.0095364275 0.0077989766            3 
 2003000    0.4512523   -8.9485847    229.48536 0.0095475687 0.0077924638            4 
 2004000   0.44199317   -8.9579767     228.6013 0.0095060421 0.0077859562            3 
 2005000    0.4481458   -8.9517737     229.3467 0.0095322818 0.0077794596            4 
 2006000   0.46479769   -8.9534491    229.09425 0.0095170425 0.0077729611            4 
 2007000   0.45588154   -8.9682842    229.12875 0.0095137331 0.0077664734            6 
 2008000   0.44704159   -8.9488342    229.21372 0.0095125216 0.0077599967            4 
 2009000   0.44722496   -8.9606949    229.09421 0.0095028295 0.0077535251            3 
 2010000   0.45324274   -8.9560264    229.08296  0.009497635 0.0077470629            4 
 2011000   0.44308618   -8.9691915    229.07119 0.0094924247 0.0077406011            3 
 2012000   0.44195571   -8.9676515    229.08365 0.0094882228 0.0077341501            3 
Loop time of 4900.13 on 48 procs for 2000000 steps with 4000 atoms

Performance: 70528.765 tau/day, 408.153 timesteps/s
99.4% CPU use with 48 MPI tasks x no OpenMP threads

MPI task timing breakdown:
Section |  min time  |  avg time  |  max time  |%varavg| %total
---------------------------------------------------------------
Pair    | 317.49     | 340.08     | 364.08     |  67.7 |  6.94
Neigh   | 32.378     | 33.882     | 36.923     |  13.4 |  0.69
Comm    | 309.88     | 333.88     | 359.43     |  78.8 |  6.81
Output  | 4.3797     | 4.3819     | 4.4176     |   0.3 |  0.09
Modify  | 4132.2     | 4143.6     | 4154.8     |   8.3 | 84.56
Other   |            | 44.29      |            |       |  0.90

Nlocal:        83.3333 ave          89 max          77 min
Histogram: 2 2 4 6 6 10 6 5 4 3
Nghost:        2170.33 ave        2187 max        2152 min
Histogram: 4 2 3 3 11 5 6 7 4 3
Neighs:        14337.4 ave       16188 max       12366 min
Histogram: 1 2 2 6 11 11 7 6 1 1
FullNghs:      28674.8 ave       30722 max       26168 min
Histogram: 2 0 5 7 7 6 8 5 5 3

Total # of neighbors = 1376392
Ave neighs/atom = 344.09800
Neighbor list builds = 106862
Dangerous builds = 0

#clear
#
#next RN
#
#jump SELF
Total wall time: 1:21:43
