
units lj                  # Use reduced LJ style units
atom_style atomic         # Uncharged point particles
atom_modify map hash      # Needed for indexing of clusters etc
                          # Used to be able to find where atoms are in relation to each other.

lattice fcc 1.0 spacing 1 1 1
Lattice spacing in x,y,z = 1.5874011 1.5874011 1.5874011
region box block 0 10 0 10 0 10 units lattice
create_box 2 box
Created orthogonal box = (0.0000000 0.0000000 0.0000000) to (15.874011 15.874011 15.874011)
  3 by 4 by 4 MPI processor grid
create_atoms 1 box
Created 4000 atoms
  using lattice units in orthogonal box = (0.0000000 0.0000000 0.0000000) to (15.874011 15.874011 15.874011)
  create_atoms CPU = 0.003 seconds
set type 1 type/fraction 2 0.14 78393
Setting atom values ...
  590 settings made for type/fraction
mass 1 1.0
mass 2 1.0
pair_style lj/cut  3.5
pair_modify tail  yes
pair_coeff 1  1  1.0  1.0   # Intearaction between 1 and 1 set with epsilon = 1 and sigma = 1
pair_coeff 1  2  1.5  0.8
pair_coeff 2  2  0.5  0.88

write_data data.0
System init for write_data ...
Neighbor list info ...
  update every 1 steps, delay 10 steps, check yes
  max neighbors/atom: 2000, page size: 100000
  master list distance cutoff = 3.8
  ghost atom cutoff = 3.8
  binsize = 1.9, bins = 9 9 9
  1 neighbor lists, perpetual/occasional/extra = 1 0 0
  (1) pair lj/cut, perpetual
      attributes: half, newton on
      pair build: half/bin/atomonly/newton
      stencil: half/bin/3d
      bin: standard
WARNING: Not all mixed pair coeffs generated from mixing. Use write_data with 'pair ij' option to store all pair coeffs. (../write_data.cpp:312)


#############################
#   M E L T   S Y S T E M   #
#############################

velocity all create 2.4 2750902 mom yes dist gaussian # Assign velocities
                                                    # Temperature 2.4, random number seed, zero linear momentum
                                                                                # Gaussian distribution

timestep 0.002   # simulation timestep
thermo 1000       # output thermodynamic data every 1000 steps bf 100

# Define a fix  in this case with index 1 applied to all
# particles in the simulation. This fix is for simulations
# in the anisotropic NPT ensemble. Note that we use the MTK
# correction.
fix 1 all npt temp 2.4 2.4 0.1 iso 5.68 5.68 0.5 mtk yes tchain 5 pchain 5 # Use NPT ensemble
                                                                         # Set temperature and pressure and damping
                                                                         # Numbers of thermostats in chain and in barostat
run 10000          # run for 10000 steps
Per MPI rank memory allocation (min/avg/max) = 3.642 | 3.644 | 3.648 Mbytes
Step Temp E_pair E_mol TotEng Press Volume 
       0          2.4   -7.4253508            0   -3.8262508   -3.2887046         4000 
    1000    2.3798693   -4.6669609            0   -1.0980493    5.5686125     4706.745 
    2000    2.3561516   -4.7285929            0    -1.195249    5.5944798    4687.5402 
    3000    2.3668222   -4.6788183            0   -1.1294726    5.8054099    4685.4011 
    4000      2.47168   -4.6841559            0  -0.97756284    5.8249078    4685.2884 
    5000    2.4511509   -4.7066891            0   -1.0308819    5.6095009    4696.7302 
    6000    2.4323543    -4.678623            0   -1.0310037     5.797082    4689.4716 
    7000    2.3685548   -4.6638047            0   -1.1118607    5.6553379    4714.2682 
    8000    2.3782158   -4.6502697            0   -1.0838378    5.6377312     4718.781 
    9000    2.3953864   -4.6955245            0   -1.1033432    5.7772415    4681.0309 
   10000     2.456101   -4.6837246            0   -1.0004941     5.830903    4686.2043 
Loop time of 2.20872 on 48 procs for 10000 steps with 4000 atoms

Performance: 782352.983 tau/day, 4527.506 timesteps/s
99.6% CPU use with 48 MPI tasks x no OpenMP threads

MPI task timing breakdown:
Section |  min time  |  avg time  |  max time  |%varavg| %total
---------------------------------------------------------------
Pair    | 0.92878    | 0.98631    | 1.0501     |   2.8 | 44.66
Neigh   | 0.19047    | 0.19954    | 0.20967    |   1.0 |  9.03
Comm    | 0.70566    | 0.76963    | 0.84347    |   4.0 | 34.85
Output  | 0.00024534 | 0.00025358 | 0.00042225 |   0.0 |  0.01
Modify  | 0.19542    | 0.23823    | 0.27596    |   4.7 | 10.79
Other   |            | 0.01476    |            |       |  0.67

Nlocal:        83.3333 ave          93 max          72 min
Histogram: 2 1 4 10 4 9 5 3 5 5
Nghost:        1477.19 ave        1504 max        1455 min
Histogram: 3 6 4 8 8 6 5 3 2 3
Neighs:        8125.48 ave        9319 max        6838 min
Histogram: 1 3 4 8 6 12 0 5 6 3

Total # of neighbors = 390023
Ave neighs/atom = 97.505750
Neighbor list builds = 900
Dangerous builds = 168

# Equilibrate just above the melting temperature to avoid step fn in T

fix 1 all npt temp 1.25 1.25 0.1 iso 5.68 5.68 0.5 mtk yes tchain 5 pchain 5
run 2000
Per MPI rank memory allocation (min/avg/max) = 3.642 | 3.644 | 3.648 Mbytes
Step Temp E_pair E_mol TotEng Press Volume 
   10000     2.456101   -4.6837246            0   -1.0004941     5.830903    4686.2043 
   11000    1.2539001   -6.3152897            0   -4.4349098     5.783064    3850.3688 
   12000    1.2606697   -6.3516924            0   -4.4611607    5.5142863    3853.3567 
Loop time of 0.483876 on 48 procs for 2000 steps with 4000 atoms

Performance: 714232.490 tau/day, 4133.290 timesteps/s
99.7% CPU use with 48 MPI tasks x no OpenMP threads

MPI task timing breakdown:
Section |  min time  |  avg time  |  max time  |%varavg| %total
---------------------------------------------------------------
Pair    | 0.20697    | 0.23167    | 0.25308    |   2.2 | 47.88
Neigh   | 0.03137    | 0.033745   | 0.036224   |   0.6 |  6.97
Comm    | 0.14291    | 0.16617    | 0.19044    |   2.8 | 34.34
Output  | 5.0532e-05 | 5.2559e-05 | 6.6946e-05 |   0.0 |  0.01
Modify  | 0.041768   | 0.047679   | 0.052938   |   1.5 |  9.85
Other   |            | 0.004555   |            |       |  0.94

Nlocal:        83.3333 ave          91 max          76 min
Histogram: 3 2 5 8 8 3 10 3 2 4
Nghost:        1687.71 ave        1714 max        1659 min
Histogram: 1 0 5 5 13 7 5 8 3 1
Neighs:        9908.98 ave       11227 max        8910 min
Histogram: 5 4 6 5 11 3 6 6 1 1

Total # of neighbors = 475631
Ave neighs/atom = 118.90775
Neighbor list builds = 142
Dangerous builds = 7

#############################
# L I N E A R  Q U E N C H  #
#############################

# Define solid atoms. This closely follows ten Wolde  Ruiz-Montero and Frenkel  Faraday Discuss  1996  104  93-110
# Compute components of the per-atom q6 vector
compute q6 all orientorder/atom degrees 1 6 components 6 nnn NULL cutoff 1.3 # compute the Q6 parameter.
                                                                             # Use all neighbours within 1.3 unit cell.

# get number of connections
compute coord_number all coord/atom orientorder q6 0.5

# An atom is solid if it has 8 or more connections (of a possible 14)
variable is_solid atom c_coord_number>=8
group solid dynamic all var is_solid    # Must be dynamic to update
dynamic group solid defined

# do clustering
compute cluster solid cluster/atom 1.3 # Create a cluster where all atoms within are solid and max 1.3 units from another member

# define chunks one chunk per cluster
compute clus_chunks solid chunk/atom c_cluster nchunk every compress yes  # Says which atoms are in which chunk

# count the size of each chunk
compute size_chunks solid property/chunk clus_chunks count


# Find the maximum entry in the vector of chunk sizes
variable max_n equal max(c_size_chunks)


# Thermo style which includes this variable
# thermo_style custom step temp pe vol v_max_n

thermo ${N}  # Print the thermo information every 100 steps
thermo 1000  

# Reset the npt fix at a lower temperature (below freezing)
fix 1  all npt temp  ${temp} ${temp}  0.1  iso  5.68  5.68  0.5  mtk yes tchain  5  pchain  5
fix 1  all npt temp  0.45 ${temp}  0.1  iso  5.68  5.68  0.5  mtk yes tchain  5  pchain  5
fix 1  all npt temp  0.45 0.45  0.1  iso  5.68  5.68  0.5  mtk yes tchain  5  pchain  5

dump dmp2 all dcd ${N} traj.dcd
dump dmp2 all dcd 1000 traj.dcd


compute msd all msd com yes
variable twopoint equal c_msd[4]/6/(step*dt+1.0e-6)
fix 9 all vector 10 c_msd[4]
variable fit equal slope(f_9)/6/(10*dt)
thermo_style custom step temp pe c_msd[4] v_twopoint v_fit v_max_n

fix 1 all npt temp 1.25 ${temp} 0.1 iso 5.68 5.68 0.5 mtk yes tchain 5 pchain 5
fix 1 all npt temp 1.25 0.45 0.1 iso 5.68 5.68 0.5 mtk yes tchain 5 pchain 5
run 2000000 # 5000000  # Run for this many steps
Neighbor list info ...
  update every 1 steps, delay 10 steps, check yes
  max neighbors/atom: 2000, page size: 100000
  master list distance cutoff = 3.8
  ghost atom cutoff = 3.8
  binsize = 1.9, bins = 9 9 9
  4 neighbor lists, perpetual/occasional/extra = 1 3 0
  (1) pair lj/cut, perpetual
      attributes: half, newton on
      pair build: half/bin/atomonly/newton
      stencil: half/bin/3d
      bin: standard
  (2) compute orientorder/atom, occasional
      attributes: full, newton on
      pair build: full/bin/atomonly
      stencil: full/bin/3d
      bin: standard
  (3) compute coord/atom, occasional
      attributes: full, newton on
      pair build: full/bin/atomonly
      stencil: full/bin/3d
      bin: standard
  (4) compute cluster/atom, occasional
      attributes: full, newton on
      pair build: full/bin/atomonly
      stencil: full/bin/3d
      bin: standard
Per MPI rank memory allocation (min/avg/max) = 9.758 | 9.765 | 9.771 Mbytes
Step Temp PotEng c_msd[4] v_twopoint v_fit v_max_n 
   12000    1.2606697   -6.3516924 8.5729459e-31 5.9534344e-33 8.3333333e+20            3 
   13000    1.2573107   -6.3519897   0.54941289 0.0035218774   0.04551584            2 
   14000    1.2681123    -6.334724    1.0844677 0.0064551649  0.045177412            2 
   15000    1.2634976   -6.3565478    1.6583935 0.0092132968  0.045245914            2 
   16000    1.2521754   -6.3214728    2.2018182  0.011467803  0.045901664            3 
   17000    1.2882908   -6.3154389    2.7579561  0.013519392  0.046062687            2 
   18000    1.2344684   -6.3537819      3.25431   0.01506625  0.045627811            1 
   19000    1.2590197   -6.3662328     3.853846  0.016902833  0.045404389            2 
   20000    1.2887933   -6.3681438    4.4394718  0.018497799   0.04579072            3 
   21000    1.2594649   -6.3880286    4.9242147  0.019540534  0.045898937            2 
   22000    1.2353496   -6.3197322    5.4182173   0.02052355  0.045650058            2 
   23000    1.2494987   -6.3409631    5.9367485  0.021509958  0.045359179            1 
   24000    1.2484766   -6.3616061    6.5981557  0.022910262  0.045329734            2 
   25000    1.2474918   -6.3324806    7.1494018  0.023831339   0.04542743            3 
   26000    1.2663798   -6.3964983    7.6940242  0.024660333  0.045540061            2 
   27000     1.278126   -6.3526779    8.2160912  0.025358306  0.045541318            3 
   28000    1.2636783    -6.355522     8.811425  0.026224479  0.045567212            2 
   29000    1.2528672   -6.3630164     9.464368  0.027196459  0.045731173            2 
   30000    1.2103908   -6.3823773     10.09949  0.028054139  0.045997804            1 
   31000    1.2572917    -6.383859    10.431479  0.028041611   0.04607871            5 
   32000    1.2277322   -6.3600862    10.949125  0.028513346  0.045989507            3 
   33000    1.2578749   -6.3791717     11.24964  0.028408182   0.04573793            2 
   34000    1.2400243    -6.383869    11.796444  0.028912852  0.045461975            1 
   35000    1.2508512    -6.365947    12.382722   0.02948267  0.045252728            3 
   36000    1.2434201   -6.3880255    12.803975   0.02963883  0.045055033            3 
   37000     1.227718   -6.3573554    13.377664  0.030129873  0.044888028            2 
   38000    1.2556733   -6.3541705    14.034706  0.030777865   0.04483176            1 
   39000    1.2185126    -6.363889    14.345352  0.030652462  0.044729112            3 
   40000    1.2221084   -6.3416333    14.792134  0.030816945   0.04454691            3 
   41000    1.2287283     -6.38851     15.30155  0.031100712  0.044363233            2 
   42000    1.2154662   -6.3877858    15.918098  0.031583527  0.044246129            3 
   43000    1.2242003   -6.3589122    16.366544  0.031718109  0.044133414            3 
   44000    1.2563512   -6.3724891    16.915111  0.032036194  0.044055421            2 
   45000    1.2337316   -6.4009432    17.440659  0.032297516  0.043976032       -1e+20 
   46000    1.2559472   -6.3590916    17.956268   0.03252947  0.043916851            1 
   47000    1.2213112   -6.3948742    18.441667   0.03269799  0.043833416            2 
   48000    1.1993691   -6.4116292    18.994125   0.03297591  0.043771672            2 
   49000    1.2393396   -6.4052378    19.657441  0.033431021  0.043735469            1 
   50000    1.2484888    -6.356951    20.074797  0.033457994  0.043697189            9 
   51000    1.2588387   -6.3972902    20.524126  0.033536154  0.043658059            1 
   52000    1.2368402   -6.3909345    21.026411   0.03369617  0.043602013            2 
   53000    1.2272678   -6.3687962    21.440135  0.033710904  0.043559697            3 
   54000    1.2240253   -6.4254684    22.122272  0.034139308  0.043529633            3 
   55000    1.2387189   -6.3618686    22.561841  0.034184608  0.043508836            2 
   56000    1.2596554   -6.3900052    23.066128  0.034324594  0.043472326            2 
   57000    1.2401757   -6.3909697    23.571837   0.03446175  0.043443492            2 
   58000    1.2429485   -6.3796948     24.09001  0.034612083  0.043411853            3 
   59000     1.206981   -6.3783474    24.585116   0.03472474   0.04338007            1 
   60000     1.185908   -6.3961322    25.011493  0.034738184  0.043353082            1 
   61000    1.2059404   -6.3765682    25.330932  0.034605098  0.043293681            2 
   62000    1.2173754   -6.3639291    26.087556  0.035063919  0.043232256            4 
   63000    1.2383835   -6.3991674    26.485351  0.035033533  0.043186919            2 
   64000    1.2395865   -6.4058363    27.027168  0.035191625  0.043149452            3 
   65000    1.2288129   -6.3580184    27.428896  0.035165251  0.043097704            1 
   66000    1.2229315   -6.3736613    28.014024  0.035371242  0.043041022            2 
   67000    1.2442834   -6.4083232    28.596005   0.03556717  0.043008966            2 
   68000     1.213404   -6.3927848    28.942215    0.0354684  0.042969682            2 
   69000    1.2122273   -6.3901606    29.288292  0.035372334  0.042909455            2 
   70000    1.2301182   -6.3973213    29.835002  0.035517859  0.042848023            2 
   71000    1.2467492   -6.4004611    30.533352  0.035837268  0.042808417            3 
   72000    1.1847088   -6.4080316     31.04651   0.03593346  0.042787966            1 
   73000    1.2424204   -6.4197569      31.4829  0.035939384  0.042773042            1 
   74000    1.1976229   -6.3735281    31.982013   0.03601578  0.042748247            1 
   75000    1.2348725   -6.4085107    32.413994  0.036015549  0.042717244            2 
   76000    1.2204193   -6.3837408    32.819958  0.035986796  0.042670492            2 
   77000    1.2412983   -6.4079384    33.166497  0.035894477  0.042620851            4 
   78000    1.2235316   -6.4167221    33.903417  0.036221599  0.042575182            3 
   79000    1.2392633   -6.3518945     34.57403  0.036470495  0.042555796            2 
   80000    1.2424644   -6.4228202    34.877564  0.036330796  0.042533858            3 
   81000    1.2421751   -6.4006929    35.307972  0.036325074  0.042493052            3 
   82000    1.1823623   -6.4383151    35.955164    0.0365398  0.042465946            3 
   83000    1.2186058   -6.4032411    36.408081  0.036554298  0.042438251            2 
   84000    1.2300731   -6.4155759    36.807567  0.036515443  0.042412024            3 
   85000    1.2364461   -6.4427279    37.172781  0.036443902   0.04237555            2 
   86000    1.2197667   -6.4292756    37.713012  0.036543616  0.042327846            2 
   87000    1.2203141   -6.4074063    37.856035  0.036260569  0.042282701            3 
   88000     1.223031    -6.388846    38.637495  0.036588537  0.042239542            2 
   89000    1.2293377   -6.4116157    39.086607  0.036597946  0.042199787            2 
   90000    1.2084705   -6.3884752    39.563952  0.036633289  0.042162196            2 
   91000    1.2209895   -6.4022251    40.027849  0.036655539  0.042121921            3 
   92000    1.2425389   -6.3594155    40.620796  0.036794199   0.04208789            1 
   93000    1.2275546   -6.3982062    40.946976  0.036690838  0.042053639            4 
   94000    1.1888888   -6.4251774    41.520595  0.036809038  0.042014631            2 
   95000    1.2075674    -6.416202     42.08787  0.036919184  0.041985701            1 
   96000    1.2010512    -6.458219    42.468661  0.036865157  0.041955127            2 
   97000     1.223923   -6.4110474     42.87544   0.03683457  0.041925833            2 
   98000    1.2130934   -6.4098478    43.505766  0.036994699  0.041893409            2 
   99000    1.2179614   -6.3754392     44.08633  0.037109705  0.041870707            2 
  100000    1.1970264   -6.4132531    44.063047  0.036719206  0.041836967            1 
  101000      1.24477   -6.3781817    44.798184  0.036962197  0.041795087            2 
  102000    1.1888041   -6.4112606    45.184201  0.036915197  0.041753123            2 
  103000    1.2261467   -6.4197026    45.867113  0.037109315  0.041718098            3 
  104000    1.2103517   -6.4395652    46.089551   0.03693073  0.041680713            2 
  105000    1.2244639   -6.4360945    46.664967  0.037035688  0.041639565            2 
  106000    1.1800135   -6.4388431    46.973408   0.03692878  0.041597829            2 
  107000    1.1966825   -6.4103493    47.498605  0.036992683  0.041558204            4 
  108000    1.2133721   -6.4368771    48.070114  0.037091137  0.041530356            4 
  109000    1.1987673   -6.4385032    49.032292  0.037486462  0.041514416            2 
  110000    1.2131929   -6.4916889    49.562003  0.037546972  0.041502462            1 
  111000    1.2147168   -6.4247196    49.905119  0.037466306  0.041496151            2 
  112000    1.2220016   -6.4191159    50.566659  0.037624002  0.041488671            1 
  113000    1.2082391   -6.4005546    51.058795  0.037653979  0.041484761            2 
  114000    1.1940426   -6.4398504    51.320199  0.037514765  0.041476086            3 
  115000      1.19699   -6.4110795    51.743499  0.037495289   0.04146909            1 
  116000    1.1736141   -6.4822831    52.264558  0.037546378  0.041459798            3 
  117000    1.2241066   -6.4083638    52.505641   0.03739718  0.041441538            3 
  118000     1.211792   -6.4646741    52.782711  0.037275926  0.041415279            2 
  119000    1.2317525   -6.4823158    53.508914  0.037471228  0.041392104            5 
  120000    1.1952661   -6.4223261    53.879147  0.037416074   0.04136655            3 
  121000    1.2103346   -6.4245452    54.547606  0.037567222  0.041348086            2 
  122000    1.1758679    -6.428186    54.840005  0.037459019   0.04132785            2 
  123000    1.2098758   -6.4204718    55.571517  0.037650079  0.041305675            3 
  124000     1.201282   -6.4614636    55.944451  0.037597077  0.041290194            2 
  125000    1.2142468   -6.4334169    56.596187  0.037730791  0.041279639            2 
  126000    1.2016141    -6.462452    57.131409  0.037785323  0.041265262            2 
  127000    1.2137466   -6.4681065    57.543647  0.037758298  0.041255373            2 
  128000    1.2112998   -6.4569111    58.247178   0.03792134   0.04124994            3 
  129000     1.187719   -6.4661305    58.527908  0.037808726  0.041239014            2 
  130000    1.2003022   -6.4222662    58.911452  0.037763751  0.041228387            1 
  131000    1.2343869   -6.4728374    59.326593  0.037739563  0.041216302            2 
  132000    1.1886027   -6.4464494    59.937573  0.037839377  0.041204016            2 
  133000    1.1866711    -6.413719    60.600351  0.037970145  0.041197242            2 
  134000    1.2037178   -6.4555786    60.923531  0.037887768  0.041188477            5 
  135000    1.1954691   -6.4770148    61.036909  0.037677104  0.041175572            3 
  136000    1.2110933   -6.4047562    61.473136  0.037667362  0.041151602            3 
  137000    1.1953008   -6.4471991    61.998487  0.037711975  0.041129807            1 
  138000    1.2052626   -6.4522347    62.505256   0.03774472  0.041109096            2 
  139000     1.206506   -6.5095322     62.90042  0.037710084  0.041091901            8 
  140000    1.1865336    -6.413588    63.547024  0.037825609  0.041070001            3 
  141000    1.2021701   -6.4533165    63.957672  0.037800043  0.041047799            4 
  142000    1.1693264   -6.4700849    63.991041  0.037553427  0.041020439            1 
  143000    1.2003266   -6.4347508    64.507986  0.037592066  0.040991003            3 
  144000    1.2065564   -6.4558199    65.130075  0.037691015  0.040965229            3 
  145000     1.227814   -6.4377954    65.189037  0.037464964  0.040939507            1 
  146000      1.20034   -6.4307481      65.7793  0.037545262  0.040910619            1 
  147000    1.2442403   -6.4454988    66.733427  0.037830741  0.040886235            2 
  148000    1.1921458   -6.4251891    67.227229  0.037853169  0.040865617            6 
  149000    1.1580262   -6.4348097    67.779333  0.037907904  0.040849391            2 
  150000    1.2179064   -6.4395103    68.013753  0.037785418  0.040831797            1 
  151000     1.193712   -6.4518047    68.616577  0.037867868  0.040814947            3 
  152000    1.2128656   -6.4855684    69.135679  0.037903332  0.040798863            1 
  153000    1.2121236   -6.4590632    69.808737  0.038022188  0.040784502            2 
  154000    1.2160456   -6.4734811    70.114633  0.037940818   0.04076843            6 
  155000    1.2002291    -6.433364    70.269246  0.037779165  0.040747336            1 
  156000    1.1944986   -6.4746039    70.822109  0.037832323  0.040728482            3 
  157000    1.1816502   -6.4890094    71.482229  0.037941735  0.040709863            2 
  158000     1.182959   -6.4728302    71.291915  0.037601221  0.040690577            1 
  159000    1.2102024   -6.4786839    71.910766   0.03768908  0.040666704            1 
  160000    1.1747609   -6.4720821    72.341424  0.037677825  0.040640952            2 
  161000    1.2011086    -6.471688    72.755473  0.037658112   0.04061553            2 
  162000    1.1795072   -6.4402522    73.405493  0.037760027   0.04059504            3 
  163000    1.1767911   -6.4457716    73.942231  0.037802776   0.04057602            3 
  164000    1.1636523   -6.4312418    74.451226  0.037830908  0.040557022            3 
  165000    1.1958732   -6.4936236     74.81937   0.03778756  0.040536461            6 
  166000    1.1975676   -6.4413546    75.391626  0.037847202  0.040522029            1 
  167000    1.1838201   -6.4851261    75.941715  0.037895067  0.040508686            2 
  168000    1.2018039   -6.4759271    76.405778  0.037899691  0.040492931            2 
  169000    1.1786691   -6.4673201    76.769352   0.03785471    0.0404747            2 
  170000    1.2138879   -6.4787745    77.018407  0.037754121  0.040458432            3 
  171000    1.2015435   -6.4459476    77.774056  0.037901587  0.040443631            6 
  172000    1.1974449   -6.4504925    78.351824  0.037961155  0.040430278            2 
  173000    1.1931171   -6.4964519    78.692799  0.037905973  0.040415204            2 
  174000    1.1903626   -6.4880855    78.999421  0.037834972  0.040398705            3 
  175000    1.1633942   -6.4849433    79.661527   0.03793406  0.040380247            2 
  176000    1.1811595   -6.4746004    79.884635  0.037824164  0.040362596            4 
  177000    1.1630472   -6.4463083    80.353997  0.037831448  0.040345721            2 
  178000    1.2043595   -6.5193598    80.725134  0.037792666  0.040329802            2 
  179000    1.1818686   -6.4769393    81.546851  0.037964083  0.040315385            4 
  180000    1.2179921   -6.4968068    81.893743   0.03791377  0.040299627            1 
  181000    1.1907976   -6.5168736    82.066475  0.037783828   0.04028513            6 
  182000    1.1624811   -6.4816622    82.714909  0.037873127  0.040269444            2 
  183000    1.1786378   -6.4762895    83.509731   0.03802811  0.040256507            2 
  184000    1.1916674   -6.4878396     83.59835  0.037861571  0.040242188            2 
  185000    1.2029231   -6.4761185    83.873947  0.037781057  0.040226523            2 
  186000    1.1681685   -6.5030456     84.33859  0.037786107   0.04020892            3 
  187000    1.1629769    -6.516677    84.725544  0.037756481   0.04018931            3 
  188000     1.184574   -6.4679921    85.357972   0.03783598  0.040170831            2 
  189000    1.1799567   -6.5064126     85.48742  0.037692866  0.040152904            2 
  190000    1.1906152   -6.4830164    85.994742  0.037716992   0.04013417            4 
  191000     1.154947   -6.5043923    86.474309  0.037728756  0.040114258            3 
  192000    1.1465359   -6.4726129    86.690494  0.037626082  0.040092834            2 
  193000    1.1798525   -6.4785082    87.447163  0.037757842  0.040071021            3 
  194000    1.1617415    -6.468685     87.57602  0.037618565  0.040050439            4 
  195000    1.1867853   -6.5335541      88.0642  0.037634274  0.040028798            2 
  196000    1.1645869   -6.4941111    88.351558  0.037564438  0.040008223            2 
  197000    1.1899228   -6.4605555    88.852808   0.03758579  0.039987021            2 
  198000     1.183442    -6.519534    89.052228  0.037479894  0.039963864            3 
  199000    1.1807981    -6.470844    89.625631  0.037531671  0.039939048            2 
  200000    1.1735722   -6.4760212    90.373021  0.037655425  0.039915339            3 
  201000    1.1464676   -6.4953606    90.560619  0.037545862  0.039892599            3 
  202000    1.1955712   -6.4983132    91.058659  0.037565453  0.039867704            2 
  203000    1.1608603   -6.4682046    91.451513  0.037541672  0.039845476            2 
  204000    1.1832346   -6.4908388    91.659123  0.037442452  0.039822528            3 
  205000    1.1778255   -6.4904355    92.241154  0.037496404  0.039799776            3 
  206000    1.1565396   -6.4824647    92.570675  0.037447684  0.039775827            3 
  207000    1.1847801   -6.4993632     92.85061  0.037379472  0.039747931            3 
  208000    1.1858411   -6.4965299    93.222054  0.037348579  0.039719268            3 
  209000    1.1990323   -6.4731355    93.931412  0.037452716  0.039693263            4 
  210000    1.1570541   -6.4677549     94.12132   0.03734973  0.039667289            2 
  211000    1.1772091   -6.5326163    94.342234  0.037259966  0.039639942            2 
  212000    1.1698855   -6.4707585    94.918778   0.03731084  0.039610859            2 
  213000    1.1877028   -6.5133262    94.907444  0.037131238  0.039578728            4 
  214000    1.1550004    -6.533387    95.417189  0.037156226  0.039548577            3 
  215000    1.1630842   -6.4994485    95.993441   0.03720676   0.03951922            3 
  216000    1.1721652   -6.5259134    96.464973  0.037216425  0.039491989            2 
  217000    1.1782695   -6.4634755    97.045505  0.037267859  0.039465285            1 
  218000    1.1789222   -6.4761209    97.517907  0.037277487  0.039442779            3 
  219000    1.1559835   -6.5064121    97.954444   0.03727338  0.039418894            3 
  220000    1.1664167    -6.531155    98.537847  0.037324942  0.039395756            2 
  221000    1.1741923   -6.5022931     98.97081   0.03731931  0.039372324            1 
  222000    1.1674722   -6.4710026    99.640162  0.037402463  0.039349861            3 
  223000    1.1588414   -6.4463189    100.20884  0.037447251  0.039329317            1 
  224000    1.1561854   -6.5151406    100.17115  0.037266054  0.039309263            1 
  225000    1.1963302   -6.5270143     100.8688  0.037358816  0.039288019            1 
  226000    1.1656519   -6.5002219    100.98731  0.037237208  0.039266304            3 
  227000    1.1536896      -6.5645    101.29675  0.037186766  0.039243975            1 
  228000    1.1582073   -6.5076064     102.1873  0.037349157  0.039221616            1 
  229000    1.1542395   -6.5062632    102.47733  0.037291604   0.03920107            1 
  230000    1.1620652   -6.5154126     102.7633  0.037233078  0.039178484            1 
  231000    1.1351905    -6.492343    103.34052  0.037280129  0.039157869            2 
  232000    1.1347697   -6.5301715    103.59243  0.037209923  0.039138042            2 
  233000    1.1655134   -6.4962733    104.22456   0.03727631  0.039118167            2 
  234000    1.1784968   -6.5220017    104.74411  0.037302032  0.039098534            2 
  235000    1.1474686   -6.5156028    105.05471  0.037253443  0.039077792            2 
  236000    1.1819832   -6.5151414    105.23086  0.037157791  0.039057783            3 
  237000     1.170221   -6.4964529     105.8983  0.037235689  0.039036926            4 
  238000    1.1620701   -6.5142298    106.30621  0.037222061  0.039016835            2 
  239000     1.168484   -6.5333833    106.31067  0.037067875  0.038996272            4 
  240000    1.1460029   -6.5460693    107.34981  0.037274241  0.038976379            4 
  241000    1.1646668   -6.5458474    107.46664  0.037159974  0.038958361            3 
  242000    1.1406815   -6.5098693    108.15341  0.037242909  0.038941263            3 
  243000    1.1572175   -6.5246189    108.14575   0.03708702  0.038922136            5 
  244000    1.1759772   -6.5003752    108.42419  0.037030119  0.038902203            2 
  245000    1.1911243    -6.553775    109.03494  0.037086715  0.038882878            2 
  246000    1.1621776   -6.5188301     109.5325  0.037104506  0.038862338            3 
  247000    1.1555864   -6.5205066    110.38984  0.037243535  0.038844502            4 
  248000    1.1726835   -6.5541485    110.54718  0.037146228  0.038825956            1 
  249000    1.1420574   -6.5308304    111.13946  0.037195269   0.03880794            1 
  250000    1.1491478   -6.5160224    111.52248   0.03717416   0.03879031            2 
  251000    1.1350451   -6.5369606    111.92379  0.037159293  0.038774062            3 
  252000    1.1403782   -6.5500673    112.32157  0.037143378  0.038756487            2 
  253000    1.1481481   -6.4923792    112.92201  0.037194338  0.038738766            2 
  254000    1.1469441   -6.5228841    113.27624   0.03716412  0.038721168            3 
  255000    1.1766798   -6.5590889     113.3213  0.037033105  0.038702297            4 
  256000    1.1691124   -6.5382912    113.43243   0.03692462  0.038682334            2 
  257000    1.1542306   -6.5466712    114.38663  0.037090348  0.038663324            3 
  258000    1.1583542   -6.4932815    115.04124  0.037158024  0.038645625            1 
  259000    1.1403969   -6.5240488    114.91641  0.036974391  0.038628077            5 
  260000      1.15323    -6.511721    115.93782  0.037159558  0.038612034            2 
  261000    1.1342299   -6.5480218    116.30092  0.037133118  0.038597744            2 
  262000    1.1286779    -6.514635    117.00435  0.037215124  0.038583108            3 
  263000    1.1649629    -6.534972    116.95333  0.037057456  0.038567917            1 
  264000    1.1411968   -6.5769053     117.5144  0.037094191  0.038552625            2 
  265000     1.161912   -6.5305975    117.72024  0.037018943  0.038537106            3 
  266000    1.1271033   -6.5276164     118.3515  0.037077538  0.038520878            4 
  267000    1.1295553   -6.5494094    118.70027  0.037047523  0.038505334            5 
  268000    1.1583998    -6.520709    119.62211  0.037195929  0.038489349            5 
  269000    1.1558391   -6.5389479    119.63389  0.037061304  0.038475265            2 
  270000    1.1569886    -6.540637     119.8602  0.036993889  0.038460411            2 
  271000    1.1593976   -6.5573668    120.37395   0.03701536  0.038444689            3 
  272000    1.1419822   -6.5512765    120.66686  0.036969013  0.038428852            3 
  273000    1.1438592    -6.576378    120.53275   0.03679266   0.03841024            3 
  274000    1.1427302    -6.587494    121.10243  0.036831638  0.038392314            1 
  275000    1.1559074   -6.5519928    121.36213  0.036776403   0.03837475            2 
  276000    1.1353695   -6.5281217    122.58976  0.037013817  0.038358274            2 
  277000     1.148406   -6.5485863     122.6845  0.036908694  0.038341007            2 
  278000    1.1294562   -6.5595112     122.7226  0.036787351  0.038323754            3 
  279000    1.1506884   -6.5574117    123.02715  0.036746459  0.038305586            2 
  280000    1.1654761   -6.5086004    123.52895  0.036764569  0.038286426            2 
  281000    1.1154978   -6.5629758    123.98264  0.036768279  0.038267138            1 
  282000    1.1358422   -6.5684223    124.08143  0.036667089  0.038247487            4 
  283000    1.1443938    -6.540039    124.29864  0.036601483  0.038226909            2 
  284000    1.1533075   -6.5817741    124.52399  0.036538729  0.038206322            3 
  285000    1.1519075   -6.5198766    125.59375  0.036723319  0.038184092            2 
  286000    1.1471967   -6.5681931    125.97431  0.036705801  0.038163312            2 
  287000    1.1545731   -6.5668196    126.47788  0.036724124   0.03814356            3 
  288000    1.1680115     -6.57263    126.66326  0.036650249  0.038123994            3 
  289000    1.1141093   -6.5783977    126.79364  0.036561026  0.038104922            2 
  290000     1.161882    -6.536018    127.63953  0.036678025   0.03808454            4 
  291000    1.1364422   -6.5572481    127.78768  0.036594411  0.038064254            2 
  292000    1.1516107   -6.5414316    127.97264  0.036521871  0.038043888            2 
  293000    1.1291296   -6.5818977    128.39379  0.036517004  0.038022784            3 
  294000    1.1600013   -6.5802111    128.72587  0.036486925  0.037999249            1 
  295000    1.1338368   -6.5302616    129.04458  0.036453272  0.037975091            2 
  296000    1.1213997   -6.5432714    129.15443  0.036361046  0.037951102            2 
  297000    1.1048369   -6.5734242    129.97987  0.036470221  0.037928829            3 
  298000    1.1210265   -6.5575436     129.6795  0.036263843  0.037906609            3 
  299000    1.1452158   -6.5671133    130.62719  0.036406687  0.037884425            3 
  300000    1.1100274   -6.6095556    130.80415  0.036334487  0.037862807            2 
  301000     1.146166   -6.5234111    131.90333  0.036518086  0.037842838            2 
  302000    1.1581813   -6.5648103    132.06796  0.036442593  0.037823577            4 
  303000    1.1149181    -6.548066    132.85545  0.036538902  0.037804647            3 
  304000    1.1213687   -6.5850082    132.38527  0.036289821  0.037783871            4 
  305000    1.1163225   -6.5757971    132.70298  0.036257644   0.03776365            6 
  306000    1.1011699   -6.5091744    134.19466  0.036545387  0.037742796            3 
  307000    1.1234087   -6.5763615    134.48925   0.03650631  0.037723266            2 
  308000    1.1268752   -6.5783251    134.08004  0.036277067  0.037706125            1 
  309000    1.1492106   -6.5810258     134.9375  0.036390912  0.037687369            2 
  310000    1.1037412   -6.5772037    134.82911  0.036244385  0.037667323            1 
  311000    1.1124405   -6.6023889    134.93953   0.03615743  0.037645388            2 
  312000    1.1429629   -6.5790526    134.93892  0.036041378  0.037623425            4 
  313000    1.1283329   -6.5793741    135.54594  0.036087842  0.037600312            3 
  314000    1.1330709   -6.5659321    135.89372  0.036065212  0.037576615            3 
  315000      1.13758   -6.5800232    136.72704  0.036171174  0.037554167            1 
  316000    1.1027534   -6.5915545    137.18912  0.036178564  0.037533397            7 
  317000    1.1202805   -6.5950751    137.31049  0.036096342     0.037513            2 
  318000     1.115858   -6.5909529    137.48916  0.036029654  0.037492493            2 
  319000    1.1334838   -6.5925925    137.77436  0.035991213   0.03747124            2 
  320000    1.1515938   -6.5646396    138.79095  0.036143475  0.037449795            1 
  321000    1.1352579   -6.5570835    139.34094  0.036173659   0.03742993            2 
  322000    1.1205208   -6.5725425    139.39225  0.036074598  0.037410767            2 
  323000    1.1130426   -6.5947535    139.84814  0.036080532  0.037389624            3 
  324000    1.1405282   -6.5820086    140.16183  0.036049854  0.037369502            3 
  325000    1.1172596   -6.5506339    140.82173  0.036108135  0.037349877            2 
  326000    1.1319472   -6.5892551    140.96777  0.036034705  0.037330925            2 
  327000    1.1339468   -6.6019223    141.46027  0.036050018  0.037309359            3 
  328000    1.1107678    -6.606091    141.35731  0.035913952  0.037287703            3 
  329000    1.1257994   -6.5973485    141.59547  0.035865114  0.037265547            5 
  330000    1.1202837   -6.6207779    142.07066  0.035876429  0.037242583            2 
  331000    1.1223964   -6.5570716    142.14266  0.035786168  0.037219752            2 
  332000    1.1274845   -6.5979327    143.11504  0.035922449  0.037196868            4 
  333000    1.1307141    -6.591129    143.08826  0.035807873  0.037174915            2 
  334000    1.1443526    -6.589922    143.78928  0.035875568  0.037153234            2 
  335000    1.1393707   -6.6251074    144.27866  0.035890213  0.037133034            2 
  336000     1.120942   -6.6068267    144.71049  0.035890498  0.037111963            5 
  337000     1.113383   -6.5706837    145.35078   0.03594233  0.037092797            2 
  338000    1.1303247   -6.6033912    145.63071  0.035905007  0.037073349            4 
  339000    1.1174936   -6.5957607     146.1848  0.035935301  0.037054674            1 
  340000    1.1243308   -6.5738669    146.50097    0.0359071  0.037035559            3 
  341000    1.1050272   -6.6297644    146.49078  0.035799311  0.037015928            3 
  342000    1.1382885      -6.5999    146.81345  0.035773258  0.036996005            2 
  343000    1.1022634   -6.5878859    146.61728  0.035621302  0.036975882            3 
  344000    1.1195662   -6.6024002    147.48242   0.03572733  0.036956349            2 
  345000    1.1316566   -6.5778989    148.44797  0.035856997  0.036937093            4 
  346000    1.1127709   -6.5755806     148.5481  0.035777481  0.036916635            2 
  347000    1.1007577    -6.588881    148.59703  0.035686126  0.036897151            3 
  348000     1.117178   -6.6284958    148.68953  0.035605731  0.036875335            3 
  349000    1.1063991   -6.6360155    148.36024   0.03542508  0.036851688            7 
  350000     1.098279   -6.5750691    149.02899  0.035483093  0.036828644            2 
  351000    1.1195596   -6.5810726    149.63856  0.035526723  0.036804953            3 
  352000    1.1044753   -6.5959452    149.33781  0.035354596   0.03678175            3 
  353000     1.123383   -6.5972781     149.9884  0.035408027  0.036759382            2 
  354000    1.1276132   -6.5958577    150.43035   0.03541204  0.036737248            4 
  355000    1.1151872   -6.6002823    150.77529  0.035393261  0.036714468            3 
  356000    1.1111222   -6.6133785    151.17482  0.035387363  0.036691157            2 
  357000    1.1194839   -6.5673315    151.95961   0.03547143  0.036668068            2 
  358000    1.0915678   -6.6089938    151.89265  0.035356761  0.036645581            2 
  359000    1.0973519   -6.6231089    151.95808  0.035273463  0.036622257            4 
  360000    1.1346773    -6.579744    152.67364   0.03534112  0.036600023            2 
  361000     1.112955   -6.5787291    153.08426   0.03533801  0.036577943            3 
  362000     1.119146   -6.6474317    153.51641  0.035339873  0.036555748            2 
  363000    1.1281665   -6.6364249    153.63265  0.035269202  0.036533427            2 
  364000    1.1546323   -6.6123697     154.2888  0.035322528  0.036511711            2 
  365000    1.1349497   -6.6184554     155.2355  0.035441895  0.036491431            1 
  366000    1.0841348   -6.5693806    155.65986  0.035441681  0.036471657            2 
  367000     1.102961    -6.605022    155.88941  0.035397232  0.036451402            2 
  368000    1.0811283     -6.66071    155.63508  0.035243452  0.036430617            3 
  369000    1.0717098   -6.6279152    156.16478  0.035267566  0.036409122            2 
  370000    1.1122872   -6.6015809    156.23427  0.035187899  0.036388388            5 
  371000    1.1122976   -6.6202574    156.73248  0.035204959  0.036368321            2 
  372000    1.1035621   -6.6598434    157.00037  0.035170333  0.036347305            3 
  373000    1.0830392   -6.6345768    157.81415  0.035257854  0.036325999            3 
  374000     1.107207   -6.6015148    158.11322  0.035230218  0.036305215            3 
  375000    1.1006477    -6.648583    157.77279   0.03506062  0.036284798            6 
  376000    1.1103411   -6.5962388    159.06521  0.035253815  0.036263505            8 
  377000    1.1212545   -6.6454687    158.11037  0.034949241  0.036243008            4 
  378000    1.1040361   -6.6283221    158.99244  0.035051243  0.036221576            1 
  379000    1.0963275   -6.6163468    159.40322  0.035049081  0.036200453            6 
  380000    1.0968237   -6.5963631    160.47309  0.035191468   0.03617995            2 
  381000    1.0805679   -6.6075088    160.39486   0.03508199  0.036159846            2 
  382000    1.1021371   -6.5757957    160.36522  0.034983686  0.036139886            2 
  383000    1.1010226   -6.6227529    161.47685  0.035134214  0.036119531            2 
  384000    1.1197076   -6.6001511    161.12824  0.034967066  0.036098726            6 
  385000    1.0995397   -6.6454118    161.19304  0.034890269  0.036077687            4 
  386000    1.0879977    -6.613915    162.24266  0.035026482  0.036056834            3 
  387000    1.1123978    -6.624954    162.34383  0.034957757  0.036036043            1 
  388000    1.1001925   -6.6369404    162.80241  0.034966153  0.036015001            5 
  389000    1.1140591   -6.6146805    163.08903  0.034937667  0.035993894            1 
  390000    1.1075742   -6.6389043    163.47422  0.034930388  0.035972774            3 
  391000    1.1266721    -6.655769    163.65739  0.034880092  0.035951489            2 
  392000    1.1021241   -6.6275604    163.97177  0.034857944  0.035929999            3 
  393000    1.0887185   -6.6454526     163.8579  0.034745102  0.035908277            2 
  394000    1.0934833    -6.630717    164.32772  0.034756286  0.035886356            1 
  395000    1.0926025   -6.6592934    165.22384  0.034857349  0.035865219            4 
  396000    1.0912541   -6.6773054     165.0805  0.034739163  0.035844772            4 
  397000    1.0997814    -6.665343    165.83202  0.034809408  0.035823068            3 
  398000    1.0867424   -6.6376623    165.57753  0.034668662  0.035802242            3 
  399000    1.1057532   -6.6220803    166.20891  0.034713639   0.03578153            3 
  400000    1.0785797   -6.6342177    166.35836  0.034657993  0.035761209            2 
  401000    1.0875043   -6.6460549    167.41958  0.034792099  0.035740659            2 
  402000    1.0939868    -6.644259    166.94708  0.034607605  0.035719864            2 
  403000    1.0785947   -6.6540388    167.35609  0.034606306  0.035698375            2 
  404000    1.0965707   -6.6456884    168.05167  0.034664123  0.035677902            2 
  405000    1.1026208   -6.6729018    167.95402  0.034558439  0.035655721            3 
  406000    1.0832844   -6.6362496    168.72349  0.034631259  0.035634086            3 
  407000    1.0941776   -6.6629717    169.04985  0.034612991  0.035613113            3 
  408000    1.0968656   -6.6218986    169.25585   0.03457023   0.03559103            2 
  409000    1.1004966   -6.6224445    169.35356  0.034505615  0.035569954            3 
  410000    1.0853139   -6.6244177    170.09583  0.034572324  0.035548621            4 
  411000    1.1013928   -6.6552119    170.40661  0.034551218  0.035527741            5 
  412000    1.0934905    -6.648549    170.73391  0.034533558  0.035506609            3 
  413000    1.1225124   -6.6390338    170.89808  0.034483068  0.035485852            2 
  414000    1.0988742   -6.6506044    171.41469  0.034503763  0.035465567            2 
  415000    1.0989934   -6.6803715    171.40333   0.03441834  0.035444968            4 
  416000    1.0946939   -6.6480566    172.12278  0.034479723  0.035424573            7 
  417000     1.083281   -6.6485965    172.47536  0.034467497  0.035405112            2 
  418000    1.0890501   -6.6663493    172.24206  0.034338528  0.035385194            2 
  419000    1.0965981   -6.6580158    173.22822  0.034452708  0.035365249            4 
  420000    1.0926523   -6.6590196    173.60277  0.034444994  0.035345114            4 
  421000    1.0961063   -6.6777248     172.6634  0.034177237  0.035324984            3 
  422000    1.0891872   -6.6455162    173.60404  0.034281999  0.035304037            1 
  423000    1.0911937   -6.6749679    173.98721   0.03427644  0.035283457            3 
  424000    1.0959604   -6.6693571    175.04235  0.034402978  0.035263482            4 
  425000    1.0868902   -6.6665277    174.45133  0.034206142  0.035242837            3 
  426000    1.0997443   -6.6444697     174.9146  0.034216471  0.035221594            1 
  427000    1.1082859   -6.6473244    175.38975  0.034229069  0.035200468            4 
  428000    1.0869129   -6.6377546    175.18531   0.03410929  0.035178179            4 
  429000    1.0835337   -6.6759569    175.82737  0.034154501  0.035156288            3 
  430000    1.0888882   -6.6245287    176.08545  0.034125088  0.035134501            5 
  431000    1.0742241   -6.6751568    175.92121  0.034014155  0.035112186            2 
  432000    1.0695896   -6.6686701    176.71355  0.034088262  0.035089891            2 
  433000    1.0770907   -6.6545003    177.41629  0.034144782  0.035067613            2 
  434000    1.0864226   -6.6828128    177.14267  0.034013569  0.035045843            3 
  435000    1.0645876   -6.6671641    177.34136  0.033973441   0.03502397            2 
  436000    1.0759353   -6.6700155    177.73451  0.033970662  0.035001271            6 
  437000    1.0568136   -6.6528572    177.96276  0.033936453  0.034978792            9 
  438000     1.078632   -6.7172909    178.34227  0.033931178  0.034955462            6 
  439000    1.0738714   -6.6992622    178.35101  0.033855545  0.034932365            3 
  440000     1.066046   -6.6697741     179.1249  0.033925171  0.034909719            4 
  441000    1.0827615    -6.679213    178.70971  0.033769786  0.034887239            2 
  442000    1.0772162   -6.6815899    179.72774   0.03388532  0.034865061            6 
  443000    1.0633333   -6.6450902    179.60526  0.033785791  0.034843425            2 
  444000    1.0762652   -6.6911399    180.14491  0.033810982  0.034821316            3 
  445000    1.0882151   -6.6599101     180.7384  0.033846143  0.034799243            4 
  446000    1.0490898   -6.7036158    181.09773  0.033837393  0.034776819            3 
  447000    1.0843151   -6.6748986    181.31621  0.033802425  0.034754533            4 
  448000    1.0704705   -6.6746894    181.24171  0.033713116   0.03473312            1 
  449000    1.0817387   -6.6880207    182.09232  0.033795902  0.034711376            1 
  450000    1.0725851   -6.6860299    182.11755  0.033725473  0.034690716            2 
  451000     1.079283   -6.6654246    182.91011  0.033797137  0.034670082            3 
  452000    1.0693098   -6.7000109    183.34116  0.033801836  0.034649811            3 
  453000    1.0818725   -6.6767328    183.89374  0.033828871  0.034629842            2 
  454000    1.0786012   -6.6742092    184.27134  0.033823668   0.03460971            3 
  455000     1.082849   -6.6482165    184.14167   0.03372558  0.034589172            5 
  456000    1.0592459     -6.71773    184.23353  0.033668409  0.034568109            4 
  457000    1.0716361   -6.6982524    184.46018  0.033636064  0.034547279            3 
  458000    1.0872042   -6.6871636    185.21252  0.033699513  0.034526673            4 
  459000    1.0869784   -6.6920369    184.95273  0.033578928   0.03450598            2 
  460000    1.0631107   -6.6915253    186.09662  0.033713156  0.034486624            4 
  461000    1.0510966   -6.6459365    186.69996   0.03374909   0.03446718            1 
  462000    1.0715744   -6.7004511    187.27376  0.033779537  0.034447437            2 
  463000    1.0590484   -6.6987164    187.28257  0.033708167  0.034428345            4 
  464000    1.0552227    -6.675955    187.56631  0.033686477  0.034409595            3 
  465000    1.0873242   -6.7248565    187.47985   0.03359854  0.034390239            4 
  466000    1.0888674   -6.6742611    188.17963  0.033651579  0.034370904            5 
  467000    1.0719749    -6.674568    188.54746  0.033645157   0.03435175            3 
  468000    1.0530959   -6.6921429     188.2748  0.033524715  0.034332303            5 
  469000    1.0534456   -6.6537938    189.13634  0.033606316  0.034312935            2 
  470000    1.0754187   -6.6938221    189.41147  0.033583593  0.034293649            5 
  471000    1.0725433   -6.6905254    189.20999  0.033476643  0.034273547            3 
  472000     1.058897   -6.7399483    189.36303  0.033432738  0.034253145            2 
  473000    1.0751412   -6.6918712      189.883  0.033453665  0.034233194            3 
  474000    1.0434458   -6.7221942    190.24995    0.0334476  0.034212969            3 
  475000    1.0589461   -6.7075101    190.30694  0.033387182  0.034192628            3 
  476000    1.0706144   -6.6793515    191.27168  0.033485939  0.034172788            3 
  477000    1.0788888   -6.7008652     191.3577  0.033430765  0.034152783            3 
  478000    1.0847915   -6.6697094    191.55737  0.033395636  0.034132627            2 
  479000    1.0651232   -6.7098533    191.54971  0.033324584  0.034112414            3 
  480000    1.0641844    -6.674117    191.90274  0.033316448   0.03409202            3 
  481000    1.0636832   -6.7129307    191.50935  0.033179029  0.034071144            5 
  482000     1.064743   -6.7194551    192.06044  0.033205471   0.03404994            3 
  483000     1.049092   -6.6703253    192.62323  0.033233822  0.034028785            3 
  484000    1.0435368   -6.7094029    192.23955  0.033099097  0.034006735           10 
  485000    1.0676191   -6.6948532    192.16629  0.033018263  0.033984157            5 
  486000     1.052074   -6.7050224    192.73688  0.033048162  0.033962116            2 
  487000    1.0799361   -6.7206338    193.03107  0.033030642  0.033940337            2 
  488000    1.0430775    -6.703858    193.61525  0.033062713  0.033919077            3 
  489000    1.0512451   -6.7418641    193.98542  0.033058184  0.033897354            4 
  490000    1.0507151    -6.747336    193.79714  0.032958698  0.033875712            1 
  491000    1.0528364   -6.6954361    194.66006  0.033038027  0.033854223           11 
  492000    1.0664047   -6.6919485    195.20681  0.033063484  0.033833626            4 
  493000    1.0665571   -6.6752068    196.65356  0.033240967   0.03381337            5 
  494000    1.0482731    -6.679566    195.76205  0.033023288   0.03379361            3 
  495000    1.0609463   -6.7385488    196.08085  0.033010244  0.033773057            5 
  496000    1.0359268   -6.7322397    195.83899  0.032903056  0.033752091            5 
  497000    1.0790811   -6.7224139    196.89588  0.033014064   0.03373133            6 
  498000    1.0736546   -6.6990132    196.83617  0.032937779   0.03371061            5 
  499000    1.0734033   -6.7046714    197.09627  0.032915209  0.033689818            2 
  500000    1.0305628     -6.71615    197.42793  0.032904655  0.033668486            6 
  501000    1.0557721   -6.7115965    197.97061  0.032929243  0.033646835            5 
  502000    1.0538164   -6.7071057    197.80162  0.032835594  0.033625659            2 
  503000    1.0584997   -6.7204262    197.82193   0.03277368  0.033604501            3 
  504000    1.0587357   -6.7524508    198.75974  0.032863714  0.033583103            2 
  505000    1.0472396   -6.7338906    198.80465  0.032806049  0.033561599            3 
  506000    1.0692541   -6.7330882    198.99615  0.032772752  0.033541392            4 
  507000    1.0419467   -6.7496911    199.93596  0.032862584  0.033521379            4 
  508000    1.0704198   -6.7177482    200.17087  0.032836429  0.033501172            3 
  509000    1.0816016   -6.7175602    200.50146  0.032826041  0.033481694            3 
  510000    1.0400492   -6.7603195    200.87121  0.032822094  0.033462206            5 
  511000    1.0573628   -6.7246733    200.59589  0.032712962  0.033441997            2 
  512000    1.0536251   -6.7233742    201.73121  0.032833855  0.033422416            4 
  513000    1.0549625   -6.7111648    201.81334  0.032783194  0.033402663            5 
  514000    1.0363358   -6.7437175     201.4406  0.032658981  0.033382435            5 
  515000    1.0483935   -6.7461722    202.23006  0.032723311  0.033362464            1 
  516000    1.0549289   -6.7354078    202.29393  0.032670208  0.033343095            2 
  517000    1.0393688   -6.7714906    202.73427  0.032677993  0.033323271            3 
  518000    1.0295914   -6.7157829    203.55334  0.032746677   0.03330383            2 
  519000    1.0691851    -6.720909    203.64465  0.032698242    0.0332846            2 
  520000    1.0600363   -6.7450179    204.07587  0.032704466   0.03326528            3 
  521000    1.0487676   -6.7451388    203.83999  0.032603965  0.033246108            4 
  522000    1.0349385   -6.6894769    204.86741  0.032705525  0.033227069            2 
  523000    1.0285644   -6.7639134    204.90771  0.032649412  0.033208287            4 
  524000    1.0510755   -6.7429049     205.3748  0.032661387  0.033189535            2 
  525000    1.0478392   -6.7423265    205.83266  0.032671851  0.033170812            3 
  526000    1.0792275   -6.7378653    205.94079  0.032626867  0.033151958            6 
  527000    1.0527998   -6.7347662    205.86257  0.032552589   0.03313263            3 
  528000    1.0325545   -6.7644862    205.50375  0.032434304  0.033113335            2 
  529000    1.0652541   -6.7382761    205.87511  0.032431492  0.033093842            5 
  530000    1.0404508   -6.7584747    206.51314   0.03247062  0.033074591            5 
  531000    1.0314228   -6.7268931    206.44533  0.032398828  0.033055359            3 
  532000    1.0377706   -6.7291234    207.49086  0.032501701  0.033036226            8 
  533000    1.0545348   -6.7280377      207.235   0.03240072  0.033016871            2 
  534000    1.0461138   -6.7552125    207.85556  0.032436885  0.032997574            5 
  535000     1.033463    -6.769924    207.00545   0.03224384  0.032977782            5 
  536000    1.0366107   -6.6965306    208.26435  0.032379408  0.032958037            2 
  537000    1.0296502   -6.7368435    208.28399  0.032322159  0.032938935            3 
  538000    1.0338156   -6.7602314    208.93042   0.03236221  0.032919701            4 
  539000    1.0322871   -6.7563688    209.52784  0.032394533  0.032900594            3 
  540000    1.0404519   -6.7336473    209.64217  0.032352186  0.032881517            2 
  541000     1.021455    -6.784363    209.06733   0.03220384  0.032862326            5 
  542000    1.0572187   -6.7395578    210.22104  0.032321808  0.032843143            2 
  543000    1.0241886   -6.7245591    211.03939  0.032387875  0.032824263            3 
  544000    1.0331916    -6.766627    211.06161  0.032331742  0.032805688            3 
  545000    1.0247267   -6.7396846    211.74607  0.032377075  0.032787543            2 
  546000    1.0299033    -6.800286    211.83499  0.032331347  0.032769505            8 
  547000    1.0413343   -6.7809356    211.62064  0.032239586  0.032751325            2 
  548000     1.032924   -6.7559197    211.73759  0.032198539  0.032733036            6 
  549000    1.0408431   -6.7585096    211.97365  0.032175722  0.032714526            4 
  550000    1.0590072    -6.750415     212.1557  0.032144802   0.03269633            2 
  551000    1.0510616    -6.753496    212.99035  0.032212696   0.03267812            2 
  552000    1.0579614   -6.7721207    213.11518  0.032173186  0.032659394            5 
  553000    1.0305485   -6.7982457    213.20944   0.03212921  0.032640798            3 
  554000    1.0195373   -6.7620098    213.33418   0.03208998  0.032622285            3 
  555000    1.0179488    -6.808753    213.62516  0.032075849  0.032603114            4 
  556000    1.0501246   -6.7868402    213.98525   0.03207213  0.032584029            2 
  557000    1.0102775   -6.7828754     214.1458   0.03203857  0.032565327            3 
  558000    1.0146757   -6.7778807    214.38345  0.032016645  0.032546676            2 
  559000    1.0334984   -6.7807574     215.2305  0.032085644  0.032528466            6 
  560000    1.0135452   -6.7487782    215.60961  0.032084763  0.032510302            3 
  561000    1.0316692    -6.776723    215.84312  0.032062258  0.032492343            2 
  562000    1.0142217   -6.7896255    216.10456  0.032043974  0.032474763            4 
  563000    1.0464689   -6.7464518     216.4106  0.032032357  0.032457362            9 
  564000    1.0346723   -6.7530696    216.95844  0.032056507  0.032439539            4 
  565000    1.0530063   -6.7899045    217.65779  0.032102919  0.032421722            2 
  566000    1.0262259   -6.7522645    216.62342  0.031893908  0.032404151            8 
  567000    1.0279823   -6.7503663    218.55254  0.032121184  0.032386806            3 
  568000     1.022381   -6.7847779    217.93116  0.031973468  0.032369377            4 
  569000    1.0283662   -6.7733852    218.14474  0.031948556  0.032352071            2 
  570000    1.0336859   -6.7607245    217.99241  0.031870236  0.032334069            5 
  571000    1.0430873    -6.767323    218.80755  0.031933384  0.032316295            4 
  572000    1.0197027   -6.7849637     218.2019  0.031789321  0.032298078            4 
  573000    1.0047619   -6.7513361    218.27976  0.031745166  0.032278955            1 
  574000    1.0245042   -6.7875641    218.46943  0.031717397  0.032259583            6 
  575000    1.0428274   -6.8322712    218.00641  0.031595131  0.032239993            5 
  576000    1.0148862   -6.7779361    219.38893  0.031740297   0.03222029            3 
  577000    1.0120644   -6.7688885    219.22905  0.031662197    0.0322011            2 
  578000     1.024563   -6.7628086    219.79276  0.031688691  0.032182094            5 
  579000    1.0348744    -6.768592     219.5018  0.031592084  0.032162923            2 
  580000    1.0124582   -6.7855791     220.1702   0.03163365   0.03214337            4 
  581000    1.0235246   -6.7888765    219.78099  0.031523378  0.032124126            4 
  582000    1.0199387   -6.7910432    220.19041  0.031527837  0.032104781            2 
  583000    1.0292122   -6.8153038    220.65486  0.031540146     0.032085            3 
  584000    1.0437953   -6.7873774    221.42723  0.031596351   0.03206514            3 
  585000    1.0269659   -6.7604617    221.12916   0.03149988   0.03204602            2 
  586000     1.009324   -6.7853976    220.82108  0.031402314  0.032026035            4 
  587000     1.002386   -6.7773492    221.74721  0.031480297   0.03200605            6 
  588000     1.030093   -6.8124769    221.17169  0.031345194  0.031985724            6 
  589000    1.0270669   -6.8092795    222.08179   0.03142074  0.031965514            5 
  590000    1.0116003   -6.7754374    222.27564  0.031394865  0.031945596            4 
  591000    1.0202458   -6.7824667    222.60471  0.031388144  0.031925784            3 
  592000   0.98871729   -6.7941189     222.7339  0.031353308   0.03190576            5 
  593000    1.0160385   -6.8148487    222.40529  0.031254257  0.031885864            7 
  594000    0.9890332   -6.7538524    223.44911   0.03134808  0.031865855            2 
  595000    1.0100916   -6.7925337      223.242  0.031266387  0.031846163            2 
  596000    1.0185134   -6.8162385    223.78928  0.031290447  0.031826483            8 
  597000   0.99856602   -6.8098574    224.87403  0.031389452  0.031806841            4 
  598000    1.0195135   -6.8106537    224.95165  0.031347777  0.031787831            3 
  599000    1.0077159   -6.8245913    224.37164  0.031214752   0.03176862            2 
  600000    1.0142643   -6.8370643      225.476   0.03131611   0.03174961            4 
  601000    1.0119351   -6.7558333    226.47315  0.031402268  0.031730816            6 
  602000    1.0069801   -6.7668228    226.40859  0.031341167   0.03171212            2 
  603000     1.009882   -6.8212118    225.70951   0.03119258   0.03169365            9 
  604000    1.0216567   -6.8221805    225.81506  0.031155499  0.031674441            6 
  605000    1.0084895   -6.8187988    226.37484  0.031181107  0.031655024            4 
  606000    1.0254042    -6.823051    226.59045  0.031159303  0.031636373            2 
  607000    1.0129014   -6.7766813    227.51762  0.031235259  0.031617716            4 
  608000    1.0177497   -6.7810616    227.83082  0.031226812  0.031599072            2 
  609000    1.0079463   -6.8044656    227.65497  0.031151474  0.031581082            3 
  610000    1.0100165    -6.816751    228.66548  0.031238453  0.031563212            2 
  611000   0.99063928   -6.8115879    228.42506  0.031154536  0.031545353            4 
  612000   0.99714748   -6.8258912    228.62002  0.031130176  0.031527387            6 
  613000    1.0446496   -6.8251137     228.9775  0.031127991  0.031509357            5 
  614000    1.0038243   -6.8241025    229.95902  0.031210508  0.031491271            3 
  615000    1.0038438    -6.825345    230.01334  0.031167119  0.031473477            2 
  616000    1.0142854   -6.8464803    229.61206  0.031062238  0.031455981            2 
  617000   0.96034911   -6.8288777    230.33572  0.031109633  0.031438279            2 
  618000   0.99614691   -6.7856498    230.22976  0.031045006  0.031420797            4 
  619000   0.98855017   -6.8148189     231.4291  0.031156314  0.031403209            2 
  620000    1.0166045   -6.8139631    230.87764  0.031031941  0.031385339            3 
  621000   0.99816582   -6.7980694    232.13113  0.031150178  0.031367967            2 
  622000    1.0141425   -6.8000159    231.64043  0.031034355  0.031350405            4 
  623000    1.0154029   -6.8146453    231.72393   0.03099571  0.031332771            5 
  624000    1.0182301   -6.8263893    231.74211  0.030948465  0.031315126            4 
  625000    1.0024366   -6.8238974    231.54278   0.03087237  0.031296991            5 
  626000   0.99413027   -6.8121148    232.64791  0.030970169  0.031278916            4 
  627000   0.99734976   -6.8300218     231.9548  0.030828656  0.031260672            5 
  628000    1.0416731    -6.824608     232.0638  0.030794028  0.031242539            2 
  629000    1.0025484   -6.8221733    232.64815   0.03082249  0.031224015            7 
  630000   0.99966596   -6.8236416    232.73276  0.030784757  0.031205557            4 
  631000   0.98650178   -6.8275862    233.12537  0.030787819  0.031187087            4 
  632000    0.9990191   -6.8018986    234.17511   0.03087752  0.031168761            3 
  633000    1.0001934   -6.8236175    234.02576  0.030809079  0.031150968            3 
  634000   0.99788354   -6.8579472    233.93335  0.030748337  0.031132867            3 
  635000    1.0046038   -6.8368482    234.01111   0.03071012  0.031114364            2 
  636000   0.97103258   -6.7801903     234.4029  0.030713169  0.031095671            2 
  637000   0.99898497   -6.8197205     234.5933  0.030689861  0.031077249            1 
  638000   0.99101155   -6.8073942    235.44912  0.030753542  0.031058815            3 
  639000    1.0231733   -6.8426159    235.38622  0.030697212  0.031040399            3 
  640000    1.0110522   -6.8433169    234.61333   0.03054861  0.031021771            7 
  641000    0.9973146     -6.82365    235.29677  0.030589804  0.031003305            4 
  642000    1.0050031   -6.8470539    236.27648  0.030669325  0.030985221            4 
  643000    1.0063837   -6.8078092    236.65196   0.03067029  0.030967177            4 
  644000    1.0112207   -6.8273094    237.21112   0.03069502  0.030949258            4 
  645000   0.98790592   -6.8322955    236.46405  0.030550911  0.030931544            6 
  646000   0.97250476    -6.800409    236.75912  0.030541682  0.030913564            8 
  647000   0.99720923   -6.8583203    237.55062  0.030596422  0.030895344           13 
  648000   0.97564309   -6.8430062    237.54269  0.030548185   0.03087703            3 
  649000    1.0196751   -6.8105342    237.69468  0.030520631    0.0308592            4 
  650000     1.005221   -6.8189469    238.65085  0.030596263  0.030841259            3 
  651000   0.97204373   -6.8251399    237.94396  0.030458776  0.030822926            2 
  652000    0.9984063   -6.8026609    238.40862  0.030471449  0.030804953            8 
  653000   0.98084927   -6.8295927    238.84077  0.030479935  0.030787386            3 
  654000   0.98904265   -6.8297549    239.72767  0.030546339  0.030769869            3 
  655000   0.98692645   -6.8363416    239.49212  0.030469736  0.030752626            4 
  656000   0.99697934   -6.8323596    239.91352  0.030476819  0.030735022            3 
  657000   0.98131405   -6.8795169    239.60192  0.030390908  0.030717736            2 
  658000   0.97674792   -6.8587175    240.31955  0.030435607  0.030700336            2 
  659000    1.0104812   -6.8574492    240.73382  0.030441808  0.030683088            3 
  660000    1.0169561   -6.8649781    241.52902  0.030496088  0.030665889            5 
  661000   0.98906368   -6.8414455    240.73078  0.030349317  0.030648413            2 
  662000   0.98099303   -6.8599718    240.65442   0.03029386  0.030630742            4 
  663000   0.98554797   -6.8417964    240.99283  0.030290703   0.03061301            7 
  664000   0.99199669   -6.8531669    240.66632  0.030204106  0.030595109            2 
  665000   0.99658735   -6.8667993    242.13323  0.030342509  0.030577025            3 
  666000    1.0003642   -6.8436598    242.00427  0.030280814  0.030559009            4 
  667000    1.0045614   -6.8605419    241.44032  0.030164958  0.030541228            4 
  668000   0.99213009   -6.8405655    241.69909  0.030152082  0.030523294            2 
  669000    1.0038923   -6.8785105     242.0776   0.03015416  0.030505297            2 
  670000   0.98420486   -6.8662304    241.89991  0.030087053  0.030486935            2 
  671000    0.9685706   -6.8351893    243.07661  0.030188352  0.030468452            2 
  672000   0.97637818   -6.8897651    242.27639  0.030044196  0.030450338            4 
  673000   0.98506227   -6.8698445    243.00391  0.030089637  0.030431887            5 
  674000   0.97131841   -6.8446985    243.39316   0.03009312   0.03041358            2 
  675000   0.97329461   -6.8553027    243.75474  0.030093178  0.030395264            7 
  676000   0.97263678   -6.8298627    243.55905  0.030024538  0.030376772            3 
  677000   0.98469499   -6.8870589    243.30516  0.029948936  0.030358529            3 
  678000   0.98904608   -6.8765072    244.28551  0.030025259  0.030340731            3 
  679000   0.99109727   -6.8290449     244.6467  0.030025368  0.030322912            5 
  680000    1.0023664   -6.8437534    245.61347   0.03009969  0.030305341            2 
  681000   0.97620621   -6.8838392    245.31068  0.030018439  0.030287761            3 
  682000   0.97783941   -6.8628463    245.94305  0.030051692  0.030269868            6 
  683000   0.98727437   -6.8869587    245.94527  0.030007964  0.030252305            4 
  684000   0.97710111    -6.876269    245.91691  0.029960637  0.030234668            3 
  685000   0.97334319   -6.8626877       246.16  0.029946471  0.030217232            6 
  686000   0.98423479   -6.8729975    246.81051   0.02998184  0.030199607            8 
  687000   0.96203788   -6.8564836    246.82765  0.029940278  0.030182194            4 
  688000   0.96278162   -6.8688325    246.63598  0.029873544  0.030164844            6 
  689000   0.97943789   -6.8538222      247.485  0.029932873  0.030147404            7 
  690000   0.99517399   -6.8533284    247.36877  0.029875456  0.030130076            3 
  691000   0.98083889   -6.8552398    248.01421  0.029910059  0.030112822            3 
  692000   0.98189546   -6.8938245    248.27229  0.029897915  0.030095286            3 
  693000   0.99155611   -6.8710937    248.02193  0.029824666  0.030078022            5 
  694000   0.97056303   -6.8675734    248.17235  0.029799753  0.030060673            3 
  695000   0.97932308   -6.8657594    248.38442  0.029782304  0.030043283            3 
  696000   0.97409798   -6.8408984    249.56204  0.029880512  0.030025853            3 
  697000   0.96491273   -6.8683692    248.80951   0.02974767  0.030008479            2 
  698000   0.98340814   -6.8915277    249.43728      0.02978  0.029990927            5 
  699000   0.97720515   -6.8861346    249.65631  0.029763509  0.029973649            4 
  700000   0.97192696   -6.9035961    249.66833  0.029722421  0.029956304            4 
  701000   0.95682594    -6.839095    250.69273  0.029801798  0.029939098            3 
  702000    0.9856705   -6.8951168    250.08159  0.029686799  0.029921776            2 
  703000   0.96704534   -6.8823841    250.17155  0.029655234  0.029904305            3 
  704000   0.96094945    -6.890492    250.69045  0.029674533  0.029886927            6 
  705000   0.98133574   -6.8766132    251.41605  0.029718209  0.029869905            4 
  706000   0.94932165   -6.8565029     251.9312  0.029736922   0.02985311            3 
  707000    0.9685628   -6.8576585    251.04788  0.029590744  0.029836113            4 
  708000   0.97957603   -6.8983678    251.43648  0.029594689  0.029819026            4 
  709000   0.96968653   -6.8966996    251.78962  0.029594454  0.029802016            5 
  710000   0.97710064   -6.8931763    252.13046  0.029592777  0.029785137            3 
  711000   0.97555811   -6.8927165    252.56086  0.029601601  0.029768426            3 
  712000   0.96890476   -6.8818739    253.30787  0.029647457  0.029751851            6 
  713000   0.95671256   -6.8904324    252.77606  0.029543719  0.029735218            4 
  714000   0.95460356   -6.8838912    253.74839  0.029615825  0.029718586            2 
  715000   0.97407739   -6.8690182    253.29562  0.029521634  0.029702009            3 
  716000   0.95371501   -6.8734624    253.76863  0.029535455  0.029685543            4 
  717000   0.94471866   -6.8757033     254.4106  0.029568875  0.029669187            6 
  718000   0.97643037   -6.8707032    254.57844  0.029547173  0.029652526            4 
  719000   0.96338429   -6.9136446    253.71014  0.029405441  0.029635804            2 
  720000   0.95594846    -6.890343     254.7022  0.029479422  0.029619172            4 
  721000   0.96722786   -6.9105821    254.66019  0.029433679  0.029602439            4 
  722000   0.97603521   -6.8567411    255.34233  0.029471644  0.029585574            5 
  723000   0.97439397   -6.8805496    254.77671  0.029365688  0.029568593            3 
  724000    0.9892286   -6.9126163    255.38931  0.029395638  0.029551264            2 
  725000   0.95450773   -6.9230682    254.55567  0.029259272  0.029533839            3 
  726000   0.94639944   -6.8653483     255.2799  0.029302101   0.02951606            3 
  727000   0.98858664   -6.8966235    254.95108  0.029224104  0.029498552            7 
  728000   0.97360508   -6.9058224    255.15922  0.029207786  0.029481083            3 
  729000    0.9568019   -6.8982467    256.20599  0.029287378  0.029463655            3 
  730000   0.95354558   -6.8893631    255.76194  0.029196568  0.029446202            6 
  731000   0.97023772   -6.9015443    256.05649  0.029190206  0.029428649            5 
  732000   0.95479488   -6.9249749    255.81771  0.029123146  0.029411045            4 
  733000   0.95461434   -6.9362716    256.61064  0.029173561  0.029393437            3 
  734000   0.95401574   -6.9168403    256.59045  0.029131522  0.029375978            8 
  735000   0.94273754   -6.9019115    257.27198  0.029169159  0.029358283            2 
  736000   0.95323864   -6.9148022    256.83707  0.029080284  0.029340586            4 
  737000   0.96926246   -6.8678421    257.19976  0.029081836  0.029323266            3 
  738000   0.94606042   -6.9090613    258.13659  0.029148215  0.029305881            3 
  739000   0.95647335   -6.9291772    257.89014  0.029080981  0.029288433            5 
  740000   0.95563419   -6.9243655    257.95179  0.029048625  0.029270706            3 
  741000   0.96759917   -6.8759934    257.81443  0.028993976   0.02925294            7 
  742000   0.94938008    -6.873269    258.85845  0.029072153  0.029235486            3 
  743000   0.95466812   -6.9264746    258.53291  0.028996513  0.029218014            4 
  744000   0.96371527    -6.866872    259.07185  0.029017904  0.029200712            6 
  745000   0.97593913   -6.8933306    258.60049   0.02892623  0.029182945            5 
  746000   0.96254582   -6.9036595    258.81361  0.028911261  0.029165147            4 
  747000   0.95006449   -6.8911745    259.28527  0.028925175  0.029147293            4 
  748000   0.96388388   -6.8963849    258.88247  0.028841629  0.029129229            3 
  749000   0.95477431    -6.868911    258.97978   0.02881395  0.029111315            8 
  750000   0.98743456    -6.923617    258.48384  0.028720427  0.029093083            5 
  751000   0.94974255   -6.8855652     259.3106  0.028773923  0.029074686            3 
  752000   0.94790917   -6.9269916    259.27678  0.028731912  0.029056379            3 
  753000   0.96717822   -6.9055429    258.69104  0.028628933  0.029037985            5 
  754000   0.94901423    -6.903424    259.55533  0.028686487  0.029019432            7 
  755000   0.96399376   -6.9165137    259.14429  0.028603122  0.029000986            6 
  756000    0.9375337   -6.9175015    259.12373  0.028563021  0.028982338            2 
  757000   0.95452448    -6.914094    260.07398  0.028629896  0.028963409            4 
  758000   0.94650565   -6.9249823    259.69055  0.028549973  0.028944564            3 
  759000   0.96113027   -6.9385835    261.04457   0.02866102  0.028925951            2 
  760000   0.97003135    -6.930803    260.52757  0.028566619  0.028907368            2 
  761000   0.94217111   -6.9570942     260.7351  0.028551807  0.028888545            8 
  762000   0.96348656   -6.9273701    260.39883  0.028477562   0.02886962            2 
  763000   0.95671495   -6.9144275     260.9314  0.028498405  0.028850889            5 
  764000   0.93479564   -6.9091501    260.80818  0.028447664  0.028832122            4 
  765000   0.92894491   -6.9087179    260.62774  0.028390821  0.028813099            2 
  766000   0.95372561   -6.9211202    260.08969  0.028295223  0.028794162            5 
  767000   0.92097999   -6.9438457    260.91704  0.028348223  0.028774912            4 
  768000   0.93962194   -6.9111779    261.04066  0.028324725  0.028755396            8 
  769000    0.9515242   -6.9265479    260.73487  0.028254754   0.02873586            5 
  770000   0.93951927   -6.9278992    262.10477  0.028366317  0.028716555            9 
  771000   0.95713604   -6.9595895    261.68832  0.028284514    0.0286972            4 
  772000    0.9449578   -6.9556251    261.54328  0.028232219  0.028677917            2 
  773000   0.95078345    -6.940901    261.99762  0.028244676  0.028658802            5 
  774000   0.93377665   -6.9623951     262.2504  0.028235401  0.028639622            7 
  775000   0.94847724   -6.9119193    262.95639  0.028274881  0.028620631            2 
  776000    0.9416822   -6.9281883    262.61981  0.028202299  0.028601671            4 
  777000    0.9504044   -6.9358886    262.68575  0.028173075  0.028582704            6 
  778000   0.95470318   -6.9166144     263.2657  0.028198983  0.028563571            6 
  779000   0.95434652   -6.9623735    262.92802   0.02812666  0.028544313            5 
  780000   0.94140485   -6.9064728    263.62951  0.028165546  0.028525069            3 
  781000   0.94002761    -6.957774    262.91575  0.028053323  0.028505945            2 
  782000   0.92895999   -6.9411384    263.81096  0.028112848  0.028486822            4 
  783000   0.95514827   -6.9645433    263.44647  0.028038151  0.028467416            4 
  784000   0.94340511   -6.9440994    264.16022  0.028078255   0.02844783            3 
  785000   0.94727167   -6.9282161    264.44608  0.028072832  0.028428413            3 
  786000    0.9741533   -6.9542634    264.70959  0.028065054    0.0284091            4 
  787000    0.9281821   -6.9337518    263.89899  0.027943561  0.028389657            3 
  788000   0.93973561   -6.9579025    263.85656  0.027903613  0.028369729            4 
  789000   0.94392205   -6.9055569    263.84124  0.027866629  0.028349923            8 
  790000    0.9435206   -6.9517827    264.15768  0.027864734  0.028330312            8 
  791000   0.94304237   -6.9526391    264.61907  0.027878115  0.028310759            5 
  792000    0.9458684   -6.9304375    265.91959  0.027979755  0.028291418            3 
  793000   0.94443177   -6.9583491    265.90982  0.027943444  0.028272166            4 
  794000   0.95493385   -6.9545147    265.47384  0.027862493  0.028252891            3 
  795000   0.91096109   -6.9518469    265.66712  0.027847706  0.028233512            3 
  796000   0.93257724    -6.977314    265.82315  0.027829057  0.028214267            3 
  797000   0.92617421   -6.9759136    265.80099  0.027791823  0.028194902            6 
  798000   0.90557415   -6.9379479    267.23078  0.027906306   0.02817602            3 
  799000   0.94193714   -6.9579138    266.71909  0.027818012  0.028157298            4 
  800000   0.94669403   -6.9409213    266.65413  0.027776471  0.028138416            3 
  801000   0.94739197   -6.9553914    267.92568  0.027874082  0.028119751            3 
  802000   0.93218775   -6.9784451    267.24515  0.027768615  0.028101352            2 
  803000   0.92093051    -6.960137    267.80679  0.027792319  0.028083075            8 
  804000   0.93215541   -6.9496906    268.18146  0.027796586  0.028064679            4 
  805000   0.92308484   -6.9880733      268.608  0.027806211   0.02804612            4 
  806000    0.9344086   -6.9580566    268.88589  0.027800444  0.028027479            5 
  807000     0.954494   -6.9748059    268.03207  0.027677826  0.028008758            5 
  808000   0.90921912   -6.9704364    268.17924   0.02765875  0.027989841            5 
  809000   0.93140457   -6.9546872    268.33908  0.027641026  0.027970886            7 
  810000   0.95089135   -6.9902058     268.4474  0.027618046   0.02795214            4 
  811000   0.93181632   -6.9647511    268.73539  0.027613583  0.027933335            5 
  812000   0.94736938    -6.987595    269.25103  0.027632495  0.027914639            2 
  813000   0.94796678   -6.9860422    269.73825  0.027648447  0.027895889            3 
  814000   0.90675234   -6.9857138    269.79924  0.027620725  0.027877089            2 
  815000   0.93817956   -6.9715495    269.42695  0.027548767  0.027858216            2 
  816000   0.92052288    -6.970013    269.57764  0.027530396   0.02783927            4 
  817000   0.93768327   -6.9895459    269.36276  0.027474782  0.027820339            3 
  818000   0.94371797   -6.9703039    269.43438   0.02744849  0.027801343            4 
  819000   0.92857009   -6.9698287    268.15404  0.027284701  0.027782009            2 
  820000   0.93109018   -6.9877394    269.47752  0.027385927  0.027762562            3 
  821000    0.9216598   -6.9773855    269.76754  0.027382007  0.027743267            2 
  822000   0.91909628   -6.9815614    270.06093  0.027378439  0.027724055            7 
  823000   0.92318971   -6.9803886    269.59391  0.027297885  0.027704801            4 
  824000   0.92004842   -6.9980079    270.18536  0.027324571   0.02768536            3 
  825000   0.93715687   -6.9749776    270.13361  0.027286223  0.027665953            4 
  826000   0.93461584   -6.9754869    270.37072  0.027277111  0.027646805            4 
  827000   0.93437578   -6.9832521    271.23032  0.027330745  0.027627519            7 
  828000   0.93308574   -6.9536239    271.57094  0.027332018  0.027608503            6 
  829000   0.90899886   -6.9665973    271.09597  0.027251304  0.027589575            3 
  830000   0.93449399   -6.9903881    271.44829  0.027253845  0.027570582            3 
  831000   0.90739348   -7.0055826    270.76286  0.027152313  0.027551417            3 
  832000   0.90557441   -7.0157284    271.07909  0.027151351  0.027532124            3 
  833000   0.91750629   -6.9880362    272.03498  0.027214383   0.02751318            5 
  834000   0.89484312   -6.9770504     271.9391  0.027172172  0.027494122            5 
  835000   0.91648519   -6.9860396    271.80463   0.02712621  0.027475109            4 
  836000   0.91547629    -6.991439    272.56361  0.027169419  0.027456179            5 
  837000   0.92525826   -6.9837224    272.96556  0.027176978  0.027437419           10 
  838000   0.91755677   -6.9733087    272.38532  0.027086846  0.027418666            3 
  839000   0.90578093   -6.9555796    273.39068  0.027154418  0.027399903            3 
  840000   0.93014262   -7.0135244    272.44695  0.027028467  0.027381122            4 
  841000   0.91522536   -6.9840663    273.46645   0.02709735   0.02736217            3 
  842000   0.91598145   -6.9896696    273.15749  0.027034589   0.02734309            4 
  843000   0.89652755   -6.9830991    272.94634  0.026981647  0.027324144            3 
  844000   0.91228847   -7.0098916     273.5262  0.027006931  0.027305197            5 
  845000   0.92556094   -6.9892326      272.851  0.026908383  0.027286293            6 
  846000   0.91914921   -7.0064166    274.00054  0.026989809  0.027267444            3 
  847000   0.91600267   -6.9926859    273.83517  0.026941673  0.027248491            5 
  848000   0.91479865   -7.0062203    273.58193  0.026885016  0.027229762            3 
  849000   0.91643987   -6.9593337    275.31643  0.027023599  0.027211415            4 
  850000   0.92805038   -6.9877014    274.13088  0.026875576   0.02719304            4 
  851000   0.91750622   -7.0320904    275.35258  0.026963629  0.027174604           11 
  852000   0.89776288   -6.9589065    276.42765  0.027037134  0.027156559            3 
  853000   0.92793834   -6.9897493    276.60027  0.027022301  0.027138593            2 
  854000   0.92546264   -7.0512015     275.3433  0.026868003   0.02712042            4 
  855000   0.93294578   -7.0012269    276.51964  0.026951232  0.027102296            3 
  856000   0.92187257   -6.9761347    277.03017  0.026969448  0.027084428            8 
  857000   0.89211245   -7.0202124    276.79927  0.026915526  0.027066612            7 
  858000   0.90978394   -7.0097852    276.26045  0.026831823  0.027048629            8 
  859000   0.89632279   -6.9925963    276.07572  0.026782666  0.027030601            8 
  860000   0.92186363   -6.9935372    277.04397  0.026845346  0.027012552            6 
  861000   0.92822894   -6.9916159    277.40195  0.026848814  0.026994578            4 
  862000   0.91461155   -6.9954007    277.34338  0.026812005  0.026976589            6 
  863000   0.93597548   -7.0137733    277.50096  0.026796153  0.026958579            4 
  864000    0.9169859   -6.9830974    278.52183  0.026863603  0.026940503            7 
  865000    0.8978364   -7.0317364    277.13983  0.026699405  0.026922594            3 
  866000   0.90144705   -6.9917839    277.54098  0.026707177  0.026904742            4 
  867000   0.91707529   -7.0046315    278.00313  0.026720793  0.026886859            4 
  868000   0.90994236   -7.0180582    278.07281  0.026696698  0.026869148            8 
  869000   0.90725034   -7.0141318    278.35297  0.026692844   0.02685135            4 
  870000   0.86559646    -7.004059    278.67349  0.026692863  0.026833506           11 
  871000   0.90189981   -7.0044141    278.81764  0.026676009  0.026815564            7 
  872000   0.89925512   -7.0606996    278.59413  0.026624057  0.026797506            4 
  873000   0.89377567   -7.0398034    278.13553  0.026549783  0.026779449            7 
  874000   0.92228814   -7.0292743    278.44485  0.026548899  0.026761373            5 
  875000    0.9042221   -7.0384517    278.66653  0.026539669  0.026743214            5 
  876000    0.9053549   -7.0221928    278.91826   0.02653332  0.026725254           10 
  877000   0.90031136   -7.0427484    278.92601  0.026503802  0.026707271            3 
  878000   0.91343969   -7.0462356    279.38906  0.026517565  0.026689295            3 
  879000   0.90800197    -7.042002    279.34414  0.026483138  0.026671353            4 
  880000   0.89586872   -7.0202558    280.18491  0.026532662  0.026653616            4 
  881000   0.90640315   -6.9966562    280.36855  0.026519916   0.02663595            3 
  882000   0.92661616   -7.0156565     280.2064  0.026474528  0.026618226            4 
  883000   0.92911555     -7.01767    280.38814  0.026461697  0.026600532            4 
  884000   0.90620225   -7.0176297    280.82058  0.026472528  0.026582772            4 
  885000   0.88369043   -7.0332383    280.61344  0.026423111  0.026565121            5 
  886000   0.88654078   -7.0271324    280.84626  0.026415186  0.026547441            4 
  887000   0.87563784   -7.0637204    280.88261  0.026388821  0.026529699            3 
  888000   0.89358142    -7.020947     280.6804  0.026340128  0.026511989            3 
  889000    0.8988818   -7.0369505    280.47852  0.026291575  0.026494117            2 
  890000   0.90332623   -7.0030188    281.02153  0.026312878  0.026476237            3 
  891000   0.90347432   -7.0295823    281.32491   0.02631172  0.026458513            7 
  892000   0.92504063   -7.0287664    282.01728  0.026346906  0.026440751            5 
  893000   0.87469023   -7.0588916     280.9134   0.02621439  0.026423046            4 
  894000   0.90489248   -7.0362136    282.02517    0.0262887  0.026405319            3 
  895000   0.90115241   -7.0761795    282.22838  0.026278248  0.026387513            8 
  896000   0.88310559   -7.0411315    282.01064  0.026228668  0.026369899            6 
  897000   0.89029309   -7.0245433    283.30593  0.026319763  0.026352407            5 
  898000   0.89079575   -7.0455707     282.8358  0.026246827  0.026335023           10 
  899000   0.89537355   -7.1008513    282.98816  0.026231753  0.026317366            5 
  900000   0.88995713   -7.0277342    283.92294  0.026289161  0.026299933            1 
  901000   0.89304023   -7.0492057    283.19934  0.026193058  0.026282511            4 
  902000   0.89150988   -7.0347732    283.36927  0.026179718  0.026264898            5 
  903000   0.90596272   -7.0428629    283.49765  0.026162574  0.026247289            4 
  904000   0.90275626   -7.0267243    283.97693  0.026177814   0.02622973            3 
  905000   0.89482796   -7.0545599    283.84335  0.026136588  0.026212325            4 
  906000   0.89740486   -7.0399689     284.4835  0.026166621  0.026194829            5 
  907000   0.90487889   -7.0778701    283.66207  0.026062299  0.026177226            7 
  908000    0.8842721   -7.0578719    283.96328  0.026061241  0.026159705            4 
  909000    0.8812203   -7.0579221    284.61197   0.02609204  0.026142194            4 
  910000   0.89517893   -7.0420303    283.98362  0.026005826   0.02612457            4 
  911000   0.88723016   -7.0382352    284.46149  0.026020993  0.026106925            6 
  912000   0.88553043   -7.0156287    283.58299  0.025912188  0.026089345            5 
  913000   0.89431609   -7.0357281    285.64133   0.02607168  0.026071927            3 
  914000   0.88891932   -7.0412154    285.53717  0.026033659  0.026054722            2 
  915000   0.90680829   -7.0498081    285.20051  0.025974546  0.026037512            3 
  916000   0.88806984   -7.0752517     285.8171  0.026002284  0.026020338            5 
  917000   0.89033615   -7.0479341     285.8497   0.02597689  0.026003228            3 
  918000   0.88633219   -7.0750093    285.58483  0.025924549  0.025986098            4 
  919000   0.87856137   -7.0566444    285.48203  0.025887017  0.025968922            4 
  920000   0.87976387   -7.0472652    286.58422  0.025958715  0.025951863            5 
  921000   0.89218876   -7.0851516     286.3181  0.025906452  0.025934749            6 
  922000   0.89907459   -7.0375269    286.68828  0.025911811  0.025917745            5 
  923000   0.87981336   -7.0388225    287.04778  0.025916196  0.025900672            5 
  924000    0.8786181   -7.0740373    286.66729  0.025853832  0.025883559           11 
  925000   0.88504441   -7.0233327    287.30521  0.025883352  0.025866426            6 
  926000   0.88555937   -7.0367287    287.41589   0.02586536  0.025849473            2 
  927000   0.88492563   -7.0533318    286.99937  0.025800015  0.025832384            3 
  928000   0.89426539   -7.0524483    287.05785  0.025777465  0.025815217            3 
  929000   0.87889922   -7.0874706     286.4879  0.025698592  0.025797923            4 
  930000   0.89086997   -7.0552502    287.31485  0.025745058  0.025780661            3 
  931000   0.91209523   -7.0576434     287.5429  0.025737818  0.025763383            5 
  932000   0.88991003   -7.0797423    287.60407  0.025715671  0.025746093            3 
  933000   0.87437318    -7.060438    287.49142  0.025678048  0.025728836            5 
  934000   0.87716492   -7.0433634    287.72405  0.025671311  0.025711395            4 
  935000   0.87507027   -7.0638885    287.31451  0.025607354  0.025694062            3 
  936000   0.87205869   -7.0800594    287.83842   0.02562664  0.025676559            4 
  937000   0.88839015   -7.1046183    287.67672  0.025584909  0.025659047            2 
  938000   0.87438161   -7.0690907    287.54854  0.025546245  0.025641608            2 
  939000   0.87768554   -7.1172772    287.76749  0.025538471  0.025624015            3 
  940000   0.87022906   -7.0418299     288.3624  0.025564043   0.02560666            4 
  941000   0.86540265    -7.061944    288.80268  0.025575867  0.025589308            4 
  942000   0.87935597   -7.0646788    288.31446  0.025505526  0.025571888            8 
  943000   0.88072031   -7.0665405    287.95163  0.025446414  0.025554404            7 
  944000   0.88023608   -7.0787288    288.23058  0.025444084   0.02553692            5 
  945000   0.87857626   -7.0697569    287.84346  0.025383021  0.025519216            6 
  946000   0.86564673   -7.0571812    288.53612  0.025417206   0.02550149            4 
  947000    0.8648859   -7.0856434    287.96494  0.025340104  0.025483757            5 
  948000   0.88179439   -7.0957097    288.53386  0.025363384   0.02546605            5 
  949000   0.87132951   -7.0915161    288.89234  0.025368136  0.025448474            4 
  950000    0.8682972   -7.0904287    288.23302  0.025283598  0.025430806            4 
  951000   0.87536954   -7.0850377    289.18976  0.025340849  0.025413152            2 
  952000   0.86858305   -7.1084008    287.74527  0.025187786  0.025395458            5 
  953000   0.86115616   -7.0844897    288.44663  0.025222685  0.025377693            5 
  954000   0.87168797   -7.1094635     289.4385  0.025282888   0.02535996            6 
  955000   0.88343351   -7.1018989    289.24755  0.025239751  0.025342184            3 
  956000    0.8529001   -7.0964605      289.384  0.025225244  0.025324325            4 
  957000   0.84883897   -7.1033667    289.25746  0.025187866  0.025306458            3 
  958000   0.86761045   -7.1029134    288.79884  0.025121681  0.025288447            6 
  959000   0.87215431   -7.1130245    289.53226  0.025159216   0.02527051            3 
  960000   0.88189469   -7.1115325    289.10181  0.025095643  0.025252732            5 
  961000   0.87101209   -7.1150146     289.2211  0.025079873  0.025234832            9 
  962000   0.87402848   -7.0805848     289.5832   0.02508517  0.025216792            4 
  963000   0.86364756   -7.1002209    289.00511  0.025009096  0.025198856            6 
  964000   0.87180245   -7.1050155    290.13656  0.025080961  0.025180931            3 
  965000   0.85592991    -7.096688    290.03369  0.025046087  0.025163152            6 
  966000   0.86402927     -7.09806    289.62029  0.024984497  0.025145308            4 
  967000   0.85706665   -7.0799913     290.5315  0.025037186  0.025127612            4 
  968000    0.8643167   -7.0856277    290.85605  0.025039261  0.025109818            5 
  969000   0.88411324   -7.1081544    290.37797  0.024972306  0.025092121            6 
  970000   0.86978887   -7.0992639    291.14656  0.025012591  0.025074335            9 
  971000   0.86690762   -7.1297885    289.93719  0.024883041  0.025056642            6 
  972000    0.8622829   -7.0920442    291.27701  0.024972309  0.025038952            3 
  973000   0.86436708   -7.0808083     291.2465   0.02494403  0.025021218            4 
  974000    0.8389237   -7.1112635    290.29382  0.024836912  0.025003406            4 
  975000   0.86632746   -7.1070834    291.08621  0.024879163  0.024985761            4 
  976000   0.85676635   -7.0977591    290.78708  0.024828131  0.024967861            3 
  977000   0.86419665   -7.1123344    291.53366  0.024866399  0.024949954            8 
  978000   0.87171155   -7.1182397    290.96086  0.024792166  0.024932116            4 
  979000    0.8608064   -7.1494129    291.36115  0.024800915  0.024914092            3 
  980000   0.87883746   -7.0697305    292.06836  0.024835745  0.024896253            4 
  981000   0.87467081   -7.1103891    290.72183  0.024696044  0.024878339            4 
  982000   0.87203541   -7.1038672    290.97527  0.024692402  0.024860444            4 
  983000   0.85771063   -7.0998824    291.63996  0.024723632  0.024842587            6 
  984000   0.83260337   -7.1051153    291.30144  0.024669837   0.02482474            5 
  985000   0.87353916   -7.1375611     291.6111   0.02467099  0.024806898            6 
  986000   0.86416333   -7.0985777    292.21831  0.024697288   0.02478907            5 
  987000   0.86060684    -7.125495    291.87651  0.024643407  0.024771184           10 
  988000   0.86288643    -7.145347    292.13745  0.024640473   0.02475328            6 
  989000   0.84951128   -7.1223161    292.58566  0.024653325  0.024735365            7 
  990000   0.85653973   -7.1243509    292.30965  0.024605189  0.024717557            6 
  991000   0.86047758   -7.1284117     291.9318  0.024548587   0.02469963            6 
  992000   0.85526375   -7.1110349    291.81715   0.02451421  0.024681554            6 
  993000   0.86530677   -7.1011205    292.14162  0.024516752  0.024663616            7 
  994000   0.87141264   -7.1181359    291.99303   0.02447963  0.024645599            9 
  995000   0.87957738   -7.1094556     292.5951  0.024505452  0.024627534            4 
  996000   0.85551314   -7.0986512    292.24441  0.024451507  0.024609628            3 
  997000   0.85251344   -7.0956436     293.0835  0.024497116  0.024591807            7 
  998000   0.86277314   -7.1224408    292.99025  0.024464783  0.024573903            4 
  999000     0.844701    -7.114932    293.36575  0.024471617  0.024556043            7 
 1000000   0.86225602   -7.1216636    293.87032  0.024489193  0.024538176            9 
 1001000   0.85177367   -7.1180543    293.22995  0.024411418  0.024520277            6 
 1002000   0.84886613   -7.1282092    293.13137  0.024378856  0.024502391            3 
 1003000   0.85230848   -7.1375082    293.20203  0.024360421  0.024484513            6 
 1004000   0.84258144   -7.0928046    294.11867   0.02441224  0.024466777           13 
 1005000   0.84434853   -7.1180595    293.25661  0.024316468  0.024449038            2 
 1006000   0.84010257   -7.1236879    293.68866  0.024328086  0.024431277            6 
 1007000   0.86408112   -7.1505151     294.0298  0.024332159  0.024413563           10 
 1008000   0.84658314   -7.1396366    293.97425  0.024303427  0.024395942            5 
 1009000   0.85533677   -7.1626027    293.86264  0.024270122  0.024378386            4 
 1010000   0.84601794   -7.1100583    294.28786  0.024281177  0.024360815            6 
 1011000   0.84346023    -7.140384    295.12154  0.024325877  0.024343286            6 
 1012000   0.85172791   -7.1343993    295.08572   0.02429889   0.02432591            3 
 1013000   0.85451221   -7.1497701    294.30402  0.024210597  0.024308419           10 
 1014000    0.8545756   -7.1379203    294.96866  0.024241343   0.02429097            9 
 1015000   0.86658405   -7.1627139    294.67872  0.024193655  0.024273445            3 
 1016000   0.84051432    -7.134982    294.95485  0.024192491  0.024255973            8 
 1017000   0.82104418   -7.1454824    295.57435  0.024219465  0.024238585            4 
 1018000   0.84133776   -7.1657621    294.93085  0.024142997  0.024221097            4 
 1019000   0.85305346   -7.1282601    295.73208  0.024184828  0.024203654            4 
 1020000   0.84538622   -7.1552754      294.968  0.024098692  0.024186225           12 
 1021000   0.83142855   -7.1372024    295.92928  0.024153549  0.024168638            5 
 1022000    0.8283996   -7.1574718    295.67656  0.024109309  0.024151112            6 
 1023000    0.8318964   -7.1284106    295.99915  0.024112019  0.024133774            3 
 1024000   0.85018471   -7.1446736    295.55252  0.024052125  0.024116444            5 
 1025000   0.85593097   -7.1400432    296.43788   0.02410064  0.024099232            4 
 1026000   0.84162367   -7.1079536    296.62368  0.024092242  0.024082003            4 
 1027000   0.82495293   -7.1220865     297.0544  0.024103733  0.024064877            7 
 1028000   0.84109976   -7.1581538    296.48015  0.024033735  0.024047751            5 
 1029000   0.86083098   -7.1514461    296.23615  0.023990618  0.024030621            4 
 1030000   0.82915799   -7.1847789    297.49024   0.02406879  0.024013555            6 
 1031000   0.83865761   -7.1474796    297.33636  0.024033007  0.023996588           16 
 1032000   0.83825333   -7.1619574    297.11316  0.023991696  0.023979646            9 
 1033000   0.83948024   -7.1484295    297.61997  0.024009356  0.023962596            3 
 1034000   0.82822544   -7.1549885    296.15508  0.023868075  0.023945483            4 
 1035000   0.83736657    -7.179814    297.17092  0.023926805  0.023928368            7 
 1036000   0.83396881   -7.1849493    296.31959  0.023835231  0.023911136            4 
 1037000   0.85223617   -7.1716649    297.61581   0.02391641  0.023894049            4 
 1038000   0.84572711   -7.1562484    297.72362  0.023902024  0.023877089            6 
 1039000   0.83283583   -7.1145739    298.49895  0.023941205  0.023860192            4 
 1040000   0.82501891   -7.1498777    298.12764  0.023888432  0.023843464            5 
 1041000   0.83884749   -7.1526479    298.87108  0.023924998  0.023826532            3 
 1042000   0.83901148   -7.1669542    299.07038  0.023917977   0.02380964            3 
 1043000   0.80766312   -7.1569647    299.72487  0.023947337   0.02379282            4 
 1044000   0.83691141   -7.1734157    298.56402  0.023831739  0.023776075            3 
 1045000   0.82765159   -7.1577005    299.51245  0.023884566  0.023759406            4 
 1046000   0.82321684   -7.1810086    299.25606  0.023841305  0.023742753            5 
 1047000   0.84175866   -7.1653543    299.40269  0.023830205  0.023726017            3 
 1048000   0.82698727   -7.1540402    299.12173  0.023785125  0.023709291            3 
 1049000   0.84946702   -7.1469222    298.93834  0.023747882  0.023692614            3 
 1050000   0.83507794   -7.1655484    299.34583  0.023757606  0.023675918            4 
 1051000   0.83093027   -7.1911047    299.40133  0.023739402  0.023659279            5 
 1052000   0.84132549   -7.1691981    299.86953  0.023753924  0.023642522            3 
 1053000   0.85115146    -7.164094     299.8238  0.023727746  0.023625852            3 
 1054000   0.82929798   -7.1767982    299.22414  0.023657823  0.023609147            7 
 1055000   0.83951165    -7.161951    300.61554  0.023745303  0.023592475            6 
 1056000   0.82675958   -7.1469638    301.15469  0.023765364  0.023575835           11 
 1057000   0.83871539   -7.1628713    300.09419  0.023659271  0.023559124            4 
 1058000   0.85048165    -7.189027    299.64546  0.023601564  0.023542348            7 
 1059000   0.82231799    -7.163855    300.06732  0.023612474  0.023525479            9 
 1060000   0.81390032   -7.1961164    300.04747  0.023588637  0.023508708            9 
 1061000   0.81536039   -7.1995486    300.78571  0.023624388  0.023492063            6 
 1062000    0.8373261   -7.1894362    300.67794  0.023593687   0.02347538            6 
 1063000   0.83346824   -7.1926178    300.68059  0.023571698  0.023458769            4 
 1064000   0.83895105   -7.1666069      301.425  0.023607848    0.0234421            4 
 1065000   0.83042528   -7.2073458    300.52381  0.023515165  0.023425388            4 
 1066000   0.81865778   -7.1666291    300.44766  0.023487153  0.023408593            4 
 1067000   0.81565926   -7.1905852    300.42266  0.023463188  0.023391826           11 
 1068000   0.81203188    -7.183762    301.01421  0.023487376  0.023375129            7 
 1069000   0.82236586   -7.1996797    300.75147  0.023444923  0.023358357            6 
 1070000   0.82966215    -7.187307    300.41981  0.023397181  0.023341595            4 
 1071000   0.82147498   -7.1848445    300.99333   0.02341996  0.023324931            2 
 1072000    0.8282855   -7.1786938    301.39624  0.023429434   0.02330819           14 
 1073000   0.80217917    -7.164697    300.76485  0.023358562  0.023291512            6 
 1074000   0.83410694   -7.1805773    301.26895  0.023375927  0.023274784            4 
 1075000   0.81747539   -7.1534383    301.17268  0.023346719  0.023258059            3 
 1076000    0.8442464    -7.192878    301.13427  0.023322047  0.023241366            4 
 1077000   0.83115188   -7.1796676    301.42394  0.023322805   0.02322479            6 
 1078000   0.82823356   -7.1849335    301.86362  0.023335159  0.023208158            8 
 1079000   0.82267263   -7.1969919    302.27919  0.023345628  0.023191623            5 
 1080000   0.81293055   -7.1969575    301.38132  0.023254731  0.023175222            8 
 1081000    0.8158014   -7.1767738    302.24863  0.023300079  0.023158866            6 
 1082000   0.81808231   -7.1667292     302.5125  0.023298867  0.023142465            5 
 1083000   0.82212485   -7.2238324     301.9065  0.023230725   0.02312599            4 
 1084000   0.80578428   -7.2016502    302.21935  0.023233345    0.0231094            5 
 1085000   0.81491379   -7.2023602     302.4654   0.02323083  0.023092948           12 
 1086000   0.82462472   -7.1756663    302.27003  0.023194447  0.023076446            5 
 1087000   0.80015961   -7.2277146     301.8092   0.02313778  0.023059866            5 
 1088000   0.82699268   -7.2021654    302.77651  0.023190603  0.023043236            9 
 1089000   0.82669681   -7.1986325    302.73272  0.023165957  0.023026652            3 
 1090000    0.8231075   -7.2256258    302.34483  0.023115048  0.023010108            4 
 1091000   0.81587389   -7.2165366     302.2249  0.023084701  0.022993456            4 
 1092000   0.81778937    -7.211865    303.08882  0.023129489   0.02297689            4 
 1093000   0.80543058   -7.2219655    302.99693  0.023101321  0.022960459            4 
 1094000   0.81164383   -7.1916099    303.41294  0.023111893  0.022944006            4 
 1095000   0.81488595   -7.1689153    302.81373  0.023045185  0.022927616            6 
 1096000   0.79321679   -7.1833267     303.0698  0.023043628  0.022911253            5 
 1097000   0.81177926   -7.2065171    303.63503   0.02306556  0.022894892           13 
 1098000   0.82506738   -7.2286546    303.60866  0.023042551  0.022878626            6 
 1099000   0.82191068   -7.2165836    303.84894  0.023039804  0.022862347            8 
 1100000   0.83753713   -7.1760141    304.52109  0.023069779  0.022846104            7 
 1101000   0.82432937   -7.2176974    303.55624  0.022975798  0.022829767            6 
 1102000   0.80371484   -7.2012995    303.37521  0.022941259    0.0228135            6 
 1103000   0.79921304   -7.2285221    303.14585  0.022903132  0.022797251            3 
 1104000   0.81069154   -7.2245991    304.20799   0.02296256  0.022780924            3 
 1105000    0.8191716   -7.2115476    303.81833  0.022912393  0.022764556            5 
 1106000   0.82783383   -7.2185604     304.7599  0.022962621  0.022748433            5 
 1107000   0.81490834   -7.2029584      304.977   0.02295822  0.022732365            3 
 1108000   0.80323597   -7.2200197    304.77467  0.022922283  0.022716245            8 
 1109000   0.81321035   -7.2312291    304.15095  0.022854745   0.02269992            8 
 1110000   0.81570641   -7.2208647    303.80372  0.022808087  0.022683743           10 
 1111000   0.80254697   -7.2317148    305.15487  0.022888904  0.022667699            6 
 1112000   0.80319421   -7.2250403    305.18406  0.022870508  0.022651689           11 
 1113000   0.82067359   -7.2422917    304.89426  0.022828261  0.022635675            4 
 1114000    0.8051221   -7.2250619    305.27013  0.022835886  0.022619629            2 
 1115000    0.8177816   -7.2377435    305.41361   0.02282613  0.022603653            2 
 1116000   0.79311168     -7.24057    305.86477  0.022839365  0.022587651            5 
 1117000   0.80082507   -7.2315771    305.45996  0.022788717  0.022571771            5 
 1118000   0.80669709   -7.2230988    305.78731  0.022792733  0.022555859            6 
 1119000   0.78070126   -7.2213478    305.81745  0.022774609  0.022539915            5 
 1120000   0.81972773   -7.2157952    305.77148  0.022750854  0.022523883           11 
 1121000   0.80244077   -7.2280743    306.03748  0.022750333  0.022507898            7 
 1122000   0.82101246   -7.2533525    305.33039  0.022677539  0.022491808            7 
 1123000   0.82349962   -7.2354337    305.64988  0.022681054  0.022475739            6 
 1124000   0.80258376   -7.2373017     306.8225  0.022747813  0.022459687            4 
 1125000   0.81281223   -7.2225591    306.39641   0.02269603  0.022443708            5 
 1126000   0.80100206   -7.2304712    306.57088  0.022688786  0.022427797           17 
 1127000   0.82671464    -7.260912    305.70674  0.022604757  0.022411908           10 
 1128000   0.81050519    -7.260775    306.22278  0.022622842  0.022395944            8 
 1129000   0.80061426    -7.240254    305.86108  0.022576106   0.02238005            5 
 1130000   0.81611973   -7.2190407    307.54721  0.022680473  0.022364328            3 
 1131000   0.81830577   -7.2089514    307.79351  0.022678567  0.022348643            7 
 1132000   0.80701823   -7.2258786    306.60673  0.022571167  0.022332949            5 
 1133000   0.81346279    -7.218586    306.98613  0.022579151  0.022317247            7 
 1134000   0.79976237   -7.2361474    306.93613  0.022555565   0.02230149            6 
 1135000   0.80277776   -7.2509455    307.09821  0.022547592  0.022285708            4 
 1136000   0.79979663   -7.2704274    306.83058  0.022508112  0.022269941            4 
 1137000   0.81843192   -7.2385959    307.60322  0.022544945  0.022254186            6 
 1138000   0.80023545   -7.2724219    307.11443   0.02248934  0.022238435            9 
 1139000   0.80824264   -7.2586969    307.70323  0.022512674  0.022222698            7 
 1140000   0.79479118   -7.2652493    306.97122  0.022439416  0.022206851            4 
 1141000   0.79134041   -7.2537669    307.66387  0.022470338  0.022191007            5 
 1142000   0.83057573   -7.2568415    307.56717  0.022443606    0.0221752            7 
 1143000   0.78620755   -7.2553671    307.58153  0.022425017  0.022159393            5 
 1144000    0.7924187   -7.2427742    307.81817  0.022422652  0.022143554            8 
 1145000   0.79244924    -7.266914    307.38222  0.022371341  0.022127762            7 
 1146000   0.79581083   -7.2603895    307.77352  0.022380273  0.022111998            8 
 1147000   0.79142688   -7.2379646    307.62163  0.022349726  0.022096225            7 
 1148000   0.79455011   -7.2759595    307.46549  0.022318923  0.022080457           17 
 1149000   0.80607597    -7.246909    307.86242  0.022328287  0.022064645            7 
 1150000   0.81513071   -7.2258687    307.05952   0.02225069  0.022048826            9 
 1151000   0.77951958   -7.2827911    307.11194  0.022235154  0.022032949            7 
 1152000   0.79598361   -7.2808105    307.26092  0.022226629  0.022017036            5 
 1153000   0.79905722   -7.2414795    307.58218  0.022230571  0.022001167           11 
 1154000   0.78713925   -7.2433277    307.64598  0.022215914  0.021985334            7 
 1155000   0.79132694   -7.2476058    308.03256  0.022224571    0.0219696           10 
 1156000   0.78853591   -7.2185129     308.7615  0.022257894  0.021953859            5 
 1157000   0.78560547   -7.2657027    308.04971  0.022187389  0.021938172           29 
 1158000   0.77426216   -7.2676778    307.91075  0.022158229  0.021922493           14 
 1159000   0.78108356   -7.2763733    308.43507   0.02217681  0.021906862           12 
 1160000   0.77213419   -7.2817584     307.7312  0.022107126   0.02189113            8 
 1161000   0.80327598   -7.2645551    308.66656  0.022155222  0.021875386            7 
 1162000   0.79546619   -7.2770018    308.64166   0.02213437  0.021859808            8 
 1163000   0.78724628    -7.284235    309.45382  0.022173533  0.021844221            8 
 1164000   0.77910169   -7.2680071    309.47745  0.022156175  0.021828735            6 
 1165000   0.77597385   -7.2693536    309.35528  0.022128418  0.021813163            5 
 1166000   0.78323848    -7.254053     308.8199  0.022071176  0.021797731            3 
 1167000   0.78478147   -7.2563144    309.13951  0.022075086  0.021782228            5 
 1168000   0.78837192   -7.2583483    309.86392  0.022107871  0.021766761           13 
 1169000   0.78190538   -7.2582884    309.21118  0.022042428  0.021751382            3 
 1170000   0.78057552   -7.2756909    309.42095  0.022038529  0.021735896            7 
 1171000     0.775969   -7.2585165     308.9534  0.021986436   0.02172037            5 
 1172000   0.77782201   -7.2599973    309.29366   0.02199187  0.021704841            5 
 1173000   0.79722019   -7.2516091    309.39074  0.021980018  0.021689292           10 
 1174000   0.79448333   -7.2834412    309.41497  0.021963016  0.021673793            6 
 1175000   0.79052016   -7.2930801    309.74604  0.021967804   0.02165832            3 
 1176000   0.81494586   -7.2780227    310.11602  0.021975341  0.021642882            4 
 1177000   0.78715329   -7.2928902    311.60781  0.022062292  0.021627427            3 
 1178000   0.80156875    -7.266441    309.99012  0.021929126  0.021611981            6 
 1179000   0.77880398   -7.2513953    309.84601   0.02190034  0.021596599            6 
 1180000   0.78050754   -7.2654012    310.55194  0.021931634   0.02158127            5 
 1181000   0.77694449   -7.2773659     310.2766  0.021893635  0.021565996            3 
 1182000   0.77893188   -7.2789671    311.13894  0.021935909  0.021550721            5 
 1183000   0.78220007   -7.2828121    311.54782  0.021946169  0.021535478            4 
 1184000   0.78527025   -7.2815924    310.03518   0.02182117  0.021520295            8 
 1185000    0.7810477   -7.2826635    310.74089  0.021852383  0.021505121            4 
 1186000    0.7631664   -7.3043318    311.23712  0.021868825  0.021489931            4 
 1187000   0.76982098   -7.2885656     311.1839  0.021846665  0.021474767            8 
 1188000   0.77960619   -7.2930384    311.27812  0.021834885  0.021459621            8 
 1189000   0.78447199   -7.2905658    311.47241  0.021830138   0.02144442            6 
 1190000   0.77289171   -7.3004174    310.72634  0.021759547  0.021429245            4 
 1191000   0.77246122     -7.29547    311.10977  0.021768106  0.021414029            4 
 1192000   0.78041871   -7.2949579    310.58198  0.021712946  0.021398824            4 
 1193000   0.76312705   -7.3043521    310.83327  0.021712299  0.021383654            4 
 1194000   0.77729237   -7.3160054    311.29217  0.021726143  0.021368472            6 
 1195000      0.77884   -7.3091675    311.39395  0.021715059  0.021353282           11 
 1196000   0.76552389   -7.2918028    312.53276  0.021776252  0.021338169            7 
 1197000   0.77855173   -7.2869714    311.03415  0.021653728  0.021322988            5 
 1198000   0.79028927    -7.289723    311.52012  0.021669457  0.021307888            5 
 1199000   0.75662045   -7.2853368    311.43094  0.021645186    0.0212928            6 
 1200000     0.782956   -7.2585229    312.68308  0.021714103  0.021277646            5 
 1201000   0.78240933   -7.2907714    311.95899   0.02164578  0.021262533            5 
 1202000   0.77901751   -7.2937751    311.81227  0.021617601  0.021247389            6 
 1203000   0.78174882   -7.2758374    312.23074  0.021628619   0.02123238            6 
 1204000    0.7832529    -7.318176    311.98918  0.021593935   0.02121729            7 
 1205000   0.79408386   -7.2996123    312.22419  0.021592268  0.021202192            8 
 1206000   0.76952093   -7.3001138    311.55056  0.021527816  0.021187051            7 
 1207000   0.76885636   -7.2800464     311.9887  0.021540231  0.021171994            3 
 1208000   0.77178243   -7.3100408    312.17635  0.021535344   0.02115692           10 
 1209000   0.75859795   -7.2951015    312.35968  0.021530168   0.02114176           10 
 1210000   0.76669082    -7.286866    312.25157  0.021504929  0.021126534            9 
 1211000   0.77930951   -7.3122728     312.9924   0.02153815  0.021111392            9 
 1212000    0.7673113   -7.2887711    312.41045  0.021480367   0.02109627           12 
 1213000   0.76639965   -7.3311287    312.69655  0.021482313   0.02108111           17 
 1214000   0.77681573   -7.3218327    311.94447  0.021412992   0.02106599            7 
 1215000   0.78017982   -7.3277667    311.91108  0.021393078  0.021050774            3 
 1216000   0.78374551   -7.2863883    313.01263  0.021450975  0.021035594            8 
 1217000   0.77094203   -7.3043833    312.62654  0.021406912  0.021020529            9 
 1218000   0.77036236   -7.2948236     312.5447  0.021383737  0.021005504           10 
 1219000   0.76225961   -7.3170182    312.87433  0.021388729  0.020990399            3 
 1220000   0.76733303   -7.3172546    312.72949  0.021361304  0.020975403            7 
 1221000   0.76061156   -7.3288843    312.67601  0.021340159  0.020960353           12 
 1222000   0.76640272   -7.3288188    313.49865  0.021378795  0.020945401            9 
 1223000    0.7661667   -7.3183173    312.61847  0.021301341  0.020930446            5 
 1224000   0.77757266    -7.313407    312.74017  0.021292223  0.020915496           15 
 1225000   0.78282254   -7.3057682    313.49888  0.021326454  0.020900567            6 
 1226000   0.77622126   -7.3081725    312.93174   0.02127051  0.020885665            4 
 1227000   0.78071295   -7.3206077    313.62319  0.021300135  0.020870723            4 
 1228000   0.76183919   -7.3013885    313.70856  0.021288583  0.020855762            5 
 1229000   0.75125226   -7.3145807    313.44501  0.021253391  0.020840891            5 
 1230000    0.7751748   -7.3252192    313.85805  0.021264096  0.020826137           12 
 1231000   0.77340018   -7.2984289    313.59416  0.021228957  0.020811306            7 
 1232000   0.76401252   -7.3276494    313.38158  0.021197347  0.020796483           11 
 1233000   0.76095223   -7.3071868    314.00658  0.021222397   0.02078158            6 
 1234000   0.74507107   -7.3392947    313.66224  0.021181945  0.020766662            7 
 1235000   0.76305209   -7.3417028    312.82645  0.021108397  0.020751789            9 
 1236000   0.75894752   -7.3296177    313.81343  0.021157864  0.020736936            7 
 1237000    0.7575472   -7.3417621    313.87589  0.021144967  0.020722057            7 
 1238000   0.73433242   -7.3037275     314.3639  0.021160737  0.020707197            5 
 1239000   0.75223786   -7.3260895    313.86408  0.021110041  0.020692339            3 
 1240000   0.76174937   -7.3466053    313.97904  0.021100742  0.020677449            5 
 1241000   0.75061864   -7.3625157    314.50027   0.02111874  0.020662614            7 
 1242000    0.7637719   -7.3306834    314.23986  0.021084263  0.020647822            5 
 1243000   0.75673956   -7.3468183    314.36954  0.021075995  0.020633039            9 
 1244000   0.75682333   -7.3179022    313.77297  0.021019089  0.020618271            5 
 1245000   0.74927415   -7.3170958    314.26955  0.021035445  0.020603568            9 
 1246000    0.7520103    -7.317374    315.20209  0.021080932  0.020588845           11 
 1247000   0.74771257   -7.3522151    314.52414  0.021018721  0.020574123            8 
 1248000   0.75478704   -7.3448882    314.17793  0.020978761  0.020559379            7 
 1249000   0.75263014   -7.3299328    314.74966  0.021000111  0.020544668           10 
 1250000   0.75955565   -7.3174752    314.48819  0.020965879  0.020530011            9 
 1251000   0.74938484   -7.3453406    314.87951  0.020975187  0.020515358           11 
 1252000   0.77273959   -7.3396796     314.5819  0.020938625  0.020500615            5 
 1253000   0.74881055   -7.3404279    314.25383  0.020900095  0.020485857           16 
 1254000   0.75033104   -7.3241561    315.00436  0.020933304  0.020471172            8 
 1255000   0.75264702   -7.3505832    314.95632  0.020913434  0.020456497           10 
 1256000   0.74243759   -7.3456118    314.84845  0.020889627  0.020441882            6 
 1257000   0.75404359   -7.3678468    315.21392  0.020897237  0.020427217           12 
 1258000   0.75356745    -7.326473    315.12345  0.020874632  0.020412587           15 
 1259000   0.74205181   -7.3494915    315.10101  0.020856567   0.02039788           16 
 1260000   0.75693815   -7.3403381     314.6764  0.020811931  0.020383193           11 
 1261000    0.7445517   -7.3505086    314.66214  0.020794484  0.020368479            7 
 1262000   0.75661753    -7.344106    314.88814   0.02079293  0.020353783            6 
 1263000    0.7612355   -7.3308367    315.77917  0.020835258  0.020339127            6 
 1264000   0.74874058   -7.3613839    315.43999  0.020796413  0.020324448            5 
 1265000   0.73674243   -7.3367544    315.98071  0.020815594  0.020309814            8 
 1266000   0.75421073   -7.3794386    315.50885  0.020768092  0.020295225            9 
 1267000   0.75582575   -7.3743984    315.49251  0.020750625  0.020280656            5 
 1268000   0.73684441   -7.3909095    315.75745  0.020751673  0.020266074            6 
 1269000    0.7574166   -7.3625236    315.43571  0.020714192  0.020251498            7 
 1270000   0.74816335   -7.3447901    315.64317  0.020711494  0.020236935            4 
 1271000   0.75477233   -7.3372427    316.10651  0.020725578  0.020222497            6 
 1272000   0.73463083   -7.3540292    316.10035  0.020708881   0.02020804            3 
 1273000   0.74121276   -7.3715026    315.47534  0.020651698    0.0201936            7 
 1274000   0.74193279   -7.3416002    316.27309   0.02068767  0.020179128            5 
 1275000   0.72447115   -7.3476143    315.49898  0.020620848  0.020164683            3 
 1276000   0.74115309   -7.3556096     315.6919  0.020617287  0.020150208            6 
 1277000   0.75515675   -7.3578718    316.71405  0.020667845  0.020135762            5 
 1278000    0.7597281   -7.3429149    317.02997  0.020672272  0.020121367            2 
 1279000   0.74211635   -7.3656113    316.22514  0.020603671   0.02010694            7 
 1280000   0.74877831   -7.3568539    316.16261  0.020583503  0.020092514            8 
 1281000   0.75103201   -7.3602213    316.51974  0.020590667  0.020078037            4 
 1282000   0.73656987   -7.3729998    316.69084  0.020585728  0.020063615            7 
 1283000    0.7397104   -7.3651863    317.17472  0.020601112  0.020049226            7 
 1284000   0.71825088   -7.3573179    316.88233  0.020566091  0.020034866            6 
 1285000   0.72625735   -7.3550877    315.82392  0.020481447  0.020020456            8 
 1286000   0.72512739   -7.3631315    316.57318  0.020514073  0.020006005            5 
 1287000   0.75429667   -7.3611354    315.87786  0.020453112  0.019991663            9 
 1288000   0.72908251   -7.3511966    317.36087  0.020533183  0.019977409           21 
 1289000   0.73018522   -7.3534038    316.84225  0.020483725  0.019963064            4 
 1290000   0.73557103   -7.3526345    316.77775  0.020463679  0.019948767            6 
 1291000    0.7329264   -7.3851002    316.68909  0.020442105  0.019934343            3 
 1292000   0.74056083   -7.3852654    317.05407  0.020449824  0.019919965           12 
 1293000   0.75158714   -7.3897718    317.08672  0.020436112  0.019905612            8 
 1294000   0.74526408   -7.3947359    316.58172  0.020387798  0.019891244            9 
 1295000   0.73909159   -7.3550321    316.97487  0.020397353  0.019876876            5 
 1296000    0.7350555   -7.3843087    315.99361  0.020318519  0.019862501           15 
 1297000   0.74334349   -7.3667846    317.13697  0.020376315  0.019848112           11 
 1298000    0.7464003   -7.3845355    317.03527  0.020354087  0.019833815            9 
 1299000   0.74227417   -7.3832617      317.128  0.020344367   0.01981953            9 
 1300000   0.72548778   -7.3938418    316.69231  0.020300789  0.019805201           17 
 1301000   0.72465861   -7.3909847    316.29961  0.020260031  0.019790791           18 
 1302000   0.72779993   -7.4102214     316.3866  0.020250039  0.019776405           17 
 1303000   0.73053867   -7.4173932    317.43673  0.020301658  0.019762027           12 
 1304000   0.73928276   -7.4088422    317.34086  0.020279963  0.019747661            5 
 1305000   0.74244354   -7.4042274    316.86361  0.020233947  0.019733359            9 
 1306000   0.74418074    -7.370825     318.0067  0.020291392  0.019719107           15 
 1307000   0.73131282   -7.3720469    317.89815  0.020268946  0.019704902           10 
 1308000   0.74575083   -7.3918963    317.90968  0.020254184  0.019690714            8 
 1309000   0.72166028    -7.403301    317.28784  0.020199124  0.019676465           11 
 1310000   0.74213429   -7.4054359    317.63025  0.020205487  0.019662227           12 
 1311000   0.72408733    -7.409119     318.0458  0.020216489  0.019648029            9 
 1312000   0.73960075   -7.3808277    317.83376  0.020187612  0.019633935           12 
 1313000   0.72388586   -7.3752129    317.90088  0.020176497   0.01961992            6 
 1314000   0.73835504   -7.4146176    317.15141  0.020113611  0.019605771            8 
 1315000   0.74099229    -7.393336    317.52509  0.020121996  0.019591601            7 
 1316000   0.72124373   -7.4049746    318.37204  0.020160337  0.019577479            7 
 1317000   0.72865239    -7.393115    318.13882  0.020130272   0.01956344            7 
 1318000   0.73225926   -7.3938091    318.08296  0.020111467  0.019549413            5 
 1319000   0.73243062   -7.4012689    318.56757  0.020126837   0.01953545            5 
 1320000    0.7246207    -7.408966    318.60875  0.020114189  0.019521472            6 
 1321000   0.74551629   -7.3742248    319.43875  0.020151321  0.019507577            3 
 1322000    0.7183838   -7.4113812    318.96737  0.020106365  0.019493658            6 
 1323000   0.74187485   -7.3981392    318.88231  0.020085809  0.019479774            7 
 1324000   0.71467478   -7.3991716    319.04219  0.020080702  0.019465928            8 
 1325000   0.71612048     -7.41353    318.33917  0.020021331  0.019452002           11 
 1326000   0.73873021   -7.3909798    318.91447  0.020042388  0.019438128            8 
 1327000   0.71852977   -7.3692401    319.40737  0.020058237  0.019424288           14 
 1328000   0.72865444    -7.392672    319.49975   0.02004893  0.019410508            5 
 1329000   0.73463144   -7.4181619    318.99124  0.020001959  0.019396707            9 
 1330000   0.71900972   -7.4040701    319.77668  0.020036133  0.019382862            5 
 1331000   0.71427232   -7.3770069    319.31804  0.019992364  0.019369017            5 
 1332000   0.72475979   -7.3828849    319.25414  0.019973357  0.019355263           10 
 1333000   0.71414152   -7.4214376    319.65318  0.019983319  0.019341423            6 
 1334000   0.72995802    -7.449474    319.24851   0.01994306  0.019327512            7 
 1335000   0.69543136   -7.4147517    318.42715  0.019876851  0.019313645            8 
 1336000   0.71944547   -7.4007284    319.34995  0.019919533  0.019299751           10 
 1337000   0.72734691    -7.415348      318.717  0.019865183  0.019285878            9 
 1338000   0.69871366   -7.3882568    319.82247  0.019919187  0.019272032            6 
 1339000   0.71598491    -7.420382    318.73121  0.019836396  0.019258176            5 
 1340000   0.70414606   -7.4005932    319.30384  0.019857204  0.019244372            6 
 1341000   0.69979653   -7.4059238    318.92112  0.019818613  0.019230557            5 
 1342000   0.71833859    -7.425606    319.80411  0.019858676   0.01921668            4 
 1343000   0.71905845   -7.3948189    319.33995  0.019815088  0.019202824            8 
 1344000   0.70949498   -7.4209589    320.02239  0.019842658   0.01918902           10 
 1345000   0.71924868   -7.4288601    319.52365  0.019797004  0.019175163            7 
 1346000   0.71651289   -7.4302196    319.25267   0.01976552  0.019161307           11 
 1347000   0.69477194   -7.4238138    319.07805  0.019740043   0.01914741            9 
 1348000   0.71520027     -7.44137    318.55518  0.019693075  0.019133532           11 
 1349000   0.72481717   -7.4064275    320.25845  0.019783695  0.019119698            6 
 1350000    0.7179253   -7.4137538    319.42462  0.019717569  0.019105931           10 
 1351000   0.69758219   -7.4290082    319.99055  0.019737882   0.01909215            8 
 1352000   0.71639488   -7.4207731    319.59068  0.019698636  0.019078402            6 
 1353000   0.72506094    -7.443822    318.91996  0.019642767  0.019064643           16 
 1354000   0.69157447   -7.4565813    319.44423  0.019660526  0.019050839            8 
 1355000   0.69607643   -7.4228982    319.81144    0.0196686  0.019037069            7 
 1356000   0.70369725   -7.4154013    320.72597  0.019710298  0.019023342            8 
 1357000   0.70194823   -7.4211496    319.50373  0.019620716  0.019009631           17 
 1358000   0.70351475   -7.4334352    320.01883  0.019637876  0.018995973           10 
 1359000   0.70229991   -7.4196169    320.48999  0.019652317  0.018982325            8 
 1360000   0.71706974   -7.4468743    319.97082  0.019606055  0.018968664            6 
 1361000   0.69938298   -7.4534495    319.90383  0.019587548  0.018954934           10 
 1362000   0.70083516   -7.4638681    319.66548  0.019558583  0.018941225            9 
 1363000   0.69650751   -7.4344966    320.27593  0.019581556  0.018927531            6 
 1364000   0.69963465   -7.4438896    319.74542  0.019534789  0.018913838           15 
 1365000    0.7205694   -7.4395684    319.76357  0.019521585  0.018900132           13 
 1366000   0.71333444   -7.4770607    319.67573  0.019501936  0.018886439            6 
 1367000   0.69888498   -7.4598301    319.75835  0.019492706  0.018872737           10 
 1368000   0.70365873   -7.4281993    320.02588  0.019494754  0.018859081           10 
 1369000   0.70422912   -7.4256068    319.85595   0.01947017  0.018845477            4 
 1370000   0.70675095   -7.4402178    320.21099  0.019477554  0.018831892            8 
 1371000   0.70323076   -7.4547407    320.67978  0.019491842  0.018818251            8 
 1372000   0.67433862   -7.4518274    320.26104  0.019452201  0.018804615           10 
 1373000   0.69888657    -7.431673    320.17411  0.019432757  0.018791002           10 
 1374000   0.69889811   -7.4503649     321.0032  0.019468898  0.018777439            9 
 1375000    0.7117023   -7.4237794    321.08955  0.019459973  0.018763898           10 
 1376000   0.71776164   -7.4295536    320.26052  0.019395622  0.018750377           12 
 1377000   0.70080061   -7.4528275    320.24997  0.019380899  0.018736813           12 
 1378000    0.7042954   -7.4517643    320.77492   0.01939858  0.018723255            7 
 1379000   0.71395152   -7.4667099    321.02474   0.01939961  0.018709697           17 
 1380000   0.69872691   -7.4413439    320.34417  0.019344455  0.018696169            8 
 1381000   0.69996453   -7.4584076    320.34465  0.019330476  0.018682621            7 
 1382000   0.69475541   -7.4453925    320.92128  0.019351259  0.018669044            5 
 1383000    0.6996781   -7.4553287    320.47886  0.019310609  0.018655519            6 
 1384000   0.69415285   -7.4533774    320.28425  0.019284938  0.018641955            7 
 1385000     0.694327   -7.4677815    320.23867  0.019268271   0.01862843            9 
 1386000    0.7041539   -7.4641809    320.38692  0.019263283   0.01861488            9 
 1387000   0.69854355   -7.4747607    320.77533  0.019272731  0.018601374           10 
 1388000   0.69027137     -7.47202    320.56969  0.019246499  0.018587834           15 
 1389000   0.71813853   -7.4659117    320.61736  0.019235502  0.018574279           17 
 1390000   0.70295446   -7.5005743    320.39966  0.019208613  0.018560699           16 
 1391000   0.69837865   -7.4650584    320.66868   0.01921092  0.018547116           17 
 1392000   0.68553053   -7.4627751    320.20091  0.019169116  0.018533578           18 
 1393000   0.71261124    -7.473613    320.81482   0.01919208   0.01852008            8 
 1394000   0.69694213   -7.4676041    321.74908  0.019234163  0.018506566            6 
 1395000    0.6889331   -7.4582565    320.60161  0.019151829  0.018493042           13 
 1396000   0.68913326   -7.4719086    320.64094  0.019140457  0.018479511           13 
 1397000   0.70658497   -7.4934162    320.06926  0.019092655  0.018465993           11 
 1398000   0.70467439   -7.4990427    320.92732  0.019130146  0.018452482            7 
 1399000   0.69717158   -7.4717115    320.78013  0.019107704  0.018438987           12 
 1400000   0.69016746   -7.4379962    321.41476  0.019131831  0.018425565           12 
 1401000   0.70154903   -7.4681849    321.44961  0.019120248   0.01841217           15 
 1402000    0.6924118   -7.5040125    321.10042  0.019085855  0.018398761           16 
 1403000   0.70996654   -7.4871217     320.6814  0.019047363  0.018385296           11 
 1404000   0.68669428   -7.4786402    321.24805   0.01906743  0.018371862           11 
 1405000   0.68927412   -7.4763917    321.32754  0.019058573  0.018358443           12 
 1406000   0.68678014   -7.4956021    321.12487  0.019033005     0.018345           31 
 1407000   0.68853388   -7.5206223    320.88512  0.019005278  0.018331568            8 
 1408000   0.69542395   -7.4792633     320.4676  0.018967069  0.018318087            8 
 1409000   0.68139711   -7.4757058     320.5361  0.018957659  0.018304604            4 
 1410000   0.71022343   -7.4713451    322.23821  0.019044811  0.018291156           11 
 1411000   0.70098554   -7.4987821    320.99487  0.018957882  0.018277779           17 
 1412000   0.69430956   -7.4998209    320.89966  0.018938837  0.018264363            9 
 1413000   0.68011398    -7.491867     320.9427  0.018927972  0.018250956            7 
 1414000   0.68721822   -7.4858688    321.06267  0.018921657  0.018237507            9 
 1415000   0.68973685   -7.4760275    321.13802  0.018912722  0.018224107           10 
 1416000   0.69591266   -7.4873163     321.5959  0.018926312  0.018210729            9 
 1417000   0.68277403   -7.4882255     321.2802   0.01889439  0.018197321            9 
 1418000   0.69400147   -7.4846888    321.32487   0.01888369  0.018183902           16 
 1419000   0.69170776   -7.5022287    320.86503  0.018843377  0.018170548           20 
 1420000   0.69726276   -7.4915343    320.35051  0.018799913  0.018157146           15 
 1421000   0.68033145   -7.4801648    320.70603  0.018807532  0.018143788            7 
 1422000   0.68302337   -7.5268102    320.43655  0.018778513  0.018130353           32 
 1423000   0.69075009   -7.5030958    320.95435   0.01879564   0.01811687           12 
 1424000   0.69083161   -7.4899443    321.17561  0.018795389  0.018103497            8 
 1425000   0.68762663   -7.4893383    321.30078  0.018789519  0.018090113            6 
 1426000   0.69120545   -7.5113706    321.33391  0.018778279  0.018076698            7 
 1427000   0.66816723   -7.4986692    320.14322  0.018695586   0.01806329            9 
 1428000   0.68360533   -7.5031538    321.05965  0.018735974  0.018049872           10 
 1429000   0.68257915    -7.507983     320.4015  0.018684482  0.018036456            5 
 1430000   0.68029225   -7.4882925    321.46498   0.01873339  0.018023061            5 
 1431000   0.68483003   -7.5063195    320.91934  0.018688524  0.018009668           16 
 1432000   0.68407745   -7.5067493    321.01089  0.018680801  0.017996276            9 
 1433000    0.6701595   -7.5379149    320.08798  0.018614095  0.017982887           16 
 1434000   0.69449514   -7.5200338    321.50872  0.018683677  0.017969454            7 
 1435000   0.67543059   -7.5133587    320.83898  0.018631764  0.017956081            6 
 1436000    0.6918647   -7.5217976    320.94741  0.018625082  0.017942757            8 
 1437000   0.68346557   -7.5104293    321.35508  0.018635762  0.017929414            9 
 1438000   0.67743818   -7.5182748    320.85125  0.018593605  0.017916122            9 
 1439000   0.67152516   -7.5118221    321.01547  0.018590194  0.017902804            9 
 1440000    0.6813372    -7.491748    320.56159  0.018551018  0.017889544            9 
 1441000   0.66647876   -7.5298254    321.46515  0.018590397   0.01787628           14 
 1442000    0.6975812   -7.5050921    321.22628  0.018563701  0.017863061            6 
 1443000   0.67662821   -7.5091551    321.31804  0.018556135  0.017849871           10 
 1444000   0.68614834   -7.5472861    321.59447  0.018559238  0.017836686           11 
 1445000   0.66772794   -7.4994157    321.25671  0.018526915  0.017823475           13 
 1446000   0.67396625   -7.5277751    322.44914  0.018582823   0.01781031            8 
 1447000   0.67178113   -7.5146876    321.88125  0.018537275  0.017797131           15 
 1448000   0.67009795    -7.513138    321.62815  0.018509907  0.017783974           10 
 1449000   0.66363622   -7.5205468    321.48028  0.018488629  0.017770842           11 
 1450000   0.68022634   -7.4929407    321.19133  0.018459272   0.01775769           10 
 1451000   0.67332599   -7.4934196    321.25933  0.018450456   0.01774455            9 
 1452000   0.66765361   -7.5139326     321.3034  0.018440278  0.017731392            6 
 1453000   0.66828698   -7.5347521    322.32855  0.018486381  0.017718247            7 
 1454000   0.67363963   -7.5175289     322.1279  0.018462168  0.017705133            8 
 1455000   0.66547166   -7.5225994    321.26134  0.018399848  0.017691992           11 
 1456000   0.66984742   -7.5405953    322.01876  0.018430561  0.017678834            7 
 1457000   0.67307053   -7.5326085     321.7848   0.01840453  0.017665655            5 
 1458000   0.65695545    -7.553522    321.33534  0.018366217  0.017652476            7 
 1459000   0.66937664   -7.5528608     321.6468  0.018371419  0.017639335            5 
 1460000   0.65894941   -7.5461334    321.73669  0.018363966  0.017626192            7 
 1461000   0.66277606   -7.5325681    321.77727  0.018353712  0.017613079           13 
 1462000   0.67314961   -7.5536429    321.64619  0.018333686  0.017599914            7 
 1463000   0.67110094   -7.5315791    321.79908  0.018329863  0.017586777           10 
 1464000   0.67628316   -7.5497018    321.74836  0.018314456  0.017573638           12 
 1465000   0.68915874   -7.5598601    321.45521  0.018285279  0.017560502           15 
 1466000   0.67915835   -7.5397026    321.72375  0.018288071  0.017547383           13 
 1467000   0.66253715   -7.5171215    321.48207  0.018261877   0.01753428           12 
 1468000    0.6738536   -7.5356027    321.72946   0.01826348   0.01752118            5 
 1469000   0.66626373   -7.5366222      321.429  0.018234003  0.017508087           11 
 1470000   0.68598458   -7.5445427    321.63106  0.018233053  0.017494979            8 
 1471000   0.67788203   -7.5349784    321.94691  0.018238551  0.017481918            5 
 1472000    0.6574447   -7.5461227      322.038  0.018231318  0.017468852            6 
 1473000   0.67181736    -7.542227    320.61828  0.018138622  0.017455815           10 
 1474000   0.66510642   -7.5179621    322.19276   0.01821533  0.017442782           13 
 1475000   0.66404924    -7.540388    321.56604  0.018167573  0.017429751            9 
 1476000   0.67010725   -7.5462552    322.19128  0.018190564  0.017416746            6 
 1477000   0.65585431   -7.5186936    322.07492  0.018171684  0.017403734           13 
 1478000   0.67556416   -7.5592546    321.53283  0.018128824   0.01739071           12 
 1479000   0.67292884   -7.5507272    321.56255  0.018118242  0.017377698            9 
 1480000    0.6674196   -7.5335767    321.70662  0.018114111  0.017364704            8 
 1481000   0.65714588   -7.5568193     321.6983  0.018101412  0.017351711            7 
 1482000   0.67112988   -7.5727597    321.88961  0.018099956  0.017338687           14 
 1483000   0.65231092   -7.5435783    321.54176  0.018068204  0.017325673           16 
 1484000   0.66316652   -7.5609561    321.87423  0.018074698  0.017312606            7 
 1485000   0.66264417   -7.5650484    321.17882  0.018023503  0.017299525           10 
 1486000   0.65951013   -7.5603526     321.6673  0.018038767   0.01728645            4 
 1487000   0.66894941   -7.5481625    321.09176  0.017994382  0.017273396            7 
 1488000   0.66264489   -7.5616262    321.68844  0.018015706  0.017260342           14 
 1489000   0.66674074   -7.5595931     321.1363  0.017972705  0.017247274           10 
 1490000   0.65763464   -7.5631111    320.99507  0.017952744  0.017234253           11 
 1491000   0.65960857   -7.5655202    321.00612  0.017941321  0.017221241            9 
 1492000   0.67013922   -7.5477386    322.09597  0.017990168  0.017208254           17 
 1493000   0.65272946   -7.5291042    321.24321  0.017930521  0.017195268            7 
 1494000   0.66035932   -7.5568818    320.98685   0.01790422   0.01718232           21 
 1495000   0.65929732   -7.5740782    322.29751  0.017965301  0.017169353           13 
 1496000   0.65073675    -7.582309    321.89153  0.017930678   0.01715641            6 
 1497000    0.6555958   -7.5531625    321.45638  0.017894477  0.017143475           10 
 1498000   0.64757225   -7.5854578    321.53721  0.017887028   0.01713052           10 
 1499000    0.6545768   -7.5782146    320.79114  0.017833619  0.017117552           16 
 1500000   0.65171453   -7.5753226    321.63977  0.017868876  0.017104573           24 
 1501000   0.64893158   -7.5864355    321.81282  0.017866579  0.017091609           11 
 1502000   0.65890236   -7.5529808    321.86645  0.017857659   0.01707864           10 
 1503000   0.65261197   -7.5721494    321.54352  0.017827873   0.01706568           18 
 1504000   0.65275768   -7.5704019    320.32547   0.01774853  0.017052728           27 
 1505000   0.65731661   -7.5579712    320.94859   0.01777124  0.017039797           20 
 1506000   0.65584063   -7.5870615    321.44674  0.017787004  0.017026885           15 
 1507000   0.64842646   -7.5653303    321.34005  0.017769302  0.017013969            8 
 1508000   0.65768215   -7.5752502    321.56314  0.017769846  0.017001063           10 
 1509000   0.65709626   -7.5901817    321.19904  0.017737963   0.01698816           13 
 1510000   0.65276224   -7.5483957     321.8202  0.017760497  0.016975277           10 
 1511000    0.6564657   -7.5661131    321.31602  0.017720936  0.016962405           23 
 1512000   0.64367256   -7.5645041    320.85366  0.017683733  0.016949524           15 
 1513000   0.64396972   -7.5650705    321.50835  0.017708105  0.016936669           12 
 1514000   0.66073531   -7.5635541    321.36024  0.017688256  0.016923775            9 
 1515000   0.64086965   -7.5832896    321.18935  0.017667181  0.016910899           18 
 1516000   0.64433958   -7.6088438     321.6692  0.017681904  0.016898037           19 
 1517000   0.66370013   -7.5856784    321.32762  0.017651484  0.016885125           12 
 1518000   0.64913605   -7.6063109    321.72017  0.017661406  0.016872234           17 
 1519000   0.66322486    -7.582645    321.81513  0.017654988  0.016859352           13 
 1520000   0.64604728    -7.585345    321.05475  0.017601686  0.016846506           16 
 1521000   0.65476705   -7.5775963    321.15306    0.0175955  0.016833662           15 
 1522000   0.65728581   -7.5905871    321.35301  0.017594887  0.016820785           12 
 1523000   0.63642158   -7.6001516    321.61176  0.017597492  0.016807926            8 
 1524000   0.64016637   -7.5957809    321.37527  0.017573013  0.016795058           33 
 1525000   0.64185776   -7.5990391    321.36535  0.017560948  0.016782167           22 
 1526000   0.64257963   -7.5936285    320.94885  0.017526695  0.016769288            8 
 1527000   0.63628856   -7.6064866    321.32356  0.017535667  0.016756445           24 
 1528000    0.6464379   -7.5978691    321.40931  0.017528867  0.016743641           17 
 1529000   0.63928337   -7.5932076    321.77719  0.017537453  0.016730848           10 
 1530000   0.63647282   -7.5757867    321.93567  0.017534623   0.01671812            7 
 1531000   0.64505046   -7.5998956    321.58296  0.017503971  0.016705395            8 
 1532000   0.65190189   -7.5699115    321.59774   0.01749335  0.016692675            9 
 1533000    0.6571706   -7.5900055    321.41524  0.017472018  0.016679992            9 
 1534000   0.64359604   -7.5658527    322.04308  0.017494735  0.016667329            9 
 1535000   0.64714017   -7.5829252    321.71274  0.017465404  0.016654688            6 
 1536000   0.64347454    -7.589063    322.22727  0.017481948  0.016642074           11 
 1537000   0.63590203   -7.6056126    321.56463  0.017434647  0.016629425            8 
 1538000   0.62617972   -7.5929335    321.90789   0.01744191   0.01661677           11 
 1539000   0.63806402   -7.6075889    322.01381  0.017436312  0.016604099            9 
 1540000   0.63661475   -7.6119721    322.34615  0.017442973    0.0165915           10 
 1541000   0.63330031   -7.6128063    321.99199  0.017412502  0.016578864           16 
 1542000   0.62418379   -7.5999605    322.26473   0.01741595  0.016566241           12 
 1543000   0.63552791   -7.5917267    322.37044  0.017410371  0.016553631            8 
 1544000   0.65091365    -7.593738    321.67824  0.017361735  0.016541061            7 
 1545000   0.63484846    -7.602247    322.53088  0.017396488  0.016528502            7 
 1546000   0.63623468    -7.601249    322.25755  0.017370502  0.016515935           14 
 1547000   0.64061831   -7.6084864    322.20463  0.017356423  0.016503364           12 
 1548000   0.62389788   -7.6112624    321.51645  0.017308164  0.016490823            6 
 1549000   0.61791311   -7.5858326    321.82308  0.017313486   0.01647828           11 
 1550000   0.63390254   -7.6142075    321.75535  0.017298675  0.016465776            9 
 1551000   0.63182379   -7.6116877    321.94946  0.017297951  0.016453251           18 
 1552000   0.62681082   -7.6216124    322.01412  0.017290277  0.016440766           13 
 1553000    0.6315167    -7.589655    321.93129  0.017274699  0.016428261           11 
 1554000   0.62610592   -7.5982418    322.30402   0.01728357  0.016415794            6 
 1555000    0.6400391   -7.6096791    322.47335   0.01728153  0.016403315           12 
 1556000   0.62572258   -7.6243314    321.60668  0.017224008  0.016390837           12 
 1557000   0.62955744   -7.6163982    322.53353  0.017262553  0.016378357           14 
 1558000   0.63943363   -7.6220559    322.47115  0.017248136  0.016365839           12 
 1559000   0.63359982   -7.6310616    321.82581  0.017202577  0.016353327           29 
 1560000   0.63122585   -7.6113848    321.57204  0.017177993  0.016340869           15 
 1561000   0.63056924    -7.614322    321.89129  0.017184032  0.016328381           10 
 1562000   0.63395943   -7.6228808    321.71343  0.017163542  0.016315902           15 
 1563000   0.63124928   -7.6110977    322.35367  0.017186696  0.016303443           16 
 1564000   0.64787441   -7.6250643    321.81391  0.017146947  0.016291016           13 
 1565000   0.62458026   -7.6041935    321.76233  0.017133245   0.01627857           14 
 1566000   0.62862075   -7.6517107    322.14398  0.017142613  0.016266173           20 
 1567000   0.61949791   -7.6174925    322.33595  0.017141882  0.016253774           15 
 1568000   0.62150481   -7.6121667    322.10648  0.017118754  0.016241397           20 
 1569000   0.61668959   -7.6083093    322.07876  0.017106371  0.016229026           11 
 1570000    0.6266837   -7.6001368    322.02254  0.017092491  0.016216685           11 
 1571000   0.63047892   -7.6252373    321.69913  0.017064456  0.016204353           15 
 1572000   0.63335568   -7.6208012     321.8467  0.017061424  0.016192042           10 
 1573000   0.62875795   -7.6239195    321.99229   0.01705829  0.016179699           22 
 1574000   0.61875989   -7.6263698    322.53177  0.017076015  0.016167346           11 
 1575000   0.63275366   -7.6382451    322.31925  0.017053928  0.016155005           13 
 1576000   0.62974029   -7.6311234    321.97121  0.017024705  0.016142696            9 
 1577000   0.62830793   -7.6250255    322.62552  0.017048485  0.016130406           16 
 1578000   0.62907237   -7.6078474    321.50654  0.016978588  0.016118123           11 
 1579000   0.62189914   -7.6170535    322.04753  0.016996386  0.016105843           24 
 1580000   0.62522485   -7.6287193    321.69485  0.016967028  0.016093556           19 
 1581000   0.60714337    -7.620349    322.05488  0.016975273   0.01608131           19 
 1582000   0.61748508   -7.6210234    321.78145  0.016950139  0.016069058           12 
 1583000   0.61559829   -7.6244501     322.0599   0.01695409    0.0160568           17 
 1584000    0.6266554   -7.6335827    322.04737  0.016942728  0.016044548           15 
 1585000   0.61857927   -7.6183283     321.5344  0.016905069   0.01603231           31 
 1586000   0.62900136   -7.6210558    321.48608  0.016891871  0.016020074           14 
 1587000     0.628333   -7.6350754    321.88858  0.016902362  0.016007866           11 
 1588000   0.61211246   -7.6262952    322.73835  0.016936311  0.015995641           13 
 1589000   0.63805612   -7.6410117    321.87739  0.016880501  0.015983443           15 
 1590000   0.61331794   -7.6515744    321.64093  0.016857491  0.015971207           10 
 1591000   0.62685632   -7.6375227    321.67221  0.016848534  0.015959028            9 
 1592000   0.61055625   -7.6394312    322.09095  0.016859869   0.01594686           10 
 1593000   0.60860982   -7.6416521    322.04853  0.016847067  0.015934676            7 
 1594000   0.62557462   -7.6130402    322.32416  0.016850908  0.015922527           17 
 1595000    0.6127924   -7.6274573    322.73955  0.016862046  0.015910379           19 
 1596000   0.62162859   -7.6351694     321.9454  0.016810015  0.015898224           20 
 1597000   0.63080717   -7.6267557    322.24745   0.01681525  0.015886096           13 
 1598000    0.6089001   -7.6361798    321.90802  0.016787027  0.015873978           12 
 1599000   0.63243811   -7.6672216    322.69971  0.016817787  0.015861841           11 
 1600000   0.62804593   -7.6570175       322.69  0.016806771  0.015849727           12 
 1601000   0.60669739   -7.6396862    322.00682  0.016760713  0.015837592           28 
 1602000   0.61007887   -7.6409348     322.4805  0.016774891  0.015825501           22 
 1603000   0.63653148   -7.6450171    321.75909  0.016726923  0.015813386           44 
 1604000   0.60947076   -7.6422153    321.56028  0.016706166  0.015801286           38 
 1605000   0.62179246   -7.6563994    321.76496  0.016706384  0.015789193           67 
 1606000   0.61818422   -7.6653497    322.56926  0.016737716    0.0157771           54 
 1607000   0.59614174   -7.6426296    321.82479  0.016688695  0.015765039           26 
 1608000   0.61841173   -7.6099026    322.75255  0.016726397  0.015752973           23 
 1609000   0.60415571   -7.6501594    321.82798  0.016668116  0.015740897           21 
 1610000   0.61904496   -7.6434853    322.32743  0.016683615  0.015728844            9 
 1611000   0.60427243   -7.6633062          322  0.016656321   0.01571679           17 
 1612000   0.59796709   -7.6560818    322.12408  0.016652403  0.015704757           17 
 1613000    0.6055275   -7.6531558    322.32435  0.016652425  0.015692729           15 
 1614000   0.59887994   -7.6641742    321.66071  0.016607843  0.015680682            9 
 1615000   0.60554971    -7.683771    321.72513  0.016600884  0.015668646           18 
 1616000   0.61589742   -7.6832101    322.04899  0.016607312  0.015656603           12 
 1617000   0.60190692   -7.6493174    321.54243  0.016570935   0.01564457           16 
 1618000   0.60610625   -7.6701461    322.05244  0.016586961  0.015632541           14 
 1619000   0.60218397   -7.6758203     321.9115  0.016569462  0.015620508            8 
 1620000   0.60816321   -7.6648977    321.69462  0.016548077  0.015608496           15 
 1621000   0.61242673   -7.6556289    321.67702  0.016536964  0.015596493            9 
 1622000    0.6192101   -7.6550909    321.86444  0.016536398  0.015584512            7 
 1623000   0.60488523   -7.6741652     321.6276  0.016514048  0.015572512           12 
 1624000   0.60071814   -7.6583051    321.77407  0.016511395  0.015560513           15 
 1625000   0.60611963   -7.6753771    321.53777  0.016489117  0.015548501           11 
 1626000   0.61174187   -7.6516266    321.37888  0.016470832  0.015536529            9 
 1627000   0.60583758   -7.6695445    322.31647  0.016508731  0.015524561           17 
 1628000   0.59330662   -7.6728708    321.92514  0.016478559  0.015512602           15 
 1629000   0.59820854   -7.6655227    321.33251  0.016438127  0.015500651           13 
 1630000   0.58846552   -7.6543682    321.75749  0.016449769  0.015488697           12 
 1631000    0.5965664   -7.6756452    321.80423  0.016442072  0.015476752           25 
 1632000    0.5936366   -7.6824506    321.87313  0.016435515  0.015464826            9 
 1633000    0.6043037   -7.6415869    321.01997  0.016381913  0.015452901           11 
 1634000   0.59973263   -7.6885563    321.90598  0.016417073  0.015440983           14 
 1635000   0.58640468   -7.6885097    321.57502  0.016390164  0.015429093           18 
 1636000    0.5854454   -7.6831664    321.63642  0.016383273    0.0154172           18 
 1637000   0.60580297   -7.6743545    321.99906  0.016391726  0.015405319           18 
 1638000   0.58761318   -7.6704212    321.24296  0.016343252  0.015393451           15 
 1639000   0.60764033    -7.668474    321.64676  0.016353811  0.015381577           18 
 1640000   0.60276633   -7.6796584    322.11133  0.016367446  0.015369731           16 
 1641000   0.60545924   -7.6846458    323.02213  0.016403724  0.015357924           20 
 1642000   0.59119566   -7.6831797    322.38199  0.016361246  0.015346129           19 
 1643000   0.61466995   -7.6772384    321.68543  0.016315958  0.015334334           13 
 1644000   0.59497038   -7.6870099    321.80933  0.016312314  0.015322559           17 
 1645000   0.59933298   -7.6783208    321.84337  0.016304122  0.015310778           22 
 1646000   0.59072074    -7.678486    321.62666  0.016283245   0.01529902           23 
 1647000   0.60276288   -7.6708196    322.00082   0.01629229  0.015287245           21 
 1648000   0.60146612   -7.6781274    321.17654  0.016240723  0.015275513           16 
 1649000   0.59686972   -7.6738906    321.55948  0.016250226   0.01526379           16 
 1650000    0.5825497   -7.6883071    321.78015  0.016251523  0.015252049           22 
 1651000    0.6134482   -7.6910683    322.17695  0.016261708  0.015240333           20 
 1652000   0.59093416   -7.7009479    321.45679  0.016215536  0.015228606           30 
 1653000   0.59198953   -7.6775084    321.76061  0.016221043  0.015216888           26 
 1654000   0.59099261   -7.7009824      322.076  0.016227126  0.015205166           15 
 1655000   0.58418655    -7.683797    321.46557  0.016186585  0.015193444           13 
 1656000   0.59535978   -7.6941232    321.93643  0.016200505  0.015181734           11 
 1657000   0.58708252    -7.679926    321.54858  0.016171222  0.015170036           20 
 1658000   0.60057091   -7.7140401    321.39733  0.016153867  0.015158332           16 
 1659000    0.5918589   -7.6993363     321.4614  0.016147348  0.015146637           19 
 1660000   0.59276442   -7.6839195    321.09313  0.016119133  0.015134927           18 
 1661000    0.5857576   -7.7053932    321.56847  0.016133277  0.015123212           20 
 1662000   0.58928571   -7.7017727    321.88769  0.016139575  0.015111525           15 
 1663000   0.58608327   -7.6945899    321.47791  0.016109336   0.01509981           19 
 1664000   0.57822602   -7.7024552    321.66937  0.016109243  0.015088117           21 
 1665000   0.60227998   -7.6992594    321.75024  0.016103616  0.015076456           23 
 1666000    0.5883184   -7.6933839    321.30098  0.016071477  0.015064798           37 
 1667000    0.5870439   -7.7017791    321.36053  0.016064814  0.015053142           26 
 1668000   0.58393628    -7.706703    321.89383  0.016081826  0.015041486           31 
 1669000   0.58522562   -7.7135671    321.07721  0.016031417  0.015029827           21 
 1670000   0.58526812   -7.6999892     321.4307  0.016039456  0.015018173           16 
 1671000   0.58464305   -7.7198631    321.07932  0.016012334  0.015006518           19 
 1672000   0.57163206   -7.7119787    321.50269  0.016023858  0.014994869           12 
 1673000   0.58685856   -7.7095931    320.94689  0.015986596  0.014983215           27 
 1674000   0.59533823    -7.707437    321.34789  0.015997008  0.014971606           17 
 1675000   0.57516313   -7.7168467    320.74445  0.015957436  0.014959986           14 
 1676000   0.58932207   -7.7067758    321.26077  0.015973586  0.014948354           20 
 1677000   0.57972293    -7.724701    321.33129  0.015967566  0.014936755           18 
 1678000   0.57905682    -7.715876    321.16371  0.015949728  0.014925164           16 
 1679000   0.57346649   -7.7114252    321.66665   0.01596519  0.014913567           19 
 1680000   0.57699773   -7.7216888     321.3355  0.015939261  0.014901972           20 
 1681000    0.5826576   -7.7178985    321.14083  0.015920129  0.014890396           14 
 1682000   0.58307676   -7.7178789    321.49381  0.015928151  0.014878829           15 
 1683000   0.57867537   -7.7257671    321.50346  0.015919165  0.014867268           14 
 1684000   0.58800599   -7.7362087    320.93443  0.015881553  0.014855716           13 
 1685000   0.58871663   -7.7141127    321.66046  0.015908035  0.014844184           19 
 1686000   0.58782415    -7.702157    321.05117  0.015868484  0.014832658           12 
 1687000   0.57973121   -7.7171706    321.53242   0.01588285  0.014821144           15 
 1688000   0.58709077    -7.712514    320.93337  0.015843867  0.014809634           17 
 1689000   0.58549043   -7.7290657    321.05852  0.015840661  0.014798128           10 
 1690000   0.57673227   -7.7473662    321.12143   0.01583439  0.014786627           15 
 1691000   0.56937966   -7.7110904    321.27551  0.015832619   0.01477514           24 
 1692000   0.58152893   -7.7244384    321.87305  0.015852692  0.014763662           16 
 1693000   0.58061036    -7.745114    320.70354  0.015785762  0.014752198           21 
 1694000    0.5691995   -7.7513057      321.032  0.015792601  0.014740721           14 
 1695000   0.56592675     -7.72971    321.09903   0.01578658  0.014729251           15 
 1696000   0.58683184   -7.7374798    321.25912  0.015785138  0.014717789           15 
 1697000   0.57182995   -7.7184135    321.48047  0.015786706  0.014706367           11 
 1698000   0.56633271   -7.7234051    320.86244  0.015747077  0.014694951           14 
 1699000   0.57159213   -7.7379549    320.87577  0.015738462  0.014683525           23 
 1700000   0.56450545   -7.7284075    320.91184  0.015730972  0.014672114           19 
 1701000   0.57905413   -7.7210367    321.25555  0.015738563  0.014660712           13 
 1702000   0.57853497    -7.726691    321.87284   0.01575954  0.014649327           15 
 1703000   0.57381797   -7.7381904    321.15356  0.015715089  0.014637979           13 
 1704000   0.57868298    -7.746918    321.26676  0.015711403   0.01462662           22 
 1705000   0.57707739   -7.7402998    320.89721  0.015684126  0.014615268           26 
 1706000   0.56543834   -7.7359355    321.11369  0.015685506  0.014603902           20 
 1707000   0.57145953   -7.7286818    320.51445  0.015647064  0.014592543           11 
 1708000   0.58087522   -7.7428002    320.92147  0.015657761  0.014581193           20 
 1709000   0.57698619   -7.7448434    320.64685  0.015635208  0.014569871           23 
 1710000   0.57814279   -7.7378032    320.93407  0.015640062  0.014558559           18 
 1711000   0.56545655   -7.7238242    321.19291  0.015643528  0.014547267           23 
 1712000   0.57636173   -7.7513077     321.6311  0.015655719  0.014535981           19 
 1713000   0.57678354   -7.7412658    320.89218  0.015610633  0.014524698           22 
 1714000   0.57950084   -7.7674008     320.8888  0.015601361  0.014513407           10 
 1715000   0.56172146   -7.7507661    321.20925  0.015607835  0.014502139           15 
 1716000   0.56317406   -7.7294653    320.65984  0.015572059  0.014490876           21 
 1717000   0.56541004   -7.7428789    320.91305  0.015575279  0.014479621           35 
 1718000   0.57209971   -7.7636267    320.96689  0.015568825  0.014468364           13 
 1719000   0.56125068   -7.7553316    320.86763  0.015554956  0.014457136           16 
 1720000   0.56766652   -7.7543517    321.00916   0.01555277  0.014445917           19 
 1721000   0.57004985   -7.7584058    320.95195  0.015540962   0.01443471           28 
 1722000   0.56743121   -7.7436254    320.48285  0.015509236  0.014423516           17 
 1723000   0.56241521   -7.7533937     321.2551  0.015537585   0.01441233           22 
 1724000    0.5581244   -7.7593762    321.50892  0.015540841  0.014401159           55 
 1725000   0.56248059   -7.7549527    320.97822  0.015506194  0.014389971           18 
 1726000   0.56113707   -7.7533036    321.45364  0.015520164   0.01437879           10 
 1727000   0.57296436   -7.7753963    321.30814  0.015504157  0.014367649           17 
 1728000    0.5798243    -7.771418    320.91366   0.01547616  0.014356486           14 
 1729000   0.56812038   -7.7544386    320.63736  0.015453892  0.014345333           15 
 1730000   0.55863692   -7.7529691    321.36839  0.015480173  0.014334184           19 
 1731000   0.55925524   -7.7673716    320.83293  0.015445452  0.014323057           17 
 1732000   0.56256298   -7.7662504    320.88452  0.015439017  0.014311934           14 
 1733000   0.56182214   -7.7507913    321.28803  0.015449511  0.014300831           13 
 1734000   0.54492253   -7.7433187    321.06793  0.015430024  0.014289751           11 
 1735000   0.55880574   -7.7592531    321.28623  0.015431615  0.014278668           13 
 1736000   0.55881616   -7.7631178    320.91893  0.015405095  0.014267602           12 
 1737000   0.55804415    -7.754608    321.13328  0.015406509  0.014256536           11 
 1738000   0.56766044   -7.7748061    320.67815  0.015375822   0.01424549           16 
 1739000   0.56169888   -7.7538679    321.02405  0.015383556  0.014234444            5 
 1740000   0.56901688   -7.7508422    320.74208  0.015361211  0.014223387           13 
 1741000   0.55615896   -7.7770871    321.09406  0.015369235   0.01421236           11 
 1742000   0.56254559   -7.7520632    320.87318  0.015349846  0.014201336           11 
 1743000   0.56513249   -7.7573875    321.01608  0.015347871  0.014190318           13 
 1744000   0.56990877   -7.7659775    321.19569  0.015347653  0.014179309           13 
 1745000   0.55795242   -7.7763535    320.85137  0.015322415  0.014168297            6 
 1746000   0.54544186   -7.7898619    320.57288  0.015300348  0.014157299           22 
 1747000   0.54549182   -7.7710733    321.15166  0.015319197  0.014146305           11 
 1748000   0.54010606   -7.7577253    320.85637  0.015296356  0.014135328           10 
 1749000   0.54855395   -7.7991048    320.79302  0.015284592  0.014124363           12 
 1750000   0.56206356   -7.7760896    320.72944  0.015272831  0.014113396           12 
 1751000   0.56603511   -7.7603386    320.36276  0.015246657  0.014102421           17 
 1752000   0.55015418   -7.7934239     320.9434  0.015265573  0.014091456            8 
 1753000    0.5597071   -7.7832918    320.89029   0.01525434  0.014080515            9 
 1754000   0.55318314    -7.761814      321.159  0.015258409   0.01406959           12 
 1755000   0.56098203   -7.7708105      320.595  0.015222934  0.014058668            9 
 1756000   0.55476736    -7.784198    320.57627  0.015213377  0.014047764           14 
 1757000    0.5536998   -7.7759101    320.43039  0.015197799   0.01403686           25 
 1758000   0.55217762   -7.7848711    320.32195  0.015184014  0.014025973           10 
 1759000   0.56273539   -7.7798033    321.13449  0.015213876  0.014015088            6 
 1760000   0.53898371   -7.7681215    320.82878  0.015190757  0.014004231            9 
 1761000   0.55098672   -7.7849501     320.9579   0.01518824  0.013993386           15 
 1762000   0.54665754   -7.7955711    320.76524  0.015170509  0.013982538           12 
 1763000   0.54711043   -7.7957854    321.03175  0.015174502  0.013971711            8 
 1764000    0.5485967   -7.7822771    320.79853  0.015154881  0.013960878           10 
 1765000   0.54181086    -7.791656    320.64988  0.015139277   0.01395004           14 
 1766000   0.54653167   -7.7684823    320.80316  0.015137937  0.013939219           10 
 1767000   0.54607378   -7.7685946    320.65311  0.015122293  0.013928413           10 
 1768000   0.53899846    -7.788468    320.54624  0.015108703   0.01391762           13 
 1769000   0.54718621   -7.7970144    320.78642  0.015111476  0.013906835            7 
 1770000   0.54902396   -7.7849368    320.81064  0.015104079  0.013896059           11 
 1771000   0.55602944   -7.7814556    321.05469  0.015107034  0.013885291           11 
 1772000   0.54958414   -7.7897441    321.16188   0.01510355  0.013874538           12 
 1773000   0.54695491   -7.7651676    320.38858  0.015058685  0.013863785           15 
 1774000   0.55563375   -7.7857545    320.82843  0.015070858  0.013853044           15 
 1775000   0.54872529   -7.8032083    320.30814  0.015037941  0.013842311           13 
 1776000   0.54275511   -7.7969447    320.89688  0.015057098  0.013831589           10 
 1777000   0.53854422   -7.7954767    320.72359  0.015040498   0.01382084           12 
 1778000   0.54216316   -7.8025602     320.5219  0.015022586  0.013810107           12 
 1779000   0.53470545   -7.7941755     320.1759  0.014997934  0.013799388           26 
 1780000   0.51982978   -7.7998323    320.57798  0.015008332  0.013788677           14 
 1781000   0.55021949   -7.8052022    320.44964  0.014993901   0.01377799           15 
 1782000   0.53608448   -7.7819946    320.79153  0.015001475  0.013767319           16 
 1783000   0.53682538   -7.7801354     321.0697  0.015006062  0.013756668           24 
 1784000   0.53863188   -7.7854837    320.34957  0.014964012  0.013746008           15 
 1785000   0.54598553   -7.7913747    320.49985  0.014962645  0.013735358           10 
 1786000   0.53357002   -7.7909973    320.43344  0.014951168  0.013724714           24 
 1787000   0.53003232   -7.7788483    320.83944  0.014961735  0.013714071           13 
 1788000   0.53784547   -7.7947103    320.83438  0.014953131   0.01370343           13 
 1789000   0.54795011   -7.7826534    320.44139  0.014926467  0.013692804           18 
 1790000   0.54288825   -7.7942279    320.14069  0.014904129  0.013682177           14 
 1791000   0.53562775   -7.8005192    320.66003  0.014919972  0.013671551           29 
 1792000   0.53891375   -7.7943593    320.45982  0.014902335   0.01366095           11 
 1793000   0.54056618   -7.8092115     320.7375   0.01490693  0.013650365           19 
 1794000   0.54176608   -7.7947401    320.62398  0.014893347  0.013639763           13 
 1795000   0.52595313   -7.8176315    320.44836  0.014876897  0.013629173           12 
 1796000   0.52282934   -7.8005563    320.47315  0.014869764  0.013618584           12 
 1797000    0.5300562   -7.8051799    320.47041  0.014861362  0.013608008           18 
 1798000   0.53403475   -7.8027844    320.39979  0.014849823  0.013597443           16 
 1799000    0.5291168   -7.8124428    320.06552  0.014826085  0.013586888           15 
 1800000   0.54447558   -7.8117717    320.19649  0.014823911  0.013576338           15 
 1801000    0.5254484   -7.8245664    320.53709   0.01483144  0.013565785           15 
 1802000   0.54113561   -7.8079559    320.36652  0.014815322   0.01355525           14 
 1803000   0.52192949   -7.8038664    320.42605  0.014809856  0.013544725           21 
 1804000   0.52267102   -7.8419768    320.59053  0.014809245   0.01353421           32 
 1805000   0.52302961   -7.8156926    320.30294  0.014787763  0.013523711           24 
 1806000   0.54963901   -7.8079227    320.49898   0.01478862   0.01351322           17 
 1807000    0.5299963   -7.8219271    320.21704  0.014767434  0.013502724           25 
 1808000   0.53954189   -7.8331451    320.88352  0.014789985   0.01349225           18 
 1809000   0.52826312   -7.8064912     320.2335  0.014751866  0.013481786           20 
 1810000   0.52288311   -7.8251626    320.38154  0.014750531  0.013471332           17 
 1811000   0.52148577    -7.818476    320.22662  0.014735258  0.013460883            8 
 1812000   0.53283061   -7.8190738    320.21009  0.014726365  0.013450443           13 
 1813000   0.53104609   -7.8222527    320.85219  0.014747757  0.013440007           11 
 1814000   0.52353842   -7.8187961    320.13557  0.014706706  0.013429578           13 
 1815000   0.51743352   -7.8363042    320.60789  0.014720289  0.013419161           18 
 1816000   0.52913441   -7.8253045    319.99077  0.014683864  0.013408745           17 
 1817000   0.53779536   -7.8280309    320.62913   0.01470506  0.013398347           20 
 1818000   0.53159572   -7.8081089    320.26723  0.014680383   0.01338796           18 
 1819000   0.52672395   -7.8279072    320.22876   0.01467055  0.013377585           14 
 1820000   0.52782118   -7.8228841    319.90742  0.014647776  0.013367211           18 
 1821000   0.52433886   -7.8391643    320.28294  0.014656917  0.013356841           13 
 1822000   0.52341675   -7.8346964      319.784  0.014626052   0.01334648           12 
 1823000   0.52565959   -7.8351959    320.58996  0.014654871  0.013336105           14 
 1824000   0.52952916   -7.8228943    320.19887  0.014628969  0.013325758           16 
 1825000   0.52456917   -7.8317325    319.65403  0.014596074  0.013315429           33 
 1826000   0.51293894   -7.8344506    320.09764  0.014608326  0.013305102           13 
 1827000   0.52987087   -7.8343755    320.36229  0.014612401  0.013294772           12 
 1828000   0.51996072   -7.8092047    319.84203  0.014580691   0.01328446           10 
 1829000   0.52115405   -7.8324695     320.2281  0.014590309  0.013274158           11 
 1830000    0.5333772   -7.8370627    320.02129  0.014572919  0.013263857           16 
 1831000   0.52057148   -7.8288341    319.54602  0.014543329  0.013253561           15 
 1832000   0.52997463   -7.8397738    319.92463  0.014552612  0.013243273           18 
 1833000   0.51487077   -7.8356303    319.82827  0.014540293  0.013232998           15 
 1834000    0.5155232   -7.8202161     319.7568  0.014529116  0.013222739           13 
 1835000   0.52111761   -7.8586121    319.35294  0.014502858  0.013212465           16 
 1836000   0.52604723   -7.8286135    320.09582  0.014528677  0.013202205           12 
 1837000   0.52497962   -7.8324863    319.67322  0.014501598  0.013191945           27 
 1838000   0.51525772   -7.8418994    319.59473  0.014490149  0.013181707            9 
 1839000   0.52058811    -7.830957    319.62489  0.014483636  0.013171474           17 
 1840000   0.53261386   -7.8368059    319.46461  0.014468506  0.013161249           13 
 1841000   0.51216823   -7.8497329    319.89908  0.014480313  0.013151038           20 
 1842000   0.51984839   -7.8422789    319.79283  0.014467645  0.013140839           14 
 1843000   0.51338616   -7.8567697    319.75705  0.014458177  0.013130647           10 
 1844000    0.5263874   -7.8549404    320.47264  0.014482675  0.013120457           11 
 1845000   0.51727429   -7.8497019    319.93566  0.014450572  0.013110298           19 
 1846000   0.52095743   -7.8370832     319.8627   0.01443945  0.013100136           12 
 1847000   0.51562282   -7.8529631    319.33431  0.014407792  0.013089978           20 
 1848000    0.5255253    -7.855727     319.8945  0.014425257  0.013079808           24 
 1849000   0.51817467   -7.8526219    319.81871  0.014414039  0.013069662           17 
 1850000   0.51328564   -7.8492302    319.95188  0.014412247  0.013059518           15 
 1851000   0.52383027   -7.8559007    319.96819  0.014405195  0.013049382           12 
 1852000   0.49861381   -7.8675561     319.5772  0.014379824  0.013039254           26 
 1853000   0.51278304   -7.8492081    319.54225  0.014370492  0.013029129           24 
 1854000   0.50309681   -7.8570598     319.2539   0.01434978  0.013019014           12 
 1855000   0.51029156   -7.8511534    320.35488  0.014391504  0.013008917           23 
 1856000   0.51168753   -7.8592691    319.55238  0.014347718  0.012998826           22 
 1857000   0.51234386   -7.8529383    319.97889  0.014359131  0.012988742           17 
 1858000   0.51649856   -7.8567318    319.93005  0.014349213  0.012978668           21 
 1859000   0.52021819   -7.8533557    319.21519  0.014309449  0.012968606           20 
 1860000   0.51020713    -7.861332    319.34867  0.014307736   0.01295855           18 
 1861000   0.51608806   -7.8663145    319.87282  0.014323519  0.012948508           15 
 1862000   0.50977392    -7.881406    320.06466  0.014324412   0.01293847           22 
 1863000   0.51254368    -7.852894    320.22082  0.014323708  0.012928443           11 
 1864000   0.49695186   -7.8715656     319.4344  0.014280866  0.012918415           17 
 1865000   0.50825038   -7.8676053    319.49029  0.014275706  0.012908394           16 
 1866000   0.50636929   -7.8545824    319.92696  0.014287556  0.012898382           12 
 1867000   0.50271365   -7.8519218     319.5232  0.014261882  0.012888384           18 
 1868000   0.50857329   -7.8462923    319.53742  0.014254881  0.012878385           14 
 1869000   0.49702414   -7.8637678    319.47966  0.014244679  0.012868408           18 
 1870000   0.50141004   -7.8534695    319.58715  0.014241852  0.012858433           18 
 1871000   0.50764451   -7.8560267    319.17073  0.014215692   0.01284846           15 
 1872000   0.50607266   -7.8677602    319.19696  0.014209266  0.012838489           14 
 1873000   0.49906493   -7.8647917    319.78559  0.014227869  0.012828521           27 
 1874000   0.50660995   -7.8835693    319.69224  0.014216126  0.012818562           31 
 1875000   0.50928434    -7.864926    319.66565  0.014207362  0.012808626           16 
 1876000   0.50822543   -7.8849162    319.59015  0.014196435  0.012798687           14 
 1877000    0.4940911   -7.8758637    320.06849  0.014210109  0.012788763           14 
 1878000   0.50508834   -7.8681143    319.79447  0.014190383  0.012778852           12 
 1879000   0.49033589   -7.8781759    319.21258  0.014157024  0.012768953           15 
 1880000   0.49954419   -7.8835684    319.71179  0.014171622   0.01275907           11 
 1881000   0.50529502   -7.8674011    319.26916  0.014144478  0.012749182           18 
 1882000   0.49478749   -7.8678271     319.2767  0.014137296  0.012739306           12 
 1883000   0.48189075   -7.8556563    319.16721  0.014124943  0.012729442           12 
 1884000   0.49630263   -7.8685767    319.45657  0.014130245  0.012719579           20 
 1885000   0.49980886   -7.8648115    319.54238  0.014126542  0.012709737           13 
 1886000   0.50915868   -7.8733006    319.10636  0.014099786   0.01269989           38 
 1887000   0.49503742   -7.8608194    319.62769  0.014115337  0.012690059            9 
 1888000   0.49710077    -7.872771     320.0589  0.014126893  0.012680233           19 
 1889000   0.50502951   -7.8726455    319.40067  0.014090377  0.012670417           10 
 1890000   0.50762313    -7.875789    319.25885  0.014076669  0.012660604           18 
 1891000   0.49289464   -7.8676487    319.42929  0.014076736  0.012650794           25 
 1892000    0.4947819   -7.8787446    319.65926  0.014079425  0.012640989           18 
 1893000   0.49302625   -7.8818367    319.43462  0.014062098  0.012631198           20 
 1894000   0.48970068   -7.8814579    319.19269  0.014044029  0.012621415           16 
 1895000    0.4944757   -7.8609457    319.16941  0.014035594  0.012611639           24 
 1896000   0.50139543   -7.8662673    319.48999  0.014042282  0.012601876           35 
 1897000   0.50034543   -7.8935131    318.92082  0.014009876   0.01259212           13 
 1898000    0.5000811   -7.8970738    319.14159  0.014012188   0.01258238           22 
 1899000   0.49786067   -7.8804931    319.22253  0.014008361  0.012572645           13 
 1900000   0.48945999   -7.8990347    319.27624  0.014003344  0.012562914           23 
 1901000   0.50084758   -7.8817868    318.77545  0.013974024  0.012553202           18 
 1902000   0.50598081   -7.8887705    319.55259  0.014000727  0.012543498           16 
 1903000   0.49164588    -7.881189    318.74453  0.013957984  0.012533799           17 
 1904000   0.48415917   -7.8865382    319.32465  0.013976044  0.012524112           19 
 1905000   0.50351099   -7.8917058    319.03883  0.013956204  0.012514425           13 
 1906000   0.49724985   -7.8900562    318.95557  0.013945242  0.012504749           12 
 1907000   0.49297265   -7.9044183    319.54789  0.013963813  0.012495085           13 
 1908000   0.48248733   -7.8930896    318.83225  0.013925238  0.012485425           13 
 1909000   0.48440166   -7.8894089     319.6136  0.013952052  0.012475775           18 
 1910000   0.48592028    -7.887558    318.76797  0.013907852  0.012466134           13 
 1911000   0.49511999   -7.9011272    318.95156   0.01390858  0.012456502           12 
 1912000   0.48271857   -7.9019876     319.0675  0.013906359   0.01244687           16 
 1913000   0.49143451   -7.8934286    319.33927  0.013910928  0.012437252           20 
 1914000    0.4854574   -7.9004151    319.17726  0.013896606   0.01242764           22 
 1915000    0.4842201   -7.8882418    319.00019  0.013881645  0.012418041           18 
 1916000   0.49025605   -7.8954406    318.54365  0.013854543  0.012408441           27 
 1917000   0.48700058   -7.9078841    319.19285  0.013875537  0.012398862           20 
 1918000   0.49109236    -7.883165     319.7251  0.013891428  0.012389284           29 
 1919000   0.48649388   -7.8940737    319.07806  0.013856091  0.012379724           11 
 1920000   0.49282822   -7.8947022    319.38574  0.013862228  0.012370164           17 
 1921000   0.49137312   -7.8931893    319.21193  0.013847472  0.012360608           18 
 1922000    0.4856823   -7.8875371     318.9817  0.013830285  0.012351062           15 
 1923000   0.49360606    -7.903395    319.01853  0.013824689  0.012341525           17 
 1924000   0.47344481   -7.8974263    318.89562   0.01381218  0.012331991           16 
 1925000   0.48659274   -7.9002499    318.63531  0.013793737  0.012322466           37 
 1926000   0.47634377   -7.8733635    318.22189  0.013768687  0.012312947           11 
 1927000    0.4781471   -7.9044666    319.19479  0.013803615  0.012303441           19 
 1928000   0.48910432   -7.9182565    319.34213  0.013802824  0.012293937           10 
 1929000   0.48570967   -7.8990804    318.70988  0.013768355  0.012284452           12 
 1930000    0.4959185    -7.891463    319.39691  0.013790886  0.012274968           21 
 1931000   0.48489806   -7.9089479    318.60229  0.013749451  0.012265495           10 
 1932000   0.47317005   -7.9002354     319.2761  0.013771398  0.012256032           21 
 1933000   0.48511643   -7.8926815    318.94637  0.013750059  0.012246585           18 
 1934000    0.4821383   -7.9046275     318.3925  0.013719084  0.012237136           14 
 1935000   0.46775644   -7.9100783    319.30805  0.013751423  0.012227709           19 
 1936000   0.48295774   -7.9072598    319.17508  0.013738597  0.012218283           12 
 1937000   0.48489315   -7.9192695    318.81321  0.013715936  0.012208865           12 
 1938000   0.47652604    -7.897904    318.55677  0.013697832  0.012199458           14 
 1939000   0.48542625   -7.9144063    318.88886  0.013705039  0.012190047           16 
 1940000   0.47360226   -7.9111727    318.98402  0.013702063  0.012180645           21 
 1941000   0.48367393   -7.9106899    318.39671  0.013669788  0.012171256           19 
 1942000   0.47768116   -7.8947194    318.63582   0.01367301  0.012161877           10 
 1943000   0.48323965   -7.9123212    318.91311  0.013677866  0.012152498           16 
 1944000   0.46486156   -7.9040235    318.36033  0.013647133   0.01214312           23 
 1945000   0.48255434   -7.9171702    318.51295  0.013646656  0.012133765           24 
 1946000   0.47669971   -7.9214357    318.45206  0.013637036  0.012124407           18 
 1947000   0.47838029   -7.8875724    318.60534  0.013636592  0.012115068           19 
 1948000   0.47543759   -7.9215513    319.05668    0.0136489  0.012105738           10 
 1949000     0.478647   -7.8969284    318.67183  0.013625442  0.012096409           11 
 1950000   0.48097077   -7.9200234    318.37753  0.013605877  0.012087086           13 
 1951000   0.47023745   -7.9134422    318.83131  0.013618286  0.012077777           16 
 1952000   0.48681139   -7.9196563    318.25946  0.013586896  0.012068478           18 
 1953000   0.47560676   -7.9230952    318.50682  0.013590494  0.012059191           24 
 1954000   0.47733263   -7.9087157    318.50092  0.013583287  0.012049902           19 
 1955000   0.47260933   -7.9132472    318.61808  0.013581333  0.012040622           13 
 1956000   0.46660297   -7.9132509    318.48709  0.013568809  0.012031355           13 
 1957000   0.47078744   -7.9229087    318.17657  0.013548653  0.012022094            9 
 1958000   0.47479398   -7.9228401     318.9432  0.013574362  0.012012838           17 
 1959000   0.47213466   -7.9158722     318.4036  0.013544479  0.012003596           12 
 1960000    0.4596853   -7.9252274    318.47887  0.013540768  0.011994356           14 
 1961000   0.46149041   -7.9265007    318.56766  0.013537636  0.011985131           12 
 1962000   0.47817103   -7.9090898    318.56739  0.013530725  0.011975904           14 
 1963000   0.47147091   -7.9325894    318.78396  0.013533026   0.01196669           22 
 1964000   0.46261151   -7.9181584    317.92247  0.013489582  0.011957483           16 
 1965000   0.46230642   -7.9184068     318.1965  0.013494339  0.011948278           32 
 1966000   0.48284005   -7.9248803    318.81647  0.013513753  0.011939087           12 
 1967000   0.46112112    -7.932525    318.69522  0.013501746  0.011929902           18 
 1968000   0.46668608   -7.9260895    318.23806  0.013475528   0.01192073           14 
 1969000   0.46114355   -7.9279652    318.37821  0.013474615  0.011911569           27 
 1970000    0.4675531   -7.9132426    318.42977  0.013469956  0.011902418           14 
 1971000   0.46696773   -7.9392051    318.29118  0.013457263  0.011893272           14 
 1972000   0.46771567   -7.9173161    318.67942  0.013466845  0.011884136           16 
 1973000   0.45506228   -7.9290722    318.51275   0.01345298  0.011875012           19 
 1974000    0.4627678   -7.9122931    318.50186  0.013445705  0.011865903           13 
 1975000   0.47029361   -7.9238586    318.62653  0.013444157  0.011856794           24 
 1976000   0.45554107     -7.91484    318.61285  0.013436777  0.011847696           15 
 1977000   0.46274968   -7.9279829    317.99142  0.013403786  0.011838601           25 
 1978000   0.45849287   -7.9172222     318.4555  0.013416561  0.011829524           28 
 1979000   0.46730796   -7.9272851    318.22922  0.013400253  0.011820451           11 
 1980000   0.46324184   -7.9251306     318.6602  0.013411624  0.011811382           12 
 1981000   0.46547356   -7.9259938     318.4242  0.013394927  0.011802328           14 
 1982000   0.47139137   -7.9365372    318.17605  0.013377735  0.011793268           14 
 1983000    0.4658465   -7.9247746    318.68775  0.013392492  0.011784219           22 
 1984000   0.45901611   -7.9420603    318.74434  0.013388119  0.011775186           33 
 1985000   0.45064185   -7.9403041    318.08938  0.013353878  0.011766161           14 
 1986000   0.46814531   -7.9376049    318.33624  0.013357513  0.011757142           14 
 1987000   0.45218354   -7.9267237    318.05952  0.013339185  0.011748123           17 
 1988000    0.4607549   -7.9320944    318.31007  0.013342977  0.011739111           15 
 1989000   0.46173882   -7.9361756    318.24585  0.013333579  0.011730105           14 
 1990000   0.46439136   -7.9395762    318.63726  0.013343269  0.011721114           11 
 1991000   0.47321256   -7.9350999    318.30893  0.013322825  0.011712133            8 
 1992000   0.46078638   -7.9360139    318.14306  0.013309197  0.011703159           13 
 1993000   0.46877947     -7.94254    318.10062  0.013300745  0.011694201           16 
 1994000   0.45937208   -7.9550998    318.37439  0.013305516  0.011685245           15 
 1995000   0.45411384   -7.9411198    318.41163  0.013300402  0.011676302           19 
 1996000   0.45144826   -7.9379546    318.23016  0.013286162   0.01166737           12 
 1997000   0.45130598   -7.9395775    318.31899  0.013283216  0.011658443           21 
 1998000    0.4596233   -7.9444383    318.38955  0.013279511  0.011649522           18 
 1999000   0.45123489    -7.936832    317.63932  0.013241592  0.011640613           24 
 2000000   0.44809096   -7.9620633    318.41724  0.013267385  0.011631707           14 
 2001000   0.45550121   -7.9473753    318.32759  0.013257021  0.011622804           14 
 2002000   0.45614605   -7.9371481    318.34304  0.013251042  0.011613914           19 
 2003000   0.45391517   -7.9697075    318.52794  0.013252119  0.011605034           28 
 2004000   0.44530044   -7.9425015    318.04705  0.013225509  0.011596159           18 
 2005000   0.45810389   -7.9442871    318.37796  0.013232667  0.011587291           16 
 2006000   0.43784726   -7.9520333    318.17675  0.013217711  0.011578433           16 
 2007000   0.43848569    -7.958846    318.23746  0.013213646  0.011569586           18 
 2008000    0.4478143   -7.9347992    317.97211  0.013196054  0.011560744           16 
 2009000   0.44910024   -7.9564113    318.25443  0.013201196  0.011551915           20 
 2010000    0.4411151   -7.9430389    318.51062   0.01320525  0.011543094           10 
 2011000   0.45760052   -7.9389187    318.09613  0.013181507  0.011534279           13 
 2012000   0.44784609   -7.9472365    318.46463  0.013190218  0.011525478           15 
Loop time of 4458.6 on 48 procs for 2000000 steps with 4000 atoms

Performance: 77513.137 tau/day, 448.571 timesteps/s
99.4% CPU use with 48 MPI tasks x no OpenMP threads

MPI task timing breakdown:
Section |  min time  |  avg time  |  max time  |%varavg| %total
---------------------------------------------------------------
Pair    | 278.88     | 292.43     | 305.19     |  36.4 |  6.56
Neigh   | 27.994     | 28.85      | 30.387     |   8.8 |  0.65
Comm    | 250.66     | 266.68     | 280.08     |  43.4 |  5.98
Output  | 4.6248     | 4.6267     | 4.6635     |   0.3 |  0.10
Modify  | 3806.9     | 3821.5     | 3835.1     |  10.6 | 85.71
Other   |            | 44.56      |            |       |  1.00

Nlocal:        83.3333 ave          91 max          76 min
Histogram: 3 1 5 4 12 6 8 3 5 1
Nghost:        1857.71 ave        1879 max        1841 min
Histogram: 1 2 9 12 10 1 7 3 2 1
Neighs:        11545.8 ave       12898 max       10268 min
Histogram: 2 3 6 4 10 6 11 3 2 1
FullNghs:      23091.1 ave       25633 max       20627 min
Histogram: 3 1 3 8 12 6 7 6 0 2

Total # of neighbors = 1108375
Ave neighs/atom = 277.09375
Neighbor list builds = 107641
Dangerous builds = 0

#clear
#
#next RN
#
#jump SELF
Total wall time: 1:14:21
