
units lj                  # Use reduced LJ style units
atom_style atomic         # Uncharged point particles
atom_modify map hash      # Needed for indexing of clusters etc
                          # Used to be able to find where atoms are in relation to each other.

lattice fcc 1.0 spacing 1 1 1
Lattice spacing in x,y,z = 1.5874011 1.5874011 1.5874011
region box block 0 10 0 10 0 10 units lattice
create_box 2 box
Created orthogonal box = (0.0000000 0.0000000 0.0000000) to (15.874011 15.874011 15.874011)
  3 by 4 by 4 MPI processor grid
create_atoms 1 box
Created 4000 atoms
  using lattice units in orthogonal box = (0.0000000 0.0000000 0.0000000) to (15.874011 15.874011 15.874011)
  create_atoms CPU = 0.015 seconds
set type 1 type/fraction 2 0.61 78393
Setting atom values ...
  2454 settings made for type/fraction
mass 1 1.0
mass 2 1.0
pair_style lj/cut  3.5
pair_modify tail  yes
pair_coeff 1  1  1.0  1.0   # Intearaction between 1 and 1 set with epsilon = 1 and sigma = 1
pair_coeff 1  2  1.5  0.8
pair_coeff 2  2  0.5  0.88

write_data data.0
System init for write_data ...
Neighbor list info ...
  update every 1 steps, delay 10 steps, check yes
  max neighbors/atom: 2000, page size: 100000
  master list distance cutoff = 3.8
  ghost atom cutoff = 3.8
  binsize = 1.9, bins = 9 9 9
  1 neighbor lists, perpetual/occasional/extra = 1 0 0
  (1) pair lj/cut, perpetual
      attributes: half, newton on
      pair build: half/bin/atomonly/newton
      stencil: half/bin/3d
      bin: standard
WARNING: Not all mixed pair coeffs generated from mixing. Use write_data with 'pair ij' option to store all pair coeffs. (../write_data.cpp:312)


#############################
#   M E L T   S Y S T E M   #
#############################

velocity all create 2.4 1741580 mom yes dist gaussian # Assign velocities
                                                    # Temperature 2.4, random number seed, zero linear momentum
                                                                                # Gaussian distribution

timestep 0.002   # simulation timestep
thermo 1000       # output thermodynamic data every 1000 steps bf 100

# Define a fix  in this case with index 1 applied to all
# particles in the simulation. This fix is for simulations
# in the anisotropic NPT ensemble. Note that we use the MTK
# correction.
fix 1 all npt temp 2.4 2.4 0.1 iso 5.68 5.68 0.5 mtk yes tchain 5 pchain 5 # Use NPT ensemble
                                                                         # Set temperature and pressure and damping
                                                                         # Numbers of thermostats in chain and in barostat
run 10000          # run for 10000 steps
Per MPI rank memory allocation (min/avg/max) = 3.642 | 3.644 | 3.648 Mbytes
Step Temp E_pair E_mol TotEng Press Volume 
       0          2.4   -4.6675525            0   -1.0684525   -4.0420614         4000 
    1000    2.4179839   -4.4158398            0  -0.78977063    5.4980035    3627.1623 
    2000    2.4356018   -4.4465887            0  -0.79409926    5.8863528    3582.1646 
    3000    2.3742464     -4.39305            0  -0.83257069    5.6113283    3625.7419 
    4000    2.4036645   -4.3971895            0  -0.79259412    5.7825685    3609.5103 
    5000    2.4140178   -4.3711122            0  -0.75099075    5.7386887    3622.9419 
    6000    2.3850398   -4.4430907            0  -0.86642534    5.5555686    3600.9786 
    7000    2.3971122   -4.4728392            0  -0.87806975     5.866615    3565.1716 
    8000    2.3817064   -4.3884502            0  -0.81678377    5.6441947    3632.9168 
    9000    2.4259295   -4.4068728            0  -0.76888833    5.5971335     3627.785 
   10000    2.4128676   -4.4087868            0  -0.79039013    6.0426937    3583.4809 
Loop time of 2.75038 on 48 procs for 10000 steps with 4000 atoms

Performance: 628277.639 tau/day, 3635.866 timesteps/s
99.5% CPU use with 48 MPI tasks x no OpenMP threads

MPI task timing breakdown:
Section |  min time  |  avg time  |  max time  |%varavg| %total
---------------------------------------------------------------
Pair    | 1.1849     | 1.2649     | 1.3585     |   2.7 | 45.99
Neigh   | 0.21719    | 0.22407    | 0.24927    |   1.1 |  8.15
Comm    | 0.80818    | 0.92073    | 0.99708    |   4.6 | 33.48
Output  | 0.00024134 | 0.00024741 | 0.0003076  |   0.0 |  0.01
Modify  | 0.25424    | 0.32511    | 0.40539    |   8.8 | 11.82
Other   |            | 0.01532    |            |       |  0.56

Nlocal:        83.3333 ave          91 max          73 min
Histogram: 2 2 3 4 5 7 11 5 5 4
Nghost:        1769.46 ave        1805 max        1743 min
Histogram: 3 5 7 12 1 10 5 2 0 3
Neighs:        10642.1 ave       11885 max        9164 min
Histogram: 2 2 2 7 6 9 6 8 2 4

Total # of neighbors = 510819
Ave neighs/atom = 127.70475
Neighbor list builds = 908
Dangerous builds = 231

# Equilibrate just above the melting temperature to avoid step fn in T

fix 1 all npt temp 1.25 1.25 0.1 iso 5.68 5.68 0.5 mtk yes tchain 5 pchain 5
run 2000
Per MPI rank memory allocation (min/avg/max) = 3.644 | 3.646 | 3.650 Mbytes
Step Temp E_pair E_mol TotEng Press Volume 
   10000    2.4128676   -4.4087868            0  -0.79039013    6.0426937    3583.4809 
   11000    1.2659657   -6.4826011            0   -4.5841272    5.7486157    2759.4743 
   12000    1.2461774   -6.5666072            0   -4.6978084    5.6220006    2740.3362 
Loop time of 0.717528 on 48 procs for 2000 steps with 4000 atoms

Performance: 481653.688 tau/day, 2787.348 timesteps/s
99.5% CPU use with 48 MPI tasks x no OpenMP threads

MPI task timing breakdown:
Section |  min time  |  avg time  |  max time  |%varavg| %total
---------------------------------------------------------------
Pair    | 0.29266    | 0.32179    | 0.37085    |   2.3 | 44.85
Neigh   | 0.040303   | 0.043694   | 0.068522   |   1.8 |  6.09
Comm    | 0.22119    | 0.27005    | 0.298      |   2.8 | 37.64
Output  | 4.8762e-05 | 4.9802e-05 | 6.4726e-05 |   0.0 |  0.01
Modify  | 0.037092   | 0.077187   | 0.084144   |   3.3 | 10.76
Other   |            | 0.004757   |            |       |  0.66

Nlocal:        83.3333 ave          89 max          78 min
Histogram: 2 7 3 9 6 7 3 2 4 5
Nghost:        2114.60 ave        2132 max        2097 min
Histogram: 1 3 7 1 11 10 6 4 3 2
Neighs:        13944.0 ave       15317 max       12476 min
Histogram: 2 4 6 2 4 13 3 9 3 2

Total # of neighbors = 669314
Ave neighs/atom = 167.32850
Neighbor list builds = 142
Dangerous builds = 5

#############################
# L I N E A R  Q U E N C H  #
#############################

# Define solid atoms. This closely follows ten Wolde  Ruiz-Montero and Frenkel  Faraday Discuss  1996  104  93-110
# Compute components of the per-atom q6 vector
compute q6 all orientorder/atom degrees 1 6 components 6 nnn NULL cutoff 1.3 # compute the Q6 parameter.
                                                                             # Use all neighbours within 1.3 unit cell.

# get number of connections
compute coord_number all coord/atom orientorder q6 0.5

# An atom is solid if it has 8 or more connections (of a possible 14)
variable is_solid atom c_coord_number>=8
group solid dynamic all var is_solid    # Must be dynamic to update
dynamic group solid defined

# do clustering
compute cluster solid cluster/atom 1.3 # Create a cluster where all atoms within are solid and max 1.3 units from another member

# define chunks one chunk per cluster
compute clus_chunks solid chunk/atom c_cluster nchunk every compress yes  # Says which atoms are in which chunk

# count the size of each chunk
compute size_chunks solid property/chunk clus_chunks count


# Find the maximum entry in the vector of chunk sizes
variable max_n equal max(c_size_chunks)


# Thermo style which includes this variable
# thermo_style custom step temp pe vol v_max_n

thermo ${N}  # Print the thermo information every 100 steps
thermo 1000  

# Reset the npt fix at a lower temperature (below freezing)
fix 1  all npt temp  ${temp} ${temp}  0.1  iso  5.68  5.68  0.5  mtk yes tchain  5  pchain  5
fix 1  all npt temp  0.45 ${temp}  0.1  iso  5.68  5.68  0.5  mtk yes tchain  5  pchain  5
fix 1  all npt temp  0.45 0.45  0.1  iso  5.68  5.68  0.5  mtk yes tchain  5  pchain  5

dump dmp2 all dcd ${N} traj.dcd
dump dmp2 all dcd 1000 traj.dcd


compute msd all msd com yes
variable twopoint equal c_msd[4]/6/(step*dt+1.0e-6)
fix 9 all vector 10 c_msd[4]
variable fit equal slope(f_9)/6/(10*dt)
thermo_style custom step temp pe c_msd[4] v_twopoint v_fit v_max_n

fix 1 all npt temp 1.25 ${temp} 0.1 iso 5.68 5.68 0.5 mtk yes tchain 5 pchain 5
fix 1 all npt temp 1.25 0.45 0.1 iso 5.68 5.68 0.5 mtk yes tchain 5 pchain 5
run 5000000 # 5000000  # Run for this many steps
Neighbor list info ...
  update every 1 steps, delay 10 steps, check yes
  max neighbors/atom: 2000, page size: 100000
  master list distance cutoff = 3.8
  ghost atom cutoff = 3.8
  binsize = 1.9, bins = 8 8 8
  4 neighbor lists, perpetual/occasional/extra = 1 3 0
  (1) pair lj/cut, perpetual
      attributes: half, newton on
      pair build: half/bin/atomonly/newton
      stencil: half/bin/3d
      bin: standard
  (2) compute orientorder/atom, occasional
      attributes: full, newton on
      pair build: full/bin/atomonly
      stencil: full/bin/3d
      bin: standard
  (3) compute coord/atom, occasional
      attributes: full, newton on
      pair build: full/bin/atomonly
      stencil: full/bin/3d
      bin: standard
  (4) compute cluster/atom, occasional
      attributes: full, newton on
      pair build: full/bin/atomonly
      stencil: full/bin/3d
      bin: standard
Per MPI rank memory allocation (min/avg/max) = 9.846 | 9.851 | 9.855 Mbytes
Step Temp PotEng c_msd[4] v_twopoint v_fit v_max_n 
   12000    1.2461774   -6.5666072 9.7779309e-31 6.7902295e-33 8.3333333e+20            2 
   13000    1.2302842   -6.5425723   0.50822498 0.0032578523  0.042760121            2 
   14000    1.2574518   -6.6217799   0.92909209 0.0055303098  0.038307159            2 
   15000    1.2472997   -6.5423331    1.3846658 0.0076925875  0.037479538            2 
   16000    1.2548073   -6.5392313    1.8128868 0.0094421186  0.037021727            6 
   17000    1.2471742   -6.5241081    2.2571069  0.011064249  0.036640685            3 
   18000    1.2455563   -6.5989983    2.6799174  0.012407025   0.03652388            4 
   19000    1.2319314    -6.563404    3.0769589  0.013495433  0.036337641            2 
   20000    1.2305171    -6.521582    3.4806173  0.014502572  0.035961805            6 
   21000     1.243056   -6.5467695    3.9144729  0.015533622  0.035683194            2 
   22000    1.2518938   -6.5792985    4.3532979  0.016489764  0.035564496            1 
   23000    1.2355036   -6.5342023     4.813043  0.017438561  0.035625453            4 
   24000    1.2406331   -6.5525225    5.1509144  0.017885119  0.035538171            2 
   25000    1.2664846   -6.4912705    5.6655638  0.018885212  0.035533882            1 
   26000    1.2448764   -6.5469806    6.1203548  0.019616521  0.035626964            3 
   27000    1.2618181   -6.5403923    6.6060925  0.020389174  0.035814764            1 
   28000    1.2528444   -6.5327745    7.0422567  0.020959097  0.035941938            2 
   29000    1.2341049   -6.5501411    7.4867772  0.021513727  0.036099494            2 
   30000    1.2226115   -6.5387314    8.0557046  0.022376957  0.036279528            5 
   31000    1.2734433   -6.5609797    8.4756712  0.022784062    0.0364978            4 
   32000    1.2663615   -6.4884903    8.9428465  0.023288662  0.036675072            2 
   33000    1.2316844   -6.5527572    9.4303745  0.023814077  0.036869064            4 
   34000    1.2523827   -6.5131306    9.8542474  0.024152567  0.036980957            2 
   35000    1.2725434   -6.5462817    10.344142   0.02462891  0.037126493            1 
   36000    1.2395616   -6.6051575    10.828371  0.025065672  0.037274401            3 
   37000    1.2413757   -6.5238783    11.376102   0.02562185  0.037439134            1 
   38000    1.2515647   -6.5768689    11.875931  0.026043709  0.037625012            6 
   39000    1.2454687   -6.6002424    12.240947   0.02615587  0.037745939            2 
   40000    1.2328593   -6.6092251    12.666794  0.026389154  0.037810341            4 
   41000    1.2622396   -6.5640377    13.194633  0.026818359  0.037900686            5 
   42000    1.2588768   -6.5857802    13.680453  0.027143755  0.037965084            2 
   43000     1.238882   -6.4984536    14.161186  0.027444158  0.038024496            4 
   44000    1.2270414   -6.5815822    14.636731  0.027721081  0.038061503            2 
   45000    1.2537704   -6.5552264    15.144681  0.028045705  0.038105977            2 
   46000    1.2378381   -6.5871264    15.512634  0.028102597  0.038184258            4 
   47000    1.2384409   -6.5212433    16.046689  0.028451575  0.038220138            1 
   48000    1.2335868   -6.5103542    16.376128  0.028430778  0.038234346            3 
   49000    1.2264783   -6.5345669    16.842856  0.028644313  0.038233325            2 
   50000     1.233777   -6.5333258     17.22017  0.028700282  0.038231273            2 
   51000    1.2222036   -6.5355152    17.725722  0.028963598  0.038220523            2 
   52000    1.2554198   -6.5857671    18.148649  0.029084373  0.038215668            3 
   53000    1.2309678   -6.5405474    18.663139  0.029344558  0.038213294            3 
   54000    1.2429255   -6.5462668    19.044874  0.029390237  0.038207002            6 
   55000    1.2448664   -6.5781046    19.518829  0.029573984   0.03819319            2 
   56000    1.2400656   -6.5648522    19.850866  0.029539979  0.038171957            1 
   57000    1.2774118    -6.541282    20.251224  0.029607052  0.038129475            1 
   58000    1.2305164   -6.5604534    20.674147  0.029704234   0.03806622            1 
   59000    1.2790428    -6.571495    21.204465  0.029949809  0.038027342            1 
   60000    1.2355477   -6.5052813    21.608287  0.030011509  0.037993285            5 
   61000    1.2225296    -6.541432    22.105526  0.030198805  0.037968839            1 
   62000    1.2288218   -6.5899634    22.452085  0.030177533  0.037934136            2 
   63000    1.2576187   -6.6238375    22.848057  0.030222297   0.03790271            6 
   64000     1.230097    -6.652276    23.386117  0.030450673  0.037879513            5 
   65000    1.2494502   -6.6012317    23.927753  0.030676606  0.037858795            2 
   66000    1.2163511   -6.5991559    24.430779  0.030846943  0.037846859            2 
   67000    1.2206282   -6.6120992    24.791794  0.030835564  0.037841168            2 
   68000     1.253472   -6.5179543    25.301361   0.03100657  0.037827799            6 
   69000    1.2515097    -6.585346    25.837011  0.031204119   0.03782363            2 
   70000    1.2547623   -6.5516187    26.514315  0.031564661  0.037828836            3 
   71000     1.248695   -6.5540023     27.04686  0.031745141  0.037863338            1 
   72000     1.250065   -6.5536727    27.289374  0.031584923   0.03788109            2 
   73000    1.2177097   -6.5837527    27.677969  0.031595855  0.037888768            2 
   74000    1.2122016   -6.6347729    27.846882  0.031359101  0.037875457            2 
   75000    1.2028483   -6.6011797    28.412416  0.031569351  0.037867205            1 
   76000    1.2110584   -6.5955496    28.818316   0.03159903  0.037849595            4 
   77000    1.2597955   -6.5765362    29.213154  0.031615967  0.037833459            4 
   78000    1.2611554   -6.6091824    29.398309  0.031408449   0.03779636            1 
   79000    1.2388616    -6.588527    29.949944  0.031592767   0.03775507            2 
   80000    1.2539387   -6.5244333    30.506083  0.031777169  0.037726411            2 
   81000    1.2705754    -6.544148    30.953924  0.031845601  0.037693344            3 
   82000    1.2216235   -6.6043387    31.312351  0.031821494  0.037667989            1 
   83000    1.2305241   -6.6190598    31.592163  0.031719039  0.037636255            2 
   84000    1.2518528   -6.6037826    32.298241  0.032041906  0.037613305            5 
   85000    1.2396358    -6.573333    32.824666  0.032181045  0.037603761            6 
   86000    1.2329484   -6.5890644    33.086456   0.03206052  0.037581411            4 
   87000    1.2502501   -6.5940987    33.670783  0.032251707  0.037558956            4 
   88000    1.2400792   -6.5957892    34.246297  0.032430206  0.037545559            5 
   89000    1.2333173   -6.6044859    34.608632  0.032405086  0.037538301            1 
   90000    1.2141965    -6.575587    35.250954  0.032639772  0.037535604            2 
   91000    1.2530871   -6.5973799    35.628757  0.032627067  0.037538224            2 
   92000    1.2005066   -6.6188593     35.87202  0.032492771  0.037524876            3 
   93000    1.2286322   -6.6337286    36.024621  0.032280127  0.037507115            1 
   94000    1.2199703   -6.5760183    36.603087  0.032449545  0.037479506            4 
   95000      1.22979   -6.5604462    37.128096  0.032568505  0.037456005            1 
   96000    1.2229586   -6.6008631    37.567861   0.03261099   0.03743901            6 
   97000    1.2446739   -6.5642719    38.151694  0.032776369  0.037423292            1 
   98000    1.2473422   -6.5883095    38.539224  0.032771449  0.037412245            2 
   99000    1.2490366    -6.554963     38.89967   0.03274383  0.037401049            4 
  100000     1.245933   -6.5824141    39.332761  0.032777301  0.037387324            3 
  101000    1.2337922    -6.578349     39.94543  0.032958275  0.037386355            4 
  102000    1.2589722   -6.5790321    40.427427  0.033028944  0.037389206            3 
  103000    1.2043981   -6.6072175    40.614911   0.03285996  0.037387231            2 
  104000    1.2251598   -6.5949311    41.304886  0.033096864    0.0373838            2 
  105000    1.2252846   -6.5829114    41.438049  0.032887341  0.037373061            1 
  106000    1.2388928   -6.5584056    41.993436  0.033013707  0.037359739            9 
  107000    1.2415171   -6.5851799    42.306012  0.032948607   0.03734276            3 
  108000    1.2313509   -6.5662592    42.870944  0.033079432  0.037327959            2 
  109000    1.2613551    -6.580322    43.107788  0.032957024  0.037308155            2 
  110000     1.208419   -6.6247842     43.55585  0.032996856  0.037283294            2 
  111000    1.2839506   -6.6156565    43.929887  0.032980396   0.03726311            1 
  112000    1.2435404   -6.6364635    44.362254  0.033007629  0.037246818            3 
  113000    1.2406883    -6.603966    45.010682  0.033193718  0.037234605            3 
  114000    1.2501775   -6.6513967    45.273686    0.0330948  0.037224467            5 
  115000    1.2269934   -6.6117638    45.974454  0.033314822  0.037210652            2 
  116000     1.220609   -6.5424168    46.465114   0.03338011  0.037202602            2 
  117000    1.2543722   -6.5433836     46.88843  0.033396318  0.037194532            7 
  118000    1.2347682   -6.5966548    47.092133  0.033257156  0.037181765            2 
  119000    1.2561858   -6.5813307    47.489234  0.033255766  0.037167633            4 
  120000    1.2428772   -6.6404667    47.851547  0.033230241  0.037153934            1 
  121000    1.2427388   -6.6072431     48.36768  0.033311074  0.037136594            1 
  122000    1.2749399    -6.573205    48.681057  0.033252088  0.037114808            2 
  123000    1.2359897   -6.5918155    49.271503  0.033381777  0.037100905            3 
  124000    1.2351175   -6.5459192    49.921476  0.033549379  0.037090993            2 
  125000    1.2294835   -6.6272501    50.223623  0.033482415   0.03708605            2 
  126000    1.2096602   -6.5809987    50.733207  0.033553708  0.037081115            2 
  127000    1.2384447   -6.5747558    51.160343  0.033569779  0.037073051            2 
  128000    1.2450226   -6.6135864    51.320814  0.033411988  0.037063771            2 
  129000    1.2178602   -6.5921844    52.041103  0.033618284  0.037056003            3 
  130000    1.2562714   -6.6205942    52.379973  0.033576906  0.037045278            1 
  131000    1.2361776   -6.6477529    52.443951  0.033361292  0.037034218            3 
  132000     1.239938   -6.6149079    53.238733  0.033610311  0.037021625            2 
  133000    1.2267979   -6.5992227      53.6583  0.033620489   0.03700751            3 
  134000    1.2259006    -6.593873    54.120767  0.033657193  0.036995806            2 
  135000    1.2041819   -6.6165119    54.361723  0.033556619  0.036985959            3 
  136000    1.2351361   -6.5883553    54.861177  0.033615917  0.036973534            4 
  137000    1.2341723   -6.6075909    55.413902  0.033706753   0.03695927            2 
  138000    1.2240931   -6.6622059    55.458414   0.03348938  0.036948422            5 
  139000    1.2345928    -6.563597    56.304917  0.033755945  0.036937965            2 
  140000    1.2413872   -6.5146281    56.845271  0.033836471  0.036926664            2 
  141000    1.2502423   -6.5831806     57.01406  0.033696253  0.036917158            8 
  142000    1.2348368   -6.5641916    57.394416  0.033682169  0.036902144            3 
  143000    1.2326659   -6.5553649    57.856383  0.033715841  0.036886576            5 
  144000    1.2443951   -6.6039214    58.063883  0.033601784  0.036870217            1 
  145000    1.2334251   -6.5947091    58.586727  0.033670533  0.036851461            4 
  146000    1.2341274   -6.6308485    58.876381   0.03360524  0.036835193            2 
  147000    1.2493531   -6.6268378    59.728058  0.033859443  0.036824491            7 
  148000    1.2318567   -6.5985453    60.035857  0.033803974  0.036812411            4 
  149000    1.2048799   -6.6187066    60.039773  0.033579291  0.036797357            3 
  150000    1.2241199   -6.5871304     60.48677  0.033603761  0.036777411            5 
  151000    1.2187912   -6.6171953    60.976814  0.033651663  0.036757218            1 
  152000    1.2336829   -6.6317849    60.951678   0.03341649  0.036733773            2 
  153000    1.2331384   -6.6133096    61.618909  0.033561497  0.036708893            3 
  154000    1.2583254   -6.5864298    62.034605  0.033568509  0.036684154            2 
  155000    1.2134073   -6.5996178    62.116204  0.033395809  0.036657242            2 
  156000    1.2187712   -6.5772078    62.517836   0.03339628  0.036628665            2 
  157000    1.2000899    -6.613294    63.053416  0.033467843  0.036601025            5 
  158000    1.2235587   -6.5889018    63.452025  0.033466258  0.036572189            2 
  159000    1.2517241      -6.6074    63.782101  0.033428774  0.036541325            1 
  160000     1.237442   -6.5522549     64.37402  0.033528135  0.036510604            3 
  161000    1.2390757   -6.5810484    64.413718  0.033340434  0.036480052            4 
  162000    1.2177529   -6.6117134    64.596513  0.033228659  0.036450095            3 
  163000     1.221712   -6.5863836    65.104939  0.033284733  0.036417843            2 
  164000    1.2171371   -6.6421787    65.285879  0.033173719  0.036383986            1 
  165000    1.2366662   -6.6408026    65.613964  0.033138366  0.036347992            4 
  166000      1.20906   -6.6209696    66.163011  0.033214363  0.036315276            4 
  167000     1.221145   -6.6290204    66.981573  0.033423939   0.03628644            2 
  168000    1.2222489   -6.5829176    67.274469  0.033370272  0.036258004            2 
  169000     1.221956    -6.628781    67.249707  0.033160605  0.036225122            4 
  170000    1.1966061   -6.6239725    67.450305  0.033063875  0.036191606            3 
  171000    1.2443639   -6.5918632    68.134778  0.033204083  0.036159967            1 
  172000     1.248358   -6.6184263    68.390898  0.033135125  0.036128236            2 
  173000     1.217066   -6.6286871    68.529838  0.033010519  0.036095438            2 
  174000    1.2137699   -6.6317954    69.103344  0.033095471  0.036060891            3 
  175000    1.1916848   -6.6135208    69.523646  0.033106498  0.036028994            3 
  176000    1.2378083   -6.6658747    69.763746  0.033032077  0.035998758            2 
  177000    1.2358544   -6.6177757    70.228647  0.033064335  0.035965594            4 
  178000     1.250901   -6.5889981    71.032259  0.033254803  0.035932893            2 
  179000    1.2303061   -6.6224676    71.101394  0.033101208  0.035902459            2 
  180000    1.2144567   -6.5766313     71.71497  0.033201375  0.035873695            1 
  181000    1.2421822   -6.6163915     72.04723  0.033170916  0.035845403            2 
  182000    1.2307374   -6.6881469    71.999097  0.032966619  0.035817136            2 
  183000    1.2315602   -6.6165842     72.66185  0.033088274  0.035785396            1 
  184000     1.211551   -6.6367906    73.105297  0.033109283  0.035757134            3 
  185000    1.2294553   -6.6220272     73.46666   0.03309309  0.035728766            7 
  186000    1.2249001    -6.653632    73.957301  0.033134991  0.035702932            5 
  187000    1.2486884   -6.6967342    74.470839  0.033186648  0.035679477            1 
  188000    1.2298686   -6.6364096    74.711325  0.033116722  0.035656982            6 
  189000    1.2409692   -6.6078702    75.821809  0.033431133  0.035637203            2 
  190000    1.2197652   -6.5942687    76.604538  0.033598482  0.035621744            5 
  191000    1.2101828   -6.5915644    76.850674  0.033529962  0.035610193            1 
  192000    1.1900049   -6.5816401    77.377372  0.033583929  0.035601837            4 
  193000    1.2136444   -6.6221026    77.693493  0.033546413  0.035593179            4 
  194000    1.2488935   -6.6167576    78.455545  0.033700835  0.035585796            2 
  195000    1.2228778   -6.5893373    78.665761  0.033617846  0.035575801            4 
  196000    1.2091426   -6.6275097    78.945215  0.033565142  0.035565555            2 
  197000    1.2202291    -6.604623    79.498528  0.033628819  0.035557308            5 
  198000    1.2472637   -6.6389154    79.800161  0.033585926  0.035549671           10 
  199000    1.2293073   -6.6268383    80.360583  0.033651835  0.035542679            2 
  200000    1.2101731   -6.6163537    81.074817  0.033781173  0.035538028            1 
  201000    1.2383472    -6.641311    81.314978  0.033712677  0.035534143           10 
  202000    1.2255794   -6.6223275    81.649903  0.033683953  0.035528404            1 
  203000    1.2088763   -6.5895831    82.180058  0.033735656  0.035521475            6 
  204000    1.2171557   -6.5753762    82.269276   0.03360673   0.03551376            3 
  205000    1.2182449   -6.5991864     82.86941  0.033686752  0.035505486            3 
  206000    1.2036358   -6.6024976    83.509317  0.033782086  0.035495664            5 
  207000    1.2360638   -6.6337752    83.582916  0.033648517  0.035486025            3 
  208000    1.2082797   -6.6642463    83.451501  0.033434095  0.035474638            3 
  209000    1.2099938   -6.6321877    83.798768  0.033412587   0.03545942            2 
  210000    1.2252608    -6.636814     84.18627   0.03340725  0.035445861            3 
  211000    1.2266862   -6.6628372    84.949272  0.033550265  0.035432474            2 
  212000    1.2321431   -6.6190308    85.455052  0.033590822  0.035422046            2 
  213000    1.2478968   -6.6325537    85.830616  0.033580053  0.035415259            6 
  214000    1.1903314   -6.6594892    86.311513  0.033610402  0.035408695            3 
  215000    1.2171188   -6.6446687    86.348499   0.03346841  0.035398883            2 
  216000    1.1896843    -6.698607    86.736606  0.033463197    0.0353867            5 
  217000    1.2200022      -6.6543    87.354014  0.033546088  0.035376113            1 
  218000    1.2278882   -6.6398881    87.696378   0.03352308  0.035364416            2 
  219000    1.2066088   -6.6180263    87.883697  0.033441285  0.035350803            2 
  220000    1.2047819    -6.614009    88.437249  0.033498958  0.035337887            3 
  221000    1.1994282   -6.6429366    88.739136  0.033461213  0.035325954            2 
  222000    1.2187054   -6.6321328     89.33175  0.033532939  0.035316303            4 
  223000    1.2192805   -6.6141217    89.540198  0.033460463  0.035305403            5 
  224000    1.2259454   -6.6021834    90.135385  0.033532509  0.035294012            2 
  225000    1.2109205   -6.6453992    90.098217   0.03336971  0.035281252            5 
  226000    1.2270474   -6.6225047     90.72627  0.033453639  0.035266055            4 
  227000    1.2122427   -6.6508194    91.021562   0.03341467  0.035250831            1 
  228000    1.2099357   -6.6435972    91.023169  0.033268702  0.035234865            3 
  229000    1.1983106   -6.6198215    91.909174  0.033445842   0.03522134            2 
  230000    1.2410349   -6.6404138    92.301146  0.033442444  0.035209016            2 
  231000    1.2378889   -6.6273144    93.032933  0.033561664  0.035197558            2 
  232000    1.2255733   -6.6522794     92.92288  0.033377471   0.03518441            3 
  233000    1.2251458   -6.6218923    93.821089  0.033555468   0.03517302            1 
  234000    1.1989148   -6.6031813    93.947536    0.0334571  0.035162064            1 
  235000    1.1808276   -6.6329893     94.19769  0.033403436  0.035148484            3 
  236000    1.2063138   -6.6486156    94.603851  0.033405315  0.035133387            2 
  237000    1.2091343   -6.6323067    95.229179   0.03348424  0.035122156            3 
  238000    1.2157701   -6.6329882    95.607821  0.033476128  0.035112803            7 
  239000    1.2225111   -6.6253358    96.173742  0.033533383  0.035103152            2 
  240000    1.1859639   -6.6277075    96.874882  0.033637112  0.035093533            4 
  241000    1.2134178   -6.6514011    96.947557  0.033522668  0.035085424            2 
  242000    1.2215802   -6.6061126    97.569407  0.033598281  0.035075723            2 
  243000    1.2171504   -6.6260212    97.665945  0.033493122  0.035066968            3 
  244000    1.2116926   -6.6523199    98.182472  0.033532265  0.035059795            6 
  245000    1.1813057   -6.6520942    98.675761  0.033563184  0.035053105            1 
  246000    1.2063922    -6.584861    99.927339  0.033850724  0.035047441            3 
  247000    1.2048214   -6.6402779    99.891532  0.033701596  0.035043026            4 
  248000    1.2124468   -6.6720957    100.19927  0.033669111  0.035038617            2 
  249000    1.2327429   -6.6425297    100.54362  0.033649137  0.035033308            3 
  250000    1.1878849   -6.6497718    100.96784  0.033655948  0.035028654            4 
  251000    1.1766933   -6.6755563    101.68546  0.033760113  0.035022747            2 
  252000      1.21913   -6.6177004    102.02209  0.033737464  0.035019866            3 
  253000    1.2211418   -6.6697135    101.89526   0.03356234  0.035014356            3 
  254000    1.2163237   -6.6406895    102.51561   0.03363373  0.035006926            2 
  255000    1.2259459   -6.6216396    103.60354  0.033857366  0.035001313            3 
  256000    1.2059689   -6.6632399    103.32671  0.033634996   0.03499508            2 
  257000     1.220787   -6.6683992    103.64795  0.033608284  0.034988078            2 
  258000    1.2313541   -6.6877043    104.14148   0.03363743  0.034982323            3 
  259000    1.2384762   -6.6139669    104.87046  0.033742105   0.03497869            2 
  260000    1.2101321   -6.6554938    104.81514  0.033594597  0.034972998            3 
  261000    1.2121321    -6.689336    104.98544  0.033520255  0.034964932            1 
  262000    1.2253269   -6.6578546    105.74541  0.033634037  0.034956831            2 
  263000    1.2130931   -6.6401334    106.37252  0.033704855  0.034950884            3 
  264000     1.225052   -6.6105778    107.10891   0.03380963   0.03494551            1 
  265000    1.1860609   -6.6595155    107.62926  0.033845679  0.034940605            5 
  266000    1.1850278    -6.617377    107.33703  0.033626889  0.034936607            5 
  267000    1.2610373   -6.6540967    107.83733  0.033657095  0.034931765            1 
  268000    1.2134364   -6.6826135    107.93145  0.033560775  0.034923488            2 
  269000    1.2118213   -6.6613201    108.37718  0.033574096  0.034914537            3 
  270000    1.2150457   -6.6659841    108.69791  0.033548737  0.034906649            2 
  271000    1.2203917   -6.6232186    109.17294  0.033571016  0.034898719            2 
  272000    1.2039243   -6.6540897    109.24146  0.033468583  0.034889745            2 
  273000    1.2102397   -6.6864166    109.90678  0.033549079  0.034883555            3 
  274000    1.2098466   -6.6614945    110.49559  0.033605713  0.034876605            2 
  275000    1.2328916   -6.6617088    110.83522  0.033586431  0.034869928            2 
  276000    1.1829022   -6.6742682    110.73232  0.033433671  0.034862694            3 
  277000    1.1840382   -6.6055266    111.68518  0.033599632  0.034853615            1 
  278000    1.2244293   -6.6482932    112.11776  0.033608441  0.034846865            4 
  279000    1.2229339   -6.6699074     112.0745  0.033475059  0.034838038            2 
  280000    1.1969138   -6.6467247    112.78902  0.033568161  0.034829348            3 
  281000    1.1998606   -6.6005928     113.0613  0.033529449  0.034819915            3 
  282000    1.2429273    -6.642355    112.95808  0.033380046  0.034810152            3 
  283000    1.2089928   -6.6402092    113.53496  0.033431967  0.034799229            4 
  284000    1.1788906   -6.7074737    113.52844  0.033312335  0.034788195            3 
  285000    1.1907625   -6.6617989    114.01369  0.033337336   0.03477643            4 
  286000     1.235448    -6.702892      114.056  0.033233099  0.034764421            2 
  287000    1.2171933   -6.6459324    115.00556  0.033393018  0.034752568            4 
  288000    1.1729575   -6.6742678    114.83461  0.033227606  0.034739008            3 
  289000    1.2173913   -6.6799437    115.42804  0.033283749   0.03472474            5 
  290000    1.1995374   -6.6919399    115.40865  0.033163405  0.034711758            3 
  291000    1.2252287   -6.6616159    115.70845  0.033135294  0.034698553            2 
  292000    1.2226118   -6.6748219    116.29816  0.033190115  0.034685797            3 
  293000    1.2092938   -6.7177526    116.19907  0.033048654   0.03467272            2 
  294000    1.2150201   -6.6441954    116.98675  0.033159509  0.034657786            2 
  295000    1.2198375   -6.6547502    117.67865  0.033242557  0.034644561            3 
  296000     1.213064   -6.6672886    118.06502  0.033239026  0.034631576            1 
  297000    1.1950305   -6.6647886    118.60264  0.033277959  0.034621323            4 
  298000    1.2128133   -6.6789185    118.94134     0.033261  0.034610287            4 
  299000    1.2023718   -6.6830748    119.49686  0.033304587   0.03459965            3 
  300000    1.2203763   -6.6481507    119.70246  0.033250682  0.034589292            3 
  301000    1.2289117   -6.6592407    120.32934  0.033313772  0.034580116            3 
  302000    1.2206254   -6.6672152    120.65452   0.03329319  0.034569931            1 
  303000    1.2114382   -6.6287321     121.0743  0.033298763  0.034560752            2 
  304000    1.1666372   -6.7186902    120.90728  0.033143443   0.03454905            4 
  305000    1.1733989   -6.6550837    121.41822  0.033174378  0.034535706            5 
  306000    1.2083198   -6.6694276    121.81194  0.033173186  0.034524384            5 
  307000    1.1743161   -6.7046984    121.72199  0.033040713  0.034513247            2 
  308000    1.1822087   -6.6634692    122.43507  0.033126372  0.034500076            1 
  309000    1.2094341   -6.6871762    122.05814  0.032917513   0.03448626            1 
  310000    1.2055284   -6.6317528    123.29924  0.033144958  0.034471592            2 
  311000    1.1958485     -6.70494    123.21717  0.033016391  0.034457739            2 
  312000    1.1896963   -6.6807078    123.60372  0.033013814  0.034443355            2 
  313000     1.220976   -6.7012459    124.04851   0.03302676  0.034428118            2 
  314000    1.2056475   -6.7148783    124.03153  0.032917074  0.034414482            3 
  315000    1.1888843    -6.686432    124.54578  0.032948619  0.034400698            2 
  316000    1.1760525   -6.6446619    125.82913  0.033182788  0.034387674            1 
  317000    1.1907501   -6.6799233    125.65526  0.033032404  0.034373866            2 
  318000    1.1986768   -6.6721248    126.12363  0.033051267  0.034360287            2 
  319000    1.1766172   -6.6854838    126.19206  0.032965532   0.03434684            3 
  320000    1.1917938   -6.6219109      126.997  0.033072136  0.034333276            2 
  321000    1.2190296   -6.6867815    126.84227  0.032928937  0.034320001            2 
  322000    1.1950361   -6.6402079    127.64601  0.033034682   0.03430785            3 
  323000    1.2333903    -6.679842    127.54782  0.032907075  0.034294069            2 
  324000    1.1976097   -6.6739448    127.75379  0.032858484  0.034279569            2 
  325000    1.1739666    -6.678334    128.51208  0.032951815  0.034266626            3 
  326000     1.180944   -6.7025714    128.59619  0.032872236  0.034253995            5 
  327000    1.2062098   -6.6557249    129.59729  0.033026833   0.03424128            2 
  328000     1.198548    -6.702053     129.5614  0.032917023  0.034228834            5 
  329000     1.174914   -6.6529473    130.09448  0.032951997  0.034215654            4 
  330000    1.2056093   -6.6319084    130.74007  0.033015169  0.034201668            1 
  331000    1.2045201   -6.6596919    131.00344  0.032981733  0.034188238            3 
  332000    1.2048013   -6.7181073    130.52271  0.032761724  0.034173867            4 
  333000    1.1803703   -6.7127173    131.29628  0.032856926   0.03415998            3 
  334000    1.1784497   -6.6888811    131.56565   0.03282576  0.034145785            2 
  335000     1.188873   -6.6333268    132.37594  0.032929338   0.03413191            3 
  336000     1.217147   -6.6585381    132.48684   0.03285884  0.034118461            3 
  337000    1.1895414   -6.6551066    133.16808  0.032929793  0.034105617            2 
  338000    1.1906592    -6.667009    133.83889  0.032997753  0.034093533            2 
  339000    1.2049171   -6.6935864    133.42459  0.032798571  0.034081245            3 
  340000    1.1935218   -6.6877815    134.12852  0.032874638  0.034069136            2 
  341000    1.2155936   -6.6794099    134.33147  0.032827826   0.03405739            3 
  342000    1.2003056   -6.6671837    134.90575  0.032871771  0.034045548            3 
  343000    1.1898067   -6.7155689     135.0272  0.032805442  0.034032991            4 
  344000    1.2145703    -6.712928    134.81972  0.032659815  0.034019168            3 
  345000    1.1984577   -6.6642902    135.99636  0.032849363  0.034005825            1 
  346000    1.1935613   -6.6609534    136.34778   0.03283906  0.033993361            4 
  347000    1.2075393   -6.7369974    135.74868  0.032600547   0.03397948            2 
  348000    1.1935797   -6.7179995    137.11755  0.032834663  0.033965694            3 
  349000    1.1583841   -6.6640563    137.65643  0.032869252  0.033954169            4 
  350000    1.2008855   -6.7082533    138.02681  0.032863526  0.033942461            3 
  351000    1.1980073   -6.7114848     138.2211  0.032816027  0.033931653            4 
  352000    1.1822799   -6.7072987    138.50992  0.032791175  0.033920205            3 
  353000    1.2147352   -6.6516085    139.24584   0.03287201  0.033909208            4 
  354000    1.1971579   -6.6716892    139.17117  0.032761574  0.033897426            4 
  355000    1.2350058   -6.6839218    139.58114  0.032765526    0.0338869            3 
  356000    1.2012112    -6.650925    140.45098  0.032877103  0.033875264            3 
  357000    1.1956611   -6.6483877    141.00154  0.032913524   0.03386578            2 
  358000    1.2142191   -6.6952632    141.18121   0.03286341  0.033856492            2 
  359000    1.2056365   -6.6561522    141.39801  0.032822195  0.033845654            4 
  360000    1.2043078   -6.7245944    141.87523  0.032841488  0.033834563            4 
  361000    1.2143499   -6.6908068    142.48658  0.032891639  0.033824877            1 
  362000    1.1859185    -6.725511    142.36637  0.032773105  0.033815831            3 
  363000    1.1779517   -6.7058672    142.91199  0.032808078   0.03380715            3 
  364000    1.1805312   -6.6606965    143.65754   0.03288863  0.033798601            1 
  365000    1.1987708   -6.6714185     144.3283  0.032951666  0.033789822            3 
  366000    1.2106619   -6.7006907    143.98949  0.032784492  0.033780424            3 
  367000     1.189385   -6.6701077     144.7401    0.0328656  0.033770789            1 
  368000    1.2010441   -6.7396985    144.55461  0.032734286   0.03376157            3 
  369000    1.1921985   -6.6948037    144.80038  0.032701079  0.033750993            4 
  370000    1.1786926   -6.7074974    145.67934  0.032810661  0.033740953            5 
  371000    1.1760238   -6.6796623    146.20268  0.032839776  0.033730807            1 
  372000    1.1903416   -6.6739782    146.33361  0.032780827   0.03372093            4 
  373000    1.1743736   -6.6811159    146.90406  0.032820388  0.033712169            2 
  374000    1.1917193   -6.7008803    147.23037   0.03280534  0.033703128            3 
  375000      1.19547   -6.6765235    147.95603  0.032879119  0.033693704            2 
  376000    1.1945456   -6.7176109    147.44408  0.032678209  0.033683551            4 
  377000     1.191244   -6.6888527    148.26787  0.032773623  0.033672315            2 
  378000     1.178853   -6.6809848    148.24054  0.032680896  0.033662461            2 
  379000    1.2036312   -6.6967473    148.43575  0.032637588  0.033652237            2 
  380000    1.1973609   -6.6670786    149.39579  0.032762234  0.033642576            4 
  381000     1.186681   -6.7553171    148.83315  0.032553183  0.033633604            4 
  382000    1.1830688   -6.7167688    149.58505  0.032631992   0.03362456            1 
  383000    1.1866348   -6.6734757    150.30093  0.032702553  0.033614595            3 
  384000    1.1942572   -6.7036013    150.51996  0.032664923  0.033605303            3 
  385000    1.2068678   -6.6410925    151.03939  0.032692509  0.033595487            3 
  386000    1.1945803   -6.6871411    151.77929  0.032767549  0.033586611            2 
  387000    1.1945549   -6.6576047    151.88195  0.032704985  0.033576567            2 
  388000    1.1783469   -6.6656659     151.7962  0.032602276  0.033566993            3 
  389000    1.1865122   -6.7064556    151.67578   0.03249267  0.033557569            4 
  390000    1.2060023   -6.7560729    152.31687  0.032546339  0.033546509            5 
  391000    1.2022266   -6.7265085     153.2116  0.032653794  0.033535903            3 
  392000    1.1929083   -6.6653726    153.38597  0.032607561   0.03352565            3 
  393000     1.215603   -6.7224633    153.29133  0.032504522  0.033515581            4 
  394000    1.2032703   -6.7401449    153.60693  0.032488775  0.033504198            2 
  395000    1.1849488   -6.7392408    153.89055  0.032466361  0.033492664            3 
  396000    1.1843891   -6.7151668    154.66761  0.032547898  0.033480746            2 
  397000    1.1985911   -6.6985087    155.38557  0.032616619   0.03347016            9 
  398000    1.1791039   -6.7102008    156.05436  0.032674698  0.033460065            3 
  399000    1.1484183   -6.7532631    155.34368  0.032444378  0.033450372            5 
  400000    1.1724484   -6.6844297    156.86869  0.032680978  0.033441355            2 
  401000    1.1909241   -6.7325745    156.48839  0.032520447  0.033432351            4 
  402000    1.2068661   -6.6756954    157.02711  0.032551224  0.033423418            2 
  403000     1.185212   -6.7222366    157.10319  0.032486185  0.033414625            4 
  404000    1.1891638   -6.6434562    158.77215  0.032750032  0.033405765            2 
  405000     1.174038    -6.712018    158.23201  0.032558027  0.033395936            2 
  406000    1.1951633   -6.7391197     157.7871  0.032386515  0.033385393            2 
  407000    1.1758174   -6.7117059    158.47039  0.032446844  0.033375904           11 
  408000    1.1796735    -6.684115    159.45346  0.032568108   0.03336704            3 
  409000    1.2106499   -6.6919235    159.97969  0.032595699   0.03335834            4 
  410000    1.1874806    -6.695114    159.90696  0.032501414   0.03334904            1 
  411000    1.2099286   -6.7107848    160.09832  0.032461136  0.033339794            2 
  412000    1.1703807   -6.7291292    161.00129  0.032564986  0.033331092            2 
  413000    1.1882231   -6.7841595    160.35196  0.032355118  0.033321825            1 
  414000    1.1723298   -6.6577713    162.08525  0.032625856  0.033312869            3 
  415000    1.1834809   -6.6842714    162.35441  0.032601286  0.033305145            3 
  416000    1.1769971    -6.728603    161.84868   0.03242161  0.033296434            2 
  417000    1.1721936   -6.7070325    162.65947   0.03250589  0.033287353            4 
  418000    1.1640958   -6.7269708    162.75205  0.032446582  0.033277928            4 
  419000    1.1763215   -6.7273482    163.79943  0.032577453  0.033267834            2 
  420000    1.1842195   -6.7069975    164.64396  0.032667452  0.033259035            5 
  421000    1.1809031   -6.6962781    164.48506  0.032558404   0.03324969            2 
  422000    1.1854104   -6.7067729    165.28732  0.032639676  0.033241808            2 
  423000    1.1982569   -6.7419927     165.2413  0.032553448   0.03323389            3 
  424000    1.1957133    -6.753171    165.11545  0.032451936  0.033225653            5 
  425000    1.1777188   -6.7499594    165.66451  0.032483238  0.033217576            3 
  426000    1.1765742   -6.7324515    165.90005  0.032453062  0.033210096            1 
  427000    1.1716435   -6.6838795    167.42836  0.032675324  0.033204233            2 
  428000    1.1707433   -6.6733934    167.73312  0.032658317  0.033198188            3 
  429000    1.1905298   -6.7034649    168.13397  0.032660056  0.033192125            3 
  430000    1.1918319   -6.7129443    168.61627  0.032677572  0.033185963            2 
  431000    1.1532291   -6.7313534      168.687  0.032615428  0.033179432            2 
  432000    1.1776478   -6.7447668     168.6132  0.032525694  0.033172669            1 
  433000    1.2014764   -6.7254652    169.04535  0.032533748  0.033165923            2 
  434000    1.1798678   -6.7109274    169.35659  0.032518547  0.033159134            2 
  435000    1.2040457   -6.7353888    169.73116  0.032515547  0.033151678            3 
  436000    1.1818558   -6.7334417    170.42442  0.032573476  0.033144518            2 
  437000    1.1668903   -6.7062407    170.98242  0.032605343  0.033138743            3 
  438000    1.1695031   -6.7352676    171.06728  0.032547047  0.033132597            3 
  439000    1.1813162   -6.7222776    171.65166  0.032583839  0.033127322            5 
  440000    1.1942786    -6.709562    172.45299  0.032661552  0.033122251            2 
  441000    1.1545844   -6.7082854    173.00706  0.032692188  0.033116731            4 
  442000     1.185186   -6.7838687    171.84108  0.032398393  0.033109988            3 
  443000     1.189561   -6.7443036    172.50273  0.032449723  0.033103155            6 
  444000    1.2031665   -6.7447937    172.99751  0.032469502  0.033096814            2 
  445000    1.1903375    -6.721205    173.39175  0.032470364  0.033090385            2 
  446000    1.1928598   -6.7344718    173.65096  0.032445995  0.033083498            3 
  447000    1.1851916   -6.7083995    174.22396  0.032480231  0.033077143            2 
  448000     1.135991   -6.7096069    175.44188  0.032634278   0.03307125            2 
  449000    1.1640107   -6.7145921    174.94866  0.032470056  0.033064898            3 
  450000    1.1890855    -6.740466    175.52688  0.032504977  0.033058451            4 
  451000     1.185608   -6.7408881    175.99973  0.032520275  0.033051095            5 
  452000    1.1661702   -6.7393461    175.74122  0.032400668  0.033043972            3 
  453000     1.191798   -6.7266422    176.15137  0.032404594  0.033036655            2 
  454000      1.16727   -6.7531168     176.5289  0.032402516  0.033029905            2 
  455000    1.1812927   -6.7603401    177.28966  0.032470634  0.033023161            2 
  456000    1.1541428   -6.7482681    177.62332  0.032460402  0.033016596            3 
  457000     1.178923    -6.697224    178.32361   0.03251707  0.033009994            2 
  458000    1.1624107   -6.7437882     178.3687  0.032454277  0.033004023            3 
  459000    1.1754184   -6.7316368    178.78947  0.032459961  0.032998188            2 
  460000    1.1888225   -6.7732981    179.44626  0.032508381  0.032992451            3 
  461000    1.1784383   -6.7487696    179.38336  0.032426493  0.032986814            3 
  462000     1.165235   -6.7191803    180.14308  0.032493341  0.032981365            2 
  463000    1.1580849    -6.723702    180.94045  0.032566676   0.03297579            2 
  464000    1.1891016   -6.7237533      181.013  0.032509519  0.032970855            2 
  465000    1.1876754   -6.7268167    181.55968  0.032537576  0.032965325            4 
  466000    1.1932536   -6.6760106     182.4151  0.032620726  0.032959955            2 
  467000    1.1799189   -6.7852244    181.81926   0.03244455  0.032955109            3 
  468000    1.1576504   -6.7431517    182.52098  0.032500175  0.032950488            2 
  469000    1.1871536   -6.7399496    183.47647  0.032600653  0.032946253            7 
  470000    1.1826029   -6.7287235    184.33406  0.032683344  0.032942487            4 
  471000     1.186115   -6.7506647    184.36308  0.032619087  0.032939231            3 
  472000    1.1515016   -6.7203991    185.38761  0.032730863  0.032935436            2 
  473000    1.1495258   -6.7770786    184.54875  0.032513874  0.032931249            3 
  474000    1.1868776    -6.739677    185.23662  0.032566213   0.03292659            4 
  475000    1.1535078   -6.7171679    185.32259  0.032512735  0.032922215            2 
  476000    1.1871791   -6.7817597    184.74364  0.032343074  0.032917084            8 
  477000    1.1631027   -6.7669853     185.7135  0.032444706  0.032912025            3 
  478000    1.1761048   -6.7346518    186.42363  0.032500633  0.032907395            2 
  479000    1.1702892   -6.7670647    187.25452  0.032577335  0.032903422            4 
  480000    1.1974728   -6.6931945    188.08074  0.032652907  0.032900386            2 
  481000    1.1670587   -6.7836449    187.54223  0.032491724  0.032896811            3 
  482000    1.1984279   -6.7475684    188.18717  0.032535818   0.03289236            4 
  483000    1.1808797   -6.7379363    188.37495  0.032500853  0.032888486            2 
  484000    1.1805453    -6.720942     189.1011  0.032558729  0.032884287            2 
  485000    1.1775324   -6.7460202    189.42938  0.032548003  0.032879652            2 
  486000    1.1520155   -6.7194142    189.32277  0.032462752  0.032875051            2 
  487000    1.1600799   -6.7424352    190.69183  0.032630362  0.032870528            3 
  488000    1.1858836   -6.7506176    190.42663  0.032518209  0.032865924            2 
  489000     1.175329   -6.7002707     191.4633  0.032628374  0.032862058            3 
  490000    1.1801656   -6.7606068    191.32776  0.032538735  0.032858347            2 
  491000    1.1773762   -6.7380075    191.28911  0.032465904  0.032854372            3 
  492000    1.1725091   -6.7826548    191.50343  0.032436219  0.032850164            5 
  493000    1.2061964   -6.7137458    192.37034   0.03251696  0.032845773            3 
  494000    1.1652294   -6.7503886    192.78819  0.032521624  0.032841656            3 
  495000    1.1566994   -6.7591111    192.85357  0.032466931  0.032837236            3 
  496000    1.1844531   -6.7518754    192.89911  0.032409125  0.032832459            4 
  497000    1.1727039   -6.7744023    193.06321   0.03237143  0.032828185            1 
  498000    1.1624847    -6.769158    193.57508  0.032392082  0.032823349            2 
  499000    1.1700033   -6.7451605    193.92298  0.032385267  0.032819161            2 
  500000    1.1701081   -6.7820615    194.70272  0.032450453  0.032815293            2 
  501000    1.1989126   -6.7498865    195.26621  0.032479409  0.032810703            3 
  502000    1.1617543   -6.7540069    194.68549  0.032318308  0.032806233            6 
  503000    1.1730625   -6.7289816    195.07974  0.032319374   0.03280138            3 
  504000    1.1826133   -6.7817123    195.14438  0.032265936  0.032796273            2 
  505000      1.16321   -6.7625425    195.07554  0.032190683    0.0327913            2 
  506000    1.2003268   -6.7384885    195.97707  0.032275539  0.032785418            3 
  507000    1.1949152   -6.7631551    197.05969  0.032389825  0.032779432            1 
  508000    1.1836077   -6.7424588     197.1893  0.032347325  0.032773368            2 
  509000    1.1954803   -6.7434022    197.88673  0.032397959  0.032767792            3 
  510000    1.1901601   -6.7688476    198.14847  0.032377202  0.032762497            3 
  511000    1.1464174   -6.7646519    198.27033  0.032333714  0.032756752            2 
  512000    1.1475541   -6.7632612    198.61858  0.032327243   0.03275141            4 
  513000    1.1642399   -6.7497552    198.76575  0.032288134  0.032746227            3 
  514000    1.1788444   -6.7840307    199.10886  0.032280943  0.032740909            3 
  515000    1.1783245   -6.7348792    199.83684  0.032336058  0.032736384            4 
  516000     1.181395   -6.7424637    200.65586  0.032405663  0.032731912            2 
  517000    1.1787003   -6.7995025    199.84707  0.032212616  0.032726063            3 
  518000    1.1707068   -6.7311588    200.99947  0.032335822  0.032720793            1 
  519000    1.1749951   -6.7477092     200.5911  0.032207949  0.032715607            1 
  520000    1.1613868   -6.7206115    202.33762    0.0324259  0.032710133            2 
  521000    1.1502341   -6.7303055    202.59358  0.032404603  0.032704731            3 
  522000    1.1616295    -6.745379    202.65142  0.032351759  0.032699316            4 
  523000    1.1718932    -6.773066    202.45222  0.032258161  0.032694036            8 
  524000    1.1739671   -6.7664025    203.09444  0.032298734  0.032688612            2 
  525000    1.1835884   -6.7605634    203.23006   0.03225874   0.03268335            4 
  526000    1.1508351   -6.7853219    202.73587  0.032119118  0.032677568            5 
  527000    1.1545566   -6.8046686    203.40809  0.032164467  0.032671752            8 
  528000    1.2048558    -6.817861    203.67834  0.032146202  0.032665378            3 
  529000    1.1638695   -6.7420271    204.83541  0.032267708  0.032659073            4 
  530000    1.1710273   -6.7357733    204.71011  0.032187125     0.032653            4 
  531000    1.1637611   -6.7807896    205.02065  0.032175243  0.032647054            3 
  532000    1.1877193   -6.7339191    205.90679  0.032253569  0.032641262            3 
  533000     1.168709   -6.7956043    205.07927  0.032063675  0.032634582            4 
  534000    1.1791358   -6.7671987    205.99791   0.03214699  0.032628045            1 
  535000    1.1617952     -6.78327     205.8211  0.032059361  0.032621999            5 
  536000    1.1957421   -6.7715683    206.82806  0.032156104  0.032615536            3 
  537000    1.1692925   -6.7530857     207.1562  0.032147145  0.032609638            3 
  538000    1.1521226   -6.7585804    207.40923  0.032126585  0.032603044            2 
  539000    1.2003097   -6.7726405    207.28023  0.032047037  0.032596407            9 
  540000    1.1488381   -6.7718036    208.15242  0.032122287  0.032590227            3 
  541000    1.1754261   -6.7705819    208.14977  0.032062503  0.032584486            2 
  542000    1.1566934   -6.7299961    209.03524   0.03213949  0.032578447            2 
  543000    1.1802977   -6.7307531    209.66727  0.032177297  0.032572961            4 
  544000    1.1705918   -6.7833514    209.97035  0.032164575   0.03256684            4 
  545000    1.1923317   -6.7831893    210.10253  0.032125768  0.032561051            4 
  546000    1.1323953   -6.8131876    210.47565  0.032123878  0.032555446            2 
  547000    1.1568764   -6.8031836    211.28474  0.032188413  0.032549991            4 
  548000    1.1514919   -6.8092975     210.7545  0.032049042  0.032544666            4 
  549000    1.1517015   -6.7769016    211.03082  0.032032607  0.032538786            5 
  550000    1.1477643   -6.7619324    211.90207  0.032106374  0.032532687            5 
  551000    1.1457386   -6.7538888    211.97837  0.032059645   0.03252689            3 
  552000    1.1308296   -6.7329144    213.06414   0.03216548  0.032520992            5 
  553000    1.1718427   -6.7678063    212.69711  0.032052005  0.032515402           10 
  554000    1.1659776    -6.771581    212.59574  0.031978903   0.03250944            4 
  555000    1.1963459   -6.7805379    213.49883  0.032056881  0.032503343            5 
  556000    1.1605288   -6.7160497    213.65702  0.032022935  0.032497659            2 
  557000    1.1504687   -6.7947063    213.91255  0.032003673  0.032491188            6 
  558000    1.1660581   -6.7662458    214.10429  0.031974953  0.032484868            2 
  559000    1.1644866   -6.7926269    214.42497  0.031965559  0.032478956            5 
  560000    1.1790773   -6.8094894    214.33877   0.03189565  0.032473095            3 
  561000    1.1498878   -6.7561821    216.37098  0.032140668  0.032467244            2 
  562000    1.1529973   -6.8236041    215.53069   0.03195888  0.032461254            3 
  563000    1.1354661   -6.7614913    217.05413   0.03212761  0.032455721            3 
  564000    1.1502013   -6.7853998    217.02832  0.032066831  0.032450659            2 
  565000     1.168283   -6.7929532    216.52597  0.031935983  0.032444984            1 
  566000    1.1678169   -6.7659706    217.68926  0.032050833  0.032439568            2 
  567000     1.149806   -6.7894942    218.09723  0.032054267  0.032433792            2 
  568000    1.1643516   -6.7726701    218.87186  0.032111482   0.03242874            3 
  569000    1.1569675   -6.8454697    218.17253  0.031952626  0.032423741            3 
  570000    1.1536541   -6.7874052    218.82787  0.031992378  0.032419214            4 
  571000    1.1677831   -6.7693315    219.70907  0.032064954  0.032413858            3 
  572000    1.1727905   -6.7618288    219.69205  0.032006418  0.032408239            4 
  573000    1.1415412   -6.7481183    220.19224  0.032023305  0.032403182            5 
  574000    1.1482901    -6.771276    219.82009  0.031913485  0.032397619            1 
  575000    1.1449289   -6.8167031    219.97595  0.031880572  0.032391663            2 
  576000    1.1659673   -6.7733156    221.31371  0.032018766  0.032386129            3 
  577000     1.178739   -6.7830366    221.69037  0.032017673  0.032380297            2 
  578000    1.1540471    -6.786044    221.79125  0.031976824  0.032374537            1 
  579000    1.1751339    -6.719873    222.52423  0.032027091  0.032368464            6 
  580000    1.1591645    -6.777842    221.84635  0.031874476  0.032362772            3 
  581000    1.1738203   -6.7599249    222.60179  0.031927968  0.032357156            3 
  582000    1.1591052   -6.7158798    223.17214  0.031954774  0.032351602            3 
  583000    1.1567501   -6.8017367    222.73795  0.031837901  0.032345583            2 
  584000    1.1774404    -6.773992    223.32851  0.031867653   0.03233947            3 
  585000    1.1585426    -6.823686    223.50604  0.031838468  0.032332835           13 
  586000    1.1572776   -6.8127181    224.13653  0.031873795  0.032325856            7 
  587000     1.135495   -6.7738006    223.81801  0.031774278  0.032318573            1 
  588000    1.1343309   -6.7427621    224.56876  0.031826638  0.032311144            4 
  589000    1.1459225    -6.745872    225.57724  0.031915286  0.032304057            3 
  590000    1.1673593   -6.7320406    225.16011  0.031802275  0.032297359            3 
  591000    1.1690575   -6.8028407    224.80711   0.03169869  0.032289755            4 
  592000    1.1838568   -6.7814888    225.51021  0.031744117   0.03228198            3 
  593000    1.1685842   -6.7767252    225.46553  0.031684308  0.032274267            2 
  594000    1.1747523   -6.8078458    225.52012  0.031638625  0.032266429            4 
  595000    1.1441436   -6.7569381    225.90583  0.031639472  0.032257973            7 
  596000    1.1175927   -6.7770241     226.4966  0.031668988  0.032250175            4 
  597000    1.1680073    -6.797588     226.9967  0.031685748  0.032242827            2 
  598000    1.1569936   -6.7503719    227.42901  0.031693005  0.032235107            2 
  599000    1.1738572   -6.7656257    228.56664  0.031798364   0.03222719            2 
  600000     1.142944   -6.8033988    227.80714  0.031639881  0.032219515            1 
  601000    1.1482287   -6.7773564    228.28904  0.031654054   0.03221201            4 
  602000    1.1323443   -6.7974812    228.33263  0.031607507  0.032203504            3 
  603000    1.1230765   -6.8220535    227.40782  0.031427284   0.03219508            2 
  604000    1.1664143   -6.7396551    229.22479  0.031625937  0.032186429            4 
  605000     1.154765   -6.7795575    229.28571  0.031582054  0.032178359            1 
  606000     1.122092    -6.757548    230.74593  0.031730738  0.032170042            3 
  607000    1.1427847   -6.8241956    229.24729   0.03147272  0.032162152            3 
  608000     1.159391   -6.7873968    229.69415  0.031482203  0.032153524            2 
  609000    1.1681651   -6.7722899    230.46082  0.031535416  0.032144769            4 
  610000    1.1687702   -6.7818073    230.63903  0.031508065  0.032136064            4 
  611000    1.1629179   -6.8268683    230.85739  0.031486278  0.032127353            1 
  612000    1.1734546   -6.8088986    230.71488  0.031415425  0.032118491            3 
  613000    1.1434337   -6.8367932    231.62993  0.031488571  0.032109694            5 
  614000    1.1635049   -6.7722259    232.17951  0.031511877  0.032100472            3 
  615000    1.1586293   -6.7525437    232.61501  0.031519648  0.032091554            4 
  616000    1.1474933   -6.7723609    232.48186  0.031450468  0.032082809            3 
  617000    1.1776587   -6.8020961    232.69189  0.031427862  0.032073832            6 
  618000    1.1694591   -6.8143432    232.43388  0.031342217  0.032064723            5 
  619000    1.1451286   -6.7856715     233.1063  0.031382109  0.032055034            3 
  620000    1.1492393   -6.7833665    233.90368  0.031438667  0.032046661            6 
  621000    1.1467172   -6.7973522    234.03435  0.031405576  0.032037394            2 
  622000    1.1564567   -6.8061923    234.15454  0.031371187  0.032028327            3 
  623000    1.1423398   -6.7952992    234.04679  0.031306419  0.032018996            1 
  624000    1.1293237   -6.8459269     234.4055  0.031304154  0.032009293            1 
  625000     1.137982   -6.8114181     235.1562  0.031354161  0.031999539            4 
  626000    1.1503153   -6.8235583    235.05849  0.031291066  0.031990504            2 
  627000    1.1606361   -6.7756779    236.23213  0.031397146  0.031981308            2 
  628000    1.1469009   -6.7483261    237.06902  0.031458203  0.031972476            4 
  629000    1.1433056   -6.7648438    236.38011   0.03131692  0.031964037            3 
  630000    1.1540273   -6.7329481    237.58958  0.031427193  0.031955636            3 
  631000    1.1610015   -6.7781576    237.93534   0.03142305  0.031947271            3 
  632000    1.1417318   -6.7584273     237.5317  0.031320109  0.031938543            3 
  633000    1.1309705   -6.7699417    238.24457  0.031364478  0.031929797            3 
  634000    1.1537077   -6.7469358     238.7513  0.031381612  0.031920933            5 
  635000    1.1920332   -6.8310363    238.12017  0.031249366  0.031912418            2 
  636000    1.1690637   -6.8128402    238.33099  0.031227855  0.031903684            3 
  637000    1.1689239   -6.7915958    238.75141  0.031233832  0.031895008            2 
  638000    1.1332018   -6.7906993    239.46933  0.031278648  0.031886259            3 
  639000    1.1481738    -6.789925    239.53708  0.031238535  0.031876845            2 
  640000    1.1335841    -6.787469    239.49989  0.031184881  0.031867499            6 
  641000    1.1603124   -6.7842918    240.20846  0.031228349  0.031857837            2 
  642000    1.1306709   -6.7845819    239.83353   0.03113104  0.031848076            2 
  643000    1.1546253    -6.812902    239.65616  0.031059638  0.031838293            3 
  644000    1.1524096   -6.8207339    240.82996  0.031163297  0.031828668            3 
  645000    1.1602978   -6.7926588     241.0142  0.031138786  0.031819349            2 
  646000    1.1692966   -6.8032197    242.33678  0.031261195  0.031810163            4 
  647000    1.1675175   -6.7516115    242.45433  0.031228018  0.031801428            5 
  648000    1.1583627   -6.8394161    242.54678  0.031191715  0.031792509            3 
  649000     1.161146   -6.7952277    242.56601  0.031146124   0.03178335            3 
  650000     1.137221    -6.782921    242.94496  0.031146789  0.031774767            2 
  651000    1.1449861   -6.8082533    243.40855  0.031158288  0.031765918            3 
  652000    1.1286987   -6.8316802    243.09944  0.031070992  0.031756147            1 
  653000    1.1600082   -6.7804546    243.76209  0.031107975  0.031746666            2 
  654000     1.146612   -6.8210162    243.67783  0.031049673  0.031737707            3 
  655000    1.1238841   -6.8223243    244.27696  0.031078494  0.031728182            3 
  656000    1.1342506   -6.7972004    245.46207  0.031181665  0.031719096            2 
  657000    1.1490275   -6.8379741    244.28104  0.030984404  0.031710521            2 
  658000    1.1568519   -6.8261172    244.52453  0.030968152  0.031701029            4 
  659000    1.1763881   -6.8247609    245.37227   0.03102836  0.031691664            2 
  660000    1.1544277   -6.7803413    246.45392  0.031117919  0.031682476            3 
  661000    1.1505625   -6.8010263    247.13036  0.031156122  0.031673618            1 
  662000    1.1698521   -6.8649214    246.25231  0.030998529  0.031664613            3 
  663000    1.1587907   -6.8475456    247.08254  0.031056126  0.031655418            2 
  664000     1.119004   -6.8609606     247.6217   0.03107702  0.031646418            4 
  665000    1.1243816   -6.8359865     247.6547  0.031034423  0.031637614            3 
  666000    1.1375893   -6.8101402    247.55824  0.030975756  0.031628985            4 
  667000    1.1460621   -6.8834114    247.44006   0.03091455  0.031619541            2 
  668000    1.1259259    -6.830901    249.12267  0.031078177  0.031610405            2 
  669000    1.1780437   -6.8347815    248.30796   0.03093024  0.031601531            2 
  670000     1.173018    -6.822729    249.82576  0.031072856  0.031593308            2 
  671000    1.1541777   -6.8041324    249.85088  0.031029668  0.031584603            5 
  672000    1.1725789   -6.8400855     249.7436  0.030970189  0.031576594            2 
  673000    1.1515448   -6.8360862    250.44544  0.031011074  0.031567995            2 
  674000    1.1574846   -6.8865243    250.03437  0.030914239  0.031558971            5 
  675000    1.1221664   -6.8220907    251.38319  0.031034962   0.03155005            9 
  676000    1.1398003   -6.8472475     251.4155  0.030993035  0.031541439            2 
  677000    1.1354635   -6.8250813     252.1913   0.03104275  0.031532607            5 
  678000    1.1595706   -6.8202725    251.77309  0.030945562  0.031523909            4 
  679000    1.1600047   -6.8298661    252.02578  0.030930999  0.031515526            5 
  680000     1.132632   -6.7771359    253.35879  0.031048871  0.031507158            4 
  681000    1.1693058   -6.8292208     252.5397  0.030903048   0.03149857            6 
  682000    1.1508291   -6.8467234    252.26558   0.03082424  0.031489347            3 
  683000    1.1550782   -6.8005258    253.60338  0.030942335  0.031480368            3 
  684000    1.1356178   -6.8510703    253.50943  0.030885651  0.031471324            6 
  685000     1.142418   -6.7841631    254.54005  0.030965943  0.031462612            3 
  686000    1.1485502   -6.8013799    254.92619  0.030967711  0.031454258            2 
  687000    1.1710419   -6.8147493    253.94006  0.030803016  0.031445477            6 
  688000    1.1518746   -6.8256467    255.23669  0.030915297  0.031436658            2 
  689000    1.1437122   -6.8689218    254.59613  0.030792952  0.031427726            5 
  690000    1.1580237    -6.819153    255.54957  0.030863475    0.0314194            2 
  691000    1.1570899   -6.8307306    255.24817  0.030782462  0.031410895            4 
  692000    1.1221274   -6.8719663    256.05432  0.030835057  0.031402189            2 
  693000    1.1641822   -6.8473792    256.98076  0.030901968  0.031393579            5 
  694000     1.149884   -6.8552885    257.47231  0.030916464   0.03138492            3 
  695000     1.126489   -6.7868434    258.07882  0.030944702  0.031376793            2 
  696000    1.1601591   -6.8153152     258.0442  0.030896097  0.031369398            1 
  697000    1.1378242   -6.7780377     258.7645  0.030937888  0.031361909            4 
  698000    1.1637875   -6.8525882    259.01827  0.030923862  0.031354037            4 
  699000    1.1486284   -6.8024631    259.01455  0.030879179  0.031346093            2 
  700000    1.1387185   -6.8913522    259.08538  0.030843498  0.031337622            5 
  701000    1.1439465   -6.8451868     259.1461  0.030806716  0.031329605            3 
  702000    1.1465133   -6.8411993    259.91634  0.030854267  0.031321331            3 
  703000    1.1524313   -6.8641335    258.90503  0.030690497  0.031312709            3 
  704000    1.1224544   -6.8477013    260.38164   0.03082169  0.031304399            3 
  705000    1.1417917   -6.8490547      260.975  0.030848109  0.031296261            3 
  706000    1.1284988     -6.81561    261.72569  0.030893023  0.031288389            2 
  707000    1.1416115   -6.8671543    260.98887  0.030762479  0.031280324            3 
  708000    1.1347072   -6.8267378    262.11932  0.030852086  0.031272232            3 
  709000     1.125718   -6.8395955    261.76938   0.03076744  0.031263897            2 
  710000     1.145469   -6.8721912    261.32377  0.030671803  0.031255459            3 
  711000    1.1410351   -6.8476954    262.41855   0.03075698  0.031247347            2 
  712000    1.0959635   -6.8032023    264.12676  0.030913712   0.03123924            4 
  713000    1.0889894    -6.862022    262.60122  0.030692055  0.031231263            2 
  714000    1.1499007   -6.8182564    263.43431  0.030746302  0.031222788            4 
  715000     1.148048   -6.8541417    263.05378  0.030658949  0.031214362            3 
  716000    1.1578595   -6.7893531    264.26437  0.030757026   0.03120573            4 
  717000    1.1292357   -6.8322426    263.81113  0.030661452  0.031197497            3 
  718000    1.1355415   -6.8608358    263.84558  0.030622746  0.031189006            4 
  719000    1.1341378   -6.8051278    265.08594  0.030723915  0.031180573            4 
  720000    1.1170045   -6.8477372    264.42707  0.030604985  0.031172207            2 
  721000    1.1241665    -6.851951    264.79999  0.030605639  0.031163731            2 
  722000    1.1338893   -6.8429669    264.72537  0.030554637  0.031155232            3 
  723000    1.1030957   -6.8377979    266.18633  0.030680766  0.031146635            4 
  724000    1.1366501   -6.8399527    265.73558  0.030586508  0.031137789            3 
  725000    1.1424425   -6.8269939     266.8992   0.03067807   0.03112954            5 
  726000    1.1358569   -6.8436087    266.62507  0.030604347   0.03112152            1 
  727000    1.1440998   -6.8114528    267.50436   0.03066304  0.031113197            2 
  728000    1.1207911   -6.8089206     267.9902  0.030676534  0.031104908            3 
  729000    1.1430774   -6.8031377    268.03139  0.030639162  0.031096828            2 
  730000    1.1571434   -6.8667107    267.92128  0.030584621  0.031088583            2 
  731000    1.1319182    -6.827721    268.58611  0.030618572  0.031080115            6 
  732000    1.1360367   -6.8363101    268.57478  0.030575453  0.031071456            5 
  733000    1.1579507   -6.8567642    269.16212  0.030600514  0.031063247            2 
  734000    1.1291564    -6.833219    269.48876  0.030595909  0.031054886            5 
  735000     1.121204   -6.8529551    268.93337  0.030491312   0.03104637            3 
  736000    1.1373562   -6.8239416    271.27922  0.030715492   0.03103816            4 
  737000    1.1211668   -6.9040848    269.94966  0.030523481  0.031029837            4 
  738000     1.150965   -6.8388354    270.12138  0.030501511  0.031021579            4 
  739000    1.1027637   -6.8446024    270.76607  0.030532935  0.031013441            1 
  740000    1.1419921   -6.7983149    272.48446  0.030685186  0.031005583            2 
  741000    1.1298851   -6.8052151    272.46496  0.030641584   0.03099803            1 
  742000    1.1300307   -6.8333011    271.23066  0.030461664  0.030989633            2 
  743000    1.1186984   -6.8753525    271.99044  0.030505882  0.030981134            4 
  744000    1.1279492   -6.8502477    272.76886  0.030552068  0.030972866            1 
  745000    1.1372379    -6.850534    272.91538  0.030527448  0.030964748            3 
  746000    1.1379751   -6.8707479    271.96959  0.030380874   0.03095659            4 
  747000    1.1369042   -6.8123599    274.71821  0.030646833  0.030948941            4 
  748000    1.1320524   -6.8704723    274.69784  0.030603592  0.030941262            3 
  749000     1.129862   -6.9088636    273.42075  0.030420645  0.030933521            2 
  750000    1.1326934   -6.9043249    274.51378  0.030501531  0.030925767            3 
  751000    1.1273698   -6.8876502    274.46448  0.030455446  0.030917976            4 
  752000    1.1400595   -6.8842346    275.91306  0.030575473  0.030910198            4 
  753000    1.1178926   -6.8459258    275.86823  0.030529906  0.030902546            2 
  754000    1.1370172   -6.8961311    275.76662  0.030478186  0.030894691            3 
  755000    1.1646928    -6.867729    276.02595  0.030466441  0.030886859            6 
  756000    1.1251777   -6.9033246    276.23496   0.03044918  0.030879477            7 
  757000    1.1410125   -6.8055582    277.69111  0.030569255  0.030871857            2 
  758000    1.1301972   -6.8587708    276.92657  0.030444874  0.030864135            3 
  759000    1.1218422   -6.8473747    277.70563  0.030490297  0.030856504            3 
  760000    1.1624649   -6.8623317    277.99713  0.030482141  0.030848725            4 
  761000    1.1272192    -6.856678    278.25992  0.030470863  0.030840834            6 
  762000    1.1402914   -6.8701349    278.11008  0.030414489  0.030832757            3 
  763000    1.1025195   -6.8590538    278.87908  0.030458615  0.030825218            4 
  764000    1.1338481   -6.7918809    280.01296  0.030542426  0.030817806            2 
  765000    1.1240622   -6.8506092    279.96687   0.03049748  0.030810543            5 
  766000    1.1454332   -6.8561947    279.19818   0.03037404  0.030803247            2 
  767000    1.1364061   -6.8626429    280.06704  0.030428839  0.030795413            2 
  768000    1.1245154   -6.8399691    281.03803  0.030494578  0.030788006            4 
  769000     1.116048   -6.8711864    279.65433  0.030304978  0.030780503            4 
  770000    1.1501067   -6.7953192    281.61155  0.030477441  0.030772947            1 
  771000    1.1474413   -6.8707748    281.30838  0.030405143  0.030766296            5 
  772000    1.1216697   -6.8620652     281.8391  0.030423047  0.030759059           14 
  773000    1.1573599   -6.8892254      282.317  0.030435209  0.030752077            4 
  774000     1.103133   -6.8698131    282.88243  0.030456764  0.030745212            5 
  775000    1.1294195   -6.8680333    283.41225  0.030474435  0.030738425            4 
  776000     1.135293   -6.8661526    283.93025  0.030490791  0.030731325            3 
  777000    1.1206129   -6.8992644     283.3337  0.030387569  0.030724103            3 
  778000    1.1218409   -6.8874812    283.89814   0.03040897   0.03071705            3 
  779000    1.1247124   -6.9285849    283.30192  0.030306153  0.030709851            2 
  780000    1.1373424   -6.9286047    283.84778  0.030325618  0.030702448            2 
  781000     1.125242   -6.8795792    284.84439  0.030393127  0.030695547            8 
  782000    1.1352209   -6.8728193    285.06593   0.03037787  0.030688591            5 
  783000    1.1335523   -6.8398173    285.98845  0.030437255  0.030681257            3 
  784000    1.1197623   -6.8668214    285.71267  0.030369119  0.030674093            4 
  785000    1.1174293   -6.8905727    285.31473  0.030288188  0.030666586            2 
  786000    1.1091904   -6.8751007    285.87712  0.030309279   0.03065918            7 
  787000    1.1182548   -6.8979546    286.13315  0.030297877  0.030651977            2 
  788000    1.1459608    -6.873831    286.40725  0.030288414  0.030644979            7 
  789000    1.1309665    -6.921718    286.88074  0.030300036  0.030637879            1 
  790000     1.115402   -6.8490223    288.14623  0.030395171   0.03063072            2 
  791000    1.1366097   -6.8502707    288.09975  0.030351849  0.030623969            4 
  792000    1.1167599   -6.8510987    289.01379    0.0304097  0.030617099            1 
  793000    1.1161866   -6.8649031    289.42063  0.030414105   0.03061052            2 
  794000    1.1048454    -6.895971    289.01127  0.030332837  0.030603637            2 
  795000    1.1402581   -6.8777279    289.50382  0.030346312  0.030596834            3 
  796000    1.1433582   -6.9096982    288.01643  0.030152473   0.03058975            3 
  797000    1.1124036   -6.8538953    289.58146  0.030278279  0.030582867            7 
  798000    1.1158864   -6.8636754    291.45935   0.03043644  0.030576228            2 
  799000    1.1231447   -6.8254796    291.59941  0.030412955  0.030569646            3 
  800000    1.1186635   -6.8808411    291.04435   0.03031712  0.030563373            2 
  801000    1.1492017   -6.8916823    292.03065  0.030381882  0.030556935            4 
  802000    1.1196724   -6.8967791    291.37292  0.030275656  0.030549835            2 
  803000     1.129614   -6.8551709    292.67445  0.030373023  0.030543325            2 
  804000    1.1304513   -6.8937905    292.57214  0.030324641  0.030536683            4 
  805000    1.1121156   -6.8620755     293.3959  0.030372247  0.030530061            7 
  806000    1.1367745   -6.8804411    292.52142  0.030244151  0.030523284            3 
  807000    1.1242998   -6.8413879    293.48264  0.030305931  0.030516167            5 
  808000    1.1174086   -6.9088378     292.3549  0.030152114  0.030508593            4 
  809000    1.1289756    -6.886873    292.19305  0.030098172  0.030501136            4 
  810000     1.124672   -6.8962212    292.80967  0.030124451  0.030493322            2 
  811000    1.1365688   -6.8974142    292.45053  0.030050404  0.030485367            5 
  812000    1.1344075    -6.873937    292.94862  0.030064513  0.030477345            3 
  813000    1.1058917   -6.8595758    293.58906  0.030093179  0.030469988            3 
  814000    1.1067212   -6.8710964    294.44539  0.030143877  0.030462546            1 
  815000    1.1380503   -6.9054994    294.20752  0.030082569  0.030454749            6 
  816000    1.1403569   -6.8792911      295.032  0.030129902  0.030446828            5 
  817000    1.1277017   -6.9054845    293.26784  0.029913081   0.03043891            2 
  818000    1.1182777   -6.8512054    295.20396  0.030073753   0.03043123            2 
  819000    1.1235405   -6.8873833    295.34679  0.030051566  0.030423298            4 
  820000    1.1389807   -6.8807997    295.35918  0.030016177  0.030415529            1 
  821000    1.1197499   -6.8916206    296.31805  0.030076944  0.030407722            3 
  822000    1.1293539   -6.8818153    297.34965  0.030144937  0.030400041            2 
  823000    1.1353752   -6.9085762    296.22073  0.029993998  0.030392693            4 
  824000    1.1143531   -6.8786251    297.56022  0.030093064  0.030385139            5 
  825000    1.0975439   -6.8658364    297.08335  0.030008419  0.030377688            4 
  826000    1.1638082   -6.8235974    297.78396  0.030042772  0.030370452            5 
  827000    1.1114362   -6.9111705    297.42019   0.02996979  0.030362846            2 
  828000     1.101289   -6.8867615    297.62791    0.0299545  0.030355109            1 
  829000    1.1115864   -6.8437034    298.79505  0.030035691  0.030347614            2 
  830000    1.1333819    -6.904232    298.58012  0.029977924  0.030340028            4 
  831000    1.1133223   -6.9043717    298.56396  0.029940229  0.030332323            3 
  832000    1.1203203   -6.8726408    299.59525  0.030007537  0.030325008            8 
  833000    1.1174867   -6.9060496    298.93836  0.029905798  0.030317423            2 
  834000    1.1274377   -6.8680637    300.48247  0.030024227  0.030309576            4 
  835000    1.1293777   -6.9025362     299.4828  0.029888503  0.030301528            1 
  836000    1.1491611   -6.8793675    299.85583  0.029889935  0.030293698            2 
  837000     1.103945    -6.867949    300.06918  0.029875466  0.030285928            4 
  838000    1.1200752   -6.9144391    300.27409  0.029860192  0.030277795            3 
  839000    1.0850143   -6.8917757    301.13456  0.029910068  0.030269616            4 
  840000    1.1350782   -6.9379378    300.33791  0.029795428   0.03026154            5 
  841000    1.1127131   -6.9098166      301.171  0.029842548  0.030253325            2 
  842000    1.0995562   -6.9099121    300.82682  0.029773042  0.030244921            4 
  843000    1.1300193   -6.8857163    301.19806  0.029774423  0.030236336            3 
  844000    1.1202795   -6.8864429    301.71638  0.029790322  0.030227638            3 
  845000     1.112815   -6.9113145    301.25402  0.029709469  0.030219201            3 
  846000    1.1344122   -6.8970365    302.04393   0.02975216  0.030210887            3 
  847000    1.1344536   -6.9251703    302.24507  0.029736823  0.030202622            2 
  848000    1.1053768   -6.9072349    303.80758  0.029855305  0.030194111            6 
  849000    1.1367475   -6.9013362    303.20188  0.029760687  0.030185819            6 
  850000    1.0961099    -6.898576    303.45487  0.029750478  0.030177459            2 
  851000    1.0885012   -6.8998831    303.73201  0.029742657  0.030168884            1 
  852000    1.1179916   -6.8896849    304.40255  0.029773332  0.030160493            2 
  853000    1.1087136   -6.8892864    304.14091  0.029712867  0.030152202            7 
  854000    1.1289172   -6.8898272    304.48414  0.029711568  0.030143623            1 
  855000    1.0987687   -6.8920363    305.45527  0.029771469  0.030135403            2 
  856000    1.1406704   -6.9122416    305.02054  0.029694367  0.030127156            6 
  857000    1.1183736   -6.8772903    306.25278  0.029779539  0.030118986            3 
  858000    1.1036649   -6.8629025      306.079  0.029727952  0.030110705            5 
  859000    1.1253773   -6.8636087    306.41684   0.02972612  0.030102396            3 
  860000    1.0978465   -6.8899211    306.85331  0.029733848  0.030094335            1 
  861000    1.1049659   -6.9222636    306.33481  0.029649129  0.030085981            4 
  862000    1.1236365   -6.9290763    307.29705  0.029707758  0.030077741            3 
  863000    1.1183245   -6.9670075    307.61276   0.02970382  0.030069553            3 
  864000    1.1047638   -6.9017012     307.2549  0.029634925   0.03006173            3 
  865000    1.1069097    -6.885495    308.22656  0.029694273  0.030053668            5 
  866000    1.1016175    -6.941308    307.21886  0.029563016   0.03004524            4 
  867000    1.1273237   -6.9279633    307.69364  0.029574552  0.030036741            2 
  868000    1.1255307   -6.9573143    307.66607  0.029537833  0.030028309            2 
  869000    1.1082237   -6.8795037    309.09726  0.029641087  0.030019889            2 
  870000    1.1331098   -6.8902578    309.58042  0.029653296  0.030012141            4 
  871000     1.114776   -6.8769598    309.85548  0.029645569   0.03000419            4 
  872000     1.125899    -6.851614    310.63793  0.029686347  0.029995609            1 
  873000    1.0978693   -6.8885647    309.25744  0.029520565  0.029987021            3 
  874000    1.0985774   -6.8679841    309.63215  0.029522517   0.02997831            4 
  875000    1.0966096   -6.8852043    310.01621  0.029525354  0.029969461            3 
  876000    1.1321311   -6.9238371    309.19866  0.029413875  0.029960432            2 
  877000     1.109767   -6.9184142    309.95445  0.029452152  0.029951107            6 
  878000    1.1076333   -6.9137945    308.78905  0.029307996  0.029941999            6 
  879000    1.1008251   -6.9126111    310.93765  0.029478351  0.029932981            1 
  880000    1.1075094   -6.9038205    311.18386  0.029468169  0.029924282            7 
  881000    1.0913565   -6.9122171    312.40231  0.029549973  0.029915847            7 
  882000    1.1165251   -6.9246968     312.0383  0.029482076   0.02990713            7 
  883000    1.1297533   -6.9218606     312.2714  0.029470687  0.029898498            3 
  884000    1.1225404   -6.8667502    313.05289  0.029511019  0.029890071            5 
  885000    1.1053224    -6.938106    312.78258  0.029452221  0.029881532            2 
  886000    1.0917388   -6.8972697    311.41828  0.029290658  0.029872892            3 
  887000    1.1231534   -6.8894488    313.08978  0.029414673   0.02986433            3 
  888000    1.1117927    -6.939584     313.3665  0.029407517  0.029855666            4 
  889000    1.0914305   -6.9172258     313.8868  0.029423209  0.029846992            3 
  890000    1.1003293   -6.8833302    313.30662  0.029335826  0.029838581            3 
  891000    1.1253273   -6.9183771    313.48505  0.029319589  0.029829686            7 
  892000    1.1148161   -6.9327849    313.16037  0.029256388  0.029820574            5 
  893000    1.1183529   -6.8757019    314.31076  0.029330978  0.029811604            6 
  894000    1.1222323   -6.9028659    314.21401  0.029289151  0.029802513            2 
  895000     1.088578   -6.9265623    314.57237  0.029289792  0.029793576            7 
  896000    1.1067247   -6.9272842    314.37541  0.029238785  0.029784393            5 
  897000    1.1041702   -6.9422041    315.20254   0.02928303  0.029775247            4 
  898000    1.1064848   -6.9246636    314.90902  0.029223183  0.029766277            2 
  899000    1.0956447   -6.9249019    316.55632  0.029343374  0.029757264            2 
  900000    1.0779297    -6.909262    316.38909  0.029295286   0.02974834           10 
  901000    1.1174051   -6.9435756    315.98567  0.029225459  0.029739465            3 
  902000    1.1209765   -6.9381502    316.87103  0.029274855  0.029730373            3 
  903000    1.1077203   -6.9279064    316.62321  0.029219566  0.029721183            6 
  904000    1.0998827   -6.9117449    316.80833  0.029204308  0.029711928            4 
  905000    1.0908056   -6.9904734    316.20408  0.029116397  0.029702709            4 
  906000    1.1264034   -6.9057445    317.34407  0.029189116  0.029693571            5 
  907000    1.0868697   -6.9203182    317.37196  0.029159496  0.029684312            5 
  908000    1.1236213   -6.8986848    318.10311  0.029194485  0.029675494            3 
  909000    1.0897457    -6.894118    318.46115  0.029195191  0.029666418            1 
  910000     1.120486    -6.942071    317.64807  0.029088651  0.029657114            2 
  911000    1.1233263   -6.9457077    318.16704  0.029104193     0.029648            2 
  912000    1.1374008    -6.926994    319.08014  0.029155715  0.029638753            3 
  913000    1.1181419   -6.9557671    319.69167  0.029179597  0.029629438            2 
  914000    1.1096862   -6.8952143    319.56556  0.029136174  0.029620286            3 
  915000    1.1235543   -6.9152445    319.28094  0.029078409  0.029611132            5 
  916000    1.1037817    -6.944628    319.53988  0.029070222  0.029601789            4 
  917000    1.1318481   -6.9109684    320.55815  0.029131057  0.029592423            3 
  918000    1.0880648   -6.9026753    320.82302  0.029123368  0.029583146            4 
  919000    1.0894403   -6.9197356    321.07906  0.029114895  0.029573968            3 
  920000    1.0930563   -6.9152682    322.23212  0.029187692  0.029564815            5 
  921000    1.0880544   -6.9556887    321.12105   0.02905547  0.029555664            2 
  922000    1.1088875   -6.9442845    321.36672   0.02904616  0.029546539            2 
  923000    1.1071681   -6.9085237    322.31086  0.029099933  0.029537625            3 
  924000    1.1008981   -6.9142971    322.51645  0.029086982  0.029528502            6 
  925000    1.1164778   -6.9569753    322.36925  0.029042275  0.029519542            6 
  926000    1.0976377   -6.8727843    323.96133  0.029154187  0.029510515            3 
  927000    1.0938831   -6.9243338    322.25371   0.02896923  0.029501995            4 
  928000    1.0849434   -6.9234211    323.93915  0.029089364  0.029493282            2 
  929000    1.0857377   -6.9540763     323.9189  0.029056234  0.029484527            3 
  930000    1.1136355   -6.9349033    324.77435  0.029101644  0.029475711            3 
  931000    1.1042775    -6.925059     324.0418  0.029004816  0.029467029            3 
  932000    1.1027245   -6.9653542     322.9923  0.028879855  0.029458242            2 
  933000    1.1171046   -6.9431529    324.39301  0.028974009  0.029449004            4 
  934000     1.100036   -6.9349242     324.5116  0.028953569   0.02944001            4 
  935000    1.1140306   -6.9271085    325.71817   0.02903014  0.029430876            2 
  936000    1.0950733   -6.9059751    324.12549  0.028857327  0.029421953            3 
  937000    1.0749283   -6.9449066    323.97325  0.028812989  0.029412615            3 
  938000    1.0951318   -6.9516409    324.65942  0.028843232  0.029402804            3 
  939000    1.1264083   -6.9465305    323.99687  0.028753716  0.029393176            6 
  940000    1.1088724    -6.912277    326.57913  0.028952051  0.029383617            4 
  941000    1.1103388   -6.9756158    325.29921  0.028807936  0.029374182            4 
  942000    1.1108323   -6.9470229    324.92715   0.02874444  0.029364656            3 
  943000    1.1172194   -6.8947385    327.46881  0.028938566  0.029355686            1 
  944000    1.1118117   -6.9450162    326.17648  0.028793828  0.029346347            5 
  945000    1.1075331   -6.9061535    327.00168  0.028836127  0.029336967            4 
  946000    1.1017328   -6.9077489    327.65453  0.028863155  0.029327723            3 
  947000     1.097839   -6.9241882    328.73459  0.028927718  0.029318671            2 
  948000     1.086961   -6.9120677    327.91049  0.028824762  0.029309479            5 
  949000     1.095296   -6.9129051    328.44903  0.028841678  0.029300452            4 
  950000    1.1025815   -6.9095858    328.94207  0.028854568  0.029291519            4 
  951000    1.1177471    -6.972471    328.21733  0.028760719  0.029282129            3 
  952000    1.1090382   -6.9726711    328.62535  0.028766225  0.029272976            5 
  953000    1.0926074   -6.9296624    329.53847  0.028815886  0.029263902            4 
  954000    1.0976159    -6.940362     329.0954  0.028746977  0.029254634            3 
  955000    1.1026436   -6.9341095    329.82385   0.02878044  0.029245407            1 
  956000    1.1084551   -6.9399022    330.18189  0.028781546  0.029236171            1 
  957000    1.0916136   -6.8919398    330.92344  0.028816043  0.029227237            4 
  958000    1.1156207   -6.9724392    329.38902   0.02865249  0.029217996            6 
  959000    1.0913057   -6.9059809      331.732  0.028826208  0.029208854            9 
  960000    1.0898237   -6.9166786    330.80493  0.028715706  0.029199523            3 
  961000    1.1001455   -6.9705918    330.73455  0.028679721  0.029190117           11 
  962000    1.0872304    -6.986304    330.74054  0.028650428   0.02918088            2 
  963000    1.0989725   -6.9584535    330.95735  0.028639438  0.029171664            3 
  964000     1.099504   -6.9623932    331.88294  0.028689742  0.029162169            3 
  965000    1.0910391   -6.9625597    332.64361    0.0287257  0.029153105            4 
  966000    1.0962717   -6.9330116    333.10113  0.028735432  0.029144035            4 
  967000    1.0888291   -6.9560118    332.76303  0.028676579  0.029135143            4 
  968000    1.0979804   -6.9257161    334.87509  0.028828779  0.029126156            2 
  969000    1.1254345   -6.9456688    333.94837   0.02871933  0.029117457            3 
  970000    1.0982857   -6.9634584    333.08998  0.028615978  0.029108556            6 
  971000     1.101208   -6.9691153    333.37504  0.028610972  0.029099419            8 
  972000    1.0957542   -6.9604098      333.937  0.028629715  0.029090386            2 
  973000    1.0837124   -6.9459425    335.35039  0.028721342  0.029081476            2 
  974000    1.1072894   -6.9407007    335.11428  0.028671653  0.029072763            5 
  975000    1.0802446   -6.9151926    335.93938  0.028712767  0.029064363            1 
  976000    1.0982016   -6.9027637    336.16981  0.028703023  0.029055901            2 
  977000    1.0789595   -6.9214113    335.28926  0.028598538  0.029047188            2 
  978000    1.1016045   -6.9696183    335.38993  0.028577874  0.029038225            4 
  979000    1.0946355   -6.9648451    335.71166  0.028576069  0.029029221            2 
  980000    1.1121396   -6.9757214    334.54746  0.028447913  0.029020181            2 
  981000    1.0817416   -6.9306988    336.64867  0.028597407  0.029011054            3 
  982000    1.0926385    -6.929004    336.92272  0.028591541  0.029002065            4 
  983000    1.0880328   -6.9208177    336.33077  0.028512273  0.028993017            1 
  984000    1.0978233   -6.9610274    337.06447  0.028545433  0.028983852            5 
  985000    1.1022744   -6.9804641    336.21303  0.028444419   0.02897458            4 
  986000     1.075151   -6.9538423    337.57258  0.028530475  0.028965193            4 
  987000    1.0887864   -6.9515906    338.39123  0.028570688  0.028955953            4 
  988000    1.0834491   -6.9933335    338.28091  0.028532466  0.028946991            1 
  989000    1.1202276   -6.9906702    338.89316  0.028555204  0.028937912            5 
  990000    1.0740274   -6.9581462    338.57592  0.028499657  0.028929026            8 
  991000    1.0971044   -6.9453326    338.79486  0.028489309   0.02892049            2 
  992000    1.0867361   -6.9499884    339.55344  0.028524315  0.028911769            3 
  993000    1.1099356   -7.0069806     339.5099  0.028491935   0.02890303            3 
  994000     1.110024   -6.9862372    339.10682  0.028429479   0.02889412            3 
  995000    1.1031143   -6.9698351    339.77948  0.028457243  0.028885465            6 
  996000     1.091935   -7.0019578    339.72027  0.028423717   0.02887676            4 
  997000    1.0902472   -6.9054009     342.9358  0.028663975   0.02886812            2 
  998000    1.0910309   -6.9763368    340.95741  0.028470057  0.028859495            2 
  999000    1.0774426   -6.9406256    341.91798  0.028521687  0.028850848            2 
 1000000    1.0987305   -6.9311491    341.67646  0.028473038  0.028842328            3 
 1001000    1.1042751   -6.9313115    343.21271  0.028572487  0.028833995            4 
 1002000    1.0697886   -6.9185951     342.7477  0.028505298   0.02882582            3 
 1003000    1.0761568   -6.9687195    340.79307  0.028314479  0.028817329            3 
 1004000     1.100691   -6.9861103    342.68034  0.028442923  0.028808722            3 
 1005000    1.0503739   -6.9554942    342.55644  0.028404349  0.028800268            2 
 1006000    1.0839403   -6.9508785    343.30344  0.028437992  0.028791488            3 
 1007000    1.0933464   -6.9763732    343.63058  0.028436824  0.028782907            4 
 1008000    1.0906999   -6.9914535    343.01301  0.028357557   0.02877423            3 
 1009000    1.0861895   -6.9792921     342.9051   0.02832054  0.028765289            5 
 1010000    1.0788384   -6.9368401    344.31811  0.028409085  0.028756536            2 
 1011000    1.0825525    -6.952329    345.02153  0.028438965  0.028747963            2 
 1012000    1.0864555   -6.9458459    346.44445  0.028528034  0.028739445            7 
 1013000    1.0775103   -6.9664814    345.08147  0.028387748  0.028731234            2 
 1014000    1.0870454    -6.928176    345.31051  0.028378575  0.028722714            3 
 1015000    1.0877465   -6.9354987    345.73911  0.028385805  0.028714266            3 
 1016000    1.0963435   -6.9402219    346.33164  0.028406466  0.028705841            7 
 1017000    1.0990496   -6.9298232    346.11106   0.02836046    0.0286975            3 
 1018000    1.1149724   -6.9171279    347.09857  0.028413439   0.02868927            3 
 1019000    1.0866495   -6.9634195    347.35147  0.028406238  0.028681008            7 
 1020000    1.0673831   -6.9463163    347.58182  0.028397208  0.028672923           10 
 1021000    1.0918269   -6.9838892    347.57153  0.028368555  0.028665062            2 
 1022000    1.0862954   -6.9744103    347.39815  0.028326659  0.028656846            2 
 1023000    1.0765326   -6.9519441    348.48443  0.028387458  0.028648389            5 
 1024000    1.0990188   -6.9575132    349.26167  0.028422987  0.028640465            7 
 1025000    1.0650394   -6.9287589    349.93265  0.028449809  0.028632326            4 
 1026000    1.0745734   -6.9779414     349.4847  0.028385697   0.02862406            2 
 1027000    1.0809443   -6.9423804    350.18501  0.028414883  0.028615797            3 
 1028000     1.088543    -6.982637    349.60924  0.028340568  0.028607608            3 
 1029000    1.0783757   -6.9620601    349.89118  0.028335858  0.028599288            3 
 1030000    1.1020746   -6.9742791    349.50132  0.028276806  0.028591234            5 
 1031000    1.0748368   -6.9780593    351.47944  0.028409266  0.028583109            3 
 1032000    1.0863228   -7.0414734    350.12427  0.028272309  0.028575105            2 
 1033000    1.0809016   -6.9993112    352.44165  0.028431885  0.028567294            2 
 1034000    1.0932584   -6.9906125    351.67269  0.028342415  0.028559595            6 
 1035000    1.0985832    -7.010753    351.15483  0.028273335  0.028551555            3 
 1036000     1.069447   -6.9692179    352.60346  0.028362569   0.02854348            4 
 1037000     1.088256   -6.9457968    353.21762  0.028384572  0.028535681            3 
 1038000    1.0921356   -6.9458298    353.74155  0.028399289  0.028528161            3 
 1039000    1.0987608   -6.9799981    353.40523  0.028344982  0.028520533            3 
 1040000     1.074877   -7.0057647    353.28373  0.028307991  0.028512864            3 
 1041000    1.0772331   -7.0142042    353.32185   0.02828385  0.028505048            2 
 1042000    1.0482411   -6.9868229    354.46558  0.028348175  0.028497414            4 
 1043000     1.090787    -7.011225     354.4514  0.028319862  0.028489807            3 
 1044000     1.082393   -6.9869178    354.39624  0.028288333   0.02848228            7 
 1045000    1.0925802   -7.0044081    354.92885  0.028303736  0.028474782            3 
 1046000    1.0855286   -7.0036996    354.57932   0.02824883  0.028467112            4 
 1047000    1.0963663   -6.9572162     355.7035  0.028311326  0.028459585            2 
 1048000    1.1097018   -6.9995286    355.41135  0.028261081  0.028452068            3 
 1049000    1.0857688   -6.9450122    357.54987  0.028404025  0.028444726            3 
 1050000     1.071774   -6.9831191    357.16493  0.028346423  0.028437656            5 
 1051000    1.1210261   -6.9766838    358.03873  0.028388736  0.028430584            3 
 1052000    1.0726798   -6.9371649    358.29512  0.028382059  0.028423637            6 
 1053000    1.0936248   -7.0117733    357.80607  0.028316403  0.028416608            2 
 1054000    1.0708732   -6.9881342     357.3381  0.028252538  0.028409265            3 
 1055000     1.100215   -6.9998331    357.44794  0.028234434  0.028402014            3 
 1056000    1.0865116   -6.9524585    358.78311  0.028313061  0.028394905            5 
 1057000    1.0742257   -6.9699022    359.24738  0.028322878  0.028387752            6 
 1058000    1.0922361   -6.9806894    358.98155  0.028275169   0.02838053            7 
 1059000    1.0906771   -7.0038063     358.6729  0.028224181  0.028373249            7 
 1060000    1.0899293   -7.0058949    357.97712  0.028142855  0.028366014            4 
 1061000     1.078173   -6.9694362    360.69614  0.028329888  0.028358865            2 
 1062000    1.1089404   -6.9954674    360.31932  0.028273644  0.028352022            2 
 1063000    1.0827217   -7.0244993    359.01723   0.02814497  0.028344849            5 
 1064000    1.0688203    -7.010705    360.74941  0.028254183  0.028337711            5 
 1065000    1.0721412   -7.0055014    361.47302  0.028284274  0.028330596            4 
 1066000    1.0881682   -7.0027427     360.8592  0.028209756  0.028323805            4 
 1067000     1.100801   -7.0034375    361.51868  0.028234823  0.028316951            7 
 1068000    1.0864594   -7.0073645    361.85283  0.028234459  0.028309787            5 
 1069000    1.0796016   -7.0435915    360.73136  0.028120624  0.028302811            3 
 1070000    1.0812758   -7.0122805    362.23528   0.02821147  0.028295641            2 
 1071000    1.0830629   -6.9860379    362.33663  0.028193015  0.028288374            3 
 1072000    1.1004688   -6.9889482    362.96507  0.028215568  0.028281259            2 
 1073000    1.0687586   -6.9658044    364.11739  0.028278766  0.028274293            3 
 1074000    1.0890749   -6.9823683    363.07028  0.028171189  0.028267388            2 
 1075000    1.0753293   -6.9867789    362.60943  0.028109258  0.028260437            4 
 1076000    1.0985137   -6.9570506    364.71892  0.028246508   0.02825348            5 
 1077000    1.0825443   -7.0104319    363.62364  0.028135534   0.02824657            5 
 1078000    1.0749645   -6.9459531    365.16388    0.0282285  0.028239679            4 
 1079000     1.070389   -6.9627581    366.10272  0.028274847  0.028232726            6 
 1080000    1.0753582   -6.9911191     365.8511  0.028229251  0.028225726            4 
 1081000    1.0710863   -6.9806857     366.3732  0.028243385  0.028218747            4 
 1082000    1.0929925   -6.9897504    366.21855  0.028205372  0.028212118            4 
 1083000    1.0753043   -7.0010061     365.4398  0.028119406  0.028205303            7 
 1084000    1.0739532    -7.030592    366.57365  0.028180631  0.028198363            4 
 1085000    1.0818395   -7.0213726     365.7337  0.028090146  0.028191419            1 
 1086000    1.0550491   -6.9914934    365.82767  0.028071491  0.028184198            7 
 1087000    1.0953048   -6.9783942    367.27619  0.028156715  0.028177438            2 
 1088000    1.0829937    -6.986712      368.752  0.028243873  0.028170792            3 
 1089000     1.074066   -6.9917785    367.53384   0.02812472  0.028163997            5 
 1090000    1.0576445   -6.9995051     368.1528  0.028146238  0.028157087            7 
 1091000    1.0584014   -7.0121256    368.32211  0.028133372  0.028150085            1 
 1092000    1.0726744   -7.0190061    367.69245  0.028059558  0.028143153            3 
 1093000    1.0609484   -6.9887294    368.78653  0.028117302  0.028136483            2 
 1094000    1.0900813   -6.9904244    369.05808  0.028112285   0.02812962            8 
 1095000    1.0763556   -6.9992916    368.54691   0.02804771  0.028122697            3 
 1096000    1.0813228   -6.9995147    370.19695  0.028147578   0.02811585            1 
 1097000    1.0776106   -7.0192909    369.69681  0.028083927  0.028109022            5 
 1098000    1.0857151   -6.9888109    369.44784  0.028039454  0.028102141            3 
 1099000    1.0651676   -7.0199484    369.44667  0.028013852  0.028095218            4 
 1100000    1.0924223   -7.0371422    369.98955  0.028029511  0.028088314            6 
 1101000    1.0938833    -7.005742    370.34609  0.028031039  0.028081341            2 
 1102000    1.0717412   -7.0064098    370.77645  0.028038147  0.028074364            5 
 1103000    1.0587521   -6.9756954    371.51178  0.028068282    0.0280674            8 
 1104000    1.0698037   -7.0069704    371.11921  0.028013225   0.02806058            4 
 1105000    1.0780183   -7.0197825    370.58547  0.027947622  0.028053531            2 
 1106000    1.0777158   -7.0433947    371.08733  0.027960167  0.028046375            3 
 1107000    1.0858778   -7.0165284    372.42321  0.028035472  0.028039397            3 
 1108000    1.0787136    -7.036329    371.12179  0.027912289  0.028031981            3 
 1109000    1.0879727    -7.010102    371.08538  0.027884384  0.028024773            5 
 1110000    1.0719953   -7.0421031    372.28547  0.027949359  0.028017767            3 
 1111000     1.067679   -7.0292316    372.60872  0.027948449  0.028010734            4 
 1112000    1.0668235    -7.015764    372.04843  0.027881327  0.028003524            3 
 1113000    1.0566263   -7.0328766    371.63063  0.027824994  0.027996351            3 
 1114000    1.0720774   -6.9951732    371.81832  0.027814058   0.02798936            5 
 1115000    1.0862232   -7.0265412    372.67514   0.02785315  0.027982135            3 
 1116000    1.0943192   -6.9668193      373.879  0.027918086  0.027974839            2 
 1117000    1.0699742   -6.9747222    374.27148  0.027922372  0.027967852            4 
 1118000    1.0703242   -7.0293648    373.59799  0.027847197   0.02796069            4 
 1119000     1.054651   -7.0489658    372.03669  0.027706039  0.027953346            3 
 1120000    1.1185378   -7.0031155    374.85267  0.027890824  0.027946086            6 
 1121000    1.0657748   -7.0199492    374.56953  0.027844895  0.027939179            2 
 1122000     1.088254   -6.9928168    374.48359  0.027813695  0.027932158            3 
 1123000    1.0764527   -6.9939021    375.83253  0.027889027  0.027925255            5 
 1124000    1.0732263   -7.0586284    374.75281  0.027784165  0.027918121            6 
 1125000    1.0875222   -7.0474203    375.86983  0.027842209  0.027910883            2 
 1126000    1.0778365   -6.9819296    375.52622  0.027792053  0.027903804            5 
 1127000    1.0605121   -6.9722897    376.14047  0.027812812  0.027896737            2 
 1128000    1.0826632   -7.0041463    375.38123  0.027732065  0.027889416            2 
 1129000    1.0619383   -6.9837829    376.37869  0.027781126  0.027882066            3 
 1130000    1.0536301   -6.9995418    377.06333   0.02780703  0.027874605            3 
 1131000    1.0786946   -7.0233408     375.9962  0.027703817  0.027867301            3 
 1132000     1.062498   -7.0281139    376.06981  0.027684762  0.027859711            2 
 1133000    1.0866849   -7.0132154    376.83763  0.027716801  0.027852252            3 
 1134000    1.0590563   -6.9817235    376.04094  0.027633814  0.027844854            4 
 1135000    1.0739496   -7.0168354    375.64035  0.027580055   0.02783729            2 
 1136000    1.0673073   -7.0551068    376.11044  0.027590261  0.027829539            3 
 1137000    1.0712631   -6.9967932    377.97152  0.027702398  0.027821728            3 
 1138000    1.0587278   -6.9989945    377.25364  0.027625486  0.027814039            4 
 1139000    1.0592103   -7.0340779    378.17966  0.027668983  0.027806399            3 
 1140000    1.0404202   -6.9610859    379.13847    0.0277148  0.027799093            2 
 1141000     1.101265   -7.0776998    377.70065  0.027585499  0.027791611            3 
 1142000     1.053017   -7.0153424    378.37293  0.027610401  0.027783903            3 
 1143000    1.0511611   -7.0382651     379.5987  0.027675613  0.027776407            6 
 1144000    1.0620793   -6.9987085    380.08992  0.027687202  0.027769142            1 
 1145000    1.0655666   -7.0209065    379.53425   0.02762258  0.027761634            4 
 1146000    1.0562602   -7.0285667    380.29314   0.02765366  0.027754082            8 
 1147000    1.0772867   -6.9983569    380.68355  0.027657916  0.027746802            2 
 1148000    1.0627361    -7.031702    381.01376  0.027657794  0.027739321            2 
 1149000    1.0705039   -7.0572092     380.2254  0.027576545  0.027731888            1 
 1150000    1.0735315   -7.0418194    380.91644   0.02760264  0.027724415            2 
 1151000    1.0674976   -7.0507702    381.39347  0.027613196  0.027716997            3 
 1152000    1.0461099    -7.037486    382.68741  0.027682828  0.027709892            5 
 1153000    1.0654483   -7.0084401    382.52995  0.027647438  0.027702832            4 
 1154000    1.0570351   -6.9777795    382.04368  0.027588365  0.027695789            3 
 1155000    1.0636581    -7.007123    381.87194  0.027552088  0.027688719            5 
 1156000    1.0803254   -6.9928766    384.30769  0.027703842  0.027681635            6 
 1157000    1.0841101   -7.0715462    381.29429  0.027462856  0.027674334            5 
 1158000    1.0664077   -7.0257312    381.49226  0.027453387  0.027666964            3 
 1159000    1.0636301   -7.0311605    383.26124  0.027556891  0.027659332            2 
 1160000    1.0822798   -7.0886149    381.30897  0.027392886  0.027651798            7 
 1161000    1.0664907   -7.0246887    382.87275  0.027481535  0.027644121            5 
 1162000    1.0608422    -7.016691    384.71331  0.027589882  0.027636614            2 
 1163000    1.0435346   -6.9887769    383.20106    0.0274578  0.027629331            3 
 1164000    1.0694467   -7.0106189    384.22103  0.027507233  0.027622032            2 
 1165000    1.0729783   -7.0511803    384.22818  0.027484133  0.027614839           13 
 1166000    1.0507415   -7.0532596     383.9559  0.027441102  0.027607314            3 
 1167000    1.0538733   -7.0368187    384.71674  0.027471918  0.027599642           11 
 1168000     1.047358   -7.0178286    384.19397  0.027411099  0.027592279            4 
 1169000    1.0570913   -7.0564132    385.76988  0.027499991   0.02758506            9 
 1170000    1.0708721   -7.0383738    385.41265  0.027451043  0.027577679            4 
 1171000      1.05704   -7.0308893    385.80041  0.027455196  0.027570336            4 
 1172000     1.057949   -7.0610365    384.45047  0.027335784  0.027563018            6 
 1173000    1.0646186    -7.042962    386.07664  0.027428008   0.02755557            5 
 1174000    1.0707204   -7.0321184    386.21533   0.02741449  0.027548161            3 
 1175000    1.0637711   -7.0534506    386.43559  0.027406779  0.027540645            4 
 1176000    1.0760612   -7.0485662    387.59196  0.027465417  0.027533266            8 
 1177000    1.0596221   -7.0762043    386.76533  0.027383555  0.027525874            2 
 1178000    1.1000176   -7.0688392    386.63077   0.02735079  0.027518355            3 
 1179000    1.0569568   -6.9969867    388.76376  0.027478355  0.027511019            2 
 1180000     1.030515   -7.0543806    387.44723  0.027362092  0.027503566            7 
 1181000     1.065782   -7.0387702    387.57025  0.027347604   0.02749612            5 
 1182000    1.0683058   -6.9983802    389.50087   0.02746058  0.027488769            2 
 1183000    1.0885143    -7.057427    388.74884  0.027384393  0.027481612            5 
 1184000    1.0646688   -7.0486929    389.22049   0.02739446  0.027474227            4 
 1185000    1.0857152   -7.0726871    388.39335  0.027313175  0.027466832            3 
 1186000     1.079108   -7.0292757     389.4461  0.027364116   0.02745945            3 
 1187000    1.0529754   -7.0535155    389.34145  0.027333716  0.027452102            2 
 1188000    1.0583691    -7.075663       389.85  0.027346381   0.02744462            2 
 1189000    1.0606495   -7.0332004    390.97204  0.027402021  0.027437508            4 
 1190000    1.0579661   -7.0455341    390.35017  0.027335446  0.027430587            6 
 1191000    1.0496404   -7.0265512     391.0479  0.027361314  0.027423376            5 
 1192000     1.068733    -7.035925    392.00317  0.027405143  0.027416026            4 
 1193000    1.0867693   -7.0377227    391.26678  0.027330733  0.027408961            5 
 1194000    1.0704757   -6.9857361    393.02573  0.027430607  0.027401846            4 
 1195000    1.0567422   -7.0607178    391.76482  0.027319723  0.027394604            4 
 1196000    1.0721435   -7.0010869    392.33102  0.027336331   0.02738744            2 
 1197000    1.0701259   -7.0790405    391.07857    0.0272263  0.027380164            3 
 1198000    1.0504862   -7.1004041    391.74839  0.027250166  0.027372849            2 
 1199000    1.0555368   -7.0114497    392.85232  0.027304164  0.027365605            3 
 1200000    1.0729969   -7.0341538    392.63558   0.02726636   0.02735853            3 
 1201000    1.0592763   -7.0358186    393.96434  0.027335855  0.027351297            3 
 1202000    1.0399596   -7.0409189     393.9356   0.02731112  0.027344126            3 
 1203000    1.0517314   -7.0397798    393.68636  0.027271153  0.027336922            5 
 1204000    1.0692644   -7.0079762    394.09402  0.027276718  0.027329904            3 
 1205000    1.0399205   -7.0465185    393.41462  0.027207097  0.027322884            4 
 1206000    1.0449168   -7.0578676    393.68609  0.027203295  0.027315801            6 
 1207000    1.0726404   -7.0764914    394.69609   0.02725049  0.027308799            5 
 1208000    1.0561483   -7.0309503    395.46012  0.027280638  0.027301762            5 
 1209000    1.0567579   -7.0304576    396.48239  0.027328536  0.027295064            3 
 1210000    1.0769937   -7.0409669    395.79027  0.027258283  0.027288148            6 
 1211000    1.0778464   -7.0023924    397.36441  0.027344097  0.027281415            3 
 1212000    1.0617888   -7.0494629     395.7854  0.027212968  0.027274725            4 
 1213000    1.0519956   -7.0695952    395.41837  0.027165318  0.027268052            7 
 1214000    1.0778384   -7.0560285    397.02357  0.027253128  0.027261189            4 
 1215000    1.0794919   -7.0166064    397.59129  0.027269636  0.027254346            3 
 1216000     1.048817   -7.0674129     396.3426  0.027161637  0.027247351            3 
 1217000    1.0633545   -7.0102572    398.64174   0.02729675  0.027240482            4 
 1218000    1.0431706   -7.0643102    397.24507  0.027178781  0.027233671            2 
 1219000    1.0654317   -7.0611308    397.79908  0.027194358  0.027226619            3 
 1220000    1.0386276   -7.0778916    398.06699  0.027190368  0.027219592           11 
 1221000    1.0656716   -7.0329301    398.40535  0.027191192  0.027212715            4 
 1222000    1.0301172   -7.0419708    398.63678  0.027184723  0.027205695            4 
 1223000     1.052364   -7.0520592    397.81673  0.027106618   0.02719876            5 
 1224000    1.0645215   -7.0494008    399.28028  0.027184115  0.027191588            3 
 1225000    1.0771536   -7.0334009    399.32176  0.027164745  0.027184406            5 
 1226000    1.0621437   -7.0727015    398.97788  0.027119214  0.027177064            3 
 1227000    1.0829121    -7.088119     397.5235  0.026998336  0.027169713            6 
 1228000    1.0704112   -7.0403902    398.84306  0.027065897  0.027162518            5 
 1229000      1.05361   -7.0448472    398.92397   0.02704936  0.027155324            4 
 1230000     1.044899   -7.0818877    400.25394  0.027117475   0.02714829            3 
 1231000    1.0448581   -7.0994879    400.27356  0.027096775  0.027141237            7 
 1232000    1.0632975    -7.070426    401.03089  0.027126007  0.027134365            2 
 1233000    1.0654094   -7.1062536    399.86682  0.027025333  0.027127549            3 
 1234000    1.0500971   -7.0342776    399.32558  0.026966881  0.027120501            5 
 1235000    1.0725363   -7.0610538     400.9946  0.027057666  0.027113613            6 
 1236000    1.0546744    -7.052728    400.79473  0.027022298  0.027106628            3 
 1237000    1.0682428   -7.1009369    400.78206    0.0269996  0.027099545            3 
 1238000    1.0638284   -7.0798431    402.36996  0.027084677  0.027092292            5 
 1239000    1.0508886   -7.0729844    402.14674  0.027047804  0.027085121           10 
 1240000     1.039669   -7.0607113    402.06426  0.027020447  0.027078071            3 
 1241000    1.0563931    -7.056294    402.92165  0.027056248  0.027071128            9 
 1242000    1.0555309   -7.0358149    403.86971  0.027098075  0.027064257            3 
 1243000    1.0565987   -7.0107588    404.04339  0.027087919  0.027057288            9 
 1244000    1.0447148    -7.041682    403.78265  0.027048677  0.027050273            4 
 1245000    1.0274078   -7.0676393    403.17379  0.026986197  0.027043244            4 
 1246000      1.07471   -7.0797422    403.95712  0.027016929  0.027036024            4 
 1247000    1.0630632   -7.0556672    403.16306  0.026942198  0.027028697            2 
 1248000    1.0470965   -7.0793174    402.46117  0.026873743  0.027021599            2 
 1249000    1.0301405   -7.0652882    404.50885  0.026988848  0.027014532            2 
 1250000    1.0696037   -7.0647496    404.51196  0.026967464  0.027007538            4 
 1251000    1.0670778   -7.1416757    403.72017  0.026893164  0.027000187            3 
 1252000    1.0421938    -7.109829    404.31435  0.026911232  0.026992842            4 
 1253000     1.042865   -7.0864063    404.29456  0.026888439    0.0269857            2 
 1254000    1.0593507   -7.1023161    403.65055  0.026824199  0.026978599            2 
 1255000    1.0285192   -7.0945239     404.9171  0.026886925  0.026971608            3 
 1256000    1.0411411    -7.063267    406.12563  0.026945703  0.026964835            5 
 1257000    1.0600955   -7.0809408     407.4885  0.027014618  0.026958077            2 
 1258000    1.0352312   -7.0843116    406.51278   0.02692851  0.026951412            2 
 1259000    1.0485311   -7.0442661    407.84527  0.026995318  0.026944691            2 
 1260000    1.0503418   -7.0485301    407.55664  0.026954804  0.026938145            6 
 1261000    1.0577109   -7.0801787    408.27243  0.026980731  0.026931684            7 
 1262000    1.0501155   -7.0376697    408.89659  0.027000567  0.026925006            6 
 1263000    1.0523665   -7.0763361    408.61267  0.026960456  0.026918275            5 
 1264000    1.0626882   -7.0469834    409.03177  0.026966757   0.02691182            3 
 1265000    1.0679918   -7.0751982    409.40713  0.026970166  0.026905218            4 
 1266000    1.0388079   -7.0734098    408.94926  0.026918725  0.026898657            5 
 1267000    1.0689792   -7.0724986    409.79974  0.026953416  0.026892108            4 
 1268000    1.0605434   -7.0549694    409.55091  0.026915807  0.026885438            3 
 1269000    1.0534495   -7.1136415    409.10024  0.026865001  0.026878977            3 
 1270000    1.0441846    -7.084248    409.93166  0.026898403   0.02687222            2 
 1271000    1.0488211   -7.0902189    410.12566  0.026889959  0.026865761            6 
 1272000    1.0502763   -7.1068896     408.4616  0.026759801  0.026859056            3 
 1273000    1.0569977   -7.0836937    412.00412  0.026970681  0.026852441            4 
 1274000    1.0409916   -7.1272071    411.21923  0.026898171  0.026845658            8 
 1275000    1.0388377   -7.0904224    411.29479  0.026882012  0.026838783            5 
 1276000    1.0521174   -7.1243267    409.47301  0.026741968  0.026831972            4 
 1277000    1.0498773   -7.1427484    410.34577   0.02677798  0.026825077            5 
 1278000    1.0492378   -7.0932675    411.52917  0.026834192  0.026818199            4 
 1279000    1.0627559   -7.0566613    412.10852  0.026850959  0.026811459            5 
 1280000    1.0507207   -7.1508266    411.11937  0.026765584  0.026804773            3 
 1281000    1.0451622   -7.0343012    412.42418  0.026829572  0.026798029            3 
 1282000    1.0497149   -7.0350185    413.94136  0.026907264  0.026791407            4 
 1283000    1.0617404    -7.077118    413.11997  0.026832942  0.026784803            4 
 1284000    1.0606706   -7.0663802    414.08114  0.026874425   0.02677818            4 
 1285000    1.0363569   -7.1080087    412.98268  0.026782275  0.026771579            2 
 1286000    1.0274013   -7.0930128    412.57057  0.026734744  0.026764796            2 
 1287000    1.0331239   -7.0477052    414.50715  0.026839365  0.026757954            8 
 1288000    1.0407391   -7.0032832    415.14901  0.026860055  0.026751416            2 
 1289000    1.0773763   -7.0308333    414.99666  0.026829368  0.026744762            3 
 1290000    1.0655216   -7.0972615    413.72108  0.026726168  0.026738155            2 
 1291000    1.0477447   -7.1035702    414.73079  0.026770642  0.026731365            2 
 1292000    1.0552705    -7.110674    414.56486   0.02673922  0.026724358            2 
 1293000    1.0363464   -7.1142472    414.61899  0.026722029  0.026717576            5 
 1294000    1.0494094   -7.1171109    413.80262  0.026648804  0.026710909            2 
 1295000    1.0249939   -7.1002498    413.97391  0.026639248  0.026704242            2 
 1296000     1.051942   -7.1138901    415.48413    0.0267158  0.026697605            3 
 1297000    1.0469413   -7.1129119    415.89301  0.026721473  0.026691026            3 
 1298000    1.0416654   -7.0835555    417.39031  0.026797016  0.026684501            2 
 1299000    1.0455152   -7.0714859    417.76645  0.026800516  0.026678183            4 
 1300000    1.0717499    -7.082449    416.95805   0.02672808  0.026671764            5 
 1301000    1.0488688    -7.094903      417.447  0.026738855  0.026665258            5 
 1302000    1.0220267   -7.0781625    417.79232   0.02674042  0.026658752            8 
 1303000    1.0357554    -7.090763    417.89103  0.026726211  0.026652191            5 
 1304000    1.0618714   -7.0789188     417.3833  0.026673268  0.026645567            3 
 1305000    1.0385505   -7.0554412    418.42905  0.026719607  0.026638904            4 
 1306000    1.0384742   -7.0412096    417.92017  0.026666678  0.026632379            4 
 1307000    1.0438899   -7.0323597    418.59205  0.026689113    0.0266258            4 
 1308000    1.0533893   -7.1011439    418.10473  0.026637661  0.026619236            2 
 1309000    1.0199096   -7.0829265    419.62306  0.026713971  0.026612655            3 
 1310000    1.0485316   -7.0998003    418.73487  0.026637078  0.026606077            6 
 1311000    1.0401974    -7.061772    418.87899  0.026625921  0.026599348            5 
 1312000    1.0527391   -7.0984442    418.95371  0.026610373  0.026592802            4 
 1313000    1.0310004   -7.0929443    420.89447  0.026713282  0.026586453            3 
 1314000    1.0259223   -7.1076754    421.24106  0.026714933  0.026580143            2 
 1315000    1.0582952    -7.089407    421.05881  0.026683068  0.026573641            2 
 1316000    1.0525706   -7.0439145    422.18048  0.026733819   0.02656732            6 
 1317000    1.0344745   -7.0934689    420.37505  0.026599282  0.026560949            3 
 1318000    1.0417083   -7.0978672    422.96141  0.026742629  0.026554503            8 
 1319000    1.0141787   -7.0703406    421.65036  0.026639523  0.026548082            6 
 1320000    1.0374046   -7.1322808     420.2066  0.026528194  0.026541423            3 
 1321000    1.0277292   -7.0922978    422.34722   0.02664315  0.026534795            2 
 1322000    1.0259075   -7.1137258    421.24776  0.026553692   0.02652835            2 
 1323000    1.0254277   -7.0984254     423.1567  0.026653861  0.026521819            4 
 1324000    1.0363397   -7.1353871    421.96045  0.026558437  0.026515499            7 
 1325000    1.0305998    -7.142269    420.80943  0.026466002  0.026509036            3 
 1326000     1.022537   -7.1459538    422.91869    0.0265786  0.026502509            8 
 1327000    1.0528599   -7.1124154    424.12695  0.026634448  0.026496247            3 
 1328000    1.0588103   -7.1199955     423.1535  0.026553307  0.026490097            5 
 1329000    1.0548848   -7.0940445    425.80968  0.026699879  0.026483876           11 
 1330000    1.0159502   -7.0649525    425.55717  0.026663983    0.0264776            2 
 1331000    1.0361837   -7.0984434    424.33719  0.026567567  0.026471537            3 
 1332000    1.0542994   -7.0962359    423.08105  0.026469035  0.026465252            3 
 1333000    1.0463209    -7.079881     424.7954  0.026556351  0.026458951            3 
 1334000    1.0309201   -7.0785648    427.04755  0.026677133  0.026452672            8 
 1335000    1.0264583   -7.0856989    425.71413  0.026573916  0.026446538            5 
 1336000    1.0268846     -7.11023    425.54078  0.026543212  0.026440238            3 
 1337000     1.042354   -7.1542668    424.57293  0.026463035  0.026433883            4 
 1338000    1.0413659   -7.1238095    426.09906  0.026538307  0.026427479            5 
 1339000    1.0336548   -7.0795062     425.5628  0.026485114  0.026420946            2 
 1340000    1.0227065    -7.108749    426.53188  0.026525614  0.026414261            4 
 1341000    1.0283303   -7.1305712    425.68109  0.026452964  0.026407586            6 
 1342000     1.047004   -7.1488896    425.08077  0.026395974  0.026400948            7 
 1343000    1.0166907   -7.1520992    426.04222  0.026435978  0.026394339            2 
 1344000    1.0407542   -7.1251773    426.03168  0.026415655  0.026387858            3 
 1345000    1.0610359   -7.1256901    427.54241  0.026489616  0.026381325            4 
 1346000    1.0365793   -7.0951138    427.20049  0.026448767  0.026374876            2 
 1347000    1.0332005   -7.1157539    426.68083  0.026396983  0.026368487           11 
 1348000    1.0547552   -7.1214554    426.93746  0.026393265  0.026362087            4 
 1349000    1.0125959   -7.1110492    427.09948  0.026383709  0.026355682            7 
 1350000    1.0523859   -7.1413327    428.31879  0.026439431   0.02634932            4 
 1351000    1.0297392   -7.1150503    427.80256  0.026388019  0.026342892            3 
 1352000    1.0125796   -7.1025385    428.70922  0.026424385  0.026336558            4 
 1353000    1.0182022   -7.1110402     429.2245  0.026436591  0.026330324            4 
 1354000    1.0349561   -7.1022414    429.29736  0.026421551  0.026324067            6 
 1355000    1.0258537   -7.1214747    429.73086  0.026428712  0.026317766            4 
 1356000    1.0570546   -7.1447691    429.27925  0.026381468    0.0263114            6 
 1357000     1.028591   -7.0955675    429.93996  0.026402601  0.026305048            6 
 1358000    1.0231368    -7.129144    431.02966  0.026450028  0.026298735            6 
 1359000    1.0293499   -7.1799196    428.48102  0.026274284   0.02629219            3 
 1360000    1.0477924   -7.1254646    428.82029  0.026275753  0.026285625            4 
 1361000    1.0308823   -7.1281349    430.71195  0.026372272  0.026279222            4 
 1362000    1.0467105   -7.1587192    429.53298  0.026280775  0.026272768            2 
 1363000    1.0294055   -7.1636993    428.84131  0.026219205  0.026266096            6 
 1364000    1.0308495   -7.1017764    431.13725  0.026340253  0.026259387            2 
 1365000    1.0336036   -7.0980726    431.89798  0.026367398  0.026252606            3 
 1366000     1.046046   -7.1157009    430.05641   0.02623575  0.026245934            2 
 1367000    1.0408877    -7.080316    432.99197  0.026395512  0.026239459            4 
 1368000    1.0233476    -7.113713    430.41686  0.026219351  0.026233073            5 
 1369000    1.0313089   -7.1130986    432.72674  0.026340805  0.026226479            2 
 1370000    1.0460971   -7.1011421    432.10269  0.026283618  0.026219933            3 
 1371000     1.029584   -7.0612607    433.36495  0.026341171   0.02621336            4 
 1372000    1.0552868   -7.1518983    431.58672  0.026213965   0.02620672            2 
 1373000    1.0401474   -7.0994244    432.12526  0.026227559  0.026199993            2 
 1374000    1.0103652   -7.1456659    431.37589  0.026163021  0.026193175            5 
 1375000    1.0350133   -7.1459698    430.43986  0.026087264  0.026186257            6 
 1376000    1.0407915   -7.1181402    432.77726  0.026209863  0.026179352            5 
 1377000    1.0328881   -7.1559423    431.26326  0.026099205  0.026172365            4 
 1378000    1.0219285   -7.1503532    431.18191  0.026075345  0.026165397            3 
 1379000    1.0538863   -7.1479306    431.72038  0.026088977  0.026158421            6 
 1380000    1.0425351   -7.1557352     432.1939  0.026098665  0.026151299            7 
 1381000    1.0360394   -7.0954749    433.37454   0.02615101  0.026144383            5 
 1382000    1.0223029   -7.1137565    432.49019  0.026078762  0.026137597            3 
 1383000     1.027864   -7.0984301    434.72281  0.026194433  0.026130853            3 
 1384000    1.0364114   -7.1185131    435.28559  0.026209392  0.026124137            7 
 1385000     1.033073   -7.1681061     433.9047  0.026107383  0.026117403            5 
 1386000    1.0210285   -7.1282216    434.37562   0.02611686  0.026110592            8 
 1387000    1.0389755   -7.1104652    433.85607  0.026066815  0.026103747            3 
 1388000    1.0467091   -7.1353875    433.84335  0.026047271  0.026096851            7 
 1389000    1.0145133   -7.1140603    435.43743  0.026124156  0.026089966            3 
 1390000    1.0558481   -7.0993241    435.98369  0.026138111    0.0260832            3 
 1391000    1.0049654   -7.1481603    435.09158  0.026065875  0.026076381            6 
 1392000    1.0286292   -7.1244301    435.47267  0.026069963  0.026069644            6 
 1393000     1.029126   -7.1486965    436.33039   0.02610256  0.026062915            5 
 1394000    1.0197976   -7.1768017    435.42468  0.026029691  0.026056148            3 
 1395000    1.0088634   -7.1809797    434.98864  0.025984984  0.026049276            3 
 1396000    1.0133604   -7.1572249    435.40789  0.025991398  0.026042359            5 
 1397000    1.0140938   -7.0928339    438.81294  0.026175909  0.026035464            6 
 1398000    1.0563307   -7.1359875     437.0804   0.02605391  0.026028705            3 
 1399000    1.0242337   -7.1307729    437.53659  0.026062461  0.026022036            4 
 1400000    1.0078517   -7.1392749    437.24737  0.026026629   0.02601535            5 
 1401000     1.000547   -7.1272562    438.57269  0.026086884  0.026008531            5 
 1402000     1.025752   -7.1032053    436.80188  0.025963022   0.02600175            5 
 1403000     1.023411   -7.1365815    437.78209  0.026002738  0.025994791            4 
 1404000    1.0161605   -7.1373303    437.04302   0.02594035  0.025987846            6 
 1405000   0.99569313   -7.1317045    437.56322  0.025952742  0.025980879            2 
 1406000    1.0416175   -7.1690764    436.15893  0.025851051   0.02597388            3 
 1407000     1.020281   -7.1354305    437.41256  0.025906927  0.025966886            3 
 1408000     1.035628   -7.1602344    437.74185  0.025908017  0.025959831            5 
 1409000    1.0375171   -7.1966081    437.21705   0.02585859  0.025952686            5 
 1410000    1.0274767   -7.1379027    438.81403  0.025934635  0.025945734            6 
 1411000    1.0440987   -7.1468921    438.08743  0.025873342  0.025938844            2 
 1412000    1.0281372    -7.112854     439.6291  0.025946005  0.025931976            2 
 1413000     1.054754   -7.1086426    439.88208  0.025942562  0.025925163            3 
 1414000    1.0548824   -7.1479073    440.93091  0.025986027  0.025918319            4 
 1415000    1.0343147   -7.1093753    441.49895  0.026001116  0.025911492            2 
 1416000    1.0348241   -7.1291668    440.40259  0.025918231  0.025904701            4 
 1417000    1.0031967   -7.1371124    440.85546  0.025926574  0.025897924            6 
 1418000    1.0307737   -7.1148293    440.39059   0.02588097  0.025891194            4 
 1419000    1.0174824   -7.1590645    440.68221  0.025879857  0.025884349            7 
 1420000   0.99799505   -7.1085301    441.38222  0.025902713   0.02587762            3 
 1421000    1.0073434   -7.1303672    441.99975  0.025920698  0.025870868            5 
 1422000    1.0233136   -7.0726774    443.90063  0.026013867  0.025864068            4 
 1423000    1.0336149   -7.1556881    441.03314  0.025827661  0.025857195            6 
 1424000    1.0228336   -7.1373828    443.05853  0.025928051  0.025850356            2 
 1425000    1.0359827   -7.1151956    443.46188  0.025933443  0.025843599            2 
 1426000    1.0322833   -7.1313585    441.99373   0.02582946  0.025836777            2 
 1427000    1.0037721   -7.1736107    442.59653  0.025846562  0.025829866            3 
 1428000    1.0178993   -7.1782538     442.5005  0.025822858  0.025822862            3 
 1429000    1.0117893    -7.154064    443.53491   0.02586511  0.025815866            7 
 1430000    1.0171948   -7.1349182    443.62952  0.025852536  0.025809029            4 
 1431000    1.0163854   -7.1482553    442.69623  0.025780121  0.025802266            7 
 1432000     1.019069   -7.1484579    442.61183  0.025757206  0.025795593            3 
 1433000    1.0134084   -7.1810232    443.63656  0.025798823  0.025788737            2 
 1434000     1.036987   -7.1528692    444.16956  0.025811806   0.02578187            4 
 1435000    1.0120829   -7.1943325    441.82664  0.025657761  0.025774831            4 
 1436000   0.99969942    -7.177847    442.67016  0.025688844  0.025767758            5 
 1437000    1.0110186   -7.1745135    442.94766   0.02568706  0.025760669            4 
 1438000    1.0146514   -7.1614035    443.76425  0.025716519  0.025753541            6 
 1439000    0.9892977   -7.1078633     443.9132  0.025707273   0.02574653            5 
 1440000    1.0165263   -7.1470113    445.40313  0.025775644  0.025739602            6 
 1441000    1.0176564   -7.1500071    444.79713  0.025722712  0.025732673            2 
 1442000       1.0443   -7.1261859    445.97324  0.025772841  0.025726068            3 
 1443000   0.99912897   -7.1816625    443.12195  0.025590318  0.025719138            3 
 1444000    1.0114309   -7.1832949     444.5264  0.025653647  0.025712051            4 
 1445000    1.0046265   -7.1561783    444.78163  0.025650613  0.025705153            3 
 1446000    1.0129603   -7.1255977     445.8906  0.025696784  0.025698438            3 
 1447000    1.0229765   -7.1373037    445.60297  0.025662461  0.025691741            4 
 1448000    1.0182167   -7.1253135    445.95399   0.02566494  0.025685104            3 
 1449000    1.0511751   -7.1683807    445.83507  0.025640388  0.025678197            6 
 1450000    1.0180392   -7.1340028    447.95806  0.025744716  0.025671182            5 
 1451000    1.0267157   -7.1811909    446.11504  0.025621126  0.025664274            3 
 1452000    1.0094957   -7.1861651    446.55111  0.025628507  0.025657511            6 
 1453000    1.0223196    -7.178842    446.99889   0.02563655   0.02565052            5 
 1454000    1.0492177   -7.1463597    448.08695  0.025681278  0.025643568            3 
 1455000    1.0108084   -7.1796703    446.71195  0.025584877  0.025636836            5 
 1456000    1.0289305   -7.1832446    447.37693  0.025605365  0.025629853            3 
 1457000    1.0486765   -7.1834282    447.87871   0.02561649  0.025622868            5 
 1458000    1.0246396   -7.1932934    446.69682  0.025531368  0.025615973            2 
 1459000    1.0383373    -7.166988    447.33097   0.02555009  0.025609149            7 
 1460000    1.0131782   -7.1373158    449.33466  0.025646956  0.025602369            5 
 1461000    1.0183654   -7.1601394     449.4149  0.025633978   0.02559563            2 
 1462000    1.0214826   -7.1340278    450.80051  0.025695423  0.025588805            9 
 1463000    1.0116609   -7.1730945    448.17113  0.025528089  0.025582088            5 
 1464000    1.0032459   -7.2043385    449.02251  0.025559114  0.025575404            2 
 1465000    1.0368577   -7.1788644    447.68734  0.025465719  0.025568423            5 
 1466000    1.0180859   -7.1565658    449.10071   0.02552869  0.025561448            5 
 1467000    1.0009542   -7.2089491     450.3237   0.02558076  0.025554675            3 
 1468000    1.0210722    -7.130121    451.41809  0.025625459  0.025547825            4 
 1469000    1.0247882   -7.1330473    451.31217  0.025602007  0.025541185            4 
 1470000    1.0265956   -7.1988713    450.27513  0.025525801  0.025534328            6 
 1471000    1.0255456   -7.1835211    450.15007  0.025501364  0.025527412            2 
 1472000    1.0176154   -7.1470893    450.79249  0.025520408  0.025520658            3 
 1473000    1.0435827   -7.1776949    451.70329   0.02555461  0.025513931            3 
 1474000    1.0285099   -7.1767934    449.97133  0.025439356  0.025507118            5 
 1475000    1.0195351   -7.2008742    451.63135  0.025515896  0.025500215           11 
 1476000   0.99769984   -7.1793719    451.69165  0.025502013  0.025493346            3 
 1477000    1.0208016   -7.1662022    451.90475   0.02549677  0.025486435            8 
 1478000    1.0176501    -7.124761    452.06844  0.025488748  0.025479424            2 
 1479000    1.0041007   -7.1730616    451.15466  0.025420028  0.025472526            5 
 1480000    1.0517377   -7.1688921    451.82575  0.025440639  0.025465636            3 
 1481000    1.0358807   -7.1857249    452.85813  0.025481551  0.025458854            4 
 1482000    1.0084702   -7.1964952    452.70336  0.025455655  0.025452076            3 
 1483000    1.0184042   -7.1851868     451.9817  0.025397938  0.025445407            4 
 1484000    1.0108466   -7.1770877    453.81858  0.025483972  0.025438717            5 
 1485000     1.025305   -7.1545611    452.70761  0.025404467  0.025431966            7 
 1486000    1.0161605   -7.1621027    453.75907  0.025446336  0.025425145            8 
 1487000    1.0102762   -7.2362682     452.3454      0.02535   0.02541834            4 
 1488000    1.0267967   -7.1873827    453.22347  0.025382139  0.025411467            3 
 1489000    1.0214803   -7.2012879    453.56484  0.025384197  0.025404695            3 
 1490000     1.015307   -7.1530445    454.74322  0.025433066  0.025397866            6 
 1491000    1.0362559   -7.1536923    453.63804  0.025354239  0.025391089            2 
 1492000   0.97765859   -7.1716345    453.92212  0.025353112  0.025384258            3 
 1493000   0.99901991   -7.2046992    453.36252  0.025304896  0.025377351           11 
 1494000   0.99863772   -7.1716456    454.89246  0.025373296  0.025370416            3 
 1495000    0.9922967   -7.1662054    454.22894  0.025319339  0.025363579            5 
 1496000    1.0282991   -7.1825884    455.74119  0.025386653  0.025356651            6 
 1497000    1.0135453   -7.1894233    454.77367  0.025315835  0.025349683            4 
 1498000    1.0237937   -7.1931669    454.02768  0.025257437  0.025342675            4 
 1499000    1.0068958   -7.1777115    456.36332  0.025370431  0.025335777            4 
 1500000   0.98894718    -7.165124    455.99885  0.025333269  0.025328939            5 
 1501000    1.0095425   -7.1398017    456.17336   0.02532608  0.025322164            7 
 1502000    1.0111834   -7.1846063    456.63361  0.025334754  0.025315306            4 
 1503000    1.0093898   -7.2156351    454.09489   0.02517714  0.025308334            5 
 1504000   0.99696879   -7.1906388     456.1207  0.025272645  0.025301238            8 
 1505000   0.99190628   -7.2174722    454.17057  0.025147872  0.025294151            3 
 1506000   0.99919938   -7.2377699    454.45404  0.025146859   0.02528688            7 
 1507000    1.0117566   -7.2104644    455.36093  0.025180321    0.0252796            6 
 1508000    1.0161972   -7.1901389    455.40103   0.02516584  0.025272414            4 
 1509000    1.0178738   -7.1800325    456.37616  0.025203013  0.025265183            6 
 1510000    1.0196321   -7.2174769    455.74628  0.025151561  0.025258004            3 
 1511000   0.98368614   -7.1977169    455.88396  0.025142508  0.025250949            2 
 1512000    1.0006191   -7.1901856    456.71292  0.025171567   0.02524381            7 
 1513000    1.0142252   -7.1831721    457.46917  0.025196583  0.025236719            7 
 1514000    1.0026549   -7.2211363    454.99774  0.025043909  0.025229505            7 
 1515000     1.008176   -7.1732878     457.8559  0.025184593  0.025222413            9 
 1516000     1.017287   -7.1814208     457.2964  0.025137225  0.025215328            3 
 1517000    1.0202674   -7.2120041    455.93528  0.025045885  0.025208322            7 
 1518000   0.99792349   -7.2021729    457.63983   0.02512296  0.025201051            7 
 1519000    1.0204475   -7.1632004    458.44463  0.025150572  0.025193826            5 
 1520000   0.99987493   -7.1920229    457.14736  0.025062904  0.025186611            4 
 1521000   0.97353244   -7.1735457    457.71628  0.025077596  0.025179378            8 
 1522000    1.0206173    -7.203489    458.30854  0.025093547  0.025172232            3 
 1523000    1.0314963   -7.1424511    459.33177  0.025133058  0.025165062            6 
 1524000    1.0215837   -7.2070289     457.9841  0.025042875  0.025157796            4 
 1525000    1.0047692   -7.1930022    459.27134  0.025096794  0.025150514            2 
 1526000    0.9992375   -7.2271225    457.36301  0.024976136  0.025143217            5 
 1527000    1.0141375   -7.1958996    459.12948  0.025056182  0.025135918           10 
 1528000     1.044021   -7.1862304    458.41807  0.025000986  0.025128694            6 
 1529000    1.0151562    -7.183868     460.3893   0.02509207  0.025121545            7 
 1530000    1.0227314   -7.2507038    458.25155  0.024959235  0.025114079            4 
 1531000    1.0250307   -7.2138963    458.57449   0.02496051  0.025106695            4 
 1532000       1.0172   -7.2204733    459.00403  0.024967582  0.025099321            5 
 1533000    1.0165227    -7.185579    458.36792  0.024916717  0.025091895            5 
 1534000   0.99232549   -7.2074025    458.51662  0.024908552  0.025084519            5 
 1535000     0.988288   -7.2040045    458.95825    0.0249163  0.025076933            5 
 1536000    1.0011305    -7.209996    459.21767  0.024914153  0.025069528            3 
 1537000    1.0231095   -7.2267515    458.63345  0.024866268  0.025062098            3 
 1538000     1.006179   -7.1971195    460.01952  0.024925202  0.025054684            2 
 1539000   0.99423793   -7.1918632    459.40579  0.024875774  0.025047161            3 
 1540000    1.0188986   -7.1958441    460.45076  0.024916167  0.025039782            6 
 1541000   0.99349669   -7.2161056    461.24582  0.024942993  0.025032318            5 
 1542000    1.0131074   -7.2201767    460.17862  0.024869143  0.025024878            4 
 1543000    1.0325771   -7.1893226    460.85935   0.02488979  0.025017576            3 
 1544000    1.0088046   -7.2181436     459.3153  0.024790334  0.025010068            5 
 1545000    1.0201657    -7.170669    461.21059  0.024876515  0.025002577            4 
 1546000    1.0063018   -7.1925352    461.02946  0.024850661  0.024995158            4 
 1547000   0.99109556   -7.2463207    460.44312  0.024803012  0.024987751            4 
 1548000   0.98502258    -7.235888    460.86739  0.024809829  0.024980433            5 
 1549000    1.0083997   -7.2290336    461.92581  0.024850754  0.024973024            7 
 1550000   0.99889295   -7.2333673     460.9029  0.024779726  0.024965557            7 
 1551000   0.99975585   -7.1811944    462.62073  0.024856046  0.024958199            2 
 1552000   0.99924959   -7.2046439    463.57476  0.024891257  0.024951011            3 
 1553000    1.0106238   -7.2079272    463.41298  0.024866548  0.024943664            5 
 1554000    1.0122277   -7.1885816    463.84927  0.024873942  0.024936309            5 
 1555000    1.0098667   -7.2436477     460.8328  0.024696291  0.024928878            4 
 1556000    1.0235291   -7.1850539    463.20801  0.024807627  0.024921435            4 
 1557000   0.99848469   -7.2188601    462.17169  0.024736228  0.024914039            5 
 1558000   0.99722769   -7.2163747    462.92381   0.02476058  0.024906587            4 
 1559000    1.0018909    -7.207644    463.75571  0.024789166  0.024899094            4 
 1560000    1.0232526   -7.1987075    463.81701   0.02477655  0.024891694            2 
 1561000     1.012064   -7.2482582     461.8231  0.024654234  0.024884173            8 
 1562000    1.0052845   -7.2070296    463.52007  0.024728983  0.024876668            6 
 1563000   0.98828727   -7.1849337    464.94609  0.024789192  0.024869397            4 
 1564000    1.0102602   -7.1895087    465.00785  0.024776633  0.024862152            5 
 1565000   0.98198709   -7.2081316    464.20239  0.024717912   0.02485488            2 
 1566000   0.99323865   -7.2523431    463.24656  0.024651264  0.024847418            4 
 1567000    1.0271162   -7.2397726    464.54481  0.024704574  0.024839993            2 
 1568000   0.99207403   -7.2538657    463.94666  0.024657029   0.02483258            4 
 1569000   0.99606995   -7.2027513      465.209   0.02470836  0.024825193            3 
 1570000    0.9916502   -7.2170795    464.76472  0.024669041  0.024817872           10 
 1571000    1.0075302   -7.2235394    466.76813  0.024759608  0.024810554            4 
 1572000   0.99688983   -7.2034188    467.37547  0.024776053  0.024803192            6 
 1573000    1.0058826   -7.1862417    466.14672  0.024695207  0.024795857            3 
 1574000   0.99913869   -7.2030223    466.92187  0.024720556  0.024788407            4 
 1575000    1.0030648   -7.2178969    466.69888  0.024693062  0.024781134            3 
 1576000   0.99887967   -7.2140329    465.17795  0.024596973  0.024773848            3 
 1577000    1.0133254   -7.2029112     466.1304  0.024631706  0.024766468           10 
 1578000   0.98460237   -7.2352384    466.39435  0.024630035  0.024759034            5 
 1579000    1.0051065   -7.2077817    466.54089   0.02462217  0.024751638            5 
 1580000    1.0082898   -7.2495506    467.08749  0.024635416  0.024744228            4 
 1581000   0.99323232    -7.249242    465.80958  0.024552476  0.024736775            3 
 1582000    1.0009896   -7.2262617    466.58973  0.024578052  0.024729408            5 
 1583000   0.98378815   -7.1969811    467.50273  0.024610588  0.024722055            2 
 1584000    1.0121827   -7.2434067    466.12624  0.024522635  0.024714656            4 
 1585000    1.0256082   -7.1958576    468.30074   0.02462149  0.024707245            5 
 1586000   0.99418903   -7.1860851    467.98694  0.024589478  0.024699968            8 
 1587000   0.98425466   -7.2127192    467.78414  0.024563334  0.024692722            3 
 1588000    1.0398724   -7.1819035     469.2266  0.024623562   0.02468556            9 
 1589000   0.99817853   -7.2229379    468.69063  0.024579957  0.024678367            4 
 1590000    1.0000189   -7.2412934    468.73514  0.024566831  0.024671317            5 
 1591000    1.0000974   -7.2502016    469.42734  0.024587646  0.024664213            6 
 1592000    1.0141801   -7.2037433    471.24076  0.024667125  0.024657129            5 
 1593000    1.0048368   -7.2079995    468.94802  0.024531702  0.024650081            3 
 1594000    1.0138479   -7.2235238    470.93177  0.024620022  0.024643165            6 
 1595000   0.99051938   -7.2381384    470.44092  0.024578941  0.024636068            8 
 1596000    1.0099484   -7.2115558     469.6313  0.024521267  0.024628938            3 
 1597000   0.98641529   -7.2054488     471.2991   0.02459294  0.024621695            2 
 1598000    0.9880235   -7.2098362    472.25105  0.024627193  0.024614531            3 
 1599000   0.98820797   -7.2117097    470.56913  0.024524136  0.024607294            5 
 1600000    1.0101391   -7.1650633    471.52919  0.024558812    0.0246001            3 
 1601000     1.000863   -7.2553556    469.81075  0.024454026  0.024592878            5 
 1602000   0.99685227   -7.2300026    471.79961  0.024542219  0.024585675            3 
 1603000    1.0130408   -7.2485865    471.54156  0.024513493  0.024578401            6 
 1604000   0.98808391   -7.2389395    470.65183  0.024451986   0.02457106            4 
 1605000   0.99614857   -7.2205658    470.73822  0.024441237  0.024563745            6 
 1606000    1.0106306   -7.2593112    470.46539  0.024411861  0.024556442            3 
 1607000   0.99338067   -7.2111796     470.6692  0.024407239  0.024549062            3 
 1608000   0.99061216   -7.2358804    470.78762  0.024398198  0.024541642            6 
 1609000    1.0055144   -7.2263903    470.44302  0.024365186  0.024534136            4 
 1610000    1.0082805   -7.2343677    469.99947  0.024327095  0.024526654            5 
 1611000   0.98467428    -7.211979    471.59857  0.024394712  0.024519161            3 
 1612000   0.99541756   -7.2221915    471.25811  0.024361979  0.024511703            5 
 1613000   0.98854793   -7.2289563    471.71871  0.024370671  0.024504203            4 
 1614000   0.98945203   -7.2183428    472.69713  0.024406089  0.024496711            3 
 1615000   0.97669784   -7.1866882    473.38591  0.024426518  0.024489221            5 
 1616000   0.95954052    -7.238015    471.62146  0.024320414  0.024481692           10 
 1617000   0.98640065   -7.2309494    472.99453  0.024376136  0.024474056            4 
 1618000    1.0143022   -7.2523431    471.50101  0.024284148  0.024466606            4 
 1619000   0.99874887   -7.2250525     473.1686  0.024354983  0.024459139            2 
 1620000   0.96736464   -7.2599374    473.77386  0.024371084  0.024451653            4 
 1621000    0.9972192   -7.2510084    472.71703  0.024301719  0.024444239            6 
 1622000   0.99581942   -7.2397609    473.25422  0.024314335  0.024436832            3 
 1623000   0.99715314    -7.232386    473.72237  0.024323391  0.024429317            3 
 1624000   0.99945682   -7.2666794    472.32715   0.02423682  0.024421871            3 
 1625000    1.0008576   -7.2424859    473.66155  0.024290336  0.024414409            2 
 1626000    0.9955591   -7.2104034    474.42672  0.024314612  0.024406959            7 
 1627000   0.98673165   -7.2254252    473.47307  0.024250823  0.024399505            4 
 1628000   0.97820171   -7.2873492    472.63948  0.024193258  0.024392062            3 
 1629000    1.0007243   -7.2312784    473.97744  0.024246851  0.024384662            3 
 1630000   0.98229806   -7.2531056     473.6377  0.024214606  0.024377216            5 
 1631000   0.97820629   -7.2843868    472.89842  0.024161988  0.024369746            9 
 1632000   0.97460685   -7.2589995    473.79882  0.024193159  0.024362181            4 
 1633000    0.9980004   -7.2576502     474.2482  0.024201276  0.024354668            4 
 1634000   0.97767389   -7.2628471    472.75476    0.0241103  0.024347076            6 
 1635000   0.97235168    -7.265434    475.78293  0.024249894  0.024339522            3 
 1636000   0.98617465   -7.2749476    475.25483  0.024208172  0.024332284            2 
 1637000   0.99508663   -7.2678304    475.45612  0.024203631  0.024324825            5 
 1638000   0.99736812   -7.2106543    476.93962  0.024264327  0.024317468            6 
 1639000   0.99447673   -7.2638444    474.56004  0.024128536   0.02431003           10 
 1640000    1.0005034    -7.235146    476.30254  0.024202365  0.024302602            6 
 1641000    1.0077166   -7.2592755    475.56137  0.024149978  0.024295253            3 
 1642000   0.97416502   -7.2515453    475.67945  0.024141263  0.024287847            3 
 1643000   0.98452806   -7.2538193    476.96171  0.024191606  0.024280558            5 
 1644000    1.0125842   -7.2611711    476.65175   0.02416118  0.024273174           14 
 1645000   0.98872657   -7.2522998    476.85705  0.024156892  0.024265686            2 
 1646000   0.97239742    -7.219342    478.18759  0.024209578  0.024258313            8 
 1647000    0.9870898   -7.2336141    477.70696   0.02417056  0.024250979            3 
 1648000   0.98530773   -7.2424235    476.50111  0.024094919  0.024243619            7 
 1649000   0.98114511   -7.2058952    478.95604  0.024204368  0.024236262            2 
 1650000   0.99896054   -7.2900906    476.73994  0.024077774  0.024229057            7 
 1651000   0.98546647   -7.2566311    477.77866   0.02411562  0.024221713            4 
 1652000    0.9757474   -7.2760603    478.80142  0.024152614   0.02421446           10 
 1653000   0.99855644   -7.2323891    479.25259  0.024160748  0.024207153            7 
 1654000   0.97618769   -7.2668124    478.76969   0.02412181  0.024199833            3 
 1655000    1.0223237   -7.2973074    479.41569  0.024139763   0.02419244            6 
 1656000   0.98116327   -7.2957561    477.81675  0.024044724  0.024185065            6 
 1657000   0.97942892   -7.2878909    478.38676  0.024058879  0.024177793            3 
 1658000   0.99372068   -7.3062583    478.88109  0.024069214  0.024170481            4 
 1659000   0.97988183    -7.234509    480.27013  0.024124479  0.024163239            3 
 1660000   0.99261233   -7.2458617    479.99846  0.024096308  0.024156081            4 
 1661000    0.9820543   -7.2686856    479.52981  0.024058289  0.024148799            4 
 1662000   0.98691558   -7.3114168    479.46759  0.024040693   0.02414141            6 
 1663000   0.99789736   -7.2457646    479.14655   0.02401015  0.024134024            2 
 1664000   0.98851817   -7.2936402    479.39702  0.024008264  0.024126688            4 
 1665000   0.98502456   -7.2870307    480.81071    0.0240646  0.024119438            5 
 1666000   0.98609943   -7.2586042    479.89735  0.024004469  0.024112052            5 
 1667000   0.97763273   -7.2579538     480.7453  0.024032458  0.024104752           11 
 1668000   0.97812414   -7.2770041    481.54564  0.024058035  0.024097458            4 
 1669000   0.95363424    -7.273082     480.3426  0.023983553  0.024090193            3 
 1670000   0.98878154   -7.2464963    481.32356  0.024018142  0.024082903            6 
 1671000   0.98342619   -7.2937624    480.44037  0.023959723   0.02407554            5 
 1672000   0.98471874   -7.2084782    480.89361  0.023967983  0.024068306            5 
 1673000   0.98362927   -7.2906731    481.40092  0.023978926  0.024060901            6 
 1674000   0.99993779   -7.2508299    481.84739  0.023986827  0.024053482            3 
 1675000   0.99100256   -7.2707902    481.62729  0.023961557  0.024046075            3 
 1676000   0.99503232   -7.2268875    480.92593  0.023912387  0.024038659            3 
 1677000   0.97315644   -7.2484572    482.81928  0.023992212  0.024031249           12 
 1678000   0.97725847   -7.3091366    479.56809  0.023816453  0.024023751            4 
 1679000    0.9682482   -7.3123595    481.21918  0.023884216  0.024016259            5 
 1680000   0.99279156   -7.2228032    482.23055  0.023920166  0.024008808            4 
 1681000   0.96066012    -7.276658    481.26965  0.023858301  0.024001433            8 
 1682000   0.96583754   -7.2622707    482.89232   0.02392451  0.023994109            2 
 1683000   0.99090565   -7.2957469    482.17019  0.023874539  0.023986823            4 
 1684000   0.99658325   -7.2838781    482.99584  0.023901219  0.023979443            4 
 1685000    0.9823695      -7.2749    483.02735  0.023888593  0.023972228            4 
 1686000   0.98374886   -7.2864327    482.67961  0.023857236  0.023964979            5 
 1687000   0.98418136   -7.3073085    483.02958  0.023860382  0.023957609            4 
 1688000   0.99563784   -7.2570317    483.37894  0.023863494  0.023950287            3 
 1689000   0.97755237   -7.2232327    485.19819  0.023939125  0.023943088            4 
 1690000   0.97756008   -7.2669759    485.17145  0.023923642  0.023935852            3 
 1691000   0.96641291    -7.252698    484.94421  0.023898295  0.023928769            5 
 1692000   0.97307104   -7.2716317    484.79601  0.023876872  0.023921695            4 
 1693000    1.0029802   -7.2848353    484.60799  0.023853514  0.023914547            6 
 1694000   0.98930901   -7.2900169    484.26678  0.023822648  0.023907365            5 
 1695000   0.96333955   -7.2820273    484.51622  0.023820856  0.023900167            7 
 1696000   0.97539492    -7.264394    484.49297  0.023805669  0.023892971            7 
 1697000   0.98053944   -7.2223605    485.52213  0.023842179  0.023885779            5 
 1698000   0.99986778   -7.2569724    485.61656  0.023832772  0.023878635            4 
 1699000   0.96747746   -7.2591585    485.01486  0.023789232  0.023871474           10 
 1700000   0.95774089   -7.2582055    486.37732  0.023842025  0.023864331            3 
 1701000   0.97314597    -7.288051    485.57317  0.023788613  0.023857164            4 
 1702000    1.0007487   -7.2652777    485.85247  0.023788311  0.023850101            3 
 1703000   0.96411228   -7.2836466    486.46846  0.023804485  0.023842974            3 
 1704000    0.9530782   -7.2807439    486.88742  0.023811005  0.023835718            8 
 1705000    0.9820664   -7.2811215    486.02961  0.023755113  0.023828467            7 
 1706000   0.97897859   -7.2600153    485.67914  0.023724069  0.023821356            6 
 1707000   0.96951813   -7.2923739    486.79828  0.023764806  0.023814153            5 
 1708000   0.98334697   -7.2707972    485.98935  0.023711424  0.023807022            5 
 1709000   0.95325815    -7.291438    486.25733  0.023710617  0.023799837            3 
 1710000   0.99206055   -7.2569455    487.68896  0.023766518   0.02379263            2 
 1711000   0.95792196   -7.2458044    489.05112  0.023818971  0.023785469            3 
 1712000    0.9831938   -7.2697465    488.19463  0.023763368  0.023778418            5 
 1713000   0.97261334   -7.2879543    487.50673  0.023716031  0.023771179           15 
 1714000   0.98171675   -7.2472259    489.12326  0.023780789  0.023764077            5 
 1715000   0.97418409   -7.2892867    487.75349  0.023700364   0.02375689            6 
 1716000   0.98440876   -7.2961439    486.74786  0.023637717  0.023749607            4 
 1717000   0.97059347   -7.2767868    487.97879  0.023683692  0.023742363            4 
 1718000   0.98725332   -7.2945607    487.37096  0.023640423  0.023735107            9 
 1719000   0.99243864   -7.2766818    487.72423  0.023643796  0.023727907            4 
 1720000   0.98777119   -7.2408427    490.52441  0.023765718  0.023720774            5 
 1721000   0.97980354   -7.3229543    487.65033  0.023612741  0.023713593            6 
 1722000   0.97199228   -7.3024455     489.7077  0.023698592  0.023706477            6 
 1723000   0.97499635   -7.2937105    488.40329  0.023621749  0.023699317            9 
 1724000   0.96719124   -7.3181794    488.77943  0.023626229  0.023692022            4 
 1725000   0.97045357   -7.2955605    489.12687  0.023629317   0.02368481            3 
 1726000   0.98891888   -7.2438133    489.40671  0.023629138  0.023677724            4 
 1727000   0.96657602   -7.2580711    488.12255  0.023553491  0.023670594            3 
 1728000   0.97777247   -7.2837408    488.81193  0.023573106  0.023663362            6 
 1729000   0.98905368   -7.2996651     488.1977  0.023529868  0.023656078            7 
 1730000   0.96327737   -7.2984708    488.46091  0.023528945  0.023648748            9 
 1731000    0.9496828   -7.3062792    488.91568  0.023537246  0.023641474            6 
 1732000   0.99822825   -7.3029048     489.1454  0.023534709  0.023634278            6 
 1733000   0.96963229   -7.3055728     489.7959  0.023552409   0.02362709            5 
 1734000   0.97061868   -7.3090872    489.86139  0.023541974  0.023619913           13 
 1735000   0.96379998    -7.291266    490.18182  0.023543795  0.023612671            5 
 1736000   0.96841213   -7.2905187     490.8217  0.023560949  0.023605459            3 
 1737000   0.97097804   -7.2521377    491.72627  0.023590783  0.023598223            5 
 1738000   0.96798794   -7.3140515    490.37864  0.023512593  0.023590988            7 
 1739000   0.95322452   -7.2746442    490.36184  0.023498267  0.023583711            8 
 1740000   0.97364473   -7.2958686    490.17185  0.023475663  0.023576492           10 
 1741000   0.96204031   -7.2578929    492.04746  0.023551956  0.023569229            4 
 1742000   0.99684485   -7.2804708    492.20526  0.023545984  0.023562096            5 
 1743000   0.96718876   -7.3076832    490.27993  0.023440425   0.02355499            7 
 1744000    0.9834503   -7.2726075    491.86568  0.023502756  0.023547879            3 
 1745000   0.96334708    -7.233131    494.15317  0.023598528  0.023540812           11 
 1746000   0.95960158   -7.2609995    492.79922   0.02352039  0.023533752            3 
 1747000   0.96883491   -7.3471842    491.76506  0.023457597  0.023526534            6 
 1748000   0.98878717   -7.2633532      494.071  0.023554109  0.023519392            3 
 1749000   0.97311111   -7.2905992     492.1713  0.023450128  0.023512234            5 
 1750000   0.97393995   -7.2786601    493.77485  0.023513088  0.023505197            8 
 1751000   0.97878434   -7.3263665    491.88337  0.023409641  0.023498086            8 
 1752000   0.99234864   -7.3194818    491.02353  0.023355381  0.023490848            4 
 1753000   0.97671021   -7.3302102    491.61319  0.023370089  0.023483487            9 
 1754000   0.95167493   -7.2630237    492.96311    0.0234209  0.023476163            5 
 1755000    0.9558823   -7.3493421    490.93139  0.023311082  0.023468734            4 
 1756000   0.95171124   -7.3433732    492.20992  0.023358481  0.023461338            3 
 1757000   0.95849306     -7.33684    490.86956  0.023281615  0.023453937            5 
 1758000   0.96306192   -7.2924231    492.21111  0.023331964  0.023446527            6 
 1759000   0.96385695   -7.3117497    492.60999  0.023337596  0.023439126           11 
 1760000   0.95802342   -7.3202844    492.45023  0.023316772   0.02343175            6 
 1761000   0.99182207   -7.2921088    493.33578  0.023345437  0.023424508            9 
 1762000   0.96756978    -7.302504    494.61553  0.023392713   0.02341721            4 
 1763000   0.98608706   -7.2716371    495.19691  0.023406925  0.023410012            8 
 1764000   0.98305804   -7.2829987    494.28084   0.02335038   0.02340289            4 
 1765000   0.95724618   -7.3219651    493.19519  0.023285892  0.023395712            6 
 1766000   0.96505786   -7.2969724    494.15818  0.023318147  0.023388432            6 
 1767000   0.96210221   -7.3139772    493.85449  0.023290629  0.023381149            5 
 1768000   0.97746768   -7.2769824    493.32851  0.023252663  0.023373819            6 
 1769000   0.96313216   -7.3353625    494.56196  0.023297624  0.023366466            6 
 1770000   0.96431887   -7.3458892    495.35577  0.023321835  0.023359053            7 
 1771000   0.97360302   -7.3213765    493.04315  0.023199847  0.023351699            4 
 1772000   0.97415606   -7.3453085    493.30122  0.023198891  0.023344388            6 
 1773000   0.96774911   -7.3163716    495.17541  0.023273896  0.023337076            4 
 1774000   0.97064128   -7.3344506     493.6732  0.023190211  0.023329712            5 
 1775000   0.96738492   -7.3372023    493.64965   0.02317604  0.023322297            6 
 1776000   0.97320038   -7.3439008    493.92261  0.023175798  0.023314933            8 
 1777000   0.96231986   -7.3421668     494.3834  0.023184365  0.023307493            5 
 1778000    1.0003404   -7.3362074    494.40613  0.023172391  0.023300012            4 
 1779000   0.96507075   -7.3243024    495.10212  0.023191967   0.02329276            5 
 1780000   0.98103391   -7.3403778    495.36371  0.023191185  0.023285464            5 
 1781000   0.98852879   -7.3123178    495.99436  0.023207672   0.02327824            2 
 1782000   0.96139773   -7.3280946    495.11398  0.023153478  0.023271083           16 
 1783000   0.95273136   -7.3097369    497.15164  0.023235728  0.023263902            8 
 1784000   0.97619845   -7.3087146     496.4476  0.023189817  0.023256761            5 
 1785000   0.95656592   -7.2900372    496.93541  0.023199599  0.023249666            6 
 1786000   0.98334861    -7.281507    498.39736  0.023254822  0.023242462            6 
 1787000   0.95479504   -7.3189462    497.00675  0.023176961  0.023235352            7 
 1788000   0.96378081   -7.2899925    499.24874  0.023268491  0.023228252            3 
 1789000   0.95853205   -7.3246869    496.71607   0.02313751  0.023221166            7 
 1790000   0.97855044   -7.3163278    497.79851  0.023174977  0.023213996            5 
 1791000   0.94700372   -7.2845164     498.2371  0.023182445  0.023206863            6 
 1792000   0.95741296   -7.3191948    498.67115  0.023189693   0.02319981            4 
 1793000   0.96050747   -7.2981169    499.10628  0.023196983  0.023192688           12 
 1794000   0.95873337   -7.3173597    498.85694   0.02317247  0.023185678            5 
 1795000   0.98124633   -7.2952367    499.45797  0.023187464  0.023178606            6 
 1796000   0.96026133   -7.3291581    499.34872  0.023169484  0.023171536            3 
 1797000   0.98954653   -7.2844991    499.64511  0.023170336  0.023164439           11 
 1798000    0.9871273   -7.3260283    498.34509  0.023097196  0.023157359            3 
 1799000   0.94566186   -7.3181396    499.92313  0.023157455  0.023150289            5 
 1800000   0.96485273   -7.3119851    498.76555  0.023090997  0.023143172            6 
 1801000   0.95553214   -7.3045533    499.09484  0.023093413  0.023136027            7 
 1802000   0.94284882   -7.3059581    499.42455  0.023095845  0.023128836            7 
 1803000   0.96853875   -7.3501367    499.87535  0.023103871  0.023121746            4 
 1804000   0.94820473   -7.3229696    499.54231  0.023075679  0.023114558            4 
 1805000   0.96344155   -7.3035721    499.88448  0.023078692  0.023107391            8 
 1806000   0.94779348    -7.324138     499.3555  0.023041505  0.023100276            4 
 1807000   0.94266599    -7.351682    499.65443   0.02304254  0.023093158           10 
 1808000   0.94740033   -7.3541977    500.15433  0.023052836  0.023085986           15 
 1809000    0.9541383   -7.3533577    498.37853  0.022958289  0.023078837            3 
 1810000   0.96946944   -7.3196904    499.45538  0.022995183  0.023071614            5 
 1811000    0.9544945   -7.3248684    500.93076  0.023050375  0.023064417            8 
 1812000   0.97028156   -7.3267016    500.32664  0.023009871  0.023057278            5 
 1813000   0.95703227    -7.338588    501.12679  0.023033958  0.023050106           15 
 1814000   0.95130516   -7.3091742    500.30483    0.0229835  0.023042976            3 
 1815000   0.94556579   -7.3270261    502.01386  0.023049305  0.023035778            5 
 1816000   0.98390745   -7.3626261    500.18282  0.022952589  0.023028627            7 
 1817000   0.96023813   -7.3466787    500.37064  0.022948571  0.023021419            7 
 1818000    0.9680829   -7.3230889    501.01735  0.022965592  0.023014262            3 
 1819000   0.96092521   -7.3222188    500.84856  0.022945234  0.023007181            6 
 1820000   0.98679002   -7.3985232    499.43392  0.022867854  0.023000008            6 
 1821000   0.95423248   -7.3333304    501.23479  0.022937708  0.022992813            4 
 1822000   0.93990763    -7.287864    503.39734  0.023024028  0.022985812            5 
 1823000   0.98004595    -7.316873    504.10224  0.023043621   0.02297877            6 
 1824000   0.96939096   -7.3634595    501.35639  0.022905537  0.022971744            4 
 1825000   0.95340935   -7.3545836    502.98072  0.022967156   0.02296476           10 
 1826000   0.94924052   -7.3542177    502.38641  0.022927456  0.022957749            4 
 1827000   0.94298723   -7.3504462    503.82299  0.022980432  0.022950769            3 
 1828000   0.95373081   -7.3381496    502.70369  0.022916835  0.022943774            4 
 1829000   0.96080963   -7.3297244    504.11327  0.022968529  0.022936751            5 
 1830000   0.96913691   -7.3182744    502.92878  0.022902039  0.022929668            5 
 1831000   0.95646344   -7.3411262    504.15239  0.022945221  0.022922596            2 
 1832000   0.96321537   -7.3094176    504.94728  0.022968854  0.022915594            9 
 1833000   0.97156974   -7.3848629    502.98493  0.022867109  0.022908612            5 
 1834000   0.94585458   -7.3325053    502.78814  0.022845699  0.022901533            7 
 1835000   0.98499154   -7.3711236     503.2899  0.022856035  0.022894518            6 
 1836000   0.96373473   -7.3379465    504.89025  0.022916224  0.022887437            7 
 1837000   0.96701052   -7.3614646    504.38201  0.022880693  0.022880423            6 
 1838000   0.96313176   -7.3068146    504.19091   0.02285958  0.022873463            3 
 1839000    0.9664509   -7.3583383    505.74061  0.022917374  0.022866562            3 
 1840000   0.97240405    -7.325281    505.40424  0.022889685   0.02285972            3 
 1841000   0.96195493   -7.3180187    505.73379  0.022892169  0.022852941            5 
 1842000   0.94844159   -7.3327133    504.95376  0.022844452  0.022846064            4 
 1843000   0.96309959   -7.3293111    506.01149  0.022879883   0.02283912            7 
 1844000   0.96157489   -7.3635062    503.51978  0.022754871  0.022832091            6 
 1845000     0.955511   -7.3299565    506.34761  0.022870262  0.022825106            2 
 1846000   0.95289741   -7.3224031    506.80107  0.022878344  0.022818138            6 
 1847000   0.94979162    -7.305279    506.43389   0.02284939  0.022811067           14 
 1848000   0.95321611   -7.3570227    505.95623  0.022815487  0.022803978            3 
 1849000   0.94604246   -7.3634277    506.03434  0.022806668  0.022797015            4 
 1850000   0.96081842   -7.3933809    505.13233  0.022753709  0.022789901            5 
 1851000   0.94329393   -7.3650945    506.65712  0.022810063  0.022782784            3 
 1852000   0.95474524   -7.3559221    506.20747  0.022777514  0.022775711            5 
 1853000   0.93708939   -7.3639452    506.24902   0.02276709   0.02276868            8 
 1854000   0.94422113   -7.3538044    505.86553  0.022737573  0.022761617           12 
 1855000   0.94621094   -7.3921147    505.89514  0.022726646  0.022754521            3 
 1856000     0.952268   -7.3788347    507.24102   0.02277483  0.022747389            4 
 1857000   0.96127313   -7.4187512    504.85596  0.022655536    0.0227401            7 
 1858000   0.93782296   -7.3769446    504.49676  0.022627232  0.022732846            6 
 1859000   0.96078495   -7.3821943    506.30095  0.022695936   0.02272568            6 
 1860000   0.95641625   -7.3444849    506.99478   0.02271482   0.02271855            3 
 1861000   0.95304598   -7.3575941    507.16192  0.022710099  0.022711436            5 
 1862000   0.94254771   -7.3571773    506.76516  0.022680145   0.02270433            3 
 1863000   0.95194374   -7.3757443    507.08805  0.022682414  0.022697261           12 
 1864000   0.95299631   -7.3631115    508.06454  0.022713901  0.022690074            6 
 1865000    0.9440911   -7.3683471    505.97387  0.022608305  0.022682932            9 
 1866000   0.96587039   -7.3718214    506.43699  0.022616872  0.022675778            5 
 1867000   0.94371985   -7.3776035    506.17334   0.02259299  0.022668606            5 
 1868000   0.94091178   -7.3814632    508.08693  0.022666262  0.022661462            4 
 1869000   0.96979488   -7.3162636    509.62447  0.022722689  0.022654395            7 
 1870000   0.96573663   -7.3584539     507.5488  0.022618039  0.022647411            9 
 1871000   0.93296362   -7.3305779    509.59312  0.022697004  0.022640315            3 
 1872000    0.9505475   -7.3373656    508.42549  0.022632901  0.022633265            7 
 1873000   0.92455817   -7.3388863    508.96584  0.022644858  0.022626247            5 
 1874000   0.95077548   -7.3416161    509.14488  0.022640736  0.022619217            6 
 1875000   0.96109362   -7.3174751    510.49529   0.02268868  0.022612252            3 
 1876000   0.92800431   -7.3296888    508.04957  0.022567944  0.022605299            4 
 1877000   0.95102037   -7.3764901    509.99621  0.022642346  0.022598343            3 
 1878000   0.95710561   -7.3173635    511.04322  0.022676749  0.022591355           10 
 1879000   0.95648485   -7.3782501    509.07688  0.022577474  0.022584309            6 
 1880000   0.94362843   -7.3476268    508.48071  0.022539039  0.022577268           10 
 1881000   0.94756219   -7.3694093    509.98133  0.022593538   0.02257025            9 
 1882000   0.95391882   -7.4039631    508.39263  0.022511186  0.022563208            6 
 1883000   0.97232038    -7.409535    509.63049  0.022554014  0.022556166            6 
 1884000   0.95872486   -7.3733465    509.70207  0.022545208  0.022549088            5 
 1885000   0.93999226   -7.3874701    509.75992  0.022535806  0.022541995            3 
 1886000   0.94019347   -7.3339683    510.72728  0.022566599  0.022534971            7 
 1887000   0.96484632   -7.3583585    509.34662  0.022493668  0.022528037            4 
 1888000   0.96731584   -7.3308295    511.20578  0.022563814  0.022521089            9 
 1889000   0.94632166   -7.3960064    509.70993   0.02248588  0.022514154            5 
 1890000   0.94624518   -7.3751192    510.96097  0.022529143  0.022507131            7 
 1891000   0.94875642   -7.3457654    511.28002   0.02253129  0.022500213            5 
 1892000   0.96353672   -7.3543687    511.32559  0.022521388  0.022493337            3 
 1893000    0.9528188   -7.3398997    512.45812  0.022559347  0.022486435            6 
 1894000   0.94132003   -7.3829427    511.87613  0.022521829  0.022479507            7 
 1895000   0.95001193   -7.3779666    510.30394  0.022440807  0.022472644            4 
 1896000   0.95321515   -7.4102891    511.61756  0.022486707  0.022465658            4 
 1897000   0.97520004    -7.333038    512.94411  0.022533127  0.022458728            4 
 1898000   0.96141592   -7.3825344    513.03507  0.022525249  0.022451762            3 
 1899000    0.9115196   -7.3883031    511.87443  0.022462455  0.022444801            4 
 1900000    0.9593432    -7.346433    513.29689  0.022513022  0.022437882            4 
 1901000   0.93658704   -7.3410398    512.48638  0.022465649   0.02243102            5 
 1902000   0.94647107   -7.3725693    511.99493  0.022432305   0.02242411            4 
 1903000   0.95663743   -7.4100254    511.57121  0.022401962   0.02241723            5 
 1904000      0.93129   -7.3897474    511.54936   0.02238924  0.022410262            9 
 1905000   0.96391679   -7.4103012    512.14729  0.022403643  0.022403211            5 
 1906000   0.95736194   -7.3722314    514.25235  0.022483926  0.022396226            8 
 1907000   0.93661557   -7.3923791    511.84702  0.022367026  0.022389287            5 
 1908000   0.94351665   -7.3476326    513.54105  0.022429291  0.022382337            2 
 1909000   0.93995862   -7.3941213    512.52857  0.022373344  0.022375443            6 
 1910000    0.9164502   -7.3240259     514.3865  0.022442692  0.022368575            3 
 1911000   0.93883821   -7.3438997    513.04838  0.022372596  0.022361724            5 
 1912000   0.95099667   -7.3932171    513.65563  0.022387362  0.022354798           14 
 1913000   0.93110773   -7.3848896    514.39016  0.022407657  0.022347837            4 
 1914000   0.95314911   -7.3851555    513.88558   0.02237398  0.022340918            3 
 1915000   0.94324735   -7.4144783    514.38847  0.022384181  0.022333934            5 
 1916000   0.96206139   -7.3715313    513.84475   0.02234885   0.02232699            9 
 1917000   0.92399132   -7.3864707    514.18606  0.022352029  0.022320089            6 
 1918000   0.94154581   -7.3932147    513.32097  0.022302788   0.02231317            3 
 1919000    0.9457005   -7.3763182    515.18774  0.022372231  0.022306178            6 
 1920000   0.93422673   -7.3573757    514.31058  0.022322508  0.022299212            8 
 1921000   0.93953744   -7.3845984     514.1537  0.022304082  0.022292286            6 
 1922000   0.93817025   -7.4039887    515.57319  0.022354023  0.022285358            3 
 1923000   0.93978323   -7.4131018    514.21252  0.022283434  0.022278442            5 
 1924000    0.9388425   -7.3754389    514.88802   0.02230111  0.022271591            8 
 1925000    0.9488109   -7.3804179    515.75685  0.022327136  0.022264657           12 
 1926000   0.94475387   -7.3950119    517.06796  0.022372272   0.02225774            6 
 1927000   0.95653441   -7.3720387    515.44089    0.0222903    0.0222509            3 
 1928000   0.93993301   -7.3604323    516.81873  0.022338292  0.022244083            4 
 1929000   0.93742786   -7.3686499    516.92028  0.022331099  0.022237232            6 
 1930000   0.95552597   -7.4175909    516.50112   0.02230143   0.02223042            4 
 1931000   0.93973992   -7.3948853    516.45893   0.02228806  0.022223572            8 
 1932000   0.97536995   -7.3642978    515.92711  0.022253585  0.022216741            6 
 1933000   0.94922729    -7.380095    517.31348   0.02230184  0.022209933            4 
 1934000    0.9435635   -7.3685867    517.21925  0.022286248  0.022203172            6 
 1935000   0.96274145   -7.4139181    515.97483  0.022221138  0.022196339            5 
 1936000   0.94131154    -7.388235    517.67735  0.022282944  0.022189553           11 
 1937000   0.94582067   -7.3799407    516.35055  0.022214359  0.022182688            5 
 1938000   0.96128711   -7.3793485    517.92558  0.022270622  0.022175828            3 
 1939000   0.97661222   -7.4148043    517.60769  0.022245474  0.022169037            6 
 1940000   0.94881748   -7.3359684    518.28075  0.022262919  0.022162241            9 
 1941000   0.94206961   -7.4039238    518.16228  0.022246363  0.022155521           10 
 1942000   0.95270148   -7.3632397    518.00909  0.022228334  0.022148747            4 
 1943000   0.94922081   -7.3816672    518.62381  0.022243258  0.022141955            9 
 1944000   0.92532616   -7.3664308    520.31338  0.022304243  0.022135169            5 
 1945000   0.94152327   -7.3833156    518.98675  0.022235936  0.022128466            6 
 1946000   0.93307916   -7.3895822    517.88114  0.022177164  0.022121672            5 
 1947000   0.94283697   -7.3940116    519.07387  0.022216824  0.022114921            6 
 1948000   0.93606941   -7.4412535    517.06104  0.022119312  0.022108068            5 
 1949000    0.9636991   -7.3817822    518.79848  0.022182251   0.02210121            6 
 1950000   0.93320086   -7.3898319     518.7038  0.022166829  0.022094369            3 
 1951000   0.94952555   -7.4174666    517.78686  0.022116302  0.022087546            4 
 1952000   0.93500725    -7.385012    517.49446  0.022092489  0.022080732            8 
 1953000   0.93229404   -7.3923584    518.30788  0.022115885  0.022073876            6 
 1954000   0.93007736   -7.4352365    519.60059  0.022159697  0.022066917           12 
 1955000   0.95304214   -7.4183603    517.23623   0.02204758  0.022060061            6 
 1956000   0.94802947   -7.4380169    517.57252  0.022050636  0.022053086            8 
 1957000   0.93573021   -7.3940583    518.32533  0.022071424  0.022046132           10 
 1958000   0.93639002   -7.4152647    517.85593  0.022040174  0.022039198           18 
 1959000   0.94069784   -7.4082805    519.12176   0.02208277  0.022032284            5 
 1960000   0.93758115   -7.3863519     520.3018  0.022121675  0.022025332            9 
 1961000   0.95989578   -7.4249828    518.19966  0.022021063  0.022018443            8 
 1962000    0.9465894   -7.3877254    518.87437  0.022038497  0.022011545            3 
 1963000   0.92514271   -7.3913438    519.81488  0.022067196  0.022004599            9 
 1964000   0.93582802   -7.3988508    520.25545  0.022074654  0.021997656            6 
 1965000   0.93758243    -7.388795    519.84391  0.022045968  0.021990832            6 
 1966000   0.91304537   -7.3708304    521.81944  0.022118491  0.021984061            8 
 1967000   0.91881198    -7.409338    519.94702   0.02202792  0.021977266           11 
 1968000   0.94767497   -7.4226724    521.11568  0.022066213    0.0219704            5 
 1969000   0.93724366   -7.3925737    520.02053  0.022008656  0.021963562            5 
 1970000   0.92408643   -7.4102035    520.84906  0.022032532  0.021956793            6 
 1971000    0.9312841   -7.3954861    520.09539  0.021989489  0.021949899            8 
 1972000   0.92631826   -7.3979108     520.8851   0.02201171  0.021943055            7 
 1973000   0.94670554    -7.422456    521.38363   0.02202161  0.021936164            4 
 1974000    0.9333552   -7.4284081    520.97949  0.021993393  0.021929277            5 
 1975000   0.94272685   -7.3980456    521.04446  0.021984998   0.02192237            6 
 1976000   0.93011414   -7.4384204    521.01408  0.021972591  0.021915442            6 
 1977000   0.92861703   -7.4195696    521.10494  0.021965307  0.021908498            3 
 1978000   0.95152652   -7.4242951    520.86475  0.021944083  0.021901623           12 
 1979000   0.93346715   -7.3572195    522.43096  0.021998946  0.021894732            6 
 1980000   0.91885999   -7.4393847     519.9856  0.021884916  0.021887839            5 
 1981000   0.94023213   -7.4023325    521.39782  0.021933275  0.021880992            4 
 1982000   0.92244627   -7.4063217    521.54627  0.021928451  0.021874109            8 
 1983000   0.94862584   -7.4271447     521.1861  0.021902256  0.021867286            5 
 1984000    0.9579482   -7.4309923    519.79885  0.021832949  0.021860361            6 
 1985000   0.92408419   -7.4273832    520.56817  0.021854247  0.021853376            5 
 1986000    0.9571006   -7.4210821    520.78888  0.021852504  0.021846451           11 
 1987000   0.92801352   -7.4216956    520.89772  0.021846071  0.021839497            7 
 1988000   0.93521594   -7.4663441    520.51332  0.021818969  0.021832424            7 
 1989000    0.9194435   -7.4635105    520.45819  0.021805689  0.021825374            7 
 1990000   0.91894945   -7.4010633    522.52784    0.0218814   0.02181835            9 
 1991000   0.92985388   -7.4324419    521.68622  0.021835184  0.021811371           14 
 1992000   0.95151483   -7.4220851    522.71553  0.021867283  0.021804393            7 
 1993000   0.93189214   -7.4298496    522.76899  0.021858546  0.021797371            7 
 1994000   0.94272769   -7.4074708     523.0498   0.02185932  0.021790411            4 
 1995000   0.91797737    -7.413312    522.21571  0.021813522  0.021783481            4 
 1996000   0.93408117   -7.4205895    522.19852  0.021801875  0.021776555           10 
 1997000   0.91777713   -7.4213628    522.77695  0.021815096  0.021769691            6 
 1998000   0.91393236   -7.4081721    522.66224  0.021799393   0.02176282            7 
 1999000   0.92162373   -7.3725638    524.12005   0.02184926  0.021755924            3 
 2000000   0.94077663   -7.3968382    524.27408  0.021844753  0.021749146            4 
 2001000   0.93321717   -7.4228149    523.08774   0.02178443  0.021742223           10 
 2002000   0.91869736   -7.4508374    522.92317  0.021766699  0.021735308           12 
 2003000   0.90657528   -7.4376347     523.6544  0.021786254  0.021728456            7 
 2004000   0.93845526    -7.451895    522.54644   0.02172931  0.021721533           11 
 2005000   0.91740163   -7.4433179    523.11796  0.021742226  0.021714634            3 
 2006000   0.91523879   -7.4468586    524.56448  0.021791479  0.021707724            4 
 2007000   0.90739668   -7.4334973    525.18136  0.021806235  0.021700868            6 
 2008000   0.92952961   -7.4256498    524.06884  0.021749205  0.021694036            6 
 2009000   0.92223718   -7.4337626     523.8235  0.021728202    0.0216872            8 
 2010000   0.92262404   -7.3457884    527.09642  0.021853085  0.021680375            5 
 2011000   0.91903631   -7.4283515    524.56931  0.021737498  0.021673639            5 
 2012000   0.92266821   -7.4178777     525.1689  0.021751528  0.021666773            7 
 2013000   0.91439259   -7.4330559    524.11415  0.021697059  0.021659869            8 
 2014000   0.92943099   -7.4381115     525.5467   0.02174556   0.02165301            5 
 2015000   0.91607654   -7.4326607    525.67852   0.02174022  0.021646223            6 
 2016000   0.93133198   -7.4238058    525.56203  0.021724621  0.021639451            7 
 2017000   0.92496297   -7.4622761    524.10493   0.02165365  0.021632593            3 
 2018000   0.92762034   -7.4206587    526.01531  0.021721808  0.021625821           13 
 2019000   0.93237833   -7.4648695    525.22811  0.021678558  0.021619036            7 
 2020000   0.93973828    -7.454872    525.87468    0.0216945  0.021612245            4 
 2021000   0.94105488    -7.440937    525.19784  0.021655857  0.021605487            4 
 2022000   0.92074131   -7.4585086    525.20847  0.021645585  0.021598669           28 
 2023000   0.92840046   -7.4713573    526.25648  0.021678055  0.021591841            9 
 2024000    0.9273309   -7.4552051    525.67196  0.021643279  0.021584993            6 
 2025000   0.91547341   -7.4650274    525.18013  0.021612351  0.021578201            4 
 2026000   0.93369629   -7.4521169    526.41431  0.021652448  0.021571406            8 
 2027000   0.92887255   -7.4130919    527.67599  0.021693635  0.021564716            9 
 2028000   0.92170706    -7.435318    527.00851  0.021655511  0.021558066           14 
 2029000   0.92439077   -7.4304358    528.15185  0.021691796  0.021551425            3 
 2030000   0.90867398   -7.4546598    525.21323  0.021560477  0.021544728            4 
 2031000   0.93331323   -7.4172727    528.44953  0.021682649  0.021538027            3 
 2032000   0.93236713   -7.4347108    527.78297  0.021644643  0.021531274            3 
 2033000   0.94282207     -7.42166    527.60388  0.021626655  0.021524575            6 
 2034000   0.93576907   -7.4016878    529.01708  0.021673922  0.021517929            5 
 2035000   0.92923472   -7.4501448    528.06151   0.02162414   0.02151128            5 
 2036000   0.92438956   -7.4301369    529.89936  0.021688743  0.021504675            6 
 2037000   0.92565599   -7.4514298    528.46632   0.02161947  0.021497986           11 
 2038000   0.92084407   -7.4462286    527.61588  0.021574087  0.021491343            7 
 2039000   0.92691741   -7.4991773     526.4205  0.021514652  0.021484712            7 
 2040000   0.90296942   -7.4634252     528.3073  0.021581181   0.02147795            6 
 2041000   0.94146251   -7.4641177    529.39072  0.021614843   0.02147122            4 
 2042000   0.92959041   -7.4397301    529.20886  0.021596836  0.021464522            7 
 2043000   0.91069251    -7.470865    529.58318  0.021601533  0.021457797           16 
 2044000   0.91726294    -7.452544    529.17284  0.021574235  0.021451134           10 
 2045000    0.9271333   -7.4397497    528.56299  0.021538834  0.021444497            9 
 2046000   0.92244735   -7.4417996    528.42116   0.02152253   0.02143786            4 
 2047000    0.9152376   -7.4030452    531.59185  0.021641095  0.021431268            3 
 2048000   0.92743164   -7.4681221    528.05191  0.021486487   0.02142467           10 
 2049000   0.93236623   -7.4561051    530.26242  0.021565903  0.021418033            3 
 2050000   0.93345162   -7.4572398    529.87345  0.021539571  0.021411386            2 
 2051000   0.92358063   -7.4529988    529.49777  0.021513805   0.02140469            4 
 2052000   0.91377401   -7.4632711    529.07072  0.021485978  0.021398007            6 
 2053000   0.92850805   -7.4528415     528.6144   0.02145699  0.021391283           12 
 2054000   0.93648094   -7.4713754    529.53112  0.021483736    0.0213846            3 
 2055000   0.92802285   -7.4712226    530.17059  0.021499213  0.021377849            7 
 2056000    0.9130198   -7.4966877     527.6851  0.021388015  0.021371054           17 
 2057000   0.92841463     -7.49979    529.08729  0.021434423  0.021364257            7 
 2058000   0.91460512   -7.4756856     527.5478   0.02136167  0.021357465            7 
 2059000   0.90847704   -7.4877872    527.73568  0.021358899  0.021350703           11 
 2060000   0.93066439   -7.4581015     529.2711  0.021410643  0.021343949            7 
 2061000    0.9375559   -7.4883076    529.72898  0.021418769  0.021337201            9 
 2062000   0.90894083   -7.4440245    530.97142  0.021458593  0.021330446            8 
 2063000   0.92385595   -7.4432567    531.93277  0.021487024  0.021323729            5 
 2064000   0.91459321   -7.4477253     530.5141  0.021419335  0.021317016            8 
 2065000   0.91847688   -7.4476298     529.6134  0.021372615  0.021310317           12 
 2066000    0.9113925    -7.454718       531.62  0.021443207  0.021303636            5 
 2067000   0.91348191   -7.4298334    531.77474  0.021439072  0.021296997           16 
 2068000   0.91449289   -7.4934754    530.98378  0.021396832  0.021290266            7 
 2069000   0.89279961   -7.4442603    530.92847  0.021384263  0.021283555            7 
 2070000   0.90090103   -7.4638482    530.21395  0.021345167  0.021276731            6 
 2071000   0.92563397   -7.5095867    530.16451  0.021332871  0.021269902            4 
 2072000   0.92447059   -7.4509624    531.22127  0.021365077  0.021263099            5 
 2073000   0.91782385   -7.4952322    529.80901  0.021297999  0.021256271            8 
 2074000   0.91866933   -7.4832128    530.49076  0.021315122  0.021249438           12 
 2075000   0.91860286   -7.4635734    530.71824  0.021313986  0.021242637            3 
 2076000   0.91554475   -7.4437473       530.39  0.021290543  0.021235926            5 
 2077000   0.91866498   -7.4869288    532.14624  0.021350756  0.021229193           15 
 2078000   0.90486233   -7.5052954    530.13538  0.021259841    0.0212224           18 
 2079000   0.91863618   -7.4560703    532.46384  0.021342947  0.021215712            9 
 2080000   0.90692177   -7.4654564    532.20733  0.021322409  0.021209044            5 
 2081000   0.91867923   -7.4824133    533.98593  0.021383386  0.021202412           14 
 2082000   0.92372125   -7.4503335    534.71094  0.021402135    0.0211958            5 
 2083000   0.90239102   -7.4813343    532.03485    0.0212848  0.021189191            6 
 2084000   0.91667649   -7.4741217    532.79282  0.021304895  0.021182608           15 
 2085000   0.92320506   -7.4897819     533.8657  0.021337558  0.021175992            9 
 2086000   0.90809772   -7.5018994    532.41089  0.021269211   0.02116934           14 
 2087000   0.92827315   -7.4538085    533.78574  0.021313917  0.021162711            2 
 2088000   0.91094949    -7.437813    535.15009  0.021358161   0.02115615            5 
 2089000   0.89512341   -7.4634545     533.9347  0.021299454  0.021149597            6 
 2090000   0.91483163   -7.4092202    536.30036  0.021383587   0.02114308            7 
 2091000   0.90094203   -7.4972608    532.78413  0.021233227  0.021136556            4 
 2092000   0.91990879   -7.4544183    533.43935  0.021249177  0.021129993           11 
 2093000    0.9224019   -7.4603884     534.1735  0.021268255  0.021123516            4 
 2094000   0.92510624   -7.4712259    534.88453  0.021286395  0.021117033            2 
 2095000   0.92641953   -7.4146811    534.90686  0.021277122   0.02111048            3 
 2096000   0.92426662   -7.4588107    537.11628  0.021354814  0.021104016            3 
 2097000   0.90940766   -7.4187178    535.16612  0.021267133  0.021097585            8 
 2098000   0.90674781   -7.4743735    535.61676  0.021274895  0.021091179            5 
 2099000     0.911558   -7.4552249    535.19628  0.021248066  0.021084719            5 
 2100000    0.9043541   -7.4304853    536.72795  0.021298728  0.021078273           10 
 2101000   0.91100911   -7.4671835    535.90702   0.02125603  0.021071796           11 
 2102000   0.93716125   -7.4647044     535.9718  0.021248486  0.021065352            7 
 2103000   0.91834045   -7.4553602    537.27392  0.021289979  0.021058962            6 
 2104000   0.91976239   -7.4541281    536.51804  0.021249922  0.021052558            5 
 2105000   0.92550264   -7.4504693    536.40415  0.021235319  0.021046189            3 
 2106000   0.92760251   -7.5006929    536.60738  0.021233277  0.021039708            9 
 2107000   0.91950552   -7.4981957    537.27271  0.021249514  0.021033237            7 
 2108000   0.91231948   -7.4591398    537.41692  0.021245134   0.02102675            8 
 2109000   0.92746468    -7.490845    536.68622  0.021206189  0.021020266            5 
 2110000   0.91237478   -7.5073293    535.55347  0.021151401  0.021013763            8 
 2111000    0.9382819   -7.4498609    537.37158  0.021213153  0.021007289            5 
 2112000   0.91834428   -7.4887937       536.53  0.021169902   0.02100077            5 
 2113000    0.9069223   -7.4743777    537.30288  0.021190364  0.020994262            4 
 2114000   0.93242477   -7.4699848    537.76798  0.021198675  0.020987734           10 
 2115000   0.91744764   -7.4777348    536.29329  0.021130547  0.020981239            4 
 2116000   0.90230293    -7.482565    537.19368  0.021156021  0.020974772            4 
 2117000   0.89873032   -7.5190816    535.85485  0.021093326  0.020968249           15 
 2118000   0.90400017   -7.4410071    537.82442   0.02116086  0.020961695            9 
 2119000   0.92385791    -7.460266    536.05879  0.021081437  0.020955201            3 
 2120000   0.92329037   -7.4726005    538.27477  0.021158599   0.02094867            3 
 2121000   0.91604355   -7.4676643    536.52438  0.021079852  0.020942104            9 
 2122000   0.91022547   -7.4649239    538.23162  0.021136963  0.020935575            7 
 2123000   0.90167258   -7.4957992    536.45365  0.021057216  0.020929033            5 
 2124000   0.90983382   -7.5212616    534.84324   0.02098412  0.020922481           12 
 2125000   0.89653929   -7.4648778    537.49592  0.021078271  0.020915945           11 
 2126000    0.9166734   -7.5157859    536.09978  0.021013632  0.020909332            7 
 2127000   0.90272268   -7.5024937    536.01433  0.021000405  0.020902652            5 
 2128000   0.92152189   -7.5049351    534.77196  0.020941885  0.020895957            5 
 2129000   0.90083188   -7.4662796    536.96647  0.021017945  0.020889368           10 
 2130000   0.91074412   -7.4755668    537.19205  0.021016904  0.020882755            3 
 2131000   0.91831629   -7.5028806    537.85459   0.02103295  0.020876148           11 
 2132000   0.91464338   -7.5489779    537.36045   0.02100377  0.020869497           14 
 2133000   0.91534243   -7.4909876    536.92299  0.020976832  0.020862871            7 
 2134000   0.90636389   -7.4940419    536.78689  0.020961687  0.020856249            4 
 2135000   0.90061483   -7.4841054    538.99531  0.021038068  0.020849608            5 
 2136000   0.89654602   -7.5224987    537.49973  0.020969871  0.020843034            4 
 2137000   0.92227875   -7.4561168    539.89917  0.021053626  0.020836486            4 
 2138000   0.90155089   -7.4657698    539.58006   0.02103134  0.020829933            4 
 2139000   0.91310373   -7.4688297    538.30038  0.020971653  0.020823455            5 
 2140000   0.91871721   -7.4715441    539.08624  0.020992455  0.020816892            7 
 2141000   0.88822465   -7.4962721    537.99593  0.020940212  0.020810327           12 
 2142000   0.93352484   -7.4715094    538.03691  0.020932031  0.020803806            3 
 2143000   0.89146394   -7.5025856    539.00852  0.020960045   0.02079731           12 
 2144000   0.91178605   -7.4845504    538.10606  0.020915192  0.020790732            5 
 2145000   0.89896677   -7.4655914    538.77883  0.020931578  0.020784168            6 
 2146000   0.90788706   -7.4552731    539.56088  0.020952193  0.020777651            7 
 2147000   0.92060199    -7.469594    539.59699  0.020943836  0.020771132            5 
 2148000   0.91043772    -7.509193    538.75532  0.020901433  0.020764572            4 
 2149000   0.91731153   -7.5096683     538.3524  0.020876082  0.020758004            5 
 2150000   0.91308724   -7.4799418      540.641  0.020955078  0.020751431            5 
 2151000   0.90339843    -7.520754    539.46115  0.020899626   0.02074484            8 
 2152000   0.91047616    -7.524917    537.71822  0.020822422  0.020738272            9 
 2153000   0.89488084   -7.5436787    538.65689  0.020849082  0.020731653            8 
 2154000   0.90655184   -7.5369301    539.54305  0.020873686  0.020724923            6 
 2155000   0.90276189   -7.4941882    538.78087  0.020834527  0.020718322           10 
 2156000   0.91049694   -7.5041501    538.67533  0.020820784  0.020711724            5 
 2157000   0.90822257   -7.5100721    538.84447  0.020817666  0.020705065            9 
 2158000   0.90720147   -7.5447279    538.34683  0.020788802  0.020698434            7 
 2159000   0.89742145   -7.5143186    538.80895   0.02079701  0.020691832            3 
 2160000    0.9163259   -7.5255853    540.01313   0.02083384  0.020685191            5 
 2161000   0.91970968   -7.5503772     539.2725  0.020795639  0.020678556           11 
 2162000   0.90484583   -7.5149152    539.46239  0.020793339  0.020671894            6 
 2163000   0.90686926   -7.5049161    540.68268   0.02083074  0.020665199            8 
 2164000   0.89621484   -7.4954632    540.04665  0.020796621  0.020658594            6 
 2165000   0.91285712   -7.4496187    542.04914  0.020864093   0.02065207            5 
 2166000   0.88721803   -7.5272287    539.06662  0.020739713  0.020645491            6 
 2167000    0.8664531   -7.5013861    541.09292  0.020808065  0.020638956            4 
 2168000   0.90633547   -7.4792824    540.93995  0.020792587  0.020632466            7 
 2169000   0.91087066   -7.5270778    540.11671  0.020751372  0.020625876           11 
 2170000   0.88626748   -7.5399332    540.14435   0.02074287  0.020619268            5 
 2171000   0.88680433    -7.531431    540.93002  0.020763474  0.020612629           14 
 2172000   0.90557835   -7.4871897    541.02338  0.020757496  0.020606056            6 
 2173000   0.89145745   -7.5289899    541.28996  0.020758167  0.020599539            4 
 2174000   0.88642583   -7.5246776    541.29517  0.020748818   0.02059294            8 
 2175000   0.90219066    -7.496294     541.2819   0.02073877  0.020586395            5 
 2176000   0.90290044   -7.4997918    541.25907  0.020728365  0.020579763           10 
 2177000   0.92409546    -7.500253    541.75474  0.020737817  0.020573178            9 
 2178000   0.91702979   -7.5478622    540.73148  0.020689144  0.020566602            5 
 2179000   0.89983337   -7.5158076     540.6735  0.020677432  0.020560014            7 
 2180000   0.89042228   -7.5322327    541.38577  0.020695175  0.020553448            4 
 2181000   0.90633676   -7.5633377    539.92365   0.02062982  0.020546795           14 
 2182000    0.9184403   -7.5453951    540.69133  0.020649684  0.020540199            8 
 2183000   0.89047704   -7.4844801    542.91543  0.020725127  0.020533593            2 
 2184000   0.90453804   -7.5007753    541.19054  0.020649822  0.020527021           10 
 2185000    0.9242943   -7.5224379    540.97349  0.020632093  0.020520466            8 
 2186000    0.9020257    -7.554171    541.04862  0.020625519   0.02051389            6 
 2187000   0.90179616   -7.5170429    543.04631  0.020692208  0.020507289           11 
 2188000   0.91919451   -7.5031264    542.92647  0.020678187  0.020500695            6 
 2189000   0.90819924   -7.5226515    541.48809  0.020613982  0.020494137           13 
 2190000     0.904609   -7.4832842    542.26287  0.020634051  0.020487646           10 
 2191000   0.89722819   -7.5553616    543.13407  0.020657769  0.020481111            4 
 2192000   0.89832008   -7.4728195    543.41147  0.020658891   0.02047451            4 
 2193000    0.9165091    -7.523765    542.23475  0.020604755  0.020467987           12 
 2194000   0.90853856   -7.5178038     542.2898  0.020597455  0.020461436           15 
 2195000   0.91586078   -7.4980315    544.15877  0.020659027  0.020454904           10 
 2196000   0.92284392   -7.4804686    544.15915  0.020649634  0.020448424            8 
 2197000   0.89992479   -7.5102504     542.5449  0.020579005  0.020441892           22 
 2198000   0.89857732   -7.5047096    544.18255  0.020631731  0.020435368            5 
 2199000   0.90201266   -7.5082309    543.53996  0.020597998  0.020428915           27 
 2200000   0.89372124   -7.5060234    544.28192  0.020616739  0.020422436            9 
 2201000   0.90662266   -7.5304024    543.14263  0.020564237  0.020415981            6 
 2202000   0.90397259   -7.5008236    543.44617  0.020566385  0.020409472            7 
 2203000   0.89711034   -7.5082291    543.90645  0.020574461  0.020402957            9 
 2204000   0.90361306   -7.5009971    543.92564  0.020565852  0.020396399            5 
 2205000   0.89943126   -7.5028301    543.69981   0.02054799  0.020389875            4 
 2206000   0.91187717    -7.517159    544.40086  0.020565158  0.020383308            9 
 2207000   0.89443341   -7.5297696    542.98703  0.020502455  0.020376762            9 
 2208000   0.89447902   -7.5180506    543.85659  0.020525988  0.020370226            3 
 2209000   0.90704606   -7.5205699    543.09395  0.020487926  0.020363655           12 
 2210000   0.91011803    -7.533559    544.06994  0.020515458  0.020357051           10 
 2211000   0.88588643   -7.5441781    544.07002  0.020506182  0.020350481           11 
 2212000   0.89462742   -7.5361004    543.36515  0.020470357  0.020343876            5 
 2213000   0.89575469   -7.5282933    542.86648  0.020442329  0.020337305            4 
 2214000   0.90054782   -7.4772692    544.57687  0.020497473  0.020330768           12 
 2215000   0.90899688   -7.5234792    545.46755  0.020521729  0.020324188            6 
 2216000   0.87233295   -7.5809655    543.38753  0.020434248  0.020317564            4 
 2217000   0.90979648   -7.5681845    543.48471  0.020428684  0.020310909            5 
 2218000   0.88273708   -7.5106046    545.28553  0.020487133  0.020304297            4 
 2219000   0.90883495   -7.4928248    543.39844  0.020407032   0.02029769            5 
 2220000   0.88453886     -7.53277    544.69511  0.020446513  0.020291065           13 
 2221000   0.88291216   -7.5214624    543.00534  0.020373906  0.020284487            5 
 2222000   0.90025618   -7.5254133    545.31207  0.020451248  0.020277972            8 
 2223000   0.90312681   -7.5144232    544.08275  0.020395964  0.020271367            5 
 2224000   0.88619904    -7.537399    544.26452  0.020393605  0.020264707            6 
 2225000   0.87648025   -7.5483005     544.0517  0.020376468  0.020258071            7 
 2226000   0.87488545   -7.5078131    544.91939  0.020399797  0.020251518            8 
 2227000   0.88424439   -7.5407802    544.52226  0.020375777  0.020244993            6 
 2228000    0.8769581   -7.5382459     544.9305  0.020381901  0.020238483            6 
 2229000   0.89585565   -7.5349993    545.42672  0.020391309  0.020231963            4 
 2230000   0.90363263   -7.5674252    544.09757  0.020332495   0.02022537            4 
 2231000   0.90477206   -7.5060097    545.69999  0.020383236  0.020218706            9 
 2232000   0.90942847   -7.5914306    543.42412  0.020289132  0.020212119           13 
 2233000   0.88235709    -7.536373    545.31401  0.020350575  0.020205467           11 
 2234000   0.91075103   -7.5247054    544.49489  0.020310911  0.020198853            5 
 2235000   0.90605598    -7.542397    545.20996  0.020328485  0.020192201            7 
 2236000   0.91067102   -7.5456013    544.59312  0.020296404  0.020185585            3 
 2237000   0.90528008   -7.5109326    545.72003  0.020329311  0.020178997            8 
 2238000   0.90831809   -7.5177371    546.85805  0.020362602  0.020172518            8 
 2239000   0.89385052   -7.5443183     543.7387  0.020237409  0.020165947            7 
 2240000   0.90309372   -7.5345368     545.8789  0.020307995  0.020159397           10 
 2241000   0.88240241   -7.5296695    545.97559  0.020302528  0.020152867            5 
 2242000   0.86046503   -7.5571653    543.89572  0.020216165  0.020146284            8 
 2243000   0.88807564   -7.5364693     545.7941  0.020277682  0.020139723            7 
 2244000     0.894809   -7.5279471    546.66638  0.020301039  0.020133134           13 
 2245000   0.88953652   -7.5749875    544.78143  0.020222028  0.020126504            9 
 2246000   0.87592569   -7.5573803    545.71177  0.020247543  0.020119902            3 
 2247000   0.90053717   -7.5307653    548.53234  0.020343137  0.020113279            4 
 2248000   0.91257136   -7.5456438    545.72436  0.020229995  0.020106659           18 
 2249000   0.89285691   -7.5512284    544.65857  0.020181509  0.020100003           17 
 2250000   0.89916344    -7.581641    543.90484  0.020144624  0.020093304            4 
 2251000   0.88150817   -7.5569974    544.61783   0.02016207  0.020086639            4 
 2252000   0.89437254   -7.5712233    545.19806  0.020174588  0.020079912            8 
 2253000   0.87984975   -7.5732614    544.70143  0.020147264  0.020073198            9 
 2254000   0.87554498   -7.5694612    545.07051  0.020151971  0.020066483            9 
 2255000   0.89667994   -7.5342332    546.49607  0.020195716  0.020059789            9 
 2256000   0.91104446   -7.5265362    548.03125  0.020243471   0.02005314           21 
 2257000   0.88207908   -7.5352273    546.35566  0.020172635  0.020046538           10 
 2258000     0.885208   -7.5154007    547.02248  0.020188311  0.020039941            4 
 2259000   0.87617256   -7.5754723    545.41957  0.020120244  0.020033277            8 
 2260000    0.9051919   -7.5467305    545.75173  0.020123589  0.020026584            6 
 2261000   0.89395372   -7.5452813    545.88227    0.0201195  0.020019897            8 
 2262000   0.88812737   -7.5577694    547.42397  0.020167402  0.020013194            5 
 2263000   0.88540403   -7.5468694    545.19183  0.020076294  0.020006496           13 
 2264000   0.90173594   -7.5478285    546.39383  0.020111669  0.019999834           11 
 2265000   0.90512036   -7.5104741    547.21599  0.020133039  0.019993237           10 
 2266000   0.89375235   -7.5418531    547.47902  0.020133827  0.019986636            5 
 2267000   0.90210243   -7.5180817    547.71727  0.020133703  0.019980078            8 
 2268000   0.90025164   -7.5582268    548.06977  0.020137778  0.019973493           10 
 2269000   0.88167506     -7.52755    547.36932  0.020103178  0.019966851           15 
 2270000   0.89784712    -7.536498    547.73875  0.020107884  0.019960225            8 
 2271000   0.88313314   -7.5616108    546.18509  0.020042018  0.019953553           12 
 2272000    0.8792013   -7.5661105    546.79542  0.020055583  0.019946858            8 
 2273000   0.87098112   -7.5748678    546.45186  0.020034164  0.019940195            8 
 2274000   0.86781689   -7.5596736    547.27879  0.020055658  0.019933532            8 
 2275000   0.87473772   -7.6022845    546.16842  0.020006169  0.019926811           13 
 2276000   0.87813769   -7.5873123    546.86333  0.020022822  0.019919979           14 
 2277000   0.89293347   -7.5744355    546.55072  0.020002588  0.019913238           14 
 2278000   0.89367512   -7.5390555    546.94048  0.020008066  0.019906468            8 
 2279000   0.89965966   -7.5413799    546.88993  0.019997438  0.019899749            4 
 2280000   0.88377394   -7.6081639    545.80315  0.019948945  0.019893015            6 
 2281000   0.87827691   -7.5550227    547.02855  0.019984968   0.01988625            9 
 2282000   0.88576453   -7.5640041    546.88392  0.019970929  0.019879525            3 
 2283000   0.87342849   -7.5848473    546.71859  0.019956147  0.019872699           10 
 2284000   0.88579801   -7.5470079    547.85692  0.019988942  0.019865882            8 
 2285000   0.88870674   -7.5693622    545.01964  0.019876719  0.019859047            7 
 2286000   0.86043723   -7.5708786    547.17873  0.019946731  0.019852225            6 
 2287000   0.89637276   -7.5607697    545.94974  0.019893228    0.0198454            4 
 2288000   0.91065471   -7.5679671    545.32001  0.019861597  0.019838589           12 
 2289000   0.89449944    -7.585412       545.74   0.01986821  0.019831755           10 
 2290000   0.88762595   -7.5624014    546.49975  0.019887182  0.019824889           12 
 2291000   0.87950506   -7.5483848     547.7867  0.019925313  0.019818055           11 
 2292000   0.88879762   -7.5970531    544.84763   0.01980976  0.019811243            9 
 2293000   0.88277594   -7.5893703    545.11156  0.019810712  0.019804432            8 
 2294000   0.88426089   -7.5661152    546.36412  0.019847578  0.019797603           10 
 2295000   0.88450172   -7.5522417    547.78739   0.01989061  0.019790787           10 
 2296000   0.88287968   -7.5891194    545.41026  0.019795669  0.019783952            7 
 2297000   0.87795833   -7.5942364    545.84574   0.01980285  0.019777108           12 
 2298000   0.86999543   -7.5966682    546.65297  0.019823505  0.019770277            4 
 2299000   0.89523318   -7.5976425    546.37955  0.019804971  0.019763418            7 
 2300000   0.89463906   -7.6244855    545.43613  0.019762179  0.019756579            7 
 2301000   0.87782008   -7.6022172    545.54479  0.019757526  0.019749671           11 
 2302000   0.87545472   -7.5863777    547.56247  0.019821983  0.019742749            6 
 2303000   0.88868353   -7.6099829    545.71335  0.019746466  0.019735875            7 
 2304000   0.89801171    -7.594406    546.01971  0.019748977  0.019728993            7 
 2305000   0.88113553   -7.5800633    547.51397  0.019794431  0.019722107            6 
 2306000   0.87644269   -7.5639749    546.70446  0.019756594  0.019715223            6 
 2307000   0.88167135   -7.5919828    546.96617  0.019757483  0.019708372            3 
 2308000   0.87380972   -7.5876249    546.69377  0.019739088  0.019701559            4 
 2309000   0.88329994   -7.5751396    549.07056  0.019816319  0.019694815            4 
 2310000   0.87791258   -7.5509372    548.90562   0.01980179  0.019688065           11 
 2311000   0.87768379   -7.5104664    548.52251  0.019779407  0.019681335            5 
 2312000   0.86448078   -7.5868121    548.19633  0.019759095  0.019674599           11 
 2313000   0.88146164    -7.572597    547.41147  0.019722275  0.019667765            9 
 2314000   0.87769425    -7.611503    547.03066  0.019700038  0.019660923           10 
 2315000    0.8739552   -7.5802369    548.19434  0.019733418  0.019654065            8 
 2316000   0.88238141   -7.6025702    547.19596  0.019688974  0.019647196            9 
 2317000   0.88184092   -7.6450192    545.74392  0.019628252  0.019640387            8 
 2318000   0.87944869   -7.6104728    547.51383  0.019683414   0.01963351           10 
 2319000   0.86189536      -7.6122    547.30276  0.019667341  0.019626642            7 
 2320000   0.87241488   -7.5873249    546.94024  0.019645842  0.019619799            7 
 2321000   0.88878962   -7.5882785    548.71577  0.019701126  0.019612973           12 
 2322000   0.88066009   -7.5734735    547.66387  0.019654891  0.019606174           12 
 2323000    0.8689809   -7.6034062    547.82581  0.019652239  0.019599431            9 
 2324000   0.87444622   -7.6026175    547.61182  0.019636109  0.019592626           19 
 2325000   0.88480304   -7.5771446    549.79441  0.019705893  0.019585824            8 
 2326000   0.87757177   -7.6176156    547.98748  0.019632684  0.019579034            5 
 2327000   0.86878984   -7.5919916    547.95473  0.019623074  0.019572201           12 
 2328000   0.89420146   -7.6148657    548.57539  0.019636862  0.019565385           11 
 2329000   0.89808904   -7.6018215    547.34346  0.019584352  0.019558513            3 
 2330000   0.87576865   -7.6062376    548.95236  0.019633489  0.019551675            6 
 2331000   0.87607671   -7.6247597    548.29606  0.019601604  0.019544863            5 
 2332000   0.88052797   -7.5974629    548.84239  0.019612721  0.019538032            5 
 2333000   0.87225382   -7.5807637    548.76656  0.019601606  0.019531219           12 
 2334000   0.88995296   -7.5654064    549.18511  0.019608152   0.01952437            7 
 2335000   0.86843018    -7.547594    550.76916  0.019656287  0.019517545            4 
 2336000   0.87993824   -7.6161918    548.60586    0.0195707  0.019510796            5 
 2337000   0.86171466    -7.608616    546.48003  0.019486522  0.019503936           12 
 2338000   0.87957688   -7.6038886    547.64124  0.019519577  0.019497073            5 
 2339000   0.87398564   -7.5919891    548.71094  0.019549342  0.019490208            6 
 2340000   0.85595219   -7.5898865    548.45812  0.019531984  0.019483377           20 
 2341000    0.8832464   -7.5777249    549.93246  0.019576124  0.019476539            8 
 2342000   0.88424657    -7.549867    550.67849   0.01959431   0.01946973           12 
 2343000   0.87081672   -7.5693077    549.33497  0.019538162  0.019462952           10 
 2344000   0.86771607    -7.597254    549.70287  0.019542906  0.019456164            8 
 2345000   0.88032938   -7.6182212    548.87794  0.019505257  0.019449389            7 
 2346000   0.87692602   -7.6088517    547.32264  0.019441697  0.019442557           10 
 2347000   0.87906263   -7.6023176    550.07554  0.019531158   0.01943576            3 
 2348000   0.88348279   -7.5767647    549.52747  0.019503388  0.019429012            7 
 2349000   0.86933998   -7.5326038    551.44972   0.01956328  0.019422272           12 
 2350000    0.8561269   -7.5640544      551.344  0.019551206  0.019415559            6 
 2351000   0.85874893   -7.5776857    549.49215  0.019477249  0.019408792            7 
 2352000   0.86552775   -7.5827598    550.23857  0.019495414  0.019401993            8 
 2353000   0.89408267   -7.6236851    548.02312  0.019408667  0.019395173            5 
 2354000   0.87836344   -7.5856529    550.86133  0.019500897  0.019388341           11 
 2355000   0.89529846   -7.6158007    549.59059   0.01944765  0.019381497            4 
 2356000   0.89661133   -7.6175986    550.22616  0.019461876  0.019374664            8 
 2357000   0.87414477   -7.5940248    550.34459  0.019457806  0.019367878            5 
 2358000   0.85349805   -7.5524483    549.30648  0.019412867  0.019361074           10 
 2359000   0.86426154   -7.6058865    549.01312  0.019394274  0.019354313            7 
 2360000   0.87359005   -7.5736354    549.84076  0.019415281  0.019347547            8 
 2361000   0.88022239   -7.6072663    549.99395  0.019412465  0.019340795            7 
 2362000    0.8744998   -7.5717916    550.32086   0.01941578  0.019334017            9 
 2363000   0.87424814   -7.5940059    549.67986  0.019384958  0.019327261            7 
 2364000   0.87025238   -7.6148299    550.93278  0.019420924  0.019320465           17 
 2365000   0.89199482   -7.6112549    548.80892  0.019337876  0.019313664           13 
 2366000   0.87103817   -7.5847287    549.73025  0.019362153  0.019306933            5 
 2367000   0.85584825   -7.5558168    550.74663  0.019389756  0.019300184           10 
 2368000   0.88052535   -7.5835596    551.74306  0.019416634  0.019293458           10 
 2369000   0.88029481   -7.5876852    551.59665  0.019403287   0.01928674            7 
 2370000   0.85965446   -7.5943021    550.26641  0.019348327  0.019279968            6 
 2371000   0.88831656   -7.6011884    550.12238  0.019335104  0.019273212            7 
 2372000   0.89059548   -7.5917922    551.60019  0.019378871  0.019266447           10 
 2373000   0.89346554   -7.6039762    551.14345  0.019354665  0.019259608           11 
 2374000   0.88259852    -7.644488    549.84615  0.019300974  0.019252795           18 
 2375000   0.85935725   -7.6277389    550.51714  0.019316391   0.01924596           15 
 2376000   0.88815647   -7.6044956    550.77206  0.019317202  0.019239146           21 
 2377000   0.87712325   -7.6216183    551.13153  0.019321678   0.01923233           20 
 2378000    0.8491583   -7.6376075    551.58527  0.019329453  0.019225591            9 
 2379000   0.86615869   -7.6188935    550.65886  0.019288877  0.019218796           26 
 2380000   0.86569176   -7.6305144    549.98785  0.019257278  0.019212019           14 
 2381000   0.86867764    -7.623586    551.06065  0.019286737  0.019205275            6 
 2382000   0.86751692   -7.5697589    551.26304  0.019285721  0.019198529            4 
 2383000   0.87466743    -7.648823    551.08691  0.019271468  0.019191819            7 
 2384000    0.8859178   -7.6068031    551.38003  0.019273631   0.01918514            8 
 2385000   0.89088347    -7.594086    552.64193  0.019309641  0.019178466            6 
 2386000   0.87238562   -7.6142721     550.7431   0.01923523  0.019171807           19 
 2387000   0.86199974   -7.5858737    552.00725  0.019271305  0.019165121           18 
 2388000   0.87711717   -7.6176267    551.69462  0.019252325  0.019158377           25 
 2389000   0.87213505   -7.6057129    550.96771   0.01921891  0.019151645            8 
 2390000   0.88006201    -7.599795    551.86553  0.019242173  0.019144928            6 
 2391000   0.85568872   -7.5783833    552.35968  0.019251348  0.019138227           14 
 2392000   0.88027882   -7.6174435    552.43454  0.019245908  0.019131521            9 
 2393000   0.87360086   -7.5939368    552.84469  0.019252148  0.019124829            6 
 2394000   0.87077298   -7.6023459    552.27735  0.019224358  0.019118192            5 
 2395000   0.87563238   -7.5799533    552.03861  0.019208024  0.019111525            7 
 2396000   0.86946625   -7.6207447    551.40066  0.019177819  0.019104847            4 
 2397000   0.87087847   -7.6319737    551.66774  0.019179104  0.019098088           14 
 2398000   0.87723868   -7.5803641    552.66601  0.019205797  0.019091323            9 
 2399000    0.8634338   -7.6289456     553.1101  0.019213217   0.01908461            4 
 2400000   0.84489044    -7.630923    553.91702   0.01923323  0.019077866            9 
 2401000   0.88284043     -7.65611    550.48008  0.019105931  0.019071086            9 
 2402000   0.85688255   -7.6186946    551.20172  0.019123013  0.019064346            8 
 2403000   0.87162504   -7.6064412    552.94251  0.019175423  0.019057596            7 
 2404000   0.86005683   -7.5812098    554.69185  0.019228087  0.019050893            5 
 2405000    0.8849498   -7.6369304    551.34263  0.019104041  0.019044153            8 
 2406000   0.87104757   -7.6572748     551.9392  0.019116764  0.019037385           15 
 2407000   0.84955345   -7.6188332    551.91235  0.019107892   0.01903065            8 
 2408000   0.86397537   -7.6159298    551.87111   0.01909853  0.019023961            9 
 2409000   0.86614296   -7.6084475    553.40326  0.019143602  0.019017198           14 
 2410000   0.88103968   -7.6578907    552.61248  0.019108315  0.019010482           18 
 2411000   0.86228801   -7.6379067    552.51745  0.019097105  0.019003772            8 
 2412000   0.86609524   -7.6348731    552.05872  0.019073339   0.01899704           16 
 2413000   0.88050743   -7.6409586    552.91791  0.019095107  0.018990306            7 
 2414000   0.87710797   -7.6676295     551.5324  0.019039367  0.018983577            7 
 2415000   0.86095766   -7.6170591    554.13581  0.019121319  0.018976849            8 
 2416000     0.863248   -7.6643104    552.41343  0.019053995  0.018970114            5 
 2417000   0.86455164   -7.6434709     552.3311  0.019043273  0.018963327            4 
 2418000   0.85978434   -7.6515394    552.91809  0.019055628  0.018956553            7 
 2419000   0.87099788   -7.6421085    552.88169  0.019046496  0.018949786           17 
 2420000   0.86657103   -7.6431293    551.26909  0.018983095  0.018943056           14 
 2421000   0.85060465   -7.6255032    553.88751  0.019065383  0.018936355            4 
 2422000   0.87082607   -7.6351625    553.50986  0.019044518  0.018929631            7 
 2423000   0.85549447   -7.6478327    553.00774  0.019019388  0.018922846            7 
 2424000   0.87801719   -7.6692141    551.90944  0.018973784  0.018916021            5 
 2425000   0.88750574    -7.664215    552.13836  0.018973827  0.018909236            9 
 2426000   0.85907959   -7.6799115    550.89557  0.018923316  0.018902443            5 
 2427000   0.84108767   -7.6521478    552.32559   0.01896462  0.018895654            5 
 2428000   0.88246036   -7.6924645    552.27686  0.018955137  0.018888873           10 
 2429000   0.85042593   -7.6701116    551.87045   0.01893339  0.018882088           10 
 2430000   0.86948898   -7.6632603    553.41101   0.01897843  0.018875346           10 
 2431000   0.87430705    -7.648656    553.60124  0.018977144  0.018868636           13 
 2432000   0.83547376   -7.6486945    553.39285    0.0189622  0.018861858           10 
 2433000   0.86720727   -7.6768825    551.48518  0.018889066  0.018855096           10 
 2434000   0.86933314   -7.6959495    552.54678  0.018917652  0.018848312            9 
 2435000   0.86320649   -7.6661581    553.10399  0.018928952  0.018841535           12 
 2436000   0.86629545    -7.639465     556.1938  0.019026882  0.018834823           18 
 2437000   0.85087329   -7.6329774    555.15161  0.018983436  0.018828159           11 
 2438000   0.85023439    -7.649605    554.49721  0.018953282  0.018821463            9 
 2439000   0.87613116   -7.6814363    553.41516   0.01890854  0.018814775           12 
 2440000   0.86100044   -7.6600211    553.07735  0.018889254  0.018808054           16 
 2441000   0.86684377   -7.6367323    553.56623  0.018898205  0.018801367           23 
 2442000    0.8532943   -7.6506679    553.44082  0.018886187   0.01879465           18 
 2443000   0.85886786   -7.6411274    552.22403   0.01883695  0.018787929            8 
 2444000   0.87106415   -7.6852307    553.35848  0.018867924  0.018781182           27 
 2445000   0.85010537   -7.6745514    553.05941  0.018850014  0.018774451           10 
 2446000   0.87665965   -7.6965233     552.7519  0.018831831  0.018767684            4 
 2447000   0.86811317   -7.6404917    553.36336  0.018844958  0.018760959           10 
 2448000   0.86911174   -7.6442004    552.23782  0.018798946   0.01875421           10 
 2449000   0.85865964   -7.6771011    552.71876  0.018807634  0.018747521            6 
 2450000   0.88071496   -7.6453446    552.96494  0.018808331  0.018740776           16 
 2451000   0.88663723   -7.6567275    552.99333  0.018801623  0.018734039            6 
 2452000   0.85364875   -7.6702212    554.49233    0.0188449   0.01872731            3 
 2453000   0.84834424   -7.6444704    553.80527  0.018813876  0.018720554            8 
 2454000   0.85565497   -7.6679806    554.40737  0.018826656  0.018713873           11 
 2455000   0.86052615   -7.6599628    553.52192  0.018788931  0.018707207            8 
 2456000   0.85209227   -7.6676712    552.99769  0.018763494  0.018700457            9 
 2457000   0.86005624   -7.6596032    554.95181  0.018822134  0.018693725           11 
 2458000   0.86245499   -7.6432993    553.98949  0.018781851  0.018687019            6 
 2459000   0.87843385   -7.6908019    554.90459  0.018805225  0.018680279            6 
 2460000   0.85775339   -7.6615329    554.78506  0.018793532  0.018673543            9 
 2461000   0.87862771   -7.6764379    553.55039  0.018744088  0.018666785           18 
 2462000   0.86579033   -7.6628492    554.85059  0.018780483  0.018660077           13 
 2463000   0.85988577   -7.6696102    554.69872   0.01876772  0.018653362           38 
 2464000     0.850697   -7.6127721    555.76214  0.018796068  0.018646677           11 
 2465000   0.87330579   -7.6516765    553.84741  0.018723712  0.018639988           11 
 2466000   0.87187267    -7.636495     555.7289  0.018779701  0.018633304           22 
 2467000   0.85190863   -7.6504394    554.81385  0.018741179  0.018626617           11 
 2468000   0.85563142   -7.6429206    554.28474  0.018715719  0.018619923           13 
 2469000   0.84693631   -7.6233092      553.965  0.018697347  0.018613244            7 
 2470000   0.83219428   -7.6648302    553.77611  0.018683404  0.018606535            5 
 2471000   0.86095458    -7.646687    555.33548  0.018728433   0.01859985           14 
 2472000   0.87216486   -7.6296782    553.85076  0.018670805  0.018593128            5 
 2473000   0.86016507   -7.6408235    554.91491  0.018699114  0.018586467            9 
 2474000   0.88107163   -7.6440886    554.47861   0.01867686    0.0185798            8 
 2475000   0.84530436   -7.6402987    555.59479  0.018706895  0.018573177            8 
 2476000   0.86029231   -7.6344781    554.75918  0.018671216  0.018566551            9 
 2477000   0.85695692   -7.6565836    554.63926  0.018659644  0.018559867           11 
 2478000   0.84878806    -7.604739    555.67725  0.018687021  0.018553174            4 
 2479000   0.86799392   -7.6480995    554.72663  0.018647527  0.018546486           24 
 2480000   0.86021594   -7.6713511    553.39849  0.018595379  0.018539783           27 
 2481000   0.85213905   -7.6576413    554.62851  0.018629199  0.018533113           24 
 2482000   0.86794413   -7.6482446    556.02064  0.018668434  0.018526405           19 
 2483000   0.84184439   -7.6749663    555.13307  0.018631127   0.01851969            7 
 2484000   0.85093556   -7.6763801    556.10586  0.018656262  0.018512947           25 
 2485000   0.90130188   -7.7074398    554.29478  0.018588021  0.018506217           29 
 2486000   0.85766252   -7.6696578    554.48068  0.018586775  0.018499494           64 
 2487000   0.83547228   -7.6735937    555.31346  0.018607206  0.018492763           22 
 2488000   0.87665052   -7.6836153    553.44549  0.018537161  0.018486047           31 
 2489000   0.83518098   -7.7061309    554.86102  0.018577107  0.018479355           66 
 2490000   0.86437056   -7.6578869     556.1079  0.018611376   0.01847268           26 
 2491000    0.8514518   -7.6523689    556.91598  0.018630937  0.018466004           27 
 2492000   0.82312093    -7.712334    554.88441  0.018555525  0.018459318           13 
 2493000   0.83340743   -7.6954429    554.62341  0.018539357    0.0184526           21 
 2494000   0.85520541   -7.6919783    555.62596  0.018565422  0.018445914            8 
 2495000     0.865289   -7.6953589    553.91119  0.018500708  0.018439236           22 
 2496000   0.85306185    -7.664017    556.47913  0.018579031  0.018432583            5 
 2497000   0.84679729   -7.6320253     555.5145  0.018539397  0.018425938           15 
 2498000   0.85104096   -7.6739672    556.15857  0.018553462  0.018419283            7 
 2499000   0.85235624   -7.6726593    554.37777  0.018486654  0.018412591           10 
 2500000    0.8561252   -7.7259783    554.59172  0.018486391   0.01840591            8 
 2501000   0.86510297   -7.6686385    554.93957  0.018490589  0.018399208           12 
 2502000   0.85934137   -7.6738333    556.35808  0.018530445  0.018392553            8 
 2503000   0.84937178   -7.6665413    555.29977  0.018487807  0.018385871           13 
 2504000   0.84752092   -7.6765457    556.46895  0.018519334  0.018379211            8 
 2505000   0.85463412   -7.6532857    555.68454  0.018485846  0.018372522            8 
 2506000   0.83126092   -7.6454569    556.06081  0.018490982  0.018365898            8 
 2507000   0.86156376   -7.6182107     557.2873  0.018524375  0.018359327            5 
 2508000   0.84297477   -7.6349007     557.7694  0.018533008  0.018352706           10 
 2509000   0.83863211    -7.665778    556.68823  0.018489711  0.018346117            5 
 2510000   0.86079864   -7.6580688    557.25964  0.018501316  0.018339512            7 
 2511000    0.8505846   -7.6568585    557.52765  0.018502842  0.018332919            7 
 2512000   0.84926987   -7.6663328    557.61869  0.018498497   0.01832633           15 
 2513000   0.85346148    -7.667753    556.92966  0.018468287  0.018319739           12 
 2514000   0.84906676   -7.7021266    555.61363  0.018417317  0.018313158            5 
 2515000   0.84281288   -7.6690516    557.68291  0.018478559  0.018306577           30 
 2516000   0.83543109   -7.6803539    558.26443  0.018490475  0.018300003            9 
 2517000   0.84457072   -7.6760669    557.33917  0.018452495  0.018293439            9 
 2518000   0.83926656   -7.6780915    557.17986  0.018439895   0.01828687           27 
 2519000   0.85525371   -7.7024492    556.57445  0.018412546  0.018280248           10 
 2520000   0.86230761   -7.7411757    557.03102  0.018420338  0.018273647           15 
 2521000   0.85187301   -7.6473105     558.1257  0.018449217    0.0182671           13 
 2522000   0.86348921   -7.6841472    558.55319  0.018456027  0.018260559           26 
 2523000   0.83552754    -7.676945    557.76938  0.018422823  0.018253987           23 
 2524000    0.8687602   -7.6779809    559.33313  0.018467153  0.018247388           11 
 2525000   0.87784824   -7.6829503    556.77162  0.018375301  0.018240773           14 
 2526000   0.84868334   -7.7082662    556.92322  0.018373028   0.01823416            8 
 2527000   0.84318017   -7.7476161    556.32911  0.018346165  0.018227546           19 
 2528000   0.84706984   -7.7400703    555.55877  0.018313514  0.018220876           10 
 2529000   0.87025652   -7.7170187    556.83847  0.018348441  0.018214225           14 
 2530000   0.84924343   -7.7101532    558.43863  0.018393894  0.018207602           17 
 2531000   0.85310578   -7.7205278    556.67041  0.018328408   0.01820098           18 
 2532000   0.85734929   -7.7335333    556.39065  0.018311962  0.018194396           15 
 2533000   0.84506458   -7.7277056    556.01003   0.01829221  0.018187767           13 
 2534000   0.85630445   -7.7180802    558.42422  0.018364385  0.018181141            6 
 2535000   0.84219887   -7.7393043    556.64129   0.01829853  0.018174521           16 
 2536000   0.83702946   -7.6998887    558.66121   0.01835769  0.018167937           20 
 2537000   0.84546464   -7.7149264    556.99999  0.018295887  0.018161344           12 
 2538000   0.83522678   -7.7296602    556.26455  0.018264531  0.018154727           14 
 2539000    0.8576626   -7.7360145    557.21068  0.018288391  0.018148106           20 
 2540000   0.83991956   -7.7070996    557.88347  0.018303264  0.018141491           12 
 2541000   0.85879786   -7.7398425    557.77071  0.018292362  0.018134912            9 
 2542000   0.84924005    -7.716394    558.15904  0.018297897  0.018128379           13 
 2543000   0.84018369   -7.6837855    558.13427  0.018289889   0.01812184           16 
 2544000   0.84088527   -7.7123581    556.45615   0.01822773  0.018115316           23 
 2545000   0.84888422   -7.7244311    557.82175  0.018265283  0.018108737            9 
 2546000   0.82920685   -7.7355155    555.90531  0.018195382   0.01810215           14 
 2547000    0.8453574   -7.7303477    556.32278  0.018201897  0.018095599            9 
 2548000   0.84991593   -7.7010365    558.28104  0.018258799  0.018089025            8 
 2549000   0.85244955   -7.7242353    557.76043  0.018234616  0.018082486            9 
 2550000   0.84420192   -7.7136849    557.67744  0.018224753  0.018075979            6 
 2551000   0.83791961   -7.6950473    558.74759  0.018252567  0.018069476           10 
 2552000   0.83926716   -7.7385522    558.09325  0.018224048   0.01806291           10 
 2553000   0.84701148   -7.7256334    556.43626  0.018162824  0.018056325           17 
 2554000   0.83122569    -7.764109    557.99756  0.018206655   0.01804978            6 
 2555000   0.83624382   -7.7319666    558.65129  0.018220851  0.018043194            9 
 2556000   0.83550315   -7.7272839    557.81585  0.018186484  0.018036618           21 
 2557000   0.83979392   -7.6954186    557.39589  0.018165685  0.018030039            9 
 2558000   0.83892577   -7.7207553    557.06062  0.018147662  0.018023466           13 
 2559000   0.84842659   -7.7173761    558.83374  0.018198311  0.018016897            8 
 2560000   0.85840898    -7.737376    559.29772  0.018206306  0.018010313            7 
 2561000   0.84181625   -7.7447559    556.73412  0.018115779  0.018003701            6 
 2562000   0.83763384   -7.7613467    557.62142  0.018137569  0.017997085            9 
 2563000   0.83957703   -7.7264753    558.31483  0.018153038  0.017990509           12 
 2564000   0.83524464   -7.7331837    559.22396  0.018175506  0.017983964           14 
 2565000   0.84296874   -7.7766192     556.8952  0.018092762   0.01797737            6 
 2566000   0.84002978   -7.7431591    557.91732  0.018118905  0.017970772           14 
 2567000   0.82530902   -7.7828264    556.59566  0.018068941  0.017964173           16 
 2568000   0.83426376   -7.7556307    557.98435  0.018106969  0.017957605            8 
 2569000   0.81876157   -7.7192349    559.26452  0.018141447  0.017951042            7 
 2570000   0.84167464   -7.7595243    558.04309  0.018094782  0.017944474            8 
 2571000   0.85231304   -7.7333609    559.60594  0.018138401  0.017937928            5 
 2572000   0.84367526   -7.7237246    559.33346   0.01812252  0.017931395            5 
 2573000   0.84206666   -7.7479947    558.11491  0.018076011  0.017924856            4 
 2574000   0.83969374   -7.7105853    559.71389  0.018120755  0.017918334            8 
 2575000   0.83416097   -7.6920378    559.72979  0.018114233  0.017911823           12 
 2576000   0.83190569   -7.7393939    558.39507  0.018064023  0.017905336            8 
 2577000   0.84007449   -7.7188051    559.39565  0.018089369  0.017898814           14 
 2578000   0.85915195   -7.7339019    558.44384  0.018051585  0.017892318           10 
 2579000   0.84519041   -7.7087053    557.83514  0.018024917  0.017885821            7 
 2580000   0.82715781    -7.710838    560.10808  0.018091346   0.01787933           13 
 2581000   0.83633758   -7.7475743    559.66126   0.01806991  0.017872866           10 
 2582000   0.85402173   -7.7260825    558.77177  0.018034204  0.017866398           12 
 2583000   0.83698563   -7.6871446    559.95217  0.018065304  0.017859934           11 
 2584000   0.82232674   -7.7144211    560.05701  0.018061694  0.017853447           11 
 2585000   0.82279655   -7.7374953    560.43108  0.018066766  0.017846963            9 
 2586000   0.84456781   -7.7221713    559.87184  0.018041758  0.017840504           10 
 2587000   0.84185581   -7.7106172    560.31193   0.01804896   0.01783404            8 
 2588000   0.83438805   -7.7598421     559.3117  0.018009779   0.01782756           10 
 2589000   0.83002159   -7.7157401    559.20954  0.017999534  0.017821086            6 
 2590000   0.83943595   -7.7093285    560.53708  0.018035299  0.017814633            7 
 2591000   0.84456632   -7.7190733    558.40132  0.017959646  0.017808178            6 
 2592000   0.84512923   -7.7244699    558.61925  0.017959724  0.017801715           10 
 2593000   0.84596068   -7.7292442    560.21616  0.018004119  0.017795237            8 
 2594000   0.81851891   -7.7204729    559.75667  0.017982417  0.017788746           10 
 2595000   0.83163417   -7.7409572    560.18654  0.017989292   0.01778225            8 
 2596000    0.8158487    -7.714652    560.17394  0.017981958  0.017775755           16 
 2597000   0.85328506    -7.728155    558.99262  0.017937127  0.017769299            5 
 2598000   0.83579293   -7.7415755    559.64723   0.01795122   0.01776283            8 
 2599000   0.85245778   -7.7544846    559.92952  0.017953364   0.01775635           14 
 2600000   0.84173277   -7.7541471    559.59712  0.017935805  0.017749859           19 
 2601000   0.85441643   -7.7511161    559.83075  0.017936395  0.017743354           15 
 2602000   0.85663579   -7.7410435    560.86704   0.01796269  0.017736864           23 
 2603000   0.82392333   -7.7623129    559.84694  0.017923132   0.01773035           27 
 2604000   0.83124894   -7.7501315    560.21661  0.017928079  0.017723852           16 
 2605000   0.82790692   -7.7296053    559.66594  0.017903581  0.017717358           28 
 2606000   0.83174012   -7.7509891    559.92248  0.017904914   0.01771089           21 
 2607000   0.82538466   -7.7248492    561.39813  0.017945216  0.017704375           18 
 2608000   0.84979357     -7.73985    559.85899  0.017889155  0.017697922           12 
 2609000   0.82700227   -7.7454283    559.66646  0.017876149  0.017691448           19 
 2610000   0.83230927   -7.7452759    559.83111  0.017874557  0.017684964            6 
 2611000   0.82447301   -7.7643776    559.23674  0.017848741  0.017678477            7 
 2612000   0.81079745   -7.7221523    560.80953  0.017892086  0.017672055           15 
 2613000   0.84078316    -7.749142    559.51535  0.017843964  0.017665601           37 
 2614000   0.82253483   -7.7593187     560.1842  0.017858461  0.017659119           25 
 2615000   0.83622455   -7.7209706    559.65922  0.017834902   0.01765263           26 
 2616000   0.83578049   -7.7825568    560.02141  0.017839622  0.017646196           39 
 2617000   0.82840425   -7.7655162    560.18293  0.017837948  0.017639743           25 
 2618000   0.83633721   -7.7353168    560.24035  0.017832962  0.017633299           30 
 2619000   0.82118513   -7.7556902    559.79986  0.017812138  0.017626863           40 
 2620000   0.82401574   -7.7814601    560.00527  0.017811873  0.017620421           30 
 2621000   0.81130756   -7.7638654    559.77653  0.017797804  0.017613957           59 
 2622000   0.84242676   -7.7479649    560.84377  0.017824936  0.017607521           19 
 2623000   0.82041124   -7.7909425    559.99065  0.017791036   0.01760104           37 
 2624000    0.8147745   -7.7917061    559.07802  0.017755273  0.017594553           40 
 2625000   0.84682227   -7.7991111    559.98662  0.017777353  0.017588104           59 
 2626000   0.82517425   -7.7634986    559.84548  0.017766104    0.0175817           80 
 2627000   0.82459691   -7.7773703    559.47502   0.01774759  0.017575235           22 
 2628000   0.82198207   -7.8136311    558.87533   0.01772182  0.017568722           23 
 2629000   0.81420664    -7.781804    559.15945  0.017724086  0.017562227           29 
 2630000   0.82815206   -7.7557129     559.1695  0.017717665  0.017555747           25 
 2631000   0.82783252   -7.7699424    560.38369  0.017749388  0.017549288           12 
 2632000   0.82821306   -7.7634062    560.51828  0.017746906  0.017542822           13 
 2633000   0.83362613   -7.7384022    562.00258  0.017787143  0.017536368           29 
 2634000   0.81220633   -7.7642325     560.6583  0.017737861  0.017529937           22 
 2635000   0.83226559   -7.7770602    561.09428  0.017744917  0.017523492           15 
 2636000   0.82879906   -7.7521012    562.13066  0.017770949  0.017517057            8 
 2637000   0.83494779   -7.7446066    561.22449  0.017735573  0.017510637            8 
 2638000   0.82537807   -7.7616106    562.14267  0.017757855  0.017504231            8 
 2639000      0.83817    -7.740972    562.36137  0.017758032  0.017497838            8 
 2640000   0.81816275    -7.736669    561.81211  0.017733968  0.017491454            9 
 2641000   0.83153288   -7.7730341    560.41123   0.01768305  0.017485046            5 
 2642000   0.82521207   -7.7849508    561.13961  0.017699332  0.017478603           11 
 2643000   0.82691827   -7.8199862    560.32257  0.017666874  0.017472135           13 
 2644000   0.81936986   -7.7922532    560.33209  0.017660492  0.017465692            5 
 2645000   0.82078496     -7.77475    560.65701  0.017664052  0.017459278           14 
 2646000   0.83230674   -7.7687361    559.78517  0.017629918  0.017452834           13 
 2647000   0.82669709   -7.7944635     561.5085  0.017677512  0.017446372            6 
 2648000   0.83655456    -7.765263    561.35379  0.017665968  0.017439939           27 
 2649000   0.83735078   -7.8035667    559.72554  0.017608077  0.017433481           17 
 2650000   0.84538014   -7.7933067    560.24092  0.017617639  0.017427017           17 
 2651000   0.83251163   -7.7653225    560.61385  0.017622716   0.01742054           26 
 2652000    0.8228798   -7.7983723     560.2178  0.017603626  0.017414105            7 
 2653000    0.8196677   -7.7678834    562.08493  0.017655639   0.01740767            4 
 2654000   0.81613204    -7.834966    559.59565  0.017570825  0.017401232           19 
 2655000   0.81744312   -7.7941979    559.84464  0.017572022  0.017394763           72 
 2656000    0.8148036   -7.7952498    559.25559  0.017546925  0.017388246           22 
 2657000   0.83908566   -7.7921168    559.89687  0.017560434  0.017381753           48 
 2658000    0.8167481   -7.7813217    561.25636   0.01759645  0.017375302           33 
 2659000   0.81454096    -7.782637    560.75032  0.017573973  0.017368833           39 
 2660000   0.83310105   -7.7820669    562.55474  0.017623895  0.017362409           70 
 2661000   0.82762854   -7.7802653      561.857  0.017595421  0.017355951           35 
 2662000   0.83469161   -7.7990423    560.99042  0.017561684   0.01734949           54 
 2663000   0.83034954   -7.7804392     560.2528  0.017532007  0.017343052           59 
 2664000   0.80737939   -7.8097262     560.8093  0.017542834  0.017336633           13 
 2665000   0.82651182   -7.8030194    561.32186  0.017552278  0.017330212           15 
 2666000   0.80785904   -7.7471794     562.3593  0.017578123  0.017323835           38 
 2667000   0.82410054   -7.7882791    561.85701  0.017555837  0.017317435           24 
 2668000   0.81959895   -7.7870041    562.40675  0.017566428  0.017311052           15 
 2669000   0.82793158   -7.7652043    561.98811  0.017546775  0.017304652           10 
 2670000   0.82674661   -7.8160986    560.68229  0.017499447  0.017298293           24 
 2671000   0.81422551   -7.7750583    561.52759  0.017519268   0.01729188           10 
 2672000   0.81529759   -7.7686664    563.39903  0.017571077  0.017285453           21 
 2673000   0.82620577    -7.839332    559.46275  0.017441787  0.017279022           16 
 2674000   0.84773077   -7.7690803    561.09767  0.017486215  0.017272592            7 
 2675000   0.81341205   -7.8002074    561.84115   0.01750284  0.017266172           34 
 2676000   0.83915455    -7.758507    561.57477  0.017488004  0.017259787           26 
 2677000   0.81991939   -7.8105223    560.81307   0.01745776    0.0172534           19 
 2678000   0.82572248   -7.8019253    561.48488  0.017472146  0.017246952           12 
 2679000   0.83017101   -7.8290484    560.36079  0.017430658   0.01724051           20 
 2680000   0.81550971   -7.8050561    561.07988  0.017446514  0.017234068           19 
 2681000    0.8444624   -7.8016644    560.47998  0.017421359   0.01722762           20 
 2682000   0.80860148    -7.799868    560.93413  0.017428975  0.017221215           21 
 2683000   0.82765357   -7.7974527    563.22829  0.017493735  0.017214811           11 
 2684000   0.82577761   -7.7581413    563.23926  0.017487558  0.017208443            7 
 2685000    0.8246548   -7.7853844    562.16821  0.017447803  0.017202082           17 
 2686000   0.81148874   -7.7835272    561.47972  0.017419947  0.017195711           19 
 2687000   0.82617203   -7.7871633     561.2688  0.017406922  0.017189302            8 
 2688000   0.80796478   -7.7749676    561.83338  0.017417949  0.017182902           14 
 2689000   0.81736558   -7.8003189    561.17577  0.017391092  0.017176508           13 
 2690000   0.83137497   -7.7880768    562.34666    0.0174209  0.017170102           12 
 2691000   0.80125976   -7.8017267    561.02679  0.017373554    0.0171637            8 
 2692000   0.82219937   -7.8193489    562.33834    0.0174077  0.017157333           12 
 2693000    0.8368756   -7.8006413    560.76248  0.017352472  0.017150923            4 
 2694000   0.80456727   -7.7848046    562.04039   0.01738556  0.017144519           20 
 2695000   0.82737006    -7.789218      562.331  0.017388095  0.017138135           13 
 2696000   0.81259255   -7.7829449    561.98412  0.017370923  0.017131791           19 
 2697000   0.82420881    -7.788361    563.46427  0.017410217  0.017125459            8 
 2698000   0.81915369   -7.7881887    563.29013  0.017398386  0.017119121           14 
 2699000   0.81565035   -7.8156282    560.79401   0.01731487  0.017112748           11 
 2700000   0.80394767   -7.8152572    561.42901  0.017328056  0.017106378            6 
 2701000   0.82467203   -7.7931936    561.69826  0.017329947  0.017100034            5 
 2702000   0.80920332   -7.7872092    563.65613  0.017383917  0.017093657           11 
 2703000   0.82860731   -7.7818771    562.65625   0.01734666   0.01708733            8 
 2704000   0.82042881   -7.8168647    561.06634  0.017291246  0.017080954           26 
 2705000   0.81969666   -7.7670385    562.77942  0.017337628  0.017074614           47 
 2706000   0.83030666   -7.8172914    561.26254  0.017284508   0.01706827           38 
 2707000   0.82306779   -7.7766901    564.15269  0.017367094  0.017061972           23 
 2708000   0.81173205   -7.7785862    562.86432  0.017321034  0.017055655           32 
 2709000   0.82305893   -7.7645682    563.46313   0.01733306  0.017049355           38 
 2710000   0.81106949   -7.7825956    564.86807  0.017369867  0.017043093           45 
 2711000   0.82438382   -7.7683367    563.93016  0.017334629  0.017036818           52 
 2712000   0.82610857   -7.7635696    564.76366  0.017353849  0.017030545           38 
 2713000   0.82702126   -7.7677348    562.32942  0.017272682  0.017024232           52 
 2714000   0.83398366   -7.7525085    562.11787  0.017259821  0.017017943           48 
 2715000   0.82303746   -7.7580612    563.39561  0.017292683   0.01701167           33 
 2716000    0.8066132   -7.7889735    563.47076  0.017288622  0.017005398           72 
 2717000   0.81550532   -7.7953367    562.49568  0.017252352  0.016999106           60 
 2718000   0.80745502   -7.8413781    561.56227  0.017217386  0.016992753           44 
 2719000   0.82292522   -7.8111174    561.67426  0.017214486  0.016986421           28 
 2720000   0.79892905   -7.8009535    561.85612  0.017213729  0.016980089           95 
 2721000   0.81420922   -7.7992224    561.69181  0.017202371  0.016973747           52 
 2722000   0.80740851   -7.8258929    561.86711  0.017201418  0.016967428           38 
 2723000   0.82687605   -7.8083326    562.73759   0.01722174  0.016961125           30 
 2724000   0.81135736   -7.7953185    564.07552  0.017256348  0.016954853           16 
 2725000   0.81121134    -7.783943    562.38034  0.017198176  0.016948576           41 
 2726000   0.81293657   -7.7518362    563.61344  0.017229562  0.016942321           25 
 2727000   0.81476199   -7.7832463    564.82536  0.017260279  0.016936089           16 
 2728000   0.82944752   -7.8081899    562.48283  0.017182394  0.016929852           13 
 2729000   0.81419395   -7.7932246    563.47748   0.01720647  0.016923569           34 
 2730000   0.79982942   -7.7973144    561.97524  0.017154311  0.016917274           37 
 2731000   0.80515341     -7.82674    563.64516  0.017198986  0.016910983           44 
 2732000    0.8054755   -7.8077097    564.59302  0.017221603  0.016904732           62 
 2733000   0.83071202   -7.7746821    565.28737  0.017236473  0.016898509           41 
 2734000   0.82278479   -7.8013537    563.09429  0.017163323  0.016892283           29 
 2735000   0.83458438   -7.8058543    563.62836   0.01717332  0.016886051           24 
 2736000   0.80367534   -7.8363575    562.91654  0.017145362  0.016879762           29 
 2737000   0.81823062   -7.7767003    563.65418  0.017161557  0.016873476           66 
 2738000   0.81834462   -7.7865655    564.73585  0.017188211  0.016867241           53 
 2739000   0.82709161   -7.7523966    564.98263  0.017189444  0.016861019           42 
 2740000   0.81278127   -7.8113627     563.4093  0.017135319  0.016854785           63 
 2741000   0.82046031   -7.8223992    563.32824  0.017126603  0.016848531           97 
 2742000   0.80535808    -7.815127    564.38721  0.017152541  0.016842305           95 
 2743000   0.79293922   -7.7967506    565.34271  0.017175316  0.016836065          102 
 2744000   0.81493942   -7.7902755    562.97856   0.01709726  0.016829825           74 
 2745000   0.82379204   -7.8133173    563.40428  0.017103955  0.016823623          137 
 2746000   0.81513192    -7.789847    564.22365  0.017122592  0.016817399           63 
 2747000   0.81088391   -7.8300964    563.52897  0.017095285  0.016811143          115 
 2748000   0.82338837   -7.8197563    564.07769  0.017105704  0.016804897          102 
 2749000    0.8159049   -7.8129109    563.14474    0.0170712  0.016798636           61 
 2750000   0.80934344    -7.834525    562.22097  0.017036999  0.016792366           75 
 2751000   0.81033843   -7.8595684    562.78616  0.017047927   0.01678611           71 
 2752000   0.80421999   -7.8177525    563.82485  0.017073185  0.016779844           97 
 2753000   0.80837959   -7.7897904    563.80616  0.017066417   0.01677359           92 
 2754000   0.81575431   -7.8438089     564.0219  0.017066748   0.01676735           77 
 2755000   0.81414147   -7.8357479    564.09904  0.017062887  0.016761091           69 
 2756000   0.82584885   -7.8354122    563.40525  0.017035718  0.016754849           92 
 2757000    0.8193445   -7.8294188    562.35242  0.016997715  0.016748619          111 
 2758000   0.80943604   -7.8365925    562.61493  0.016999484  0.016742383          149 
 2759000   0.80985474   -7.8449977    562.76475  0.016997848  0.016736127          103 
 2760000   0.79332336   -7.8161346    565.61098  0.017077626  0.016729891          107 
 2761000   0.80748147    -7.843535    562.42459  0.016975268  0.016723662           92 
 2762000   0.81536471   -7.8348866    563.17201  0.016991673  0.016717408           82 
 2763000   0.82614176   -7.8475751    563.18154  0.016985811  0.016711151          157 
 2764000   0.81239455   -7.8452028    564.13248  0.017008336  0.016704892          132 
 2765000   0.82701036   -7.8404741    564.01334  0.016998594  0.016698624          107 
 2766000   0.82094539   -7.8111945      563.274  0.016970173   0.01669238          105 
 2767000   0.80200417   -7.8673659    563.22046  0.016962428  0.016686129          135 
 2768000   0.81106621   -7.8647558    561.89938  0.016916528  0.016679856          162 
 2769000   0.79976113   -7.8946721    561.57499  0.016900656   0.01667356          133 
 2770000   0.82820812   -7.8516114    564.05525  0.016969171  0.016667272          139 
 2771000   0.80310399   -7.8887113    562.11844  0.016904801  0.016661021          167 
 2772000   0.82378433   -7.8365439    563.95018  0.016953769  0.016654766          195 
 2773000   0.80411049   -7.8560185    562.77117  0.016912224   0.01664849          164 
 2774000   0.79390691   -7.8631862    562.66471  0.016902929  0.016642233          188 
 2775000   0.80962283   -7.8720421    563.44231   0.01692019  0.016635964          253 
 2776000   0.80033652    -7.838033    563.95512  0.016929488  0.016629674          238 
 2777000   0.79021342   -7.8369062    564.41567  0.016937213  0.016623424          200 
 2778000   0.81094788   -7.8479781    563.68595  0.016909226  0.016617129          226 
 2779000   0.79729068   -7.8908454    562.27322  0.016860778  0.016610811          323 
 2780000   0.81390958   -7.9207103    559.64673  0.016775981  0.016604441          239 
 2781000   0.81560898    -7.887959    562.54989  0.016856943  0.016598104          241 
 2782000   0.78772712    -7.907637    561.96837  0.016833464  0.016591748          290 
 2783000   0.81800177   -7.9251921    562.02907  0.016829233  0.016585408          341 
 2784000   0.82709218   -7.9064419    562.29489  0.016831145  0.016579054          335 
 2785000   0.80232737   -7.9075499    562.48568   0.01683081   0.01657271          261 
 2786000   0.82250819   -7.9282953    561.43097  0.016793221  0.016566356          287 
 2787000   0.80937146    -7.920097    561.55292  0.016790842  0.016560001          280 
 2788000   0.79777356   -7.9207609    562.18783  0.016803797  0.016553655          257 
 2789000   0.82191716   -7.9064573    562.14715  0.016796556  0.016547266          323 
 2790000    0.8076202   -7.8836339    562.12386   0.01678984  0.016540928          362 
 2791000   0.80418142   -7.9064236    560.25835  0.016728125  0.016534587          363 
 2792000   0.79697191   -7.9094503    563.47208  0.016818054  0.016528269          310 
 2793000   0.79940279   -7.9203969    561.75395   0.01676077  0.016521952          328 
 2794000   0.80944511   -7.8859118    562.61517  0.016780457  0.016515652          382 
 2795000   0.81039659   -7.8911587    561.45532  0.016739872  0.016509372          351 
 2796000   0.78702731    -7.914537    562.58959  0.016767692  0.016503072          401 
 2797000   0.79655103   -7.9108057    561.91855  0.016741704   0.01649673          425 
 2798000   0.80576849   -7.9001381    562.49994  0.016753036  0.016490374          450 
 2799000   0.79760947   -7.9165154    561.11348  0.016705772  0.016484012          437 
 2800000   0.77222017   -7.9094804    561.90803  0.016723453  0.016477644          461 
 2801000   0.80496735   -7.9497339    560.71935  0.016682118  0.016471273          438 
 2802000   0.80952932   -7.9303894    561.10494  0.016687632  0.016464921          489 
 2803000   0.80837706   -7.9565041    560.36968  0.016659819  0.016458565          468 
 2804000   0.80978322   -7.9483545    561.41654   0.01668499  0.016452194          408 
 2805000   0.80126348   -7.9377471    561.29469  0.016675422  0.016445841          485 
 2806000   0.79596101   -7.9056674    561.89498  0.016687306  0.016439481          433 
 2807000   0.81253213   -7.9206363     561.4484  0.016668103   0.01643315          518 
 2808000   0.82040777   -7.9365527    561.65526  0.016668307  0.016426795          470 
 2809000   0.79798781    -7.932366    561.37502  0.016654059  0.016420425          516 
 2810000   0.81754173   -7.9304864    561.49372  0.016651652  0.016414062          493 
 2811000   0.80240923   -7.9157064    560.65397  0.016620834  0.016407698          503 
 2812000   0.81752967   -7.9370026    562.66104  0.016674403  0.016401318          485 
 2813000   0.80212004   -7.9262327    560.21935  0.016596141  0.016394959          489 
 2814000   0.79682545   -7.8975543    561.65961  0.016632895  0.016388587          483 
 2815000   0.80760982    -7.936387     560.9388  0.016605648  0.016382209          524 
 2816000   0.80463384    -7.922735    560.98396  0.016601088   0.01637583          518 
 2817000   0.77957232   -7.9515818    561.29184  0.016604303  0.016369459          518 
 2818000   0.81658999   -7.9241135    560.37353  0.016571254  0.016363093          473 
 2819000   0.81160454   -7.9714452    561.53104  0.016599593  0.016356686          556 
 2820000   0.79888184   -7.9749589    560.51703  0.016563742  0.016350275          515 
 2821000   0.80304661   -7.9660001    560.61644  0.016560807  0.016343885          606 
 2822000   0.79183249    -7.961961    559.56233  0.016523811   0.01633748          606 
 2823000   0.78997785   -7.9718313    559.49964  0.016516107  0.016331069          620 
 2824000   0.77358863   -7.9559524    560.59864  0.016542689  0.016324676          565 
 2825000   0.78278477   -7.9618594    559.80211  0.016513336  0.016318273          541 
 2826000   0.78202705    -7.962911    560.80371  0.016537029  0.016311875          545 
 2827000   0.80287854   -7.9497783    560.59197  0.016524937  0.016305492          486 
 2828000   0.80525849    -7.944717    560.78634  0.016524821  0.016299096          530 
 2829000   0.81242146   -7.9439282    560.40154  0.016507645  0.016292732          501 
 2830000   0.80678699   -7.9499812    560.93604  0.016517551  0.016286354          584 
 2831000   0.80010896   -7.9708053    560.09432   0.01648694  0.016279958          642 
 2832000   0.80603628   -7.9477532    561.00564  0.016507934  0.016273588          547 
 2833000   0.79828078   -7.9253155    561.92758  0.016529226  0.016267234          511 
 2834000    0.8184148   -7.9387831    561.48422  0.016510357    0.0162609          551 
 2835000   0.80261569   -7.9308326    561.30827  0.016499361  0.016254557          587 
 2836000    0.7954567   -7.9451804    561.37529  0.016495513  0.016248224          638 
 2837000   0.80450899   -7.9420643    560.53104  0.016464899  0.016241878          655 
 2838000   0.79127581    -7.969359    560.72373  0.016464756  0.016235524          668 
 2839000   0.78579021   -7.9428676    560.34348  0.016447795  0.016229165          615 
 2840000    0.8037228   -7.9475068    561.13448  0.016465214  0.016222796          685 
 2841000   0.78940009   -7.9463597    560.50623   0.01644099  0.016216443          695 
 2842000   0.78512918   -7.9429881    560.67377  0.016440117  0.016210097          640 
 2843000   0.78911584   -7.9547145    561.42989  0.016456498  0.016203756          740 
 2844000   0.79719736   -7.9697258    560.68924   0.01642901  0.016197391          785 
 2845000   0.79188213   -7.9404401    561.95099  0.016460193  0.016191054          813 
 2846000   0.78800049   -7.9582014    559.78833  0.016391085  0.016184723          825 
 2847000   0.77103476   -7.9771248     560.0235  0.016392211  0.016178405          821 
 2848000   0.79669942   -8.0211069    559.70607  0.016377167  0.016172059          882 
 2849000   0.79736403   -7.9985479    558.96359  0.016349701  0.016165683          847 
 2850000   0.79723515   -7.9551836    560.70533  0.016394893  0.016159331          892 
 2851000   0.80009991   -7.9936402    560.10958  0.016371729  0.016152958          814 
 2852000   0.79873113   -7.9806489    561.10293  0.016395013   0.01614657          874 
 2853000    0.7950343   -8.0024336    559.35891  0.016338325   0.01614019          974 
 2854000   0.78828809   -7.9781445    559.95268  0.016349938  0.016133781          952 
 2855000   0.79149809   -7.9902858    559.07297  0.016318534  0.016127363         1005 
 2856000   0.79022859   -8.0059646    557.93282  0.016279552  0.016120918         1024 
 2857000   0.79897306   -8.0129217    559.21368  0.016311215  0.016114484         1034 
 2858000   0.80626375    -8.041971    559.19089  0.016304843  0.016108037         1075 
 2859000    0.7897854     -8.00642    558.37474  0.016275351  0.016101584         1165 
 2860000   0.79416261   -8.0175712    559.60769  0.016305585  0.016095148         1118 
 2861000   0.77600742     -8.03281     560.3745  0.016322221   0.01608872         1213 
 2862000   0.78579957   -8.0326971    559.10022  0.016279415  0.016082278         1189 
 2863000   0.80708773   -8.0403027    559.38463  0.016282007   0.01607584         1234 
 2864000   0.77815424   -8.0365325    557.60289  0.016224479  0.016069388         1297 
 2865000   0.77589463     -8.00737    558.17982  0.016235597  0.016062935         1245 
 2866000   0.78455539   -8.0347113    558.18876  0.016230192  0.016056491         1264 
 2867000   0.79124022   -8.0585622    558.46518  0.016232565  0.016050045         1383 
 2868000   0.80228652   -8.0548072     558.2891  0.016221789   0.01604358         1400 
 2869000   0.79483753   -8.0554582     558.4383  0.016220469  0.016037122         1342 
 2870000   0.79645571   -8.0709329    558.88119  0.016227677  0.016030663         1417 
 2871000   0.79210737   -8.0710351    557.93435  0.016194542  0.016024188         1543 
 2872000   0.79361184   -8.0714531    558.09989  0.016193706  0.016017715         1575 
 2873000   0.80470968   -8.0847551    557.34673  0.016166224  0.016011237         1579 
 2874000   0.78726997   -8.0703141    557.69735  0.016170765  0.016004748         1646 
 2875000   0.78582612   -8.0801134    555.40177  0.016098602  0.015998247         1676 
 2876000   0.80014073   -8.0757209    558.14309  0.016172435  0.015991718         1633 
 2877000   0.78876157   -8.1054165    557.11104   0.01613692  0.015985167         1688 
 2878000   0.79709132   -8.1154389     557.1361  0.016132039  0.015978613         1685 
 2879000   0.78187743   -8.1210705    557.27092  0.016130338  0.015972093         1888 
 2880000   0.78361838   -8.1152282    556.69244  0.016107999  0.015965561         1785 
 2881000   0.78667787   -8.1206701     556.6526  0.016101255  0.015959007         1950 
 2882000   0.78917876   -8.1183726    556.16618  0.016081604  0.015952449         1958 
 2883000   0.80317336   -8.1517617    555.37722  0.016053221  0.015945889         1884 
 2884000   0.79880874   -8.1253113    556.07756  0.016067891  0.015939317         2030 
 2885000   0.80129759   -8.1516171    556.06245  0.016061885  0.015932723         2053 
 2886000   0.78799412     -8.16783    554.61614  0.016014557  0.015926121         2140 
 2887000   0.80257663   -8.2200628    554.21227  0.015997352  0.015919471         2155 
 2888000   0.78802247   -8.1886379    555.09133  0.016017178  0.015912838         2256 
 2889000   0.78635815   -8.1741037    553.59334  0.015968425  0.015906176         2245 
 2890000   0.77682976   -8.2012527     554.2351  0.015981404   0.01589952         2279 
 2891000   0.79109248   -8.2117693    553.78223  0.015962822   0.01589284         2422 
 2892000   0.79610451   -8.2157614    553.04213  0.015935976  0.015886156         2475 
 2893000   0.79907641   -8.2384119    554.10179  0.015960992  0.015879459         2526 
 2894000   0.77692081   -8.2243321    552.55049  0.015910807  0.015872755         2536 
 2895000   0.79196604   -8.2513395    554.47465  0.015960698  0.015866041         2555 
 2896000   0.78377979    -8.269441    552.18021  0.015889163  0.015859313         2631 
 2897000   0.78659113   -8.2653694    551.72499  0.015870584  0.015852567         2740 
 2898000   0.78178972    -8.267243    552.50988  0.015887678  0.015845818         2758 
 2899000   0.77399266   -8.2860055    551.60617   0.01585622  0.015839061         2845 
 2900000    0.7838886   -8.2667587    551.37909  0.015844227  0.015832312         2802 
 2901000   0.78730598   -8.2688344    552.56745  0.015872902  0.015825537         2732 
 2902000     0.801985   -8.2891036    551.45335   0.01583544  0.015818768         2778 
 2903000     0.783909    -8.277052    552.65992  0.015864621   0.01581199         2960 
 2904000   0.78297485   -8.2745384     551.7762  0.015833798  0.015805192         2869 
 2905000   0.78741864   -8.2922025    552.45784  0.015847901  0.015798407         2941 
 2906000   0.79680153   -8.3250313    551.55305  0.015816502  0.015791611         3049 
 2907000   0.77800648   -8.2850575    551.59735  0.015812331  0.015784803         2980 
 2908000   0.78574599   -8.2674405    551.18869  0.015795183  0.015778007         2959 
 2909000   0.79515293   -8.3017173    550.87345  0.015780722  0.015771211         3079 
 2910000   0.79882568   -8.2968826    550.37406  0.015760998  0.015764402         3002 
 2911000   0.78364933   -8.3205031    551.02919  0.015774338  0.015757581         3099 
 2912000   0.79509975   -8.3032618    551.16082  0.015772688  0.015750757         3125 
 2913000    0.7772609   -8.3202322    549.42602  0.015717646  0.015743928         3118 
 2914000   0.78948313   -8.3310432    550.72084   0.01574928    0.0157371         3175 
 2915000   0.76230688   -8.3445795    550.54416  0.015738827  0.015730267         3184 
 2916000   0.79635295   -8.3531437    550.29119    0.0157262  0.015723421         3269 
 2917000   0.77416216   -8.3418939    549.69887  0.015703887  0.015716572         3172 
 2918000   0.78790608   -8.3527619    550.04712  0.015708451  0.015709724         3259 
 2919000   0.78079762   -8.3759652    548.27116  0.015652368  0.015702873         3273 
 2920000   0.79664151   -8.3745305    548.57409  0.015655653  0.015696004         3207 
 2921000   0.79340002   -8.3520726    549.15939  0.015666992   0.01568915         3230 
 2922000   0.78657886   -8.3955117    548.64579  0.015646982   0.01568229         3312 
 2923000   0.78443225   -8.3429909    550.54634  0.015695813  0.015675435         3176 
 2924000   0.78689563   -8.3743494    550.05238  0.015676367  0.015668572         3326 
 2925000   0.77981574    -8.372361    549.24866   0.01564811   0.01566171         3345 
 2926000   0.80165125   -8.3415199    548.88525  0.015632412  0.015654841         3312 
 2927000   0.78453483   -8.3489207     549.7148  0.015650689  0.015647969         3297 
 2928000   0.77462824   -8.3464272    549.14853  0.015629227  0.015641103         3272 
 2929000   0.78229909   -8.3774791    548.26674  0.015598803  0.015634243         3352 
 2930000   0.78880744   -8.3875772    547.73219  0.015578276  0.015627357         3366 
 2931000   0.76671158   -8.3817304    549.54147  0.015624402  0.015620492         3436 
 2932000   0.78322106   -8.3719229    549.32129  0.015612815  0.015613619         3374 
 2933000   0.78674017   -8.3716337    548.99794  0.015598305  0.015606751         3381 
 2934000   0.75780031   -8.3906004    549.74174  0.015614114  0.015599881         3371 
 2935000   0.77639188   -8.3811522    548.19273  0.015564813  0.015593012         3445 
 2936000    0.7641345   -8.3932192    549.46992  0.015595763  0.015586154         3368 
 2937000   0.77561292   -8.3945599    549.11923  0.015580502  0.015579298         3439 
 2938000   0.77932343   -8.3780308    549.14177  0.015575839  0.015572439         3445 
 2939000   0.79314334    -8.412721    548.48886  0.015552026  0.015565568         3422 
 2940000   0.77562521   -8.3980094    548.18046  0.015537995  0.015558703         3452 
 2941000   0.79497632   -8.3927278    548.66647  0.015546483  0.015551839         3384 
 2942000   0.78508543   -8.4125621    548.70415  0.015542266  0.015544967         3521 
 2943000   0.77514957    -8.345304    550.19578  0.015579221   0.01553811         3413 
 2944000    0.7853271   -8.3863603     548.4512  0.015524547  0.015531241         3391 
 2945000   0.78554233   -8.4226271    547.69439  0.015497861  0.015524379         3412 
 2946000   0.76460606   -8.3748183    548.76617  0.015522917  0.015517521         3397 
 2947000   0.76907761   -8.3939732     548.0041  0.015496101  0.015510645         3404 
 2948000   0.75956184    -8.418893    547.96197  0.015489653  0.015503766         3539 
 2949000   0.78610744    -8.427883    547.36618  0.015467565  0.015496896         3524 
 2950000   0.76619301   -8.4639219    546.30543  0.015432357  0.015490012         3523 
 2951000   0.78689217   -8.4213494    547.55766  0.015462489  0.015483126         3468 
 2952000   0.77982711   -8.3930249    547.80603  0.015464262  0.015476257         3463 
 2953000   0.77681064   -8.4126685    547.05117  0.015437724  0.015469387         3457 
 2954000   0.77615406   -8.4009282    547.79897  0.015453593  0.015462511         3451 
 2955000   0.79275439   -8.4320628    547.29709   0.01543421  0.015455638         3438 
 2956000   0.78090211   -8.4084826    547.21837   0.01542677  0.015448767         3460 
 2957000   0.75209289   -8.4243116     547.3425  0.015425051  0.015441898         3496 
 2958000   0.77267086   -8.4119209    548.67537  0.015457386  0.015435035         3493 
 2959000   0.78360446   -8.4322897    547.19106   0.01541036  0.015428174         3508 
 2960000    0.7834832   -8.4181424    546.52016  0.015386266  0.015421316         3502 
 2961000   0.78547847    -8.433107    547.63394  0.015412415  0.015414468         3526 
 2962000   0.77916479   -8.4057869    547.83314  0.015412816  0.015407629         3493 
 2963000   0.78443802   -8.3967459    547.61836  0.015401574  0.015400789         3428 
 2964000   0.77235277   -8.4094164    547.56774  0.015394954   0.01539395         3479 
 2965000   0.77239514   -8.4424455    547.48374  0.015387401  0.015387106         3533 
 2966000   0.78483704   -8.4162921    546.10079  0.015343358   0.01538026         3522 
 2967000   0.77017971   -8.4141712    547.04775  0.015364783  0.015373417         3485 
 2968000   0.79153498    -8.430401    546.75486  0.015351383  0.015366585         3537 
 2969000   0.78444267   -8.4084016    546.90889  0.015350536  0.015359765         3439 
 2970000   0.77033078   -8.4212934    547.47094  0.015361137  0.015352951         3501 
 2971000   0.77253406   -8.4137175    548.67078  0.015389621  0.015346134         3517 
 2972000    0.7687621   -8.4155038    548.90746  0.015391079  0.015339329         3508 
 2973000   0.75923559   -8.4225016    546.77302  0.015326074   0.01533252         3476 
 2974000   0.77056518   -8.4241091    549.09418  0.015385961  0.015325714         3464 
 2975000   0.78649937   -8.4222016    547.04274  0.015323326  0.015318897         3519 
 2976000   0.77767692   -8.4522212    546.27514  0.015296683  0.015312094         3538 
 2977000   0.77267183   -8.4182034     547.6872  0.015331072  0.015305282         3508 
 2978000   0.80203486   -8.4119495    547.55218  0.015322145  0.015298475         3494 
 2979000   0.77178259   -8.3922742    547.00248  0.015301625   0.01529168         3528 
 2980000    0.7790077   -8.4338285    548.20662  0.015330163  0.015284874         3488 
 2981000   0.78328488   -8.4008367    548.42739  0.015331192  0.015278077         3511 
 2982000   0.76776429   -8.4259548    547.12877   0.01528976  0.015271285         3489 
 2983000   0.78302185   -8.3820789    548.22025  0.015315126  0.015264492         3449 
 2984000   0.75636923   -8.4192703    547.40219  0.015287148  0.015257716         3538 
 2985000   0.77175581   -8.4381625     547.7133  0.015290712  0.015250933         3519 
 2986000    0.7758571   -8.4669678    547.32522   0.01527476  0.015244162         3532 
 2987000   0.75849352   -8.4227116    546.54101  0.015247768  0.015237376         3477 
 2988000   0.78737593   -8.4459975    547.98125  0.015282833  0.015230603         3483 
 2989000   0.78015613   -8.4329451    546.61733  0.015239694  0.015223829         3551 
 2990000   0.76855644   -8.4198012    546.87191  0.015241692  0.015217052         3516 
 2991000   0.76537722   -8.4548356    545.96614   0.01521136  0.015210279         3508 
 2992000   0.77567621   -8.4314894    547.37493  0.015245514  0.015203497         3530 
 2993000     0.791492   -8.4602217    546.01365  0.015202518  0.015196732         3543 
 2994000   0.77643178   -8.4494683    546.94489   0.01522336  0.015189961         3566 
 2995000   0.78117404   -8.4310766    546.21699  0.015198024  0.015183201         3562 
 2996000   0.78857139   -8.3781534    547.39354  0.015225677  0.015176444         3514 
 2997000   0.77210525    -8.461508    546.64081  0.015199667  0.015169688         3553 
 2998000   0.77136037   -8.4569346     547.3475   0.01521424   0.01516293         3574 
 2999000   0.77275164   -8.4393352    547.96567  0.015226344  0.015156179         3451 
 3000000   0.76366067   -8.4497514    547.20299  0.015200083  0.015149433         3556 
 3001000   0.77196457   -8.4681163    547.38523  0.015200079  0.015142675         3547 
 3002000   0.75927013   -8.4235105    546.87839  0.015180946   0.01513593         3544 
 3003000   0.77059559   -8.4258726    548.13845  0.015210857  0.015129178         3550 
 3004000   0.77095913   -8.4431662    546.93518  0.015172414   0.01512243         3581 
 3005000   0.77315757   -8.4591751    547.02666  0.015169902  0.015115696         3529 
 3006000   0.77211906   -8.4417713    546.22987  0.015142766  0.015108952         3578 
 3007000   0.78753964   -8.4589073    547.36226  0.015169113  0.015102216         3586 
 3008000   0.76795098   -8.4241149    547.74544  0.015174685  0.015095486         3530 
 3009000   0.79019453   -8.4674488    546.44501  0.015133627  0.015088763         3530 
 3010000   0.75955823   -8.4679945    546.73625  0.015136663  0.015082045         3588 
 3011000   0.76203948   -8.4311896    547.39025  0.015149736  0.015075312         3602 
 3012000   0.77603535   -8.4120904    547.02155  0.015134505  0.015068591         3596 
 3013000   0.78526288   -8.4330365    548.05925  0.015158183  0.015061894         3538 
 3014000   0.76209912   -8.4241899    547.70671  0.015143406  0.015055195         3545 
 3015000   0.77524731   -8.4372465    545.81222   0.01508602  0.015048498         3539 
 3016000   0.78660654   -8.4451437    546.79761  0.015108245  0.015041797         3547 
 3017000   0.76886207   -8.4428579    547.16031  0.015113256  0.015035112         3506 
 3018000    0.7884092   -8.4511412    547.28377  0.015111657  0.015028422         3560 
 3019000   0.76527947   -8.4627023    546.77512  0.015092611  0.015021728         3642 
 3020000   0.76061641   -8.4670587    546.87135  0.015090269  0.015015036         3632 
 3021000   0.76545361   -8.4549432    547.09879  0.015091548  0.015008343         3545 
 3022000   0.77699473     -8.43337    546.79195  0.015078092  0.015001661         3578 
 3023000    0.7584256   -8.4329854    547.87364  0.015102923  0.014994982         3562 
 3024000   0.77282474    -8.414883    547.76762  0.015095007  0.014988305         3543 
 3025000   0.75488853   -8.4582565    546.44293  0.015053524  0.014981637         3555 
 3026000    0.7653616    -8.454887    547.21887  0.015069918  0.014974961         3579 
 3027000   0.75313341   -8.4457635    547.04788  0.015060232  0.014968287         3612 
 3028000    0.7573673   -8.4672843     546.9635  0.015052937  0.014961601         3597 
 3029000   0.74979444   -8.4722758    546.76003  0.015042369  0.014954927         3541 
 3030000   0.78008317   -8.4381894    546.78567   0.01503811  0.014948253         3555 
 3031000   0.75988651   -8.4638889    545.64411  0.015001763   0.01494159         3538 
 3032000   0.76389735   -8.4579781    547.85403  0.015057553  0.014934942         3516 
 3033000    0.7748513   -8.4224399    547.41803   0.01504061  0.014928293         3582 
 3034000   0.77227319   -8.4498759    547.06867  0.015026057  0.014921639         3574 
 3035000   0.76038641   -8.4492242    546.73532  0.015011953  0.014914988         3614 
 3036000    0.7617037   -8.4558212    545.99627  0.014986722   0.01490834         3545 
 3037000   0.75840876   -8.4801357    546.58557  0.014997958  0.014901708         3517 
 3038000   0.76368706   -8.4443964    547.86486  0.015028112  0.014895067         3483 
 3039000   0.76300628   -8.4633333    547.32615  0.015008395  0.014888433         3608 
 3040000   0.77076934    -8.475236     546.6178  0.014984041  0.014881794         3672 
 3041000   0.75026612   -8.4607104    546.65444  0.014980117  0.014875157         3654 
 3042000   0.78313141    -8.455068    546.68043  0.014975905  0.014868522         3586 
 3043000   0.78192607   -8.4727044     547.4021  0.014990746  0.014861877         3640 
 3044000   0.75809234   -8.4438594     547.0179  0.014975304  0.014855241         3578 
 3045000   0.77647306   -8.4222426    546.99979   0.01496989  0.014848614         3532 
 3046000   0.76491266   -8.4815131    545.72491  0.014930097  0.014841988         3637 
 3047000   0.75553187   -8.4764534    546.73158  0.014952729  0.014835355         3642 
 3048000   0.76813996   -8.4863197    545.68442  0.014919193  0.014828736         3601 
 3049000   0.75902878   -8.4691449     545.0586  0.014897196  0.014822116         3558 
 3050000    0.7627032   -8.4557033    545.92082  0.014915869  0.014815498         3574 
 3051000   0.75811616    -8.477945    546.01542  0.014913564  0.014808877         3622 
 3052000   0.75122195   -8.4667945    546.24849  0.014915042  0.014802261         3646 
 3053000   0.77272985    -8.479169    546.62031  0.014920305  0.014795651         3634 
 3054000   0.75130067   -8.4666559    546.75764  0.014919167  0.014789038         3651 
 3055000   0.77638105   -8.4667572    546.67015  0.014911897  0.014782434         3634 
 3056000   0.76229732    -8.459876    546.25821  0.014895784  0.014775827         3577 
 3057000   0.75686283   -8.4568875    546.10963  0.014886862  0.014769234         3579 
 3058000   0.75151146   -8.4761461    546.85248  0.014902237  0.014762647         3633 
 3059000    0.7570757    -8.476989    547.12825  0.014904878  0.014756065         3652 
 3060000   0.74786214   -8.4500445    546.67284  0.014887605  0.014749458         3577 
 3061000   0.77679882     -8.46265    547.12133  0.014894951  0.014742872         3607 
 3062000   0.75208488   -8.4605975    546.54422   0.01487438  0.014736298         3635 
 3063000   0.76505996   -8.4518759    546.74921  0.014875101   0.01472973         3642 
 3064000   0.76961469   -8.4429293    546.16105   0.01485425  0.014723166         3581 
 3065000   0.77209943   -8.4628859    545.73212  0.014837741  0.014716602         3609 
 3066000    0.7392792   -8.4761447    545.04682  0.014814275  0.014710031         3674 
 3067000   0.77615298    -8.482194    546.34612  0.014844748  0.014703463         3625 
 3068000   0.75803057   -8.4744155     546.3244   0.01483932  0.014696897         3623 
 3069000   0.76436405   -8.4948834     545.7457  0.014818771  0.014690327         3588 
 3070000   0.75984941   -8.4650258    546.54721  0.014835701  0.014683761         3590 
 3071000   0.76319062   -8.4749459    546.43253  0.014827758  0.014677198         3568 
 3072000    0.7652916   -8.4746209    546.70995  0.014830457   0.01467065         3642 
 3073000   0.75552631    -8.490624    545.89296  0.014803475  0.014664097         3628 
 3074000   0.74812006   -8.4703234    546.44099  0.014813516  0.014657546         3636 
 3075000   0.74506728   -8.5042121    546.42904  0.014808375  0.014650994         3641 
 3076000   0.75581572   -8.4804672     545.6384  0.014782141  0.014644436         3671 
 3077000   0.77659194   -8.4864574    546.35238  0.014796674  0.014637889         3574 
 3078000    0.7560661   -8.4799529    547.03368  0.014810312  0.014631352         3644 
 3079000   0.76760789   -8.4817005    545.59958  0.014766688   0.01462481         3682 
 3080000   0.75727485   -8.4675458    545.78256  0.014766844  0.014618283         3617 
 3081000   0.76532867   -8.5151532    545.25227  0.014747708  0.014611751         3623 
 3082000   0.75529277   -8.4800377    546.03966  0.014764213  0.014605222         3611 
 3083000   0.76851977   -8.4805154    545.96547  0.014757419  0.014598694         3625 
 3084000    0.7437066   -8.5057132    546.27367  0.014760962  0.014592163         3674 
 3085000   0.74783423   -8.4805769    545.34494   0.01473109  0.014585635         3667 
 3086000   0.76746883   -8.4747172    546.72081   0.01476347  0.014579125         3664 
 3087000   0.75764552   -8.4728635      544.927  0.014710264  0.014572623         3616 
 3088000   0.74511981   -8.4778699    546.21997  0.014740392  0.014566113         3674 
 3089000   0.76073102   -8.4742322    544.86304  0.014699014  0.014559613         3773 
 3090000   0.76530057   -8.4955182    546.93761  0.014750205  0.014553111         3672 
 3091000    0.7576783    -8.484123    545.91762  0.014717934  0.014546607         3661 
 3092000   0.77005315    -8.473603     546.2197  0.014721316  0.014540106         3662 
 3093000   0.75814205   -8.4603113     546.5937  0.014726633  0.014533608         3651 
 3094000   0.79020588   -8.4639735    546.25305  0.014712698  0.014527116         3675 
 3095000   0.74795083   -8.4682929    545.72848   0.01469382  0.014520621         3598 
 3096000   0.77163461    -8.488633    544.63982  0.014659771  0.014514136         3648 
 3097000    0.7661106   -8.4909541    545.49309  0.014677997  0.014507648         3677 
 3098000   0.74857435   -8.4780869    546.73426  0.014706646  0.014501159         3639 
 3099000   0.76157019    -8.484439    546.09004  0.014684577  0.014494674         3676 
 3100000   0.74128979   -8.4874399    544.87515  0.014647181  0.014488193         3692 
 3101000   0.75489735   -8.5152247    543.99145   0.01461871  0.014481711         3682 
 3102000   0.75757818   -8.4690867    546.29861  0.014675978  0.014475244         3697 
 3103000   0.74463783   -8.4975104    545.83525  0.014658805  0.014468774         3659 
 3104000   0.74882805   -8.5039953     545.4243  0.014643049  0.014462307         3676 
 3105000   0.75511444   -8.4842855    546.95161  0.014679324  0.014455841         3657 
 3106000     0.763982   -8.4854377     546.4129  0.014660144  0.014449387         3642 
 3107000   0.75252252   -8.5157027    544.79377  0.014611999  0.014442932         3717 
 3108000    0.7474836   -8.5039857    545.26652  0.014619973  0.014436477         3723 
 3109000   0.75705784   -8.4958949    545.20945  0.014613741  0.014430029         3665 
 3110000   0.75766781    -8.481081    545.85905  0.014626448   0.01442359         3724 
 3111000   0.75896273   -8.4817343    545.60366  0.014614906  0.014417144         3678 
 3112000   0.76408841   -8.5041504    545.60033   0.01461012  0.014410698         3679 
 3113000   0.75429044    -8.485971    547.00986  0.014643159   0.01440425         3713 
 3114000   0.75132897   -8.4922598     545.5655  0.014599805  0.014397822         3711 
 3115000   0.74729775   -8.4907358    545.93989  0.014605134  0.014391384         3755 
 3116000   0.74509871   -8.4796665     545.9625  0.014601051  0.014384944         3716 
 3117000   0.74346545   -8.5151193    544.48893  0.014556971   0.01437851         3661 
 3118000   0.74339391   -8.5051054    544.81023  0.014560889  0.014372075         3657 
 3119000   0.76050761   -8.4837054    545.66843   0.01457915  0.014365648         3685 
 3120000    0.7533494    -8.520059    544.83542  0.014552228  0.014359217         3671 
 3121000   0.75125205   -8.4937962    545.14632  0.014555867  0.014352797         3717 
 3122000   0.73517291   -8.5015302    546.20825   0.01457955  0.014346363         3685 
 3123000   0.73956228   -8.4909542    545.81531  0.014564396  0.014339941         3650 
 3124000   0.75668012   -8.5058862    545.44123  0.014549755  0.014333532         3742 
 3125000   0.74928563   -8.5117849    545.80261  0.014554736  0.014327118         3696 
 3126000   0.74260969   -8.5110606    545.04935      0.01453  0.014320708         3676 
 3127000   0.74864804   -8.5157527    544.23221  0.014503577  0.014314291         3715 
 3128000   0.75851729   -8.5076243    544.43789   0.01450442  0.014307899         3670 
 3129000   0.75772642   -8.4918123    544.44343  0.014499931  0.014301497         3699 
 3130000   0.75835894   -8.4899991    545.72159  0.014529329  0.014295098         3708 
 3131000   0.75408456    -8.502061    544.76829  0.014499316  0.014288705         3651 
 3132000   0.75717429   -8.4957754    545.72158  0.014520051  0.014282321         3656 
 3133000   0.75228147   -8.5198774    544.52834  0.014483677  0.014275942         3653 
 3134000   0.76487531   -8.5136963     544.7825  0.014485814  0.014269558         3652 
 3135000   0.73816531   -8.5048991    545.53949  0.014501316  0.014263177         3650 
 3136000   0.74360325   -8.5107215    545.25884  0.014489234  0.014256813         3693 
 3137000   0.75301556   -8.5061969    545.43697  0.014489347  0.014250445         3675 
 3138000    0.7474203   -8.5113536    545.71566   0.01449213  0.014244079         3627 
 3139000   0.76418862   -8.5186186     544.3866   0.01445223  0.014237708         3694 
 3140000    0.7527196   -8.4872843    545.59559  0.014479713  0.014231348         3702 
 3141000   0.76743547   -8.4966905    545.04718  0.014460553  0.014224987         3605 
 3142000   0.75809476   -8.5018898    544.93517   0.01445298  0.014218636         3701 
 3143000    0.7475668      -8.5114    546.11286  0.014479607  0.014212274         3707 
 3144000   0.74367716   -8.4962101    545.18361  0.014450371  0.014205925         3654 
 3145000   0.74757393   -8.5133013    545.63723  0.014457796  0.014199578         3697 
 3146000   0.73998734   -8.4862866    545.56302  0.014451235  0.014193234         3639 
 3147000   0.76482751   -8.5172395    544.18631  0.014410187  0.014186893         3710 
 3148000   0.76518907   -8.4952482    545.91831  0.014451459   0.01418056         3671 
 3149000   0.76545921   -8.4847636    544.99898  0.014422541   0.01417422         3669 
 3150000   0.75215746   -8.5158804    545.83214  0.014440004  0.014167888         3650 
 3151000   0.73942627   -8.5196406    546.14247  0.014443628  0.014161552         3697 
 3152000   0.75960268   -8.5174353    545.85841  0.014431536  0.014155234         3614 
 3153000   0.74727651   -8.5150634    545.05108  0.014405621  0.014148912         3696 
 3154000   0.73745377   -8.5206389    543.97482  0.014372617  0.014142597         3692 
 3155000   0.75453333   -8.5096949    544.89248    0.0143923  0.014136278         3741 
 3156000   0.76308815   -8.4945749    545.72144  0.014409628  0.014129967         3660 
 3157000   0.74448164   -8.5017311    545.60981  0.014402117  0.014123661         3672 
 3158000   0.74173223   -8.5048584     545.5753  0.014396646  0.014117357         3669 
 3159000   0.74395333   -8.4992194    545.06824  0.014378713  0.014111046         3718 
 3160000   0.75467064   -8.5106517     545.1425  0.014376121  0.014104742         3637 
 3161000   0.74639995    -8.503897    545.52409  0.014381633  0.014098432         3698 
 3162000   0.75551141    -8.527376    544.37971  0.014346925  0.014092134         3710 
 3163000   0.73901167   -8.5311382    545.08976  0.014361096  0.014085839         3672 
 3164000   0.76384876    -8.513673    544.94685  0.014352793  0.014079543         3638 
 3165000   0.75025431   -8.5051774    544.95487  0.014348469  0.014073248         3709 
 3166000   0.73715197   -8.5369897    544.55689  0.014333462  0.014066971         3656 
 3167000   0.72369632   -8.5543079    544.10636  0.014317081  0.014060677         3725 
 3168000    0.7385146   -8.5236396    544.94338   0.01433458  0.014054381         3753 
 3169000   0.73370239   -8.5097404    544.97124  0.014330789  0.014048103         3690 
 3170000   0.75856294   -8.5052169    544.66789  0.014318294   0.01404183         3712 
 3171000   0.74903593   -8.5232042    544.29826  0.014304064   0.01403555         3708 
 3172000   0.72832418   -8.5197814    544.05989  0.014293293   0.01402928         3692 
 3173000   0.74298084   -8.5186316    546.46418  0.014351932  0.014023017         3716 
 3174000   0.72934847   -8.5098548    544.05285  0.014284101  0.014016752         3683 
 3175000   0.74256398   -8.5160277     545.5978  0.014320152   0.01401049         3688 
 3176000   0.75280621   -8.5390218    544.44186  0.014285313  0.014004227         3736 
 3177000   0.73697521   -8.5124913    545.38598  0.014305581  0.013997964         3713 
 3178000   0.76037523    -8.514377    544.74066  0.014284158  0.013991708         3723 
 3179000   0.76084817   -8.5131988    545.42217   0.01429753  0.013985466         3685 
 3180000   0.75694584   -8.5447458    544.27931  0.014263085  0.013979215         3666 
 3181000   0.73862361   -8.5370652    544.96162  0.014276475  0.013972969         3679 
 3182000   0.75746571   -8.5130531    544.57866  0.014261959  0.013966732         3677 
 3183000   0.74707853   -8.5426022    543.61829  0.014232336  0.013960496         3733 
 3184000   0.74551023   -8.5166002    544.74629  0.014257388  0.013954259         3706 
 3185000   0.75831025   -8.5224912    545.50171  0.014272677  0.013948024         3712 
 3186000   0.74678773   -8.5218964    544.58711  0.014244275   0.01394179         3720 
 3187000   0.74830653   -8.5412948    545.11236  0.014253539  0.013935552         3700 
 3188000   0.73503544   -8.5301055      544.474  0.014232382  0.013929328         3722 
 3189000   0.72969961   -8.5040803    544.77363  0.014235749  0.013923103         3707 
 3190000   0.72990101   -8.5091951    544.21642   0.01421673  0.013916884         3725 
 3191000   0.73388362   -8.5226929     546.0512   0.01426019   0.01391067         3709 
 3192000   0.76085479   -8.5011701    546.03561  0.014255316  0.013904466         3716 
 3193000    0.7334995   -8.5268684    544.13519  0.014201252  0.013898269         3696 
 3194000    0.7304246   -8.5294351    544.01688  0.014193719  0.013892068         3729 
 3195000   0.75349319   -8.5209729     544.9903  0.014214666  0.013885872         3691 
 3196000   0.73866421   -8.5060509    545.32873  0.014219043  0.013879678         3743 
 3197000   0.74173353   -8.5029925    545.44599  0.014217652  0.013873493         3684 
 3198000   0.74408831   -8.5295234    544.15681  0.014179612  0.013867303         3684 
 3199000   0.75072911   -8.5169196    545.75798   0.01421689  0.013861126         3658 
 3200000   0.74620928   -8.5264804     545.1494  0.014196599  0.013854953         3689 
 3201000    0.7390483   -8.5105031    545.16083  0.014192461  0.013848776         3727 
 3202000   0.75434623   -8.5209784    545.27246  0.014190934  0.013842594         3711 
 3203000   0.73872384   -8.5126472    545.07266  0.014181306  0.013836427         3686 
 3204000   0.73057245   -8.5164261    544.56594    0.0141637  0.013830262         3662 
 3205000   0.74219618   -8.5212149    543.75659  0.014138237   0.01382409         3691 
 3206000   0.74733241   -8.5252073    544.21639  0.014145778  0.013817919         3690 
 3207000   0.73294915   -8.5401289    544.75819  0.014155446  0.013811766         3743 
 3208000   0.74019993   -8.5318395     543.6141  0.014121314   0.01380561         3672 
 3209000   0.74161868   -8.5071741    545.58696  0.014168146  0.013799455         3659 
 3210000    0.7440887   -8.5373632    544.91395   0.01414626  0.013793298         3682 
 3211000    0.7434335   -8.5145612    546.37858  0.014179865  0.013787151         3687 
 3212000   0.73139338    -8.529627    545.13577  0.014143207  0.013781009         3694 
 3213000   0.74049499   -8.5239848    545.07017  0.014137104   0.01377487         3677 
 3214000   0.74006424   -8.5484467    543.53054  0.014092785  0.013768732         3664 
 3215000   0.73921653   -8.5347966     543.6137  0.014090557  0.013762589         3710 
 3216000   0.72771076   -8.5279178    545.22171  0.014127843  0.013756452         3660 
 3217000   0.72688816   -8.5399288     542.9556   0.01406475   0.01375031         3707 
 3218000    0.7298608   -8.5368039    544.26601  0.014094314  0.013744179         3706 
 3219000   0.73291857    -8.540354    544.54213  0.014097083  0.013738047         3717 
 3220000   0.73816043    -8.542148    545.28972  0.014112053  0.013731923         3664 
 3221000   0.72995019   -8.5198317    545.73074  0.014119081  0.013725806         3659 
 3222000   0.74634302   -8.5536091     543.7962  0.014064665   0.01371969         3682 
 3223000   0.72955345   -8.5070452    544.84724  0.014087477  0.013713579         3707 
 3224000   0.72627879   -8.5324535    543.75428  0.014054856  0.013707463         3709 
 3225000   0.72991518   -8.5359554    544.28021  0.014064088  0.013701347         3743 
 3226000   0.73937076   -8.5153708    543.97552  0.014051858  0.013695235         3711 
 3227000   0.72449359   -8.5279267    544.06989   0.01404994  0.013689133         3682 
 3228000   0.74142135   -8.5325383    545.09712  0.014072107  0.013683028         3700 
 3229000   0.72966602    -8.547856    542.87084  0.014010293  0.013676922         3717 
 3230000   0.73739827   -8.5422022    544.22265  0.014040832  0.013670832         3738 
 3231000   0.72520289   -8.5144882    544.10445  0.014033438  0.013664729         3674 
 3232000   0.72778379    -8.537171    544.03256  0.014027242  0.013658634         3681 
 3233000   0.71997117   -8.5404457    545.32545  0.014056229  0.013652551         3679 
 3234000    0.7361099   -8.5417892    544.26442  0.014024542  0.013646463         3715 
 3235000   0.72788254    -8.525424    543.94688  0.014012027  0.013640384         3678 
 3236000   0.75577877     -8.53759    544.93124  0.014033046  0.013634309         3762 
 3237000   0.73466951   -8.5248423    544.95537  0.014029332  0.013628236         3704 
 3238000   0.74461405   -8.5302244    543.17063  0.013979067  0.013622168         3676 
 3239000   0.73196208   -8.5442013    543.99588  0.013995983  0.013616102         3696 
 3240000   0.73139459   -8.5422324    544.62261  0.014007783  0.013610031         3715 
 3241000   0.72137338   -8.5343385    544.54422  0.014001446  0.013603972         3714 
 3242000   0.72517639   -8.5585343    544.37146  0.013992686  0.013597914         3725 
 3243000   0.73090487    -8.553603    544.71746  0.013997262  0.013591857         3666 
 3244000   0.74224232    -8.529032    545.21486  0.014005725    0.0135858         3703 
 3245000   0.72270192   -8.5298772    543.39695  0.013954724   0.01357975         3709 
 3246000   0.72616116   -8.5361164    543.70187  0.013958253  0.013573696         3684 
 3247000   0.71847807   -8.5327947     544.4999  0.013974435  0.013567652         3656 
 3248000   0.73089488   -8.5627723    544.98264  0.013982519  0.013561608         3725 
 3249000   0.72520188   -8.5285908    544.84031  0.013974564  0.013555564         3738 
 3250000   0.72692472   -8.5445149     544.1252  0.013951928  0.013549527         3744 
 3251000   0.72851386   -8.5453139    543.37138  0.013928314   0.01354348         3731 
 3252000   0.71639045   -8.5373301    544.71196  0.013958384  0.013537442         3714 
 3253000   0.73171386   -8.5443229    544.29091  0.013943306   0.01353141         3709 
 3254000   0.74008656   -8.5348752    544.54092  0.013945424  0.013525384         3752 
 3255000    0.7232806    -8.555595    543.59601  0.013916949  0.013519355         3676 
 3256000   0.71785481    -8.550099    544.69747  0.013940865  0.013513333         3705 
 3257000   0.73210548   -8.5576479    544.76756  0.013938378   0.01350731         3762 
 3258000   0.73338674    -8.556137    544.12213  0.013917591  0.013501299         3751 
 3259000   0.73717887   -8.5563667    544.04501  0.013911348  0.013495281         3765 
 3260000   0.73964996   -8.5353784     542.9429  0.013878909   0.01348927         3731 
 3261000   0.74521209   -8.5703062    543.73382  0.013894864  0.013483266         3756 
 3262000   0.71542302   -8.5711244    544.52588  0.013910839  0.013477265         3749 
 3263000   0.72707584   -8.5580197    543.63222  0.013883753  0.013471264         3780 
 3264000    0.7260175   -8.5661668    545.19991  0.013919524  0.013465266         3689 
 3265000   0.73874316   -8.5405596    543.32439  0.013867391  0.013459273         3682 
 3266000   0.73223794   -8.5241106    544.07775  0.013882368  0.013453285         3721 
 3267000   0.71672049   -8.5690435    543.32724  0.013858975  0.013447294         3802 
 3268000   0.72335553   -8.5085767    545.13386  0.013900802  0.013441315         3757 
 3269000   0.72396842   -8.5691064    543.95835  0.013866584  0.013435329         3705 
 3270000   0.73330619   -8.5380331    544.00434  0.013863515  0.013429353         3745 
 3271000    0.7449506   -8.5428569    542.98815  0.013833388  0.013423378         3737 
 3272000   0.71716351   -8.5598484    544.04646  0.013856114   0.01341741         3742 
 3273000   0.73774957    -8.557858    544.57911  0.013865442  0.013411431         3788 
 3274000   0.73070771   -8.5204323    542.92234  0.013819037  0.013405462         3766 
 3275000   0.71302087   -8.5478082    544.20479   0.01384745  0.013399501         3703 
 3276000    0.7361802   -8.5731783    543.26177  0.013819235  0.013393538         3707 
 3277000    0.7361114   -8.5616054    544.52928   0.01384725  0.013387579         3755 
 3278000   0.73259347   -8.5755664     543.4323  0.013815139  0.013381625         3741 
 3279000   0.72450795   -8.5528383    544.29031  0.013832731  0.013375667         3754 
 3280000   0.72993765   -8.5411843    544.10426  0.013823787  0.013369726         3757 
 3281000   0.71578724   -8.5531894    544.49718  0.013829553  0.013363783         3727 
 3282000   0.72303265   -8.5567381    544.49834  0.013825369  0.013357839         3736 
 3283000   0.72189964   -8.5496338    543.36129  0.013792296  0.013351899         3762 
 3284000   0.71767831   -8.5564162    542.63754   0.01376973  0.013345959         3733 
 3285000   0.73286001    -8.567294    543.70581  0.013792639  0.013340031         3722 
 3286000   0.72451912   -8.5357593     542.9109  0.013768282  0.013334099         3720 
 3287000   0.73394641    -8.558763    543.46824  0.013778223  0.013328175         3786 
 3288000   0.73367833    -8.552349    543.80487  0.013782565  0.013322242         3761 
 3289000   0.72657656   -8.5859686    543.80358  0.013778341  0.013316321         3794 
 3290000   0.71341928   -8.5574723    543.76482  0.013773172  0.013310399         3762 
 3291000   0.72242274   -8.5257893    543.16853  0.013753888  0.013304481         3730 
 3292000   0.72318496   -8.5492848    542.52215  0.013733347  0.013298568         3788 
 3293000   0.72241911   -8.5672352    542.78805  0.013735906  0.013292653         3758 
 3294000   0.72253314   -8.5676173    543.71563  0.013755202  0.013286739         3735 
 3295000   0.71948587   -8.5438385    544.24343  0.013764376  0.013280832         3750 
 3296000   0.71060045   -8.5581291    543.20331  0.013733902   0.01327493         3761 
 3297000   0.73025022   -8.5463095    543.77765  0.013744254  0.013269029         3756 
 3298000   0.72765332   -8.5799172    542.63627  0.013711246  0.013263125         3745 
 3299000    0.7254675   -8.5780214    542.82916  0.013711962   0.01325723         3756 
 3300000   0.70716201   -8.5734374    543.38903  0.013721945  0.013251333         3711 
 3301000   0.71176882   -8.5782545    542.92063  0.013705964  0.013245441         3761 
 3302000   0.72420306   -8.5555064    543.62676  0.013719634  0.013239554         3763 
 3303000   0.72404448   -8.5847061    542.98535  0.013699297  0.013233669         3748 
 3304000   0.71368114   -8.5413194    543.12149  0.013698585  0.013227785         3769 
 3305000   0.71676094   -8.5450273    544.10421  0.013719219  0.013221904         3741 
 3306000   0.71515053   -8.5571646       543.64  0.013703368  0.013216032         3712 
 3307000   0.73849294   -8.5464597    544.50989  0.013721144  0.013210159         3728 
 3308000   0.71995133   -8.6100473    543.23246  0.013684816  0.013204293         3729 
 3309000   0.72471596   -8.5564453    543.08082  0.013676862  0.013198423         3761 
 3310000   0.72387253    -8.541084    544.04176  0.013696923  0.013192565         3685 
 3311000   0.73053241   -8.5553827    543.26994   0.01367336  0.013186709         3687 
 3312000   0.73448527   -8.5374266    543.80082  0.013682589  0.013180862         3719 
 3313000    0.7159038   -8.5339966    544.32951  0.013691758   0.01317501         3704 
 3314000   0.71243999   -8.5557145    545.09252  0.013706813  0.013169165         3717 
 3315000   0.72658225   -8.5611241    542.68918  0.013642262  0.013163317         3753 
 3316000   0.72522291   -8.5877531    543.33531  0.013654386  0.013157467         3762 
 3317000   0.72339146   -8.5691192    543.63792  0.013657872  0.013151628         3763 
 3318000   0.73009549   -8.5451253    543.97247  0.013662158  0.013145793         3714 
 3319000   0.73757959   -8.5472085    543.50422  0.013646285   0.01313996         3728 
 3320000   0.70155381   -8.5588426    544.86322  0.013676286   0.01313413         3690 
 3321000   0.73000406   -8.5529936    543.70322   0.01364306  0.013128304         3760 
 3322000   0.70901055   -8.5533137    543.58217  0.013635916  0.013122486         3733 
 3323000    0.7187147   -8.5359648    543.05961  0.013618708  0.013116669         3755 
 3324000    0.7170583   -8.5650035    544.03017  0.013638943  0.013110856         3731 
 3325000     0.695525   -8.5455882    543.34838  0.013617754  0.013105042         3735 
 3326000   0.70977885   -8.5651529    543.55442  0.013618822  0.013099234         3764 
 3327000   0.71725226   -8.5690863    543.95582  0.013624783  0.013093423         3741 
 3328000   0.72523667   -8.5569639    544.70958  0.013639563  0.013087626         3755 
 3329000   0.74321748   -8.5480558    543.97634  0.013617111  0.013081833         3709 
 3330000   0.72611193   -8.5428341    543.39347  0.013598435  0.013076036         3737 
 3331000   0.72773612   -8.5807214    542.33288  0.013567819  0.013070244         3720 
 3332000   0.74158276    -8.579452    543.97146  0.013604728  0.013064456         3760 
 3333000   0.72191132     -8.54987    543.92898  0.013599584  0.013058668         3739 
 3334000   0.71018232   -8.5672964    545.23764  0.013628215  0.013052883         3761 
 3335000   0.71582883   -8.5612688    543.68872  0.013585425  0.013047098         3725 
 3336000   0.71717113   -8.5710643    543.78952  0.013583871  0.013041316         3695 
 3337000   0.72029527   -8.5630567    543.47069  0.013571838   0.01303554         3746 
 3338000   0.72899477   -8.5661842    543.62935  0.013571733  0.013029768         3743 
 3339000   0.71243375   -8.5750684    543.62498   0.01356756  0.013023996         3790 
 3340000   0.71262234   -8.5621906    543.37848  0.013557347  0.013018227         3772 
 3341000   0.70382498   -8.5495351    543.12122  0.013546873  0.013012462         3776 
 3342000    0.7103545   -8.5793514    544.33421  0.013573065  0.013006703         3773 
 3343000   0.70582782   -8.5494821    543.97435  0.013560035  0.013000949         3757 
 3344000    0.7061385   -8.5640844    544.27408  0.013563449  0.012995196         3719 
 3345000   0.71481801   -8.5645994    543.57604  0.013542004  0.012989447         3715 
 3346000   0.72255278    -8.568496    544.18476  0.013553117  0.012983699         3733 
 3347000   0.70726425   -8.5979131     542.8694  0.013516318  0.012977957         3726 
 3348000   0.69579699   -8.5809973    543.89358  0.013537773  0.012972212         3712 
 3349000   0.71821051   -8.5644927    543.46235  0.013523001  0.012966474         3765 
 3350000   0.71493383   -8.5817721    543.00074  0.013507481  0.012960739         3789 
 3351000    0.7195592   -8.5511462    543.62459  0.013518964  0.012955008         3748 
 3352000    0.7077852   -8.5933169     543.3556  0.013508244  0.012949274         3719 
 3353000   0.72045003   -8.5824425    542.40351  0.013480552  0.012943548         3760 
 3354000    0.7272701   -8.5886488    543.11253   0.01349415  0.012937825         3738 
 3355000   0.71648049   -8.5800452    544.23488  0.013518005  0.012932095         3737 
 3356000   0.72518696   -8.5881558    544.14181  0.013511666  0.012926372         3780 
 3357000   0.70803949   -8.5801922    542.21577   0.01345983  0.012920654         3726 
 3358000   0.71005766   -8.5643131    543.19751  0.013480184  0.012914934         3761 
 3359000   0.70855241   -8.5596785    543.69866  0.013488604  0.012909223         3784 
 3360000   0.71613921   -8.5964559    543.47027  0.013478925  0.012903511         3747 
 3361000   0.73929217   -8.5845407     544.3268  0.013496152  0.012897804         3775 
 3362000   0.71043543     -8.56746    544.49056  0.013496197  0.012892106         3684 
 3363000   0.71220859   -8.5870826    542.84198  0.013451333   0.01288641         3713 
 3364000   0.71904844   -8.6043173    542.99385  0.013451096  0.012880705         3786 
 3365000   0.72115108   -8.5847055     543.0502  0.013448494  0.012875009         3722 
 3366000   0.71119473   -8.5872937     543.0834  0.013445321  0.012869311         3723 
 3367000   0.72649466    -8.599489    543.05139  0.013440535  0.012863626         3710 
 3368000   0.72622674   -8.5777412    542.76882  0.013429553  0.012857935         3740 
 3369000   0.71570867   -8.5898393    543.28886   0.01343843  0.012852254         3762 
 3370000   0.71637193   -8.5883469    543.77169  0.013446382  0.012846567         3727 
 3371000   0.72059575   -8.5730221    543.12834  0.013426489  0.012840891         3722 
 3372000   0.69580024   -8.5742746     543.6016  0.013434203  0.012835221         3698 
 3373000   0.72827954   -8.5720257    542.83391  0.013411254  0.012829547         3732 
 3374000   0.71643754   -8.5891966    543.17566   0.01341572   0.01282388         3728 
 3375000   0.70961892   -8.5921845    543.06119  0.013408918  0.012818217         3783 
 3376000   0.69880602   -8.5673874    543.14199  0.013406941  0.012812556         3704 
 3377000   0.71346339   -8.5707894    543.97226  0.013423459  0.012806895         3767 
 3378000   0.71313345   -8.5981647    542.71212  0.013388398  0.012801231         3798 
 3379000   0.71480984   -8.5774226     543.9883   0.01341591  0.012795579         3786 
 3380000   0.71516315   -8.6024413    543.02723  0.013388245   0.01278993         3765 
 3381000   0.71552215   -8.6016855    542.57233  0.013373073   0.01278429         3783 
 3382000   0.71232421   -8.5521502    544.27858  0.013411161  0.012778647         3762 
 3383000    0.6977699   -8.5999502    542.22964  0.013356726  0.012773005         3775 
 3384000    0.7182111   -8.5741156    542.39924  0.013356955  0.012767363         3786 
 3385000    0.7174411   -8.5780096    541.54661  0.013332019  0.012761726         3747 
 3386000   0.71861107    -8.582029    543.94049  0.013386998  0.012756094         3735 
 3387000   0.69870161   -8.5920291     542.4648  0.013346738  0.012750458         3779 
 3388000   0.71940373   -8.5404542    542.69387  0.013348433  0.012744839         3713 
 3389000   0.70780871    -8.573706    543.58042  0.013366293  0.012739212         3759 
 3390000   0.70775843   -8.5829983    543.07094  0.013349826  0.012733591         3756 
 3391000   0.71109949   -8.5811278    542.61276   0.01333463  0.012727974         3723 
 3392000   0.70466633   -8.5890623     543.6643  0.013356533  0.012722362         3757 
 3393000    0.6940671   -8.6053313    541.76571  0.013305966  0.012716751         3738 
 3394000   0.71295182    -8.590363    542.06896  0.013309491  0.012711145         3736 
 3395000   0.70782225   -8.5688006    542.81169  0.013323802  0.012705539         3766 
 3396000   0.70838853   -8.5644282    542.88105  0.013321581   0.01269994         3732 
 3397000   0.71646486   -8.5938061    543.36058  0.013329423  0.012694337         3741 
 3398000   0.71469144   -8.5654123    542.57757  0.013306297  0.012688741         3753 
 3399000   0.71738367   -8.5760778    543.73073  0.013330654  0.012683144         3769 
 3400000   0.69229122   -8.5759747    542.84735  0.013305082  0.012677549         3745 
 3401000   0.71612307    -8.589865    542.29472  0.013287629  0.012671951         3776 
 3402000   0.70028593   -8.6013501     542.1175  0.013279382  0.012666363         3758 
 3403000   0.70314197   -8.5811968    542.54296  0.013285899  0.012660775         3753 
 3404000   0.70045477   -8.5961868    542.76315  0.013287386  0.012655199         3729 
 3405000   0.71466331   -8.5888851    542.62536  0.013280112  0.012649621         3733 
 3406000   0.71121959   -8.5928048    542.75833  0.013279466  0.012644048         3680 
 3407000   0.70533515   -8.6034766     542.3385  0.013265299  0.012638476         3746 
 3408000   0.71313865   -8.5877436    542.68602  0.013269905  0.012632903         3754 
 3409000   0.69203721   -8.5971389    542.21502  0.013254498  0.012627333         3767 
 3410000   0.69993169   -8.5843276    542.81608    0.0132653  0.012621763         3777 
 3411000   0.71016745   -8.6051494    541.73379   0.01323497  0.012616208         3781 
 3412000   0.70843784   -8.5991288    542.28189  0.013244478  0.012610653         3730 
 3413000   0.72106604   -8.6032721    542.30451  0.013241149  0.012605088         3803 
 3414000   0.71369755   -8.6125476    541.70416  0.013222617  0.012599526         3752 
 3415000   0.71728069   -8.5735531    543.62372  0.013265586  0.012593974         3755 
 3416000   0.71289674   -8.6113905    542.45513  0.013233195  0.012588431         3741 
 3417000   0.69644483    -8.621791    543.12407  0.013245636  0.012582882         3774 
 3418000   0.71581108   -8.6000627    543.47193  0.013250242   0.01257734         3752 
 3419000   0.69392083   -8.6027363    542.73124  0.013228313  0.012571803         3775 
 3420000    0.7008368   -8.5900112    543.48341  0.013242773  0.012566274         3728 
 3421000   0.69142555    -8.598383    542.03687  0.013203665  0.012560737         3805 
 3422000    0.6939654   -8.5993581    543.19063  0.013227904  0.012555202         3735 
 3423000    0.7046961   -8.6320513    542.26635  0.013201537  0.012549672         3792 
 3424000   0.72274831   -8.6064283    543.16809  0.013219628  0.012544141         3763 
 3425000   0.69805331   -8.5872159    542.80425  0.013206916  0.012538621         3772 
 3426000   0.70763553   -8.5776349     543.6872  0.013224538  0.012533105         3780 
 3427000   0.71917198   -8.6043255    543.31578  0.013211647   0.01252759         3758 
 3428000   0.70347687   -8.6013172    542.81532  0.013195627  0.012522074         3808 
 3429000   0.71310127    -8.638772    542.82971  0.013192129  0.012516557         3749 
 3430000   0.69744198   -8.5713993    541.60084  0.013158427  0.012511043         3746 
 3431000   0.70940374   -8.6079334    542.97593   0.01318799  0.012505541         3763 
 3432000   0.70097475   -8.5834027    543.34114  0.013193015  0.012500039         3791 
 3433000   0.71194244   -8.6282787    543.30491  0.013188293  0.012494533         3807 
 3434000   0.70428667   -8.6129293    542.35751  0.013161461  0.012489036         3735 
 3435000   0.70870526   -8.6066219    543.11483  0.013176003  0.012483539         3738 
 3436000   0.70128329   -8.5947192    541.49544  0.013132893  0.012478047         3788 
 3437000   0.71661421   -8.5966181    542.47077   0.01315272  0.012472563         3772 
 3438000    0.6958802   -8.6049236    542.46165  0.013148673  0.012467075         3780 
 3439000   0.69971593   -8.5984757    542.03804  0.013134585   0.01246159         3710 
 3440000    0.6965306   -8.6057265    542.63427   0.01314521   0.01245611         3774 
 3441000   0.70565097   -8.6131385    541.73421  0.013119592  0.012450637         3752 
 3442000   0.70354802   -8.5763477    543.42997  0.013156836  0.012445169         3740 
 3443000   0.70369211   -8.6165757    542.61266  0.013133233  0.012439698         3754 
 3444000   0.67633994   -8.6051991    541.89874  0.013112145  0.012434227         3777 
 3445000   0.71283546   -8.5830832    542.96064  0.013134026  0.012428765         3782 
 3446000   0.69205228    -8.580641    542.97977  0.013130677  0.012423301         3759 
 3447000   0.69521636   -8.5991078    543.15386  0.013131077  0.012417839         3733 
 3448000   0.70062816   -8.5978237    542.75926  0.013117731  0.012412378         3758 
 3449000   0.69528877   -8.6113244    542.07219  0.013097327  0.012406917         3780 
 3450000   0.67847956    -8.614068    542.45112  0.013102684  0.012401462         3786 
 3451000   0.69755937   -8.6423739    541.28741  0.013070786  0.012396009         3750 
 3452000   0.69407025    -8.605939     542.2795   0.01309095  0.012390564         3736 
 3453000   0.70372265   -8.5977578    542.45066  0.013091289  0.012385117         3730 
 3454000   0.72054067   -8.5900502    541.40503  0.013062272  0.012379675         3817 
 3455000   0.70240764   -8.5974129    542.56138  0.013086382  0.012374239         3799 
 3456000   0.67903903   -8.6173817    541.93445  0.013067478  0.012368802         3740 
 3457000   0.71622921   -8.6162236    541.46406  0.013052359  0.012363372         3777 
 3458000   0.70213424   -8.5985969    541.71523  0.013054637  0.012357944         3767 
 3459000    0.6951966   -8.5997156    543.15123  0.013085459  0.012352522         3736 
 3460000   0.68819208   -8.5869961    542.66387  0.013069939  0.012347097         3770 
 3461000   0.69572756   -8.6366465    542.08651  0.013052261  0.012341673         3766 
 3462000    0.6861122   -8.5966383    543.02307  0.013071035  0.012336256         3753 
 3463000   0.71124127    -8.612245    541.58919  0.013032756   0.01233084         3763 
 3464000   0.68270421    -8.633634    541.36161  0.013023518  0.012325428         3786 
 3465000   0.70003616    -8.586001    541.69985  0.013027894  0.012320018         3740 
 3466000   0.70259968   -8.6081487    542.55434   0.01304468  0.012314614         3752 
 3467000   0.70523993   -8.6115893    541.80284  0.013022854   0.01230921         3743 
 3468000   0.70641519   -8.6000255    541.76714  0.013018241  0.012303806         3732 
 3469000   0.68620924   -8.6287177    541.21174  0.013001147  0.012298404         3765 
 3470000   0.70235177   -8.5869332    543.76415  0.013058697  0.012293008         3731 
 3471000   0.71216655   -8.6064646    542.09069  0.013014758  0.012287615         3779 
 3472000   0.69095137    -8.634592    541.57646  0.012998667  0.012282222         3780 
 3473000   0.69794418   -8.6069771    541.58831  0.012995208  0.012276834         3774 
 3474000   0.69272247   -8.6173915    543.15087   0.01302895  0.012271453         3796 
 3475000   0.70587645   -8.6132112    541.69831  0.012990367   0.01226607         3764 
 3476000   0.69902618   -8.5918296    542.02666  0.012994502  0.012260699         3749 
 3477000   0.69160583   -8.6021296    542.49869  0.013002078  0.012255319         3771 
 3478000   0.69509621   -8.6269651    541.47492   0.01297381  0.012249951         3755 
 3479000   0.68435631   -8.6152949       541.88  0.012979783  0.012244587         3768 
 3480000   0.68936225   -8.6138577     542.5771  0.012992747  0.012239221         3739 
 3481000   0.69690586   -8.6030629    542.98418  0.012998759  0.012233858         3749 
 3482000   0.69338956   -8.6011153    542.58107  0.012985379  0.012228501         3758 
 3483000   0.69077847   -8.6252485    541.82079   0.01296346  0.012223144         3764 
 3484000    0.6852332   -8.6275334    541.90925  0.012961855  0.012217786         3789 
 3485000   0.69390869   -8.6224314    542.55416  0.012973557  0.012212436         3740 
 3486000   0.70716607   -8.5993983    543.00479  0.012980608  0.012207085         3747 
 3487000   0.68562403   -8.6039878    542.06562  0.012954441  0.012201738         3752 
 3488000   0.69918787   -8.6074621     541.2901  0.012932198  0.012196393         3751 
 3489000   0.66482191   -8.6214752    542.19217  0.012950038   0.01219105         3773 
 3490000   0.70044239   -8.6201162    542.09953  0.012944115  0.012185708         3786 
 3491000   0.68417979   -8.6351296    541.58572  0.012928142  0.012180365         3765 
 3492000    0.6911567   -8.6103783     542.2679  0.012940719   0.01217503         3803 
 3493000   0.70785052    -8.612528    542.14691  0.012934128  0.012169703         3769 
 3494000   0.72122404    -8.612713    540.97758  0.012902537   0.01216438         3757 
 3495000   0.68108479   -8.5728108    542.96944  0.012946339  0.012159061         3785 
 3496000   0.69270732   -8.6182552    541.81793  0.012915187   0.01215374         3771 
 3497000   0.68089237   -8.6266316    541.54744  0.012905048  0.012148418         3766 
 3498000   0.69645103   -8.6234635    542.35667  0.012920637  0.012143101         3748 
 3499000    0.6967766   -8.6265798    542.34293  0.012916617  0.012137786         3790 
 3500000   0.69119124   -8.6020983    542.36286  0.012913401  0.012132474         3769 
 3501000   0.69503607   -8.6232408    541.80291  0.012896385  0.012127164         3781 
 3502000    0.6825699   -8.6196609    542.36116  0.012905986  0.012121864         3756 
 3503000   0.68238886   -8.6256589     541.4368  0.012880312  0.012116563         3715 
 3504000   0.67843969   -8.6302572    540.03955  0.012843406  0.012111261         3784 
 3505000   0.69205848   -8.6259505    542.23209  0.012891871   0.01210596         3784 
 3506000    0.6876578   -8.6389364    540.92174  0.012857048  0.012100668         3801 
 3507000   0.69168626   -8.6321231    541.79069   0.01287403  0.012095376         3774 
 3508000   0.70361767   -8.6063197    541.83479  0.012871408  0.012090083         3808 
 3509000   0.69700724    -8.601173    541.84886  0.012868074  0.012084794         3755 
 3510000   0.70292267   -8.6290195    541.10403  0.012846724   0.01207951         3795 
 3511000   0.67971502   -8.6288939    541.77547  0.012859002  0.012074234         3769 
 3512000   0.68826461    -8.628635    541.06064  0.012838379  0.012068958         3769 
 3513000    0.6993283   -8.6203178    542.97151  0.012880053  0.012063685         3784 
 3514000    0.6719536   -8.6355095    542.34836   0.01286161  0.012058416         3774 
 3515000   0.68945147   -8.6166292    541.81393  0.012845281  0.012053145         3803 
 3516000   0.69658395   -8.6108227    541.91086  0.012843924   0.01204788         3755 
 3517000   0.68457504   -8.6279734     541.6367  0.012833777  0.012042615         3767 
 3518000    0.6935443   -8.6071015    543.13283  0.012865568  0.012037355         3783 
 3519000   0.69086563   -8.6175724    541.05266  0.012812652  0.012032103         3758 
 3520000   0.67958733   -8.6365725    541.79016  0.012826472  0.012026851         3737 
 3521000   0.67521154   -8.6239461    541.57243  0.012817676  0.012021603         3758 
 3522000   0.69805555   -8.6340352     540.1258  0.012779808  0.012016361         3778 
 3523000   0.68728559   -8.6058605    542.06092  0.012821954  0.012011113         3761 
 3524000   0.69022287   -8.6230199    541.32139  0.012800827  0.012005877         3794 
 3525000   0.69497548   -8.6113856    541.86296  0.012809999  0.012000639         3761 
 3526000   0.68084275   -8.6074981    541.34627  0.012794155  0.011995404         3788 
 3527000   0.68333796   -8.6312535    542.54868  0.012818937  0.011990168         3798 
 3528000   0.67881253   -8.6256845    541.24805  0.012784582  0.011984935         3802 
 3529000   0.67161594    -8.615637    541.99259   0.01279854  0.011979711         3776 
 3530000   0.67947803   -8.6404867    541.62343    0.0127862  0.011974483         3754 
 3531000   0.68599519    -8.625565     541.7239   0.01278495  0.011969262         3769 
 3532000   0.67154215   -8.6218338    541.10246  0.012766668   0.01196404         3750 
 3533000   0.67483852   -8.6137125    541.91022  0.012782107  0.011958821         3701 
 3534000   0.69164279   -8.6343102    541.34546  0.012765173  0.011953613         3778 
 3535000    0.6820499    -8.641903    542.99147  0.012800365  0.011948402         3773 
 3536000   0.66970122   -8.6335463    542.26857  0.012779708  0.011943194         3769 
 3537000   0.68626332   -8.6195534    542.26652  0.012776047   0.01193799         3758 
 3538000   0.68867906   -8.6336886    541.21617  0.012747696  0.011932788         3760 
 3539000   0.67762954   -8.6267913    541.25323  0.012744966  0.011927592         3784 
 3540000    0.6744056   -8.6486713    541.76552  0.012753426  0.011922388         3788 
 3541000   0.68558823   -8.6419944    542.30215  0.012762453  0.011917191         3807 
 3542000   0.68815512   -8.6308044    541.85457   0.01274832  0.011911997         3783 
 3543000   0.68987335   -8.6444554    541.72785  0.012741741  0.011906806         3755 
 3544000   0.66608575   -8.6196793    541.37314  0.012729805  0.011901618         3723 
 3545000    0.6817407   -8.6372008    540.90933  0.012715311  0.011896432         3773 
 3546000   0.68642541   -8.6242973    542.03324  0.012738138  0.011891252         3742 
 3547000   0.68543805   -8.6431117    541.55063  0.012723208  0.011886074         3795 
 3548000    0.6795878   -8.6469662    541.45751  0.012717435    0.0118809         3770 
 3549000   0.68515426   -8.6372572    541.43561  0.012713337  0.011875727         3784 
 3550000   0.68978917   -8.6262566    541.87812  0.012720144  0.011870552         3766 
 3551000   0.68609502   -8.6248205    541.45225  0.012706567  0.011865381         3747 
 3552000   0.68138957   -8.6391722     541.6546  0.012707737  0.011860214         3768 
 3553000   0.68685133    -8.620121    540.65987   0.01268083   0.01185505         3768 
 3554000   0.68380031   -8.6342308    542.16336  0.012712515   0.01184989         3802 
 3555000   0.67804624   -8.6254786    541.90338  0.012702845   0.01184473         3747 
 3556000   0.67953807   -8.6300227    540.97213   0.01267745  0.011839575         3727 
 3557000   0.68205294   -8.6228933    542.04623  0.012699049  0.011834427         3774 
 3558000   0.66876754   -8.6020894    543.06661  0.012719379  0.011829281         3735 
 3559000   0.68823055   -8.6240649    542.20414  0.012695611  0.011824138         3800 
 3560000   0.67574512   -8.6344188    541.41695  0.012673618  0.011818996         3746 
 3561000   0.68203052    -8.637601    541.24683  0.012666078  0.011813862         3773 
 3562000   0.69606412   -8.6129887    541.42428  0.012666673  0.011808725         3761 
 3563000   0.68168506   -8.6266826    542.21288  0.012681562  0.011803601         3779 
 3564000   0.66863419   -8.6171747    541.86263  0.012669815  0.011798472         3756 
 3565000   0.68351531    -8.623753    541.67433  0.012661859  0.011793343         3735 
 3566000   0.68227863   -8.6432736    541.04176  0.012643526  0.011788222         3747 
 3567000   0.68570388   -8.5826237    542.92717  0.012684029  0.011783101         3747 
 3568000   0.67919946   -8.6402205    541.79683  0.012654074  0.011777982         3708 
 3569000   0.67124465   -8.6525384    541.59591  0.012645837  0.011772862         3780 
 3570000   0.69080916   -8.6552898    540.71415  0.012621712  0.011767746         3757 
 3571000   0.66450238   -8.6346576    541.18271  0.012629112  0.011762626         3780 
 3572000   0.68005526   -8.6248133    541.37242  0.012630002  0.011757511         3778 
 3573000    0.6803842    -8.622109    542.07664  0.012642892    0.0117524         3786 
 3574000   0.66796155   -8.6594778    539.93704  0.012589466  0.011747296         3814 
 3575000   0.67930435   -8.6426913    541.07961  0.012612578  0.011742191         3774 
 3576000   0.68096373   -8.6242684    541.48034   0.01261839  0.011737085         3789 
 3577000   0.68050853   -8.6369991    540.68216  0.012596267  0.011731994         3752 
 3578000   0.67687961   -8.6406889    541.64995  0.012615287  0.011726901         3778 
 3579000   0.68188881   -8.6498239    542.24813   0.01262569  0.011721812         3789 
 3580000   0.68072732   -8.6486984     540.6062  0.012583943  0.011716724         3741 
 3581000   0.68188598   -8.6422564    541.52544  0.012601821  0.011711643         3780 
 3582000   0.67963045   -8.6456206    541.28989  0.012592823   0.01170656         3785 
 3583000   0.68284548   -8.6457471    541.69624  0.012598759  0.011701477         3758 
 3584000   0.66982406   -8.6503062    541.56975  0.012592303  0.011696401         3782 
 3585000   0.67270565   -8.6491244    542.12656  0.012601733  0.011691326         3759 
 3586000   0.67595408   -8.6605527    541.37341  0.012580717  0.011686253         3769 
 3587000   0.66669783   -8.6414944    541.62663  0.012583092  0.011681182         3773 
 3588000   0.69088049   -8.6402282    541.57751  0.012578445  0.011676115         3776 
 3589000   0.69614088   -8.6380887    542.51913  0.012596803  0.011671056         3775 
 3590000   0.67124944   -8.6288826     541.6046  0.012572066  0.011665997         3791 
 3591000   0.65823308   -8.6301807    541.25952  0.012560557  0.011660939         3789 
 3592000    0.6816272   -8.6664612    540.05866  0.012529201  0.011655883         3770 
 3593000   0.68236275   -8.6273845    541.53868   0.01256004  0.011650831         3785 
 3594000   0.68696917   -8.6548632    540.62572  0.012535377  0.011645777         3808 
 3595000   0.68859942   -8.6451034    539.86469  0.012514249  0.011640734         3751 
 3596000   0.65764888   -8.6270448    542.10796  0.012562754   0.01163569         3780 
 3597000   0.68157465   -8.6649984    539.61259   0.01250145  0.011630645         3791 
 3598000   0.67056467   -8.6511578    541.94256   0.01255194  0.011625601         3790 
 3599000   0.67861453   -8.6535885    541.89727  0.012547404  0.011620564         3758 
 3600000   0.68046381   -8.6496961     540.6281  0.012514539  0.011615531         3735 
 3601000   0.67510232   -8.6532618    539.64597  0.012488336  0.011610503         3770 
 3602000   0.66879162   -8.6459258    540.80743   0.01251174   0.01160547         3792 
 3603000   0.66894656   -8.6358118     541.3325  0.012520411  0.011600443         3730 
 3604000   0.67886011   -8.6495395    541.04647  0.012510324  0.011595427         3781 
 3605000   0.66796999   -8.6308146    542.64041  0.012543699  0.011590403         3771 
 3606000    0.6662409   -8.6533328    540.34444  0.012487161  0.011585385         3764 
 3607000   0.67329893   -8.6499434    540.73465  0.012492714   0.01158037         3762 
 3608000   0.67892389    -8.645965    542.03696  0.012519331  0.011575353         3751 
 3609000   0.66972891   -8.6422253    541.03535  0.012492735  0.011570343         3759 
 3610000   0.67644181   -8.6502447    540.82217  0.012484353  0.011565337         3779 
 3611000   0.65286235   -8.6400378    541.89969  0.012505762  0.011560336         3784 
 3612000   0.66652678    -8.647409    541.04118  0.012482493  0.011555332         3763 
 3613000    0.6857794   -8.6521344    541.10721  0.012480561  0.011550331         3777 
 3614000   0.66672533   -8.6613346     540.8833  0.012471945  0.011545337         3746 
 3615000   0.67768229   -8.6650572     541.2774   0.01247758  0.011540342         3737 
 3616000   0.67374277   -8.6734855    541.39542  0.012476849  0.011535356         3782 
 3617000   0.66630704   -8.6572448    540.51577  0.012453133  0.011530367         3749 
 3618000   0.66826763   -8.6319923    541.90448  0.012481677  0.011525377         3825 
 3619000   0.66439195   -8.6457476    541.07277  0.012459076  0.011520398         3757 
 3620000   0.65768059   -8.6684781    541.67228  0.012469436  0.011515422         3779 
 3621000     0.681018   -8.6395849    540.91371  0.012448534  0.011510442         3745 
 3622000   0.66889954   -8.6431092    541.10065  0.012449398  0.011505474         3724 
 3623000   0.67914176   -8.6465741    542.16264  0.012470389  0.011500505         3754 
 3624000   0.67686949   -8.6304673    541.97753  0.012462691  0.011495534         3764 
 3625000   0.65420484   -8.6730852    541.06044  0.012438171   0.01149057         3748 
 3626000   0.66491147   -8.6454697    540.86208  0.012430182  0.011485608         3777 
 3627000   0.66459593   -8.6553454    540.17421  0.012410951  0.011480649         3824 
 3628000   0.67021979   -8.6547015    540.30485   0.01241053  0.011475692         3761 
 3629000     0.681465   -8.6437318    541.09065  0.012425155  0.011470739         3783 
 3630000   0.65219838   -8.6662865    540.68872  0.012412505  0.011465785         3800 
 3631000   0.68147732   -8.6297019    541.12809   0.01241917  0.011460835         3753 
 3632000   0.67762193   -8.6478751    540.81513   0.01240857  0.011455894         3762 
 3633000   0.67431878   -8.6582048    541.86858  0.012429319  0.011450955         3752 
 3634000   0.67467617   -8.6520467    541.06815  0.012407543  0.011446013         3744 
 3635000   0.66558934   -8.6518654    540.31661  0.012386901  0.011441079         3763 
 3636000   0.67301534   -8.6668175     540.9804  0.012398707  0.011436148         3757 
 3637000   0.66512005   -8.6447144    541.76428  0.012413259  0.011431218         3763 
 3638000   0.65522612   -8.6599834    541.36001  0.012400587  0.011426286         3739 
 3639000   0.67403411   -8.6719605    540.86504  0.012385844  0.011421358         3783 
 3640000   0.67053792   -8.6730522    539.95523  0.012361612  0.011416432         3742 
 3641000   0.66778812   -8.6579406      541.174  0.012386112  0.011411509         3772 
 3642000   0.65946219   -8.6509897    540.87415   0.01237585   0.01140659         3775 
 3643000    0.6796459   -8.6461089    541.06873  0.012376904  0.011401679         3765 
 3644000   0.69334852   -8.6540276    540.15617  0.012352638  0.011396766         3794 
 3645000   0.66079843   -8.6633311    540.90095  0.012366277  0.011391849         3803 
 3646000   0.67507017   -8.6555472     541.2854  0.012371672  0.011386936         3763 
 3647000   0.66683467   -8.6581261    540.80863  0.012357386  0.011382024         3771 
 3648000   0.66485454   -8.6448578    540.71083  0.012351764  0.011377122         3781 
 3649000    0.6668119   -8.6569786     541.2732  0.012361222  0.011372214         3791 
 3650000   0.67008262   -8.6440669    539.84186  0.012325157  0.011367313         3755 
 3651000   0.65488793   -8.6536053    540.23515  0.012330758  0.011362419         3741 
 3652000   0.66285624   -8.6469534    540.40466  0.012331249  0.011357522         3770 
 3653000   0.66167054    -8.667161    539.69549  0.012311696   0.01135263         3737 
 3654000   0.67554743   -8.6717482    540.60805  0.012329138   0.01134774         3744 
 3655000    0.6777726   -8.6648197    540.52216  0.012323807  0.011342856         3766 
 3656000    0.6821879   -8.6579758    540.10988  0.012311038  0.011337969         3818 
 3657000   0.67203657   -8.6603602    539.32523  0.012289792  0.011333088         3731 
 3658000    0.6723574     -8.66523    541.78951  0.012342571  0.011328206         3744 
 3659000   0.67426943   -8.6663779    540.93317  0.012319695  0.011323333         3766 
 3660000   0.65923928   -8.6575644    539.94614  0.012293856  0.011318456         3770 
 3661000   0.66478456   -8.6648247    540.59728  0.012305319  0.011313586         3768 
 3662000   0.67919128    -8.653982    541.09234  0.012313224  0.011308717         3785 
 3663000   0.67150714   -8.6912416    539.60061  0.012275926  0.011303845         3791 
 3664000   0.66483641   -8.6675125    541.11279  0.012306969  0.011298984         3778 
 3665000   0.66985185   -8.6569443    540.84402  0.012297499  0.011294124         3806 
 3666000   0.66398825   -8.6624417    540.60504  0.012288712   0.01128927         3799 
 3667000   0.66161448   -8.6866683     540.7865  0.012289485  0.011284412         3760 
 3668000   0.65935529   -8.6846849     540.0271  0.012268882  0.011279558         3744 
 3669000   0.66114968   -8.6434566    539.85695  0.012261673  0.011274708         3725 
 3670000    0.6555305   -8.6707348    541.93645  0.012305551   0.01126986         3751 
 3671000    0.6501988   -8.6671338    540.51637  0.012269962   0.01126501         3743 
 3672000   0.67542778   -8.6690332      541.649  0.012292325  0.011260167         3742 
 3673000   0.66772193   -8.6777189    540.13606  0.012254652  0.011255326         3796 
 3674000   0.66496679   -8.6628751    541.14173  0.012274128  0.011250489         3758 
 3675000   0.65968654   -8.6608072    540.18881  0.012249179  0.011245656         3798 
 3676000   0.65401982   -8.6541757    541.03874  0.012265115  0.011240824         3775 
 3677000   0.66600678   -8.6641045     539.8037  0.012233789  0.011235988         3822 
 3678000   0.66008545   -8.6658892    539.96082  0.012234023  0.011231165         3802 
 3679000   0.67361894   -8.6827264    540.74599  0.012248482   0.01122634         3792 
 3680000   0.66499432   -8.6560655    540.33746  0.012235903  0.011221516         3790 
 3681000   0.66695747   -8.6501572     540.1297  0.012227875  0.011216692         3794 
 3682000   0.66440746   -8.6711406    539.85901  0.012218428  0.011211871         3795 
 3683000   0.66181361   -8.6693209     540.3233  0.012225615  0.011207051         3728 
 3684000   0.66196673   -8.6681463    540.58047  0.012228114  0.011202241         3750 
 3685000   0.65445256    -8.656986    540.40013  0.012220718  0.011197428         3770 
 3686000   0.67443939   -8.6670226    540.07134  0.012209969  0.011192619         3803 
 3687000   0.67142901   -8.6783621    539.92623  0.012203378  0.011187815         3792 
 3688000   0.66966314   -8.6532078    539.97618  0.012201197   0.01118301         3787 
 3689000   0.67045912   -8.6630722    541.39667  0.012229978  0.011178212         3778 
 3690000   0.66517582   -8.6792499    540.89282  0.012215285  0.011173408         3797 
 3691000   0.65037689   -8.6737279    540.37044  0.012200181  0.011168611         3810 
 3692000   0.66313312   -8.6633362    540.86275  0.012207989  0.011163814         3767 
 3693000   0.66072514   -8.6847782    540.89929  0.012205508  0.011159021         3814 
 3694000   0.66383938   -8.6641464    540.44522   0.01219196  0.011154239         3791 
 3695000   0.67086502   -8.6778885    539.96157  0.012177753  0.011149454         3797 
 3696000   0.66104242   -8.6743378    539.45726  0.012163087  0.011144671         3785 
 3697000   0.66179369   -8.6666279    539.99836  0.012171994  0.011139888         3777 
 3698000   0.66672779   -8.6748035    540.31803  0.012175906  0.011135112         3761 
 3699000   0.65749622   -8.6801622    541.26672  0.012193988  0.011130333         3763 
 3700000   0.66337011   -8.6865242    540.41865  0.012171591  0.011125562         3763 
 3701000   0.64784886   -8.6530295    540.89733  0.012179081  0.011120792         3764 
 3702000   0.65891475   -8.6910791    539.42106   0.01214256  0.011116026         3754 
 3703000   0.64644218   -8.6596839    540.38045  0.012160871  0.011111258         3755 
 3704000   0.65616765   -8.6843167     539.5661  0.012139266  0.011106498         3810 
 3705000   0.65270282   -8.6878889    539.21807  0.012128162  0.011101738         3793 
 3706000   0.64938829    -8.689821    540.89773  0.012162658  0.011096979         3800 
 3707000   0.67597488   -8.6855209    539.72837   0.01213309  0.011092229         3810 
 3708000   0.64314037   -8.6810967    540.26935  0.012141976  0.011087475         3779 
 3709000   0.65203544   -8.6601235    540.86232  0.012152025  0.011082725         3774 
 3710000    0.6536676   -8.6881389    539.86716  0.012126396  0.011077978         3810 
 3711000   0.65020515   -8.6678642    541.08199  0.012150409  0.011073232         3808 
 3712000   0.65945476   -8.6848491    540.43488  0.012132608  0.011068489         3788 
 3713000   0.64456652    -8.678487    540.36308  0.012127729   0.01106375         3804 
 3714000    0.6514688      -8.6904    540.19039  0.012120589  0.011059016         3792 
 3715000   0.64792308   -8.6679664    539.89897  0.012110789  0.011054284         3795 
 3716000   0.65954229   -8.6833896    540.26683  0.012115779  0.011049563         3774 
 3717000   0.66335997   -8.6605536    539.81054   0.01210229   0.01104484         3798 
 3718000   0.64465617   -8.6730316     539.6086  0.012094509  0.011040116         3792 
 3719000   0.65818755   -8.6831942    540.44135  0.012109916  0.011035397         3775 
 3720000   0.64991216   -8.6680221    540.97713  0.012118663  0.011030675         3793 
 3721000   0.65365149   -8.6589761    539.52415  0.012082866  0.011025956         3813 
 3722000   0.65556414   -8.6567192    539.81581   0.01208615   0.01102124         3768 
 3723000   0.66752621   -8.6980298    539.26435   0.01207056  0.011016529         3726 
 3724000   0.65579354   -8.6854971    539.62297  0.012075344  0.011011821         3818 
 3725000   0.67025123   -8.6672463    541.27628  0.012109089  0.011007113         3743 
 3726000   0.67313335   -8.6929519    539.10876  0.012057362  0.011002406         3808 
 3727000   0.65503166   -8.6852875    539.65745  0.012066395    0.0109977         3806 
 3728000   0.66653956   -8.6747615    540.08205   0.01207265  0.010993003         3799 
 3729000   0.64523148   -8.6850243    539.75443  0.012062091  0.010988307         3780 
 3730000   0.66406416   -8.6880804    540.32039  0.012071501  0.010983614         3782 
 3731000   0.65813943   -8.6715714    539.98114  0.012060688  0.010978916         3797 
 3732000   0.64629655   -8.6718824    540.89256  0.012077808  0.010974223         3788 
 3733000   0.65838388   -8.6850072    541.06952  0.012078523  0.010969538         3770 
 3734000   0.64781957   -8.6806707    539.98868  0.012051167   0.01096485         3759 
 3735000   0.66723514    -8.671375     541.3666  0.012078684  0.010960168         3742 
 3736000   0.65667237   -8.6850319    540.32736   0.01205227  0.010955492         3784 
 3737000   0.65227918    -8.674937    540.06129  0.012043111  0.010950815         3767 
 3738000   0.64463909    -8.705517    538.63751  0.012008148  0.010946146         3795 
 3739000   0.65409787   -8.6753937    539.43925  0.012022806  0.010941467         3757 
 3740000   0.66301191   -8.6923203    540.24494  0.012037543  0.010936799         3799 
 3741000   0.66246266   -8.6915999    540.46451  0.012039217   0.01093213         3790 
 3742000   0.65273043   -8.6689094    538.86976  0.012000484  0.010927467         3806 
 3743000   0.64849935   -8.6839449    540.73784  0.012038869  0.010922806         3801 
 3744000   0.63646317   -8.6710314    539.99544  0.012019129  0.010918146         3759 
 3745000    0.6420087   -8.6783383    539.58732  0.012006838  0.010913488         3773 
 3746000   0.65255755   -8.6796451     540.6627  0.012027556  0.010908834         3808 
 3747000   0.64390471   -8.6785424     540.7275  0.012025787  0.010904185         3795 
 3748000   0.65562129   -8.6925827    539.64406  0.011998489  0.010899533         3799 
 3749000   0.64035968   -8.6840103    540.06628  0.012004674  0.010894884         3783 
 3750000   0.64667759   -8.6773179    541.24242  0.012027609  0.010890237         3741 
 3751000   0.66078046   -8.6793469     540.3761  0.012005156  0.010885605         3761 
 3752000   0.65049366   -8.7015216    540.15025  0.011996941  0.010880963         3776 
 3753000   0.64627943   -8.7015221    539.88921  0.011987948  0.010876327         3769 
 3754000   0.63305916   -8.6868919    540.85889   0.01200628  0.010871698         3773 
 3755000   0.63700245   -8.6880938    539.90129  0.011981831  0.010867066         3789 
 3756000   0.64936783   -8.7016197    540.20976  0.011985485   0.01086244         3760 
 3757000   0.65002514   -8.6979888    540.51962  0.011989167  0.010857812         3741 
 3758000    0.6417355   -8.6917529     539.6761  0.011967272  0.010853187         3803 
 3759000   0.65097928   -8.6886977     538.7984  0.011944631  0.010848566         3803 
 3760000   0.64186408   -8.6748454    539.70631  0.011961576  0.010843946         3768 
 3761000   0.64331046   -8.6709002    539.67679  0.011957741   0.01083933         3796 
 3762000   0.64105268    -8.678411    540.72374  0.011977754  0.010834715         3841 
 3763000   0.64891297   -8.6975595    539.94292   0.01195728   0.01083011         3807 
 3764000   0.64001356   -8.6769511    539.96149  0.011954514    0.0108255         3802 
 3765000   0.65056141   -8.6909606    540.46901  0.011962572  0.010820898         3774 
 3766000     0.640869   -8.6707704    540.12157  0.011951708  0.010816293         3810 
 3767000   0.65074708   -8.6988202    539.01491  0.011924053  0.010811694         3776 
 3768000   0.63943297   -8.6687363    540.22175  0.011947579  0.010807094         3770 
 3769000   0.65614742   -8.7147691    539.19747  0.011921762    0.0108025         3806 
 3770000   0.64926559   -8.6919042    539.25787  0.011919935  0.010797904         3768 
 3771000   0.64423873   -8.6671111     540.0294  0.011933824  0.010793314         3778 
 3772000   0.65403632   -8.7123538    539.15883  0.011911427  0.010788724         3789 
 3773000   0.67062234   -8.6961157    538.92556  0.011903118  0.010784135         3804 
 3774000   0.64893364   -8.6977884    539.51956   0.01191308  0.010779555         3740 
 3775000   0.65570182   -8.6941585    540.03849  0.011921379  0.010774977         3779 
 3776000   0.64556107   -8.6609822    539.20491  0.011899826  0.010770402         3775 
 3777000   0.64282113   -8.7044847    539.18136  0.011896156  0.010765827         3777 
 3778000   0.64140863   -8.6908969    539.36319  0.011897018  0.010761255         3761 
 3779000   0.66241183   -8.6951078    540.26258  0.011913702  0.010756689         3744 
 3780000   0.64626425   -8.6980901    539.25617  0.011888364  0.010752124         3774 
 3781000    0.6497249   -8.6727163    540.60588  0.011914967  0.010747555         3780 
 3782000    0.6260646   -8.7025268    539.47356  0.011886867  0.010742991         3778 
 3783000   0.63976016   -8.6911721    541.17922  0.011921298  0.010738433         3794 
 3784000   0.66768187   -8.7027016    540.07116  0.011893745  0.010733871         3805 
 3785000   0.65227012   -8.6789915     539.2777  0.011873133  0.010729317         3808 
 3786000    0.6364408   -8.6941203    540.14267  0.011889036  0.010724761         3740 
 3787000   0.65484719    -8.695351     540.5315  0.011894452  0.010720212         3745 
 3788000   0.65921018   -8.6889048    540.46407  0.011889829   0.01071566         3757 
 3789000   0.63390948   -8.6891426    538.93069  0.011852967  0.010711113         3797 
 3790000   0.65513008   -8.7000482    540.00595  0.011873482  0.010706568         3819 
 3791000   0.64207883   -8.7061568    539.83846  0.011866668  0.010702027         3784 
 3792000   0.66120633   -8.6824865    539.27611   0.01185118  0.010697488         3764 
 3793000   0.65764034    -8.681073    539.82426  0.011860099  0.010692954         3782 
 3794000   0.65050903   -8.6990654    540.13293  0.011863753  0.010688417         3777 
 3795000   0.64248604   -8.7106066    539.46622  0.011845986  0.010683887         3781 
 3796000   0.66098079   -8.7089769    540.54118  0.011866464   0.01067936         3782 
 3797000   0.64774772   -8.7177736    539.09348  0.011831566   0.01067483         3780 
 3798000   0.64119936   -8.6972804    539.18992  0.011830567  0.010670308         3784 
 3799000   0.64613831   -8.6859294    540.05764  0.011846487  0.010665787         3784 
 3800000   0.64432786   -8.7186482    539.27254  0.011826152  0.010661267         3770 
 3801000   0.64960105   -8.6957435    539.81619   0.01183496   0.01065675         3777 
 3802000   0.65137269   -8.6968393    539.29947  0.011820521  0.010652234         3781 
 3803000   0.64528616   -8.7115126    539.85434  0.011829572  0.010647722         3784 
 3804000    0.6439164   -8.6872838      539.726  0.011823651  0.010643215         3778 
 3805000   0.64003726   -8.6926559    540.39288  0.011835148  0.010638705         3787 
 3806000   0.63941555   -8.6847489    539.34059  0.011808999  0.010634198         3810 
 3807000   0.64110094   -8.6866853    540.09262  0.011822358  0.010629693         3768 
 3808000   0.63883019   -8.7148077    539.67596  0.011810136  0.010625191         3803 
 3809000   0.63672136   -8.7196073    539.70396  0.011807648   0.01062069         3783 
 3810000   0.63635808   -8.7012863    539.35755  0.011796972  0.010616191         3779 
 3811000   0.63403583   -8.6936484    539.83232  0.011804258  0.010611697         3774 
 3812000   0.63527073   -8.6885982    540.10963  0.011807224  0.010607201         3767 
 3813000   0.64800505   -8.7032407     538.2329  0.011763111  0.010602712         3775 
 3814000   0.64935261   -8.7053323    539.06591  0.011778227  0.010598226         3783 
 3815000   0.64737894   -8.7316987    540.23261  0.011800625  0.010593742         3793 
 3816000    0.6509508   -8.6768869    540.49586  0.011803281  0.010589258         3793 
 3817000   0.64907795   -8.7219949     539.6052  0.011780744  0.010584777         3788 
 3818000    0.6403874   -8.7060108    539.18968  0.011768589  0.010580303         3814 
 3819000   0.63035986   -8.7051998    538.85189  0.011758137  0.010575828         3813 
 3820000   0.62815217   -8.7174055    539.08182  0.011760075  0.010571356         3779 
 3821000    0.6256399   -8.6954738    538.52479  0.011744848  0.010566884         3802 
 3822000    0.6289513   -8.6974771    541.13131  0.011798607  0.010562419         3758 
 3823000   0.64973598    -8.706758    540.00265  0.011770918  0.010557954         3795 
 3824000   0.64048818   -8.7180444    538.64975  0.011738358  0.010553491         3771 
 3825000   0.64069838   -8.7109117    539.37606  0.011751112  0.010549031         3782 
 3826000   0.64054658   -8.7011179    539.57902  0.011752462  0.010544574         3768 
 3827000    0.6507994   -8.7272003    539.76399  0.011753418  0.010540123         3745 
 3828000   0.63870534   -8.7104257    538.96587  0.011732974  0.010535669         3817 
 3829000   0.63753832   -8.7032472    539.71326  0.011746175  0.010531215         3774 
 3830000   0.63774619   -8.7099015    539.20729  0.011732099  0.010526771         3766 
 3831000   0.63662971   -8.7234945    539.41766  0.011733613  0.010522326         3785 
 3832000   0.64746341   -8.7042687    540.50295  0.011754153  0.010517886         3775 
 3833000   0.63905576   -8.7183938    539.32622  0.011725503  0.010513444         3759 
 3834000   0.64392824   -8.7124062    539.58274   0.01172802  0.010509009         3770 
 3835000    0.6318122    -8.721936    539.48852  0.011722914  0.010504574         3788 
 3836000   0.64124943   -8.7400385    539.60859  0.011722467  0.010500144         3778 
 3837000   0.64544619   -8.7099017    539.70638  0.011721535  0.010495707         3759 
 3838000   0.63927669   -8.6881294     539.3908  0.011711629  0.010491274         3783 
 3839000   0.63671475    -8.713285    539.57339  0.011712542   0.01048685         3762 
 3840000    0.6425021   -8.7099454    538.43901  0.011684874  0.010482426         3787 
 3841000   0.63757925   -8.6963502    538.96383  0.011693219  0.010478004         3748 
 3842000   0.62218796   -8.7082908    539.50938  0.011702008  0.010473583         3808 
 3843000   0.64013416   -8.7134596    538.67043  0.011680771  0.010469164         3803 
 3844000   0.62097119   -8.6976354    539.42643  0.011694121  0.010464746         3760 
 3845000   0.64637289   -8.6990455    539.33972  0.011689201  0.010460337         3767 
 3846000   0.63745626   -8.7014171    539.46366  0.011688847  0.010455931         3784 
 3847000   0.63592231   -8.7237061    538.74309    0.0116702  0.010451528         3779 
 3848000    0.6257365   -8.7185199    539.24164  0.011677963   0.01044712         3816 
 3849000   0.62712688    -8.723125    538.43188  0.011657398  0.010442718         3769 
 3850000   0.62996477    -8.723858    538.27315  0.011650934  0.010438317         3811 
 3851000   0.63299949   -8.7045246    539.77408  0.011680388   0.01043392         3798 
 3852000   0.63688597    -8.688077    540.17516  0.011686032  0.010429526         3793 
 3853000   0.62721939   -8.7000005    539.80939  0.011675088  0.010425132         3802 
 3854000   0.62544748   -8.7250001    539.16213  0.011658064  0.010420742         3798 
 3855000     0.638648   -8.7133851     538.1074  0.011632239  0.010416349         3800 
 3856000   0.63314887    -8.704167    538.89926  0.011646336  0.010411963         3794 
 3857000   0.62526967   -8.7231248    538.12661  0.011626623  0.010407584         3833 
 3858000   0.62836138   -8.7141528    539.06442  0.011643866  0.010403201         3799 
 3859000   0.63689445   -8.7185506    538.54801  0.011629697  0.010398823         3798 
 3860000   0.62279046   -8.7000795    539.92109  0.011656327   0.01039445         3817 
 3861000     0.626573   -8.7234259    538.81604  0.011629458  0.010390074         3774 
 3862000   0.62707159    -8.696132    539.67015  0.011644876  0.010385703         3754 
 3863000   0.63140937   -8.7142988    538.89762  0.011625197  0.010381334         3813 
 3864000      0.62797    -8.697576    538.80252  0.011620137  0.010376969         3807 
 3865000   0.63628301   -8.7033565    539.13417  0.011624281  0.010372604         3803 
 3866000   0.62867677   -8.6909691    539.60129  0.011631343  0.010368244         3807 
 3867000   0.63977945   -8.7297508    538.99364  0.011615241  0.010363883         3791 
 3868000   0.63446869   -8.7268608    538.18364  0.011594787  0.010359527         3782 
 3869000   0.62220494   -8.7187756    540.12824  0.011633674  0.010355176         3779 
 3870000   0.64388325   -8.7092232    538.95577  0.011605421  0.010350824         3796 
 3871000   0.61853534   -8.7091053    539.66037  0.011617592  0.010346471         3796 
 3872000   0.64028168   -8.7246409    539.05007  0.011601456  0.010342127         3803 
 3873000   0.63939517   -8.7155018     540.3867   0.01162722  0.010337782         3810 
 3874000   0.62345619    -8.710656    538.10591  0.011575157   0.01033344         3758 
 3875000   0.63378517   -8.7268343    539.51197  0.011602408    0.0103291         3806 
 3876000   0.63499988   -8.7124859    538.57524  0.011579275  0.010324762         3777 
 3877000   0.65171435   -8.7236534     538.7025  0.011579024  0.010320426         3817 
 3878000   0.63648763   -8.7303078    539.86119  0.011600937  0.010316088         3787 
 3879000   0.62514795   -8.7233104     538.9042  0.011577387  0.010311759         3798 
 3880000   0.63285014    -8.718796    538.93258  0.011575013  0.010307429         3783 
 3881000    0.6305679   -8.6941229    539.18008  0.011577344  0.010303102         3808 
 3882000   0.63746649   -8.7323855    539.01393  0.011570795  0.010298775         3809 
 3883000   0.63090119   -8.7116025    539.68174  0.011582147  0.010294452         3779 
 3884000   0.64833187   -8.7324709    539.10668  0.011566827  0.010290135         3800 
 3885000   0.62011093   -8.7358698    538.78395  0.011556927  0.010285819         3788 
 3886000   0.61612743   -8.7210958    539.71288  0.011573874  0.010281497         3789 
 3887000    0.6234701   -8.7209298    538.71304  0.011549461  0.010277186         3812 
 3888000   0.63514966   -8.7242181    539.32845   0.01155968  0.010272875         3818 
 3889000   0.63237141   -8.7072633    539.54274    0.0115613   0.01026857         3813 
 3890000   0.63314834   -8.7486937    539.07085  0.011548219  0.010264267         3793 
 3891000   0.62029573   -8.7188442    539.04834  0.011544769  0.010259957         3757 
 3892000   0.62246961   -8.7191535    539.19855  0.011545019  0.010255654         3811 
 3893000   0.62916619   -8.7264082    538.21534  0.011521006  0.010251355         3832 
 3894000   0.64506337   -8.7280349    538.57622  0.011525771  0.010247058         3782 
 3895000   0.62141754   -8.7072575    538.95375  0.011530889  0.010242764         3797 
 3896000   0.62496537   -8.7111135    538.14996  0.011510737  0.010238476         3781 
 3897000   0.63129771   -8.7405644    539.00057  0.011525972  0.010234186         3789 
 3898000   0.62728788   -8.7222861    538.16124  0.011505072  0.010229899         3811 
 3899000   0.62118103   -8.7183143    539.82021  0.011537578  0.010225613         3771 
 3900000   0.62927422   -8.7235358    538.84906  0.011513869  0.010221328         3807 
 3901000   0.61348527   -8.7490912    538.65776  0.011506831  0.010217042         3808 
 3902000   0.62365752   -8.7247523     539.1751   0.01151493  0.010212758         3803 
 3903000   0.63343153   -8.7115127    538.85113  0.011505063  0.010208485         3785 
 3904000   0.64478351   -8.7250178    539.66743  0.011519541   0.01020421         3803 
 3905000   0.63083155   -8.7172279     538.4453   0.01149051  0.010199943         3798 
 3906000   0.62354835   -8.7239899    537.87067  0.011475309  0.010195671         3801 
 3907000   0.62191317   -8.7547261    538.61657  0.011488281  0.010191407         3779 
 3908000   0.63400445    -8.726103    539.35995  0.011501193  0.010187143         3784 
 3909000   0.61215461   -8.7183612    540.12524  0.011514566  0.010182884         3781 
 3910000   0.62110072   -8.7407912    538.97994  0.011487211  0.010178619         3830 
 3911000   0.62809677   -8.7287403    538.19099  0.011467463  0.010174364         3801 
 3912000   0.64003699   -8.7420696    538.11185  0.011462846  0.010170112         3788 
 3913000   0.62992205   -8.7395355     538.5661  0.011469591  0.010165858         3767 
 3914000   0.61844938   -8.7425249    539.29048  0.011482083   0.01016161         3820 
 3915000   0.62296769   -8.7481425    539.04544  0.011473934  0.010157367         3761 
 3916000   0.63210648   -8.7128273    539.25917  0.011475553  0.010153118         3764 
 3917000    0.6110329   -8.7541969    538.22662  0.011450656  0.010148877         3740 
 3918000   0.62076012    -8.730122    539.38171  0.011472301  0.010144639         3804 
 3919000   0.61436763   -8.7099787    539.26869  0.011466971  0.010140403         3828 
 3920000    0.6178975   -8.7271657    538.67639  0.011451454   0.01013617         3780 
 3921000   0.62369915   -8.7066833    538.97166  0.011454809  0.010131938         3755 
 3922000   0.62812536   -8.7398817    539.20191   0.01145678  0.010127711         3795 
 3923000   0.61048211   -8.7276471    539.57994   0.01146189  0.010123489         3812 
 3924000   0.62477696   -8.7430419    539.74229  0.011462417  0.010119264         3781 
 3925000    0.6109198   -8.7292864    538.44069  0.011431862  0.010115041         3778 
 3926000   0.63136194   -8.7451458    538.39083  0.011427892  0.010110817         3772 
 3927000   0.61731441   -8.7292665    537.46446  0.011405323  0.010106598         3769 
 3928000   0.62182373   -8.7514085    539.23385  0.011439958   0.01010238         3821 
 3929000   0.61880881   -8.7392699    538.49183  0.011421308  0.010098167         3792 
 3930000   0.61815181   -8.7439479    539.35327  0.011436668  0.010093958         3768 
 3931000   0.63059108   -8.7389031    538.36957  0.011412905  0.010089748         3803 
 3932000   0.63008861   -8.7370124    537.92876   0.01140066  0.010085543         3786 
 3933000   0.62259299   -8.7508858    538.54137  0.011410742  0.010081342         3805 
 3934000   0.62105386   -8.7103189    538.53644  0.011407737  0.010077138         3801 
 3935000   0.63301455   -8.7421358    538.36561   0.01140122  0.010072934         3803 
 3936000   0.62104282   -8.7366791    539.08113  0.011413473  0.010068734         3794 
 3937000   0.62630031   -8.7394167    537.90363   0.01138565  0.010064534         3823 
 3938000   0.62129685   -8.7332502    538.38725  0.011392992   0.01006034         3827 
 3939000   0.62185766   -8.7297859    538.29687  0.011388188  0.010056145         3791 
 3940000   0.61948235   -8.7313501    538.20082  0.011383266  0.010051956         3792 
 3941000   0.62972726   -8.7311723    539.04328  0.011398192  0.010047766         3783 
 3942000   0.62281871   -8.7381407    538.87441   0.01139173  0.010043579         3789 
 3943000   0.64260152   -8.7398429    538.76076  0.011386439  0.010039398         3827 
 3944000   0.61940486   -8.7336865    538.49619  0.011377962  0.010035217         3798 
 3945000   0.62873124   -8.7418597    537.85821  0.011361601  0.010031038         3746 
 3946000   0.60351639   -8.7391265    538.98959  0.011382615  0.010026861         3807 
 3947000   0.62546749   -8.7195869    537.94608  0.011357699  0.010022681         3770 
 3948000   0.62244278   -8.7207072    537.86413  0.011353093  0.010018507         3784 
 3949000   0.62697347   -8.7504679    538.06041   0.01135436   0.01001434         3804 
 3950000   0.61764202   -8.7367178    537.66825  0.011343212  0.010010172         3829 
 3951000   0.61441686   -8.7165576    538.87891  0.011365876  0.010006005         3786 
 3952000   0.61431815   -8.7204114    538.62962  0.011357743  0.010001838         3805 
 3953000   0.62549527    -8.736872    538.22903  0.011346425 0.0099976748         3832 
 3954000   0.62411384   -8.7396862     538.4985  0.011349235 0.0099935142         3815 
 3955000   0.62272524   -8.7404695    539.25528  0.011362311  0.009989354         3756 
 3956000    0.6070752   -8.7518345    538.33159  0.011339981 0.0099852009         3777 
 3957000   0.62171672   -8.7300675    538.45547  0.011339724 0.0099810491         3784 
 3958000   0.62702493   -8.7341714    538.45086  0.011336762 0.0099768993         3816 
 3959000   0.61724374   -8.7566281    538.50677  0.011335076 0.0099727542         3794 
 3960000   0.60608043   -8.7275805     539.4414  0.011351881 0.0099686076         3800 
 3961000   0.61917364   -8.7480602    538.56156  0.011330505 0.0099644616         3804 
 3962000   0.60978288   -8.7270928    538.37578  0.011323738 0.0099603182         3795 
 3963000   0.61648037   -8.7487005    537.57616  0.011304066  0.009956178         3825 
 3964000   0.62539079   -8.7563843    538.07281  0.011311655 0.0099520419         3799 
 3965000   0.61813176    -8.724231    538.15141  0.011310454 0.0099479084         3790 
 3966000   0.60729644   -8.7439906    538.40087  0.011312844 0.0099437789         3779 
 3967000   0.61083501   -8.7419326    538.96422  0.011321826 0.0099396511         3785 
 3968000   0.61712478    -8.742943    537.86326  0.011295851 0.0099355238         3792 
 3969000   0.60407494    -8.741613    538.42032  0.011304701 0.0099313986         3785 
 3970000   0.61280338   -8.7441978    539.03827  0.011314825 0.0099272731         3788 
 3971000   0.61545541    -8.746308    538.44458  0.011299517 0.0099231539         3812 
 3972000   0.62717325   -8.7545546     537.9963  0.011287267 0.0099190333         3813 
 3973000   0.61263537   -8.7462324    538.11206  0.011286854  0.009914919         3748 
 3974000   0.63259951   -8.7254381    538.71246  0.011296604 0.0099108047         3788 
 3975000   0.62044116   -8.7291976    538.32113  0.011285558 0.0099066973         3799 
 3976000   0.61447848   -8.7374613    539.39993  0.011305331 0.0099025883         3773 
 3977000   0.63661527   -8.7450078    538.05368  0.011274279 0.0098984799         3738 
 3978000   0.62048666   -8.7578387    538.10825  0.011272588 0.0098943735         3781 
 3979000   0.62699517   -8.7558002    536.99797  0.011246502 0.0098902685         3802 
 3980000   0.61000772   -8.7461283    538.73053  0.011279952 0.0098861666         3817 
 3981000   0.60155455   -8.7440936    538.23775  0.011266804 0.0098820665         3773 
 3982000   0.60651301   -8.7229125    538.86634  0.011277129 0.0098779666         3830 
 3983000   0.60556439   -8.7496672    538.23249  0.011261036  0.009873873         3806 
 3984000   0.61701656   -8.7444129    539.09739  0.011276301 0.0098697795         3777 
 3985000   0.61451608   -8.7508779    537.77346  0.011245785 0.0098656901         3830 
 3986000   0.61867311    -8.756016    537.89793  0.011245566 0.0098615983         3807 
 3987000   0.60948132   -8.7467731    536.94106  0.011222746 0.0098575132         3802 
 3988000   0.60881091   -8.7452531    538.63277  0.011255282 0.0098534249         3820 
 3989000   0.62394712   -8.7600776    536.84646  0.011215143 0.0098493456         3783 
 3990000   0.61356156   -8.7388289    538.86967  0.011254588 0.0098452649         3806 
 3991000   0.61017136   -8.7471355    538.12665  0.011236253 0.0098411905         3751 
 3992000   0.61613008   -8.7520984    538.63289  0.011244007 0.0098371199         3785 
 3993000   0.61508222   -8.7470289    539.41031  0.011257415 0.0098330487         3797 
 3994000   0.61903885   -8.7687818    538.60865   0.01123787 0.0098289813         3778 
 3995000   0.61852976   -8.7461983    538.43541  0.011231444 0.0098249145         3817 
 3996000   0.61253094   -8.7501089    538.83414  0.011236948 0.0098208481         3799 
 3997000    0.6017011   -8.7517763    538.59309  0.011229111 0.0098167849         3791 
 3998000   0.59934117   -8.7597679    537.49438  0.011203401  0.009812726         3863 
 3999000   0.59840011    -8.756317    536.85796  0.011187338 0.0098086665         3807 
 4000000   0.60515775   -8.7664881    538.01909  0.011208731 0.0098046087         3836 
 4001000   0.62047047   -8.7591091    538.31891  0.011212174 0.0098005512         3786 
 4002000   0.60881021   -8.7671336    537.55046  0.011193371 0.0097964972         3791 
 4003000   0.61598351   -8.7241902    537.62298  0.011192085 0.0097924497         3762 
 4004000   0.61449861   -8.7512183    538.83751  0.011214567  0.009788397         3829 
 4005000   0.60814761   -8.7677363    538.34954  0.011201613 0.0097843477         3787 
 4006000   0.60266613   -8.7651118    537.61178   0.01118347 0.0097803031         3780 
 4007000    0.6027006   -8.7591218    539.04673  0.011210522 0.0097762593         3797 
 4008000   0.60368526   -8.7541696    537.96126  0.011185156 0.0097722184         3802 
 4009000   0.61233764    -8.727905    538.36028   0.01119066   0.00976818         3788 
 4010000   0.61241844   -8.7510951    537.45308  0.011169017 0.0097641453         3826 
 4011000   0.62181834   -8.7685132    538.34482  0.011184759 0.0097601114         3825 
 4012000   0.60445903   -8.7639337    538.56664  0.011186579 0.0097560843         3809 
 4013000   0.60251348    -8.732657    539.53955  0.011203994 0.0097520585         3806 
 4014000   0.61614908   -8.7577418    537.78349  0.011164746 0.0097480315         3805 
 4015000   0.60845346   -8.7523247    538.67133  0.011180393 0.0097440096         3810 
 4016000   0.60418488   -8.7318448    539.18975  0.011188366 0.0097399878         3794 
 4017000   0.61816713   -8.7482761    538.71228  0.011175676 0.0097359714         3763 
 4018000   0.61051608     -8.74124    537.76221   0.01115319 0.0097319511         3805 
 4019000   0.61218043   -8.7740388    537.92645   0.01115382 0.0097279357         3807 
 4020000    0.6155407   -8.7644219    537.84154  0.011149286 0.0097239215         3785 
 4021000   0.60300051   -8.7381078    538.21204  0.011154191 0.0097199103         3800 
 4022000   0.60898318   -8.7645241    538.38257  0.011154951  0.009715898         3810 
 4023000   0.60171385   -8.7610805     538.5273  0.011155176 0.0097118919         3802 
 4024000   0.60558378   -8.7689556    538.23878  0.011146429 0.0097078846         3803 
 4025000     0.604826   -8.7625098     537.8885  0.011136408 0.0097038799         3803 
 4026000   0.60573672     -8.75558    538.76078  0.011151697 0.0096998795         3818 
 4027000   0.61194017   -8.7378826    538.04357  0.011134086 0.0096958807         3759 
 4028000   0.60641781   -8.7715391    537.26342  0.011115182  0.009691888         3810 
 4029000   0.59325605   -8.7736718    537.67273  0.011120889 0.0096878924         3807 
 4030000   0.61466086   -8.7679005    538.60067  0.011137317 0.0096838967         3800 
 4031000   0.60645231   -8.7568925    538.15178  0.011125275 0.0096799044         3798 
 4032000   0.61357248   -8.7534592    537.63268  0.011111786 0.0096759122         3820 
 4033000   0.61551727   -8.7555481    538.56734  0.011128344 0.0096719252         3775 
 4034000   0.59798528   -8.7445361    537.78956  0.011109518 0.0096679452         3776 
 4035000   0.60797742   -8.7542362    538.42774  0.011119945 0.0096639569         3808 
 4036000   0.60113345   -8.7651743    537.27243  0.011093336 0.0096599743         3791 
 4037000   0.61465256   -8.7795224    537.80204   0.01110152 0.0096559968         3787 
 4038000   0.61666242   -8.7489086    538.00941   0.01110305 0.0096520224         3778 
 4039000   0.59925151   -8.7523157    537.74536  0.011094853 0.0096480473         3762 
 4040000   0.61292425    -8.760504    538.74741  0.011112777 0.0096440755         3814 
 4041000   0.59405829   -8.7601748    537.50972  0.011084503 0.0096401074         3763 
 4042000   0.58846857   -8.7421629    537.59748   0.01108357 0.0096361398         3802 
 4043000   0.59914302   -8.7592679     537.7421  0.011083809 0.0096321758         3777 
 4044000   0.61293323   -8.7670805    537.78719  0.011081998 0.0096282155         3783 
 4045000   0.59512386    -8.757142    538.37457  0.011091359 0.0096242554         3810 
 4046000    0.5955117   -8.7536203    537.87187  0.011078264 0.0096202966         3780 
 4047000   0.60428951    -8.793179    537.15386  0.011060742 0.0096163401         3796 
 4048000   0.60294204   -8.7599459    537.27566  0.011060517  0.009612386         3807 
 4049000   0.61204979   -8.7661821    537.87505  0.011070121 0.0096084343         3790 
 4050000   0.61457424    -8.754075    537.48851  0.011059434 0.0096044838         3859 
 4051000   0.60574668   -8.7700198    537.65779  0.011060187 0.0096005381         3814 
 4052000   0.59128113   -8.7550464    537.84024  0.011061209 0.0095965912         3803 
 4053000    0.6014009   -8.7561933    538.14626  0.011064772 0.0095926468         3772 
 4054000   0.60835812    -8.749424    537.85283  0.011056011 0.0095887046         3815 
 4055000    0.6001077   -8.7657268     537.9154  0.011054571 0.0095847619         3769 
 4056000   0.59149811   -8.7590556    538.52214  0.011064311  0.009580827         3814 
 4057000    0.6046165   -8.7542234    538.46391  0.011060387 0.0095768946         3771 
 4058000   0.61492127   -8.7789126    537.57199  0.011039346  0.009572964         3774 
 4059000   0.60575091   -8.7666436    538.49279  0.011055531 0.0095690342         3828 
 4060000   0.60315564   -8.7729901    537.47167  0.011031849 0.0095651033         3829 
 4061000   0.60922519   -8.7578774    538.98735  0.011060235 0.0095611778         3852 
 4062000   0.60798105   -8.7596575    537.74809  0.011032088 0.0095572544         3804 
 4063000   0.59764029    -8.769822    537.53666  0.011025036 0.0095533328         3818 
 4064000   0.61301895   -8.7694099    537.34291   0.01101835 0.0095494131         3797 
 4065000   0.59295665   -8.7524404    537.63432  0.011021614 0.0095454952         3814 
 4066000   0.61305477   -8.7719689    538.76191  0.011042013 0.0095415781         3806 
 4067000    0.5951837   -8.7525481    538.40312  0.011031947 0.0095376645         3814 
 4068000   0.59630459   -8.7829854    537.23376   0.01100528 0.0095337535         3812 
 4069000   0.59241353   -8.7600638    537.18936  0.011001666 0.0095298422         3780 
 4070000   0.59194759    -8.761242     538.6775  0.011029433 0.0095259369         3807 
 4071000   0.60527605   -8.7619764    538.14933  0.011015912  0.009522034         3799 
 4072000   0.60421161   -8.7765519    537.22133  0.010994215 0.0095181346         3819 
 4073000   0.60535364   -8.7493069    537.82078  0.011003781 0.0095142354         3794 
 4074000   0.59647955   -8.7484161    537.66979  0.010997991 0.0095103359         3775 
 4075000   0.58732446   -8.7593013    537.84049  0.010998783 0.0095064415         3770 
 4076000   0.60290879   -8.7596474    537.66025    0.0109924 0.0095025448         3800 
 4077000   0.60014779   -8.7825498    536.89152  0.010973991 0.0094986506         3793 
 4078000   0.59361753   -8.7868268    537.89917  0.010991891 0.0094947615         3785 
 4079000   0.58712808   -8.7685438    537.91431  0.010989505  0.009490872         3828 
 4080000   0.59955812   -8.7576877    538.16389  0.010991909 0.0094869848         3802 
 4081000   0.60158264   -8.7655152    536.84287  0.010962241 0.0094830992         3808 
 4082000   0.59791855    -8.760525    537.63797  0.010975787 0.0094792137         3766 
 4083000   0.59327565   -8.7779372    538.10095  0.010982549 0.0094753352         3817 
 4084000   0.58390183   -8.7815546     536.8971  0.010955295 0.0094714583         3813 
 4085000   0.59375912   -8.7751035    536.98677  0.010954443 0.0094675807         3810 
 4086000   0.60288249   -8.7566601     537.9294  0.010970986 0.0094637059         3785 
 4087000   0.59990807   -8.7662851    536.83289  0.010945944 0.0094598338         3786 
 4088000   0.58118788   -8.7772061    537.36351  0.010954083 0.0094559635         3801 
 4089000   0.59572042   -8.7693139    538.48691  0.010974299  0.009452095         3800 
 4090000   0.59315321   -8.7804297    536.71367  0.010935486  0.009448228         3818 
 4091000   0.59439757   -8.7809382    537.34523  0.010945678 0.0094443663         3826 
 4092000   0.60856472   -8.7462425    537.39355  0.010943987 0.0094405077         3843 
 4093000   0.60582529   -8.7751895    537.71271  0.010947811 0.0094366497         3802 
 4094000   0.59260168    -8.773849    538.60162  0.010963231 0.0094327913         3808 
 4095000   0.60203571    -8.768263    537.74722  0.010943167 0.0094289342         3808 
 4096000   0.59765226   -8.7519509    537.54666  0.010936415 0.0094250822         3773 
 4097000   0.58264648   -8.7727145    537.66999  0.010936254 0.0094212326         3817 
 4098000   0.58853403   -8.7795236    537.87088   0.01093767 0.0094173853         3759 
 4099000   0.59230857   -8.7703473      538.257  0.010942852 0.0094135388         3781 
 4100000   0.59730078   -8.7839366    537.99898  0.010934939 0.0094096931         3804 
 4101000    0.5879317   -8.7691845     538.2506  0.010937385 0.0094058471         3803 
 4102000   0.59359698   -8.7475166    537.66778  0.010922879  0.009402008         3819 
 4103000   0.60109996   -8.7677545    537.03394  0.010907343 0.0093981677         3814 
 4104000   0.60529411   -8.7769526    537.55359  0.010915237  0.009394331         3807 
 4105000   0.59684535   -8.7782851    536.76889  0.010896648  0.009390493         3780 
 4106000   0.58870431   -8.7657203    536.48288   0.01088819 0.0093866599         3789 
 4107000   0.58342554    -8.786639    537.41845  0.010904522 0.0093828255         3821 
 4108000   0.59214916   -8.7603656    537.64718  0.010906507  0.009378998         3826 
 4109000   0.58939539   -8.7869313     536.7988  0.010886647 0.0093751675         3827 
 4110000   0.59347252   -8.7505003    537.44276  0.010897055 0.0093713427         3824 
 4111000   0.59574696   -8.7834244    536.25324  0.010870292 0.0093675196         3804 
 4112000   0.59184262   -8.7742801    537.58731  0.010894685 0.0093637018         3830 
 4113000   0.58717311   -8.7881824    536.94993  0.010879122 0.0093598813         3804 
 4114000   0.60474908   -8.7803454    537.64696  0.010890596 0.0093560614         3801 
 4115000   0.58418813    -8.789572    536.97893  0.010874421 0.0093522474         3832 
 4116000    0.5923597     -8.77399     538.2648  0.010897813 0.0093484337         3839 
 4117000    0.5953034   -8.7790271    537.71815  0.010884101 0.0093446191         3800 
 4118000    0.5889278   -8.7906057    537.66198  0.010880322 0.0093408105         3784 
 4119000    0.5822188   -8.7945903    536.76048  0.010859442 0.0093370007         3797 
 4120000   0.59534254   -8.7805268     537.9416  0.010880696 0.0093331954         3811 
 4121000   0.59879653   -8.7877551    537.21403  0.010863343 0.0093293937         3813 
 4122000   0.59373223   -8.7719808    537.16418    0.0108597 0.0093255923         3823 
 4123000   0.59438307   -8.7737494    537.16667  0.010857116 0.0093217929         3813 
 4124000   0.59004066   -8.7965328    536.86316   0.01084835  0.009317994         3796 
 4125000   0.59778813   -8.7894183    536.80589  0.010844564 0.0093141985         3781 
 4126000   0.58735322   -8.7947172    537.37479  0.010853425 0.0093104043         3818 
 4127000   0.58071232   -8.7632084    537.47978  0.010852915 0.0093066121         3780 
 4128000   0.59744969   -8.7866219    536.65569   0.01083365 0.0093028236         3771 
 4129000    0.5870936   -8.7872661    537.56843  0.010849448 0.0092990352         3813 
 4130000   0.59045761   -8.7894636    537.53288  0.010846103 0.0092952496         3809 
 4131000   0.60142525   -8.7855552    536.16546  0.010815893 0.0092914689         3772 
 4132000   0.58696853   -8.7736371    537.78354  0.010845909  0.009287689         3793 
 4133000   0.60158831   -8.7941051    537.70607  0.010841723  0.009283908         3784 
 4134000   0.57036321   -8.7969594    536.83097   0.01082146 0.0092801317         3831 
 4135000   0.60891918   -8.7954483    537.12027  0.010824673 0.0092763545         3808 
 4136000   0.58637512   -8.7904157    537.14462  0.010822546 0.0092725815         3804 
 4137000   0.60098521    -8.789163    536.46398   0.01080622 0.0092688171         3807 
 4138000   0.58421992     -8.78639    537.14331  0.010817289  0.009265049         3805 
 4139000   0.59032037   -8.7964702    538.19962  0.010835943 0.0092612823         3835 
 4140000   0.58575264   -8.7694452     538.1737  0.010832804 0.0092575178         3795 
 4141000   0.58415504    -8.773519    536.84652   0.01080348 0.0092537552         3824 
 4142000   0.57635222   -8.7820784    537.85753  0.010821212 0.0092499946         3831 
 4143000   0.58618676   -8.7923654    537.51977  0.010811807 0.0092462352         3796 
 4144000   0.59376769   -8.7937327    537.17414  0.010802247 0.0092424792         3822 
 4145000   0.58926414   -8.7874773    537.32966  0.010802768 0.0092387213         3797 
 4146000   0.58195755   -8.7865758    537.18162  0.010797186 0.0092349676         3795 
 4147000   0.58560038   -8.7901902    537.08567  0.010792655 0.0092312169         3810 
 4148000   0.57904645   -8.7727704    537.64128  0.010801215 0.0092274677         3804 
 4149000   0.58114381   -8.7746528    536.88216  0.010783365 0.0092237197         3846 
 4150000   0.58556276   -8.7832404    537.28632  0.010788882 0.0092199812         3810 
 4151000   0.58346722    -8.795951    536.15006  0.010763472  0.009216238         3797 
 4152000   0.58436321   -8.8064584    537.84917  0.010794982 0.0092124981         3841 
 4153000    0.5840909   -8.7942665    536.67874  0.010768897 0.0092087583         3838 
 4154000   0.58486892   -8.7953527     537.3471  0.010779712 0.0092050223         3848 
 4155000   0.59115038   -8.7966023    537.19314   0.01077403 0.0092012902         3792 
 4156000   0.58909792   -8.8097819    537.24934  0.010772564 0.0091975579         3851 
 4157000   0.60224263   -8.7767764    537.99297   0.01078488 0.0091938277         3802 
 4158000   0.58554451   -8.7798651    537.06043  0.010763597 0.0091900978         3774 
 4159000   0.58749572   -8.7821651    537.95244  0.010778882 0.0091863675         3819 
 4160000   0.57969429   -8.7869757    538.28474  0.010782948 0.0091826419         3791 
 4161000   0.57718091   -8.8059309    537.49049  0.010764449 0.0091789171         3791 
 4162000   0.57812066   -8.7744889    536.09423  0.010733907 0.0091751969         3808 
 4163000   0.58966349   -8.7777488    536.85733  0.010746604 0.0091714746         3835 
 4164000   0.57664777   -8.7755844    537.12915  0.010749463 0.0091677577         3793 
 4165000   0.60204474   -8.7852023     536.1386  0.010727063 0.0091640403         3827 
 4166000   0.59214767   -8.7806995     536.7266   0.01073625 0.0091603288         3798 
 4167000   0.58621081   -8.7879636    536.49273  0.010728996 0.0091566168         3783 
 4168000   0.58788135   -8.8012283    537.05148  0.010737594 0.0091529066         3824 
 4169000   0.58690029    -8.772763     537.2958  0.010739902 0.0091492004         3801 
 4170000   0.58478846   -8.7850471    537.10443  0.010733502 0.0091454948         3804 
 4171000   0.59017053   -8.7753057    536.38001  0.010716455 0.0091417899         3818 
 4172000   0.58410279   -8.8012507    536.24103   0.01071111 0.0091380901         3818 
 4173000   0.56980547   -8.8002901    538.34868  0.010750633 0.0091343904         3788 
 4174000   0.57435031    -8.786051    537.20175  0.010725159 0.0091306949         3821 
 4175000   0.58390777   -8.7942118    537.83651   0.01073526  0.009126999         3799 
 4176000   0.58779724   -8.7979122    538.06128  0.010737174 0.0091233068         3807 
 4177000   0.57733567   -8.7895038    537.44367  0.010722282 0.0091196149         3789 
 4178000   0.59100457   -8.8131899    536.63403  0.010703567 0.0091159274         3812 
 4179000   0.58056922   -8.7860921    536.56984  0.010699726 0.0091122423         3815 
 4180000   0.58575147   -8.7741798    537.13007  0.010708335 0.0091085608         3825 
 4181000   0.58653762   -8.8062016    536.90377  0.010701263 0.0091048779         3838 
 4182000    0.5764981   -8.8066129    537.03522  0.010701323 0.0091011958         3807 
 4183000   0.58014235   -8.7980063    537.21765    0.0107024 0.0090975176         3837 
 4184000   0.57999916   -8.7974393     537.3346  0.010702171 0.0090938421         3812 
 4185000   0.58465367   -8.7921169      537.471   0.01070233 0.0090901671         3814 
 4186000   0.58048595   -8.7912016    536.89804  0.010688367 0.0090864922         3797 
 4187000   0.57599003   -8.7854699    537.48667  0.010697529 0.0090828196         3822 
 4188000    0.5848004   -8.7946661    537.14882  0.010688253 0.0090791508         3803 
 4189000   0.58455405    -8.788179    537.73138   0.01069729 0.0090754841         3800 
 4190000   0.58775911    -8.774202    536.89586   0.01067812 0.0090718192         3811 
 4191000   0.57577807   -8.7757818     537.8738  0.010695017 0.0090681566         3774 
 4192000   0.59090383   -8.7913471    537.63247  0.010687668 0.0090644981         3808 
 4193000   0.58412106    -8.802846    536.81438   0.01066886 0.0090608384         3780 
 4194000   0.58845386   -8.8038059    537.25892  0.010675149   0.00905718         3810 
 4195000    0.5677588   -8.7926831    537.19277  0.010671291 0.0090535253         3804 
 4196000   0.57500816   -8.7930348    536.73698  0.010659695 0.0090498716         3812 
 4197000    0.5896933   -8.8052426    537.37343  0.010669792 0.0090462236         3853 
 4198000   0.56932792   -8.8073235    535.94187  0.010638833 0.0090425765         3814 
 4199000   0.59400523   -8.8060556    536.41064  0.010645603 0.0090389298         3807 
 4200000   0.58372024   -8.7905592    536.73258  0.010649456 0.0090352854         3808 
 4201000   0.57555357   -8.7926609    536.97387  0.010651707 0.0090316437         3834 
 4202000   0.57685251   -8.7955122    536.82143  0.010646149     0.009028         3829 
 4203000   0.57774009     -8.79777    536.36075  0.010634482 0.0090243629         3794 
 4204000   0.58999144   -8.8097006    536.35406   0.01063182  0.009020725         3825 
 4205000   0.57355592   -8.8006069    537.38214  0.010649666   0.00901709         3818 
 4206000   0.57905543   -8.8132869    536.85712  0.010636732 0.0090134574         3826 
 4207000   0.57083087   -8.7965144    536.84881  0.010634039 0.0090098239         3809 
 4208000   0.57065733   -8.8198833    535.81379  0.010611015 0.0090061939         3828 
 4209000   0.56750107   -8.8066876    536.02237  0.010612623 0.0090025601         3844 
 4210000   0.57711987   -8.8079264    536.20283  0.010613674  0.008998932         3816 
 4211000    0.5784414   -8.7938185    537.19116  0.010630712 0.0089953087         3812 
 4212000   0.58011719   -8.8070144    536.58962  0.010616287  0.008991685         3797 
 4213000   0.57242246   -8.8001288    535.79886  0.010598126 0.0089880652         3812 
 4214000    0.5706652   -8.7958228    537.13418  0.010622018 0.0089844458         3806 
 4215000   0.57653786   -8.8141053    536.59898  0.010608916  0.008980827         3815 
 4216000   0.57683296   -8.8152839    536.60966  0.010606611 0.0089772112         3819 
 4217000   0.58162944    -8.801974    536.90411  0.010609914 0.0089735963         3830 
 4218000   0.57261993   -8.7958634    536.48264  0.010599072 0.0089699863         3836 
 4219000   0.58381434   -8.8154872    536.08622   0.01058873 0.0089663814         3836 
 4220000   0.58441345   -8.8143812    536.28142  0.010590075 0.0089627718         3844 
 4221000   0.58007463   -8.8227114    536.66992  0.010595237 0.0089591663         3820 
 4222000   0.57172329   -8.7877487    537.58449  0.010610779 0.0089555615         3858 
 4223000   0.57369174   -8.7830696     537.2212  0.010601097 0.0089519588         3797 
 4224000   0.55724586    -8.814002    536.62177  0.010586761 0.0089483598         3763 
 4225000   0.56727348   -8.7861599    536.45915  0.010581048 0.0089447583         3822 
 4226000   0.57666977   -8.8069928    536.11248  0.010571709 0.0089411609         3835 
 4227000    0.5767784   -8.8046603    535.79773  0.010563002 0.0089375685         3826 
 4228000   0.58115174   -8.8085636    535.98073  0.010564111 0.0089339748         3822 
 4229000   0.59131332   -8.8054816    536.88997   0.01057953 0.0089303846         3841 
 4230000   0.57524223   -8.7723066    536.57901  0.010570902 0.0089267987         3789 
 4231000    0.5621398   -8.7958157    536.92912    0.0105753 0.0089232137         3808 
 4232000   0.57209583   -8.8117627    536.53989  0.010565136 0.0089196291         3828 
 4233000    0.5797473    -8.792752    536.91118   0.01056995 0.0089160471         3811 
 4234000   0.57371817   -8.8208351    535.58239    0.0105413 0.0089124669         3805 
 4235000   0.57715911   -8.7969483    536.09899  0.010548977  0.008908885         3788 
 4236000   0.57708392   -8.8095821     536.9223  0.010562683 0.0089053099         3826 
 4237000   0.58585803   -8.8017949    536.43355  0.010550577 0.0089017376         3812 
 4238000    0.5672595   -8.7854519     536.6308  0.010551966 0.0088981625         3812 
 4239000   0.56978818   -8.8054414    537.45013  0.010565584 0.0088945873         3815 
 4240000   0.57552142   -8.8072072    536.46573  0.010543745 0.0088910174         3832 
 4241000   0.57488022    -8.816076    535.69271  0.010526069  0.008887451         3843 
 4242000   0.55768463   -8.8022027    536.49654  0.010539379 0.0088838848         3834 
 4243000   0.57981446   -8.7987523     536.3555  0.010534125 0.0088803209         3824 
 4244000   0.58703654   -8.8182847      535.367  0.010512233 0.0088767609         3833 
 4245000   0.58494947   -8.8028385      536.461  0.010531233 0.0088732011         3819 
 4246000   0.58221605   -8.8091497    535.92196  0.010518173  0.008869644         3838 
 4247000   0.57435314   -8.8256875    536.16367  0.010520439 0.0088660869         3793 
 4248000   0.56508756   -8.8307248    537.58313  0.010545808 0.0088625312         3859 
 4249000   0.57451438   -8.8110347    535.99936  0.010512265 0.0088589789         3784 
 4250000   0.57326481   -8.7968064    536.51258  0.010519855 0.0088554297         3840 
 4251000   0.56808137   -8.7947721    536.39856  0.010515145 0.0088518792         3850 
 4252000   0.55921304   -8.8225217    535.97469  0.010504364 0.0088483297         3847 
 4253000   0.57785182   -8.8072578    535.81027  0.010498673 0.0088447855         3810 
 4254000   0.56132548   -8.7921024    537.74987  0.010534201 0.0088412417         3835 
 4255000   0.55955533   -8.7953726    536.69002  0.010510968 0.0088376987         3802 
 4256000   0.56879963   -8.8034641    536.49173  0.010504616 0.0088341555         3804 
 4257000   0.56786736   -8.8148296    536.80495   0.01050828 0.0088306144         3842 
 4258000   0.56309858   -8.8193524    537.34857  0.010516451 0.0088270799         3797 
 4259000    0.5773039   -8.8163871    536.69826  0.010501257 0.0088235459         3818 
 4260000   0.57183134    -8.815679    536.41215  0.010493195 0.0088200127         3817 
 4261000   0.57397642   -8.7952221    536.50014  0.010492454 0.0088164787         3838 
 4262000   0.57371312   -8.8332818    536.66933    0.0104933 0.0088129537         3790 
 4263000   0.59078857   -8.8119984    537.11869  0.010499622 0.0088094315         3822 
 4264000   0.57196054   -8.8156449    536.56572  0.010486353 0.0088059046         3836 
 4265000   0.56576824   -8.8096066    536.20086  0.010476765 0.0088023767         3843 
 4266000   0.57106322   -8.8307583    535.58258  0.010462232 0.0087988544         3834 
 4267000   0.56835273   -8.8131483    536.03945  0.010468703 0.0087953363         3806 
 4268000   0.56947388   -8.8238888    536.48765  0.010475001 0.0087918189         3844 
 4269000   0.56827195   -8.8195771    536.03494   0.01046371 0.0087883059         3835 
 4270000   0.55573203    -8.802468    536.69825  0.010474205 0.0087847927         3840 
 4271000   0.58490716   -8.8029254      536.575  0.010469347 0.0087812835         3803 
 4272000   0.57679825   -8.8162134    535.78241  0.010451436 0.0087777718         3827 
 4273000    0.5655441   -8.8086658    536.81586  0.010469145 0.0087742635         3810 
 4274000   0.56997053   -8.8245111    536.26906  0.010456034 0.0087707566         3823 
 4275000   0.56705946   -8.8259768    536.70187  0.010462025 0.0087672502         3816 
 4276000   0.55699279   -8.8184597    535.75287  0.010441083 0.0087637433         3822 
 4277000   0.56137891   -8.8164793     535.6834  0.010437289   0.00876024         3843 
 4278000   0.57569582    -8.828709    536.30982  0.010447051 0.0087567386         3833 
 4279000    0.5794327   -8.8211891    536.49666  0.010448248 0.0087532395         3813 
 4280000   0.56334705   -8.8137653    535.39973   0.01042445 0.0087497434         3833 
 4281000   0.57017927   -8.8257204    535.60643  0.010426038 0.0087462491         3834 
 4282000   0.55668059   -8.8131398    535.70821  0.010425584 0.0087427596         3860 
 4283000   0.56991007   -8.8250707    536.53376  0.010439212 0.0087392695         3831 
 4284000   0.55579812   -8.8221782    537.14493  0.010448664 0.0087357815         3804 
 4285000   0.56617417   -8.8096301    536.51851  0.010434043 0.0087322976         3850 
 4286000   0.55509674   -8.8155084    536.13609  0.010424174 0.0087288163         3840 
 4287000   0.57405499   -8.7873031     536.2617  0.010424183 0.0087253369         3841 
 4288000   0.57970047   -8.8266369    536.62709  0.010428853 0.0087218571         3848 
 4289000   0.55679419   -8.8186296    536.31851  0.010420427 0.0087183767         3833 
 4290000   0.56999888   -8.8091093    536.21858  0.010416056 0.0087148994         3858 
 4291000   0.56520946   -8.8214611    536.33611  0.010415911 0.0087114237         3831 
 4292000   0.58559293   -8.8356905    537.32658  0.010432715 0.0087079491         3843 
 4293000   0.55376208   -8.8121205    536.68431  0.010417818 0.0087044761         3842 
 4294000   0.56005965   -8.8350917    537.11454  0.010423741 0.0087010041         3844 
 4295000   0.56286182   -8.8213722    535.13452  0.010382897  0.008697535         3823 
 4296000   0.56632224   -8.8175267    536.84913   0.01041374 0.0086940642         3843 
 4297000   0.56523634   -8.8303892    535.36457  0.010382526 0.0086905987         3849 
 4298000    0.5653013   -8.8152586    536.26586  0.010397585 0.0086871324         3842 
 4299000   0.56624781   -8.8323295    535.44974  0.010379347 0.0086836706         3859 
 4300000    0.5729681    -8.825039    536.70869  0.010401331 0.0086802112         3853 
 4301000   0.56204264    -8.837124    534.99578  0.010365725  0.008676751         3840 
 4302000   0.56218972   -8.8218861    536.42084   0.01039092 0.0086732953         3838 
 4303000   0.56541356   -8.8268976    536.23503  0.010384906 0.0086698435         3829 
 4304000   0.56281645   -8.8312682    536.10886  0.010380051 0.0086663889         3832 
 4305000   0.56557274   -8.8387497    536.87373  0.010392445 0.0086629382         3840 
 4306000   0.56624422   -8.8325698    535.64943  0.010366338 0.0086594904         3845 
 4307000   0.56858093   -8.8418922    535.71743  0.010365247 0.0086560456         3875 
 4308000    0.5636603   -8.8309343    536.14529  0.010371118 0.0086526031         3820 
 4309000   0.55412395   -8.8315874    536.23474   0.01037044 0.0086491576         3827 
 4310000    0.5443148   -8.8178646    535.82127   0.01036004 0.0086457175         3834 
 4311000   0.55951068   -8.8353267     536.6237  0.010373148 0.0086422784         3824 
 4312000   0.57935549   -8.8275663    536.84597  0.010375038 0.0086388423         3832 
 4313000   0.55050239   -8.8260255    535.89005  0.010354163 0.0086354071         3818 
 4314000   0.55950226   -8.8189796    536.22426  0.010358219 0.0086319714         3843 
 4315000   0.56366121   -8.8196724    535.93135  0.010350161 0.0086285375         3844 
 4316000   0.56363928   -8.8066287    535.97523   0.01034861 0.0086251056         3838 
 4317000   0.56373538    -8.809581    536.14463  0.010349483 0.0086216797         3797 
 4318000   0.57215783   -8.8293129     535.5622  0.010335846 0.0086182545         3849 
 4319000   0.55077512   -8.8434858    535.42458  0.010330798 0.0086148285         3836 
 4320000   0.55652712   -8.8182079    535.93722  0.010338295 0.0086114051         3840 
 4321000   0.56913982   -8.8235991    536.49728  0.010346704 0.0086079832         3806 
 4322000   0.56318719   -8.8226964    536.31212   0.01034074 0.0086045623         3841 
 4323000   0.55516693   -8.8563259    534.63193  0.010305959 0.0086011443         3826 
 4324000   0.55576204   -8.8434584    535.99855  0.010329913   0.00859773         3831 
 4325000   0.55895794   -8.8349738    536.28817  0.010333105 0.0085943169         3828 
 4326000   0.56429225   -8.8317517    535.86165  0.010322501 0.0085909043         3799 
 4327000   0.56272436   -8.8576114    535.98271  0.010322446 0.0085874936         3819 
 4328000   0.55850742   -8.8391428    536.52491  0.010330501 0.0085840869         3826 
 4329000    0.5616441    -8.812719    535.83762  0.010314884 0.0085806817         3853 
 4330000   0.55419755   -8.8350443    535.86496  0.010313029 0.0085772794         3846 
 4331000    0.5654687   -8.8208045    535.81512  0.010309688 0.0085738769         3830 
 4332000   0.55199287   -8.8374123    536.20881  0.010314882 0.0085704784         3833 
 4333000   0.56253084   -8.8327207    536.35567  0.010315326   0.00856708         3856 
 4334000   0.53735603   -8.8217799    535.70876  0.010300507 0.0085636838         3818 
 4335000   0.57351676   -8.8295873    535.76803   0.01029927 0.0085602887         3823 
 4336000   0.55583722   -8.8190663    535.23428  0.010286637  0.008556896         3835 
 4337000   0.57109195   -8.8381057    536.40559  0.010306771 0.0085535034         3822 
 4338000   0.55564013   -8.8314684    536.07047  0.010297957 0.0085501127         3832 
 4339000   0.55375127   -8.8414266    535.86914  0.010291717 0.0085467218         3822 
 4340000   0.55995266   -8.8191708    535.65713  0.010285275 0.0085433326         3837 
 4341000   0.56341383    -8.831889    535.08576  0.010271937 0.0085399467         3838 
 4342000     0.555676    -8.838593    536.59477  0.010298533  0.008536563         3849 
 4343000   0.56608714   -8.8419328    536.10774  0.010286817 0.0085331797         3834 
 4344000   0.54880485    -8.832058    536.25802  0.010287332 0.0085297999         3840 
 4345000   0.54061884   -8.8417366    535.75793  0.010275373 0.0085264184         3841 
 4346000     0.557007   -8.8361802    536.08988  0.010279373 0.0085230432         3829 
 4347000   0.55759129    -8.840692    536.34771  0.010281951 0.0085196703         3829 
 4348000   0.56352418   -8.8268907    536.07909  0.010274438 0.0085162998         3842 
 4349000   0.56019168    -8.853936    534.86616  0.010248834 0.0085129298         3828 
 4350000   0.55194559   -8.8330481    536.58719  0.010279448 0.0085095607         3844 
 4351000   0.55278996   -8.8330778    536.28264  0.010271253 0.0085061906         3819 
 4352000   0.55862628   -8.8298486    536.04261  0.010264296 0.0085028254         3858 
 4353000   0.55701027   -8.8251643    535.57972  0.010253077 0.0084994607         3828 
 4354000   0.55081823    -8.844541    536.14873  0.010261613 0.0084961006         3842 
 4355000   0.54916827   -8.8290585    535.68834  0.010250447 0.0084927403         3828 
 4356000   0.54525341   -8.8348921      536.301  0.010259814 0.0084893838         3819 
 4357000   0.54927852   -8.8284658     535.7116  0.010246186  0.008486026         3841 
 4358000   0.55374424   -8.8227082    536.51711  0.010259238 0.0084826704         3841 
 4359000   0.56644464   -8.8372798    536.41628  0.010254957 0.0084793158         3837 
 4360000   0.55292334   -8.8469188    535.44898  0.010234117 0.0084759653         3819 
 4361000   0.54669765   -8.8359015    536.70987  0.010255864 0.0084726168         3854 
 4362000   0.55875321   -8.8319793    535.39996  0.010228488 0.0084692679         3815 
 4363000   0.54936645   -8.8169499    535.70623  0.010231993  0.008465921         3815 
 4364000   0.55901124   -8.8276415    534.99588  0.010216084 0.0084625735         3800 
 4365000   0.55943437   -8.8448394    534.99587  0.010213743 0.0084592317         3836 
 4366000   0.55147311   -8.8433049    534.97261   0.01021096 0.0084558912         3844 
 4367000   0.55816192   -8.8379623     534.9358  0.010207919  0.008452551         3846 
 4368000   0.55778331    -8.841709    535.22045  0.010211013 0.0084492137         3798 
 4369000    0.5549451   -8.8619056    535.24363  0.010209118  0.008445877         3832 
 4370000   0.55829881     -8.83228    535.11789  0.010204384 0.0084425414         3853 
 4371000   0.55341784    -8.827818    536.11449   0.01022105 0.0084392092         3827 
 4372000   0.54927323   -8.8378747    535.05724   0.01019856 0.0084358809         3849 
 4373000   0.56112815   -8.8392753    535.71019  0.010208671 0.0084325524         3829 
 4374000   0.53665808   -8.8318462    534.82876  0.010189543 0.0084292211         3839 
 4375000   0.54290078   -8.8290069    536.15617  0.010212499 0.0084258995         3830 
 4376000   0.56009757   -8.8460674     535.5971  0.010199518 0.0084225758         3848 
 4377000   0.55153989   -8.8573225    535.44005  0.010194198 0.0084192541         3807 
 4378000   0.54555979   -8.8430663     535.8528  0.010199726 0.0084159341         3822 
 4379000   0.55793931   -8.8271663    536.17127  0.010203457  0.008412616         3835 
 4380000   0.55610897   -8.8574595     535.2288  0.010183196 0.0084092997         3830 
 4381000   0.55458561   -8.8205274    535.39101  0.010183957 0.0084059875         3856 
 4382000    0.5529511   -8.8484378    534.81248  0.010170631 0.0084026758         3829 
 4383000   0.55472996     -8.83342    536.67503  0.010203723 0.0083993656         3812 
 4384000   0.54461316   -8.8304709    535.57416   0.01018047 0.0083960562         3841 
 4385000   0.55237724   -8.8222747    535.99243  0.010186097 0.0083927506         3836 
 4386000   0.54940954   -8.8429551     535.7006   0.01017823  0.008389446         3830 
 4387000   0.54912554    -8.836254    533.84016   0.01014057 0.0083861383         3853 
 4388000   0.53739283   -8.8362802    534.78101  0.010156127 0.0083828362         3782 
 4389000   0.56386313   -8.8450857    535.60228  0.010169406  0.008379537         3842 
 4390000   0.54412164   -8.8524506    536.03689   0.01017534 0.0083762384         3840 
 4391000   0.54814344   -8.8464086    536.03055  0.010172902 0.0083729433         3851 
 4392000   0.54778054   -8.8494441    535.38233  0.010158287 0.0083696467         3865 
 4393000   0.54749622   -8.8607354    534.77303  0.010144416 0.0083663525         3843 
 4394000   0.54399474   -8.8457258    534.85401  0.010143643 0.0083630594         3825 
 4395000   0.54205795   -8.8521872    534.53939   0.01013537 0.0083597697         3839 
 4396000   0.54753606   -8.8507178    534.58737  0.010133973 0.0083564806         3821 
 4397000   0.55621362   -8.8329768    535.54173  0.010149756 0.0083531904         3834 
 4398000   0.53558289   -8.8499688    534.83382  0.010134035 0.0083499043         3835 
 4399000   0.54064133   -8.8561983    536.34451  0.010160349 0.0083466218         3839 
 4400000   0.53845894    -8.857159    534.31653  0.010119631 0.0083433401         3843 
 4401000   0.54980079   -8.8271458     534.3904  0.010118731 0.0083400592         3828 
 4402000   0.55346794   -8.8469934    535.79465  0.010143015 0.0083367775         3834 
 4403000   0.55718242   -8.8598293    535.07384   0.01012707 0.0083335004         3817 
 4404000   0.54439998    -8.842678    534.44545  0.010112879 0.0083302249         3810 
 4405000   0.54609598   -8.8494388     534.6237  0.010113956 0.0083269533         3837 
 4406000   0.55693624   -8.8403872    535.59242  0.010129982 0.0083236798         3850 
 4407000   0.54675769   -8.8348028    535.10759  0.010118516   0.00832041         3813 
 4408000   0.54459898   -8.8516028    535.47099   0.01012309 0.0083171416         3839 
 4409000   0.54562808   -8.8606974    535.93861  0.010129633 0.0083138762         3845 
 4410000   0.55731051   -8.8524149    535.77417  0.010124229 0.0083106119         3848 
 4411000   0.54422112   -8.8378212    535.17113   0.01011054 0.0083073453         3836 
 4412000   0.56130523   -8.8527283     535.3104  0.010110879 0.0083040831         3835 
 4413000   0.56433638   -8.8367578    535.24494  0.010107352 0.0083008251         3836 
 4414000   0.53405295   -8.8334121    535.57007  0.010111201 0.0082975669         3826 
 4415000   0.55322903    -8.871258    535.54411   0.01010842 0.0082943121         3835 
 4416000   0.54613644   -8.8440263     535.9242  0.010113304  0.008291056         3819 
 4417000   0.54626077    -8.838136    535.36103  0.010100389 0.0082878004         3836 
 4418000   0.54154987   -8.8675512    535.37512  0.010098369 0.0082845479         3834 
 4419000   0.54071825   -8.8737262    534.57346  0.010080966 0.0082812973         3831 
 4420000   0.56197494   -8.8576635    536.09994  0.010107465 0.0082780501         3820 
 4421000   0.53879178   -8.8468782    534.99395  0.010084331  0.008274806         3820 
 4422000    0.5390602   -8.8517065     534.9465  0.010081157 0.0082715594         3848 
 4423000   0.54916104   -8.8567902    534.93027  0.010078572 0.0082683148         3830 
 4424000   0.54736436   -8.8487475    535.24045  0.010082136 0.0082650771         3845 
 4425000    0.5402616   -8.8428427    535.42312  0.010083298 0.0082618374         3842 
 4426000   0.55605816   -8.8690885      535.327   0.01007921 0.0082585988         3808 
 4427000   0.54539788   -8.8679927    534.49859  0.010061339 0.0082553631         3842 
 4428000   0.55312875   -8.8486322    534.29847  0.010055301 0.0082521286         3841 
 4429000   0.53625906    -8.833518    535.68816  0.010079178 0.0082488946         3857 
 4430000   0.53484849   -8.8559292     535.0323  0.010064566 0.0082456657         3826 
 4431000   0.53598088   -8.8560042    536.24631  0.010085126 0.0082424357         3823 
 4432000   0.54761809   -8.8661356    535.40191  0.010066973 0.0082392085         3810 
 4433000   0.55694336   -8.8475315    536.06174  0.010077106  0.008235983         3820 
 4434000   0.52630503   -8.8573081    534.37489   0.01004313 0.0082327584         3835 
 4435000   0.54237278    -8.850083    534.57553  0.010044636 0.0082295348         3836 
 4436000   0.53965104   -8.8428457    535.42392  0.010058309 0.0082263136         3832 
 4437000   0.54061266   -8.8447771    535.99849  0.010066834 0.0082230952         3832 
 4438000   0.53988844   -8.8490721     535.4026  0.010053376 0.0082198768         3814 
 4439000   0.54610559   -8.8600826    535.47244  0.010052422 0.0082166577         3833 
 4440000   0.54342676   -8.8624104    534.67395  0.010035172  0.008213442         3811 
 4441000   0.52995531   -8.8474086    535.31259  0.010044896 0.0082102289         3805 
 4442000   0.54971073   -8.8447328    534.81447   0.01003329  0.008207015         3798 
 4443000   0.53990799   -8.8593769    534.60457  0.010027094 0.0082038041         3827 
 4444000   0.52532213    -8.865909    535.18914    0.0100358 0.0082005976         3825 
 4445000   0.53789206   -8.8576614    535.10278  0.010031923 0.0081973909         3817 
 4446000   0.54172376   -8.8613968    535.10688  0.010029744 0.0081941897         3825 
 4447000   0.53686674   -8.8681511    534.25981  0.010011615 0.0081909863         3816 
 4448000   0.55374901    -8.845266    534.88843  0.010021141 0.0081877865         3819 
 4449000   0.51969431   -8.8501759    534.29084  0.010007695 0.0081845865         3830 
 4450000   0.54196471   -8.8604766    534.15372  0.010002879 0.0081813887         3836 
 4451000   0.53991012   -8.8597267    535.18085  0.010019862  0.008178194         3834 
 4452000   0.54365873   -8.8579302    535.61612  0.010025759  0.008174999         3844 
 4453000   0.53821162   -8.8470697    535.14885  0.010014763 0.0081718061         3868 
 4454000   0.55333601   -8.8483094    535.71458  0.010023099  0.008168615         3819 
 4455000   0.54515784    -8.859566    534.12766 0.0099911646 0.0081654276         3854 
 4456000    0.5312801   -8.8598595    535.12307  0.010007538 0.0081622409         3841 
 4457000   0.52931769    -8.866047    535.55339  0.010013338 0.0081590516         3849 
 4458000    0.5346067   -8.8645838    534.85943 0.0099981201  0.008155865         3823 
 4459000   0.54924203   -8.8595995    534.80191 0.0099948029  0.008152683         3864 
 4460000   0.54720728   -8.8569939    534.60068  0.009988802 0.0081495024         3828 
 4461000   0.53707003   -8.8633807    534.51708 0.0099850011 0.0081463229         3850 
 4462000   0.53251283   -8.8760046     535.0911 0.0099934839 0.0081431416         3849 
 4463000    0.5295002   -8.8646867    535.50632 0.0099989976 0.0081399639         3844 
 4464000   0.53753502   -8.8617198    534.42449 0.0099765624 0.0081367869         3848 
 4465000   0.52449512   -8.8590321    534.83725 0.0099820316  0.008133616         3834 
 4466000   0.53102813   -8.8547546    536.03394  0.010002126 0.0081304451         3851 
 4467000   0.53594357   -8.8763287    534.58746 0.0099729024 0.0081272731         3864 
 4468000   0.53278434   -8.8751474    535.27102 0.0099834195  0.008124106         3849 
 4469000   0.54014878   -8.8518275    535.31758 0.0099820537 0.0081209397         3863 
 4470000     0.531653   -8.8616972    535.11252 0.0099759978 0.0081177721         3861 
 4471000   0.54182805   -8.8695416    535.22251 0.0099758165 0.0081146064         3871 
 4472000   0.53590595   -8.8687751    535.16283 0.0099724737 0.0081114448         3845 
 4473000   0.53186025   -8.8718184    535.71734 0.0099805749 0.0081082832         3853 
 4474000   0.52779159    -8.874014    534.75295 0.0099603814  0.008105123         3838 
 4475000   0.53886088   -8.8636333    535.54751 0.0099729518 0.0081019646         3858 
 4476000   0.52707254   -8.8643581    534.41239 0.0099495903 0.0080988098         3865 
 4477000   0.53635203   -8.8780571    535.42465 0.0099662096 0.0080956552         3824 
 4478000   0.52176054   -8.8809128    535.09057  0.009957767 0.0080925019         3868 
 4479000   0.52408237   -8.8768184    534.97181 0.0099533342 0.0080893516         3866 
 4480000   0.53552113   -8.8780509    534.84262 0.0099487095 0.0080862016         3813 
 4481000   0.53045388   -8.8498953    534.28083 0.0099360416 0.0080830557         3842 
 4482000   0.53100271   -8.8688391    534.39727 0.0099359897 0.0080799096         3825 
 4483000   0.53834997    -8.858698    535.86136 0.0099609889 0.0080767636         3829 
 4484000   0.52922647    -8.867207     533.8415 0.0099212291 0.0080736196         3853 
 4485000   0.52956949   -8.8472261    534.99967 0.0099405365 0.0080704774         3850 
 4486000    0.5278508   -8.8608456     534.3547 0.0099263394 0.0080673429         3841 
 4487000   0.54693813   -8.8514151    534.46911 0.0099262519 0.0080642063         3838 
 4488000   0.54801069   -8.8823582    534.70402  0.009928402 0.0080610691         3844 
 4489000   0.53204241   -8.8685438    534.53867 0.0099231207 0.0080579358         3837 
 4490000   0.54567435   -8.8618774    534.51228  0.009920421 0.0080548028         3835 
 4491000   0.54090092   -8.8662545    534.47468 0.0099175142 0.0080516719         3863 
 4492000   0.54066677   -8.8496632    535.93819 0.0099424567 0.0080485452         3855 
 4493000   0.52689476   -8.8687304     534.5403 0.0099143168 0.0080454185         3843 
 4494000   0.53423171   -8.8774027    534.97001 0.0099200787 0.0080422932         3834 
 4495000   0.53173604   -8.8791234    534.78184 0.0099143834 0.0080391687         3847 
 4496000   0.52156207   -8.8682436     534.6823 0.0099103332 0.0080360456         3868 
 4497000   0.52069659   -8.8610037    535.08489 0.0099155897 0.0080329232         3826 
 4498000   0.52915965    -8.870816    534.65971 0.0099055082 0.0080298054         3841 
 4499000   0.53257097   -8.8772981    534.34711 0.0098975164 0.0080266869         3850 
 4500000   0.54018582   -8.8694092    534.60287 0.0099000532 0.0080235707         3870 
 4501000   0.52808368   -8.8756213     534.8669  0.009902742 0.0080204562         3860 
 4502000    0.5234477   -8.8655874    535.13164 0.0099054427 0.0080173432         3875 
 4503000   0.53760008   -8.8557589    534.95633 0.0098999988 0.0080142292         3836 
 4504000   0.53432152   -8.8641592    534.32893 0.0098861925 0.0080111206         3858 
 4505000   0.53615338   -8.8552147    534.43643 0.0098859866 0.0080080139         3838 
 4506000   0.54043041   -8.8765017     534.5093 0.0098851401 0.0080049057         3849 
 4507000   0.51911901   -8.8783863     533.8602 0.0098709451 0.0080017998         3851 
 4508000   0.52577564   -8.8710082    534.50683 0.0098807089 0.0079986929         3869 
 4509000   0.51825996   -8.8553096    534.41375 0.0098767973 0.0079955907         3807 
 4510000   0.53193452   -8.8646528    533.93363  0.009865736 0.0079924892         3862 
 4511000    0.5370579   -8.8637509    535.26238 0.0098880954 0.0079893904         3851 
 4512000   0.52617041   -8.8774407    534.75654 0.0098765614 0.0079862944         3865 
 4513000    0.5285666   -8.8641983    533.90408 0.0098586321  0.007983201         3849 
 4514000   0.53027994   -8.8847936    534.58682 0.0098690522 0.0079801082         3839 
 4515000   0.52702614   -8.8710862    534.47616  0.009864824 0.0079770146         3865 
 4516000    0.5513635   -8.8660903    534.09994 0.0098556972 0.0079739269         3845 
 4517000   0.52941773   -8.8638845    534.69743 0.0098645382 0.0079708391         3830 
 4518000   0.53811399   -8.8714958    534.14227 0.0098521151  0.007967753         3864 
 4519000   0.53010039   -8.8809461    534.21694 0.0098513118 0.0079646673         3868 
 4520000   0.51554532   -8.8759168    533.98696 0.0098448923 0.0079615831         3868 
 4521000   0.52485436   -8.8768632    535.49844 0.0098705751 0.0079585002         3848 
 4522000    0.5349334   -8.8533928    534.96872 0.0098586303 0.0079554205         3825 
 4523000   0.52574785   -8.8648612    534.58578 0.0098493954 0.0079523424         3855 
 4524000   0.52816015   -8.8754987     534.8603  0.009852275  0.007949266         3856 
 4525000   0.52742328   -8.8689294    534.51149 0.0098436739   0.00794619         3818 
 4526000   0.53958166   -8.8839476    534.19413 0.0098356556 0.0079431149         3832 
 4527000   0.52516191   -8.8739461    533.70405 0.0098244616 0.0079400408         3834 
 4528000   0.52856513   -8.8855484    534.53107 0.0098375123 0.0079369706         3865 
 4529000   0.53942743   -8.8756246    534.70357 0.0098385141 0.0079338994         3848 
 4530000    0.5177812    -8.867769    533.24075 0.0098094326 0.0079308289         3872 
 4531000   0.53525247   -8.8778243    533.74066 0.0098164618 0.0079277636         3861 
 4532000   0.51623837   -8.8558012    534.43524 0.0098270675 0.0079246994         3843 
 4533000   0.51833987   -8.8705142    534.21906 0.0098209254 0.0079216338         3830 
 4534000   0.52924702   -8.8783678     534.4624  0.009823232 0.0079185714         3842 
 4535000   0.53264635   -8.8831475    534.65213 0.0098245522 0.0079155113         3873 
 4536000   0.51692729   -8.8826294    533.93918 0.0098092883 0.0079124517         3880 
 4537000   0.52581196   -8.8992798     534.1263 0.0098105632 0.0079093926         3847 
 4538000   0.53259569   -8.8964314    534.60199 0.0098171366 0.0079063336         3848 
 4539000   0.52454352   -8.8797865     535.3926  0.009829489  0.007903277         3865 
 4540000    0.5395238   -8.8793922     535.3154 0.0098259067 0.0079002239         3833 
 4541000   0.51858591   -8.8854638    534.52386 0.0098092172 0.0078971719         3866 
 4542000   0.52939732   -8.8870877    535.67806 0.0098282338 0.0078941203         3858 
 4543000   0.52172872   -8.8930154    533.13735 0.0097794657 0.0078910738         3841 
 4544000   0.52022241   -8.8831761    533.96075 0.0097924141  0.007888026         3866 
 4545000   0.52056227   -8.8674555    534.47577 0.0097997024 0.0078849809         3823 
 4546000   0.51451296   -8.9035513    534.90351 0.0098053877 0.0078819385         3841 
 4547000   0.52637209   -8.8839594    534.83103 0.0098019028 0.0078788983         3842 
 4548000   0.53216281   -8.8883708     533.2701 0.0097711466 0.0078758575         3841 
 4549000    0.5229841   -8.8621877    533.71484 0.0097771459 0.0078728199         3846 
 4550000   0.51167612   -8.8887008    534.20493 0.0097839731 0.0078697843         3871 
 4551000   0.51867906   -8.8708269    534.61582  0.009789347 0.0078667469         3833 
 4552000   0.51752109   -8.9040175    534.21195 0.0097798029 0.0078637147         3853 
 4553000   0.51988479   -8.8944997    534.37405 0.0097806218 0.0078606812         3876 
 4554000   0.52189842    -8.888662    534.01148 0.0097718395 0.0078576501         3849 
 4555000   0.52096178   -8.8713656    534.22843 0.0097736631 0.0078546211         3855 
 4556000   0.51648873     -8.87359    533.57659 0.0097595952 0.0078515917         3838 
 4557000   0.51871973    -8.865093    534.49097 0.0097741746 0.0078485679         3810 
 4558000   0.51895978   -8.8690631    533.82821 0.0097599132 0.0078455426         3856 
 4559000   0.51903292    -8.870558    534.08149 0.0097624021 0.0078425171         3829 
 4560000   0.52346941   -8.8748861    534.68194 0.0097712344 0.0078394951         3848 
 4561000   0.51701619   -8.9009321    534.65662 0.0097686294 0.0078364742         3853 
 4562000   0.52210446   -8.8827104    534.72986 0.0097678259 0.0078334524         3834 
 4563000   0.52105834   -8.8792304    533.05105 0.0097350255 0.0078304346         3860 
 4564000   0.52022069   -8.8810411    533.71322 0.0097449829 0.0078274185         3857 
 4565000    0.5236475    -8.885696    533.89573 0.0097461798 0.0078244044         3837 
 4566000   0.52437905   -8.8767027    533.58038 0.0097382899 0.0078213893         3832 
 4567000   0.51795356   -8.8805836    534.20467 0.0097475488 0.0078183788         3833 
 4568000   0.52785236   -8.9060562    534.93028 0.0097586523 0.0078153698         3871 
 4569000   0.51244749   -8.9029172    534.48045  0.009748312 0.0078123599         3869 
 4570000   0.51387334   -8.9022879    534.78957 0.0097518157 0.0078093533         3854 
 4571000   0.52615821   -8.8737994    534.64089 0.0097469717 0.0078063469         3838 
 4572000   0.52101175   -8.8901523    533.24618 0.0097194186 0.0078033447         3837 
 4573000   0.51896009   -8.9022724    533.49187 0.0097217704 0.0078003435         3847 
 4574000   0.52618991   -8.9066357    534.48329 0.0097377075 0.0077973445         3823 
 4575000   0.52002609   -8.8983229    533.64894 0.0097203815 0.0077943448         3860 
 4576000   0.51971389   -8.8908594    534.14819  0.009727349 0.0077913455         3846 
 4577000   0.52994552   -8.8798181    533.85885 0.0097199557  0.007788349         3838 
 4578000    0.5204116   -8.8920476      534.209 0.0097242064 0.0077853525         3871 
 4579000    0.5167934   -8.8802531    533.68916 0.0097126221 0.0077823602         3848 
 4580000   0.52395802   -8.9032625    533.78455 0.0097122371 0.0077793663         3855 
 4581000   0.51308355   -8.9040214    534.42174 0.0097217081 0.0077763763         3855 
 4582000   0.51307577   -8.8928404     534.3332 0.0097179761 0.0077733884         3868 
 4583000   0.52629761   -8.8923592    534.45605 0.0097180894 0.0077704002         3832 
 4584000   0.51572937   -8.8997732    534.45168   0.00971589 0.0077674135         3866 
 4585000   0.51764971   -8.9046154    533.91278 0.0097039764 0.0077644282         3868 
 4586000   0.53194186   -8.8757223    534.01338 0.0097036884 0.0077614464         3842 
 4587000   0.52899853   -8.8921987    533.77705 0.0096972794 0.0077584665         3852 
 4588000   0.51618189   -8.8975953    533.76491 0.0096949453 0.0077554865         3843 
 4589000   0.52927703   -8.8994541    534.02675 0.0096975875 0.0077525093         3855 
 4590000   0.53081697    -8.898432    534.25349 0.0096995913 0.0077495355         3838 
 4591000   0.52034149   -8.8930408    533.71567 0.0096877164 0.0077465602         3853 
 4592000   0.52253987   -8.8863967     533.8504 0.0096880518 0.0077435892         3824 
 4593000   0.51775422   -8.8936506      534.711 0.0097015567 0.0077406185         3845 
 4594000   0.51839373    -8.905315    534.02386 0.0096869806 0.0077376497         3854 
 4595000   0.51871806   -8.8993913    534.09774 0.0096862122 0.0077346814         3877 
 4596000   0.52206311   -8.8920418    533.09207 0.0096658702 0.0077317161         3861 
 4597000   0.51636922   -8.8828381    534.01352 0.0096804713  0.007728751         3855 
 4598000   0.50867988   -8.8890399    533.54545 0.0096698827 0.0077257889         3853 
 4599000   0.51680997    -8.899899    534.09454 0.0096777296 0.0077228257         3849 
 4600000   0.52339088   -8.8951699    534.92231 0.0096906216 0.0077198646         3859 
 4601000   0.50931763   -8.8894112    534.10915 0.0096737873 0.0077169043         3843 
 4602000   0.49793355     -8.89399     533.9843 0.0096694245 0.0077139484         3843 
 4603000   0.51008481   -8.9031085    533.52003 0.0096589186 0.0077109922         3860 
 4604000   0.50777144   -8.8910982    533.96303 0.0096648392 0.0077080372         3854 
 4605000   0.52721589   -8.8861197    533.19058 0.0096487619 0.0077050843         3833 
 4606000   0.50444119   -8.8970808     534.2507  0.009665847 0.0077021338         3866 
 4607000   0.51095501   -8.9000492    534.38017 0.0096660909  0.007699184         3857 
 4608000   0.50478886   -8.8968182     533.8817 0.0096549786 0.0076962358         3860 
 4609000   0.52009935   -8.9065629    534.32458 0.0096608914 0.0076932921         3870 
 4610000   0.50740132   -8.9043062      533.112 0.0096368764 0.0076903465         3862 
 4611000   0.51582925    -8.894268    534.76753 0.0096647064 0.0076874011         3874 
 4612000    0.5010632   -8.8916452     534.0723 0.0096500488  0.007684457         3866 
 4613000   0.51740915   -8.8878262    533.97885 0.0096462687 0.0076815182         3828 
 4614000   0.51582144   -8.8900594     533.1144 0.0096285652 0.0076785801         3867 
 4615000     0.515884   -8.8844699    535.31914   0.00966629 0.0076756419         3852 
 4616000   0.51812358   -8.9098346    534.00752 0.0096405171 0.0076727055         3831 
 4617000   0.51894461   -8.9119188    533.65379 0.0096320445 0.0076697723         3828 
 4618000   0.50970187   -8.8950806    534.49142 0.0096450741 0.0076668387         3825 
 4619000   0.50701666    -8.905216    533.84661 0.0096313525 0.0076639072         3878 
 4620000   0.50786665   -8.8900695    534.32951 0.0096379782  0.007660976         3853 
 4621000   0.52394196   -8.8820834    533.90007 0.0096281481 0.0076580463         3863 
 4622000   0.51581629   -8.8905712    533.42372 0.0096174766 0.0076551196         3847 
 4623000   0.51856713   -8.8918085     534.5029 0.0096348493 0.0076521933         3839 
 4624000   0.51284374   -8.8918507    533.04955 0.0096065736 0.0076492702         3829 
 4625000   0.51341994   -8.8950801    534.36814 0.0096282548 0.0076463468         3869 
 4626000   0.51290745   -8.8905109    534.18725 0.0096229149 0.0076434252         3841 
 4627000    0.5027562   -8.9010893    533.27688 0.0096044392 0.0076405052         3882 
 4628000   0.51740424   -8.8899322    534.15769 0.0096182239 0.0076375878         3883 
 4629000   0.50477391    -8.900334    534.18618 0.0096166591 0.0076346694         3863 
 4630000   0.50846632   -8.9060937    534.26372 0.0096159776 0.0076317536         3845 
 4631000    0.5199229   -8.9145107    534.19176 0.0096126063 0.0076288392         3854 
 4632000    0.5160328   -8.9050373    533.88522 0.0096050162  0.007625928         3879 
 4633000   0.51652281   -8.8914321    533.69801 0.0095995757 0.0076230165         3856 
 4634000   0.50638347   -8.8933394    533.81168 0.0095995482 0.0076201083         3855 
 4635000    0.5054255   -8.9032573    533.44576 0.0095908983  0.007617201         3837 
 4636000   0.50911153   -8.8971179    534.11563 0.0096008705 0.0076142949         3872 
 4637000   0.51101111   -8.9125583    533.40066  0.009585951 0.0076113893         3883 
 4638000   0.51524848   -8.8916279    533.41069 0.0095840644 0.0076084839         3859 
 4639000   0.50765452   -8.8961369    534.45156 0.0096006962 0.0076055802         3842 
 4640000   0.50940108   -8.9033157    534.21502  0.009594379 0.0076026801         3862 
 4641000   0.51130447    -8.905221    533.47651 0.0095790511 0.0075997776         3829 
 4642000   0.51397632   -8.8925224    533.92742 0.0095850821 0.0075968816         3849 
 4643000   0.51789248   -8.9101888    534.40464  0.009591583 0.0075939844         3856 
 4644000   0.51307974   -8.9047252    534.03169 0.0095828253 0.0075910886         3855 
 4645000   0.50918472   -8.9063051     533.2244 0.0095662792 0.0075881947         3862 
 4646000   0.51701043    -8.910523    533.97109 0.0095776132 0.0075853061         3865 
 4647000   0.50978164   -8.9072603    533.17112 0.0095612065 0.0075824142         3833 
 4648000   0.51779499   -8.9078701    533.54346 0.0095658251 0.0075795247         3875 
 4649000   0.51190441   -8.9018265    534.08682 0.0095735073 0.0075766385         3851 
 4650000   0.51358766   -8.9006476    533.50489 0.0095610196 0.0075737542         3843 
 4651000   0.51933482   -8.9036725    533.52382  0.009559303 0.0075708682         3844 
 4652000    0.5047295   -8.8986521    534.36094 0.0095722438 0.0075679862         3865 
 4653000   0.50741325   -8.9009855    533.46925 0.0095542169 0.0075651068         3828 
 4654000   0.50359861   -8.9293211     533.5027 0.0095527628 0.0075622263         3868 
 4655000   0.49988697   -8.8993281    534.17766 0.0095627938 0.0075593479         3836 
 4656000   0.50553121   -8.9037275    534.65848 0.0095693457 0.0075564711         3865 
 4657000   0.51570188   -8.9134979    534.16588  0.009558476 0.0075535954         3872 
 4658000   0.50791758   -8.9054549    533.76458 0.0095492446 0.0075507221         3885 
 4659000   0.52248625   -8.9129707    534.06279 0.0095525289 0.0075478507         3824 
 4660000   0.51922085   -8.9012276    533.57225 0.0095417069  0.007544981         3865 
 4661000   0.49969389   -8.9069761    534.12034  0.009549459 0.0075421115         3871 
 4662000   0.49509011   -8.9109711    534.12805 0.0095475484 0.0075392419         3864 
 4663000   0.50514419   -8.9069075     534.0502 0.0095441097 0.0075363753         3853 
 4664000   0.50488963   -8.9164339    533.32372  0.009529083  0.007533509         3866 
 4665000   0.50671261    -8.918356    533.15932 0.0095241037  0.007530643         3860 
 4666000   0.50036989    -8.893205    533.67153 0.0095312103 0.0075277793         3836 
 4667000   0.50780015   -8.9089426    533.80076 0.0095314756 0.0075249185         3844 
 4668000   0.50173421   -8.9059272    533.33657  0.009521147 0.0075220593         3873 
 4669000   0.49971718   -8.9219075    533.44942  0.009521122 0.0075191999         3856 
 4670000   0.51334321   -8.9092466    534.14109 0.0095314256 0.0075163435         3850 
 4671000   0.50720726   -8.9148093    532.76978 0.0095049201 0.0075134885         3843 
 4672000   0.49992079   -8.9111127    533.20062 0.0095105703 0.0075106359         3878 
 4673000   0.49848228   -8.8972957    533.85286 0.0095201665 0.0075077846         3857 
 4674000   0.50123731   -8.9081019    534.13052 0.0095230801 0.0075049335         3843 
 4675000    0.5088757   -8.9409672    533.57457 0.0095111331 0.0075020842         3852 
 4676000   0.50411636   -8.9121647    532.77031  0.009494766 0.0074992352         3851 
 4677000    0.5048634   -8.8993994    533.98354 0.0095143528 0.0074963916         3838 
 4678000   0.49457807   -8.9052198     533.1387 0.0094972691 0.0074935473         3862 
 4679000    0.5016761   -8.9132927    532.93031  0.009491528 0.0074907058         3864 
 4680000   0.50272715   -8.9189506    533.47344 0.0094991709 0.0074878635         3840 
 4681000   0.49284433   -8.9157844    533.19814 0.0094922406 0.0074850213         3877 
 4682000   0.48985693   -8.9313203    533.81062 0.0095011146 0.0074821802         3868 
 4683000   0.49822093   -8.9126263    533.66025   0.00949641 0.0074793405         3827 
 4684000   0.50594221   -8.9071891    533.69752 0.0094950456 0.0074765067         3862 
 4685000   0.52089009   -8.9159671    533.36242 0.0094870584 0.0074736724         3835 
 4686000   0.49509863   -8.9092692      533.318 0.0094842439 0.0074708399         3883 
 4687000   0.50457128   -8.9035373    534.27394 0.0094992166  0.007468008         3830 
 4688000   0.49896091   -8.9019688    533.91151 0.0094907479 0.0074651777         3856 
 4689000   0.50743035   -8.9165788    533.69321 0.0094848441 0.0074623487         3841 
 4690000   0.50436612   -8.8997186    533.88183 0.0094861733 0.0074595194         3855 
 4691000   0.50181203    -8.933018    533.39052 0.0094754231 0.0074566938         3859 
 4692000   0.50337702   -8.9077302    533.14971 0.0094691267 0.0074538678         3834 
 4693000   0.49879534    -8.926949    533.52677 0.0094738044 0.0074510441         3850 
 4694000   0.49477785   -8.9144128    532.76086 0.0094581889 0.0074482218         3872 
 4695000   0.50374563   -8.9292569    533.14202 0.0094629396 0.0074454011         3868 
 4696000   0.49688185   -8.9096738    533.06572 0.0094595706 0.0074425812         3821 
 4697000   0.50782733    -8.919685    533.12028 0.0094585246 0.0074397646         3870 
 4698000   0.49940952   -8.9032508    533.30486 0.0094597855 0.0074369456         3845 
 4699000   0.49858455   -8.9168971    533.54327 0.0094620002 0.0074341296         3860 
 4700000   0.49963633   -8.8973847    533.61791 0.0094613104 0.0074313152         3846 
 4701000   0.51142806   -8.9081001    533.98136 0.0094657407 0.0074285019         3848 
 4702000   0.50604414   -8.9214823    533.26524 0.0094510357 0.0074256923         3865 
 4703000   0.49755686   -8.9261465    533.11492 0.0094463627 0.0074228818         3845 
 4704000   0.49418317   -8.9313274    533.09349 0.0094439748 0.0074200731         3834 
 4705000   0.50480739   -8.9186128    533.71165 0.0094529162 0.0074172671         3853 
 4706000   0.50559743   -8.8927195    533.08167 0.0094397518  0.007414462         3870 
 4707000   0.50946417   -8.9266496    531.97597 0.0094181709 0.0074116575         3869 
 4708000    0.4985642   -8.9176646      533.162 0.0094371637 0.0074088568         3854 
 4709000   0.51338909    -8.924724    532.31305  0.009420136 0.0074060557         3843 
 4710000   0.49321824   -8.9245297    532.45244 0.0094206023 0.0074032562         3852 
 4711000   0.49625114   -8.9070017    533.57871 0.0094385252 0.0074004596         3837 
 4712000   0.49046235   -8.9197644    533.49098 0.0094349707 0.0073976642         3870 
 4713000   0.51277729   -8.9190823    533.08012 0.0094257041 0.0073948675         3860 
 4714000   0.49959482   -8.9063327    532.63773 0.0094158841 0.0073920759         3851 
 4715000   0.49602749   -8.9327719    533.38938 0.0094271718 0.0073892857         3860 
 4716000   0.49957745   -8.9267022    533.21462 0.0094220848 0.0073864937         3853 
 4717000   0.48997304   -8.9212284    533.17012 0.0094193011 0.0073837039         3848 
 4718000   0.49095788   -8.9200976    533.30166 0.0094196281 0.0073809152         3834 
 4719000   0.48874431   -8.9251061    533.81415  0.009426682 0.0073781286         3868 
 4720000   0.49742634   -8.9227408     533.0927 0.0094119474 0.0073753434         3842 
 4721000   0.50372532   -8.9364528    534.03605 0.0094266054 0.0073725593         3838 
 4722000    0.4987103   -8.9242579    533.06787 0.0094075228  0.007369778         3859 
 4723000   0.49669626   -8.9299332    533.90019 0.0094202165 0.0073669963         3867 
 4724000   0.49581225   -8.9349939    533.36903 0.0094088524  0.007364218         3884 
 4725000   0.48640826   -8.9308863    532.93198  0.009399153 0.0073614396         3852 
 4726000   0.49105549   -8.9196351    533.42908 0.0094059295 0.0073586621         3872 
 4727000   0.50132543   -8.9181717    533.08122 0.0093978072  0.007355887         3861 
 4728000   0.48701924    -8.918753    533.58549 0.0094047075 0.0073531151         3840 
 4729000   0.48972796   -8.9400244    533.20933 0.0093960903 0.0073503437         3872 
 4730000   0.48523851   -8.9232425     533.2093 0.0093941033 0.0073475732         3851 
 4731000   0.48685299   -8.9335347    533.32164 0.0093940964 0.0073448024         3855 
 4732000   0.48917907   -8.9485559    533.14907 0.0093890721 0.0073420327         3869 
 4733000   0.49641543   -8.9180658    533.01833 0.0093847864 0.0073392662         3850 
 4734000   0.49778567    -8.924054    533.03566 0.0093831091 0.0073364988         3852 
 4735000   0.49857466     -8.92793    533.64323 0.0093918204 0.0073337343         3869 
 4736000   0.49254245   -8.9322554    533.31297 0.0093840262 0.0073309734         3882 
 4737000   0.49094173   -8.9201369    533.65891 0.0093881309 0.0073282112         3860 
 4738000   0.49931779   -8.9210489    533.23261 0.0093786514 0.0073254511         3857 
 4739000   0.49566784   -8.9323087    533.53403 0.0093819729 0.0073226925         3870 
 4740000   0.49960913   -8.9349161    533.55553 0.0093803714 0.0073199362         3872 
 4741000   0.49845428   -8.9257166    533.41765 0.0093759694 0.0073171812         3852 
 4742000   0.49961388   -8.9242059     533.6854 0.0093786975 0.0073144263         3850 
 4743000   0.49044324   -8.9197271    533.30683 0.0093700687 0.0073116734         3864 
 4744000   0.49729044   -8.9327945    533.89561 0.0093784361 0.0073089217         3852 
 4745000   0.48762243    -8.931576    532.91536 0.0093592441 0.0073061722         3876 
 4746000   0.48962265   -8.9313575    533.16069 0.0093615798 0.0073034219         3892 
 4747000   0.49377758   -8.9196302     532.6099 0.0093499385  0.007300674         3870 
 4748000   0.48120257   -8.9240043    532.81423 0.0093515556 0.0072979292         3864 
 4749000   0.48712153   -8.9479622    532.90557 0.0093511892  0.007295184         3870 
 4750000   0.48866327   -8.9248559    534.16498 0.0093713155 0.0072924404         3860 
 4751000   0.48376344   -8.9187841    532.84374 0.0093461681 0.0072896975         3865 
 4752000   0.48801333   -8.9381672    532.02098 0.0093297731 0.0072869551         3854 
 4753000   0.49193708   -8.9253647    533.04819 0.0093458201 0.0072842125         3864 
 4754000   0.48168664     -8.93573    533.42282 0.0093504211 0.0072814727         3869 
 4755000   0.48576857   -8.9327524    533.15262 0.0093437193 0.0072787362         3882 
 4756000   0.48673419   -8.9199153    534.02882 0.0093571071  0.007276003         3849 
 4757000   0.48720677   -8.9329889    532.52662 0.0093288246 0.0072732686         3863 
 4758000   0.49245969   -8.9280257    532.96671 0.0093345717 0.0072705359         3845 
 4759000   0.48207084   -8.9130279    533.54342 0.0093427089 0.0072678033         3864 
 4760000   0.48527455   -8.9146949     533.8157 0.0093455129 0.0072650734         3873 
 4761000   0.48607877   -8.9448932    532.79661 0.0093257125 0.0072623432         3876 
 4762000   0.49267754   -8.9270153    532.31826 0.0093153833 0.0072596176         3830 
 4763000    0.4844743   -8.9419271    532.90419 0.0093236789 0.0072568938         3865 
 4764000   0.47668742   -8.9305716    532.93321 0.0093222293 0.0072541699         3867 
 4765000   0.48501623   -8.9344955    532.96567 0.0093208406 0.0072514469         3841 
 4766000   0.48800734   -8.9388902    533.05956 0.0093205267 0.0072487259         3860 
 4767000   0.48171698   -8.9582463    532.65414 0.0093114842 0.0072460063         3867 
 4768000   0.49533023   -8.9404321    533.51971 0.0093246594 0.0072432861         3871 
 4769000   0.48583613    -8.921103    533.14671 0.0093161862 0.0072405682         3870 
 4770000   0.47810513   -8.9221872    533.66909 0.0093233594 0.0072378518         3877 
 4771000    0.4928899   -8.9414153    533.07417 0.0093110139 0.0072351374         3862 
 4772000   0.49969672   -8.9353774    532.76241 0.0093036185 0.0072324207         3852 
 4773000   0.49830604   -8.9476564     533.0849 0.0093072998 0.0072297073         3848 
 4774000   0.48509949   -8.9324086    533.00925 0.0093040296 0.0072269962         3877 
 4775000   0.48542491   -8.9314318    533.11659 0.0093039545 0.0072242859         3859 
 4776000   0.48956368   -8.9284306    532.76275 0.0092958325 0.0072215808         3838 
 4777000   0.48757145   -8.9428559    532.64839 0.0092918916 0.0072188746         3866 
 4778000   0.49678532   -8.9258828    532.57382 0.0092886463 0.0072161699         3851 
 4779000   0.48829187   -8.9392834     532.6244 0.0092875846 0.0072134663         3862 
 4780000   0.48719132   -8.9333232    532.55701 0.0092844667 0.0072107661         3853 
 4781000   0.47617586   -8.9312376    533.33541 0.0092960923 0.0072080639         3876 
 4782000   0.48299645   -8.9388704    532.85485 0.0092857739 0.0072053666         3862 
 4783000   0.49359926    -8.925526    533.30016 0.0092915911 0.0072026687         3842 
 4784000   0.48631969   -8.9421931    532.43545 0.0092745863  0.007199972         3884 
 4785000   0.49312815   -8.9387342    532.41345 0.0092722649 0.0071972786         3876 
 4786000   0.49636743    -8.939905    533.29812 0.0092857313 0.0071945857         3873 
 4787000   0.48848036   -8.9532023    532.56622 0.0092710505 0.0071918928         3885 
 4788000   0.47061306   -8.9508906    533.09455 0.0092783095 0.0071892015         3859 
 4789000   0.49244085   -8.9539495    533.14794 0.0092773011 0.0071865126         3864 
 4790000   0.48612385   -8.9254848    532.58298 0.0092655354 0.0071838233         3860 
 4791000   0.49513275   -8.9345151    532.16214 0.0092562816 0.0071811358         3873 
 4792000   0.48512163   -8.9353621    532.44597 0.0092592857 0.0071784476         3874 
 4793000   0.47537101   -8.9480505    533.55481 0.0092766328 0.0071757629         3870 
 4794000   0.47227634   -8.9580722    532.71399 0.0092600819 0.0071730789         3886 
 4795000   0.48808136   -8.9419512    532.73905 0.0092585862 0.0071703962         3869 
 4796000   0.49170469   -8.9411212    533.08301 0.0092626322 0.0071677155         3859 
 4797000   0.48583558   -8.9466323    532.85762 0.0092567858 0.0071650363         3864 
 4798000   0.48325628    -8.943287    532.20522 0.0092435254  0.007162359         3846 
 4799000   0.49759263   -8.9497659    532.49095 0.0092465609 0.0071596811         3878 
 4800000   0.48389628   -8.9263085    532.94773 0.0092525648  0.007157004         3861 
 4801000   0.48297112   -8.9373103    533.11519 0.0092535442 0.0071543293         3841 
 4802000    0.4796444   -8.9338758    533.15706 0.0092523439 0.0071516577         3857 
 4803000   0.49310659   -8.9440122    532.48055 0.0092386799 0.0071489853         3849 
 4804000   0.48554711   -8.9210288    532.38937 0.0092351751 0.0071463166         3867 
 4805000   0.47650503   -8.9388103     533.2454 0.0092480991   0.00714365         3858 
 4806000   0.48320454   -8.9412041    532.86548 0.0092395873 0.0071409817         3861 
 4807000   0.47741483   -8.9406988    531.82954 0.0092197064 0.0071383149         3864 
 4808000   0.47771124   -8.9426168    532.86406 0.0092357193 0.0071356501         3868 
 4809000   0.47275442   -8.9498234    533.61385 0.0092467916 0.0071329868         3853 
 4810000   0.48360458   -8.9435316    532.82098 0.0092311328 0.0071303251         3849 
 4811000   0.49422441   -8.9633678    532.51144 0.0092238522  0.007127664         3856 
 4812000   0.48509897   -8.9564564    532.92344 0.0092290704  0.007125005         3839 
 4813000   0.47928161   -8.9333305    533.48056 0.0092367989 0.0071223477         3866 
 4814000   0.48023054   -8.9396584    533.06785 0.0092277359 0.0071196912         3867 
 4815000   0.48146545   -8.9522247    532.08011 0.0092087247  0.007117035         3880 
 4816000    0.4673489    -8.953689     533.0432 0.0092234774 0.0071143804         3897 
 4817000   0.47119362   -8.9498538    532.75052 0.0092164992 0.0071117279         3873 
 4818000   0.48106461   -8.9377063    533.46436  0.009226933 0.0071090769         3880 
 4819000   0.48177292   -8.9369297    533.29669 0.0092221188 0.0071064253         3880 
 4820000   0.47792637   -8.9406437    532.82897 0.0092121191 0.0071037763         3871 
 4821000   0.49095459   -8.9440902    532.79138 0.0092095586 0.0071011302         3832 
 4822000   0.48397661   -8.9562099    531.98072 0.0091936388  0.007098485         3872 
 4823000   0.48374553   -8.9553286    533.00936 0.0092095059 0.0070958407         3850 
 4824000   0.48042746   -8.9593806    532.37549 0.0091966467 0.0070931972         3871 
 4825000   0.48292991   -8.9619396    533.02376 0.0092059371  0.007090556         3881 
 4826000    0.4710547   -8.9568866    532.88031 0.0092015525  0.007087916         3877 
 4827000   0.48142907   -8.9621624    532.73043 0.0091970588 0.0070852751         3869 
 4828000    0.4710821   -8.9461751    532.32535 0.0091881619 0.0070826375         3860 
 4829000   0.47819574   -8.9557415    532.87985 0.0091958282 0.0070800016         3864 
 4830000   0.48201556    -8.945125    532.55562 0.0091883303 0.0070773669         3849 
 4831000   0.48415909    -8.941575    532.50014 0.0091854712  0.007074734         3855 
 4832000    0.4765428   -8.9457254     533.0819 0.0091936034 0.0070720996         3876 
 4833000   0.47237284   -8.9420255    532.66631 0.0091845354 0.0070694657         3874 
 4834000   0.48146886   -8.9409897    532.80871 0.0091850901 0.0070668365         3873 
 4835000   0.48508801   -8.9551155    531.52408 0.0091610492 0.0070642073         3884 
 4836000   0.48935573   -8.9421933    532.47912 0.0091756121 0.0070615787         3842 
 4837000   0.47687599   -8.9549446    532.46828 0.0091735283 0.0070589522         3846 
 4838000   0.46759254   -8.9584247    533.19574 0.0091841626 0.0070563274         3855 
 4839000   0.48296434    -8.955562    533.30712 0.0091841827 0.0070537011         3880 
 4840000   0.47259858   -8.9547403    532.48121 0.0091680649 0.0070510785         3853 
 4841000   0.47337704   -8.9507315    532.14692 0.0091604166 0.0070484583         3863 
 4842000   0.48859084   -8.9520192    532.39952  0.009162872 0.0070458393         3864 
 4843000   0.48250514   -8.9424888    532.85583 0.0091688319 0.0070432196         3889 
 4844000   0.46983634   -8.9595739    533.41589 0.0091765739 0.0070406041         3859 
 4845000   0.47999615   -8.9584972    532.61271 0.0091608654 0.0070379868         3859 
 4846000   0.47583925   -8.9512005     531.8518 0.0091458901 0.0070353736         3862 
 4847000   0.47871409   -8.9507952    531.99855 0.0091465263 0.0070327597         3867 
 4848000   0.47116455   -8.9665656    532.26374  0.009149198 0.0070301465         3868 
 4849000   0.48737804   -8.9488813    532.71049 0.0091549889 0.0070275353         3840 
 4850000   0.48073318   -8.9452542    531.87919 0.0091388177 0.0070249248         3868 
 4851000   0.47400906   -8.9563387    532.59966 0.0091493104 0.0070223161         3864 
 4852000   0.47389986   -8.9521087    533.43988 0.0091618556 0.0070197101         3862 
 4853000   0.46326387   -8.9488294    532.28989 0.0091402206 0.0070171057         3851 
 4854000   0.46393702   -8.9487845    532.79757 0.0091470534 0.0070145018         3880 
 4855000   0.47926481   -8.9537359    532.90693 0.0091470465 0.0070118997         3880 
 4856000   0.47214503   -8.9546832    531.93714 0.0091285204 0.0070092975         3859 
 4857000   0.48516945   -8.9457261    532.84321 0.0091421868 0.0070066997         3883 
 4858000   0.47841505   -8.9452383    532.76528 0.0091389679 0.0070041019         3855 
 4859000    0.4777756   -8.9517132    532.75897 0.0091369789 0.0070015038         3880 
 4860000   0.47139174   -8.9384417    532.68028 0.0091337496 0.0069989064         3882 
 4861000   0.46847224   -8.9447211    532.34763 0.0091261679 0.0069963095         3871 
 4862000   0.47821397   -8.9472613    532.59862 0.0091285929 0.0069937155         3873 
 4863000   0.46832961   -8.9442465    532.08195 0.0091178619 0.0069911235         3877 
 4864000   0.47513317   -8.9553089     531.2887 0.0091023969 0.0069885307         3892 
 4865000   0.46961302   -8.9590068    532.79884 0.0091263933   0.00698594         3863 
 4866000   0.48285806   -8.9342046    532.74356  0.009123571 0.0069833535         3866 
 4867000   0.47428567   -8.9589891    532.53847 0.0091181848 0.0069807665         3898 
 4868000   0.47509705   -8.9461041     532.1762 0.0091101102 0.0069781782         3872 
 4869000   0.47070118   -8.9591922     532.0066 0.0091053364 0.0069755943         3848 
 4870000    0.4787416   -8.9583041    532.16674  0.009106207 0.0069730114         3859 
 4871000   0.46949974   -8.9585862    532.10824 0.0091033368 0.0069704272         3882 
 4872000   0.46932164   -8.9578766     532.3035 0.0091048081 0.0069678466         3872 
 4873000   0.47049164    -8.973821    531.93497 0.0090966374 0.0069652659         3877 
 4874000   0.47056372   -8.9596643     531.4206 0.0090859766 0.0069626883         3862 
 4875000   0.46664647    -8.956938    531.81221  0.009090807 0.0069601128         3888 
 4876000   0.48189965   -8.9504641    532.44801 0.0090998088 0.0069575364         3873 
 4877000   0.46239385   -8.9538073    532.35944 0.0090964295 0.0069549617         3870 
 4878000   0.47899986   -8.9478293    532.38767  0.009095047 0.0069523873         3853 
 4879000   0.45912915   -8.9582591    532.03375 0.0090871379 0.0069498157         3871 
 4880000   0.47176533   -8.9553932    532.35927 0.0090908346 0.0069472457         3871 
 4881000   0.48038639   -8.9642272    532.96667 0.0090993423  0.006944676         3861 
 4882000   0.47458759   -8.9546169     532.3908 0.0090876485  0.006942107         3862 
 4883000   0.46853658   -8.9620669    532.26671 0.0090836697 0.0069395405         3877 
 4884000   0.47800813    -8.953574    532.66285  0.009088569 0.0069369753         3856 
 4885000   0.46896404   -8.9595991    531.46222 0.0090662269  0.006934413         3882 
 4886000   0.46768458   -8.9508434     532.4648 0.0090814709 0.0069318506         3864 
 4887000   0.46697098   -8.9595735    532.13204 0.0090739384 0.0069292876         3884 
 4888000   0.47200082   -8.9665549    532.35917 0.0090759542  0.006926725         3877 
 4889000    0.4669686   -8.9590737    531.95919 0.0090672801 0.0069241661         3861 
 4890000   0.46502412   -8.9675147    531.13912 0.0090514506 0.0069216063         3873 
 4891000   0.48078734   -8.9631016    531.78334 0.0090605762 0.0069190502         3864 
 4892000   0.46093317   -8.9552302    532.51029 0.0090711074  0.006916493         3879 
 4893000   0.45613802   -8.9547611    532.38686 0.0090671514 0.0069139392         3869 
 4894000   0.46823534   -8.9703633    532.23723 0.0090627508 0.0069113853         3874 
 4895000   0.46636442    -8.973758    532.14092 0.0090592599 0.0069088338         3891 
 4896000   0.46829251    -8.970255    532.64895 0.0090660565 0.0069062813         3876 
 4897000   0.47304144   -8.9546229    532.45464 0.0090608986 0.0069037309         3869 
 4898000   0.45665513   -8.9642313    532.14221 0.0090537329 0.0069011815         3857 
 4899000   0.46390982   -8.9695683    532.59793 0.0090596369 0.0068986348         3875 
 4900000   0.46728401   -8.9634412    532.01345 0.0090478478 0.0068960892         3861 
 4901000   0.46160784   -8.9664197    532.23699 0.0090498026  0.006893545         3868 
 4902000   0.46355137   -8.9533049    533.02358 0.0090613284     0.006891         3877 
 4903000   0.46608969   -8.9789105    531.99857 0.0090420588 0.0068884588         3886 
 4904000    0.4591109   -8.9650985    531.92313 0.0090389329 0.0068859195         3899 
 4905000   0.46730879   -8.9552526    532.41757 0.0090454906 0.0068833804         3852 
 4906000   0.47701406   -8.9614313     532.3395 0.0090423207 0.0068808419         3875 
 4907000   0.46638368   -8.9636953    532.34609 0.0090405898 0.0068783039         3882 
 4908000   0.47182413   -8.9716917    531.92959  0.009031676 0.0068757685         3876 
 4909000   0.46715759   -8.9535405    532.18212 0.0090341231 0.0068732329         3878 
 4910000   0.46368443    -8.957189    532.58526 0.0090391252 0.0068706999         3872 
 4911000   0.47226601   -8.9656964     532.7132 0.0090394557 0.0068681671         3842 
 4912000   0.46323186   -8.9797157    532.01288 0.0090257343  0.006865637         3874 
 4913000   0.44579876   -8.9693894     532.7025 0.0090355943 0.0068631072         3865 
 4914000   0.46811638   -8.9803238    531.64639 0.0090158457 0.0068605776         3854 
 4915000   0.46962316    -8.969644     532.7664  0.009033001 0.0068580502         3881 
 4916000   0.45772619   -8.9601799    532.67319 0.0090295836 0.0068555253         3857 
 4917000   0.47193104   -8.9676513    532.04711 0.0090171363 0.0068530018         3868 
 4918000   0.46439349   -8.9723979    532.71438 0.0090266094 0.0068504793         3851 
 4919000   0.46141176   -8.9602741    531.68646 0.0090073602 0.0068479584         3880 
 4920000   0.47289132    -8.962815    532.42192 0.0090179864  0.006845439         3874 
 4921000    0.4631301   -8.9783257    530.78092 0.0089883649 0.0068429187         3865 
 4922000   0.47079397   -8.9552483    532.19734 0.0090105198 0.0068404003         3836 
 4923000   0.46650868   -8.9608728    532.40066 0.0090121312 0.0068378846         3868 
 4924000   0.46415811   -8.9680388    532.05984 0.0090045329 0.0068353676         3873 
 4925000   0.46160237   -8.9736141    532.34913 0.0090075996 0.0068328558         3884 
 4926000   0.45029332   -8.9712236     531.9773 0.0089994806 0.0068303437         3855 
 4927000   0.45665402   -8.9586936    532.15516 0.0090006624 0.0068278318         3864 
 4928000    0.4740462   -8.9704735    531.95352 0.0089954261 0.0068253227         3860 
 4929000   0.45437568   -8.9666043    531.93293  0.008993253 0.0068228148         3891 
 4930000   0.46224792   -8.9620964    532.46945 0.0090004977 0.0068203065         3869 
 4931000   0.46081644   -8.9683948    532.71094 0.0090027536 0.0068177984         3887 
 4932000   0.46308289   -8.9619301    531.17944 0.0089750514 0.0068152915         3860 
 4933000   0.47066352    -8.963771    531.67737 0.0089816435 0.0068127879         3863 
 4934000     0.468154   -8.9682042    531.85135 0.0089827616 0.0068102849         3868 
 4935000   0.45731427   -8.9760912    532.21369   0.00898706 0.0068077825         3851 
 4936000   0.44623066   -8.9607992    531.36158 0.0089708532 0.0068052821         3871 
 4937000   0.47189066   -8.9675824    531.97149 0.0089793311 0.0068027825         3890 
 4938000   0.46263255   -8.9765339    531.20804 0.0089646286 0.0068002838         3870 
 4939000   0.47042674   -8.9778342    531.92873 0.0089749735 0.0067977864         3862 
 4940000   0.45534551     -8.96033    532.26723 0.0089788669 0.0067952891         3870 
 4941000    0.4648977   -8.9670179    531.76722 0.0089686167 0.0067927934         3865 
 4942000   0.46279203   -8.9593659    532.62414 0.0089812515 0.0067903001         3853 
 4943000   0.46775665    -8.977948    532.43684 0.0089762768 0.0067878068         3874 
 4944000   0.45478857   -8.9703956    532.06342 0.0089681672  0.006785316         3885 
 4945000   0.46769557    -8.964887    531.14591 0.0089508916 0.0067828261         3871 
 4946000   0.46766024   -8.9712944    532.14974 0.0089659952  0.006780337         3871 
 4947000   0.45991986   -8.9637457    531.96784 0.0089611184 0.0067778494         3853 
 4948000   0.45794263   -8.9692485    532.09163 0.0089613923 0.0067753626         3880 
 4949000   0.46087411   -8.9762058    530.95337  0.008940415  0.006772877         3897 
 4950000   0.46120805   -8.9749615    531.67513 0.0089507598 0.0067703925         3862 
 4951000   0.46633093   -8.9861096    531.60129  0.008947709 0.0067679086         3857 
 4952000   0.46295653   -8.9840313     531.6445 0.0089466292 0.0067654277         3856 
 4953000   0.45957344    -8.972507    532.09026 0.0089523228 0.0067629485         3866 
 4954000   0.45496436   -8.9807794    531.64009 0.0089429432 0.0067604703         3867 
 4955000   0.45539298    -8.979613     531.7273 0.0089426051 0.0067579927         3854 
 4956000   0.45947407   -8.9750049    531.49692 0.0089369269 0.0067555152         3855 
 4957000   0.45219765   -8.9780916    532.56895 0.0089531463   0.00675304         3867 
 4958000   0.46417682   -8.9690808    532.54487 0.0089509357 0.0067505663         3841 
 4959000   0.46754929   -8.9826688    532.06344 0.0089410405 0.0067480932         3865 
 4960000   0.44903209   -8.9812434    530.95227  0.008920569 0.0067456229         3884 
 4961000   0.45729595   -8.9756142    531.94919 0.0089355168 0.0067431514         3884 
 4962000   0.46239519   -8.9718513    531.32658 0.0089232597 0.0067406818         3868 
 4963000   0.45748925   -8.9676421    531.56554 0.0089254741 0.0067382149         3858 
 4964000    0.4657956   -8.9730262    531.61741 0.0089245469 0.0067357508         3870 
 4965000   0.46601608   -8.9690179    531.46869 0.0089202533 0.0067332841         3864 
 4966000   0.45410386   -8.9797311    531.40094 0.0089173201 0.0067308203         3857 
 4967000   0.45206307   -8.9706401    531.87425 0.0089234658 0.0067283564         3878 
 4968000   0.45093792   -8.9830788    531.94022 0.0089227761 0.0067258956         3876 
 4969000   0.44891512   -8.9828248    531.86103 0.0089196523 0.0067234353         3875 
 4970000   0.45021501   -8.9904311    531.96434 0.0089195898 0.0067209758         3875 
 4971000   0.44770412   -8.9728251     532.3102 0.0089235935 0.0067185185         3867 
 4972000   0.45067053   -8.9807315    531.63783 0.0089105294 0.0067160623         3871 
 4973000   0.45940022   -8.9834605    531.98244 0.0089145124 0.0067136071         3857 
 4974000    0.4586334   -8.9575913    532.06158 0.0089140461 0.0067111518         3885 
 4975000   0.45038298   -8.9912119    531.10433 0.0088962199 0.0067086984         3879 
 4976000   0.45515066   -8.9795941    531.16889 0.0088955133 0.0067062465         3863 
 4977000     0.454598   -8.9849902    531.62468 0.0089013576 0.0067037968         3884 
 4978000    0.4484912   -8.9960403    531.69186  0.008900694 0.0067013477         3874 
 4979000   0.44146274   -8.9659858    531.39899 0.0088940047 0.0066988998         3877 
 4980000   0.46519684   -8.9789044    531.46407 0.0088933077 0.0066964516         3854 
 4981000   0.45234612   -8.9580215    531.31313  0.008888997 0.0066940047         3860 
 4982000   0.43744896   -8.9817847    531.74933 0.0088945091 0.0066915602         3873 
 4983000   0.46651324     -8.98643    531.39821 0.0088868522 0.0066891165         3857 
 4984000   0.45680825   -8.9918198    531.44448 0.0088858426 0.0066866739         3858 
 4985000   0.45621982   -8.9841632    531.85073 0.0088908515 0.0066842325         3888 
 4986000   0.44926325   -8.9833468     531.6164 0.0088851517  0.006681794         3890 
 4987000   0.45343294   -8.9970837    531.06152 0.0088740979 0.0066793544         3872 
 4988000   0.45870859    -8.970432    531.42366 0.0088783691 0.0066769176         3849 
 4989000   0.45907914   -8.9804402    531.59177 0.0088793974 0.0066744816         3862 
 4990000   0.45031627   -8.9813499    531.03786 0.0088683678 0.0066720481         3866 
 4991000   0.45080875   -8.9771304    531.82423 0.0088797206 0.0066696145         3866 
 4992000   0.46154905   -8.9784312    531.50475 0.0088726087 0.0066671822         3888 
 4993000   0.44636001   -8.9794426    531.34818 0.0088682185 0.0066647492         3886 
 4994000   0.45522392   -8.9927529     531.3972 0.0088672606 0.0066623192         3899 
 4995000   0.45266728   -8.9930843    531.61102 0.0088690527   0.00665989         3878 
 4996000   0.45067342   -8.9700197    531.56635 0.0088665325 0.0066574619         3866 
 4997000   0.45429631   -8.9773851    531.44711 0.0088627695 0.0066550348         3892 
 4998000   0.45895768   -9.0026638    532.09608 0.0088718167 0.0066526092         3871 
 4999000   0.44913097   -8.9762755    531.38345 0.0088581625 0.0066501829         3871 
 5000000   0.45342312   -8.9883653    530.62208 0.0088437013 0.0066477595         3859 
 5001000   0.45072544   -8.9969145    531.23482 0.0088521432 0.0066453375         3880 
 5002000   0.44898724   -9.0003448    531.40491 0.0088532072 0.0066429155         3889 
 5003000   0.45148268   -8.9855223    532.14533 0.0088637706 0.0066404957         3884 
 5004000   0.44853329   -8.9838061    531.05523 0.0088438454 0.0066380776         3857 
 5005000   0.45473336   -8.9790655    531.87907 0.0088557953 0.0066356612         3878 
 5006000   0.45109391     -8.98538    531.73094 0.0088515604 0.0066332462         3867 
 5007000   0.45179151   -8.9839862    531.54133 0.0088466369 0.0066308312         3862 
 5008000    0.4373509   -8.9953338    532.04611   0.00885327 0.0066284162         3837 
 5009000   0.44432998   -8.9917218    531.52065 0.0088427605 0.0066260038         3861 
 5010000   0.44866482   -8.9779254    531.46312 0.0088400385 0.0066235916         3855 
 5011000   0.44946716   -8.9920003    531.47024 0.0088383929 0.0066211809         3861 
 5012000   0.44038939   -8.9897217    531.73912 0.0088411001 0.0066187707         3873 
Loop time of 13418 on 48 procs for 5000000 steps with 4000 atoms

Performance: 64390.954 tau/day, 372.633 timesteps/s
99.4% CPU use with 48 MPI tasks x no OpenMP threads

MPI task timing breakdown:
Section |  min time  |  avg time  |  max time  |%varavg| %total
---------------------------------------------------------------
Pair    | 946.09     | 1082.1     | 1161.7     | 161.3 |  8.06
Neigh   | 95.083     | 98.942     | 102.93     |  19.1 |  0.74
Comm    | 869.91     | 948.97     | 1103       | 175.4 |  7.07
Output  | 18.213     | 18.219     | 18.324     |   0.4 |  0.14
Modify  | 11085      | 11142      | 11204      |  26.0 | 83.04
Other   |            | 127.9      |            |       |  0.95

Nlocal:        83.3333 ave          89 max          77 min
Histogram: 3 3 2 4 10 9 7 1 3 6
Nghost:        2453.02 ave        2484 max        2430 min
Histogram: 1 3 13 8 5 7 4 4 2 1
Neighs:        17131.6 ave       20105 max       14744 min
Histogram: 5 2 9 3 10 7 2 7 2 1
FullNghs:      34287.1 ave       37305 max       31332 min
Histogram: 3 4 3 4 8 10 7 4 4 1

Total # of neighbors = 1645780
Ave neighs/atom = 411.44500
Neighbor list builds = 266147
Dangerous builds = 1

#clear
#
#next RN
#
#jump SELF
Total wall time: 3:43:42
