
units lj                  # Use reduced LJ style units
atom_style atomic         # Uncharged point particles
atom_modify map hash      # Needed for indexing of clusters etc
                          # Used to be able to find where atoms are in relation to each other.

lattice fcc 1.0 spacing 1 1 1
Lattice spacing in x,y,z = 1.5874011 1.5874011 1.5874011
region box block 0 10 0 10 0 10 units lattice
create_box 2 box
Created orthogonal box = (0.0000000 0.0000000 0.0000000) to (15.874011 15.874011 15.874011)
  3 by 4 by 4 MPI processor grid
create_atoms 1 box
Created 4000 atoms
  using lattice units in orthogonal box = (0.0000000 0.0000000 0.0000000) to (15.874011 15.874011 15.874011)
  create_atoms CPU = 0.016 seconds
set type 1 type/fraction 2 0.64 78393
Setting atom values ...
  2566 settings made for type/fraction
mass 1 1.0
mass 2 1.0
pair_style lj/cut  3.5
pair_modify tail  yes
pair_coeff 1  1  1.0  1.0   # Intearaction between 1 and 1 set with epsilon = 1 and sigma = 1
pair_coeff 1  2  1.5  0.8
pair_coeff 2  2  0.5  0.88

write_data data.0
System init for write_data ...
Neighbor list info ...
  update every 1 steps, delay 10 steps, check yes
  max neighbors/atom: 2000, page size: 100000
  master list distance cutoff = 3.8
  ghost atom cutoff = 3.8
  binsize = 1.9, bins = 9 9 9
  1 neighbor lists, perpetual/occasional/extra = 1 0 0
  (1) pair lj/cut, perpetual
      attributes: half, newton on
      pair build: half/bin/atomonly/newton
      stencil: half/bin/3d
      bin: standard
WARNING: Not all mixed pair coeffs generated from mixing. Use write_data with 'pair ij' option to store all pair coeffs. (../write_data.cpp:312)


#############################
#   M E L T   S Y S T E M   #
#############################

velocity all create 2.4 8172548 mom yes dist gaussian # Assign velocities
                                                    # Temperature 2.4, random number seed, zero linear momentum
                                                                                # Gaussian distribution

timestep 0.002   # simulation timestep
thermo 1000       # output thermodynamic data every 1000 steps bf 100

# Define a fix  in this case with index 1 applied to all
# particles in the simulation. This fix is for simulations
# in the anisotropic NPT ensemble. Note that we use the MTK
# correction.
fix 1 all npt temp 2.4 2.4 0.1 iso 5.68 5.68 0.5 mtk yes tchain 5 pchain 5 # Use NPT ensemble
                                                                         # Set temperature and pressure and damping
                                                                         # Numbers of thermostats in chain and in barostat
run 10000          # run for 10000 steps
Per MPI rank memory allocation (min/avg/max) = 3.642 | 3.644 | 3.648 Mbytes
Step Temp E_pair E_mol TotEng Press Volume 
       0          2.4   -4.5154638            0  -0.91636384   -3.9779215         4000 
    1000    2.4170459   -4.2008891            0  -0.57622662    5.6957319    3629.6284 
    2000    2.4820773   -4.2089855            0  -0.48680031    5.9500028    3625.7276 
    3000    2.3805603   -4.2162008            0  -0.64625316    5.5204394    3647.0936 
    4000    2.4120786    -4.333232            0  -0.71601863     5.481183    3590.0902 
    5000    2.4304575   -4.2807972            0  -0.63602235    6.0940315    3569.6216 
    6000    2.4032215   -4.1842143            0  -0.58028326    5.6038649    3662.1094 
    7000    2.4254617   -4.2146479            0  -0.57736494    5.5892737    3641.6647 
    8000    2.4861183   -4.2490622            0  -0.52081696    5.6978289    3618.8117 
    9000    2.3546114   -4.2137724            0  -0.68273826    5.7228574    3627.4465 
   10000    2.4081167   -4.2765571            0  -0.66528504    5.5826067    3604.5224 
Loop time of 2.80987 on 48 procs for 10000 steps with 4000 atoms

Performance: 614975.926 tau/day, 3558.888 timesteps/s
99.5% CPU use with 48 MPI tasks x no OpenMP threads

MPI task timing breakdown:
Section |  min time  |  avg time  |  max time  |%varavg| %total
---------------------------------------------------------------
Pair    | 1.2385     | 1.2838     | 1.3681     |   2.5 | 45.69
Neigh   | 0.2206     | 0.22559    | 0.2393     |   0.7 |  8.03
Comm    | 0.81933    | 0.96236    | 1.0619     |   5.5 | 34.25
Output  | 0.00024711 | 0.00025901 | 0.00056452 |   0.0 |  0.01
Modify  | 0.25372    | 0.3207     | 0.40366    |   8.6 | 11.41
Other   |            | 0.01716    |            |       |  0.61

Nlocal:        83.3333 ave          98 max          76 min
Histogram: 5 8 9 8 7 7 3 0 0 1
Nghost:        1763.33 ave        1790 max        1734 min
Histogram: 3 1 8 2 5 9 7 8 4 1
Neighs:        10586.7 ave       12684 max        9408 min
Histogram: 3 7 10 10 8 7 0 2 0 1

Total # of neighbors = 508162
Ave neighs/atom = 127.04050
Neighbor list builds = 910
Dangerous builds = 232

# Equilibrate just above the melting temperature to avoid step fn in T

fix 1 all npt temp 1.25 1.25 0.1 iso 5.68 5.68 0.5 mtk yes tchain 5 pchain 5
run 2000
Per MPI rank memory allocation (min/avg/max) = 3.644 | 3.646 | 3.650 Mbytes
Step Temp E_pair E_mol TotEng Press Volume 
   10000    2.4081167   -4.2765571            0  -0.66528504    5.5826067    3604.5224 
   11000    1.2550541   -6.2510109            0   -4.3689004    5.5812934    2763.8064 
   12000    1.2459884   -6.2902556            0   -4.4217403    5.4439651    2753.9398 
Loop time of 0.686687 on 48 procs for 2000 steps with 4000 atoms

Performance: 503286.255 tau/day, 2912.536 timesteps/s
99.6% CPU use with 48 MPI tasks x no OpenMP threads

MPI task timing breakdown:
Section |  min time  |  avg time  |  max time  |%varavg| %total
---------------------------------------------------------------
Pair    | 0.29722    | 0.32861    | 0.39714    |   3.2 | 47.85
Neigh   | 0.040607   | 0.043977   | 0.052711   |   1.1 |  6.40
Comm    | 0.19354    | 0.2639     | 0.29722    |   3.9 | 38.43
Output  | 5.095e-05  | 5.2092e-05 | 6.9497e-05 |   0.0 |  0.01
Modify  | 0.038388   | 0.045245   | 0.049507   |   1.6 |  6.59
Other   |            | 0.004896   |            |       |  0.71

Nlocal:        83.3333 ave          92 max          76 min
Histogram: 2 4 5 10 9 8 3 0 4 3
Nghost:        2112.19 ave        2126 max        2087 min
Histogram: 1 1 3 2 4 8 7 8 11 3
Neighs:        13876.5 ave       16234 max       12122 min
Histogram: 2 5 6 13 5 8 4 2 1 2

Total # of neighbors = 666074
Ave neighs/atom = 166.51850
Neighbor list builds = 143
Dangerous builds = 13

#############################
# L I N E A R  Q U E N C H  #
#############################

# Define solid atoms. This closely follows ten Wolde  Ruiz-Montero and Frenkel  Faraday Discuss  1996  104  93-110
# Compute components of the per-atom q6 vector
compute q6 all orientorder/atom degrees 1 6 components 6 nnn NULL cutoff 1.3 # compute the Q6 parameter.
                                                                             # Use all neighbours within 1.3 unit cell.

# get number of connections
compute coord_number all coord/atom orientorder q6 0.5

# An atom is solid if it has 8 or more connections (of a possible 14)
variable is_solid atom c_coord_number>=8
group solid dynamic all var is_solid    # Must be dynamic to update
dynamic group solid defined

# do clustering
compute cluster solid cluster/atom 1.3 # Create a cluster where all atoms within are solid and max 1.3 units from another member

# define chunks one chunk per cluster
compute clus_chunks solid chunk/atom c_cluster nchunk every compress yes  # Says which atoms are in which chunk

# count the size of each chunk
compute size_chunks solid property/chunk clus_chunks count


# Find the maximum entry in the vector of chunk sizes
variable max_n equal max(c_size_chunks)


# Thermo style which includes this variable
# thermo_style custom step temp pe vol v_max_n

thermo ${N}  # Print the thermo information every 100 steps
thermo 1000  

# Reset the npt fix at a lower temperature (below freezing)
fix 1  all npt temp  ${temp} ${temp}  0.1  iso  5.68  5.68  0.5  mtk yes tchain  5  pchain  5
fix 1  all npt temp  0.45 ${temp}  0.1  iso  5.68  5.68  0.5  mtk yes tchain  5  pchain  5
fix 1  all npt temp  0.45 0.45  0.1  iso  5.68  5.68  0.5  mtk yes tchain  5  pchain  5

dump dmp2 all dcd ${N} traj.dcd
dump dmp2 all dcd 1000 traj.dcd


compute msd all msd com yes
variable twopoint equal c_msd[4]/6/(step*dt+1.0e-6)
fix 9 all vector 10 c_msd[4]
variable fit equal slope(f_9)/6/(10*dt)
thermo_style custom step temp pe c_msd[4] v_twopoint v_fit v_max_n

fix 1 all npt temp 1.25 ${temp} 0.1 iso 5.68 5.68 0.5 mtk yes tchain 5 pchain 5
fix 1 all npt temp 1.25 0.45 0.1 iso 5.68 5.68 0.5 mtk yes tchain 5 pchain 5
run 500000 # 5000000  # Run for this many steps
Neighbor list info ...
  update every 1 steps, delay 10 steps, check yes
  max neighbors/atom: 2000, page size: 100000
  master list distance cutoff = 3.8
  ghost atom cutoff = 3.8
  binsize = 1.9, bins = 8 8 8
  4 neighbor lists, perpetual/occasional/extra = 1 3 0
  (1) pair lj/cut, perpetual
      attributes: half, newton on
      pair build: half/bin/atomonly/newton
      stencil: half/bin/3d
      bin: standard
  (2) compute orientorder/atom, occasional
      attributes: full, newton on
      pair build: full/bin/atomonly
      stencil: full/bin/3d
      bin: standard
  (3) compute coord/atom, occasional
      attributes: full, newton on
      pair build: full/bin/atomonly
      stencil: full/bin/3d
      bin: standard
  (4) compute cluster/atom, occasional
      attributes: full, newton on
      pair build: full/bin/atomonly
      stencil: full/bin/3d
      bin: standard
Per MPI rank memory allocation (min/avg/max) = 9.846 | 9.851 | 9.855 Mbytes
Step Temp PotEng c_msd[4] v_twopoint v_fit v_max_n 
   12000    1.2459884   -6.2902556 8.3422041e-31 5.793197e-33 8.3333333e+20            2 
   13000    1.2579753   -6.2955171   0.54271953 0.0034789712  0.045063043            2 
   14000    1.2764745   -6.3064834    1.0440477 0.0062145697  0.043193129            1 
   15000    1.2596924    -6.314267    1.4791611 0.0082175613  0.041564849            3 
   16000    1.2346167   -6.3195173     1.938253  0.010095068  0.039947316            3 
   17000     1.236557   -6.3428836    2.3829844  0.011681296  0.039214276            3 
   18000    1.2427208   -6.3094717    2.8890769  0.013375355  0.039032489            2 
   19000     1.236129   -6.2695837    3.4291126  0.015039967  0.039323875            1 
   20000    1.2223099   -6.3290038    3.8351874  0.015979947   0.03939203            6 
   21000    1.2404622   -6.3237945    4.2578261  0.016896135  0.039126727            5 
   22000    1.2515892   -6.3512965    4.7369356  0.017942937  0.038952198            2 
   23000    1.2501815   -6.3534657    5.2004851  0.018842337  0.038934876            3 
   24000    1.1993276   -6.3290114     5.668612   0.01968268   0.03881763            2 
   25000    1.2401395   -6.3818219    6.2171647  0.020723882  0.038931276            2 
   26000    1.2382934   -6.3265381    6.8228474    0.0218681  0.039304553            3 
   27000    1.2138999   -6.4123672    7.2534357  0.022387147  0.039643998            2 
   28000    1.2402096   -6.3913702    7.7383922  0.023030929  0.039799377            2 
   29000    1.2607073   -6.3815337    8.1987525  0.023559633   0.03995038            2 
   30000    1.2163917   -6.3876855    8.6162493  0.023934026   0.03991515            3 
   31000    1.2208342   -6.3854076    8.9128137  0.023959176  0.039749482            4 
   32000    1.2197117   -6.4033726    9.2981305  0.024213881  0.039488796            2 
   33000    1.2361445    -6.376003    9.7926733  0.024728973  0.039247286            2 
   34000    1.1964391   -6.3637883    10.183705  0.024960062  0.039001395            2 
   35000    1.2284488   -6.3877381    10.611486  0.025265443  0.038811431            1 
   36000    1.2133922   -6.4273891    10.995683  0.025452969  0.038602998            5 
   37000    1.2100238   -6.3791459     11.45577  0.025801283  0.038426078            3 
   38000    1.1988245   -6.3963962     11.81813  0.025916951  0.038218073            1 
   39000    1.1729567   -6.3670712    12.212315  0.026094689  0.038013693            4 
   40000    1.1830582   -6.4467689    12.545125  0.026135676  0.037792225            2 
   41000    1.1913783   -6.4113423     13.06861  0.026562214  0.037585947            5 
   42000    1.2180254   -6.3903698    13.553761  0.026892383  0.037438013            5 
   43000    1.2018697   -6.4211234    13.947663  0.027030354  0.037324364            5 
   44000    1.2433086   -6.3863931     14.24462  0.026978447  0.037168284            9 
   45000    1.1988956   -6.4410339    14.656675  0.027141991  0.037030545            4 
   46000     1.192163   -6.4303458    15.140777  0.027428944  0.036906814            1 
   47000    1.2127567   -6.4306174    15.470631  0.027430197  0.036803944            3 
   48000    1.2182569   -6.4235342    16.036872  0.027841791  0.036693557            5 
   49000     1.194726     -6.38747    16.430721  0.027943403  0.036603013            2 
   50000    1.2187843   -6.4525276    16.645581  0.027742635  0.036506675            4 
   51000    1.2149912   -6.4368744    16.970037  0.027728818  0.036356201            4 
   52000    1.1957527   -6.4581155     17.26316   0.02766532  0.036200014            4 
   53000    1.2070737   -6.4244243    17.748257  0.027906064  0.036061155            1 
   54000    1.1838541   -6.4666472    18.109669  0.027947019  0.035920936            6 
   55000    1.1791363   -6.5096571    18.513184  0.028050279  0.035794243            2 
   56000    1.1718632   -6.4710594    18.910623  0.028140807  0.035673912            3 
   57000    1.1676937   -6.5058287    19.203611  0.028075454  0.035560992            3 
   58000    1.1751941   -6.4458494    19.737612  0.028358638  0.035456854            1 
   59000    1.1801155   -6.4885429    20.180168  0.028503062  0.035363824            2 
   60000    1.1796902   -6.4947276    20.726582   0.02878692   0.03528857            3 
   61000    1.1757182    -6.504126    21.026865  0.028725225  0.035243034            2 
   62000     1.168833   -6.5061379    21.502768   0.02890157  0.035190994            3 
   63000    1.1696918   -6.4971211    22.088587  0.029217708  0.035168513            4 
   64000    1.1631784   -6.5197775    22.422443  0.029195889  0.035154368            3 
   65000    1.1448465   -6.5209307    22.763655  0.029184173  0.035137916            3 
   66000    1.1678232   -6.4765552     23.18459  0.029273472   0.03510043            2 
   67000    1.1426162   -6.5012717    23.525471  0.029260536  0.035050985            3 
   68000    1.1626764   -6.5052475    23.848228  0.029225769  0.035001531            2 
   69000    1.1445376   -6.5561783    24.142238  0.029157292  0.034939583            3 
   70000    1.1450647   -6.5358944    24.377398  0.029020712  0.034856994            2 
   71000     1.165066   -6.5379225    24.711402  0.029003992  0.034777682            3 
   72000    1.1284694   -6.4961489    25.147676  0.029106106   0.03469351            2 
   73000    1.1654258   -6.5211633    25.477523  0.029083931   0.03460705            2 
   74000    1.1430252   -6.5654997    25.779889  0.029031406  0.034522092            2 
   75000    1.1648899   -6.6138554    26.134657  0.029038508  0.034448933            9 
   76000    1.1403178   -6.5853007    26.526444  0.029086013  0.034364846            3 
   77000    1.1606565   -6.6074927    26.722742  0.028920716   0.03428223            2 
   78000    1.1428978   -6.5930486    27.109722  0.028963378  0.034199975            2 
   79000    1.1482418   -6.5857673    27.395617   0.02889833  0.034101763            4 
   80000     1.164779   -6.5637326     27.72379  0.028878947  0.034004647            3 
   81000    1.1664759   -6.5475299    28.117195  0.028927156  0.033908864            4 
   82000    1.1527347   -6.5691403     28.45525  0.028917937  0.033817398            2 
   83000     1.144549   -6.5589257    28.709013   0.02882431  0.033715729            3 
   84000    1.1359832   -6.6201296    28.965724  0.028735837  0.033618952            8 
   85000    1.1347817   -6.5865671    29.299743  0.028725238  0.033515455            3 
   86000    1.1121196   -6.5954312    29.515559  0.028600348  0.033408036            3 
   87000    1.1281094   -6.5955696    29.893269  0.028633399  0.033304052            4 
   88000    1.1477413    -6.688693    30.126837  0.028529202  0.033201253            3 
   89000    1.1370512    -6.575703    30.632456  0.028682074  0.033101163            2 
   90000    1.1168469   -6.6403252      31.0421  0.028742685  0.033005114            2 
   91000    1.1230101   -6.6339982    31.244432  0.028612117  0.032917591            4 
   92000    1.1042649   -6.6427263    31.503737  0.028535994  0.032825194            4 
   93000    1.1348484   -6.6472641    31.830158  0.028521647  0.032733188            1 
   94000    1.1075178   -6.6483096    32.002529  0.028371036  0.032633726            4 
   95000    1.1239909   -6.6309857    32.392794  0.028414732  0.032534023            5 
   96000    1.0928664   -6.6220534    32.726503  0.028408423  0.032434387           11 
   97000    1.0812269   -6.6617821    32.921178  0.028282799  0.032332856            3 
   98000    1.0969516   -6.6452541    33.329781   0.02834165  0.032234093            2 
   99000    1.0861433   -6.6413099    33.677986  0.028348473  0.032140928            2 
  100000    1.1163948   -6.6795908    33.937498  0.028281248  0.032048948            5 
  101000    1.1210138   -6.6447313    34.224229  0.028237812  0.031954424           10 
  102000    1.0967363   -6.6738066    34.435042  0.028133204  0.031864357            4 
  103000    1.1233969   -6.6454666    34.863591  0.028206789  0.031772798            3 
  104000    1.1110235   -6.7223815     35.03288  0.028071217  0.031683051            4 
  105000    1.0995232   -6.6651605    35.136939  0.027886459  0.031587613            4 
  106000    1.0988359   -6.6816094    35.382284  0.027816261   0.03148711            5 
  107000    1.0995602    -6.703869     35.38934  0.027561791  0.031377785            3 
  108000    1.0800177   -6.7018842    35.773957  0.027603362   0.03126487            1 
  109000    1.1035128   -6.7053657    36.078158  0.027582689  0.031155393            4 
  110000    1.0771292    -6.676001    36.427906  0.027596898  0.031048285            4 
  111000    1.0883561   -6.6945966    36.624432  0.027495819  0.030940645            2 
  112000    1.0919501    -6.742203    36.838985  0.027409959  0.030833026            2 
  113000    1.0931414   -6.6846023    37.295469  0.027504033  0.030729863            7 
  114000     1.079719   -6.7130106    37.502433  0.027414059  0.030628784            3 
  115000    1.0856103   -6.7300399    37.656322   0.02728719  0.030528171            2 
  116000    1.0866402   -6.7464063    37.881258  0.027213547   0.03042558            4 
  117000    1.0811045   -6.7757985    38.272692  0.027259752   0.03032515            6 
  118000    1.0803269   -6.7673133    38.299977  0.027048006  0.030226266            5 
  119000    1.0614182   -6.7381595    38.794972  0.027167347  0.030123619            8 
  120000    1.0703824   -6.7535044    39.215985  0.027233323  0.030028123            3 
  121000    1.0587109   -6.7314618    39.356198  0.027104819  0.029935297            2 
  122000    1.0739171   -6.7286854    39.601396  0.027050134  0.029845676            3 
  123000    1.0739085   -6.7934545    39.662434  0.026871568  0.029753298            3 
  124000    1.0607857   -6.7368558    40.177924  0.027001293  0.029663679            2 
  125000    1.0761754   -6.7677524    40.207056  0.026804704   0.02957203            4 
  126000    1.0696966   -6.7544206    40.497641  0.026784154  0.029475552            2 
  127000    1.0616674   -6.7620146    40.629924  0.026660055  0.029378525            3 
  128000    1.0616237   -6.7470663    41.030336  0.026712458  0.029284087            6 
  129000    1.0455644   -6.7430314    41.289171  0.026672591  0.029196147            2 
  130000    1.0602513   -6.7753823    41.367111  0.026517379  0.029106995            2 
  131000    1.0513711   -6.7919112    41.812265  0.026598133  0.029020009            3 
  132000    1.0357183   -6.7686508    42.019912  0.026527722  0.028934703            4 
  133000     1.064441   -6.7779973    42.218461   0.02645267  0.028852225            4 
  134000    1.0575398    -6.784729    42.525981  0.026446506  0.028768079            3 
  135000    1.0676318   -6.8210631    42.716886  0.026368448  0.028686443            3 
  136000    1.0718612   -6.8069127    43.108283  0.026414389  0.028606896           12 
  137000    1.0448275   -6.8054152    43.308931  0.026343632  0.028531136            1 
  138000    1.0350538   -6.8221505    43.570377  0.026310614  0.028452842            3 
  139000    1.0312476   -6.8105007    43.711123  0.026205709  0.028375465            2 
  140000    1.0268579   -6.8580091    43.990763  0.026184978  0.028294889            3 
  141000    1.0257441   -6.8502554    44.258951  0.026157772  0.028216772            5 
  142000     1.044826   -6.8545051    44.577366  0.026160426  0.028139655            3 
  143000    1.0372005   -6.8328105    44.735794   0.02606981  0.028060115            4 
  144000    1.0413836   -6.8313579    44.820686  0.025937897  0.027979944            6 
  145000    1.0041731   -6.8465175    45.188332  0.025970306  0.027900323            3 
  146000    1.0170334   -6.8263273    45.573486  0.026012264  0.027826277            3 
  147000    1.0577066   -6.8917692    45.511866  0.025800378  0.027750874            5 
  148000    1.0192587   -6.8465604    46.128534  0.025973274  0.027674976            2 
  149000    1.0629358    -6.864027    45.947858  0.025697907  0.027601255            3 
  150000     1.042877   -6.8410517    46.235919  0.025686621  0.027523917            3 
  151000    1.0192464   -6.8715987     46.40869   0.02561186  0.027445586            6 
  152000    1.0381816    -6.899666    46.486607  0.025486078  0.027369617            6 
  153000    1.0218285   -6.8971302    46.845752  0.025515115  0.027293371            4 
  154000    1.0323746   -6.8939292    47.037413  0.025453145  0.027217441            2 
  155000    1.0213726   -6.8861225    47.182164  0.025366755  0.027142236            6 
  156000    1.0133495   -6.9115279    47.264246  0.025247995  0.027064751            2 
  157000     1.004902   -6.9163843    47.656852  0.025295569  0.026988224            3 
  158000    1.0031176   -6.8660774     47.91243  0.025270269  0.026912692            4 
  159000     1.016079   -6.9178766     47.93276  0.025121992  0.026838025            4 
  160000   0.98341031   -6.8844716    48.125244  0.025065231  0.026761238            3 
  161000    1.0168384   -6.9382855    48.182531  0.024939198  0.026681831            5 
  162000    1.0124559   -6.9682578    48.330338  0.024861285  0.026600406            2 
  163000    1.0073279   -6.9350728    48.506004   0.02479857  0.026518762           11 
  164000    0.9944261   -6.9542508    48.625071  0.024707861  0.026438488           11 
  165000     1.009079     -6.92925    48.889572  0.024691703  0.026358416            4 
  166000    1.0017322   -6.9530841    48.855393    0.0245258  0.026278533            2 
  167000     1.008738   -6.9702148    49.299745  0.024600671  0.026199942            5 
  168000    1.0077686   -6.9496792    49.397561  0.024502758  0.026122105            2 
  169000   0.99843886   -6.9260614    49.759964  0.024536471  0.026044786            2 
  170000   0.98942369   -6.9453132    49.686451  0.024356103  0.025966119            7 
  171000   0.97729157   -6.9595916    50.090429   0.02441054  0.025885685            4 
  172000    1.0044127   -6.9468704    50.086461  0.024266696  0.025805497            3 
  173000   0.99426899   -6.9693258     50.38698  0.024271185  0.025725961            3 
  174000    1.0050107   -6.9765291    50.316536  0.024097958  0.025648241           10 
  175000   0.99251082   -6.9766614    50.628153  0.024108644  0.025570423            7 
  176000   0.98270583   -6.9796207    50.749096  0.024028928  0.025492855            6 
  177000    1.0139174   -7.0240287    50.792677   0.02391369  0.025413868           10 
  178000   0.98266896   -6.9844692     51.02535  0.023888272  0.025336451           10 
  179000   0.97901822   -6.9930034    51.242666   0.02385599  0.025260254            3 
  180000   0.97604456   -6.9705912    51.622211  0.023899172   0.02518498            3 
  181000   0.99045323   -6.9988979    51.838899  0.023866896  0.025111092            7 
  182000   0.97002752   -7.0026618    52.112071  0.023860838   0.02503917            5 
  183000   0.94889054   -7.0268114    52.181112   0.02376189  0.024966107            5 
  184000    1.0019422   -7.0374816    52.293379  0.023683595  0.024893766            3 
  185000    0.9637993   -7.0095317    52.391267   0.02359967  0.024822159            7 
  186000   0.97450985   -7.0307544    52.504171  0.023523374  0.024750865            8 
  187000   0.96737592   -6.9814154    52.882821  0.023566319  0.024678833            6 
  188000   0.91998482   -7.0254921    53.155367  0.023561776  0.024609621            4 
  189000   0.95725899   -7.0065832    53.186685  0.023450919   0.02454058            5 
  190000   0.96085835   -7.0281684    53.550941  0.023487255    0.0244718            6 
  191000   0.94454149   -7.0083608    53.693279  0.023426387  0.024405322            2 
  192000   0.96472509    -7.029707    53.562108  0.023247443  0.024336752            9 
  193000    0.9341685   -7.0311637    53.926939  0.023284516  0.024268869            4 
  194000   0.96663978   -7.0135974    54.076731  0.023228836  0.024201897            4 
  195000   0.95429357   -7.0792054    54.111081  0.023124393  0.024133443            4 
  196000   0.95559185   -7.0616911    54.126191  0.023012836  0.024064902            2 
  197000   0.95844535    -7.102538    54.217051  0.022934455  0.023995097           11 
  198000   0.94465702   -7.0659357    54.416614  0.022902615  0.023924965            3 
  199000   0.95027084   -7.1112862    54.526993  0.022833749  0.023854172            8 
  200000   0.94349844   -7.0894477    54.503465  0.022709777  0.023782567            5 
  201000   0.94669537   -7.0489419     54.83765  0.022735344  0.023710595            4 
  202000    0.9455157   -7.0873251     54.72865  0.022577826  0.023639034            3 
  203000   0.93843817   -7.1343281    54.843979  0.022513949  0.023566457            4 
  204000   0.93958986   -7.0928255    55.181148  0.022541319  0.023494761            8 
  205000    0.9360103   -7.1145126    54.927017  0.022328056  0.023423059            6 
  206000   0.93893986   -7.1236544    55.479116  0.022443008   0.02335062            4 
  207000   0.94063502   -7.1753617    55.062568  0.022166895  0.023277524            8 
  208000   0.93709411   -7.1265664    55.556198  0.022258092  0.023204423            4 
  209000   0.92631334   -7.1276933    55.597204  0.022167944  0.023131401            5 
  210000   0.92397886    -7.151807    55.746487  0.022121622  0.023059845            4 
  211000   0.93312581   -7.1715865    55.675738  0.021988838  0.022987438           10 
  212000   0.93846325   -7.1819903    55.838891   0.02194925  0.022915582            5 
  213000   0.92089759   -7.1591977    56.049485  0.021928593  0.022843828            5 
  214000   0.92037885   -7.1922403    56.113084  0.021850889  0.022772377           14 
  215000   0.93441153   -7.1616661    56.178174  0.021774486    0.0227009            6 
  216000   0.92913867   -7.1980696    56.288659  0.021716304  0.022629561            6 
  217000   0.90757306   -7.2146453    56.356671  0.021642347  0.022557761            6 
  218000   0.93062386   -7.2014432     56.50802  0.021600925  0.022485215            9 
  219000   0.92247501   -7.1974546    56.578612  0.021529152  0.022413857            8 
  220000   0.92056082   -7.2027079    56.738674  0.021491922  0.022344387            7 
  221000   0.90815774   -7.2045031    57.025047  0.021502657  0.022274662           10 
  222000   0.88980255   -7.1980539    57.124698  0.021443205  0.022205213           10 
  223000   0.92120967   -7.1986866    57.073723  0.021327998  0.022135109            2 
  224000   0.92367242   -7.2237418    57.074072  0.021232914  0.022065412            5 
  225000   0.88927804   -7.1885601    57.377565   0.02125095  0.021996521            3 
  226000   0.90545905   -7.2154549    57.489035  0.021198022  0.021927955            3 
  227000   0.91038715   -7.2419926    57.497979  0.021107922  0.021860253            9 
  228000   0.88157953   -7.2357269    57.610824  0.021056588  0.021791885            7 
  229000   0.89572358   -7.2054017    57.778734   0.02102574  0.021723575            4 
  230000   0.91149272   -7.2585482     57.73436  0.020918246  0.021655041            9 
  231000   0.89425248   -7.2088533    57.901749  0.020888077  0.021586557            6 
  232000   0.89651349   -7.2416802    57.978869  0.020825743  0.021518239            8 
  233000   0.87932237   -7.2239774    58.196359  0.020814148   0.02145082            7 
  234000    0.9065952    -7.232723    58.408705  0.020800821   0.02138365            7 
  235000     0.912216   -7.2545653    58.372529  0.020699478  0.021316219            6 
  236000   0.89514381   -7.2778176    58.375918  0.020612965  0.021248101            6 
  237000   0.87217169   -7.2701758    58.329754  0.020509759  0.021179694            5 
  238000   0.88614505   -7.3065101    58.286608  0.020408476  0.021111187            8 
  239000   0.89320317   -7.3077289    58.527473  0.020407069  0.021042511           12 
  240000   0.88950241   -7.2557892    58.794613  0.020414796  0.020974183            7 
  241000   0.86869192   -7.2852038    58.645676  0.020278588  0.020907334           12 
  242000   0.87283555   -7.2879522    58.849668  0.020265037  0.020840943            7 
  243000   0.89175907   -7.2903589    59.075169  0.020258974  0.020774506            8 
  244000   0.89111112   -7.2892218    59.150374   0.02020163  0.020708274            8 
  245000   0.86573146    -7.291604    59.298293  0.020169487  0.020642954            5 
  246000   0.89721803    -7.255933    59.360548  0.020108587  0.020577338            5 
  247000   0.86965769   -7.3048174    59.329417  0.020016673  0.020511453           10 
  248000   0.86812334   -7.3061041    59.350079  0.019942903  0.020445911           20 
  249000   0.87759492   -7.3108666    59.432122  0.019890268  0.020380672           10 
  250000   0.85533486    -7.324626    59.662096  0.019887365  0.020315802            6 
  251000   0.87655232   -7.3321458    59.843529  0.019868369  0.020251391            4 
  252000   0.88374573   -7.3629097    59.714939  0.019747004  0.020186504            7 
  253000   0.84992935    -7.367013    59.920281  0.019736588   0.02012188           20 
  254000   0.85580397   -7.3641976    59.850627  0.019636033  0.020057485            4 
  255000   0.84138384   -7.3368756    60.105057  0.019642176  0.019993123           14 
  256000   0.84426011   -7.3392327     60.12345  0.019571436  0.019928944           10 
  257000   0.88303343   -7.3743389    60.098612  0.019487228  0.019865077            9 
  258000    0.8587785   -7.3457864    60.219949  0.019450888   0.01980117           10 
  259000   0.85712608   -7.3992443    60.145778  0.019351923  0.019737587            5 
  260000   0.84503438   -7.3567175     60.35054  0.019343122  0.019674463            6 
  261000   0.85753267   -7.3339433    60.494547  0.019314989  0.019611981            6 
  262000    0.8445637   -7.3515848    60.654041  0.019291998  0.019550007            7 
  263000   0.85463049   -7.3453619    60.490003  0.019166668  0.019487969           10 
  264000   0.84913908    -7.385994    60.886177  0.019219122  0.019426783            7 
  265000   0.85410274   -7.3609792     60.86427  0.019139707  0.019366122           11 
  266000   0.84481649   -7.3855939     60.88745  0.019075016  0.019305419            4 
  267000   0.82569796   -7.3844511    60.935111  0.019018449  0.019244652            7 
  268000   0.82656506   -7.3948021    61.012433  0.018971528  0.019183708            4 
  269000   0.84012765   -7.3651245    61.143124  0.018941488  0.019123114            5 
  270000   0.84181889   -7.4136149     61.26374  0.018908562  0.019063138            6 
  271000    0.8411475   -7.3843365    61.437301  0.018892159  0.019003808            9 
  272000   0.84987217   -7.4120498    61.202376  0.018750728  0.018943665            8 
  273000    0.8376676   -7.4117832    61.279763  0.018705666  0.018883314            5 
  274000   0.82469727   -7.4515404    61.208935  0.018615856   0.01882329            6 
  275000   0.83217455   -7.4436272    61.453675  0.018622326  0.018763455            6 
  276000    0.8352938   -7.4451053    61.391462  0.018536069  0.018703986            5 
  277000   0.83484142   -7.4711141    61.506514  0.018503765  0.018644473           11 
  278000   0.83728279   -7.4354953    61.712117  0.018498836  0.018585165            8 
  279000   0.83368912   -7.4725359    61.487756  0.018365518  0.018525622            8 
  280000   0.83442723    -7.488368    61.668934  0.018353849  0.018465911           10 
  281000   0.82111098   -7.5066612    61.681329  0.018292209  0.018406581           12 
  282000   0.81981215   -7.5085574    61.734893  0.018243172   0.01834772           12 
  283000   0.81154674   -7.4844383    62.063939    0.0182756  0.018289103            6 
  284000   0.83923476   -7.4698488    61.948607  0.018177408  0.018231141            9 
  285000   0.81364136   -7.4792959    61.999869  0.018128617  0.018172951           14 
  286000   0.81016392   -7.5276069    62.062122  0.018083369  0.018114937            8 
  287000   0.80858235   -7.5201058    61.939439  0.017984738  0.018057133            8 
  288000   0.80599958   -7.5300866     62.07575  0.017961733  0.017999374            7 
  289000    0.8022834   -7.5433023    62.286394  0.017960321   0.01794204           13 
  290000   0.80581397   -7.5603203    62.267139  0.017892856   0.01788423            9 
  291000    0.8105355   -7.5267827    62.119138  0.017788986  0.017826749           37 
  292000   0.80061001   -7.5452084    62.239095  0.017762299  0.017769443            8 
  293000   0.80907395   -7.5516127    62.224408  0.017697499  0.017711915           13 
  294000   0.79633034   -7.5534759     62.06074  0.017590913  0.017653646           14 
  295000   0.79515061   -7.5521607    62.070908  0.017534155  0.017595703           11 
  296000   0.79218774   -7.5769647    62.200926  0.017511522  0.017538203           27 
  297000   0.78803581   -7.5268042     62.62837  0.017572494  0.017480736           11 
  298000   0.79528021   -7.6027952     62.21914  0.017399088   0.01742345           14 
  299000   0.79683458   -7.5838062    62.323311  0.017369931  0.017366243            7 
  300000   0.78414335   -7.5486023    62.500181  0.017361161  0.017309034            8 
  301000   0.77611863   -7.5563528    62.485309  0.017299366  0.017252274           10 
  302000    0.7931315   -7.5874881    62.524995  0.017253034  0.017195975           12 
  303000   0.79056547   -7.5752215    62.615904  0.017221096  0.017139599            9 
  304000   0.80703288   -7.5828368     62.56245  0.017149794  0.017083544           12 
  305000   0.78366833   -7.6018799    62.470782   0.01706852  0.017027118           13 
  306000   0.77670801   -7.6158568    62.456198  0.017008769  0.016970549           21 
  307000   0.77267694   -7.6254486    62.586552  0.016988749  0.016913819           17 
  308000   0.77375122   -7.6395049    62.418635  0.016888159  0.016856938           22 
  309000   0.78563418   -7.6390766    62.591495  0.016880123  0.016800325           31 
  310000   0.76170019   -7.5918834    62.741352  0.016865955  0.016744333           23 
  311000   0.77567324   -7.5977982    62.715147  0.016804702  0.016688373           12 
  312000   0.77240364   -7.6441567    62.667922  0.016738227  0.016632203           12 
  313000   0.77867052   -7.6601274    62.566299  0.016657694  0.016575805           17 
  314000   0.75828893    -7.680643    62.578962  0.016608005  0.016519601           23 
  315000   0.74961513   -7.6595788    62.536061  0.016543931  0.016463091           22 
  316000   0.74836734   -7.6576412    62.501407  0.016482438  0.016406787           25 
  317000   0.74078436   -7.6552738    62.610826  0.016459208  0.016350445           31 
  318000   0.76903395   -7.6757741    62.390681  0.016349759  0.016294309           26 
  319000   0.76508975   -7.6952233    62.586516  0.016349665  0.016238257           32 
  320000      0.75549   -7.7178951     62.58483  0.016298133  0.016182362           34 
  321000   0.76223392   -7.6813743     62.76759  0.016294805  0.016126628           22 
  322000   0.74437474   -7.7155792    62.596971  0.016200044  0.016070976           26 
  323000   0.73677322   -7.7069036    62.617887  0.016155286  0.016015196           22 
  324000   0.72695477   -7.6985595    62.590484  0.016098375  0.015959439           31 
  325000   0.75531313   -7.7183366     62.70045  0.016077039  0.015904132           23 
  326000   0.73878709   -7.7463522    62.513405  0.015979909  0.015848721           32 
  327000   0.73352343   -7.7120241    62.758802  0.015993579  0.015793634           17 
  328000   0.72001961   -7.7067669    62.692538  0.015927982   0.01573886           27 
  329000   0.73277396   -7.7649337    62.586525  0.015852716  0.015684021           27 
  330000   0.72803221   -7.7659763    62.709068  0.015835623  0.015629274           25 
  331000   0.73992318   -7.7590222     62.70578  0.015786954  0.015574865           30 
  332000   0.74819235    -7.745519    62.745337  0.015749331  0.015520711           19 
  333000   0.74366523   -7.7688023    62.785328  0.015712044  0.015466596           25 
  334000   0.74476331     -7.75681    62.753317  0.015657015  0.015412797           26 
  335000   0.74155799   -7.7626135    62.774946  0.015615658   0.01535914           28 
  336000   0.71567079   -7.7601674    62.872343  0.015593339  0.015305457           17 
  337000   0.71972145   -7.7942406    62.668124  0.015496569  0.015251719           25 
  338000   0.72774073   -7.7855246    62.710395  0.015461143  0.015197903           32 
  339000   0.72427302   -7.7723561    62.778971  0.015432392  0.015144167           37 
  340000   0.73808712   -7.8138389    62.716205  0.015371619  0.015090791           22 
  341000   0.74085855   -7.8096445    62.752441  0.015335396   0.01503743            9 
  342000    0.7251288   -7.8184013    62.722738  0.015283318  0.014984201           20 
  343000   0.72852503   -7.7725047    62.912064  0.015284758  0.014931361           21 
  344000    0.7198709   -7.7855614    62.907231  0.015239155  0.014878854           24 
  345000   0.71695747   -7.8075241    62.780872  0.015164462  0.014826339           26 
  346000   0.71705393   -7.7827752    62.657673  0.015090962  0.014773869           26 
  347000   0.71801717   -7.8277889    62.858126  0.015095611  0.014721599           57 
  348000   0.72689242   -7.8080654    62.828338    0.0150451  0.014669594           49 
  349000    0.7070711    -7.806238    62.681253   0.01496687  0.014617696           38 
  350000   0.69131378   -7.8250516    62.750636  0.014940627  0.014565813           33 
  351000   0.72084365   -7.8473073    62.856918  0.014923295  0.014514203           35 
  352000   0.71606118   -7.8661197    62.743195  0.014853976  0.014462879           30 
  353000   0.71075023   -7.8374932    62.738358  0.014810755  0.014411697           29 
  354000   0.70457759   -7.8663279    62.799928  0.014783411  0.014360502           26 
  355000   0.69844467   -7.8422074    62.756767  0.014731635   0.01430953           43 
  356000   0.69924376    -7.867777    62.722896  0.014682326  0.014258766           26 
  357000   0.71578131     -7.83507    62.760314  0.014649933  0.014207974           26 
  358000   0.69327418    -7.883919    62.677213  0.014589668  0.014157401           30 
  359000   0.69974426   -7.8729486     62.78114  0.014573152   0.01410687           46 
  360000   0.71932885   -7.8732171    62.644321     0.014501  0.014056579           43 
  361000   0.68900478   -7.8742876     62.75842   0.01448717  0.014006392           78 
  362000   0.69714936   -7.8883049    62.749247  0.014445038    0.0139563           51 
  363000   0.67936472   -7.8821284     62.75374  0.014406276  0.013906433           36 
  364000   0.67741632   -7.8754875    62.819973  0.014381862  0.013856935           28 
  365000   0.68325229   -7.8749961    62.637574  0.014300816  0.013807476           52 
  366000   0.67646408   -7.9052156    62.791751  0.014296847  0.013758232           49 
  367000   0.67781886   -7.8977419    62.751423  0.014248734  0.013709204           47 
  368000   0.67633257   -7.9243161    62.773469  0.014215006  0.013660193           39 
  369000   0.68227559   -7.9088825    62.797157  0.014181833   0.01361139           55 
  370000   0.68508292   -7.9045704    62.618338  0.014103229  0.013562818           41 
  371000   0.66824001   -7.9366755    62.518198  0.014042722  0.013513975           33 
  372000   0.66701986   -7.9174159    62.598864  0.014023043  0.013465455           35 
  373000   0.66419384   -7.9182686    62.553716  0.013975361  0.013417115           67 
  374000   0.65799654   -7.9490834    62.658672   0.01396138  0.013368759           37 
  375000   0.67898606   -7.9182863    62.669227  0.013926495  0.013320623           37 
  376000   0.66941869   -7.9621152    62.523124  0.013857075  0.013272639           65 
  377000   0.67075103   -7.9419486    62.507488  0.013816863  0.013224655           72 
  378000   0.67482915    -7.939903    62.463675  0.013770651  0.013176884           28 
  379000   0.66051061   -7.9679146    62.564286  0.013756439  0.013129471           31 
  380000   0.66771339   -7.9750852     62.57843   0.01372334   0.01308213           40 
  381000   0.65692761   -7.9666724    62.544699  0.013679943  0.013035022           42 
  382000   0.66637162   -7.9736185    62.653036  0.013667765  0.012988193           62 
  383000   0.65380115   -7.9523634    62.539222  0.013607316  0.012941599           28 
  384000   0.64725555   -7.9421207     62.61584  0.013588507  0.012895251           33 
  385000   0.65686169   -7.9822665    62.552262  0.013539451   0.01284896           73 
  386000   0.65465243   -7.9702564    62.611364  0.013517134  0.012802763           39 
  387000   0.64971802   -7.9697235    62.650559  0.013490646  0.012756666           22 
  388000   0.64781116   -7.9520331    62.570695  0.013438723  0.012710854          100 
  389000   0.64255151   -7.9786315    62.589117  0.013408123  0.012665118           47 
  390000   0.64108011   -7.9775776    62.604085  0.013376941  0.012619612           36 
  391000   0.64572624   -7.9906516    62.511083  0.013322908  0.012574328           55 
  392000    0.6402925   -7.9849869    62.545567  0.013296252  0.012529012           71 
  393000    0.6428197   -7.9954601    62.492261  0.013251115  0.012484071           31 
  394000   0.63548733   -8.0118021    62.516339  0.013222576  0.012439328           38 
  395000   0.64466666   -8.0134176    62.412748  0.013167246  0.012394685           46 
  396000   0.62216044   -7.9941108    62.438851  0.013139489   0.01235024           37 
  397000   0.62338045   -8.0136942    62.539422  0.013127502  0.012306111           33 
  398000   0.62549852   -8.0330292    62.574659  0.013101897  0.012262164           52 
  399000    0.6332598   -8.0272523    62.619507  0.013078427  0.012218348           53 
  400000   0.64084646   -8.0306484    62.428215  0.013005878  0.012174629           46 
  401000   0.61679668   -8.0445424    62.392669  0.012966058  0.012130994           78 
  402000   0.62788722   -8.0304347     62.63774  0.012984606  0.012087584           44 
  403000   0.61104667   -8.0459755     62.46727  0.012917136  0.012044334           62 
  404000   0.62776429    -8.062522    62.363673  0.012863794  0.012001206           25 
  405000   0.62136118   -8.0488472    62.466255  0.012853139  0.011958271           48 
  406000   0.63901907   -8.0403407    62.575597  0.012843924  0.011915493           61 
  407000   0.62627455   -8.0530003    62.365322  0.012769312  0.011872812           41 
  408000    0.6266045   -8.0700685    62.387867   0.01274262  0.011830314           40 
  409000   0.62144621   -8.0500896    62.482658  0.012730778  0.011787978           71 
  410000     0.618316    -8.073823    62.259891  0.012654449  0.011745778           70 
  411000   0.62261015   -8.0759305    62.283296  0.012628406  0.011703738           37 
  412000   0.61329615   -8.0721614    62.391141  0.012619567  0.011661916           77 
  413000   0.60594931   -8.0685728    62.282088  0.012567007  0.011620234           55 
  414000   0.61715196   -8.0752807    62.355335  0.012551396   0.01157875           39 
  415000   0.61510417   -8.0827851    62.270758  0.012504168  0.011537404           67 
  416000   0.61371536   -8.0856051    62.253094  0.012470572  0.011496116           64 
  417000   0.60466601   -8.0706387    62.294009  0.012448843  0.011454945           49 
  418000    0.6085637   -8.0584278    62.410289  0.012442243   0.01141408           40 
  419000   0.59234553   -8.1005893    62.279864  0.012386608  0.011373311          103 
  420000   0.60057449   -8.0870512    62.434806  0.012387858  0.011332719           81 
  421000   0.59888176   -8.1070318    62.145816   0.01230123  0.011292244           47 
  422000   0.58962567   -8.0897678    62.229563  0.012288618  0.011251893           87 
  423000   0.59569519   -8.0965263     62.32322  0.012278018  0.011211761           61 
  424000   0.59020195   -8.1043085    62.197147  0.012224282  0.011171867          129 
  425000   0.58022452   -8.1097718    62.308273  0.012217308  0.011132075          106 
  426000   0.57875327   -8.1157712    62.255366   0.01217828  0.011092548          112 
  427000   0.57287211   -8.1280971    62.386652  0.012175381  0.011053117           86 
  428000   0.59329689     -8.12206    62.264124  0.012123077  0.011013814           46 
  429000   0.57896175   -8.1147251    62.282929  0.012098471  0.010974722          102 
  430000   0.57376191   -8.1116256    62.214523  0.012057078  0.010935718          110 
  431000   0.57930643   -8.1257617    62.244768  0.012034951  0.010896933          116 
  432000   0.57353109   -8.1283367    62.165174  0.011991739  0.010858241          135 
  433000   0.58804078    -8.150239     62.20488  0.011971686  0.010819628          100 
  434000    0.5738408   -8.1229304    62.128808  0.011929495  0.010781138          137 
  435000   0.57270869   -8.1253097    62.152462  0.011906602   0.01074282          102 
  436000   0.57367619   -8.1424315    62.101211  0.011869498   0.01070469          111 
  437000   0.58254674    -8.158009    62.113392  0.011844659   0.01066674          130 
  438000   0.56456276   -8.1409776    62.132714  0.011821293  0.010628991           78 
  439000   0.55898912   -8.1553943    62.245952   0.01181586  0.010591436           58 
  440000   0.55313143   -8.1407154    62.159333  0.011772601  0.010554076          136 
  441000   0.55885754   -8.1606668    62.104882  0.011735616   0.01051675           91 
  442000   0.55585767   -8.1852921    62.062393  0.011701054  0.010479572          110 
  443000   0.55971455   -8.1497212    62.060568  0.011674298  0.010442628           71 
  444000    0.5669086   -8.1674436    62.015102  0.011639471  0.010405827           94 
  445000   0.55753601   -8.1654205    62.096574  0.011628572  0.010369155           49 
  446000   0.55000238   -8.1732743    61.892773   0.01156442  0.010332647          122 
  447000    0.5405425   -8.1773584    62.038024  0.011565627  0.010296258           65 
  448000   0.54770564   -8.1844637    62.145943  0.011559885  0.010260054           55 
  449000   0.55542648   -8.1734778    62.012789  0.011509426  0.010224093          103 
  450000   0.55293577   -8.1864466    61.998389  0.011481183  0.010188213           51 
  451000   0.54335829   -8.1834022    62.041463  0.011463685  0.010152539           87 
  452000   0.54648518   -8.1917264    62.076453  0.011444774  0.010116945           41 
  453000   0.53997163   -8.1806175    61.998251  0.011405123  0.010081611          116 
  454000   0.55127671   -8.1800923    62.094038  0.011397584  0.010046421           75 
  455000   0.53697207   -8.2153929    62.103737  0.011374311  0.010011356          107 
  456000   0.53377769   -8.2096876    62.024114  0.011334816  0.009976407          189 
  457000   0.54294273   -8.2010285     62.02437   0.01131006 0.0099415442           64 
  458000   0.54712838   -8.2016929    61.856584  0.011254837 0.0099068409           65 
  459000   0.54078811   -8.1998467    61.947064  0.011246744 0.0098722677          148 
  460000   0.52924005   -8.2062543    61.992269  0.011230484 0.0098378293          201 
  461000   0.52225539   -8.2191075    61.979761  0.011203861 0.0098034842           67 
  462000   0.52560104    -8.226659    61.923212   0.01116941 0.0097693236          164 
  463000   0.52488112   -8.2184366    61.995815  0.011158354 0.0097352862           59 
  464000    0.5247759    -8.253221    61.902233  0.011117499 0.0097013924          111 
  465000   0.52614456   -8.2425527    61.793758   0.01107415 0.0096675817          116 
  466000   0.52688031   -8.2390437    61.799138  0.011051348  0.009633957          120 
  467000   0.52580003   -8.2261518    61.868553   0.01104007 0.0096004418           64 
  468000     0.522193    -8.244478    61.708926  0.010988057 0.0095671007          134 
  469000    0.5250256   -8.2462829    61.798098  0.010980472 0.0095338788          122 
  470000    0.5121765   -8.2639059    61.737911  0.010946438  0.009500844           54 
  471000   0.50850218   -8.2487248    61.784413  0.010931425 0.0094679122          104 
  472000   0.50766159   -8.2569242    61.789949  0.010909242 0.0094351691          116 
  473000   0.51823616   -8.2544151    61.759967  0.010880896 0.0094024869           94 
  474000   0.50661129   -8.2491002     61.86483  0.010876377 0.0093699969          130 
  475000   0.50193136   -8.2716531    61.897506  0.010859212 0.0093376367          114 
  476000   0.50478985   -8.2531302    61.831781  0.010824892  0.009305358           77 
  477000   0.50288566   -8.2618558    61.831975  0.010802232 0.0092733227          124 
  478000    0.5057827   -8.2736435    61.779423  0.010770471 0.0092414207          167 
  479000   0.50232996   -8.2706263    61.835855  0.010757804 0.0092096487           96 
  480000     0.508293   -8.2664986    61.782733  0.010726169 0.0091780435          125 
  481000   0.49203554   -8.2694765    61.702265  0.010689928 0.0091464729           65 
  482000   0.50222573    -8.271282    61.836071  0.010690884 0.0091150752          101 
  483000   0.48746934   -8.2870175    61.767678  0.010656949 0.0090837829          164 
  484000   0.49028874   -8.3026583    61.686488  0.010620952 0.0090526222          125 
  485000   0.48731409   -8.2795919    61.820389   0.01062206 0.0090215633          131 
  486000    0.4920075   -8.2943537    61.676602  0.010575549 0.0089906254          141 
  487000   0.49415285   -8.2983991    61.750819  0.010566533 0.0089598173          162 
  488000   0.47960238   -8.2883676    61.630919  0.010524406 0.0089291683          137 
  489000   0.49592548   -8.2974315    61.584608  0.010494991 0.0088986371          116 
  490000   0.47615004   -8.3025911    61.663031   0.01048691 0.0088682846          159 
  491000   0.48542029   -8.2946073    61.640424  0.010461715 0.0088380604          111 
  492000   0.47519483   -8.3017423    61.509952  0.010418352 0.0088079502          119 
  493000   0.49554308   -8.3206492    61.688873  0.010427463 0.0087780163           81 
  494000   0.48303493   -8.3181302    61.720312  0.010411659 0.0087482133           73 
  495000   0.47845836   -8.3215149    61.767067  0.010398496 0.0087185606           89 
  496000   0.48076797   -8.3212218    61.689956  0.010364576  0.008688969           65 
  497000   0.47342917   -8.3119835    61.666506   0.01033979 0.0086595627          124 
  498000   0.47282455   -8.3126805    61.709272  0.010326183 0.0086302589          161 
  499000   0.47547034   -8.3282511    61.567917  0.010281883 0.0086010193          185 
  500000   0.47638242   -8.3162404    61.695515  0.010282586  0.008571963          125 
  501000    0.4712064   -8.3284853    61.717706  0.010265753 0.0085430097           96 
  502000   0.46294676   -8.3380221    61.580759   0.01022257 0.0085141424          158 
  503000   0.46431353    -8.336263    61.521233  0.010192385 0.0084853893          114 
  504000   0.46323987   -8.3387779     61.52126  0.010172166 0.0084567432          151 
  505000   0.45417717   -8.3476408    61.472593  0.010143992 0.0084282445          106 
  506000   0.45502154    -8.329335    61.641538  0.010151768 0.0083998714          119 
  507000   0.45599324   -8.3420914    61.433751  0.010097592 0.0083716324          138 
  508000    0.4459323   -8.3383896    61.461112  0.010082203 0.0083435104          198 
  509000   0.45676787   -8.3449626    61.375963  0.010048455 0.0083155003           95 
  510000    0.4513827   -8.3440593    61.494621  0.010048141 0.0082876767           64 
  511000   0.44352995   -8.3478968    61.568237  0.010040482 0.0082599469          103 
  512000    0.4521709   -8.3540674    61.470952  0.010005038 0.0082323243          157 
Loop time of 1320.11 on 48 procs for 500000 steps with 4000 atoms

Performance: 65449.046 tau/day, 378.756 timesteps/s
99.4% CPU use with 48 MPI tasks x no OpenMP threads

MPI task timing breakdown:
Section |  min time  |  avg time  |  max time  |%varavg| %total
---------------------------------------------------------------
Pair    | 93.999     | 102.32     | 109.12     |  35.2 |  7.75
Neigh   | 9.1908     | 9.5775     | 9.986      |   6.6 |  0.73
Comm    | 85.43      | 91.673     | 99.681     |  35.0 |  6.94
Output  | 0.9582     | 0.95925    | 0.99445    |   0.5 |  0.07
Modify  | 1098.7     | 1103.2     | 1106.8     |   5.7 | 83.57
Other   |            | 12.34      |            |       |  0.93

Nlocal:        83.3333 ave          89 max          78 min
Histogram: 4 3 7 3 7 6 9 4 2 3
Nghost:        2420.94 ave        2438 max        2408 min
Histogram: 7 2 7 9 1 5 7 4 3 3
Neighs:        16787.8 ave       19328 max       14551 min
Histogram: 3 7 4 8 2 6 7 8 1 2
FullNghs:      33577.2 ave       35742 max       31264 min
Histogram: 2 2 3 8 9 3 12 3 3 3

Total # of neighbors = 1611705
Ave neighs/atom = 402.92625
Neighbor list builds = 26648
Dangerous builds = 0

#clear
#
#next RN
#
#jump SELF
Total wall time: 0:22:04
