
units lj                  # Use reduced LJ style units
atom_style atomic         # Uncharged point particles
atom_modify map hash      # Needed for indexing of clusters etc
                          # Used to be able to find where atoms are in relation to each other.

lattice fcc 1.0 spacing 1 1 1
Lattice spacing in x,y,z = 1.5874011 1.5874011 1.5874011
region box block 0 10 0 10 0 10 units lattice
create_box 2 box
Created orthogonal box = (0.0000000 0.0000000 0.0000000) to (15.874011 15.874011 15.874011)
  3 by 4 by 4 MPI processor grid
create_atoms 1 box
Created 4000 atoms
  using lattice units in orthogonal box = (0.0000000 0.0000000 0.0000000) to (15.874011 15.874011 15.874011)
  create_atoms CPU = 0.018 seconds
set type 1 type/fraction 2 0.92 78393
Setting atom values ...
  3673 settings made for type/fraction
mass 1 1.0
mass 2 1.0
pair_style lj/cut  3.5
pair_modify tail  yes
pair_coeff 1  1  1.0  1.0   # Intearaction between 1 and 1 set with epsilon = 1 and sigma = 1
pair_coeff 1  2  1.5  0.8
pair_coeff 2  2  0.5  0.88

write_data data.0
System init for write_data ...
Neighbor list info ...
  update every 1 steps, delay 10 steps, check yes
  max neighbors/atom: 2000, page size: 100000
  master list distance cutoff = 3.8
  ghost atom cutoff = 3.8
  binsize = 1.9, bins = 9 9 9
  1 neighbor lists, perpetual/occasional/extra = 1 0 0
  (1) pair lj/cut, perpetual
      attributes: half, newton on
      pair build: half/bin/atomonly/newton
      stencil: half/bin/3d
      bin: standard
WARNING: Not all mixed pair coeffs generated from mixing. Use write_data with 'pair ij' option to store all pair coeffs. (../write_data.cpp:312)


#############################
#   M E L T   S Y S T E M   #
#############################

velocity all create 2.4 5833274 mom yes dist gaussian # Assign velocities
                                                    # Temperature 2.4, random number seed, zero linear momentum
                                                                                # Gaussian distribution

timestep 0.002   # simulation timestep
thermo 1000       # output thermodynamic data every 1000 steps bf 100

# Define a fix  in this case with index 1 applied to all
# particles in the simulation. This fix is for simulations
# in the anisotropic NPT ensemble. Note that we use the MTK
# correction.
fix 1 all npt temp 2.4 2.4 0.1 iso 5.68 5.68 0.5 mtk yes tchain 5 pchain 5 # Use NPT ensemble
                                                                         # Set temperature and pressure and damping
                                                                         # Numbers of thermostats in chain and in barostat
run 10000          # run for 10000 steps
Per MPI rank memory allocation (min/avg/max) = 3.642 | 3.644 | 3.648 Mbytes
Step Temp E_pair E_mol TotEng Press Volume 
       0          2.4   -3.0929104            0   0.50618957   -2.4174795         4000 
    1000    2.3792094   -2.0396667            0    1.5282552    5.8351001    4057.0665 
    2000    2.3500743   -2.1016459            0    1.4225844    5.5490499    4040.8146 
    3000    2.3953862   -2.1073145            0    1.4848665    5.4082789    4061.8465 
    4000    2.3330627   -2.0671848            0    1.4315343    5.5532324    4077.5884 
    5000    2.3830128   -2.0830858            0    1.4905397    5.6494178    4056.7395 
    6000    2.4114868   -2.0442245            0    1.5721014    5.9871121    4027.5546 
    7000    2.3669002   -2.0844871            0    1.4649756    5.7491826    4027.7764 
    8000    2.4260156   -2.0675887            0    1.5705249    5.5262428    4096.9635 
    9000    2.3728492   -2.0720155            0    1.4863685    5.4104594    4094.5509 
   10000    2.4506112   -2.0989319            0    1.5760659    5.5980787    4050.7263 
Loop time of 2.42972 on 48 procs for 10000 steps with 4000 atoms

Performance: 711193.714 tau/day, 4115.704 timesteps/s
99.7% CPU use with 48 MPI tasks x no OpenMP threads

MPI task timing breakdown:
Section |  min time  |  avg time  |  max time  |%varavg| %total
---------------------------------------------------------------
Pair    | 1.0394     | 1.1293     | 1.1953     |   2.9 | 46.48
Neigh   | 0.20708    | 0.2137     | 0.22385    |   0.8 |  8.80
Comm    | 0.75107    | 0.83123    | 0.92851    |   3.8 | 34.21
Output  | 0.00024109 | 0.00024768 | 0.00031046 |   0.0 |  0.01
Modify  | 0.20324    | 0.24028    | 0.26826    |   3.8 |  9.89
Other   |            | 0.01494    |            |       |  0.61

Nlocal:        83.3333 ave          93 max          75 min
Histogram: 4 2 8 7 6 5 7 3 5 1
Nghost:        1629.69 ave        1666 max        1596 min
Histogram: 1 3 7 9 6 8 4 3 4 3
Neighs:        9421.19 ave       10851 max        8170 min
Histogram: 4 2 5 7 10 6 6 3 3 2

Total # of neighbors = 452217
Ave neighs/atom = 113.05425
Neighbor list builds = 909
Dangerous builds = 210

# Equilibrate just above the melting temperature to avoid step fn in T

fix 1 all npt temp 1.25 1.25 0.1 iso 5.68 5.68 0.5 mtk yes tchain 5 pchain 5
run 2000
Per MPI rank memory allocation (min/avg/max) = 3.643 | 3.645 | 3.649 Mbytes
Step Temp E_pair E_mol TotEng Press Volume 
   10000    2.4506112   -2.0989319            0    1.5760659    5.5980787    4050.7263 
   11000    1.2255799   -3.1120046            0   -1.2740943    5.6467237    3155.3771 
   12000    1.2637147   -3.1105662            0    -1.215468    5.6655973    3147.8015 
Loop time of 0.613868 on 48 procs for 2000 steps with 4000 atoms

Performance: 562987.827 tau/day, 3258.031 timesteps/s
99.6% CPU use with 48 MPI tasks x no OpenMP threads

MPI task timing breakdown:
Section |  min time  |  avg time  |  max time  |%varavg| %total
---------------------------------------------------------------
Pair    | 0.25562    | 0.2879     | 0.33512    |   3.4 | 46.90
Neigh   | 0.038519   | 0.041786   | 0.047691   |   1.0 |  6.81
Comm    | 0.18078    | 0.23529    | 0.26886    |   4.0 | 38.33
Output  | 5.1198e-05 | 5.2525e-05 | 6.3799e-05 |   0.0 |  0.01
Modify  | 0.040475   | 0.044067   | 0.046904   |   0.8 |  7.18
Other   |            | 0.004776   |            |       |  0.78

Nlocal:        83.3333 ave          93 max          75 min
Histogram: 1 6 6 5 8 10 4 5 0 3
Nghost:        1929.33 ave        1953 max        1904 min
Histogram: 2 4 3 6 5 11 7 5 2 3
Neighs:        12134.9 ave       14217 max       10603 min
Histogram: 5 2 9 8 3 13 3 3 1 1

Total # of neighbors = 582474
Ave neighs/atom = 145.61850
Neighbor list builds = 145
Dangerous builds = 17

#############################
# L I N E A R  Q U E N C H  #
#############################

# Define solid atoms. This closely follows ten Wolde  Ruiz-Montero and Frenkel  Faraday Discuss  1996  104  93-110
# Compute components of the per-atom q6 vector
compute q6 all orientorder/atom degrees 1 6 components 6 nnn NULL cutoff 1.3 # compute the Q6 parameter.
                                                                             # Use all neighbours within 1.3 unit cell.

# get number of connections
compute coord_number all coord/atom orientorder q6 0.5

# An atom is solid if it has 8 or more connections (of a possible 14)
variable is_solid atom c_coord_number>=8
group solid dynamic all var is_solid    # Must be dynamic to update
dynamic group solid defined

# do clustering
compute cluster solid cluster/atom 1.3 # Create a cluster where all atoms within are solid and max 1.3 units from another member

# define chunks one chunk per cluster
compute clus_chunks solid chunk/atom c_cluster nchunk every compress yes  # Says which atoms are in which chunk

# count the size of each chunk
compute size_chunks solid property/chunk clus_chunks count


# Find the maximum entry in the vector of chunk sizes
variable max_n equal max(c_size_chunks)


# Thermo style which includes this variable
# thermo_style custom step temp pe vol v_max_n

thermo ${N}  # Print the thermo information every 100 steps
thermo 1000  

# Reset the npt fix at a lower temperature (below freezing)
fix 1  all npt temp  ${temp} ${temp}  0.1  iso  5.68  5.68  0.5  mtk yes tchain  5  pchain  5
fix 1  all npt temp  0.45 ${temp}  0.1  iso  5.68  5.68  0.5  mtk yes tchain  5  pchain  5
fix 1  all npt temp  0.45 0.45  0.1  iso  5.68  5.68  0.5  mtk yes tchain  5  pchain  5

dump dmp2 all dcd ${N} traj.dcd
dump dmp2 all dcd 1000 traj.dcd


compute msd all msd com yes
variable twopoint equal c_msd[4]/6/(step*dt+1.0e-6)
fix 9 all vector 10 c_msd[4]
variable fit equal slope(f_9)/6/(10*dt)
thermo_style custom step temp pe c_msd[4] v_twopoint v_fit v_max_n

fix 1 all npt temp 1.25 ${temp} 0.1 iso 5.68 5.68 0.5 mtk yes tchain 5 pchain 5
fix 1 all npt temp 1.25 0.45 0.1 iso 5.68 5.68 0.5 mtk yes tchain 5 pchain 5
run 500000 # 5000000  # Run for this many steps
Neighbor list info ...
  update every 1 steps, delay 10 steps, check yes
  max neighbors/atom: 2000, page size: 100000
  master list distance cutoff = 3.8
  ghost atom cutoff = 3.8
  binsize = 1.9, bins = 8 8 8
  4 neighbor lists, perpetual/occasional/extra = 1 3 0
  (1) pair lj/cut, perpetual
      attributes: half, newton on
      pair build: half/bin/atomonly/newton
      stencil: half/bin/3d
      bin: standard
  (2) compute orientorder/atom, occasional
      attributes: full, newton on
      pair build: full/bin/atomonly
      stencil: full/bin/3d
      bin: standard
  (3) compute coord/atom, occasional
      attributes: full, newton on
      pair build: full/bin/atomonly
      stencil: full/bin/3d
      bin: standard
  (4) compute cluster/atom, occasional
      attributes: full, newton on
      pair build: full/bin/atomonly
      stencil: full/bin/3d
      bin: standard
Per MPI rank memory allocation (min/avg/max) = 9.822 | 9.827 | 9.831 Mbytes
Step Temp PotEng c_msd[4] v_twopoint v_fit v_max_n 
   12000    1.2637147   -3.1105662            0            0 8.3333333e+20            4 
   13000    1.2731434   -3.1172348    1.0426143 0.0066834249  0.088667542            3 
   14000    1.2291275   -3.1056694    2.1362874  0.012715996  0.091267335            1 
   15000    1.2472608   -3.1266202    3.1792967  0.017662759  0.089784063            1 
   16000    1.2442861   -3.1149311    4.3593294   0.02270484  0.090085058            4 
   17000     1.255975   -3.0841705    5.4387148  0.026660366  0.091137871            1 
   18000    1.2283019    -3.135603    6.6640815  0.030852228  0.092053039            2 
   19000    1.2423081   -3.1337711    7.9220794  0.034745961  0.093807682            1 
   20000    1.2172025   -3.1260139    9.0589818  0.037745757  0.094853785            1 
   21000    1.2305169   -3.1138801    10.319885  0.040951922  0.095692266            2 
   22000    1.2109903   -3.1215863    11.556718  0.043775445  0.096659933            1 
   23000    1.2519847    -3.127041    12.619147  0.045721546  0.097132032            1 
   24000    1.2251143   -3.1301575    13.747366  0.047733908  0.097248449            2 
   25000    1.2372444   -3.1457853     14.80042  0.049334731  0.097016241            6 
   26000    1.2140584   -3.1070447    15.891406  0.050933993  0.096641957            2 
   27000    1.2305791   -3.1437828    16.923652  0.052233494  0.096149055            1 
   28000    1.2465262   -3.1684084    17.824933  0.053050396  0.095493914            4 
   29000    1.2268276   -3.1332284    19.033366  0.054693578  0.095096801            2 
   30000    1.2141385   -3.1446133    20.017829  0.055605079  0.094565256            1 
   31000    1.2256198   -3.1578293    21.041545  0.056563292  0.094027069            1 
   32000     1.217263   -3.1134849     22.23959  0.057915597  0.093650917            4 
   33000    1.1968076   -3.1585161    23.420439  0.059142523   0.09340285            1 
   34000    1.2055303   -3.1556315    24.469726  0.059974818   0.09325287            2 
   35000    1.2066613   -3.1591748    25.771138  0.061359851   0.09315678            1 
   36000    1.2249592   -3.1615311    26.847978  0.062148097  0.093157719            2 
   37000    1.2116847   -3.1574981    27.969258  0.062993823  0.093216689            2 
   38000    1.1884227   -3.1467852    29.012991   0.06362498  0.093173702            2 
   39000    1.1970607   -3.1469996    29.836131  0.063752416  0.093009395            2 
   40000    1.1978339   -3.1692178    31.068402  0.064725837  0.092806144            3 
   41000    1.2230033   -3.1968039    32.005603  0.065052037  0.092617146            3 
   42000    1.1865231   -3.1532025    33.364278  0.066198964  0.092494918            3 
   43000    1.2182328   -3.1503038    34.232489  0.066342032  0.092381052            2 
   44000    1.2240732   -3.1742313    35.100551  0.066478315   0.09220924            1 
   45000    1.1905041   -3.1349762    36.072092   0.06680017  0.091936406            1 
   46000    1.2050808   -3.1766002    36.888914  0.066827742  0.091576979            2 
   47000    1.2001671   -3.1658034    37.651393  0.066757789   0.09120807            1 
   48000    1.2069714   -3.2184289    38.638154  0.067080128  0.090804246            1 
   49000    1.1825743   -3.2000299    39.828188  0.067735012  0.090501094            1 
   50000    1.1895342   -3.2028744    40.902831  0.068171384   0.09028251            1 
   51000    1.1980184   -3.1767325    42.202124  0.068957719  0.090108814            2 
   52000    1.2048021   -3.1736802    43.146226  0.069144593   0.08991851            3 
   53000    1.1690904   -3.1524306    44.324757  0.069693014  0.089782949            3 
   54000    1.2123154   -3.1752338    45.233789  0.069805229  0.089653751            3 
   55000    1.1944125   -3.1992466    46.322866   0.07018616  0.089555108            4 
   56000    1.1659882   -3.1999553    47.282906  0.070361467  0.089459352            2 
   57000    1.1613524   -3.1824419    48.259291  0.070554519   0.08934242            2 
   58000    1.1920765   -3.2047783    49.338637  0.070888846  0.089217246            1 
   59000    1.1755456   -3.2087931     50.28307  0.071021285  0.089070818            3 
   60000    1.1827365   -3.1969141    51.219479  0.071138165  0.088925861            3 
   61000    1.2054774   -3.2249523    52.090561  0.071161968  0.088755393            1 
   62000    1.1494941   -3.2202066    53.022239  0.071266449  0.088590063            2 
   63000    1.2038243   -3.2038794    54.030422  0.071468811  0.088453404            1 
   64000     1.149332   -3.2095916    55.287798   0.07198932  0.088344075            2 
   65000    1.1724834   -3.2607247    55.875576  0.071635353  0.088203511            3 
   66000    1.1792194    -3.219358    57.190298  0.072209972  0.088074785            3 
   67000    1.1865053   -3.2065455    58.342627  0.072565456  0.087970654            3 
   68000    1.1579595   -3.2143227    59.154124  0.072492799  0.087841806            2 
   69000    1.1885388   -3.2027173    59.819868  0.072246217  0.087710466            1 
   70000    1.1467878   -3.2245628    61.049252   0.07267768  0.087565348            3 
   71000    1.1291605   -3.2386775    61.432596  0.072103986  0.087404993            2 
   72000    1.1647757   -3.2257556    62.494423  0.072331507  0.087225398            2 
   73000    1.1689019   -3.2246511    63.429463  0.072408062  0.087035249            1 
   74000    1.1320041    -3.249316    64.058251   0.07213767  0.086824631            3 
   75000     1.157075   -3.2333699    65.026169  0.072251299  0.086627597            2 
   76000    1.1458871   -3.2457909    65.513934  0.071835454  0.086408878            3 
   77000    1.1220497   -3.2086777     66.80844  0.072303506  0.086196583            2 
   78000    1.1547804   -3.2368611    67.174004  0.071767098  0.085985535            7 
   79000    1.1231361   -3.2665044    68.524218   0.07228293  0.085767684            3 
   80000     1.152606    -3.258277    69.233365  0.072118088  0.085552706            1 
   81000    1.1332347   -3.2184434    70.621073  0.072655424  0.085379215            2 
   82000    1.1335535   -3.2288382    71.608669  0.072773037  0.085215495            4 
   83000    1.1616306   -3.2323723    72.867643  0.073160283  0.085079826            1 
   84000    1.1314128   -3.2694285    73.526223  0.072942682  0.084951109            7 
   85000    1.1187104   -3.2212912    74.559592  0.073097638  0.084817099            2 
   86000    1.1167661   -3.2309379    75.276083  0.072941941  0.084666513            2 
   87000    1.1155823   -3.2437443    75.924038  0.072724174     0.084508            2 
   88000    1.1163028   -3.2688037    76.500387  0.072443547  0.084331944            5 
   89000    1.1052141   -3.2710854    77.560624  0.072622307  0.084159524            2 
   90000    1.1260162   -3.2608582    78.285535  0.072486606  0.083977818            2 
   91000     1.130529    -3.256157    79.453353  0.072759481  0.083799165            2 
   92000    1.1157311   -3.2732249    80.467742  0.072887447  0.083629473            1 
   93000    1.1287272   -3.2669025     81.27229  0.072824632  0.083475839            3 
   94000    1.1056516   -3.2474268    82.223714  0.072893363   0.08332379            2 
   95000    1.1241829   -3.2603351    83.516305  0.073259917  0.083193174            1 
   96000    1.1238403   -3.2686479    84.470811  0.073325356  0.083094738            2 
   97000    1.1067532   -3.2727212    85.833107  0.073739782  0.083003977            2 
   98000    1.1094391   -3.2702564    86.975226  0.073958525  0.082929995            6 
   99000    1.1186338   -3.3106273    87.949866  0.074031873  0.082862126            2 
  100000     1.105857   -3.3178063    89.374029  0.074478357  0.082807829            3 
  101000    1.0828081   -3.2964421    90.226326  0.074444163  0.082783543            5 
  102000    1.1102937   -3.2532882    90.964496  0.074317398  0.082745949            3 
  103000    1.1020755   -3.2995593    91.840437   0.07430456  0.082713867            1 
  104000    1.0722445   -3.3032626    93.032733  0.074545459  0.082690362            2 
  105000    1.1117476   -3.2920036    94.155796  0.074726822  0.082674912            2 
  106000    1.1109481    -3.308684     94.95098  0.074646996  0.082651231            2 
  107000    1.0818346   -3.2797519    96.182042  0.074908132  0.082627918            3 
  108000    1.0835424   -3.2838473    96.939424  0.074798938  0.082595997            3 
  109000    1.1032255   -3.3126817    97.832434  0.074795439  0.082567298            2 
  110000    1.1068489   -3.3013812    98.789035  0.074840178  0.082536441            2 
  111000    1.0890713   -3.3291632    99.644646  0.074808293  0.082513267            2 
  112000    1.0941819    -3.290125    100.46986  0.074754363  0.082471522            3 
  113000    1.0769403   -3.3459057    100.68114  0.074248626  0.082406193            2 
  114000    1.0801657   -3.3440853    102.09698  0.074632292  0.082338707            2 
  115000    1.0806035   -3.3068872    103.24574  0.074815751  0.082273521            2 
  116000     1.098875   -3.3024037    103.15949  0.074108831  0.082194219            2 
  117000    1.0766566   -3.3269849    103.96234  0.074047252  0.082103885            2 
  118000    1.0776581    -3.319469    105.01734  0.074164785  0.082005718            1 
  119000    1.0900325   -3.3502661     105.4768  0.073863305  0.081905085            1 
  120000    1.0707006   -3.3385248    106.81567  0.074177545  0.081812169            2 
  121000    1.0863826   -3.3353039    107.09354  0.073755882  0.081721445            1 
  122000     1.071942   -3.3641278    108.09154   0.07383302  0.081631268            2 
  123000    1.0657961   -3.3326229    108.46048  0.073482711  0.081517981            2 
  124000    1.0795535   -3.3344112    109.14611  0.073350878  0.081404255            2 
  125000    1.0554497   -3.3781257    109.97945  0.073319631  0.081271174            2 
  126000    1.0659842   -3.3620105     110.3701  0.072996099  0.081145539            3 
  127000    1.0607043   -3.3309228    111.75558  0.073330433  0.081011974            1 
  128000     1.076618     -3.35115    112.25053  0.073079771   0.08088138            2 
  129000    1.0661889   -3.3914907     111.9676  0.072330492  0.080737384            1 
  130000    1.0361507   -3.3416605    113.00962  0.072442066  0.080582875            4 
  131000    1.0701513   -3.3757488    113.37127  0.072119128  0.080423043            2 
  132000    1.0566255   -3.3265316    114.58712  0.072340356  0.080262494            2 
  133000    1.0620608   -3.3578472    115.46475  0.072346333  0.080102737            3 
  134000     1.087247   -3.3347053    115.86405  0.072054755  0.079946592            2 
  135000    1.0401309   -3.3617214    116.37303  0.071835203  0.079788613            2 
  136000    1.0441782   -3.3814399    116.86554  0.071608789  0.079623619            8 
  137000    1.0714752   -3.3411041     117.7315  0.071612834  0.079453324            2 
  138000    1.0241246   -3.3880119    118.33795  0.071460112  0.079282719            2 
  139000    1.0416888   -3.3952299     118.9657  0.071322361  0.079108163            3 
  140000    1.0785426   -3.3734604    119.97592  0.071414236  0.078940372            2 
  141000    1.0550679   -3.3894038    120.73626  0.071357127  0.078767301            3 
  142000    1.0424145   -3.3611499    121.09869  0.071067304  0.078604952            3 
  143000    1.0578338   -3.3600851     122.2278  0.071228324  0.078438619            5 
  144000    1.0248411    -3.386735    122.75942   0.07104133  0.078283801            2 
  145000    1.0499766   -3.3604426    123.67954  0.071080193  0.078132082            1 
  146000    1.0383236   -3.3958625    124.29977  0.070947356  0.077976222            3 
  147000    1.0137629   -3.3729093    124.99893  0.070861072  0.077813712            3 
  148000    1.0477178   -3.3915994    125.93535  0.070909545  0.077661792            2 
  149000    1.0502664   -3.3924166    126.16292  0.070560915  0.077503997            3 
  150000    1.0386827   -3.3880785    127.27905  0.070710585  0.077348741            2 
  151000    1.0148592   -3.3909782     128.0077  0.070644426  0.077195528            3 
  152000    1.0377323   -3.3869027    128.90406  0.070671083  0.077043268            1 
  153000    1.0340425   -3.3621728    129.38398  0.070470579  0.076898802            1 
  154000    1.0263649   -3.4000671    130.82954  0.070795207  0.076758624            3 
  155000    1.0228517   -3.3770423    131.06697  0.070466113  0.076620794            4 
  156000    1.0185107   -3.4071757    131.68088  0.070342353  0.076477467            4 
  157000    1.0321257   -3.4050339    131.76971   0.06994146  0.076329267            4 
  158000    1.0108822   -3.4087729    132.68559  0.069981852  0.076176712            4 
  159000    1.0296634   -3.3840144    133.30043  0.069863956  0.076021404            3 
  160000   0.99167867   -3.4271805    134.22209  0.069907337  0.075873979            2 
  161000    1.0082556   -3.4252724    134.55967   0.06964786  0.075725305            2 
  162000     1.003538   -3.4244114     134.6773  0.069278446  0.075570585            2 
  163000    1.0013796   -3.3888447     136.1211  0.069591567  0.075421709            2 
  164000   0.99858721   -3.4345448    136.58132  0.069401078   0.07527118            4 
  165000    1.0234749   -3.4534295    137.66092  0.069525719  0.075128956            1 
  166000    1.0155227    -3.402664     138.1075  0.069331074  0.074983443            3 
  167000   0.97918022   -3.4472316    138.27109  0.068997551  0.074832119            2 
  168000    1.0345028   -3.4126288    138.19309  0.068548161  0.074677017            4 
  169000     1.000148    -3.444779    139.21318  0.068645553  0.074517424            2 
  170000    1.0016626   -3.4479955    140.05415  0.068653995  0.074359588            3 
  171000   0.99709053   -3.4626617    140.48861  0.068464235  0.074203465            2 
  172000    1.0014453   -3.4401307    141.22672  0.068423796  0.074048724            2 
  173000    1.0220502   -3.4383087    141.67151  0.068242539  0.073898247            3 
  174000   0.98510014   -3.4555083    142.82389  0.068402246  0.073749875            4 
  175000    1.0018337   -3.4413237    142.76913  0.067985301  0.073602188            3 
  176000   0.99102995   -3.4633111    143.65213  0.068017108  0.073454945            5 
  177000   0.98899011   -3.4714716    144.70284  0.068127512  0.073312647            4 
  178000   0.98557102   -3.4557993    144.91145   0.06784244  0.073174695            2 
  179000   0.99671996   -3.4495631    146.05637  0.067996446  0.073038778            3 
  180000   0.96342466   -3.4781006    146.25579  0.067711014  0.072901903            4 
  181000   0.97569072   -3.4386265    147.72677  0.068014165  0.072761463            2 
  182000   0.97840031   -3.4778057    147.83405  0.067689585  0.072624086            1 
  183000    1.0058379   -3.4528475    148.22463  0.067497552  0.072479913            4 
  184000    0.9891332    -3.497111     148.4326  0.067224909  0.072336591            7 
  185000   0.96215369    -3.446067    150.02807  0.067580212  0.072196275            3 
  186000   0.97637558   -3.4868586    150.41909  0.067392065  0.072056968            2 
  187000   0.97611984   -3.5051221    150.76423  0.067185485  0.071917569            3 
  188000   0.98558889    -3.468663    151.33022  0.067078997  0.071782794            3 
  189000   0.97929508   -3.4896132    152.67596  0.067317444  0.071647332            2 
  190000   0.94279366   -3.5053671    153.01469  0.067111707  0.071508347            5 
  191000   0.94643081   -3.4890183    153.45787  0.066953696  0.071372004            3 
  192000   0.96928857   -3.4751701    153.80585  0.066756011  0.071235003            2 
  193000   0.94269642    -3.501894    153.74062  0.066381959  0.071096253            4 
  194000   0.94833606   -3.4862836    153.86404    0.0660928  0.070956422            4 
  195000   0.95412962   -3.4916762    155.17354  0.066313477  0.070822096            2 
  196000   0.95842905   -3.4830368    156.36502  0.066481727  0.070692913            2 
  197000   0.98914959   -3.4872124    157.06081  0.066438583  0.070566862            2 
  198000   0.94853528   -3.4872912    158.89908  0.066876718   0.07044425            4 
  199000   0.97434746   -3.5274344    158.33911  0.066306162  0.070320957            2 
  200000   0.95441135   -3.5098687    159.70845  0.066545186   0.07020024            4 
  201000   0.95425085   -3.4946239    159.97412   0.06632426  0.070078905            3 
  202000   0.94389592   -3.5276917    160.37135  0.066159798  0.069959735            6 
  203000    0.9811698   -3.5089856    160.74284  0.065986386  0.069840671            2 
  204000   0.93509191   -3.5048651    162.26101  0.066283093  0.069718454            3 
  205000   0.93370123   -3.5283192    162.40467   0.06601816  0.069596253            5 
  206000   0.92781403   -3.5241239    163.01824  0.065945889  0.069474386            3 
  207000   0.94002948   -3.5376061    162.92585  0.065590117  0.069350143            4 
  208000   0.91189585   -3.5098943    163.90764  0.065668123  0.069224919            3 
  209000   0.93620564   -3.5434351    164.30197  0.065511152  0.069100959            3 
  210000    0.9276162   -3.5344436    164.45964  0.065261761  0.068975054            3 
  211000   0.94456608   -3.5233901    165.40678  0.065326533  0.068848816            2 
  212000   0.91549047   -3.5413145    165.80186  0.065173685  0.068720026            5 
  213000   0.94022437   -3.5523544    165.65775  0.064811326  0.068593125            3 
  214000   0.92113867   -3.5387386     165.7994  0.064563631  0.068462667            5 
  215000   0.91750388   -3.5364914    166.45245  0.064516455  0.068332135            1 
  216000   0.92531549   -3.5654339    166.80937  0.064355465  0.068201139            3 
  217000   0.91879875    -3.560534    167.84164  0.064455315  0.068070852            3 
  218000   0.92895755   -3.5714728    168.25436  0.064317416  0.067943602            2 
  219000   0.90792401   -3.5625212    168.86825  0.064257323   0.06781605            2 
  220000   0.89933081    -3.533048    169.03296  0.064027636  0.067685295            1 
  221000   0.91032516   -3.5891349    169.64564  0.063968944   0.06755622            2 
  222000   0.91337887   -3.5599157    170.52232   0.06400988    0.0674296            2 
  223000   0.90796921   -3.5578291    170.65689  0.063773128  0.067305727            2 
  224000   0.90838224   -3.5629718    171.68417    0.0638706   0.06717872            4 
  225000   0.89292403    -3.586309    171.40117  0.063481914  0.067051859            2 
  226000   0.88988156   -3.5796098    172.69664  0.063678703  0.066922611            2 
  227000   0.90397956   -3.5783637    172.76761  0.063424234  0.066795227            5 
  228000   0.90497188   -3.5746743     173.1561  0.063288048  0.066665994            3 
  229000   0.91261753   -3.5750924    173.54447   0.06315301  0.066536779            7 
  230000    0.8863891   -3.5692816    174.11758  0.063086081  0.066409421            5 
  231000   0.89073803   -3.5665002    175.06929  0.063156309  0.066282928            5 
  232000    0.9039432   -3.6202223    174.66156   0.06273763  0.066154578            4 
  233000   0.89087631   -3.5740811    175.39385  0.062730277  0.066022289            2 
  234000   0.87723486   -3.6120188    174.83336  0.062262592  0.065888007            3 
  235000   0.89187842   -3.6023417    176.05117  0.062429493  0.065756127            1 
  236000   0.88897114   -3.5893136    176.96102  0.062486236  0.065624403            3 
  237000    0.8831398   -3.6243328     176.7956  0.062164415  0.065493531            3 
  238000    0.8661811   -3.6249003    178.55525  0.062519346  0.065365843            5 
  239000   0.89128537   -3.5870171    178.30312  0.062169845  0.065239338            4 
  240000   0.86609389   -3.6158509    178.41914  0.061951089   0.06511134            3 
  241000   0.87131076   -3.6141954    179.24069  0.061978109  0.064984718            2 
  242000   0.87976835    -3.602832    178.95424  0.061623362  0.064857149           11 
  243000   0.86986264    -3.595724    180.04966  0.061745425  0.064727709            8 
  244000   0.87342706   -3.6266613     180.7522  0.061732309  0.064600576            4 
  245000   0.88651085   -3.6351293    180.84292  0.061511198  0.064472192            8 
  246000   0.88939649   -3.6472126    181.49293  0.061481344  0.064343697            7 
  247000   0.87065125   -3.6373881    181.44296  0.061215575  0.064214623            6 
  248000   0.87943128   -3.6181873    181.96512  0.061144194  0.064085961            7 
  249000   0.86853669   -3.6191606    181.86719  0.060865858   0.06395826            3 
  250000   0.86629514   -3.6268135    182.58542  0.060861806  0.063830965            6 
  251000   0.87324502   -3.6533645    183.26426  0.060844707  0.063705045            6 
  252000   0.87278167    -3.630002    184.47795  0.061004612  0.063582325            3 
  253000   0.85805822   -3.6246701    185.08135  0.060962237  0.063460936            4 
  254000   0.85765387   -3.6472594    184.94494  0.060677473  0.063336505            5 
  255000   0.84760372   -3.6445351    184.79719   0.06039124  0.063210477            5 
  256000   0.84686568   -3.6486906    185.88207  0.060508488  0.063085567            7 
  257000   0.86866863   -3.6526916    186.15574  0.060361784  0.062963172            4 
  258000   0.85227813   -3.6251015    187.07151  0.060423615  0.062841153            3 
  259000    0.8663263   -3.6487175    187.72639  0.060401027  0.062720873            4 
  260000   0.85124719   -3.6449457    188.58901  0.060445194  0.062603588            2 
  261000   0.85673756   -3.6868535    188.37542  0.060145408  0.062487745            3 
  262000   0.83249675   -3.6974291    189.02993  0.060124025   0.06237128            3 
  263000    0.8498686   -3.6900712    188.61448  0.059763778  0.062253544            5 
  264000   0.84253859   -3.6696614    189.44882  0.059800763  0.062131691            3 
  265000   0.83261134   -3.6763014     189.9819  0.059742737  0.062011866            5 
  266000   0.84753061   -3.6714913    189.82022  0.059467488  0.061891155            7 
  267000   0.83507281    -3.679601    190.46411  0.059445727  0.061768994            4 
  268000    0.8461866   -3.6586619     190.0901  0.059107617   0.06164816            5 
  269000   0.84297348   -3.6749972    191.49222  0.059322249  0.061529631            3 
  270000   0.83911804   -3.6703112    192.18877  0.059317523  0.061411896            2 
  271000   0.83897388   -3.7063973    191.81587  0.058983971  0.061294644            6 
  272000   0.84852256   -3.6850489    192.63652  0.059018543  0.061175953            6 
  273000   0.83058732   -3.6787445    192.69086  0.058818942  0.061057739            5 
  274000   0.84242871    -3.707869    192.25015  0.058470239  0.060937973            3 
  275000   0.83804672   -3.6746392    194.08676   0.05881417   0.06081739            4 
  276000   0.82076679   -3.6912037    193.24384  0.058346569   0.06069703            7 
  277000   0.82163476   -3.6990746    193.93142  0.058342786  0.060576415            5 
  278000   0.82128623   -3.7048546    194.59565   0.05833203  0.060457941            7 
  279000   0.80351574    -3.689732    195.28937  0.058330157  0.060338383            6 
  280000   0.80514651   -3.6871869    195.16727  0.058085498   0.06021911            5 
  281000   0.82419691   -3.7127967    195.27576   0.05791096  0.060100296            6 
  282000   0.81817227   -3.7203012    195.76861  0.057851243  0.059981037            4 
  283000   0.79683712   -3.7027382    196.38475  0.057828255  0.059863106            5 
  284000   0.82911769   -3.7031449    197.11681   0.05783944  0.059744524            7 
  285000   0.79890131   -3.7278045    196.97243  0.057594276  0.059627774            7 
  286000     0.799275   -3.7181278    197.89926  0.057662956  0.059510687            2 
  287000   0.79948566   -3.7555592    198.61716  0.057670488  0.059396103            6 
  288000   0.82430762   -3.7118733    198.92391     0.057559  0.059282191            3 
  289000   0.79631709    -3.728539     199.0104  0.057384775  0.059168184            4 
  290000   0.81172273   -3.7303219    199.97979  0.057465456  0.059054295            3 
  291000   0.79525264   -3.7523927    199.91336  0.057248958  0.058942652           10 
  292000   0.82404819   -3.7504454    200.10413  0.057107342  0.058830483            2 
  293000   0.80593946   -3.7312521     201.1491  0.057209642    0.0587183            5 
  294000   0.80990766   -3.7514086    200.50796  0.056833321  0.058606373            2 
  295000   0.78249819   -3.7657968    201.25029  0.056850365  0.058494221            6 
  296000   0.81255424   -3.7607369    201.25532  0.056659718  0.058381235            2 
  297000   0.80060654   -3.7520599    202.30403  0.056763196  0.058268168            5 
  298000   0.79711719   -3.7264798    202.18214  0.056538629  0.058155495           12 
  299000   0.78922695   -3.7473095    202.92708  0.056557156  0.058045325            5 
  300000   0.80766904   -3.7412445    203.47394  0.056520538  0.057935609            3 
  301000   0.79195974   -3.7420427    203.12212   0.05623536  0.057825696            4 
  302000   0.80462899   -3.7571375    204.13455  0.056328518  0.057714762            6 
  303000   0.78983873   -3.7867182    203.55806  0.055984065  0.057602085            5 
  304000   0.78125258   -3.7964292    203.56111  0.055800742  0.057488939            7 
  305000   0.77268684   -3.7467429    204.70005  0.055928975  0.057375776            4 
  306000   0.78851558   -3.7422953    205.52776  0.055971611  0.057264252            3 
  307000   0.77573819   -3.7976929    204.63068  0.055545786  0.057152863            4 
  308000   0.77421533   -3.8178231    204.85535  0.055426231  0.057039679            3 
  309000   0.75501859   -3.7934587    205.40707  0.055395651  0.056927363           11 
  310000   0.76654539   -3.8026025    206.20447   0.05543131   0.05681561            7 
  311000   0.77316522   -3.7819601     206.5379  0.055342416   0.05670403            3 
  312000   0.76325214   -3.7842203    206.82945  0.055242909   0.05659406            5 
  313000   0.77110629   -3.7803747    207.33333  0.055200567   0.05648483            7 
  314000   0.77108036   -3.7781113    207.38025  0.055037222  0.056373638            4 
  315000   0.76013673   -3.8016168    207.08918  0.054785497  0.056262436           14 
  316000   0.76738055   -3.7816353    207.89806  0.054825437  0.056150956            5 
  317000   0.73779084   -3.7950305    207.70866  0.054602697   0.05603956            8 
  318000   0.75526652   -3.8106404    207.42598  0.054356913  0.055927624            7 
  319000   0.73311828   -3.8166595    207.99427   0.05433497  0.055815529            4 
  320000   0.76436282   -3.7998598    208.39365   0.05426918  0.055702933            5 
  321000   0.74319911   -3.8422095    208.72268  0.054185536  0.055588414            4 
  322000    0.7703552   -3.8111104    209.25728   0.05415561  0.055474626            4 
  323000   0.74844836   -3.8097598    208.75644  0.053858731  0.055361913            5 
  324000   0.75136954   -3.8213962    209.13454  0.053789747   0.05524692            4 
  325000   0.75376296   -3.8310321    209.15423   0.05362929  0.055134423            5 
  326000   0.74524718    -3.844834    208.98031  0.053420325  0.055022061            8 
  327000   0.75084601   -3.8291101    210.14668  0.053554201  0.054911069            8 
  328000   0.73653874   -3.8292305     211.5587   0.05374967  0.054801982            6 
  329000    0.7291443   -3.8524686    210.99553  0.053443651  0.054691626            7 
  330000   0.73483979   -3.8384737     211.2119  0.053336338  0.054581295            7 
  331000   0.73989669   -3.8639712     211.6178  0.053277392  0.054469843            8 
  332000    0.7407029   -3.8430655    211.56398  0.053103408    0.0543591            3 
  333000   0.73553169   -3.8464099    212.14285  0.053088801  0.054249526            4 
  334000   0.71948303    -3.861247    212.49562   0.05301787  0.054140337            5 
  335000   0.71226468   -3.8692641    212.44597  0.052847257  0.054031482            8 
  336000   0.73158319   -3.8648884     212.9081  0.052804588   0.05392073            6 
  337000   0.70563959   -3.8738327    212.73552  0.052605222  0.053810936            6 
  338000   0.74162023   -3.8521281     213.4892  0.052635405   0.05370206            9 
  339000   0.71658108   -3.8705271     212.6794  0.052281071  0.053592949            2 
  340000   0.73047326   -3.8550463    213.72901  0.052384561  0.053485519            4 
  341000   0.71170652   -3.8880186    214.07025  0.052314332  0.053377018            7 
  342000   0.72264189   -3.8799999    215.03676  0.052396871  0.053269752            4 
  343000   0.71559598   -3.8719581    214.08132  0.052011983   0.05316261            7 
  344000   0.72224018   -3.8685731    215.06645  0.052099431  0.053055523            5 
  345000   0.71346551   -3.8669908    215.36315  0.052020085  0.052948456            6 
  346000   0.72044653   -3.8948977    215.64515  0.051937657  0.052841357            3 
  347000   0.71278616   -3.8825071    216.09692  0.051896474   0.05273444            5 
  348000   0.70977685   -3.8920169    216.25378  0.051784908  0.052627985            9 
  349000   0.72379408   -3.8729676    215.84446  0.051538791  0.052521653           11 
  350000   0.70347993   -3.8874379      215.894  0.051403333  0.052414905            5 
  351000   0.69769374    -3.873228    216.12396  0.051311481  0.052308079            9 
  352000   0.70375496   -3.9177808    216.19028  0.051181412  0.052200356           12 
  353000    0.7125174   -3.8957199    217.22452  0.051280577  0.052093106            7 
  354000   0.72075106   -3.9009399     217.1549  0.051119326   0.05198596           12 
  355000   0.69132557   -3.9168526     216.7689  0.050884719  0.051879549            6 
  356000    0.7105718   -3.9043506    217.46341  0.050904357  0.051772599            5 
  357000   0.69322583   -3.9248129    217.87627  0.050858139  0.051666102            3 
  358000   0.69352648   -3.8887621    218.71971  0.050912409  0.051560206            3 
  359000   0.69721124   -3.9226833    217.87508   0.05057453  0.051454789           10 
  360000   0.68995703   -3.9060087    218.47754  0.050573504  0.051347195            7 
  361000   0.68736789    -3.948296    218.11308  0.050349281  0.051239731            6 
  362000   0.69091382   -3.9261979    218.08879  0.050204603  0.051131629            4 
  363000   0.67515066   -3.9393696    218.59558   0.05018264  0.051024493            5 
  364000   0.68272351   -3.9416507    219.11383  0.050163422  0.050917382           11 
  365000   0.68060107   -3.9497369    218.99233  0.049998249   0.05081068            8 
  366000   0.68806027   -3.9489301    219.01048  0.049865775  0.050705357            8 
  367000   0.67372562   -3.9538142    218.88028  0.049700337  0.050599159           10 
  368000   0.66594561   -3.9327038      219.975  0.049813178  0.050493898            5 
  369000   0.68334753   -3.9511393    220.01988  0.049688319  0.050389015            6 
  370000   0.67743961   -3.9567209    220.15115  0.049583591  0.050283581           13 
  371000   0.68291278   -3.9623005    220.66044   0.04956434  0.050178779            7 
  372000   0.68095557   -3.9511771    221.00082  0.049507352  0.050074718            6 
  373000    0.6661202   -3.9547912    221.26836  0.049434396  0.049971315            5 
  374000   0.66937111   -3.9722258    221.78594  0.049417544   0.04986814            7 
  375000   0.68049448   -3.9685239    221.99794  0.049332875  0.049765036            7 
  376000    0.6641361   -3.9936695    221.53486  0.049099038   0.04966319            7 
  377000   0.67104579   -3.9696262    220.85555  0.048818645  0.049560239            9 
  378000   0.65724191   -3.9583238    221.89022  0.048917597  0.049457613           10 
  379000   0.65199171   -3.9900944    221.75222  0.048758183  0.049354395           13 
  380000    0.6528901   -3.9915318    221.14641   0.04849702  0.049251515            9 
  381000   0.65164255   -3.9688569    222.88846  0.048750757  0.049148461            5 
  382000   0.66113967   -3.9857024    222.42097  0.048521155  0.049046395            5 
  383000   0.64373612   -3.9850262    223.00668  0.048521906  0.048943925            7 
  384000   0.66133406   -3.9880996     222.8097  0.048352799  0.048840863            6 
  385000    0.6560462    -4.005462    222.69043  0.048201391  0.048737474            4 
  386000   0.65905833    -4.001199    222.64683  0.048067105  0.048633901            9 
  387000   0.65258104    -4.015528    223.26863  0.048076793  0.048531039            8 
  388000   0.64968612   -4.0058331     223.0522  0.047906401  0.048427915           12 
  389000   0.66494188     -4.01129    222.78538  0.047726088  0.048324279            5 
  390000   0.65770441   -4.0250441     222.5845   0.04756079  0.048220996            5 
  391000   0.65596562   -4.0205247    223.20352  0.047571083  0.048116366            9 
  392000   0.63429651   -4.0344649    223.34483  0.047479767  0.048012585            7 
  393000    0.6348351   -4.0175779    223.25493  0.047339893  0.047908516            8 
  394000   0.63333887   -4.0153323     223.9722  0.047371447  0.047805377            7 
  395000   0.63612013   -4.0081137    224.26442  0.047313168  0.047702195            5 
  396000   0.63203625   -4.0127518    224.27055  0.047194981  0.047599525            6 
  397000   0.64272456   -4.0277849    223.73538  0.046963766  0.047496275            6 
  398000    0.6320749   -4.0271653    223.73785  0.046846283  0.047393759            7 
  399000   0.61376593   -4.0304445    224.87282  0.046965918  0.047290757            6 
  400000   0.62851382   -4.0389675    224.12144  0.046691967  0.047187955            9 
  401000   0.62809312   -4.0327186    224.67127   0.04668979  0.047085201            6 
  402000   0.62887459   -4.0376027    224.82402   0.04660531  0.046982072            7 
  403000   0.61652339   -4.0733404    224.46418  0.046415256  0.046878653            5 
  404000   0.62802518   -4.0296511    224.96624  0.046403926  0.046775455            7 
  405000   0.62280488   -4.0718501    224.40698  0.046174276  0.046672029            8 
  406000   0.61349965   -4.0510863    224.00124  0.045977265  0.046567933           13 
  407000   0.61819908   -4.0779294    224.25062  0.045915361  0.046463418           12 
  408000   0.62075452   -4.0775858    225.23928  0.046004754  0.046359247            8 
  409000   0.62184701   -4.0773732    224.76843  0.045796339  0.046255354           13 
  410000   0.61725746   -4.0815726    224.71042   0.04567285  0.046151308           14 
  411000   0.60675397   -4.0735128    225.38864  0.045699237  0.046047647           11 
  412000   0.61112773   -4.0941098    225.36626  0.045583791  0.045944744            6 
  413000   0.60371958   -4.0927645     225.5999   0.04552056  0.045841948            8 
  414000   0.61093856   -4.0941498    225.62249  0.045415155   0.04573989           16 
  415000   0.61832662   -4.0905261    226.23248  0.045428209  0.045638425           16 
  416000   0.60161519   -4.0931963     226.3175  0.045336037  0.045537397           11 
  417000   0.60655779   -4.0740153    226.08981  0.045181817  0.045435944            3 
  418000    0.5942497   -4.0913082    226.07401  0.045070575  0.045335005           14 
  419000   0.58866479   -4.1028589    226.33402  0.045014721  0.045234655           20 
  420000   0.59381902   -4.1041533    226.70633  0.044981414  0.045133824            6 
  421000   0.58871169   -4.1113225    226.65728  0.044864862  0.045032842           10 
  422000   0.58731331   -4.1005189    226.67354  0.044761757  0.044932847            8 
  423000   0.59828735     -4.10159    226.15956   0.04455468  0.044832073           11 
  424000   0.58236079   -4.0988731    226.84489  0.044584294  0.044731235            8 
  425000   0.58415235    -4.115611    226.79382  0.044469377  0.044631436            8 
  426000   0.57678382   -4.1406837    226.46249  0.044300175  0.044530541           11 
  427000   0.58463957   -4.1279336    226.70718   0.04424418  0.044429922            8 
  428000   0.58387784   -4.1033435    226.63278  0.044126321  0.044329732           10 
  429000   0.58425373   -4.1224484    226.50837  0.043999296  0.044229461           10 
  430000   0.58903004   -4.1373904    227.43341  0.044076242  0.044129188            9 
  431000   0.58927262   -4.1416881    228.06927  0.044096921   0.04403004            8 
  432000   0.58799279   -4.1486454    227.49953   0.04388494  0.043931176           11 
  433000   0.57404337   -4.1437288    226.94683   0.04367722  0.043831649            7 
  434000   0.56397787   -4.1381691     226.8203  0.043552285    0.0437321            6 
  435000   0.57900088   -4.1406177    227.45017  0.043572829  0.043632435           10 
  436000   0.57965033   -4.1542925    227.97612  0.043573418  0.043533103           11 
  437000    0.5616827   -4.1453101    227.45257   0.04337387   0.04343389           13 
  438000   0.57291129   -4.1583643    227.47322   0.04327877  0.043334872            6 
  439000   0.55361121   -4.1602504     226.8452  0.043060971  0.043235269           13 
  440000   0.57035313   -4.1429838    227.63457  0.043112609  0.043136243            9 
  441000    0.5594166   -4.1648401    228.12679  0.043107858  0.043037907           10 
  442000   0.54508815   -4.1755725    227.76431  0.042941989   0.04293891            9 
  443000   0.55765342   -4.1568305    227.87679  0.042866214  0.042840417            9 
  444000   0.57200591   -4.1823148    227.48529  0.042696189  0.042741844            9 
  445000   0.56619963   -4.1893246    227.38866  0.042582146  0.042642913            3 
  446000    0.5634687   -4.1802792    228.00357  0.042601564  0.042544384            9 
  447000   0.54651692   -4.1654737    227.97406  0.042500756  0.042446089           10 
  448000   0.54787043   -4.1842886    228.09575  0.042428524    0.0423479            5 
  449000    0.5551338    -4.206554    228.14925  0.042343958  0.042250031           11 
  450000   0.54506014   -4.1735461    227.85808   0.04219594  0.042152432           11 
  451000   0.55245228   -4.1887563     227.6175  0.042057927  0.042054725           15 
  452000   0.55021529     -4.19308    228.52429  0.042132059  0.041956887           20 
  453000   0.53520051   -4.1986251    228.74773  0.042080156  0.041859614           12 
  454000   0.54251083   -4.2081763    227.78263  0.041810321  0.041762286           16 
  455000   0.54643235   -4.2096077    227.97484  0.041753633  0.041665257           11 
  456000   0.54092814   -4.1962985    227.79947  0.041630021  0.041568033            7 
  457000   0.54609331   -4.1985329    227.86026  0.041550011  0.041471219           13 
  458000   0.53252417   -4.2175901    228.34074  0.041546714  0.041374858           18 
  459000   0.52260849   -4.2237126    228.50009  0.041485129  0.041278255           10 
  460000   0.53009654   -4.2170053    228.63495  0.041419375  0.041181764            8 
  461000   0.52220336   -4.2364835    228.19965   0.04125084   0.04108541           17 
  462000   0.52804688   -4.2135344    228.84434  0.041277839  0.040988744           11 
  463000   0.54113004   -4.2223725    228.68038  0.041159175  0.040892069           21 
  464000   0.52804011    -4.220669    228.83464  0.041098176  0.040795666           41 
  465000   0.54265989   -4.2414878     228.8314  0.041009212   0.04069941           10 
  466000   0.52332364   -4.2218943    228.62096  0.040883576  0.040603505           11 
  467000   0.52101255   -4.2378593    228.48708  0.040772141  0.040507768           16 
  468000   0.51130633   -4.2359278    228.22411  0.040638196  0.040412033           10 
  469000   0.51719561   -4.2407826    227.93126  0.040499514  0.040316268           14 
  470000   0.52376891   -4.2646844    228.17055  0.040455772  0.040220636            8 
  471000   0.52085362   -4.2692037    228.52727  0.040432992  0.040124758           14 
  472000   0.51165963   -4.2682315    228.01078  0.040256141   0.04002875           19 
  473000   0.51513748   -4.2626902    228.04551  0.040177152  0.039932695           19 
  474000   0.51440822   -4.2510409    228.57342  0.040185201  0.039836876           11 
  475000   0.51703514   -4.2640111    227.55551   0.03992202  0.039741206           29 
  476000    0.5148773   -4.2690734    228.42034  0.039989555  0.039645672           16 
  477000   0.50003132   -4.2584452     228.2716  0.039879734  0.039550593           18 
  478000   0.50078837   -4.2887171    228.11351  0.039768744  0.039455377           25 
  479000   0.48895748   -4.2868023    227.88806  0.039646496  0.039360142           35 
  480000   0.50304846   -4.2718055    228.44296  0.039660236  0.039265179           22 
  481000   0.50224747   -4.2829981    228.22542  0.039540094   0.03917059           23 
  482000   0.49881567   -4.2809547    227.88205  0.039398695   0.03907564           25 
  483000    0.4991929   -4.2837997    227.47964  0.039247694  0.038981014           21 
  484000   0.50680078   -4.3086283    227.29475   0.03913477  0.038886088           24 
  485000   0.49468166   -4.3069225    227.66892  0.039118371  0.038791079           20 
  486000   0.48750119   -4.3113872    227.64193  0.039033253  0.038696387           11 
  487000   0.47750447   -4.3140043    227.58983  0.038944186  0.038602012           18 
  488000   0.48959908   -4.3175871    227.52872  0.038853948  0.038507572           37 
  489000   0.48255581   -4.2980036    227.35928  0.038745617  0.038413415           49 
  490000   0.48222924   -4.3148147    228.01114  0.038777405  0.038319411           27 
  491000   0.48077136   -4.3163944    227.50412  0.038612376  0.038225369           62 
  492000   0.48147804   -4.3242426    228.20769  0.038653064   0.03813179           40 
  493000   0.47784161   -4.3327386    227.87679  0.038518728  0.038038262           65 
  494000   0.47750121    -4.318717    227.69549   0.03841017  0.037944806           19 
  495000   0.47286253   -4.3409987    227.76468  0.038344223  0.037851263           67 
  496000   0.47430072   -4.3486606    227.35102  0.038197415  0.037757722           45 
  497000    0.4755026   -4.3395426       228.17  0.038257881  0.037664242           22 
  498000   0.46006354   -4.3482785    227.59404  0.038084679  0.037570915           61 
  499000   0.47319175   -4.3333502    227.65215  0.038018061  0.037478007           60 
  500000   0.47064982    -4.335069     227.7596  0.037959933  0.037385631           24 
  501000   0.46390924   -4.3550726    227.80003   0.03789089  0.037293515           80 
  502000   0.46328657   -4.3459457    227.86407  0.037826041  0.037201452           18 
  503000   0.46731379   -4.3374678     227.7429  0.037730766  0.037109738           34 
  504000   0.46030408   -4.3464725    227.86417  0.037675954  0.037018001           27 
  505000   0.46703666   -4.3577993    227.98452  0.037621207  0.036926363           34 
  506000   0.45842038   -4.3612966    227.85693  0.037525845  0.036835004           16 
  507000   0.46086919   -4.3633427    228.13873  0.037498148  0.036743793           24 
  508000   0.44627575    -4.365001    227.45617  0.037312365  0.036652894           53 
  509000   0.44498001   -4.3769808    227.23801  0.037203342  0.036561798           42 
  510000   0.45331325   -4.3711322    228.02088  0.037258313  0.036470712           46 
  511000   0.44786195   -4.3795897    227.10515  0.037036065  0.036379704           26 
  512000   0.45320777   -4.3933898    227.34912  0.037003437  0.036288858           52 
Loop time of 1225.62 on 48 procs for 500000 steps with 4000 atoms

Performance: 70495.176 tau/day, 407.958 timesteps/s
99.4% CPU use with 48 MPI tasks x no OpenMP threads

MPI task timing breakdown:
Section |  min time  |  avg time  |  max time  |%varavg| %total
---------------------------------------------------------------
Pair    | 78.224     | 86.236     | 91.766     |  29.8 |  7.04
Neigh   | 8.2035     | 8.6028     | 9.0428     |   7.3 |  0.70
Comm    | 78.728     | 85.134     | 92.724     |  32.5 |  6.95
Output  | 0.84618    | 0.84713    | 0.87453    |   0.4 |  0.07
Modify  | 1029.4     | 1032.9     | 1036.5     |   4.2 | 84.28
Other   |            | 11.87      |            |       |  0.97

Nlocal:        83.3333 ave          92 max          76 min
Histogram: 4 6 3 6 4 13 6 2 2 2
Nghost:        2245.94 ave        2266 max        2228 min
Histogram: 1 6 7 5 11 4 3 3 5 3
Neighs:        14991.7 ave       16589 max       13240 min
Histogram: 3 1 4 13 5 3 3 6 6 4
FullNghs:      29984.0 ave       32985 max       27330 min
Histogram: 4 4 6 5 4 8 9 3 1 4

Total # of neighbors = 1439231
Ave neighs/atom = 359.80775
Neighbor list builds = 27076
Dangerous builds = 0

#clear
#
#next RN
#
#jump SELF
Total wall time: 0:20:28
