
units lj                  # Use reduced LJ style units
atom_style atomic         # Uncharged point particles
atom_modify map hash      # Needed for indexing of clusters etc
                          # Used to be able to find where atoms are in relation to each other.

lattice fcc 1.0 spacing 1 1 1
Lattice spacing in x,y,z = 1.5874011 1.5874011 1.5874011
region box block 0 10 0 10 0 10 units lattice
create_box 2 box
Created orthogonal box = (0.0000000 0.0000000 0.0000000) to (15.874011 15.874011 15.874011)
  3 by 4 by 4 MPI processor grid
create_atoms 1 box
Created 4000 atoms
  using lattice units in orthogonal box = (0.0000000 0.0000000 0.0000000) to (15.874011 15.874011 15.874011)
  create_atoms CPU = 0.005 seconds
set type 1 type/fraction 2 0.62 78393
Setting atom values ...
  2494 settings made for type/fraction
mass 1 1.0
mass 2 1.0
pair_style lj/cut  3.5
pair_modify tail  yes
pair_coeff 1  1  1.0  1.0   # Intearaction between 1 and 1 set with epsilon = 1 and sigma = 1
pair_coeff 1  2  1.5  0.8
pair_coeff 2  2  0.5  0.88

write_data data.0
System init for write_data ...
Neighbor list info ...
  update every 1 steps, delay 10 steps, check yes
  max neighbors/atom: 2000, page size: 100000
  master list distance cutoff = 3.8
  ghost atom cutoff = 3.8
  binsize = 1.9, bins = 9 9 9
  1 neighbor lists, perpetual/occasional/extra = 1 0 0
  (1) pair lj/cut, perpetual
      attributes: half, newton on
      pair build: half/bin/atomonly/newton
      stencil: half/bin/3d
      bin: standard
WARNING: Not all mixed pair coeffs generated from mixing. Use write_data with 'pair ij' option to store all pair coeffs. (../write_data.cpp:312)


#############################
#   M E L T   S Y S T E M   #
#############################

velocity all create 2.4 5300450 mom yes dist gaussian # Assign velocities
                                                    # Temperature 2.4, random number seed, zero linear momentum
                                                                                # Gaussian distribution

timestep 0.002   # simulation timestep
thermo 1000       # output thermodynamic data every 1000 steps bf 100

# Define a fix  in this case with index 1 applied to all
# particles in the simulation. This fix is for simulations
# in the anisotropic NPT ensemble. Note that we use the MTK
# correction.
fix 1 all npt temp 2.4 2.4 0.1 iso 5.68 5.68 0.5 mtk yes tchain 5 pchain 5 # Use NPT ensemble
                                                                         # Set temperature and pressure and damping
                                                                         # Numbers of thermostats in chain and in barostat
run 10000          # run for 10000 steps
Per MPI rank memory allocation (min/avg/max) = 3.642 | 3.644 | 3.648 Mbytes
Step Temp E_pair E_mol TotEng Press Volume 
       0          2.4   -4.6132646            0   -1.0141646   -4.0148013         4000 
    1000    2.4222382   -4.3425711            0  -0.71012223    5.5483071    3636.8597 
    2000    2.4124618   -4.3918767            0   -0.7740887    5.7476136    3589.7067 
    3000    2.3539387   -4.4349269            0  -0.90490157    5.7228004     3568.314 
    4000    2.4064838   -4.3448006            0  -0.73597735    5.3602078    3645.7335 
    5000    2.3911598   -4.3763074            0  -0.79046432    5.7497833    3597.9305 
    6000    2.4250625   -4.3302564            0  -0.69357209    6.0527245    3597.3176 
    7000    2.3679266   -4.4038586            0  -0.85285666    5.4956895    3606.9559 
    8000    2.4262531   -4.4072279            0  -0.76875819    5.5581287    3598.3212 
    9000    2.4200094   -4.3680096            0  -0.73890295    5.6830928    3604.4052 
   10000    2.3626547   -4.3415809            0  -0.79848481    5.3477051    3631.1922 
Loop time of 2.63721 on 48 procs for 10000 steps with 4000 atoms

Performance: 655238.177 tau/day, 3791.888 timesteps/s
99.6% CPU use with 48 MPI tasks x no OpenMP threads

MPI task timing breakdown:
Section |  min time  |  avg time  |  max time  |%varavg| %total
---------------------------------------------------------------
Pair    | 1.1805     | 1.2709     | 1.3519     |   2.9 | 48.19
Neigh   | 0.21953    | 0.22433    | 0.23609    |   0.7 |  8.51
Comm    | 0.78318    | 0.88266    | 0.98946    |   4.1 | 33.47
Output  | 0.00024611 | 0.00025797 | 0.00032589 |   0.0 |  0.01
Modify  | 0.21567    | 0.24365    | 0.272      |   3.0 |  9.24
Other   |            | 0.01541    |            |       |  0.58

Nlocal:        83.3333 ave          94 max          74 min
Histogram: 1 1 7 11 4 7 10 4 2 1
Nghost:        1752.92 ave        1773 max        1727 min
Histogram: 1 4 5 3 5 9 5 6 3 7
Neighs:        10498.6 ave       12060 max        9364 min
Histogram: 5 5 4 9 5 11 5 2 0 2

Total # of neighbors = 503935
Ave neighs/atom = 125.98375
Neighbor list builds = 909
Dangerous builds = 238

# Equilibrate just above the melting temperature to avoid step fn in T

fix 1 all npt temp 1.25 1.25 0.1 iso 5.68 5.68 0.5 mtk yes tchain 5 pchain 5
run 2000
Per MPI rank memory allocation (min/avg/max) = 3.644 | 3.646 | 3.650 Mbytes
Step Temp E_pair E_mol TotEng Press Volume 
   10000    2.3626547   -4.3415809            0  -0.79848481    5.3477051    3631.1922 
   11000    1.2490958   -6.3767211            0   -4.5035458    5.7269367     2762.657 
   12000    1.2333462   -6.4669953            0   -4.6174385     5.469443     2746.308 
Loop time of 0.662047 on 48 procs for 2000 steps with 4000 atoms

Performance: 522017.238 tau/day, 3020.933 timesteps/s
99.6% CPU use with 48 MPI tasks x no OpenMP threads

MPI task timing breakdown:
Section |  min time  |  avg time  |  max time  |%varavg| %total
---------------------------------------------------------------
Pair    | 0.29852    | 0.32503    | 0.35666    |   2.4 | 49.09
Neigh   | 0.041085   | 0.043328   | 0.046802   |   0.6 |  6.54
Comm    | 0.20884    | 0.24378    | 0.27557    |   3.1 | 36.82
Output  | 5.26e-05   | 5.3756e-05 | 6.7819e-05 |   0.0 |  0.01
Modify  | 0.040809   | 0.04488    | 0.048707   |   1.1 |  6.78
Other   |            | 0.00498    |            |       |  0.75

Nlocal:        83.3333 ave          93 max          75 min
Histogram: 3 3 6 9 5 10 4 4 2 2
Nghost:        2116.15 ave        2137 max        2098 min
Histogram: 1 4 5 9 9 10 5 1 1 3
Neighs:        13900.2 ave       15501 max       11931 min
Histogram: 1 4 4 4 4 12 3 8 5 3

Total # of neighbors = 667210
Ave neighs/atom = 166.80250
Neighbor list builds = 142
Dangerous builds = 9

#############################
# L I N E A R  Q U E N C H  #
#############################

# Define solid atoms. This closely follows ten Wolde  Ruiz-Montero and Frenkel  Faraday Discuss  1996  104  93-110
# Compute components of the per-atom q6 vector
compute q6 all orientorder/atom degrees 1 6 components 6 nnn NULL cutoff 1.3 # compute the Q6 parameter.
                                                                             # Use all neighbours within 1.3 unit cell.

# get number of connections
compute coord_number all coord/atom orientorder q6 0.5

# An atom is solid if it has 8 or more connections (of a possible 14)
variable is_solid atom c_coord_number>=8
group solid dynamic all var is_solid    # Must be dynamic to update
dynamic group solid defined

# do clustering
compute cluster solid cluster/atom 1.3 # Create a cluster where all atoms within are solid and max 1.3 units from another member

# define chunks one chunk per cluster
compute clus_chunks solid chunk/atom c_cluster nchunk every compress yes  # Says which atoms are in which chunk

# count the size of each chunk
compute size_chunks solid property/chunk clus_chunks count


# Find the maximum entry in the vector of chunk sizes
variable max_n equal max(c_size_chunks)


# Thermo style which includes this variable
# thermo_style custom step temp pe vol v_max_n

thermo ${N}  # Print the thermo information every 100 steps
thermo 1000  

# Reset the npt fix at a lower temperature (below freezing)
fix 1  all npt temp  ${temp} ${temp}  0.1  iso  5.68  5.68  0.5  mtk yes tchain  5  pchain  5
fix 1  all npt temp  0.45 ${temp}  0.1  iso  5.68  5.68  0.5  mtk yes tchain  5  pchain  5
fix 1  all npt temp  0.45 0.45  0.1  iso  5.68  5.68  0.5  mtk yes tchain  5  pchain  5

dump dmp2 all dcd ${N} traj.dcd
dump dmp2 all dcd 1000 traj.dcd


compute msd all msd com yes
variable twopoint equal c_msd[4]/6/(step*dt+1.0e-6)
fix 9 all vector 10 c_msd[4]
variable fit equal slope(f_9)/6/(10*dt)
thermo_style custom step temp pe c_msd[4] v_twopoint v_fit v_max_n

fix 1 all npt temp 1.25 ${temp} 0.1 iso 5.68 5.68 0.5 mtk yes tchain 5 pchain 5
fix 1 all npt temp 1.25 0.45 0.1 iso 5.68 5.68 0.5 mtk yes tchain 5 pchain 5
run 500000 # 5000000  # Run for this many steps
Neighbor list info ...
  update every 1 steps, delay 10 steps, check yes
  max neighbors/atom: 2000, page size: 100000
  master list distance cutoff = 3.8
  ghost atom cutoff = 3.8
  binsize = 1.9, bins = 8 8 8
  4 neighbor lists, perpetual/occasional/extra = 1 3 0
  (1) pair lj/cut, perpetual
      attributes: half, newton on
      pair build: half/bin/atomonly/newton
      stencil: half/bin/3d
      bin: standard
  (2) compute orientorder/atom, occasional
      attributes: full, newton on
      pair build: full/bin/atomonly
      stencil: full/bin/3d
      bin: standard
  (3) compute coord/atom, occasional
      attributes: full, newton on
      pair build: full/bin/atomonly
      stencil: full/bin/3d
      bin: standard
  (4) compute cluster/atom, occasional
      attributes: full, newton on
      pair build: full/bin/atomonly
      stencil: full/bin/3d
      bin: standard
Per MPI rank memory allocation (min/avg/max) = 9.848 | 9.852 | 9.855 Mbytes
Step Temp PotEng c_msd[4] v_twopoint v_fit v_max_n 
   12000    1.2333462   -6.4669953 7.7466141e-31 5.3795929e-33 8.3333333e+20            3 
   13000      1.23623   -6.4732355    0.4946653 0.0031709313   0.04075259            5 
   14000    1.2231647   -6.4507922   0.98187023 0.0058444654  0.039586093            5 
   15000    1.2358187   -6.4960935    1.4811646 0.0082286918   0.04096948            2 
   16000    1.2390961   -6.4801359    1.9367007  0.010086982  0.040709195            2 
   17000    1.2657054   -6.5060748    2.3711743  0.011623403  0.039933464            2 
   18000    1.2311435   -6.4607922    2.8256031  0.013081495  0.039304967            3 
   19000    1.2410167   -6.5035233    3.2273296  0.014154954  0.038473391            1 
   20000    1.2400095   -6.4813573    3.6605837  0.015252432  0.037869129            3 
   21000    1.2438621   -6.4967001    4.1455616  0.016450641  0.037670162            2 
   22000    1.2405784   -6.5783349    4.6085016  0.017456445  0.037762344            5 
   23000    1.2062794   -6.4423376    5.0854117  0.018425404  0.037830376            4 
   24000    1.2595972   -6.4819109    5.5242936  0.019181575  0.037879124            3 
   25000    1.2210571   -6.5022549    6.0087507  0.020029168  0.037937552            3 
   26000    1.2229042   -6.4885712    6.4300845  0.020609245  0.037981838            3 
   27000    1.2252748   -6.5101867    6.8029503   0.02099676  0.037878163            5 
   28000    1.2187966   -6.5766024     7.141367  0.021254068  0.037569834            3 
   29000    1.2157422   -6.5259937    7.5558959  0.021712344  0.037245611            2 
   30000    1.2287414   -6.5220717    8.0083937  0.022245538  0.037026833            2 
   31000    1.2386641   -6.5442949    8.4378154  0.022682299  0.036866373            5 
   32000    1.2014386   -6.5384269    8.8718735  0.023103837   0.03673668            2 
   33000    1.2146923   -6.5284169    9.3481491  0.023606437  0.036652244            3 
   34000    1.2003674   -6.6086673    9.8057977  0.024033818   0.03664145            5 
   35000    1.2109424   -6.5287709    10.211559  0.024313235  0.036630053            3 
   36000    1.2246178   -6.5592955    10.618326  0.024579457  0.036581547            2 
   37000    1.2283642   -6.5740978     10.98069  0.024731283  0.036488227            2 
   38000    1.2280048   -6.5920096    11.324676  0.024834816  0.036378781            1 
   39000    1.1994597   -6.5568409    11.753042  0.025113338  0.036244388            3 
   40000    1.2023817   -6.6475851    12.118734  0.025247362  0.036105507            4 
   41000    1.1878314   -6.5863437      12.5478  0.025503658  0.035968613            2 
   42000     1.192928   -6.6030954    12.953868   0.02570212  0.035856934            2 
   43000    1.2160398   -6.6028787    13.318707  0.025811448  0.035758612            3 
   44000    1.1768878   -6.6171245    13.781576   0.02610147  0.035676731            4 
   45000    1.1854196   -6.6278385    14.142708  0.026190201  0.035580143            2 
   46000    1.2040743   -6.6294406    14.465634  0.026205859  0.035488134            4 
   47000    1.1818638   -6.6280952    14.876772  0.026377255  0.035367113            3 
   48000    1.1728482    -6.658506    15.164371  0.026327033  0.035239136            2 
   49000    1.2101168   -6.5847599    15.588347  0.026510794  0.035083941            2 
   50000    1.1799785   -6.6486972    15.935175  0.026558625   0.03495633            6 
   51000    1.1673613   -6.6072915    16.492543  0.026948599  0.034865284            4 
   52000    1.1769478   -6.6605406    16.754816  0.026850667  0.034777103            3 
   53000    1.1710956   -6.6220373      16.9972  0.026725158  0.034670367            5 
   54000    1.1958367   -6.6176955    17.411322  0.026869324  0.034550135            2 
   55000    1.1744633    -6.636081    17.705378  0.026826331  0.034418664            2 
   56000    1.1882304    -6.596075    18.143409  0.026999121    0.0342747            5 
   57000     1.193524    -6.654809    18.391135  0.026887624  0.034140398            2 
   58000    1.1700216   -6.6394193    18.732735  0.026914849  0.034004801            4 
   59000    1.1813121   -6.6717011    19.042468  0.026896141  0.033863682            3 
   60000    1.1830273   -6.6763946    19.297037   0.02680144   0.03371355            2 
   61000     1.161534   -6.7119695    19.673537  0.026876416  0.033568675            2 
   62000    1.1790962   -6.6656616    20.226125  0.027185652  0.033459373            5 
   63000    1.1680723   -6.7021479    20.565638  0.027203225  0.033374253            2 
   64000      1.15267   -6.6787553    20.916958  0.027235623  0.033282001            3 
   65000    1.1687968   -6.7163508    21.288477  0.027292919  0.033191971            1 
   66000    1.1650453   -6.7116335    21.623876  0.027302873  0.033102641            2 
   67000     1.165269   -6.7187967    21.994648  0.027356527  0.033008746            3 
   68000    1.1650803   -6.7604941    22.377276  0.027423132  0.032925535            3 
   69000    1.1756713   -6.6490329    22.993725    0.0277702   0.03285688            4 
   70000    1.1600438   -6.6887956    23.168667  0.027581747  0.032793218            3 
   71000    1.1572502   -6.7280483    23.355572  0.027412643  0.032709922            3 
   72000    1.1409995   -6.6818212    23.606264  0.027322065  0.032616377            2 
   73000     1.159771   -6.7330029    23.938159  0.027326665  0.032515682            2 
   74000    1.1328039   -6.7277257    24.228702  0.027284574  0.032420019            1 
   75000    1.1273435   -6.6883595    24.708228  0.027453587  0.032331427            2 
   76000    1.1572628   -6.7090425    25.091385  0.027512484  0.032251896            2 
   77000    1.1390328   -6.7203882     25.23066  0.027305909   0.03215928            6 
   78000    1.1300151   -6.7374883    25.569971  0.027318345  0.032060866            2 
   79000    1.1459664   -6.7111179    25.969727  0.027394226  0.031972967            1 
   80000    1.1227092   -6.7110241    26.384822  0.027484189  0.031894457            3 
   81000    1.1503394   -6.6887326    26.591071  0.027357068  0.031810136            3 
   82000    1.1249921   -6.7592316    26.866159  0.027303007  0.031721433            4 
   83000    1.1303685   -6.7782793    27.131209   0.02724017  0.031632944            2 
   84000    1.1413814   -6.8008028    27.318877   0.02710206  0.031543261            3 
   85000     1.133827   -6.7995207    27.674054  0.027131426  0.031447361            5 
   86000     1.142099   -6.7028254    28.167943  0.027294518  0.031357357            1 
   87000    1.1731708   -6.7023857    28.380584  0.027184467  0.031271285            2 
   88000    1.1241241   -6.7271043    28.598797  0.027082194   0.03118054            3 
   89000      1.14983   -6.8002308    28.870296  0.027032113  0.031086273            8 
   90000    1.1057699   -6.7940087    29.189204  0.027027041  0.030995883            2 
   91000    1.1322256   -6.7812433    29.624939  0.027129065  0.030909254            6 
   92000    1.1311407   -6.7952767    29.974957  0.027151229  0.030837888            2 
   93000    1.1162853   -6.7880324    30.231105  0.027088803  0.030758398            1 
   94000    1.1237555   -6.8010832    30.681283  0.027199718  0.030687118            1 
   95000    1.1075597   -6.8235816    31.001667  0.027194445  0.030623636            7 
   96000    1.1260127   -6.7876953    31.439821  0.027291511  0.030565792            4 
   97000    1.1144255   -6.7846205     31.60918  0.027155653  0.030496521            2 
   98000    1.1196267   -6.7616097     32.01441  0.027223137   0.03043133            2 
   99000    1.1145827   -6.8157549    32.048019  0.026976447  0.030363663            2 
  100000    1.1175346   -6.8101937    32.461981  0.027051651  0.030293212            2 
  101000    1.0746166   -6.8387104    32.823823  0.027082362  0.030223388            3 
  102000    1.1118038   -6.8877075    33.073944  0.027021196  0.030159309            2 
  103000    1.1055585   -6.8038361    33.486446  0.027092594  0.030102593            5 
  104000    1.1002333   -6.8588219     33.83218  0.027109119  0.030040552            5 
  105000    1.0848353   -6.8849865    33.932268  0.026930371  0.029977092            3 
  106000    1.0970791   -6.8842136    34.266882  0.026939372  0.029915217            1 
  107000    1.0824837   -6.8750953    34.358646   0.02675907  0.029846666            4 
  108000    1.1198677   -6.8717476    34.869227  0.026905267   0.02977957            3 
  109000    1.1079049   -6.8255081    35.298526  0.026986641  0.029715601            5 
  110000    1.0894221   -6.8275037    35.380085  0.026803094  0.029650946            1 
  111000    1.0863738     -6.84693    35.619616  0.026741453  0.029581873            3 
  112000    1.0778798   -6.8965451    35.732355  0.026586574  0.029511204            3 
  113000    1.0938763   -6.8682727    36.221106   0.02671173  0.029441621            5 
  114000    1.1056358   -6.8818067    36.461014  0.026652788  0.029375708            3 
  115000    1.0868062    -6.876805     36.61162  0.026530159  0.029309356            7 
  116000    1.0792563   -6.8783832    36.770139   0.02641533  0.029242594            5 
  117000     1.080161   -6.9359154    37.141043  0.026453734  0.029169047            4 
  118000    1.0644794   -6.9227909    37.397678  0.026410789  0.029094486            5 
  119000     1.071382   -6.8653239    37.685093  0.026390121  0.029021566            3 
  120000    1.0667964    -6.912049    37.796769  0.026247756  0.028949402            3 
  121000    1.0733848   -6.8666603    38.262912  0.026351867   0.02887855            6 
  122000    1.0737708   -6.8860878    38.304103  0.026164005  0.028806065            4 
  123000    1.0595004   -6.9415073    38.410546  0.026023405  0.028730441            4 
  124000     1.050007   -6.9667232    38.757268  0.026046551  0.028656182            9 
  125000    1.0834013   -6.9421222    38.956911  0.025971274   0.02858166            4 
  126000    1.0982155   -6.9162038    39.239123  0.025951801  0.028507029            5 
  127000    1.0714196   -6.9274603    39.423975   0.02586875  0.028432315            4 
  128000    1.0762321   -6.9661663    39.615155  0.025791117  0.028356553            5 
  129000    1.0512329   -6.9420812    39.875857  0.025759597  0.028279037            4 
  130000    1.0605451    -6.983545    39.997523  0.025639438  0.028198831            3 
  131000    1.0576119    -7.004333    40.202479  0.025574096  0.028118911            7 
  132000    1.0320402   -6.9763661    40.396353  0.025502748  0.028036216            6 
  133000     1.054436   -7.0036041    40.521063  0.025389137  0.027954105            5 
  134000    1.0344621   -6.9438405    41.051039  0.025529253   0.02787153            6 
  135000    1.0705775   -6.9542555    41.200401  0.025432346  0.027792277            1 
  136000    1.0507419   -7.0334667    41.201493  0.025246013  0.027710176            4 
  137000    1.0211326   -6.9896665     41.50967  0.025249191  0.027627045            4 
  138000    1.0408032   -7.0106959     41.58985  0.025114644   0.02754286            6 
  139000    1.0414559   -6.9946126    41.664596  0.024978775  0.027457413            5 
  140000    1.0485364   -7.0310213    41.968322  0.024981144  0.027370028            3 
  141000    1.0549525   -7.0459178    42.182307  0.024930441  0.027282653            7 
  142000     1.070789    -7.001269    42.438237  0.024905068   0.02719723            4 
  143000    1.0325514   -6.9995317    42.603997  0.024827504  0.027113492            6 
  144000    1.0333696   -6.9829573    42.847469  0.024795989  0.027027837            3 
  145000    1.0433949   -6.9946593    42.881013   0.02464426  0.026940501            3 
  146000    1.0298033   -7.0458441    42.986496  0.024535671  0.026853332            7 
  147000    1.0506954   -6.9982515    43.354398  0.024577323  0.026767502            3 
  148000    1.0334628   -7.0235081    43.585257  0.024541248  0.026679996            4 
  149000     1.030229   -7.0006556    43.695005  0.024437922   0.02659417            6 
  150000    1.0243195   -7.0902752    43.608406  0.024226892  0.026506502            3 
  151000    1.0414327   -7.0463002    43.998745  0.024281868  0.026420242            3 
  152000    1.0038972     -7.10893    43.862889  0.024047636  0.026330926            4 
  153000    1.0406066   -7.0538113    44.191067  0.024069209  0.026242112            2 
  154000    1.0239497   -7.0820323    44.253929  0.023946931  0.026151467            4 
  155000     1.011835   -7.0925622    44.594664  0.023975626  0.026062596            5 
  156000    1.0126248    -7.086791      44.7254  0.023891773  0.025974759            2 
  157000    1.0140657   -7.1083586    45.035726  0.023904313  0.025886533            5 
  158000   0.99935588   -7.0729393    45.198534  0.023838889  0.025801548            3 
  159000    1.0070251   -7.0837482    45.274881  0.023728973  0.025716755            3 
  160000   0.99864786   -7.0781675    45.546327  0.023722045  0.025631428            5 
  161000    1.0034791   -7.0750067    45.716881  0.023662982  0.025547513            5 
  162000    1.0092034   -7.0937511    45.991735    0.0236583  0.025464694            9 
  163000    1.0133386   -7.1273117    46.292684  0.023667016  0.025383407            4 
  164000   0.99609599   -7.1367467     46.44429  0.023599741  0.025303609            8 
  165000    1.0108344   -7.0928394    46.459914  0.023464603  0.025224096            4 
  166000      1.00135   -7.1060862    46.697302  0.023442421  0.025144439           15 
  167000    1.0043917   -7.0515689     46.97655  0.023441392  0.025064865            3 
  168000   0.99466346   -7.0960644    47.063291  0.023344886  0.024986948            3 
  169000   0.97740577   -7.1054932    47.317084  0.023331895  0.024908452            6 
  170000    1.0002068   -7.1024373    47.454174   0.02326185  0.024831642            7 
  171000    0.9850786   -7.1527926    47.523572  0.023159636  0.024753734            5 
  172000   0.98788981   -7.1343297    47.877526  0.023196475  0.024675788            8 
  173000   0.99228172   -7.1631501    47.872016  0.023059738  0.024597134            5 
  174000   0.98323423   -7.1462637    48.026615  0.023001252  0.024519996            9 
  175000   0.99450269   -7.1522388    48.198376  0.022951607  0.024442814            4 
  176000   0.97248986   -7.1457046    48.316758  0.022877253  0.024365905            3 
  177000    1.0041662   -7.1506509    48.667082  0.022912939  0.024290493            4 
  178000     1.000504    -7.145148    48.887757  0.022887527  0.024217096            8 
  179000   0.99006876   -7.1108615    49.085433  0.022851691  0.024143708            9 
  180000   0.96605387   -7.1527578    49.245947   0.02279905  0.024072069            3 
  181000   0.96161318    -7.150416    49.439629   0.02276226  0.024001291            6 
  182000   0.98088064   -7.1964482    49.444187   0.02263928  0.023929616           10 
  183000   0.98412364   -7.1967765    49.403648  0.022497108  0.023856697            6 
  184000   0.98219967   -7.2001777    49.561154  0.022446175  0.023782351            4 
  185000   0.96335984   -7.1958685    49.701731  0.022388167  0.023707095            5 
  186000   0.95817318   -7.2004599    49.789418  0.022307087  0.023631478            2 
  187000   0.97752568   -7.2228261    49.753276  0.022171691  0.023555439            5 
  188000   0.96216665   -7.2297936    50.098431  0.022206751  0.023479256            3 
  189000    0.9581784   -7.2331392    50.166349  0.022119202  0.023404399            7 
  190000   0.95408625   -7.2459357    50.230676  0.022030998  0.023330168            5 
  191000   0.95369461   -7.2240578     50.49189  0.022029621  0.023254564            8 
  192000   0.95809747   -7.2414131    50.548679  0.021939531  0.023178951            8 
  193000   0.96396223   -7.2436757     50.76323  0.021918493   0.02310443            5 
  194000   0.94161929   -7.2649221    50.827272  0.021833021   0.02303023            3 
  195000   0.95710272   -7.2505508    50.981513  0.021786971  0.022957085            3 
  196000   0.94722425   -7.2496574    51.193554  0.021765967  0.022884995            5 
  197000   0.91701876   -7.2247364     51.40309  0.021744116  0.022814296           11 
  198000   0.96836874    -7.282306    51.352675  0.021613079  0.022741894            4 
  199000   0.96197139   -7.2774454    51.498498  0.021565535  0.022670384            5 
  200000   0.94638898   -7.2678088    51.887943  0.021619976  0.022601906            6 
  201000   0.94819998   -7.2776688    52.039174  0.021575114   0.02253404            6 
  202000    0.9504251   -7.2436857     52.27377  0.021565086  0.022466735            4 
  203000    0.9360676   -7.2659655    52.253639  0.021450591  0.022399904            5 
  204000   0.95749519   -7.2787079    52.557417  0.021469533  0.022332259            3 
  205000   0.93141057   -7.2925192    52.742482  0.021440033  0.022264794            2 
  206000    0.9351048   -7.2909725    52.850821  0.021379782  0.022198243            8 
  207000   0.95109892   -7.2950031    52.972613  0.021325528  0.022132435            5 
  208000    0.9339859   -7.2698257    52.971468  0.021222543  0.022066455           12 
  209000   0.92850839   -7.3371819     52.85428  0.021074274  0.021997426            7 
  210000   0.93468186   -7.3417499     52.80474  0.020954262  0.021927216            6 
  211000   0.92387683   -7.3270169     53.03831    0.0209472  0.021856872           12 
  212000   0.92374723   -7.3897086    52.978187  0.020824759  0.021786706           10 
  213000   0.92815288   -7.3639639    53.156593  0.020796789  0.021716798            5 
  214000   0.89950928   -7.3147453    53.392548  0.020791491  0.021647321            9 
  215000   0.91896582   -7.3255451    53.471671  0.020725454  0.021578143            9 
  216000   0.90923337   -7.3561098    53.358918  0.020586002  0.021508771            8 
  217000   0.90366632   -7.3512803    53.433475  0.020519768  0.021438457            7 
  218000   0.92065852   -7.3645117    53.603988  0.020490821  0.021368896            4 
  219000   0.89904009   -7.3741068    53.681021  0.020426568  0.021298986            6 
  220000   0.94305849   -7.3614653    53.978335  0.020446339  0.021229428            6 
  221000   0.92309858   -7.4110126    54.019262  0.020369254  0.021161677            9 
  222000   0.91151258   -7.3676653    54.110113  0.020311604  0.021093953            7 
  223000   0.91315399   -7.3763127    54.335207  0.020304636  0.021026553           15 
  224000   0.89339148   -7.3651162    54.409361  0.020241578  0.020960312            7 
  225000   0.90427342   -7.3629754    54.712863  0.020264023  0.020894983           13 
  226000   0.90552284   -7.3425071    54.764805  0.020193512  0.020830919            6 
  227000   0.89895258   -7.3760598    54.898876  0.020153772  0.020765843            6 
  228000   0.91107818   -7.3678005    54.860827  0.020051472  0.020701192            4 
  229000   0.91607141   -7.3772959     55.13491   0.02006365  0.020636612            5 
  230000   0.89792832   -7.4100153    54.999805  0.019927465  0.020572597            9 
  231000   0.90977363   -7.4082051    55.292512  0.019946794  0.020509849            3 
  232000   0.89824361   -7.4402734    55.173384  0.019818026  0.020446308           10 
  233000   0.88707526   -7.4095123    55.549003  0.019867312  0.020382938            4 
  234000    0.8654939   -7.4160363    55.527595  0.019774785  0.020320027            9 
  235000   0.88072975   -7.3974418    55.787862   0.01978293  0.020257642           10 
  236000   0.87880401   -7.4489051     55.77853  0.019695808  0.020194989            8 
  237000   0.90086103   -7.4398404    55.832274  0.019631601  0.020132926           10 
  238000   0.88569309   -7.4709647    55.817001  0.019543768  0.020070045            6 
  239000   0.89163029     -7.47192    55.820783  0.019463314   0.02000625            8 
  240000     0.860794   -7.4855725    55.828565  0.019384918  0.019942164            4 
  241000   0.88327574   -7.5117715    55.771993  0.019284921  0.019877162           13 
  242000   0.87611219   -7.4971642    55.890337  0.019245984  0.019812017            6 
  243000   0.88401469   -7.5163342    55.735699  0.019113751  0.019745748            9 
  244000   0.87793678      -7.5201    55.849097  0.019074145  0.019679433            9 
  245000   0.87077645   -7.5253267    55.836314  0.018991944  0.019613194           15 
  246000   0.88482877   -7.5158046    56.054915  0.018988792  0.019546939           27 
  247000   0.88313732   -7.5341776    56.147837  0.018943265  0.019481135            7 
  248000   0.87443334     -7.54446    56.010662  0.018820787  0.019415084            5 
  249000   0.87496865   -7.5155159    56.357844  0.018861394  0.019349285           21 
  250000   0.84963025   -7.5173429    56.325346  0.018775115   0.01928434           13 
  251000   0.85954097   -7.5825582    56.238083  0.018671342  0.019218968            9 
  252000   0.86162404   -7.5531135     56.40918  0.018653829  0.019153548           19 
  253000   0.86792039   -7.5250305     56.66245  0.018663521  0.019089937           12 
  254000   0.88961297   -7.5096594    56.758769  0.018621643  0.019026359           22 
  255000   0.83830722   -7.5574697    56.535259  0.018475575  0.018962717           16 
  256000   0.87671873   -7.5502038    56.719628  0.018463421  0.018898941           10 
  257000   0.85676161   -7.5707323    56.803804  0.018418873  0.018835827           12 
  258000   0.85739199   -7.5611118    56.998753   0.01841045  0.018773517           11 
  259000   0.84989851   -7.5756364     57.04398  0.018353919  0.018711851            8 
  260000   0.87029517   -7.5788884    57.096649  0.018300208  0.018650281            4 
  261000   0.85803645   -7.5497554    57.302166  0.018295711  0.018589254            7 
  262000   0.84477163   -7.5721614    57.417674  0.018262619  0.018528581            9 
  263000   0.84591681   -7.5927449    57.300958  0.018156197  0.018467341           12 
  264000   0.85534935   -7.5605201    57.380983  0.018112684  0.018406077            6 
  265000   0.83738342   -7.6514009    57.255288  0.018004808  0.018344658            7 
  266000   0.82753377   -7.6169384    57.355738   0.01796859  0.018283375           14 
  267000   0.83528071   -7.6066614    57.690257  0.018005698  0.018222555            5 
  268000   0.83768105   -7.6638898    57.415618  0.017853115  0.018161658           13 
  269000   0.83685438   -7.6256149    57.481438  0.017807137  0.018100644            5 
  270000   0.84283837   -7.6245885    57.453116  0.017732443  0.018039264            8 
  271000   0.81866152   -7.6507895    57.454081  0.017667307  0.017977175            8 
  272000   0.82919131   -7.6201391    57.555511  0.017633429  0.017916284           12 
  273000   0.83476578   -7.6328727    57.570253  0.017573337  0.017854829            9 
  274000   0.82785022   -7.6754804    57.690472  0.017545764  0.017793654            7 
  275000   0.82817358   -7.6670197    57.621095  0.017460938  0.017732145            8 
  276000   0.84036072   -7.6514008    57.508958  0.017363816  0.017670597            9 
  277000   0.83098459   -7.6438434    57.755351  0.017375256  0.017608965            9 
  278000   0.81530434   -7.6684562    57.536262  0.017247081  0.017546763           12 
  279000   0.83034707   -7.6600167    57.631374  0.017213672  0.017485213            7 
  280000   0.80515735   -7.6875172    57.554262  0.017129245  0.017423231           11 
  281000   0.79369846   -7.7118067    57.663532  0.017100691  0.017361318           32 
  282000   0.81116523   -7.7153535    57.557313  0.017008662  0.017299269           10 
  283000   0.82533099   -7.6733037    57.778292  0.017013631  0.017237138           12 
  284000   0.81713858    -7.712487    57.678139  0.016924337   0.01717575            7 
  285000   0.80375427   -7.7337996    57.727471  0.016879377  0.017114106           19 
  286000   0.79856294   -7.7235237    57.618683  0.016788661  0.017052594           11 
  287000   0.82275697   -7.7115287    57.814945   0.01678715  0.016991178           13 
  288000   0.80162682   -7.7560825    57.893486  0.016751587  0.016930448           26 
  289000   0.79981121   -7.7241684     57.91899  0.016700977  0.016869993           19 
  290000   0.79249394   -7.7491508    58.048223  0.016680524  0.016809836           19 
  291000   0.81867531   -7.7423871    58.019818  0.016615068  0.016750448           22 
  292000    0.7924324   -7.7424975    58.088761  0.016577843  0.016691177           15 
  293000   0.78498106   -7.7648639    58.208047   0.01655519  0.016632042           22 
  294000   0.78860345   -7.7900868    58.137813  0.016478972   0.01657335           20 
  295000   0.80363648   -7.7394741    58.299209  0.016468703   0.01651517           16 
  296000   0.81557376   -7.7639038    58.297459  0.016412573  0.016456909            9 
  297000   0.79746486   -7.7253913    58.370913  0.016377922  0.016398865           13 
  298000   0.77978539   -7.7623646    58.253387  0.016290097   0.01634087           11 
  299000   0.78278439   -7.7399562    58.251421  0.016235067  0.016282902           12 
  300000   0.79295545   -7.7559208    58.334459  0.016204016  0.016225168           14 
  301000   0.77718153   -7.7872731    58.360292  0.016157334  0.016167502            6 
  302000   0.79992448   -7.7895921    58.381183  0.016109598   0.01611002            9 
  303000   0.78167968   -7.7736363    58.389835  0.016058811  0.016052909           10 
  304000   0.79919627   -7.8440286    58.154925  0.015941591  0.015995813           13 
  305000   0.77324902   -7.7988025    58.314237  0.015932852   0.01593865            8 
  306000   0.78994187   -7.8323877    58.342321  0.015888432   0.01588136            8 
  307000   0.77590439   -7.8151041    58.564152  0.015896892  0.015824679            7 
  308000   0.79419101   -7.8377311    58.411162  0.015803886  0.015768306           13 
  309000   0.78636619    -7.847775    58.545508  0.015788972  0.015712067            9 
  310000   0.76854202   -7.8509164    58.469847  0.015717701  0.015655839           16 
  311000   0.77934306    -7.815451    58.506454   0.01567697  0.015599711           11 
  312000   0.79686876   -7.7918092     58.55687   0.01564019  0.015544027           10 
  313000   0.76518905   -7.8644778    58.312198  0.015525079  0.015488311           23 
  314000   0.76672787   -7.8326776    58.546822  0.015537904  0.015432681            9 
  315000   0.75484999   -7.8180732    58.412962  0.015453165  0.015377073           10 
  316000   0.75393885   -7.8264696    58.480298   0.01542202  0.015321385            7 
  317000   0.74945627   -7.8542181    58.532444  0.015387078  0.015265819           24 
  318000   0.75151517   -7.8547952    58.495529  0.015329017  0.015210278           14 
  319000    0.7585566    -7.892881    58.281236  0.015224983  0.015154806           22 
  320000    0.7580384   -7.9091521    58.472094  0.015227108  0.015099324           15 
  321000    0.7630464    -7.913867    58.428209  0.015168278  0.015044152           24 
  322000   0.75221673   -7.8873075    58.474815  0.015133234  0.014989153           17 
  323000   0.76057269   -7.8780456    58.400092  0.015067103  0.014934179           15 
  324000   0.74766528   -7.8694423     58.49032  0.015043807  0.014879297           12 
  325000    0.7530405   -7.8741866    58.580551  0.015020654  0.014824663           13 
  326000   0.74648944   -7.8777568    58.450604  0.014941361  0.014770407           16 
  327000   0.74273192   -7.8862046    58.621831  0.014939304  0.014716149           13 
  328000    0.7463699   -7.9141941    58.434748  0.014846227   0.01466226           18 
  329000   0.75012384   -7.9173058    58.503715   0.01481857  0.014608367           18 
  330000   0.75553034   -7.9110137    58.475813  0.014766619  0.014554487           17 
  331000   0.73592216   -7.9122107    58.550712  0.014740864  0.014500839           18 
  332000    0.7202662   -7.9420876     58.43766  0.014668087  0.014447385           20 
  333000   0.72054999   -7.9317449    58.439836  0.014624583  0.014393988           21 
  334000   0.73990478   -7.9298974     58.44919  0.014583131  0.014340739           11 
  335000   0.73029674   -7.9508231    58.585771  0.014573575  0.014287668           14 
  336000   0.73096029   -7.9630575    58.505704  0.014510343  0.014234839           15 
  337000   0.74207852   -7.9523009     58.52536  0.014472146  0.014182164           23 
  338000   0.72609278   -7.9911348    58.559606  0.014437773  0.014129869           16 
  339000   0.71723712   -7.9552724     58.48423  0.014376654  0.014077707           15 
  340000   0.73009382   -7.9785271    58.515063  0.014341927  0.014026016           14 
  341000    0.7423943   -7.9727249    58.584144  0.014316751  0.013974384           28 
  342000   0.74320566   -7.9622024    58.751497  0.014315667  0.013922994           17 
  343000    0.7114423   -7.9901444     58.60768  0.014238989  0.013871488           23 
  344000    0.7173961   -7.9845507    58.721975  0.014225285  0.013820244           25 
  345000   0.72039202   -8.0048326    58.459484  0.014120648  0.013769247           13 
  346000   0.74017003    -8.006557    58.569854   0.01410642  0.013718349           14 
  347000   0.72271603   -8.0244798    58.584912  0.014069383  0.013667674           25 
  348000   0.72703872   -8.0331247    58.682748  0.014052382   0.01361715           34 
  349000   0.72141818   -8.0304164    58.494506   0.01396717  0.013566686           22 
  350000   0.72086391    -8.027196     58.68268  0.013972067  0.013516442           15 
  351000    0.6999516    -8.039988    58.472543   0.01388237  0.013466304           15 
  352000   0.70113349   -8.0201198    58.649176  0.013884748  0.013416501           23 
  353000   0.69993966   -8.0495234    58.605931  0.013835205  0.013366804           25 
  354000   0.70263137   -8.0400722    58.532037  0.013778728  0.013317074           27 
  355000   0.69986647   -8.0364301    58.493288  0.013730819  0.013267494           20 
  356000   0.69497489   -8.0673654    58.556988   0.01370716   0.01321797           26 
  357000   0.69401554   -8.0640317    58.551043  0.013667377  0.013168853           28 
  358000   0.69861354   -8.0625377     58.52244  0.013622542  0.013119971           18 
  359000   0.70941236   -8.0608123    58.548026  0.013590535  0.013071117           36 
  360000   0.69424944   -8.0748803    58.416703  0.013522385  0.013022495           39 
  361000   0.69196537   -8.0664457    58.484919  0.013500674  0.012974042           44 
  362000   0.68899909   -8.0479153    58.593175    0.0134883  0.012925851           36 
  363000   0.68951208   -8.0593914    58.389852  0.013404466  0.012878023           30 
  364000   0.68619793   -8.0666318    58.515709  0.013396453  0.012830327           67 
  365000   0.68818168   -8.0542574    58.551936  0.013368022  0.012782769           89 
  366000   0.67807514   -8.0597466    58.399067  0.013296691  0.012735247          105 
  367000   0.66902084    -8.063241    58.605828  0.013307409  0.012687977          100 
  368000    0.6803951   -8.1076107    58.481177   0.01324302  0.012640953           96 
  369000   0.67081967    -8.095248    58.457736  0.013201837  0.012594142           67 
  370000   0.67902843   -8.0794717     58.60567  0.013199475  0.012547685           64 
  371000   0.67409396   -8.0920927     58.44738  0.013128342  0.012501324           53 
  372000   0.67131225   -8.1294216    58.440548  0.013091521  0.012455081           65 
  373000   0.68465063   -8.0869059    58.444265  0.013057253   0.01240908           74 
  374000   0.66891098   -8.1053769     58.41246  0.013015254  0.012363304           86 
  375000   0.67295041   -8.1199184    58.502269  0.013000504    0.0123175           81 
  376000   0.66861609   -8.1061779    58.558946   0.01297849  0.012272007           49 
  377000   0.64903981   -8.1080902    58.514028  0.012934135  0.012226632           60 
  378000   0.67285808   -8.0912597    58.502261  0.012897324  0.012181377           78 
  379000   0.65538989   -8.1268586    58.473446  0.012856958  0.012136401           85 
  380000   0.64558648    -8.121717    58.413578  0.012809995  0.012091642           52 
  381000   0.66146153   -8.1324094    58.548697  0.012805927  0.012047013          109 
  382000   0.66511104   -8.1512732    58.473487  0.012755996  0.012002512           56 
  383000   0.65019573   -8.1407895    58.562709  0.012742104  0.011958105           76 
  384000   0.65978456   -8.1584864    58.375367  0.012668265  0.011913845          162 
  385000   0.65183344   -8.1465785     58.42625  0.012646374  0.011869746          135 
  386000   0.64485355   -8.1827245    58.397249  0.012607351  0.011825864           48 
  387000   0.63386723   -8.1569965    58.444349  0.012584916  0.011782023          102 
  388000   0.64427206   -8.1529367    58.362788  0.012534963  0.011738385          147 
  389000   0.64900572   -8.1824042    58.332031  0.012496151  0.011694757           66 
  390000   0.65501378   -8.1796275    58.317613  0.012461028  0.011651372           84 
  391000   0.65187304   -8.1590676    58.323197  0.012430349  0.011608198           74 
  392000   0.64046011   -8.1683897    58.330472  0.012400185  0.011565155           81 
  393000   0.64570457   -8.1859144    58.338419  0.012370318  0.011522359           66 
  394000   0.63976583   -8.2007493    58.383671  0.012348492  0.011479738           83 
  395000   0.64450591   -8.2170679    58.354997  0.012311181  0.011437225           80 
  396000   0.64522145   -8.1879373    58.284866  0.012265334  0.011395164           70 
  397000   0.62364676   -8.1975124    58.449562   0.01226901  0.011353273           86 
  398000   0.62881068   -8.1785605    58.405962  0.012229054  0.011311564          115 
  399000   0.63015054   -8.1856764    58.344613  0.012185592  0.011269949           64 
  400000   0.61259147    -8.180976    58.361414  0.012158628  0.011228479           83 
  401000    0.6206457   -8.2034158    58.291962  0.012113874  0.011187087           79 
  402000   0.62796422   -8.1787089    58.219613  0.012068742  0.011145929          108 
  403000   0.62525696   -8.1961805    58.337395   0.01206315  0.011104835           73 
  404000   0.61753302   -8.2113811     58.28566   0.01202262  0.011063936           92 
  405000   0.61938089   -8.2123876    58.147164  0.011964437   0.01102312           98 
  406000   0.61426697   -8.2208169    58.244703  0.011954988  0.010982494           95 
  407000   0.61457497    -8.231873    58.134451  0.011903041  0.010942102           74 
  408000   0.60993409   -8.2218272    58.189208  0.011885051  0.010901833           78 
  409000   0.61617486   -8.2522391    58.235974   0.01186552  0.010861707           90 
  410000   0.62308159    -8.262576    58.197392  0.011828738  0.010821839           96 
  411000   0.61737521   -8.2403553    58.175902  0.011795601  0.010782027           92 
  412000   0.62231762   -8.2524235    58.338308   0.01179982  0.010742602          100 
  413000    0.6205964   -8.2397359    58.186128  0.011740542  0.010703306           67 
  414000   0.60120327   -8.2503275     58.19255  0.011713476  0.010664171           94 
  415000   0.60070319    -8.262697    58.246949  0.011696174  0.010625202           89 
  416000   0.60164847   -8.2538815     58.17452   0.01165355  0.010586338          112 
  417000   0.59072703   -8.2739351    58.194972  0.011629691   0.01054769           78 
  418000   0.59865297   -8.2477078    58.194731   0.01160182  0.010509151           92 
  419000   0.59543338   -8.2742928    58.128424  0.011560943  0.010470741           90 
  420000   0.60397894   -8.2751393    58.242665  0.011556084   0.01043261          175 
  421000   0.60305633   -8.2729082     58.23198   0.01152652  0.010394527          203 
  422000   0.59191356   -8.2949909    58.055464  0.011464349  0.010356564           87 
  423000   0.60962822   -8.2752063    58.155254  0.011456906  0.010318768           67 
  424000   0.57876438   -8.2721202    58.112042  0.011421392  0.010281178          139 
  425000   0.59618586   -8.2890327    58.016639  0.011375812  0.010243699           82 
  426000    0.5776012   -8.2943242    58.120155  0.011369357  0.010206462           62 
  427000   0.58604307   -8.2848773    58.129078  0.011344473  0.010169407           91 
  428000    0.5872783   -8.3007309    58.157421  0.011323485  0.010132508           79 
  429000   0.59830206   -8.3033358     58.03603   0.01127351  0.010095807           86 
  430000   0.58628589   -8.2672134    57.980019  0.011236438  0.010059306           67 
  431000   0.58200965   -8.3049189    58.079386   0.01122958  0.010022937           99 
  432000   0.58481662   -8.3109901    58.114816   0.01121042 0.0099866393          168 
  433000   0.56726828   -8.3035163    58.009276  0.011164218 0.0099505874           69 
  434000   0.57108501   -8.3121125    58.028171  0.011142122 0.0099145731           79 
  435000   0.57687145    -8.324959    58.008179  0.011112678 0.0098787443           83 
  436000    0.5773123   -8.3393515    58.090896     0.011103 0.0098430612           66 
  437000   0.54558087   -8.3310363    58.103154   0.01107993 0.0098074729           99 
  438000   0.56788472   -8.3409828    57.918094  0.011019424 0.0097720095           97 
  439000   0.55994203   -8.3482564    58.005985  0.011011007 0.0097366786          178 
  440000   0.56687845   -8.3392101    57.977973  0.010980677 0.0097015698           99 
  441000   0.57414414   -8.3451618    58.041443  0.010967771 0.0096666263           98 
  442000   0.56739911   -8.3340236    57.958152  0.010927253 0.0096318395           86 
  443000   0.56665292   -8.3478324    58.052644  0.010920362 0.0095971957          107 
  444000   0.56270499   -8.3411744    57.891972   0.01086561  0.009562678           89 
  445000   0.55347998   -8.3604065    57.840764  0.010831604 0.0095283416           82 
  446000    0.5685938   -8.3497436    57.984756  0.010834222 0.0094940996          109 
  447000   0.55107938   -8.3421234    57.918246  0.010797585 0.0094599877          140 
  448000   0.54843895   -8.3509937    57.899922  0.010770075 0.0094260694          103 
  449000   0.55962665   -8.3695945    57.942346  0.010753962 0.0093923765           90 
  450000   0.55886384   -8.3446669    58.029149  0.010746139 0.0093586999           75 
  451000   0.53893819   -8.3686684    57.907276  0.010699792 0.0093252294           95 
  452000   0.53934793   -8.3749659    57.837098  0.010663182 0.0092918443           85 
  453000   0.54087845   -8.3655243    57.791005  0.010631163 0.0092586553           87 
  454000   0.54038504    -8.384627    57.861844   0.01062075 0.0092256426          133 
  455000   0.54075181   -8.3781264    57.811969  0.010588273 0.0091927718          185 
  456000   0.55568326   -8.3608239    57.990215  0.010597627   0.00916003          109 
  457000   0.54604337   -8.3909441    57.897444  0.010557521  0.009127483           94 
  458000   0.53508753   -8.3795092    57.925891  0.010539645 0.0090950843          152 
  459000   0.53013759   -8.3922043    57.824373  0.010498252 0.0090627946          192 
  460000   0.54211721   -8.3961039     57.76492  0.010464659 0.0090305872          110 
  461000   0.53022169   -8.3904171    57.769602  0.010442806 0.0089985463           88 
  462000   0.53063584   -8.4054643    57.743632  0.010415518 0.0089666274           79 
  463000    0.5250925   -8.3906358    57.757938  0.010395597 0.0089348264          156 
  464000   0.53810375   -8.3876791    57.772436  0.010375797 0.0089031743           92 
  465000   0.53262479   -8.3994751    57.792675   0.01035711 0.0088717247          190 
  466000   0.52311736   -8.4134647    57.788046  0.010334057 0.0088403871          107 
  467000   0.51998845   -8.4104826    57.768894  0.010308511 0.0088091318           99 
  468000   0.52638421   -8.3934121     57.73295  0.010280084 0.0087779959          116 
  469000   0.51733117   -8.4117689    57.809251  0.010271722 0.0087470388          130 
  470000   0.51514996   -8.4214114    57.699467  0.010230402 0.0087162538          121 
  471000   0.52272524   -8.4421667    57.630196  0.010196425 0.0086856359          250 
  472000   0.50520613   -8.4273078    57.664553  0.010180889 0.0086551518          136 
  473000    0.5227722   -8.4416523    57.770592  0.010178047 0.0086247909          160 
  474000   0.51594025   -8.4115234    57.787162  0.010159487  0.008594548           94 
  475000   0.50549603   -8.4339145    57.761695  0.010133631 0.0085644798          114 
  476000   0.50663358   -8.4400391    57.775605  0.010114777  0.008534532          195 
  477000   0.49194574   -8.4434902    57.699938  0.010080353 0.0085046987          195 
  478000   0.51187091   -8.4564141     57.74695   0.01006746 0.0084749757          151 
  479000   0.51144567   -8.4437569    57.701391  0.010038516 0.0084454104          334 
  480000   0.49526039   -8.4323966    57.677577  0.010013468 0.0084159763          189 
  481000   0.50368862   -8.4236486    57.693269 0.0099953689 0.0083866281           97 
  482000    0.4971546   -8.4434171    57.611728 0.0099605339 0.0083574327          200 
  483000   0.49663837   -8.4342372    57.624692 0.0099421484 0.0083283354           98 
  484000    0.4916056   -8.4491167    57.620278 0.0099208467 0.0082993572          226 
  485000    0.4943911   -8.4704304    57.636296 0.0099031437 0.0082705317          109 
  486000   0.47844525   -8.4494179    57.717089 0.0098966202 0.0082418028          141 
  487000   0.49960236   -8.4600549    57.603895 0.0098569293 0.0082132252          104 
  488000   0.49065735   -8.4509314    57.611899 0.0098380975 0.0081847331           77 
  489000   0.49982108   -8.4753683    57.589109 0.0098140949 0.0081564036          135 
  490000   0.48724988   -8.4753376    57.669309 0.0098077056 0.0081281593          127 
  491000   0.48475202   -8.4669717    57.591341 0.0097744977 0.0081000532          118 
  492000   0.49547775   -8.4707123    57.571261 0.0097512299 0.0080721151          154 
  493000   0.47082665   -8.4845677    57.581687 0.0097332128 0.0080443192          191 
  494000    0.4755547   -8.4882731    57.499674 0.0096996751 0.0080165632          135 
  495000   0.47995932   -8.4779708      57.5828  0.009694074 0.0079889538          166 
  496000    0.4769295   -8.4983024    57.501191 0.0096608183 0.0079614503          224 
  497000   0.47442991   -8.4936236    57.608428 0.0096593609 0.0079340938          157 
  498000    0.4742362   -8.5054857    57.498254 0.0096215285 0.0079067893           94 
  499000   0.47190043   -8.4877731    57.582193 0.0096162647 0.0078796601           98 
  500000   0.45963928   -8.5089341    57.593182 0.0095988637 0.0078526783          159 
  501000   0.46935195   -8.5065949    57.549859 0.0095724981 0.0078258079          198 
  502000   0.46489968   -8.5032189    57.465678 0.0095394552 0.0077990657          132 
  503000   0.46645152   -8.5200799    57.430664 0.0095146892 0.0077724584           80 
  504000   0.46642054   -8.5017449    57.575218  0.009519712   0.00774591          186 
  505000   0.45330171   -8.5245101     57.44742 0.0094797723 0.0077194922          149 
  506000   0.45873107   -8.5238848    57.492138 0.0094684021 0.0076932115           73 
  507000   0.47195469   -8.5124343    57.466416  0.009445499 0.0076670153          197 
  508000   0.45470911   -8.5138707    57.466397 0.0094269023 0.0076409543          137 
  509000   0.45325544   -8.5429468    57.444269 0.0094047591 0.0076150375          134 
  510000   0.46407693   -8.5267623    57.411829 0.0093810177 0.0075892374          180 
  511000    0.4548787   -8.5247762    57.429333 0.0093655142 0.0075635286          223 
  512000   0.45222153   -8.5494295    57.474307 0.0093545422 0.0075379648          247 
Loop time of 1325.24 on 48 procs for 500000 steps with 4000 atoms

Performance: 65195.674 tau/day, 377.290 timesteps/s
99.4% CPU use with 48 MPI tasks x no OpenMP threads

MPI task timing breakdown:
Section |  min time  |  avg time  |  max time  |%varavg| %total
---------------------------------------------------------------
Pair    | 93.071     | 100.61     | 107.49     |  33.7 |  7.59
Neigh   | 9.161      | 9.5279     | 9.9079     |   5.1 |  0.72
Comm    | 82.501     | 90.658     | 99.064     |  39.9 |  6.84
Output  | 0.95833    | 0.95911    | 0.98169    |   0.3 |  0.07
Modify  | 1104.6     | 1110.1     | 1113.9     |   7.5 | 83.77
Other   |            | 13.36      |            |       |  1.01

Nlocal:        83.3333 ave          89 max          78 min
Histogram: 4 3 6 11 6 3 0 5 4 6
Nghost:        2415.75 ave        2429 max        2402 min
Histogram: 3 4 7 1 7 8 5 7 3 3
Neighs:        16728.6 ave       19726 max       14519 min
Histogram: 4 5 10 5 4 7 4 5 3 1
FullNghs:      33457.5 ave       35837 max       31261 min
Histogram: 4 1 8 10 7 3 2 5 5 3

Total # of neighbors = 1605959
Ave neighs/atom = 401.48975
Neighbor list builds = 26633
Dangerous builds = 0

#clear
#
#next RN
#
#jump SELF
Total wall time: 0:22:08
