
units lj                  # Use reduced LJ style units
atom_style atomic         # Uncharged point particles
atom_modify map hash      # Needed for indexing of clusters etc
                          # Used to be able to find where atoms are in relation to each other.

lattice fcc 1.0 spacing 1 1 1
Lattice spacing in x,y,z = 1.5874011 1.5874011 1.5874011
region box block 0 10 0 10 0 10 units lattice
create_box 2 box
Created orthogonal box = (0.0000000 0.0000000 0.0000000) to (15.874011 15.874011 15.874011)
  3 by 4 by 4 MPI processor grid
create_atoms 1 box
Created 4000 atoms
  using lattice units in orthogonal box = (0.0000000 0.0000000 0.0000000) to (15.874011 15.874011 15.874011)
  create_atoms CPU = 0.003 seconds
set type 1 type/fraction 2 1.0 78393
Setting atom values ...
  4000 settings made for type/fraction
mass 1 1.0
mass 2 1.0
pair_style lj/cut  3.5
pair_modify tail  yes
pair_coeff 1  1  1.0  1.0   # Intearaction between 1 and 1 set with epsilon = 1 and sigma = 1
pair_coeff 1  2  1.5  0.8
pair_coeff 2  2  0.5  0.88

write_data data.0
System init for write_data ...
Neighbor list info ...
  update every 1 steps, delay 10 steps, check yes
  max neighbors/atom: 2000, page size: 100000
  master list distance cutoff = 3.8
  ghost atom cutoff = 3.8
  binsize = 1.9, bins = 9 9 9
  1 neighbor lists, perpetual/occasional/extra = 1 0 0
  (1) pair lj/cut, perpetual
      attributes: half, newton on
      pair build: half/bin/atomonly/newton
      stencil: half/bin/3d
      bin: standard
WARNING: Not all mixed pair coeffs generated from mixing. Use write_data with 'pair ij' option to store all pair coeffs. (../write_data.cpp:312)


#############################
#   M E L T   S Y S T E M   #
#############################

velocity all create 2.4 9580093 mom yes dist gaussian # Assign velocities
                                                    # Temperature 2.4, random number seed, zero linear momentum
                                                                                # Gaussian distribution

timestep 0.002   # simulation timestep
thermo 1000       # output thermodynamic data every 1000 steps bf 100

# Define a fix  in this case with index 1 applied to all
# particles in the simulation. This fix is for simulations
# in the anisotropic NPT ensemble. Note that we use the MTK
# correction.
fix 1 all npt temp 2.4 2.4 0.1 iso 5.68 5.68 0.5 mtk yes tchain 5 pchain 5 # Use NPT ensemble
                                                                         # Set temperature and pressure and damping
                                                                         # Numbers of thermostats in chain and in barostat
run 10000          # run for 10000 steps
Per MPI rank memory allocation (min/avg/max) = 3.642 | 3.644 | 3.648 Mbytes
Step Temp E_pair E_mol TotEng Press Volume 
       0          2.4   -2.7016284            0   0.89747158   -1.6956087         4000 
    1000    2.4544206   -1.3977069            0    2.2830037    5.8962619    4270.1312 
    2000    2.3899807   -1.4455838            0     2.138491    5.6637746    4261.0649 
    3000    2.4017094   -1.4444639            0    2.1571995     5.570316    4274.7512 
    4000    2.3405738   -1.4373109            0    2.0726721    5.6102088    4267.2087 
    5000    2.3638898   -1.4587712            0     2.086177    5.5990234    4241.5238 
    6000    2.3742895   -1.4563259            0     2.104218     5.632222    4244.0132 
    7000    2.4016106   -1.4385233            0    2.1629919    5.5030545    4301.6343 
    8000    2.4402629   -1.4764295            0    2.1830498    5.7939589     4202.294 
    9000    2.4097992   -1.4532443            0    2.1605508    5.5550902    4273.8525 
   10000    2.3593226   -1.4456805            0    2.0924186     5.575202    4267.1421 
Loop time of 2.37877 on 48 procs for 10000 steps with 4000 atoms

Performance: 726426.506 tau/day, 4203.857 timesteps/s
99.7% CPU use with 48 MPI tasks x no OpenMP threads

MPI task timing breakdown:
Section |  min time  |  avg time  |  max time  |%varavg| %total
---------------------------------------------------------------
Pair    | 1.0273     | 1.0855     | 1.1563     |   2.6 | 45.63
Neigh   | 0.20452    | 0.21144    | 0.22378    |   0.8 |  8.89
Comm    | 0.75656    | 0.82037    | 0.87257    |   3.3 | 34.49
Output  | 0.00024607 | 0.00024966 | 0.00031098 |   0.0 |  0.01
Modify  | 0.20538    | 0.24653    | 0.28859    |   4.5 | 10.36
Other   |            | 0.01469    |            |       |  0.62

Nlocal:        83.3333 ave          94 max          72 min
Histogram: 2 0 4 5 8 17 5 2 2 3
Nghost:        1567.42 ave        1592 max        1532 min
Histogram: 1 1 0 3 7 11 14 4 4 3
Neighs:        8941.60 ave       10217 max        7342 min
Histogram: 2 0 2 6 8 11 10 3 2 4

Total # of neighbors = 429197
Ave neighs/atom = 107.29925
Neighbor list builds = 917
Dangerous builds = 250

# Equilibrate just above the melting temperature to avoid step fn in T

fix 1 all npt temp 1.25 1.25 0.1 iso 5.68 5.68 0.5 mtk yes tchain 5 pchain 5
run 2000
Per MPI rank memory allocation (min/avg/max) = 3.643 | 3.645 | 3.649 Mbytes
Step Temp E_pair E_mol TotEng Press Volume 
   10000    2.3593226   -1.4456805            0    2.0924186     5.575202    4267.1421 
   11000    1.2547241   -2.1977253            0  -0.31610968    5.9284609    3331.0581 
   12000    1.2544262   -2.2434043            0  -0.36223537    5.5958823    3338.5694 
Loop time of 0.572619 on 48 procs for 2000 steps with 4000 atoms

Performance: 603542.418 tau/day, 3492.722 timesteps/s
99.6% CPU use with 48 MPI tasks x no OpenMP threads

MPI task timing breakdown:
Section |  min time  |  avg time  |  max time  |%varavg| %total
---------------------------------------------------------------
Pair    | 0.25328    | 0.27341    | 0.2946     |   2.0 | 47.75
Neigh   | 0.03761    | 0.040084   | 0.044069   |   0.6 |  7.00
Comm    | 0.18407    | 0.20816    | 0.22925    |   2.5 | 36.35
Output  | 5.9206e-05 | 6.109e-05  | 7.7313e-05 |   0.0 |  0.01
Modify  | 0.04161    | 0.046175   | 0.050207   |   1.0 |  8.06
Other   |            | 0.004727   |            |       |  0.83

Nlocal:        83.3333 ave          92 max          79 min
Histogram: 10 5 8 11 3 2 5 2 1 1
Nghost:        1846.92 ave        1878 max        1827 min
Histogram: 4 6 8 8 8 4 7 0 2 1
Neighs:        11436.7 ave       12817 max       10066 min
Histogram: 2 2 5 8 6 10 5 6 1 3

Total # of neighbors = 548962
Ave neighs/atom = 137.24050
Neighbor list builds = 144
Dangerous builds = 10

#############################
# L I N E A R  Q U E N C H  #
#############################

# Define solid atoms. This closely follows ten Wolde  Ruiz-Montero and Frenkel  Faraday Discuss  1996  104  93-110
# Compute components of the per-atom q6 vector
compute q6 all orientorder/atom degrees 1 6 components 6 nnn NULL cutoff 1.3 # compute the Q6 parameter.
                                                                             # Use all neighbours within 1.3 unit cell.

# get number of connections
compute coord_number all coord/atom orientorder q6 0.5

# An atom is solid if it has 8 or more connections (of a possible 14)
variable is_solid atom c_coord_number>=8
group solid dynamic all var is_solid    # Must be dynamic to update
dynamic group solid defined

# do clustering
compute cluster solid cluster/atom 1.3 # Create a cluster where all atoms within are solid and max 1.3 units from another member

# define chunks one chunk per cluster
compute clus_chunks solid chunk/atom c_cluster nchunk every compress yes  # Says which atoms are in which chunk

# count the size of each chunk
compute size_chunks solid property/chunk clus_chunks count


# Find the maximum entry in the vector of chunk sizes
variable max_n equal max(c_size_chunks)


# Thermo style which includes this variable
# thermo_style custom step temp pe vol v_max_n

thermo ${N}  # Print the thermo information every 100 steps
thermo 1000  

# Reset the npt fix at a lower temperature (below freezing)
fix 1  all npt temp  ${temp} ${temp}  0.1  iso  5.68  5.68  0.5  mtk yes tchain  5  pchain  5
fix 1  all npt temp  0.45 ${temp}  0.1  iso  5.68  5.68  0.5  mtk yes tchain  5  pchain  5
fix 1  all npt temp  0.45 0.45  0.1  iso  5.68  5.68  0.5  mtk yes tchain  5  pchain  5

dump dmp2 all dcd ${N} traj.dcd
dump dmp2 all dcd 1000 traj.dcd


compute msd all msd com yes
variable twopoint equal c_msd[4]/6/(step*dt+1.0e-6)
fix 9 all vector 10 c_msd[4]
variable fit equal slope(f_9)/6/(10*dt)
thermo_style custom step temp pe c_msd[4] v_twopoint v_fit v_max_n

fix 1 all npt temp 1.25 ${temp} 0.1 iso 5.68 5.68 0.5 mtk yes tchain 5 pchain 5
fix 1 all npt temp 1.25 0.45 0.1 iso 5.68 5.68 0.5 mtk yes tchain 5 pchain 5
run 5000000 # 5000000  # Run for this many steps
Neighbor list info ...
  update every 1 steps, delay 10 steps, check yes
  max neighbors/atom: 2000, page size: 100000
  master list distance cutoff = 3.8
  ghost atom cutoff = 3.8
  binsize = 1.9, bins = 8 8 8
  4 neighbor lists, perpetual/occasional/extra = 1 3 0
  (1) pair lj/cut, perpetual
      attributes: half, newton on
      pair build: half/bin/atomonly/newton
      stencil: half/bin/3d
      bin: standard
  (2) compute orientorder/atom, occasional
      attributes: full, newton on
      pair build: full/bin/atomonly
      stencil: full/bin/3d
      bin: standard
  (3) compute coord/atom, occasional
      attributes: full, newton on
      pair build: full/bin/atomonly
      stencil: full/bin/3d
      bin: standard
  (4) compute cluster/atom, occasional
      attributes: full, newton on
      pair build: full/bin/atomonly
      stencil: full/bin/3d
      bin: standard
Per MPI rank memory allocation (min/avg/max) = 9.809 | 9.814 | 9.822 Mbytes
Step Temp PotEng c_msd[4] v_twopoint v_fit v_max_n 
   12000    1.2544262   -2.2434043 1.0821199e-30 7.5147215e-33 8.3333333e+20            1 
   13000    1.2417631   -2.2158694    1.2072954 0.0077390728    0.1026404            1 
   14000    1.2562433   -2.2465349    2.5160014  0.014976198   0.10729924            1 
   15000    1.2327539   -2.2150405    3.7539485  0.020855269    0.1058926            1 
   16000    1.2218554   -2.2435707    5.1423256  0.026782945   0.10694535            1 
   17000    1.2317967   -2.2549412     6.417039  0.031456073   0.10898994            1 
   18000    1.2590182     -2.27503    7.6723067  0.035519937   0.10847635            3 
   19000    1.2611754   -2.2379525    9.0459142  0.039675061   0.10878016            2 
   20000    1.2514277   -2.1875434    10.643493  0.044347885   0.11002257            2 
   21000    1.2452288   -2.2626412     11.95512  0.047440952   0.11120651            2 
   22000    1.2612713   -2.2163558    13.383288  0.050694271   0.11228322            1 
   23000    1.2535254    -2.236169    14.701557  0.053266511   0.11290952            1 
   24000    1.2363542   -2.2192253    16.243377  0.056400613   0.11297579            1 
   25000    1.2341652     -2.24216    17.317516  0.057725052   0.11313813            1 
   26000     1.254687   -2.2120291    19.043961  0.061038336   0.11351089            1 
   27000    1.2332858   -2.2322868     20.57167  0.063492806   0.11426655            1 
   28000     1.233836   -2.2542181    22.137333  0.065884918   0.11509004            1 
   29000    1.2505496   -2.2388013    23.535389  0.067630427   0.11569137            2 
   30000    1.2615597    -2.242327    24.801726  0.068893681   0.11614027            1 
   31000    1.2386063   -2.2413397    25.960926  0.069787435   0.11631442            2 
   32000    1.2660514   -2.2619154     27.54676  0.071736354   0.11637861            1 
   33000    1.2287914   -2.2090456    29.018339  0.073278632   0.11658341            1 
   34000    1.2681619   -2.2389898    30.599986  0.074999964   0.11679455            1 
   35000    1.2303476   -2.2139687    31.913023  0.075983388   0.11692126            1 
   36000    1.2398586   -2.2312948    33.045622  0.076494493   0.11684844            1 
   37000    1.2779795   -2.2225667    34.514011  0.077734258   0.11686424            1 
   38000    1.2363319   -2.2527565    36.008054  0.078965031   0.11686696            1 
   39000    1.2116969   -2.1970946    37.485071  0.080096305   0.11688011            1 
   40000     1.260772   -2.2612336    38.822222  0.080879627   0.11701267            1 
   41000    1.2453872   -2.2421903    40.441648   0.08219847   0.11709608            1 
   42000    1.2639045   -2.2523253    41.585337  0.082510589   0.11716785            1 
   43000    1.2514673   -2.2092118    42.543259  0.082448175   0.11703579            2 
   44000    1.2542129   -2.2267091    44.291742  0.083885874   0.11692529            1 
   45000    1.2371136   -2.2431246    45.345611  0.083973352   0.11677282            2 
   46000    1.2651845    -2.236528    46.662196  0.084532962   0.11657451            1 
   47000    1.2818254   -2.2240588    47.813178  0.084775137   0.11633678            1 
   48000    1.2104165   -2.2458362     49.52573  0.085982168   0.11611141            1 
   49000    1.2268095   -2.2266788    50.533332  0.085941041   0.11592707            4 
   50000    1.2660299   -2.2376185    52.045227  0.086742045   0.11573683            1 
   51000    1.2573422   -2.2548779    53.293518  0.087080912   0.11558449            1 
   52000    1.2448303   -2.2141243     54.58393  0.087474246   0.11538227            1 
   53000    1.2365969   -2.2529667     55.64805  0.087496933   0.11518642            3 
   54000    1.2071763   -2.2257053    57.210237  0.088287403   0.11497946            1 
   55000    1.2318836   -2.2216948    58.217347  0.088208101   0.11475564            2 
   56000     1.254111   -2.2507277    59.696181  0.088833601   0.11455776            1 
   57000    1.2633128   -2.2319769    60.731921  0.088789357   0.11434122            2 
   58000    1.2307006   -2.2267466    61.980532  0.089052488   0.11414617            1 
   59000    1.2361861   -2.2509447    63.371097  0.089507198   0.11395912            3 
   60000    1.2351191   -2.2122332     64.81186  0.090016472   0.11377873            4 
   61000    1.2365883   -2.2176842    66.263795  0.090524309   0.11362056            2 
   62000    1.2383759   -2.2476796    67.660581  0.090941641   0.11348921            1 
   63000    1.2160153   -2.2013838    69.245331  0.091594352   0.11336982            1 
   64000    1.2745584   -2.2475085    70.503167  0.091800998   0.11329773            1 
   65000    1.2581424   -2.2345094    71.970255  0.092269557   0.11325609            1 
   66000    1.2277335   -2.2249298    73.447721   0.09273702   0.11322109            3 
   67000    1.2283049    -2.247075    74.314434  0.092430887    0.1131674            1 
   68000    1.2287029   -2.2319002     75.62886  0.092682425   0.11311645            1 
   69000     1.225285   -2.2448332    77.314684  0.093375221   0.11306838            1 
   70000    1.2502058   -2.2325238     79.04157  0.094097107    0.1130385            3 
   71000     1.270135   -2.2236475    80.777814   0.09480964   0.11306788            1 
   72000    1.2406641   -2.2413546    82.173334  0.095108024   0.11316097            3 
   73000    1.2372255   -2.2739929    84.004008  0.095894986   0.11327718            1 
   74000    1.2452355   -2.2575358    84.852363  0.095554462   0.11338631       -1e+20 
   75000    1.2369437   -2.2244415    86.482389  0.096091542    0.1134478            1 
   76000    1.2747667   -2.2365272    88.109536  0.096611332   0.11355765            1 
   77000    1.2149545   -2.2059022    90.313116  0.097741467   0.11370896            1 
   78000    1.2349209   -2.2522854    91.527747  0.097786054   0.11386915            2 
   79000    1.2334255   -2.2257536    93.174651  0.098285496   0.11402702            1 
   80000    1.2611768   -2.2504661    94.241203  0.098167919   0.11418399            2 
   81000     1.237373   -2.2463617    95.767455  0.098526188   0.11432773            2 
   82000    1.2557761   -2.2371348    97.265016   0.09884656   0.11445273            1 
   83000    1.2497741   -2.2185044    98.829779  0.099226685   0.11456055            2 
   84000     1.257471    -2.257334    99.815444  0.099023258   0.11465594            1 
   85000    1.2355954   -2.2626312     101.1359  0.099152842   0.11474971            1 
   86000     1.265571    -2.224476    102.69987  0.099515377   0.11485178            2 
   87000    1.2737339    -2.239742    104.87638    0.1004563   0.11498573            1 
   88000    1.2329256   -2.2475764    105.95375   0.10033499   0.11512057            1 
   89000    1.2346664   -2.2216744    106.96389   0.10015345   0.11521765            1 
   90000    1.2364938   -2.2437832    107.54314  0.099576978   0.11528557            2 
   91000    1.2371061   -2.2326415    109.06711  0.099878308   0.11533852            2 
   92000    1.2429866   -2.2246778    111.09237   0.10062715   0.11539253            1 
   93000    1.2388023   -2.2297895    111.99235   0.10035157   0.11541441            2 
   94000    1.2136907   -2.1923416    113.43918   0.10056665   0.11542244            1 
   95000     1.237041   -2.2726157    114.05716   0.10005014   0.11539541            1 
   96000    1.2079131   -2.2226625     115.8799   0.10059019   0.11537299            1 
   97000    1.2175985   -2.2360215    116.82468   0.10036485   0.11536821            2 
   98000    1.2380371   -2.2746357    118.66287    0.1009038   0.11536087            4 
   99000    1.2085436   -2.2557791     120.4591   0.10139655   0.11538498            1 
  100000    1.1975604   -2.2652188    122.06988    0.1017249   0.11540394            2 
  101000    1.2416126   -2.2403597    123.89101    0.1022203   0.11543543            2 
  102000    1.2459381   -2.2573596     124.6507    0.1018388   0.11548061            2 
  103000    1.2699538   -2.2553354    125.85224    0.1018222   0.11552096            2 
  104000    1.2376667    -2.248392    127.22315   0.10194163   0.11555934            2 
  105000    1.1982101   -2.2442907    129.18872   0.10253073   0.11559854            1 
  106000    1.2324608   -2.2403231    131.13554   0.10309398   0.11564654            1 
  107000    1.2374544   -2.2343442    131.38312    0.1023233   0.11567976            2 
  108000    1.2470073   -2.2544818    132.78536   0.10245784   0.11569977            1 
  109000    1.2591763   -2.2356205    135.10966   0.10329485   0.11573782            1 
  110000     1.228647   -2.2605645    135.97778   0.10301347   0.11577122            2 
  111000     1.226657   -2.2452184    136.91444   0.10278862   0.11580419            1 
  112000    1.2350125   -2.2444937    137.88509   0.10259307   0.11580879            3 
  113000    1.2277474   -2.2347929     139.7163   0.10303562   0.11578408            1 
  114000    1.2580639   -2.2424568    140.70306   0.10285312   0.11576564            3 
  115000    1.2051578   -2.2527303     141.6928   0.10267594   0.11573312            1 
  116000    1.2335144     -2.26169    143.03398    0.1027543   0.11570765            1 
  117000    1.2420132   -2.2308741    144.51853   0.10293343   0.11567327            1 
  118000    1.2222461   -2.2330782    145.28689   0.10260373    0.1156305            1 
  119000    1.2297293   -2.2429498    146.30659    0.1024556   0.11558959            1 
  120000    1.2542066   -2.2325952    148.38955   0.10304829   0.11556098            2 
  121000    1.2297525   -2.2787239    149.67014   0.10307861   0.11552561            1 
  122000    1.2424026   -2.2332127     149.9381   0.10241673    0.1154926            1 
  123000    1.2268124   -2.2615222    152.34152   0.10321241      0.11545            1 
  124000    1.2331074      -2.2713    153.83505   0.10338377     0.115415            2 
  125000    1.2316601   -2.2299382    154.73105   0.10315403   0.11538278            2 
  126000    1.2144777   -2.2394119    156.42435   0.10345526   0.11535985            1 
  127000    1.2643794   -2.2676415    157.41004   0.10328743   0.11531172            1 
  128000    1.2034015   -2.2598381    158.59986   0.10325512   0.11525321            2 
  129000    1.2341163   -2.2689175    160.50478   0.10368526   0.11520221            1 
  130000    1.2229577   -2.2507187    160.36621   0.10279885   0.11516122            2 
  131000    1.2260381   -2.2327603    162.66281   0.10347507   0.11510108            1 
  132000    1.2132444   -2.2270645    163.85903   0.10344636   0.11505333            2 
  133000    1.2546983   -2.2274046    165.36585   0.10361269     0.115011            2 
  134000     1.234613    -2.245181    167.27918   0.10402934   0.11498111            1 
  135000    1.2360969   -2.2627473    168.85217   0.10422973    0.1149606            1 
  136000    1.2223494   -2.2429179    170.29275   0.10434605    0.1149464            1 
  137000    1.2231533   -2.2050403    172.13869   0.10470723   0.11492166            2 
  138000    1.2088944     -2.25901    172.39046   0.10410052   0.11490044            2 
  139000    1.2229952   -2.2694732    172.82889   0.10361444   0.11486749            2 
  140000    1.2088964   -2.2414571    175.92977    0.1047201    0.1148454            2 
  141000    1.1990973   -2.2296477    177.93775   0.10516415   0.11483885            1 
  142000    1.2491095   -2.2453661    179.28074    0.1052117   0.11484267            1 
  143000    1.2251649   -2.2416516    179.90745   0.10484117   0.11483853            2 
  144000    1.2313856   -2.2697369    181.47793   0.10502195   0.11483236            1 
  145000    1.2034038   -2.2528154    184.01521   0.10575587   0.11482759            1 
  146000     1.237886   -2.2483961    183.98952   0.10501685   0.11482822            1 
  147000    1.2393195   -2.2579002    184.79681    0.1047601   0.11480589            1 
  148000    1.2247893   -2.2355453    186.79488    0.1051773   0.11478341            1 
  149000    1.2139306    -2.270704    187.22898   0.10471419   0.11476659            1 
  150000    1.2533489   -2.2514915    188.33214   0.10462897   0.11473982            2 
  151000    1.2342405    -2.237551    189.91449   0.10480932   0.11471367            1 
  152000    1.2244752   -2.2171067    191.73306   0.10511681   0.11468187            2 
  153000    1.2265369   -2.2328504    192.97965   0.10510874   0.11464826            1 
  154000    1.2113494   -2.2492005    194.42218   0.10520681   0.11460392            1 
  155000    1.2506118   -2.2325178    195.27554   0.10498685   0.11456905            1 
  156000    1.2195257   -2.2761376    196.92361   0.10519424    0.1145328            1 
  157000    1.2347278   -2.2492429    198.19893   0.10520113    0.1145022            1 
  158000    1.2132611   -2.2431438    198.84457   0.10487583   0.11448155            1 
  159000    1.2224994   -2.2455215    200.50878   0.10508846   0.11445172            2 
  160000    1.2156378    -2.271505    201.70471   0.10505454    0.1144276            2 
  161000    1.2537098   -2.2237348    203.33329   0.10524497   0.11438733            2 
  162000    1.2224836   -2.2636449    204.80348   0.10535159   0.11436529            1 
  163000    1.2106303   -2.2553329    206.45952    0.1055519   0.11434061            1 
  164000    1.2243858   -2.2408666    207.18707   0.10527798   0.11431175            1 
  165000    1.1910228   -2.2623819    208.01575   0.10505846   0.11428054            2 
  166000    1.2290799   -2.2234399    208.95318   0.10489617     0.114243            1 
  167000    1.2318637   -2.2372614    211.60592   0.10559178   0.11421619       -1e+20 
  168000    1.1995131   -2.2152752    213.09153   0.10570016   0.11419024            1 
  169000    1.2084242   -2.2583767     213.4919   0.10527214   0.11415429            1 
  170000    1.2075323   -2.2487503    214.93857   0.10536205   0.11412398            1 
  171000     1.219015   -2.2361996    216.52482   0.10551892   0.11409438            1 
  172000    1.2248142   -2.2200201    218.53782   0.10588073   0.11406385            1 
  173000    1.2114621    -2.206572    219.73478   0.10584527   0.11403379            2 
  174000      1.23788   -2.2452578    220.88348   0.10578711    0.1140016            3 
  175000    1.2080441   -2.2314334    221.12006   0.10529527   0.11398246            2 
  176000    1.2435572   -2.2473311    223.97421    0.1060484   0.11395815            2 
  177000     1.210836   -2.2338716    225.20863   0.10603043   0.11393563            1 
  178000    1.2334958   -2.2419634    225.69947   0.10566454   0.11391119            1 
  179000    1.2180184   -2.2604222      226.766   0.10557076    0.1138808            1 
  180000    1.2075444   -2.2378098    227.47398   0.10531203   0.11384188            2 
  181000    1.2436736   -2.2601463    228.90762   0.10539025   0.11380336            1 
  182000    1.2528708   -2.2507034    231.92785   0.10619407   0.11377298            3 
  183000    1.2173055   -2.2826636     231.7695   0.10554167   0.11374929            2 
  184000    1.2349966   -2.2678285    233.93526   0.10594894   0.11372593            1 
  185000    1.2246731   -2.2587993    234.21402   0.10550181    0.1137048            2 
  186000     1.187165   -2.2373984    236.15549   0.10580443   0.11367647            1 
  187000    1.1666546   -2.2793802     237.9035    0.1060176   0.11365383            2 
  188000    1.2068785   -2.2598876     239.2847   0.10606591   0.11363086            1 
  189000    1.2105093   -2.2789559    239.56781   0.10562955   0.11360412            2 
  190000    1.2226081   -2.2527902    241.29206   0.10582985   0.11358193            1 
  191000    1.2271216   -2.2433511    243.20879   0.10611204    0.1135536            2 
  192000    1.2321914   -2.2614467    244.16761   0.10597553   0.11352775            2 
  193000    1.2238753   -2.2512508    245.65058   0.10606675   0.11350176            2 
  194000    1.2294778   -2.2686826    245.44168   0.10543027   0.11346907            2 
  195000    1.2223546   -2.2619331    246.94551   0.10553227   0.11342952            1 
  196000     1.217051   -2.2426065    250.02289   0.10630225   0.11339303            2 
  197000    1.2352269   -2.2657008    250.01577   0.10575963   0.11336557            2 
  198000    1.2333802   -2.2344746    252.59325   0.10631029   0.11333979            1 
  199000    1.2105363   -2.2548833    253.11103   0.10599289   0.11331798            1 
  200000    1.1932319    -2.287957    254.84916   0.10618715   0.11329157            2 
  201000    1.2277342   -2.2536258    255.78731    0.1060478   0.11325292            2 
  202000    1.2585119   -2.2524392    256.83642   0.10595562   0.11321881            2 
  203000    1.1898969    -2.243833    257.59463   0.10574492   0.11319002            1 
  204000    1.2104897   -2.2459412    260.48041    0.1064054   0.11315838            1 
  205000    1.1973822   -2.2397035    261.16827   0.10616596   0.11312995            3 
  206000    1.1947292   -2.2586049    262.67466   0.10625998    0.1130957            2 
  207000    1.2446968   -2.2607339    263.15936   0.10594177   0.11306436            2 
  208000    1.2239146   -2.2462171    264.40608   0.10593192   0.11303715            2 
  209000    1.2110683   -2.2714042    265.61486   0.10590704   0.11301335            1 
  210000    1.2047754   -2.2557803    268.14945   0.10640851   0.11299006            1 
  211000    1.2218344   -2.2778356    269.03389   0.10625351   0.11296467            1 
  212000    1.2205686   -2.2481156    269.67057   0.10600258   0.11294832            2 
  213000     1.216891   -2.2529354    271.65286   0.10628046    0.1129241            2 
  214000    1.2213652   -2.2783234    272.86244   0.10625484    0.1128989            2 
  215000    1.1867123   -2.2685271    274.19251   0.10627617   0.11287781            1 
  216000    1.2256897   -2.2705057     276.1788   0.10655046   0.11285911       -1e+20 
  217000    1.2382848   -2.2338204    276.79632   0.10629659   0.11284224            3 
  218000    1.2208682   -2.2502609    279.16093    0.1067129   0.11282174            2 
  219000     1.206649   -2.2880619    278.91502   0.10613205   0.11280089            2 
  220000    1.2193242   -2.2576165    279.77386   0.10597494   0.11278456            2 
  221000    1.2065761   -2.2656496    281.00586   0.10595998   0.11276139            2 
  222000    1.2105102   -2.2538837     284.0299   0.10661783   0.11273924            1 
  223000    1.2119394   -2.2569576    285.26688   0.10660197   0.11271641            1 
  224000    1.2250499    -2.240252     285.8844    0.1063558   0.11269607            1 
  225000    1.2279481   -2.2628743    287.18069   0.10636322    0.1126792            2 
  226000     1.233146   -2.2904601    288.28228   0.10629878   0.11265833            1 
  227000    1.2043615    -2.237297    289.92891   0.10643499   0.11264671            4 
  228000    1.2339017   -2.2740219    294.91792   0.10779164   0.11264676            2 
  229000    1.2277328   -2.2714681     295.4112   0.10750044   0.11264945            1 
  230000     1.234121   -2.2530486    295.73138   0.10714905   0.11264892            1 
  231000    1.1812053    -2.271564    296.72403    0.1070433   0.11265486            1 
  232000    1.2521775   -2.2685205    297.75866   0.10695354   0.11265249            3 
  233000     1.227298   -2.2532919    299.92527   0.10726941   0.11264616            1 
  234000     1.207694   -2.2725998    300.85119   0.10714074   0.11263895       -1e+20 
  235000    1.2136691   -2.2372969    301.20136   0.10680899   0.11263356            1 
  236000     1.224287   -2.2735143     301.7989   0.10656741   0.11262982            1 
  237000    1.2285459   -2.2645875    304.14335   0.10694211   0.11262635            1 
  238000    1.2118374   -2.2333606    306.32761   0.10725756   0.11262496            1 
  239000    1.1921736   -2.2702357    308.08505   0.10742157   0.11261928            1 
  240000    1.2350111   -2.2593718    309.13024   0.10733689   0.11261165            1 
  241000    1.2324159   -2.2765518    309.29648   0.10694899   0.11260229            3 
  242000    1.2370463   -2.2772132    308.55908   0.10625313   0.11258545            2 
  243000    1.1810134   -2.2705771    310.67948   0.10654303   0.11256474            1 
  244000    1.2069844   -2.2862846    312.80507   0.10683233   0.11254293            1 
  245000    1.1956271   -2.2936774    313.44826   0.10661506   0.11252172            1 
  246000    1.2147565   -2.2664986    315.61779   0.10691659   0.11250011            3 
  247000    1.2339451   -2.2467049     315.2716   0.10636694   0.11247237            1 
  248000    1.2114594   -2.2392773     317.3076   0.10662218   0.11244332            2 
  249000     1.212902   -2.2857392     317.3369   0.10620378   0.11240672            2 
  250000    1.2083399   -2.2662844    320.48883   0.10682961   0.11237753            1 
  251000    1.2046201   -2.2454342    321.73956   0.10681924   0.11235182            1 
  252000    1.2196122   -2.2716257    321.81332   0.10641975   0.11232337            1 
  253000    1.1838315   -2.2338858    323.49717   0.10655374   0.11230214            1 
  254000    1.2078075   -2.2430093    325.74882   0.10687297   0.11228357            2 
  255000    1.1911983   -2.2630903    325.98615   0.10653142   0.11226293            2 
  256000    1.2073537    -2.259248     327.6308   0.10665065   0.11224501            1 
  257000    1.2203725   -2.2636373    329.49064   0.10683873   0.11221944            3 
  258000    1.2032721   -2.2796082    329.07892   0.10629164   0.11219537            1 
  259000    1.1881606   -2.2386343     332.3733   0.10694122   0.11217536            1 
  260000    1.2022191   -2.2608467    334.72134   0.10728248   0.11215813            1 
  261000    1.2301391   -2.2559528    334.24789   0.10672027   0.11213729            1 
  262000    1.1881251   -2.2665707    335.30557   0.10664935   0.11211868            1 
  263000    1.2024748   -2.2663183    335.90033    0.1064323   0.11210062            1 
  264000    1.2071997   -2.2616846    336.80846    0.1063158   0.11207936            1 
  265000    1.2369794   -2.2711866    337.91154   0.10626149   0.11205445            2 
  266000    1.2314939   -2.2660098     340.3215   0.10661701   0.11203081            2 
  267000    1.2324212    -2.266415     340.3358   0.10622216   0.11200227            1 
  268000    1.2041278   -2.2510872    341.34411   0.10613934   0.11197194            3 
  269000    1.2127721   -2.2659604    343.75608   0.10649197   0.11193959            5 
  270000    1.2071716   -2.2470581    344.35122   0.10628124   0.11190283            1 
  271000    1.2207868   -2.2405785    344.67048   0.10598723   0.11186807            1 
  272000     1.197755   -2.2920117     345.3567   0.10580781   0.11183056            2 
  273000    1.2202023   -2.2648964    346.95783   0.10590898   0.11178851            1 
  274000    1.2226701   -2.2917253    349.59931   0.10632583   0.11175064            3 
  275000    1.2255958   -2.2824759    350.28253   0.10614622   0.11171583            1 
  276000    1.2133307   -2.2691707    351.34028     0.106081    0.1116825            2 
  277000    1.1955182   -2.2403702    351.92551    0.1058741   0.11164602            3 
  278000    1.2069679   -2.2908968    352.31664    0.1056105   0.11160719            2 
  279000    1.1954618   -2.2532954    356.38859    0.1064482   0.11157512            1 
  280000    1.1930755   -2.2695296    356.68991   0.10615771   0.11154359            4 
  281000    1.1908264   -2.2561607    357.53501   0.10603055   0.11151085            3 
  282000     1.205445   -2.2774948    359.08341   0.10611212   0.11148385            2 
  283000    1.2162194   -2.2931641    359.97917   0.10600093   0.11145663            1 
  284000    1.1904086   -2.2574478    363.00781   0.10651638    0.1114318            2 
  285000     1.226203    -2.258641     364.2387   0.10650254   0.11140687            1 
  286000    1.2045491   -2.2423918    366.26336   0.10672009   0.11138594            2 
  287000    1.2180751   -2.2511873    367.58252   0.10673128   0.11136567            1 
  288000    1.2029197   -2.2864905    367.10499   0.10622251   0.11134286            1 
  289000    1.2121618    -2.249513    368.58984   0.10628312   0.11132151            1 
  290000    1.1952333   -2.3112222    368.51869   0.10589617   0.11130106            2 
  291000     1.212165   -2.2750836     372.1159    0.1065624   0.11128191            1 
  292000     1.182567   -2.2599328    372.97809   0.10644352   0.11126831            1 
  293000     1.220949   -2.2656496    376.33273   0.10703434   0.11125472            1 
  294000     1.197639   -2.2639108    376.09688   0.10660342   0.11123709            1 
  295000    1.2318719   -2.2696753    376.87921   0.10646305   0.11121865            2 
  296000    1.2326781   -2.2787775    379.49502   0.10683981    0.1112055            3 
  297000     1.181938   -2.2741048    379.17532   0.10639038   0.11118615            2 
  298000    1.2211752   -2.2509397    384.66826   0.10756942   0.11117504            1 
  299000    1.1894668   -2.2871527    382.53461     0.106615   0.11116298            3 
  300000    1.2053851   -2.2519907    384.62797    0.1068411   0.11114677            2 
  301000      1.20938   -2.2615013    386.32377   0.10695564   0.11113195            1 
  302000    1.1898945   -2.2858284    389.24425   0.10740735   0.11111572            1 
  303000    1.1865663   -2.2746028    388.02861   0.10671854   0.11109995            2 
  304000    1.2058187   -2.2736686    390.13803   0.10694573   0.11108517            1 
  305000     1.223964   -2.2862022     392.3358   0.10719557   0.11107519            2 
  306000    1.1787177   -2.2548666    394.34156   0.10739149   0.11106487            1 
  307000    1.2268542   -2.2666747    395.03894   0.10723098   0.11105763            1 
  308000    1.2054565   -2.2845537    392.91732    0.1063088   0.11104778            2 
  309000    1.2172402   -2.2739668    394.44691   0.10637727   0.11103218            1 
  310000    1.2472354   -2.2493791    398.47575   0.10711714   0.11101866            1 
  311000    1.2044565    -2.267946    400.24356    0.1072464     0.111005            1 
  312000    1.2174082      -2.2867    399.32027   0.10665606   0.11099033            1 
  313000    1.2218851   -2.2916673       400.96   0.10675186   0.11097618            3 
  314000    1.1990447   -2.2597243    401.87242   0.10665404   0.11096278            2 
  315000    1.1976526   -2.2726653    405.34999   0.10723545   0.11094756            1 
  316000    1.2319544   -2.2683809    404.70477   0.10672594    0.1109346            1 
  317000     1.174826   -2.2779937    406.59901   0.10688723   0.11091658            1 
  318000    1.1832362   -2.2659631    408.91619   0.10715833   0.11090137            2 
  319000    1.1859065   -2.3133788    408.59918    0.1067396   0.11088486            2 
  320000    1.2145896   -2.3196728    409.93975   0.10675514   0.11086747            3 
  321000    1.2021872   -2.2793971    409.82639   0.10639314   0.11085001            3 
  322000    1.2164132   -2.3170779    409.61141   0.10600709    0.1108311            1 
  323000    1.1674606   -2.2986495    413.00953   0.10655561   0.11080896            2 
  324000    1.1807838   -2.2880948    413.19471   0.10627436   0.11078975            1 
  325000    1.1782679   -2.2647673    414.27307   0.10622386   0.11077371            1 
  326000    1.2268545   -2.2518615    416.30537   0.10641753   0.11075571            3 
  327000    1.1889629   -2.2781556    419.92458   0.10701442   0.11073931            2 
  328000    1.2214674   -2.2632777    417.77533    0.1061421   0.11072496            2 
  329000    1.1800611    -2.263188    421.05394   0.10664993   0.11071128            1 
  330000    1.1971014    -2.264319    425.51194   0.10745251   0.11069643            2 
  331000    1.2145848   -2.2594745     423.8549    0.1067107   0.11067751            1 
  332000    1.1769511   -2.2817654    425.52965   0.10680965   0.11066314            1 
  333000    1.1994916   -2.2766433    425.20483   0.10640761   0.11064705            2 
  334000    1.1968927   -2.2618407    426.98239   0.10653253    0.1106306            1 
  335000    1.1734572   -2.2812478    427.91965   0.10644767   0.11061259            2 
  336000    1.2083191   -2.2878648      430.325   0.10672743   0.11059237            2 
  337000    1.2376099     -2.27372    431.17745   0.10662153   0.11057255            1 
  338000    1.2139895   -2.2979237    432.13779   0.10654285   0.11055564            2 
  339000    1.1781281   -2.2734683    435.06083   0.10694711     0.110541            1 
  340000    1.2047096   -2.2859337    433.98465   0.10636879   0.11052424            2 
  341000    1.2077395   -2.2712592    436.35808   0.10663687   0.11051097            2 
  342000    1.1698642   -2.2893675    437.85659    0.1066902    0.1104968            3 
  343000    1.1911376   -2.2804965    438.66906   0.10657654   0.11048068            2 
  344000     1.194235   -2.2456517    441.15806   0.10686968   0.11046888            2 
  345000    1.1685874   -2.2875332    443.02577   0.10701106   0.11045406            3 
  346000    1.1784404   -2.2742246    441.56159   0.10634913   0.11044023            2 
  347000    1.1777758   -2.2567264     445.2646   0.10693194   0.11042677            1 
  348000    1.1918865   -2.2745638    445.89753   0.10677623   0.11041143            1 
  349000    1.1990532   -2.3054899    446.45181   0.10660263    0.1103967            2 
  350000    1.2018722   -2.2641647    449.08345   0.10692463    0.1103848            3 
  351000    1.1819794    -2.279837    448.78485   0.10654911   0.11036938            1 
  352000    1.2077621   -2.3055562     450.9689   0.10676347   0.11035799            2 
  353000    1.2027442    -2.318425    452.47395   0.10681632   0.11034739            1 
  354000    1.2115677   -2.2596143     455.9146   0.10732453   0.11033466            2 
  355000    1.2061219   -2.2886922    457.16187   0.10731499   0.11032485            5 
  356000    1.2039786   -2.2831146    456.50861   0.10686063   0.11031652            1 
  357000    1.1823641   -2.2794646    456.18236   0.10648514    0.1103052            1 
  358000    1.1877372   -2.2741336    463.18479   0.10781769   0.11029927            3 
  359000    1.1752868   -2.2732305    461.17515   0.10705087   0.11029378            1 
  360000    1.1791185   -2.2960148    460.63134   0.10662762    0.1102862            1 
  361000    1.1631248   -2.2922008    461.75211   0.10659098    0.1102761            1 
  362000    1.1946358   -2.2719196    462.87568   0.10655517   0.11026323            1 
  363000    1.2020294   -2.2655401     464.5382    0.1066433   0.11025034            1 
  364000    1.1834623   -2.2894116    464.54414   0.10635168   0.11023211            2 
  365000    1.2061716   -2.2937763    466.68269   0.10654856   0.11021651            1 
  366000    1.1778346   -2.2772185    468.33343   0.10663329   0.11019583            2 
  367000    1.2127164   -2.2729893    469.67481   0.10664732     0.110179            2 
  368000    1.1848487   -2.2857866    469.94043   0.10641767   0.11016253            1 
  369000    1.2029871   -2.2801609    472.21976   0.10664403   0.11014688            2 
  370000    1.1908714   -2.2674479    472.78042   0.10648208   0.11013015            2 
  371000    1.2002779   -2.2944771    472.25765   0.10607764   0.11011052            1 
  372000    1.1840229   -2.2788015    475.05467   0.10641906   0.11009409            1 
  373000    1.2002384   -2.2948926    476.19999   0.10638963   0.11007509            2 
  374000     1.209674   -2.2960713    476.78588   0.10623571   0.11005491            1 
  375000    1.1909683   -2.2992719    478.95034   0.10643341    0.1100402            1 
  376000     1.164715   -2.2834405    480.89372   0.10658105   0.11002918            1 
  377000    1.2137334   -2.2740374    482.01605   0.10654643   0.11001761            2 
  378000    1.2068073   -2.2774023    486.19029   0.10718481   0.11000828            1 
  379000    1.1931942   -2.2871977    487.02042   0.10708453   0.10999798            1 
  380000    1.2097923   -2.2940838     487.1218   0.10682496   0.10998697            2 
  381000    1.1929882   -2.2831658    487.01502   0.10652122   0.10997361            2 
  382000    1.2186939   -2.2960765    491.09824   0.10713312   0.10996372            1 
  383000    1.1806115   -2.2920176    490.60111   0.10674524   0.10995369            1 
  384000    1.1922868   -2.2874131    493.67532    0.1071344   0.10994373            1 
  385000    1.1716799   -2.2688737    493.91208   0.10690738   0.10993434            3 
  386000    1.1762525   -2.2813402    491.87125   0.10618982   0.10992479            2 
  387000    1.2084331    -2.278321    494.38445    0.1064566   0.10991088            2 
  388000    1.1734807   -2.2878835    494.94526   0.10630268    0.1098954            1 
  389000    1.1855471   -2.3023488    493.65697   0.10575342   0.10987929            2 
  390000    1.2017813   -2.2854021    497.15239   0.10622914   0.10985962            3 
  391000    1.1998804   -2.2810122    496.81115   0.10588473   0.10984025            2 
  392000    1.1801819    -2.281949    498.61554    0.1059982   0.10981901            1 
  393000    1.1852601   -2.2808109    499.91569   0.10600417   0.10979658            1 
  394000    1.2026976   -2.3017749    501.58286   0.10608774   0.10977219            1 
  395000    1.1654963   -2.3021145    502.34162   0.10597924   0.10974561            2 
  396000    1.2025174   -2.2765914     503.0399   0.10585856    0.1097198            1 
  397000     1.192597   -2.2992573    502.49234   0.10547698   0.10969165            1 
  398000    1.1728731   -2.2853253    505.15519   0.10576951    0.1096641            2 
  399000    1.1993814   -2.2840948    507.45363   0.10598447   0.10963876            2 
  400000     1.180206   -2.2779263    506.41908   0.10550398   0.10961187            1 
  401000    1.1835645   -2.2793467    508.98523   0.10577415   0.10958674            3 
  402000    1.1747631   -2.2798173    508.69731   0.10545135   0.10955943            1 
  403000    1.1862688   -2.2692111    511.15709   0.10569832   0.10952843            1 
  404000    1.1803992   -2.3161734    511.38729   0.10548418   0.10949918            1 
  405000    1.1699551    -2.306765    511.01185   0.10514647   0.10946859            1 
  406000    1.1955229   -2.2590517    510.51601   0.10478572   0.10943433            1 
  407000    1.1787098   -2.2957996    510.37391   0.10449916   0.10939855            2 
  408000    1.2039625   -2.2391306    516.10576   0.10541376   0.10936643            1 
  409000    1.1881475   -2.2882842    517.54707   0.10544969   0.10933242            1 
  410000    1.1566854   -2.3043639    518.16978   0.10531906   0.10929932            1 
  411000    1.1898094   -2.2848263    519.83767   0.10540099   0.10926891            1 
  412000    1.1801852   -2.3025122    518.44162   0.10486279   0.10923589            1 
  413000    1.1758115   -2.2658694    520.53925   0.10503213   0.10920248            1 
  414000    1.1710599   -2.2881294    522.70711    0.1052148   0.10916785            1 
  415000    1.1911609   -2.3158367    522.74481   0.10496884   0.10913291            1 
  416000    1.1884512   -2.2812029    525.12987   0.10519428   0.10910019            2 
  417000    1.1961253   -2.2767172    523.00543   0.10451747   0.10906452            2 
  418000    1.1650706   -2.2871711    526.41288   0.10494675    0.1090297            2 
  419000    1.1579544   -2.3272833    527.18611   0.10485006   0.10899483            1 
  420000    1.1908479   -2.2762888    528.99523   0.10495937    0.1089597            2 
  421000    1.1653217    -2.274323    529.76078   0.10486159   0.10892471            4 
  422000    1.1602796   -2.2784823     531.1293   0.10488335   0.10888889            1 
  423000     1.197154   -2.2928147    529.82068    0.1043776   0.10885644            1 
  424000     1.178437   -2.3047124    535.31593   0.10521146   0.10882168            1 
  425000    1.1872978   -2.2880712    534.71916   0.10484689   0.10878943            1 
  426000    1.1742884   -2.2937095    534.76636   0.10461001   0.10875604            3 
  427000    1.1780758   -2.2846143    535.66604    0.1045406   0.10872227            1 
  428000    1.2233803   -2.2994567     536.8157   0.10452019   0.10869027            1 
  429000    1.1742644   -2.2826038    539.09524   0.10471935   0.10865945            4 
  430000    1.1701744   -2.3071926    541.52587   0.10494687   0.10862877            1 
  431000    1.2114889   -2.2894674    541.64365   0.10472615   0.10859736            1 
  432000    1.1773565   -2.3029268    540.39351   0.10424257   0.10856385            3 
  433000    1.1849726    -2.320831    542.04415   0.10431951   0.10853007            2 
  434000    1.1693377   -2.3171756    542.62751   0.10419115   0.10849405            1 
  435000    1.1916366     -2.25586    546.04023   0.10460541   0.10846156            2 
  436000    1.1724207   -2.3100371    546.55506   0.10446389   0.10842858            2 
  437000    1.1754912    -2.309213    545.10985   0.10394925   0.10839608            2 
  438000    1.1794708   -2.2915385    550.32441   0.10470404   0.10836617            2 
  439000    1.1935763   -2.2871925    551.34182   0.10465866   0.10833408            1 
  440000    1.1753315   -2.2874035    549.60484   0.10409183   0.10830315            1 
  441000    1.1762958   -2.2896169    552.79154   0.10445796    0.1082706            2 
  442000    1.1795463   -2.2883858    555.41895     0.104717    0.1082402            1 
  443000    1.1886918   -2.2915054    557.18872   0.10481353   0.10821041            1 
  444000    1.1634146   -2.2794172    557.13376   0.10456715   0.10817798            1 
  445000    1.1810918   -2.2958828    556.61512   0.10423504   0.10814779            3 
  446000    1.1782026    -2.314376    557.78689   0.10422027   0.10811735            3 
  447000    1.1776552   -2.2947605    561.38036   0.10465704   0.10808929            1 
  448000    1.1764355   -2.2906184    562.21514   0.10457871   0.10805798            1 
  449000    1.1869357   -2.3215817    561.64458    0.1042399   0.10802619            2 
  450000     1.163827   -2.2717987    565.54958    0.1047314   0.10799413            1 
  451000    1.1504921   -2.3101479    564.16345   0.10424306   0.10796449            2 
  452000    1.1945864   -2.3009931    564.83869   0.10413693   0.10793382            1 
  453000    1.1637791   -2.3150891    570.28457   0.10490886   0.10790875            1 
  454000    1.1907655    -2.312306    570.90207   0.10479113   0.10788274            3 
  455000    1.1703207   -2.2641799    572.51113   0.10485552   0.10786075            1 
  456000    1.1933421    -2.293774    575.18425   0.10511408   0.10783889            2 
  457000    1.1831646    -2.298279    575.29441   0.10490416   0.10781461            1 
  458000    1.1870699   -2.3147148    577.46552   0.10507015   0.10779288            1 
  459000    1.1867801   -2.2996416    574.32548   0.10427115   0.10777141            1 
  460000    1.1808228   -2.2687079    580.40828   0.10514643   0.10775174            3 
  461000    1.1626294   -2.2966847    579.15211   0.10469127   0.10773049            1 
  462000    1.1639244   -2.2796493    583.25177   0.10520414   0.10770697            1 
  463000     1.194082   -2.2920481    580.68336   0.10451464   0.10768272            1 
  464000    1.1847476   -2.3140513     581.3154   0.10440291   0.10766116            3 
  465000    1.1633913   -2.2884066     585.3852   0.10490774    0.1076395            1 
  466000    1.1673224   -2.3050047    588.00027   0.10515026   0.10761939            1 
  467000    1.1955112   -2.3176876    587.12368   0.10476868    0.1075966            1 
  468000    1.1978209   -2.2823776    587.00615   0.10452389    0.1075747            1 
  469000    1.1840418   -2.2977134    586.67495   0.10424217   0.10755327            1 
  470000    1.1740205   -2.2897044    587.79987   0.10421983   0.10753085            1 
  471000    1.1574135   -2.3038116    590.32756   0.10444578   0.10750754            2 
  472000    1.1656581   -2.2791343    592.40902   0.10459199   0.10748629            1 
  473000    1.1581222   -2.2854378    595.23505   0.10486875   0.10746354            1 
  474000    1.1762609   -2.3174546    594.74019   0.10456051   0.10744265            3 
  475000    1.1928558   -2.2993837    596.00896   0.10456298   0.10742137            1 
  476000    1.1570307    -2.320823    596.46944   0.10442392   0.10739915            6 
  477000    1.1797791   -2.3039615    596.65616   0.10423762   0.10737518            3 
  478000    1.1582362   -2.2840795    599.89295   0.10458385   0.10735112            2 
  479000    1.1760261   -2.3138469    599.30109   0.10426254    0.1073255            1 
  480000    1.1607382   -2.2988749    600.10376   0.10418468   0.10729918            3 
  481000    1.1577331   -2.3036363    601.01804   0.10412648   0.10727405            2 
  482000    1.1503683   -2.2849226    601.47478   0.10398942   0.10724843            1 
  483000    1.1873484   -2.2902754    603.42346   0.10411033   0.10722114            2 
  484000     1.163003   -2.3066129    605.73471   0.10429317   0.10719559            1 
  485000    1.1505601   -2.3176119    607.83916   0.10443972      0.10717            1 
  486000    1.1778068   -2.3101611    606.62255   0.10401621    0.1071449            1 
  487000    1.1463905   -2.3144025    608.18539   0.10407005   0.10711992            1 
  488000     1.173831    -2.320491    609.31964   0.10405049   0.10709599            1 
  489000    1.1675863   -2.2687052    611.06779   0.10413561   0.10707414            1 
  490000    1.1665267   -2.3022741    613.19244   0.10428443   0.10705066            2 
  491000     1.163493   -2.2966461     615.0163   0.10438158   0.10702779            2 
  492000    1.1764409   -2.2828769    616.51243   0.10442284   0.10700352            1 
  493000    1.2032248   -2.3071182    617.22083   0.10433077   0.10698002            1 
  494000    1.1545351   -2.2838252    615.15541   0.10377116   0.10695626            3 
  495000    1.1882249   -2.3069661    616.68635   0.10381925   0.10693277            1 
  496000    1.1560245   -2.2985065    620.73299   0.10428982   0.10690984            3 
  497000    1.1465175   -2.3151006    623.20654   0.10449473   0.10688548            4 
  498000     1.177038   -2.2974112    622.63414   0.10418911   0.10686238            3 
  499000    1.1712073   -2.3280375    622.27706   0.10392068   0.10684054            1 
  500000    1.1810431   -2.2979744    625.50038   0.10425006   0.10681629            2 
  501000     1.162455   -2.3301055    624.86341   0.10393603   0.10679367            2 
  502000     1.184465   -2.3164974    629.25241   0.10445757   0.10676895            3 
  503000     1.182107   -2.3035174    625.72126   0.10366489   0.10674602            1 
  504000    1.1590066   -2.2978519    624.33341   0.10322973   0.10672276            2 
  505000    1.1754813   -2.2975581    633.38966   0.10451975   0.10670155            1 
  506000    1.1799318   -2.3174721    631.26708   0.10396362    0.1066787            1 
  507000    1.1899616   -2.2921205     630.7945   0.10368088   0.10665386            1 
  508000    1.1696295   -2.3017036    633.93419   0.10399183    0.1066294            1 
  509000    1.1748403   -2.2804606    637.16182   0.10431595   0.10660425            2 
  510000    1.1895681    -2.295583    634.98245    0.1037553   0.10658081            1 
  511000    1.1804843   -2.3024225    638.04404   0.10405154   0.10655585            2 
  512000    1.1514341   -2.3034824     636.1391   0.10353827   0.10653319            1 
  513000    1.1616094   -2.2998225    642.45521   0.10436244   0.10650872            1 
  514000     1.156435   -2.3417422     637.1626   0.10330133   0.10648227            1 
  515000     1.161363   -2.3100623    640.63867   0.10366322   0.10645616            3 
  516000    1.1462401   -2.3352867    641.61175   0.10361947   0.10643199            2 
  517000     1.175036    -2.314505    645.56215   0.10405579   0.10640795            2 
  518000    1.1762759    -2.322071    643.87878    0.1035841   0.10638219            3 
  519000    1.1684361   -2.2993241    644.79019   0.10353086   0.10636077            2 
  520000    1.1639309   -2.2789601    649.56193   0.10409646   0.10633569            1 
  521000    1.1548316   -2.3033559    646.55141   0.10341513   0.10631018            2 
  522000    1.1536623   -2.3045964    648.38801   0.10351022   0.10628257            1 
  523000    1.1767917   -2.2778186     647.0565   0.10310014   0.10625821            1 
  524000    1.1681254   -2.3158879    646.51069   0.10281659   0.10623187            1 
  525000    1.1777907   -2.3092062    651.18238   0.10336228   0.10620587            2 
  526000     1.177062   -2.3071854    650.18639   0.10300798   0.10618109            2 
  527000    1.1771533    -2.323527     651.9218   0.10308694   0.10615697            1 
  528000    1.1729844    -2.321658    651.90018   0.10288829   0.10613061            1 
  529000    1.1486145   -2.3090292     656.9596    0.1034908   0.10610532            1 
  530000    1.1665596    -2.297126    660.16414   0.10379939   0.10608018            1 
  531000    1.1524225   -2.2966541     658.8158   0.10339231   0.10605534            3 
  532000    1.1577672   -2.2975744    659.93221   0.10337284   0.10602994            1 
  533000    1.1613134   -2.3098715    659.58786   0.10312506   0.10600521            2 
  534000    1.1981385    -2.301251    663.84147   0.10359573   0.10598216            2 
  535000    1.1664251   -2.3224143     666.5749   0.10382787   0.10595905            1 
  536000    1.1699615   -2.3107958    666.64863   0.10364562   0.10593827            1 
  537000    1.1782499   -2.3154276    667.16698   0.10353305   0.10591589            1 
  538000     1.155206   -2.3326022     666.0289   0.10316433   0.10589454            2 
  539000    1.1790279   -2.2904434    670.07905   0.10359911   0.10587211            1 
  540000    1.1701576   -2.3181381     673.1619   0.10388301    0.1058514            2 
  541000    1.1648009   -2.3099813    669.90467   0.10318926   0.10583082            1 
  542000    1.1650324   -2.3014135    671.43626   0.10323436    0.1058076            1 
  543000    1.1460557   -2.3199301    674.58325    0.1035272   0.10578511            1 
  544000    1.1527077   -2.3217788    671.98769   0.10293929   0.10576043            2 
  545000    1.1675906   -2.3356043    676.03148   0.10336873   0.10573834            1 
  546000    1.1425083   -2.3140127    679.16984    0.1036584   0.10571563            1 
  547000    1.1477669   -2.3170192    678.99153   0.10344173   0.10569325            2 
  548000    1.1567276   -2.2933292    678.42496   0.10316681   0.10566919            1 
  549000    1.1601959   -2.3084046    682.37559   0.10357856   0.10564684            1 
  550000    1.1602541   -2.3219164    681.33999   0.10323333    0.1056229            1 
  551000    1.1668694   -2.2791122    682.03153   0.10315056   0.10559952            1 
  552000    1.1585214   -2.3146708    684.39997   0.10332125   0.10557729            1 
  553000    1.1698368   -2.3171431    686.27583   0.10341709   0.10555396            1 
  554000    1.1442788   -2.2853015    684.77227   0.10300425   0.10553244            1 
  555000    1.1337887   -2.3484825    684.55642   0.10278625   0.10550913            1 
  556000     1.164486   -2.3072155    687.13183   0.10298738   0.10548542            2 
  557000    1.1927835    -2.308192    689.01584   0.10308436   0.10546212            1 
  558000    1.1770192   -2.3220441    688.74568   0.10285927    0.1054386            1 
  559000    1.1675848   -2.2981447    691.03344   0.10301631   0.10541405            1 
  560000    1.1654912   -2.3327937    690.89517   0.10281178   0.10538918            2 
  561000    1.1817087   -2.3183976    693.31041   0.10298729   0.10536443            2 
  562000    1.1844752   -2.3347303    693.10872   0.10277413   0.10533983            2 
  563000    1.1520037   -2.2679279    695.99528   0.10301884   0.10531627            2 
  564000    1.1622501   -2.3390212    697.86979   0.10311315   0.10529431            2 
  565000    1.1661525   -2.2940684    699.69126    0.1031993   0.10527314            2 
  566000    1.1716006   -2.3157542    699.35728    0.1029678   0.10525201            1 
  567000    1.1569415   -2.3306367     698.9351   0.10272415    0.1052313            1 
  568000    1.1666211   -2.3449555    700.35093   0.10275102     0.105212            2 
  569000    1.1586065    -2.318332    705.83729   0.10337394   0.10519244            2 
  570000    1.1531284   -2.3087513    704.46463    0.1029919   0.10517253            1 
  571000    1.1455616   -2.2927308    708.23708    0.1033621   0.10515173            1 
  572000    1.1592815    -2.326828    709.58714   0.10337808   0.10513274            1 
  573000    1.1584378   -2.3231862    707.50274   0.10289452   0.10511432            1 
  574000    1.1350216   -2.3125721    710.68243   0.10317689   0.10509565            1 
  575000    1.1806895   -2.3046718    709.84329   0.10287584   0.10507665            1 
  576000    1.1858905   -2.3038678    712.76072   0.10311932   0.10505603            5 
  577000    1.1477048   -2.3407279    713.44829    0.1030399   0.10503875            1 
  578000    1.1766168   -2.3319388     716.4335   0.10329203   0.10502184            1 
  579000    1.1892209   -2.3189892    720.91762   0.10375901   0.10500489            3 
  580000    1.1416341   -2.2992137    713.78258   0.10255497   0.10498703            1 
  581000     1.155422   -2.3301687    717.87796   0.10296586   0.10496837            2 
  582000    1.1650391   -2.3170304    715.46597   0.10244358   0.10495023            1 
  583000    1.1349181   -2.3118595    715.79248   0.10231453   0.10493188            3 
  584000    1.1440493   -2.3184412     720.1101   0.10275544   0.10491118            2 
  585000    1.1424046   -2.3202529    719.37018   0.10247438   0.10489088            2 
  586000    1.1568924   -2.3362786    720.02041   0.10239198   0.10487063            1 
  587000    1.1590886   -2.3198181    721.95407   0.10249206   0.10485206            2 
  588000    1.1354769   -2.3069405    728.25777   0.10321114   0.10483144            1 
  589000    1.1465725   -2.3091446    728.42132   0.10305904   0.10481116            2 
  590000    1.1426772   -2.3196453    732.71441   0.10349074   0.10479375            1 
  591000    1.1535337   -2.3463371    730.47585   0.10299998   0.10477718            1 
  592000    1.1272555   -2.3110458    732.30164     0.103083    0.1047596            1 
  593000    1.1666103   -2.3126829    734.87061   0.10327018   0.10474236            1 
  594000    1.1638304   -2.3111777    733.85024   0.10295318   0.10472548            1 
  595000    1.1842031   -2.3296743    734.78633   0.10291125   0.10471068            2 
  596000    1.1505031   -2.3270975    735.72713   0.10287013   0.10469542            1 
  597000    1.1476973   -2.3301989    739.19882   0.10318241   0.10468127            1 
  598000    1.1383046    -2.308414    742.88822     0.103524   0.10466779            1 
  599000    1.1506388   -2.3272108    743.57165   0.10344625   0.10465595            2 
  600000    1.1630952   -2.3255519    748.59006   0.10397084   0.10464578            1 
  601000    1.1339214   -2.2903622    749.47455   0.10392049   0.10463603            2 
  602000    1.1637158   -2.3394147    745.72072   0.10322823   0.10462487            2 
  603000    1.1339489   -2.3353328    746.47758   0.10316163   0.10461371            2 
  604000    1.1890994   -2.3038056    747.58062   0.10314302   0.10460147            2 
  605000    1.1796412   -2.3015734      750.209   0.10333457    0.1045884            1 
  606000      1.14802    -2.339143    751.26285   0.10330897   0.10457317            2 
  607000    1.1598073   -2.2966624    752.73605   0.10334103   0.10455901            1 
  608000    1.1604145   -2.3104376    753.05061   0.10321417   0.10454421            1 
  609000    1.1788515   -2.3155988    752.42566   0.10295918    0.1045307            1 
  610000    1.1513781   -2.3349524    757.20866   0.10344381    0.1045173            1 
  611000    1.1658553   -2.2911481    755.67733   0.10306565   0.10450312            4 
  612000    1.1508375   -2.3075658    760.56891    0.1035633   0.10448953            3 
  613000    1.1627521   -2.3159074    759.09946    0.1031946   0.10447567            1 
  614000    1.1361245   -2.3325316    758.68945   0.10297088   0.10446138            1 
  615000    1.1313398   -2.3308553    760.26277   0.10301664   0.10444669            4 
  616000    1.1480936   -2.3145437    757.23364   0.10243962   0.10443118            2 
  617000    1.1510486   -2.3123738    762.84791   0.10303186    0.1044158            2 
  618000    1.1456193   -2.3274101    763.25694    0.1029203   0.10440153            3 
  619000    1.1594656   -2.3405201    763.39813   0.10277304   0.10438757            1 
  620000     1.176327   -2.3096068     764.7982   0.10279546   0.10437212            2 
  621000    1.1213318   -2.3155402    767.60707   0.10300685   0.10435707            3 
  622000    1.1319941   -2.3010891    768.88091   0.10301191   0.10434126            2 
  623000    1.1444314   -2.3361735    767.32626   0.10263861   0.10432745            2 
  624000    1.1704439   -2.3292724    766.79884   0.10240369   0.10431186            3 
  625000    1.1378095   -2.3261863     769.8381   0.10264508     0.104297            5 
  626000     1.131094   -2.3128526    766.96759   0.10209899   0.10428003            2 
  627000    1.1442844   -2.3514263    775.59033   0.10308218    0.1042644            2 
  628000    1.1508622   -2.3246514    770.22351   0.10220588   0.10424747            1 
  629000    1.1602821   -2.3271651     774.5587   0.10261774   0.10423059            3 
  630000    1.1940717   -2.3035208    774.83504   0.10249141   0.10421476            2 
  631000    1.1645201    -2.332209    779.75287   0.10297846   0.10419974            1 
  632000     1.152779   -2.3263579    777.49809   0.10251821   0.10418262            1 
  633000    1.1553402   -2.3237993    777.19882   0.10231685   0.10416515            1 
  634000     1.140153   -2.3497519    777.62692   0.10221174   0.10414718            1 
  635000    1.1496805   -2.3075565    782.28471   0.10266203   0.10413008            1 
  636000    1.1293275   -2.3106763    784.67508   0.10281382   0.10411358            1 
  637000    1.1697198    -2.309568    783.36722   0.10248132   0.10409591            2 
  638000    1.1585933   -2.3083213    785.87611   0.10264839   0.10407887            1 
  639000    1.1576488   -2.3132531    786.01099   0.10250535   0.10406234            1 
  640000    1.1545962   -2.3135987    788.45689   0.10266366   0.10404492            1 
  641000    1.1634162   -2.3277596    786.35301   0.10222998   0.10402739            1 
  642000    1.1272723   -2.3226919    785.30331   0.10193449   0.10400878            1 
  643000    1.1381881   -2.3313792    787.35998   0.10204251   0.10398844            1 
  644000    1.1363514   -2.2997539    788.44076   0.10202391   0.10396787            1 
  645000    1.1268142   -2.3376071    786.21721   0.10157845   0.10394812            1 
  646000     1.173593   -2.3247837    790.07544   0.10191892   0.10392767            2 
  647000    1.1640938   -2.3229551    789.39048   0.10167317   0.10390637            3 
  648000     1.150372   -2.3345889    790.97567   0.10172012   0.10388264            1 
  649000    1.1490783   -2.3266765    796.68274   0.10229619   0.10386149            2 
  650000    1.1369674   -2.3117634    794.36482   0.10184164   0.10383927            2 
  651000    1.1622526   -2.3478809     795.4208   0.10182038   0.10381757            2 
  652000    1.1370119   -2.3330801    799.10783   0.10213546   0.10379666            1 
  653000    1.1611835   -2.3021435    797.96543   0.10183326   0.10377633            1 
  654000     1.161405   -2.3460463    798.52283   0.10174858   0.10375523            1 
  655000    1.1268094   -2.3204788    800.37666   0.10182909   0.10373502            1 
  656000    1.1667191   -2.3325892    801.26756   0.10178704   0.10371497            2 
  657000    1.1410397   -2.3292799     804.2817   0.10201442   0.10369582            3 
  658000    1.1719835   -2.3263964    806.58597   0.10215121    0.1036777            1 
  659000    1.1504535   -2.3462982    805.69682   0.10188377   0.10365858            1 
  660000    1.1845351   -2.3303929    805.35603   0.10168637   0.10364025            1 
  661000    1.1361899   -2.3278538    807.15739   0.10175963   0.10362067            2 
  662000    1.1116214   -2.3273596    808.08293   0.10172242   0.10359971            4 
  663000    1.1401921   -2.3590707    805.01889   0.10118387   0.10357885            1 
  664000    1.1489178   -2.3396983    811.14114   0.10179984   0.10355876            1 
  665000      1.14574     -2.33902    810.43956   0.10155884   0.10353884            1 
  666000    1.1410112   -2.3431898    811.16917   0.10149764   0.10351946            2 
  667000    1.1393036   -2.3247971     811.6197   0.10140176   0.10350038            3 
  668000    1.1250689    -2.326638    815.16465    0.1016922   0.10348028            4 
  669000    1.1378888   -2.3351083    813.90742   0.10138358   0.10346017            1 
  670000    1.1452606   -2.3278146    817.53066   0.10168292   0.10344192            3 
  671000    1.1283351   -2.3207446    815.54784   0.10128513   0.10342112            3 
  672000    1.1390897    -2.357457    819.02159   0.10156518   0.10340117            2 
  673000    1.1593964   -2.3058964    823.07645   0.10191635   0.10338215            2 
  674000    1.1336306   -2.3249185    822.15318   0.10165099   0.10336428            2 
  675000    1.1584583   -2.3104848    827.09662   0.10211069   0.10334641            1 
  676000    1.1448427   -2.3359201    823.92451    0.1015686   0.10332718            2 
  677000    1.1180165   -2.3328839    824.23206   0.10145643   0.10330721            2 
  678000    1.1691224    -2.321872    824.80616   0.10137735   0.10328712            1 
  679000    1.1429003   -2.3140922    828.21928   0.10164694   0.10326743            1 
  680000    1.1370881   -2.3465089    829.05238   0.10159956   0.10324749            2 
  681000    1.1623712   -2.3221829    831.23327   0.10171724   0.10322609            1 
  682000    1.1587282   -2.3555212    826.96309   0.10104632   0.10320537            1 
  683000    1.1622636   -2.3342304    827.16439   0.10092294   0.10318543            1 
  684000     1.143924   -2.3216151      828.014    0.1008789   0.10316504            2 
  685000    1.1490231   -2.3143437    829.86545   0.10095687   0.10314486            3 
  686000    1.1508065   -2.3132992    831.35142   0.10099021   0.10312379            2 
  687000     1.144941   -2.3116323    832.14221   0.10093913   0.10310204            2 
  688000    1.1366315   -2.3508112    831.96318   0.10077073   0.10308229            1 
  689000    1.1113271    -2.333368    836.68755   0.10119588   0.10306163            3 
  690000    1.1364684   -2.3339247    838.21655   0.10123388   0.10304163            1 
  691000    1.1527241   -2.3526987    839.73311   0.10127027   0.10302026            2 
  692000     1.153854   -2.3594041    840.72179   0.10124299   0.10299922            1 
  693000    1.1323445     -2.32018    839.56261    0.1009575   0.10297909            2 
  694000    1.1535687   -2.3394939    841.69035   0.10106752   0.10296003            1 
  695000    1.1303479   -2.3082108    844.30953   0.10123616   0.10294143            1 
  696000    1.1449981   -2.3566465    847.21318   0.10143836   0.10292394            1 
  697000    1.1522636   -2.3748763     848.7765   0.10147973    0.1029051            2 
  698000    1.1456597   -2.3226166    849.15378   0.10137939   0.10288616            3 
  699000    1.1325018   -2.3486681     852.5703   0.10164167   0.10286806            1 
  700000    1.1288313   -2.3272869    850.23633   0.10121861   0.10284892            1 
  701000    1.1673312   -2.3306461    854.10113   0.10153366   0.10283071            1 
  702000    1.1163058   -2.3033404    849.84206   0.10088344   0.10281328            1 
  703000    1.1182534   -2.3286857    854.29115   0.10126732   0.10279888            2 
  704000     1.130277   -2.3388243    857.42959   0.10149498   0.10278221            1 
  705000     1.149123   -2.3447923    857.50378   0.10135978   0.10276533            2 
  706000    1.1436217    -2.326046    858.23291   0.10130228   0.10274899            2 
  707000    1.1573288   -2.3321231    863.99597   0.10183828   0.10273308            2 
  708000    1.1328174   -2.3323334    861.26112   0.10137254   0.10271896            2 
  709000    1.1378436   -2.3334046    865.24435   0.10169774   0.10270541            2 
  710000    1.1490449   -2.3313278    864.39168   0.10145442   0.10268996            1 
  711000    1.1076958   -2.3439374    866.78298     0.101592   0.10267699            1 
  712000    1.1489216   -2.3191851    871.89366   0.10204748   0.10266435            2 
  713000    1.1583162   -2.3680956    868.52861   0.10151106   0.10265088            4 
  714000    1.1337752    -2.315385    875.37555   0.10216801   0.10263748            2 
  715000    1.1265195   -2.3218687    873.70327   0.10183022   0.10262474            1 
  716000    1.1316682   -2.3463347    879.22531   0.10233069   0.10261337            2 
  717000    1.1334395   -2.3469107    877.98314    0.1020436   0.10260214            1 
  718000    1.1291891   -2.3649937    874.17854    0.1014599   0.10259005            1 
  719000    1.1355453   -2.3048736    880.40366   0.10204029   0.10257885            3 
  720000    1.1363666   -2.3286382    879.67935   0.10181474   0.10256855            2 
  721000     1.144803   -2.3480681    883.10984   0.10207002    0.1025591            1 
  722000    1.1501671   -2.3730247    880.42279   0.10161851   0.10254974            3 
  723000    1.1548441   -2.3497009    887.86277    0.1023355   0.10254113            1 
  724000      1.15283   -2.3045055     888.4321   0.10225968     0.102532            1 
  725000    1.1471798   -2.3548063    889.16408   0.10220277   0.10252308            2 
  726000    1.1450668   -2.3468767    889.90527   0.10214707   0.10251386            2 
  727000    1.1222457   -2.3042009    892.59514   0.10231489    0.1025046            1 
  728000    1.1395269    -2.350812    892.08315   0.10211575   0.10249725            1 
  729000    1.1535624   -2.3329545    891.94808   0.10196023   0.10248896            2 
  730000    1.1559628   -2.3370018    895.83904   0.10226473   0.10248209            1 
  731000    1.1200365   -2.3220417    896.58452   0.10220982    0.1024748            1 
  732000    1.1376832   -2.3203118    900.76173   0.10254573   0.10246722            3 
  733000    1.1455995   -2.3729337    893.62872    0.1015949   0.10245839            1 
  734000    1.1444338   -2.3407232    901.10612   0.10230542   0.10245111            2 
  735000    1.1566105    -2.321736    902.98743   0.10237953   0.10244423            2 
  736000    1.1418945   -2.3256055    901.29733   0.10204906   0.10243738            1 
  737000    1.1686043   -2.3662627    901.31606   0.10191272   0.10242946            1 
  738000    1.1264945   -2.3276119    901.62008   0.10180895   0.10242156            3 
  739000      1.14118   -2.3167124    907.94844    0.1023848   0.10241398            2 
  740000    1.1511369   -2.3261688    905.73777    0.1019975   0.10240552            1 
  741000    1.1464133   -2.3425707    905.07562   0.10178538   0.10239652            1 
  742000     1.139856   -2.3191057    908.48986   0.10203166   0.10238738            1 
  743000    1.0973666   -2.3686207    906.72919   0.10169686   0.10237789            4 
  744000    1.1441087   -2.3307042    910.83707   0.10202028   0.10236932            1 
  745000    1.1273349   -2.3488271    912.70801   0.10209262   0.10236035            2 
  746000     1.152666   -2.3004964    913.28655   0.10202039   0.10234981            1 
  747000    1.1344451   -2.3284212    912.69239   0.10181754   0.10234008            1 
  748000    1.1326135   -2.3588626    914.28475   0.10185882    0.1023312            2 
  749000    1.1292827   -2.3520238    910.71908   0.10132611   0.10232105            1 
  750000    1.1426375   -2.3354701    915.06419    0.1016738    0.1023098       -1e+20 
  751000    1.1401904   -2.3212321    916.92078   0.10174443   0.10229904            2 
  752000    1.1268285   -2.3371925    916.72976   0.10158796   0.10228732            1 
  753000    1.1223824   -2.3563499    916.99118   0.10148198   0.10227614            1 
  754000    1.1388135   -2.3282922    919.31792   0.10160454   0.10226743            2 
  755000    1.1187308   -2.3622473    919.94397   0.10153907   0.10225803            3 
  756000      1.13153   -2.3332582    924.30233   0.10188518   0.10224833            1 
  757000    1.1320234   -2.3488423    923.07153    0.1016151   0.10223965            1 
  758000    1.1400619   -2.3311832     921.8078   0.10134211   0.10223011            1 
  759000    1.1374172   -2.3502175    924.06802   0.10145674   0.10221968            1 
  760000    1.1404458   -2.3691526    928.60043   0.10182022    0.1022103            2 
  761000    1.1068117   -2.3613862    924.34593   0.10122053   0.10219973            2 
  762000    1.1274409   -2.3575716    930.17932   0.10172565   0.10218939            1 
  763000    1.1487543     -2.34153    929.95214   0.10156751   0.10217919            1 
  764000    1.1353435   -2.3468631    931.80275   0.10163643   0.10216994            1 
  765000    1.1401562   -2.3612415    929.69271   0.10127372    0.1021591            3 
  766000    1.1196963    -2.353885    932.38226    0.1014341   0.10214978            2 
  767000    1.1243567   -2.3662615    935.25437    0.1016139   0.10214001            2 
  768000    1.1370071    -2.375063    938.26017   0.10180774   0.10212993            1 
  769000    1.1397145   -2.3403056    940.21609   0.10188731   0.10212101            1 
  770000    1.0916465   -2.3494435    940.02422   0.10173422   0.10211197            1 
  771000    1.1382716   -2.3386169    947.53424   0.10241399   0.10210378            1 
  772000    1.1031551   -2.3522577    949.55825   0.10249981   0.10209649            2 
  773000    1.1276024   -2.3463903    947.98083   0.10219716   0.10208969            1 
  774000    1.1569376   -2.3501888    943.49755   0.10158242   0.10208143            2 
  775000    1.1101166   -2.3470595    948.40805   0.10197936   0.10207331            2 
  776000    1.1308432   -2.3371978    947.03938   0.10170096   0.10206472            3 
  777000    1.1583218    -2.360193    948.81836   0.10176087   0.10205514            2 
  778000    1.1539334   -2.3347504    952.47144   0.10202136   0.10204466            2 
  779000    1.1234957   -2.3477016    950.90563    0.1017229   0.10203527            1 
  780000    1.1338863   -2.3488765    946.92477   0.10116718   0.10202584            2 
  781000    1.1258456   -2.3617834    953.82812   0.10177423   0.10201635            2 
  782000    1.1534333   -2.3845777    955.01409   0.10177047   0.10200687            2 
  783000    1.1203225   -2.3130403    956.40775   0.10178882   0.10199782            2 
  784000    1.1420025   -2.3179593    955.69574   0.10158331   0.10198826            1 
  785000    1.1328667    -2.347107    955.78445   0.10146332   0.10197945       -1e+20 
  786000    1.1099663   -2.3450749    956.67613   0.10142877   0.10197019            4 
  787000    1.1108728   -2.3807121    956.97692   0.10133174   0.10195725            2 
  788000    1.1133249   -2.3635813    954.29904   0.10091995   0.10194552            1 
  789000    1.1232337   -2.3379604    956.69861   0.10104548   0.10193428            2 
  790000    1.1186182   -2.3624119    957.15713   0.10096594   0.10192142            1 
  791000    1.1190487   -2.3768024    956.55596   0.10077496   0.10190918            6 
  792000    1.1277997   -2.3178617    965.97874   0.10163918   0.10189737            2 
  793000    1.1409713   -2.3707942    959.07733   0.10078576    0.1018841            2 
  794000    1.1506055    -2.366781     956.7076   0.10041012   0.10187037            2 
  795000    1.1437043   -2.3440931    962.82308   0.10092485   0.10185593            2 
  796000    1.1283217   -2.3448144    961.05283   0.10061273   0.10184237            1 
  797000    1.1177191     -2.35509    967.14534   0.10112352    0.1018268            5 
  798000    1.1103025   -2.3296242    962.42543   0.10050391   0.10181192            1 
  799000    1.1423564   -2.3596165    959.56771   0.10008007   0.10179653            1 
  800000    1.1116614   -2.3346563    962.83131   0.10029493   0.10178001            1 
  801000    1.1142741   -2.3342258     966.2855   0.10052908    0.1017642            1 
  802000    1.1285782   -2.3678348    969.30392   0.10071736   0.10174807            3 
  803000    1.1155265   -2.3478684    967.47011   0.10040163   0.10173205            2 
  804000    1.1237451    -2.331915    967.55243   0.10028528   0.10171664            1 
  805000    1.1570888   -2.3530229    974.39328   0.10086887   0.10170086            2 
  806000    1.1227948   -2.3682948    969.86654    0.1002757   0.10168485            2 
  807000    1.1171113   -2.3653599    972.99496   0.10047449   0.10166866            2 
  808000    1.0916409   -2.3783433    970.97127   0.10014143   0.10165321            1 
  809000    1.1266787   -2.3484493    977.74608    0.1007155   0.10163735            1 
  810000    1.1121722   -2.3296904    979.87909   0.10081061   0.10162325            1 
  811000     1.107078   -2.3822308    976.84814   0.10037486   0.10160811            3 
  812000    1.1224019   -2.3335296    975.46815   0.10010962   0.10159245            3 
  813000    1.0932077   -2.3175871    980.18377   0.10046984   0.10157781            1 
  814000    1.1070948   -2.3177917    979.89423   0.10031677   0.10156447            2 
  815000    1.1339058   -2.3798601    986.87042     0.100907   0.10155019            2 
  816000    1.1186433   -2.3623732     989.4304   0.10104477   0.10153632            1 
  817000    1.1106521   -2.3534042    989.57413   0.10093575   0.10152142            1 
  818000    1.1091952    -2.379826    986.70939   0.10052052   0.10150687            2 
  819000    1.1227412   -2.3595703     986.5765   0.10038426   0.10149178            2 
  820000    1.1194586   -2.3691725    986.79274   0.10028381    0.1014764            5 
  821000    1.0936293   -2.3656069     987.3082   0.10021399   0.10146049            2 
  822000    1.0998663   -2.3747394    989.81293     0.100346   0.10144435            2 
  823000    1.1133926   -2.3276946    990.89108   0.10033324   0.10142753            2 
  824000    1.1392063   -2.3662301    990.20602   0.10014219   0.10141093            1 
  825000    1.1110325   -2.3389708    994.60819   0.10046547    0.1013951            2 
  826000    1.0947277   -2.3510468    994.49382   0.10033231   0.10137861            1 
  827000    1.1137514   -2.3813864    989.77089  0.099735075     0.101362            2 
  828000     1.125488   -2.3425758     992.7205  0.099911484   0.10134476            1 
  829000    1.1250164   -2.3638631    990.63805  0.099581629   0.10132732            1 
  830000    1.1167006    -2.358338    1002.0012   0.10060253   0.10130895            2 
  831000    1.1261915   -2.3843409    991.73873   0.09945234   0.10129148            2 
  832000    1.1357626   -2.3675521    999.08548   0.10006866   0.10127327            2 
  833000    1.1395103   -2.3401288    994.89316  0.099529128   0.10125601            1 
  834000    1.1369737   -2.3705734     998.1755  0.099737759   0.10123931            2 
  835000    1.1312543   -2.3388761    1000.3599  0.099836321   0.10122083            1 
  836000    1.1172995   -2.3437054    1004.1664   0.10009633   0.10120276            1 
  837000    1.1241637   -2.3448927    1004.9019   0.10004997   0.10118534            1 
  838000    1.1407934   -2.3518131    1002.4522   0.09968697   0.10116794            1 
  839000    1.1054765   -2.3611115    1003.3042  0.099652779   0.10114985            2 
  840000    1.1076386   -2.3785229    1004.9601   0.09969842   0.10113225            1 
  841000      1.10837   -2.3573426    1004.6888  0.099552989   0.10111471            2 
  842000    1.1045581   -2.3811877    1007.3574  0.099698867   0.10109695            2 
  843000    1.1098503   -2.3908561    1002.5474  0.099105119   0.10107905            2 
  844000    1.0874326   -2.3628903    1005.9293  0.099321616   0.10106007            2 
  845000    1.1352065   -2.3510866    1007.7888   0.09938746   0.10104256            1 
  846000    1.1262789    -2.373245     1011.827  0.099667754    0.1010233            2 
  847000    1.1069845   -2.3509375    1016.7041   0.10002992   0.10100498            2 
  848000    1.1196836   -2.3497457    1017.1072  0.099951572   0.10098681            2 
  849000    1.1351548      -2.3488    1012.2679  0.099358848    0.1009699            1 
  850000    1.1278319   -2.3649096    1016.4533  0.099652282   0.10095196            4 
  851000     1.139516   -2.3615598    1014.7811  0.099371432   0.10093465            1 
  852000    1.1088004   -2.3397259    1015.5848  0.099333412   0.10091696            1 
  853000    1.0965098   -2.3831518    1016.7949  0.099335179   0.10089814            2 
  854000    1.1206552   -2.3637691    1019.0155  0.099435544    0.1008805            1 
  855000    1.1245192   -2.3375924      1021.88  0.099598437    0.1008623            1 
  856000    1.1067989   -2.3387421    1025.2771  0.099812805   0.10084384            1 
  857000    1.1136399   -2.3689857    1016.3715   0.09883037   0.10082597            1 
  858000     1.155189   -2.3569311    1017.1264    0.0987885     0.100807            2 
  859000    1.0998563    -2.354237    1026.0023  0.099534564   0.10078706            2 
  860000    1.1287255   -2.3507405    1024.7766  0.099300055   0.10076805            3 
  861000    1.1088101   -2.3414052    1027.4639  0.099444825   0.10074854            2 
  862000    1.1311802   -2.3917857    1021.8517    0.0987869   0.10072899            3 
  863000    1.1134521   -2.3737597    1025.6591  0.099040079   0.10070883            2 
  864000    1.0929099   -2.3595522     1029.183   0.09926534   0.10068891            2 
  865000    1.1203543   -2.3647387    1023.7526  0.098627415   0.10066809            1 
  866000    1.0907634   -2.3692163    1027.7437  0.098897585   0.10064729            1 
  867000    1.1312079   -2.3559495    1028.8516  0.098890005   0.10062738            2 
  868000    1.1064393   -2.3651475      1027.75  0.098670311   0.10060625            1 
  869000    1.1208677   -2.3644791    1032.6751  0.099029062   0.10058504            1 
  870000    1.1235092   -2.3819882    1031.7044  0.098822263   0.10056476            6 
  871000    1.1151991   -2.3625187    1029.8534  0.098531703   0.10054268            3 
  872000    1.0906033   -2.3620248    1032.5671  0.098678046   0.10052182            2 
  873000    1.1222495   -2.3346936    1029.2232   0.09824582   0.10050046            2 
  874000    1.0969149   -2.3683091     1034.406  0.098627572   0.10047843            1 
  875000    1.1081793   -2.3836468    1032.4748  0.098330936   0.10045608            1 
  876000    1.0940778   -2.3541803    1035.9645  0.098550655   0.10043477            1 
  877000    1.1075836   -2.3603286    1037.3786  0.098572654   0.10041283            1 
  878000    1.1102074   -2.3210798    1038.3206   0.09854979   0.10039119            1 
  879000    1.1144388   -2.3803036    1040.9362  0.098685647   0.10036929            3 
  880000    1.1433543    -2.358319    1039.5338  0.098440703   0.10034786            1 
  881000    1.1213623   -2.3629794    1041.2615  0.098492381   0.10032643            2 
  882000    1.1177066   -2.3638235    1040.9917  0.098355221   0.10030566            3 
  883000    1.1089188   -2.3401871    1042.0733  0.098345915   0.10028475            1 
  884000    1.1055759   -2.3457268    1051.3323  0.099107498   0.10026394            2 
  885000    1.1210166   -2.3401028    1048.4244  0.098721693    0.1002442            2 
  886000    1.0854811   -2.4127698    1045.6357  0.098347977   0.10022423            1 
  887000     1.117295   -2.3921706    1047.7959  0.098440052    0.1002049            3 
  888000     1.104384     -2.37721    1053.7795  0.098890719   0.10018578            1 
  889000    1.1113617   -2.3387401    1055.7895  0.098967893   0.10016729            2 
  890000    1.0953531   -2.3686736    1058.1431  0.099077072   0.10014831            1 
  891000    1.1271936   -2.3607547    1053.7034   0.09855064   0.10012971            2 
  892000    1.0976562   -2.3865914    1053.3206  0.098404389   0.10011055            2 
  893000    1.1199353   -2.3739146    1056.8497  0.098623525   0.10009181            2 
  894000    1.1148358   -2.3334454    1060.1885  0.098824432    0.1000735            1 
  895000    1.1208098   -2.3839654    1054.5457   0.09818861   0.10005479            1 
  896000    1.1002736   -2.3760592    1058.1239  0.098411824   0.10003542            1 
  897000    1.1067039   -2.3799542     1064.396  0.098884798   0.10001637            6 
  898000    1.0941581   -2.3653337    1061.6102  0.098516169  0.099997534            2 
  899000    1.0702408    -2.378285    1065.7316  0.098788616  0.099978235            1 
  900000    1.0793282   -2.3812374    1062.1197  0.098344415    0.0999592            4 
  901000    1.1143675   -2.3872644    1064.2914  0.098436128  0.099940004            1 
  902000    1.1256866   -2.3770016    1067.2578   0.09860105  0.099920641            1 
  903000    1.1248373   -2.3931245    1068.9651  0.098649415  0.099901916            4 
  904000    1.0877421   -2.3871704    1062.8253  0.097974312   0.09988262            2 
  905000    1.1026434   -2.3395651    1071.9203   0.09870353  0.099864252            1 
  906000    1.0981929    -2.365049     1063.577  0.097827171  0.099845109       -1e+20 
  907000    1.1263127   -2.3530684    1070.7254   0.09837609  0.099826761            2 
  908000     1.095405   -2.3563751    1069.9549  0.098197039  0.099809004            1 
  909000    1.1000949   -2.3890229    1070.5711    0.0981455   0.09979068            2 
  910000    1.1066161   -2.3761054    1074.9012  0.098434174  0.099772117            2 
  911000    1.1261449   -2.3831329    1076.2188  0.098446656   0.09975403            1 
  912000    1.0858152   -2.3682256     1076.808  0.098392545   0.09973541            1 
  913000    1.1070244   -2.3648219    1074.5571  0.098079326  0.099715895            1 
  914000    1.0966303   -2.3791891    1076.6549  0.098163284  0.099696034            2 
  915000    1.1028748   -2.3551001     1079.576  0.098322041  0.099676703            6 
  916000      1.09437   -2.3931539    1078.2672  0.098095629  0.099655775            4 
  917000    1.1015428    -2.367931    1081.6659  0.098297522  0.099636858            1 
  918000    1.0893633    -2.391859    1082.0449  0.098224844  0.099618172            1 
  919000    1.1168731   -2.3583815    1081.4493  0.098063954  0.099598795            2 
  920000    1.1076954     -2.37279    1086.7814  0.098440341  0.099580017            2 
  921000    1.1047271   -2.3924155    1080.6689  0.097780391  0.099561264            3 
  922000    1.1123621   -2.3817568     1081.674  0.097765182  0.099542554            1 
  923000     1.085936   -2.3944588    1086.5896  0.098103069  0.099523737            2 
  924000    1.1116037   -2.3860177    1086.9972  0.098033654  0.099504385            2 
  925000    1.0858024   -2.3663585    1083.9613  0.097654168  0.099485668            2 
  926000      1.10311   -2.3970009    1086.6502  0.097790693  0.099466617            2 
  927000    1.0896704   -2.3647618    1087.1395  0.097729185  0.099446823            2 
  928000    1.1226351   -2.3554191    1092.7546  0.098128111  0.099428443            3 
  929000    1.0983085   -2.3823527     1091.174  0.097880696  0.099409954            2 
  930000    1.1091797   -2.3767717    1090.7637  0.097738679  0.099390566            1 
  931000    1.1170582   -2.4022083    1090.6807  0.097626274  0.099372939            1 
  932000    1.1170693    -2.390626    1096.8387   0.09807213  0.099355187            1 
  933000    1.1142689   -2.3326984    1100.1342  0.098261362  0.099337486            1 
  934000    1.1224024   -2.4015713     1092.469  0.097472255  0.099320578            2 
  935000    1.1138302   -2.3470405    1099.2051  0.097968367  0.099303274            2 
  936000    1.0898874   -2.4001265    1096.3462  0.097609169  0.099285397            3 
  937000    1.0925785   -2.3723768    1101.8112  0.097991033  0.099267851            1 
  938000    1.1024136   -2.3762781    1099.4369  0.097675631  0.099249801            2 
  939000     1.100542   -2.3794394    1104.2661  0.098000188  0.099231922            2 
  940000    1.0963655   -2.3602887    1113.8452   0.09874514  0.099213734            2 
  941000    1.0941203   -2.3826888    1107.0678  0.098040014  0.099196506            1 
  942000    1.0818628   -2.3640466    1109.7408  0.098172399   0.09917865            3 
  943000    1.0839785   -2.4159532    1108.7271  0.097978716  0.099161572            2 
  944000    1.1091931   -2.3603961    1112.4054  0.098199629  0.099143873            1 
  945000    1.0794936   -2.3984491    1113.4658  0.098189223  0.099126454            3 
  946000    1.0899178   -2.3677913    1113.7434  0.098109888  0.099109207            1 
  947000    1.0935186   -2.3637897    1107.4916  0.097456146  0.099091849            2 
  948000    1.0800499   -2.3719384    1109.6458  0.097542706  0.099073419            4 
  949000     1.096875   -2.3892018    1114.0229   0.09782428  0.099055854            1 
  950000    1.0959271   -2.3496573    1121.9395  0.098415749  0.099038796            3 
  951000    1.1080607    -2.379595     1118.159  0.097980983  0.099022237            1 
  952000    1.1142082   -2.3936156    1120.1647  0.098053632  0.099004764            1 
  953000    1.0706499   -2.3478427    1126.7542   0.09852695  0.098988316            1 
  954000    1.0980711   -2.3620694    1124.2063  0.098201109  0.098971841            2 
  955000    1.1167001   -2.3730569    1120.1646  0.097745598  0.098955719            1 
  956000    1.1175842   -2.3619441    1128.1725  0.098341394  0.098939216            4 
  957000    1.0732689   -2.3927132    1121.8846  0.097691105  0.098922259            3 
  958000     1.094195   -2.3831325    1123.6712   0.09774454  0.098905623            2 
  959000    1.0799976   -2.3854101    1125.6204  0.097811995  0.098888925            3 
  960000    1.0890552   -2.3609475    1130.9775  0.098175128  0.098872192            3 
  961000    1.0855095   -2.3742634    1125.8092  0.097624803  0.098855093            2 
  962000      1.08402   -2.3437631    1130.2769  0.097910334  0.098837574            1 
  963000    1.0927588   -2.3779067    1126.3151  0.097465824  0.098820466            2 
  964000    1.0838583   -2.3666246    1130.1277    0.0976943  0.098802837            1 
  965000     1.127875   -2.3787325    1128.8989  0.097486955  0.098785132            3 
  966000    1.0753747   -2.3743469    1134.0235   0.09782811  0.098767374            2 
  967000    1.1171746   -2.3637881    1131.3101  0.097493115  0.098749267            1 
  968000    1.1002394   -2.3884918    1134.3908  0.097657611  0.098731016            2 
  969000    1.1027641   -2.3500487    1134.2524  0.097544925  0.098713698            5 
  970000    1.0879022   -2.3723421    1131.5105  0.097208805  0.098696529            1 
  971000     1.106516    -2.371862    1139.6371  0.097806139  0.098678622            1 
  972000     1.096939   -2.4081399     1137.194   0.09749606  0.098660694            2 
  973000    1.1048392   -2.3862563    1139.0634  0.097555963  0.098642735            2 
  974000    1.1140216   -2.3650799    1140.6059   0.09758777  0.098625512            3 
  975000    1.1134638   -2.3759279    1144.6094   0.09782986   0.09860803            1 
  976000    1.0844582   -2.3879743     1137.882  0.097155225  0.098590701            2 
  977000     1.085871   -2.3569893    1140.1298  0.097247511  0.098572622            3 
  978000    1.0911786   -2.3755544     1142.827  0.097377893  0.098554066            1 
  979000    1.0785559   -2.3665529     1139.279  0.096976424   0.09853607            3 
  980000    1.0941467    -2.396634     1141.821   0.09709362  0.098517213            2 
  981000    1.1018936    -2.377752    1149.9941  0.097688932  0.098499323            3 
  982000    1.1167689    -2.384363    1146.2819  0.097274434   0.09848099            1 
  983000    1.1020087   -2.3731029     1145.296  0.097091897  0.098461895            3 
  984000     1.115151   -2.3655028    1150.4296  0.097427981  0.098443747            1 
  985000    1.0955707   -2.3980388    1147.8194   0.09710824   0.09842636            1 
  986000    1.0895477   -2.3704777     1151.219  0.097297079  0.098407329            2 
  987000    1.0977136   -2.3937045    1152.8505  0.097336243  0.098388724            1 
  988000      1.07442   -2.4051865    1149.2569  0.096934623  0.098369802            3 
  989000    1.0904453   -2.3909892    1150.9851  0.096982231   0.09835068            1 
  990000     1.113977   -2.3728003    1156.6323  0.097359617  0.098332602            2 
  991000    1.0761459   -2.3790794    1156.4252  0.097243962  0.098314497            2 
  992000    1.1001063   -2.3493243    1155.3334  0.097054216  0.098296934            1 
  993000    1.1311664   -2.3893747    1159.0248   0.09726626  0.098279012            1 
  994000    1.0881544   -2.4029775    1155.7051  0.096890101  0.098261245            1 
  995000    1.1231846   -2.4149591    1159.1305  0.097079606  0.098242361            2 
  996000    1.0554543     -2.35985    1162.7986  0.097289039  0.098224063            1 
  997000    1.1145763   -2.3657774     1159.844  0.096944503  0.098206346            2 
  998000    1.0961186   -2.3948313    1161.1808  0.096958988   0.09818727            1 
  999000    1.0748748    -2.392712    1166.5504  0.097309847  0.098169141            5 
 1000000    1.0794768   -2.4093551    1166.1827   0.09718189  0.098150929            2 
 1001000     1.089258   -2.3788862    1171.9263  0.097562959  0.098134003            1 
 1002000    1.1016389   -2.3818055    1168.2423  0.097159203  0.098116483            2 
 1003000    1.0900089   -2.3731767    1169.4679  0.097164169  0.098100104            5 
 1004000    1.1027068   -2.4006366     1168.037  0.096948626  0.098082809            3 
 1005000     1.101727    -2.380286    1170.1478  0.097027182   0.09806531            1 
 1006000    1.1021182   -2.3833977    1169.7916  0.096901223  0.098048711            1 
 1007000    1.0989717   -2.3722102    1175.4535  0.097273544  0.098031954            1 
 1008000    1.0735723   -2.4146108    1170.6183  0.096777307  0.098014629            3 
 1009000    1.0709105    -2.369466    1175.1328  0.097054241  0.097998487            1 
 1010000    1.0890899   -2.3865294    1174.0189  0.096866246  0.097982332            1 
 1011000    1.0966593   -2.3864391    1173.0444   0.09669011  0.097965368            3 
 1012000    1.0996188   -2.3835546    1176.4373  0.096873956  0.097948298            1 
 1013000    1.0892445   -2.3927387    1175.1749   0.09667447  0.097930779            3 
 1014000    1.1027536   -2.3950348    1178.9158  0.096886573  0.097913594            2 
 1015000    1.0761828   -2.3691212    1181.3786  0.096993316  0.097896667            3 
 1016000     1.091044   -2.4169503    1178.9227  0.096696412  0.097879561            1 
 1017000     1.107416   -2.4166132    1183.2409  0.096955174   0.09786172            3 
 1018000    1.0952944   -2.3877225    1182.2021  0.096774894  0.097843809            3 
 1019000    1.0923237    -2.398471     1179.661  0.096472113  0.097826106            2 
 1020000    1.0586086   -2.3878063    1185.3934  0.096845864  0.097808616            2 
 1021000    1.0832789   -2.3780353    1185.4382  0.096754665  0.097791381            2 
 1022000    1.0998793   -2.3863791    1188.4156  0.096902771  0.097774165            2 
 1023000    1.0894928   -2.3860543    1190.6179  0.096987446  0.097756845            2 
 1024000    1.0815318   -2.3931462    1190.5768  0.096889387  0.097739925            1 
 1025000    1.1000355   -2.3969698    1188.7399   0.09664552  0.097722705            1 
 1026000     1.099238    -2.401192    1193.7634  0.096959338  0.097706591            1 
 1027000    1.0896023   -2.3698187    1192.4372  0.096757315  0.097690511            1 
 1028000    1.0971961   -2.4088636    1189.6767  0.096439421   0.09767435            2 
 1029000    1.0687974    -2.390496    1202.7658  0.097405719  0.097658654            2 
 1030000     1.099463   -2.4141885    1198.4108    0.0969588  0.097642723            2 
 1031000    1.0738318   -2.3754162    1205.6237  0.097447759  0.097626503            2 
 1032000    1.1009904   -2.3991614    1201.1477  0.096991898   0.09761133            1 
 1033000    1.0841988   -2.3607473    1204.7648  0.097189801  0.097595275            2 
 1034000    1.1019134   -2.3999021    1197.3731  0.096500088  0.097579336            3 
 1035000    1.1035922   -2.3948596    1208.2298  0.097280985  0.097563969            2 
 1036000     1.092109   -2.3949238    1197.6246  0.096334026  0.097548526            2 
 1037000     1.074778    -2.406926    1205.1322  0.096844437  0.097533139            5 
 1038000    1.0948793    -2.399033    1212.0979  0.097310362  0.097517486            1 
 1039000    1.0967811   -2.4142004    1206.4807   0.09676618    0.0975023            1 
 1040000    1.0790813   -2.3991763     1209.278  0.096897275  0.097486571            3 
 1041000    1.0848381   -2.4061869    1216.4068  0.097374865  0.097471623            2 
 1042000     1.086659   -2.3862525    1214.2014  0.097105035  0.097457379            2 
 1043000    1.1087695   -2.3869762    1212.7492  0.096895908     0.097443            1 
 1044000    1.1066859   -2.3993822    1208.5116  0.096464845  0.097428354            1 
 1045000    1.0666387   -2.4161617    1215.5152  0.096931039  0.097414006            1 
 1046000    1.1026648   -2.3806573    1218.2402  0.097055462  0.097399816            2 
 1047000    1.0737102   -2.3669157    1218.9185  0.097016755  0.097385453            4 
 1048000    1.0781751   -2.3687173    1214.9376  0.096607631  0.097371288            2 
 1049000     1.075559   -2.3851713    1220.8463  0.096984932  0.097356937            2 
 1050000    1.0887605     -2.38337     1221.683  0.096958969  0.097342707            3 
 1051000    1.0616195   -2.3785476    1223.0088  0.096971835   0.09732901            3 
 1052000    1.0517187   -2.3857623     1227.941  0.097270354   0.09731497            2 
 1053000    1.0795325   -2.3675515    1221.3628   0.09665739  0.097301663            5 
 1054000    1.0625998   -2.3912292    1226.3144  0.096957179  0.097288026            1 
 1055000    1.0755947    -2.399238    1220.6977  0.096421616  0.097274162            3 
 1056000    1.1263453   -2.3851103    1225.2651  0.096690744  0.097259861            1 
 1057000    1.0966716   -2.3971419    1232.2418  0.097149307  0.097246514            1 
 1058000    1.0657039    -2.403067    1226.2927  0.096588905   0.09723316            2 
 1059000     1.087133   -2.3977312    1232.9718  0.097023273  0.097218574            1 
 1060000    1.0930046   -2.3689302    1231.6215  0.096825588  0.097204791            2 
 1061000    1.0861963   -2.3934556    1226.4521  0.096328311  0.097190437            3 
 1062000     1.099488   -2.3845845    1230.4233  0.096549225  0.097175595            2 
 1063000    1.0595479   -2.3587685    1237.1692  0.096987236  0.097162076            1 
 1064000    1.0727573   -2.4120053    1233.8664  0.096637409  0.097147909            1 
 1065000    1.0769701   -2.3842923    1235.6891  0.096689292  0.097133768            1 
 1066000    1.0836714    -2.388558    1240.9301  0.097008297  0.097119899            3 
 1067000    1.0672977   -2.3971851    1237.5488  0.096653293  0.097106223            1 
 1068000     1.076037   -2.4109772    1237.2146  0.096536719  0.097092538            2 
 1069000    1.0860186   -2.4027903     1238.152  0.096519487  0.097078533            4 
 1070000    1.0688038   -2.4170015    1237.1897  0.096354342  0.097064431            2 
 1071000    1.0641416   -2.3973077    1237.8995    0.0963196  0.097050192            1 
 1072000    1.0905541   -2.4128222    1240.9333  0.096465586  0.097036304            2 
 1073000     1.087526   -2.4075745    1246.1035  0.096777221  0.097022797            4 
 1074000    1.1002151    -2.373417    1246.6618  0.096730433  0.097009705            1 
 1075000    1.0965562   -2.4173919    1245.9352  0.096584124  0.096996769            2 
 1076000    1.0748703   -2.3873098    1248.9642  0.096728951  0.096984114            1 
 1077000    1.0915412   -2.3664077    1250.6963  0.096773158  0.096971581            2 
 1078000    1.0988809   -2.3875742    1251.7792  0.096767102  0.096958835            2 
 1079000    1.0937096   -2.3946037    1251.5787   0.09666193  0.096945731            3 
 1080000    1.0781738   -2.4096796     1254.719  0.096814737   0.09693289            2 
 1081000    1.0622291   -2.3860411    1253.7942  0.096653882  0.096920521            1 
 1082000    1.0854667   -2.4060204    1256.9732  0.096809398  0.096907645            1 
 1083000     1.101458   -2.3841601    1255.9948  0.096644725  0.096895039            1 
 1084000    1.0726249   -2.4001832    1263.8722   0.09716115  0.096883093            1 
 1085000    1.0680477   -2.3984562    1253.3646  0.096264564  0.096869737            2 
 1086000    1.0581428   -2.4107564    1258.7834  0.096591726   0.09685645            1 
 1087000    1.0869773   -2.3895593    1259.1083  0.096527776  0.096842748            2 
 1088000    1.0897635   -2.4292347     1252.752  0.095952204  0.096828542            1 
 1089000     1.084876   -2.3964626    1258.8182  0.096328295  0.096815236            1 
 1090000     1.091441   -2.4082456    1258.2432   0.09619596   0.09680124            2 
 1091000    1.0709211   -2.4247967    1258.1326  0.096099345  0.096787456            2 
 1092000    1.0697151   -2.4431601    1254.6562  0.095746051  0.096773472            2 
 1093000    1.0611275   -2.4014353    1266.3351  0.096548882  0.096760026            3 
 1094000    1.0915593   -2.3800918    1269.8502  0.096728384  0.096747114            1 
 1095000    1.0943206   -2.4050922    1270.3192  0.096675736  0.096735036            1 
 1096000    1.0474224   -2.4157563    1275.9966  0.097019209  0.096722454            1 
 1097000    1.0691705    -2.405792    1269.6854  0.096451334  0.096709867            2 
 1098000    1.0857097   -2.3985729    1268.6948  0.096288315  0.096697231            2 
 1099000    1.0597055   -2.4030773    1269.6258  0.096271292  0.096685503            2 
 1100000    1.0852212    -2.395787    1278.3606  0.096845499  0.096673177            1 
 1101000    1.1030128   -2.3855053    1277.4593  0.096689324  0.096661048            1 
 1102000    1.0846533   -2.3981738     1277.024  0.096568659   0.09664745            3 
 1103000     1.067194   -2.3967429     1283.448  0.096966456  0.096634009            2 
 1104000    1.0694509   -2.4220716    1277.9555  0.096464035  0.096620994            2 
 1105000     1.093845   -2.3761025      1277.36  0.096331826  0.096607399            7 
 1106000    1.0437324   -2.4288414    1281.5865  0.096563174  0.096594238            1 
 1107000    1.0935816   -2.3861899    1281.6874  0.096483543  0.096581749            1 
 1108000    1.0817735   -2.4013935    1280.7891  0.096328906  0.096568473            1 
 1109000    1.0836743   -2.3979131    1280.3388  0.096208202  0.096555607            3 
 1110000    1.0742533   -2.4294858    1283.0752  0.096326966  0.096542729            1 
 1111000    1.0706267   -2.3669843    1286.0165   0.09646088  0.096530032            3 
 1112000    1.0730216   -2.4171033    1286.8327  0.096435303  0.096517559            1 
 1113000    1.0576716   -2.4034265    1286.0785  0.096292188  0.096505144            2 
 1114000    1.0742506   -2.4072875    1285.4619  0.096159628  0.096493101            2 
 1115000    1.0805517   -2.3814945    1286.1183  0.096122442  0.096480043            2 
 1116000     1.074758   -2.3951169    1284.8604  0.095942383  0.096467224            2 
 1117000    1.0671548    -2.426761    1290.3715  0.096267642  0.096453676            2 
 1118000     1.089779   -2.3870446    1296.5997  0.096645774  0.096440779            2 
 1119000     1.068778   -2.4425879    1291.6475  0.096190606  0.096427496            4 
 1120000    1.0821863    -2.392643     1294.871  0.096344569  0.096413956            2 
 1121000    1.0624403   -2.4367597    1288.8028  0.095807519  0.096400213            2 
 1122000    1.0604679   -2.4190716    1294.9705  0.096180222  0.096386568            2 
 1123000     1.052812   -2.4102967    1294.6874  0.096073567  0.096373587            1 
 1124000    1.0820297   -2.3903327      1293.95  0.095933421  0.096360415            1 
 1125000    1.0711532   -2.4452124    1291.7044  0.095681804  0.096347077            1 
 1126000    1.0724184   -2.4322099    1303.0797  0.096438698  0.096333911            1 
 1127000     1.080132   -2.4005614    1298.3854   0.09600602  0.096321455            1 
 1128000    1.0773094   -2.4029213    1302.8637  0.096251753  0.096308588            1 
 1129000    1.0682953   -2.3998781     1306.435  0.096430102  0.096295839            3 
 1130000    1.0873084   -2.3876002    1305.1816  0.096252331  0.096283206            1 
 1131000    1.0805798   -2.4153319    1307.6902  0.096352065  0.096270561            1 
 1132000    1.0740939   -2.3936622    1306.6569  0.096190882  0.096257593            1 
 1133000    1.0730192   -2.4165531     1305.664  0.096032948  0.096245064            3 
 1134000    1.0664119   -2.4158586     1304.082   0.09583201   0.09623157            3 
 1135000    1.0877857   -2.3753518    1307.3927  0.095990651   0.09621839            1 
 1136000    1.0756018   -2.4063254      1305.35  0.095756308  0.096204405            2 
 1137000     1.097832   -2.3752478    1311.3501   0.09611185   0.09619074            1 
 1138000    1.0639549   -2.4024769    1301.3163  0.095292641  0.096177164            3 
 1139000    1.0396451   -2.3818026    1309.4901  0.095806999  0.096164013            2 
 1140000    1.0770694   -2.3944954    1314.8731  0.096116456  0.096150497            1 
 1141000    1.0871473   -2.4263203    1312.9611  0.095892574  0.096136868            3 
 1142000    1.0841687   -2.4569525    1312.7132  0.095790514  0.096123317            1 
 1143000    1.0526534    -2.409049     1313.947   0.09579666  0.096109452            2 
 1144000    1.0739685   -2.4084554    1316.6183  0.095907513  0.096096596            2 
 1145000     1.062067   -2.4195125    1308.3864  0.095224632  0.096082967            3 
 1146000    1.0776908   -2.4033269    1313.4126  0.095507028   0.09607014            1 
 1147000    1.0743475   -2.4083466      1321.22  0.095990989  0.096058118            3 
 1148000    1.0672161   -2.4168175    1326.1258  0.096263491  0.096045695            2 
 1149000    1.0742044   -2.3788055    1323.3175  0.095976033  0.096033131            3 
 1150000    1.0734342   -2.4227168    1319.9832  0.095650958  0.096020083            2 
 1151000     1.081485   -2.4027504    1321.2881  0.095662331  0.096007438            2 
 1152000     1.064648   -2.4320573    1326.4599  0.095953408  0.095994462            2 
 1153000    1.0614656   -2.4076257    1319.7145  0.095382662  0.095981928            1 
 1154000    1.0759086   -2.4051306    1328.3238   0.09592171  0.095969542            1 
 1155000    1.0781728   -2.4329766    1331.9774  0.096102267  0.095957435            1 
 1156000    1.0591767   -2.3967145    1334.3072  0.096187081  0.095944561            1 
 1157000    1.0733989   -2.4308225    1327.3798  0.095604998  0.095931794            3 
 1158000    1.0812747   -2.4080741    1330.4925  0.095746441  0.095919181            2 
 1159000    1.0606226   -2.4312938    1334.3547   0.09594152    0.0959065            2 
 1160000    1.0712267   -2.4234418     1335.831   0.09596487  0.095894136            1 
 1161000     1.059521   -2.3937193    1339.8104   0.09616784  0.095881971            1 
 1162000    1.0858384   -2.3987322    1330.2549  0.095399804  0.095869619            1 
 1163000    1.0677298   -2.4116226    1337.8743  0.095863733  0.095857618            2 
 1164000    1.0730721   -2.4020204    1336.0014  0.095647295  0.095844833            1 
 1165000    1.0714286   -2.4093376    1330.2893  0.095156606   0.09583183            2 
 1166000     1.086746   -2.4271966    1340.8831  0.095832124  0.095818744            1 
 1167000    1.0650198   -2.4016926    1337.7056   0.09552311   0.09580581            1 
 1168000    1.0686426   -2.4024293    1340.7083  0.095655561  0.095793272            6 
 1169000     1.088694   -2.4119392    1336.7227   0.09528961  0.095780094            3 
 1170000    1.0616815   -2.4108098    1341.8618    0.0955742  0.095766413            1 
 1171000    1.0349303   -2.4175102    1342.1857  0.095515637  0.095753929            2 
 1172000    1.0649031   -2.4142036    1346.4294  0.095735878  0.095741173            2 
 1173000    1.0197772    -2.396696    1345.6854  0.095601404  0.095728917            1 
 1174000    1.0570773   -2.4028511    1346.1915  0.095555899  0.095716565            1 
 1175000    1.0353716    -2.415318    1341.4712  0.095139801  0.095704596            2 
 1176000    1.0589644   -2.4348161    1355.6234  0.096061749  0.095692591            1 
 1177000    1.0776238   -2.4126843    1350.9745  0.095650985   0.09567987            1 
 1178000    1.0829369   -2.3990007     1350.918   0.09556579  0.095667481            2 
 1179000    1.0880487   -2.4068577    1350.0698   0.09542478  0.095655976            3 
 1180000    1.0675876   -2.4290234    1344.2479   0.09493276  0.095643496            1 
 1181000    1.0695955   -2.4255817    1357.4458  0.095783645  0.095630241            5 
 1182000    1.0620716   -2.4251677     1354.767  0.095513747  0.095618647            2 
 1183000     1.086623   -2.4139192    1357.3283  0.095613433  0.095606068            2 
 1184000    1.0669856   -2.4221591    1355.9268  0.095434035  0.095593704            2 
 1185000    1.0191008   -2.3990599    1359.7659  0.095623481  0.095581508            1 
 1186000    1.0572728   -2.4336891     1360.149   0.09556977  0.095569857            1 
 1187000    1.0588721    -2.438695    1357.5356  0.095305785  0.095557417            2 
 1188000    1.0433366   -2.3912678    1358.8662    0.0953189  0.095545318            3 
 1189000     1.050753   -2.4240171    1361.2697  0.095407187  0.095532907            3 
 1190000    1.0954605   -2.4252693     1363.571  0.095488167  0.095520283            2 
 1191000    1.0526781   -2.4308651    1361.6154   0.09527116  0.095508471            2 
 1192000    1.0606649   -2.3921317    1366.8558  0.095557595  0.095496972            3 
 1193000    1.0394042   -2.3996505    1370.2113  0.095711881  0.095485009            2 
 1194000    1.0416811   -2.4084498    1364.4298  0.095228212  0.095473092            2 
 1195000    1.0601879   -2.4313077    1366.2862  0.095277976  0.095461592            3 
 1196000    1.0583404    -2.421015    1362.1152  0.094907694  0.095449722            1 
 1197000    1.0444855   -2.4266842     1370.492  0.095411584  0.095437301            1 
 1198000    1.0491474   -2.3849981    1375.2602  0.095663617  0.095424954            2 
 1199000    1.0603077   -2.4174018    1368.2097  0.095093806  0.095412332            1 
 1200000    1.0622847   -2.4106671    1369.9857  0.095137893  0.095400012            1 
 1201000     1.052348   -2.4216381    1379.1652  0.095695615   0.09538823            1 
 1202000    1.0816631    -2.435536    1380.0459  0.095677059  0.095376614            2 
 1203000    1.0414637   -2.4129768    1375.9353  0.095312782   0.09536436            3 
 1204000    1.0715688   -2.4146356     1378.803    0.0954321  0.095352617            5 
 1205000    1.0403024    -2.426471    1377.2207  0.095243479  0.095340218            2 
 1206000    1.0598183   -2.4485684    1376.8029  0.095135632  0.095327703            3 
 1207000    1.0730536    -2.423722     1380.553   0.09531573   0.09531466            1 
 1208000    1.0371354   -2.4172201    1379.8796  0.095190372  0.095302201            1 
 1209000      1.03947    -2.454777    1377.0166  0.094914298  0.095289565            2 
 1210000    1.0433859   -2.4279378    1380.5517  0.095079318  0.095276825            1 
 1211000    1.0385359   -2.4254844    1381.4617  0.095063423  0.095263469            2 
 1212000     1.050056     -2.45724    1377.7678   0.09473101  0.095250218            3 
 1213000    1.0508772   -2.4218577    1388.4604  0.095387499  0.095237355            3 
 1214000    1.0462106   -2.4310239    1387.7438  0.095259737  0.095223836            2 
 1215000    1.0484985   -2.4298766    1382.4423  0.094817718  0.095211244            2 
 1216000    1.0556123   -2.3919695    1386.9514  0.095048754  0.095198083            2 
 1217000    1.0376322    -2.431916     1386.772  0.094958369  0.095184952            1 
 1218000    1.0647792    -2.422698    1389.6473  0.095077126  0.095171897            1 
 1219000     1.052364   -2.4332152    1387.9123  0.094880525  0.095158232            2 
 1220000    1.0475771   -2.4399965    1389.9149  0.094939541  0.095145331            1 
 1221000    1.0746644   -2.4168574    1390.7567  0.094919238  0.095131748            2 
 1222000    1.0642846   -2.3899448     1395.863  0.095189782  0.095118455            3 
 1223000    1.0792898   -2.4072871    1384.5995  0.094344471  0.095105955            3 
 1224000    1.0622049   -2.4117513    1392.9765  0.094837728  0.095092879            2 
 1225000    1.0718404   -2.4531578    1388.3942  0.094448585  0.095079828            4 
 1226000     1.062517   -2.4116911    1391.7212  0.094597686  0.095066579            2 
 1227000    1.0714405   -2.4208111    1394.2091  0.094689559  0.095053706            2 
 1228000    1.0684646   -2.4153329    1392.9353  0.094526014  0.095040602            4 
 1229000    1.0441074   -2.4225929    1400.8127  0.094983229  0.095027256            3 
 1230000    1.0841385    -2.418188    1400.1912  0.094863905  0.095013852            3 
 1231000    1.0844724   -2.3938302    1401.9543  0.094906196  0.095000677            2 
 1232000    1.0519204   -2.4335628    1398.2765  0.094580391  0.094987579            2 
 1233000    1.0413478   -2.4350817    1400.2638  0.094637997   0.09497421            5 
 1234000    1.0647789   -2.3949356    1401.8296  0.094667045  0.094961494            1 
 1235000    1.0466702   -2.4256448    1396.1951  0.094210197  0.094948492            3 
 1236000    1.0444361   -2.4064433    1404.0883  0.094666151   0.09493572            1 
 1237000    1.0328616   -2.4468436     1400.011  0.094314941  0.094922628            4 
 1238000    1.0720927   -2.4409372    1400.7035  0.094285372  0.094909446            2 
 1239000    1.0563445   -2.4318356    1407.6106  0.094673836  0.094895665            1 
 1240000    1.0584799   -2.4080828    1410.3544  0.094781878  0.094882493            2 
 1241000    1.0608923   -2.4255697    1406.5241  0.094448301  0.094869032            1 
 1242000    1.0413946   -2.4211484    1405.2908  0.094289508  0.094855752            3 
 1243000    1.0311646   -2.4256698    1409.4723  0.094493983  0.094842415            1 
 1244000    1.0503447   -2.3993722     1410.266  0.094471197  0.094828056            1 
 1245000     1.033584   -2.4510288    1405.0616  0.094046962  0.094813795            2 
 1246000    1.0539693   -2.4400008    1408.6398  0.094210793  0.094799692            2 
 1247000    1.0574118   -2.4441196    1416.3765  0.094652267   0.09478548            3 
 1248000    1.0675621   -2.4144535    1414.9549    0.0944815  0.094771112            3 
 1249000    1.0690941   -2.4502299    1421.4987  0.094842453  0.094757498            2 
 1250000    1.0645999   -2.4084806    1420.6198  0.094707986  0.094744422            2 
 1251000    1.0708599   -2.4336799    1421.0553  0.094661289  0.094731522            1 
 1252000    1.0491487   -2.4590654    1421.3798  0.094607282  0.094718103            4 
 1253000    1.0245415   -2.4390125    1425.0177  0.094773721  0.094704834            4 
 1254000    1.0573717   -2.4300948     1420.616  0.094405638  0.094691639            2 
 1255000    1.0280067   -2.3972148    1427.5782  0.094792706   0.09467835            1 
 1256000    1.0572597   -2.4216434    1427.4503  0.094708753  0.094665058            2 
 1257000    1.0585287   -2.4142109    1429.0762  0.094741194  0.094652257            3 
 1258000     1.045879   -2.4337916    1429.7233   0.09470875  0.094638883            1 
 1259000    1.0608756   -2.4177969    1426.2834  0.094405835  0.094625561            2 
 1260000    1.0425801   -2.4445187    1432.0646  0.094713265  0.094612428            2 
 1261000    1.0678994   -2.4011268    1424.4036  0.094131878  0.094598642            1 
 1262000    1.0367581   -2.4324621    1435.6175  0.094797774  0.094585361            3 
 1263000    1.0612277   -2.4224842    1433.1427  0.094559426  0.094572411            3 
 1264000    1.0508538   -2.4382293    1429.5821  0.094249878  0.094558617            1 
 1265000    1.0444285   -2.4205913    1437.1251  0.094672274  0.094546064            2 
 1266000    1.0300704   -2.4119211    1431.4522  0.094224079    0.0945339            2 
 1267000     1.035219   -2.4413576    1429.6729  0.094032679  0.094520903            3 
 1268000    1.0434005   -2.4067719    1435.4028  0.094335095  0.094507745            2 
 1269000    1.0423193   -2.4443071    1429.9785  0.093904551  0.094494283            2 
 1270000    1.0681082    -2.430542    1437.5109  0.094324859  0.094480763            2 
 1271000    1.0422298   -2.4146869    1438.3503  0.094305685  0.094467652            2 
 1272000    1.0438556   -2.4182745    1442.2725  0.094488503  0.094454312            2 
 1273000    1.0429638   -2.4391445    1436.3816  0.094028648  0.094440867            2 
 1274000    1.0321023   -2.4162991     1439.195  0.094138868  0.094427314            2 
 1275000    1.0426918    -2.447797    1445.6338  0.094485871  0.094414473            3 
 1276000    1.0510117   -2.4433067    1438.9551  0.093975646  0.094401362            2 
 1277000      1.04804   -2.4257193    1444.8206  0.094284818  0.094388396            2 
 1278000    1.0308234   -2.4245661    1440.6464  0.093938863   0.09437586            1 
 1279000    1.0654144   -2.4376369    1446.2526  0.094230689  0.094362822            2 
 1280000    1.0575138   -2.4377878    1445.2994  0.094095012   0.09435004            3 
 1281000     1.032408   -2.4309974    1453.5029  0.094555223  0.094338256            4 
 1282000    1.0343607   -2.4646095    1449.7271  0.094236031  0.094325545            1 
 1283000    1.0361541   -2.4148575    1450.0656  0.094184568   0.09431305            2 
 1284000    1.0408566   -2.4207048    1450.5521   0.09414279  0.094300238            3 
 1285000    1.0394886   -2.4573291    1446.1062  0.093781208  0.094288177            2 
 1286000    1.0596144   -2.4256638    1452.5005  0.094122638  0.094275392            1 
 1287000    1.0253556   -2.4427307    1456.3949  0.094301667  0.094262903            2 
 1288000    1.0456645    -2.467195    1451.3786  0.093903896  0.094250639            1 
 1289000    1.0301487   -2.4107644    1453.1699   0.09394685  0.094238218            1 
 1290000     1.047343    -2.424469    1463.0395  0.094511596   0.09422563            2 
 1291000    1.0469212   -2.4164579    1466.3273  0.094650613  0.094213262            1 
 1292000    1.0448021   -2.4426514    1459.3598  0.094127953  0.094201138            2 
 1293000    1.0491173   -2.4166063     1460.015  0.094097383  0.094189321            2 
 1294000    1.0271451   -2.4538127    1463.9482  0.094277961  0.094177284            2 
 1295000    1.0383403    -2.419234    1459.9279  0.093946453  0.094165009            2 
 1296000    1.0539218   -2.4465234    1468.4667   0.09442301   0.09415333            2 
 1297000    1.0469063   -2.4398107     1467.255  0.094272357  0.094142041            2 
 1298000    1.0368858    -2.472147    1465.9238  0.094114263  0.094130575            2 
 1299000    1.0426931    -2.455888    1466.8725  0.094102676  0.094118776            1 
 1300000    1.0414834   -2.4444912    1476.7501  0.094663466  0.094107913            2 
 1301000    1.0468522   -2.4452455    1470.1008  0.094164799  0.094096185            2 
 1302000    1.0502626   -2.4285408    1465.9249  0.093825197  0.094085493            2 
 1303000     1.054411   -2.4522227    1477.7788  0.094511309  0.094074535            2 
 1304000    1.0695744    -2.435927    1470.0863  0.093947236  0.094063332            2 
 1305000    1.0498175   -2.4366244    1478.4765  0.094411018  0.094051932            4 
 1306000     1.039223   -2.4263727    1476.5332   0.09421473  0.094040792            2 
 1307000    1.0428597   -2.4251341    1484.9481   0.09467917  0.094029454            1 
 1308000    1.0406169    -2.411423    1475.4446   0.09400131  0.094017829            3 
 1309000    1.0282937    -2.407816    1479.0022  0.094155985  0.094006443            1 
 1310000    1.0294692   -2.4173811     1480.165  0.094158079  0.093994693            2 
 1311000    1.0629178   -2.4461861    1486.0025  0.094457315  0.093983328            2 
 1312000    1.0547456    -2.452837    1485.5332   0.09435551  0.093971935            2 
 1313000    1.0450969   -2.4659811    1477.4846   0.09377282  0.093960535            5 
 1314000    1.0402224   -2.4350944    1488.3475  0.094390377  0.093949106            1 
 1315000    1.0469364   -2.4232177    1481.5248  0.093886235  0.093938112            5 
 1316000    1.0456687   -2.4606125    1489.6494  0.094329371  0.093926794            3 
 1317000    1.0486011   -2.4498506    1484.3216   0.09392063  0.093915093            5 
 1318000    1.0427833    -2.432406    1486.3711  0.093978952  0.093903628            3 
 1319000    1.0395827   -2.4498124    1484.7582  0.093805801   0.09389208            2 
 1320000    1.0324083   -2.4229853    1494.5722  0.094354309  0.093880562            2 
 1321000    1.0333842   -2.4368504    1492.0784  0.094125562  0.093868728            2 
 1322000    1.0417055   -2.4231162    1492.9746  0.094110856   0.09385718            1 
 1323000    1.0404342   -2.4795005     1483.749  0.093458617  0.093844878            3 
 1324000    1.0170153   -2.4171128    1494.4119  0.094059159  0.093833276            2 
 1325000    1.0164698   -2.4311013    1489.1324  0.093656126  0.093821402            4 
 1326000     1.038831   -2.4540016    1491.9744  0.093764102  0.093809327            2 
 1327000    1.0375167   -2.3969925    1501.5915  0.094297383  0.093797611            1 
 1328000    1.0390436    -2.432574    1493.3588  0.093709766  0.093785148            3 
 1329000    1.0354067   -2.4516091    1490.0907  0.093434331  0.093772904            1 
 1330000    1.0450961   -2.4348116    1495.9116    0.0937288  0.093760944            2 
 1331000    1.0559026   -2.4169738    1496.8833  0.093719216  0.093748905            2 
 1332000     1.045069   -2.4237639    1501.8781  0.093961341  0.093736697            2 
 1333000    1.0466217   -2.4327696    1502.8554  0.093951948  0.093724493            2 
 1334000    1.0257127   -2.4396483    1504.8542  0.094006385  0.093712616            4 
 1335000    1.0452253   -2.4615996    1497.6708  0.093487563   0.09370083            2 
 1336000    1.0525275   -2.4244963    1505.1949   0.09388691  0.093689299            1 
 1337000    1.0549679   -2.4205799    1501.9985  0.093617461  0.093677816            2 
 1338000    1.0493002   -2.4659321    1502.2139  0.093560904  0.093665821            1 
 1339000    1.0303644   -2.4325235    1509.6651  0.093954761  0.093653915            2 
 1340000    1.0442652   -2.4452042    1496.6716   0.09307659  0.093641459            1 
 1341000    1.0631071   -2.4385854    1505.8135  0.093575287   0.09362878            1 
 1342000    1.0221901   -2.4331706    1509.0814  0.093708481  0.093616375            1 
 1343000    1.0504539   -2.4117429    1511.2598  0.093773875  0.093604329            1 
 1344000    1.0297068   -2.4761577    1504.0745  0.093258587  0.093591686            3 
 1345000    1.0379199   -2.4766029    1502.8912  0.093115933  0.093579245            1 
 1346000    1.0684893   -2.4314241    1510.1256  0.093494651    0.0935667            2 
 1347000    1.0561297   -2.4321567    1513.3144  0.093622521  0.093554683            2 
 1348000    1.0483344   -2.4516624    1512.8869  0.093526638  0.093542333            2 
 1349000    1.0128992   -2.4374393    1515.6578  0.093628475  0.093530186            1 
 1350000    1.0429067   -2.4469896     1518.791  0.093752533  0.093518093            4 
 1351000    1.0534918   -2.4447395    1516.6879  0.093553412  0.093506125            2 
 1352000   0.99415666   -2.4262783    1516.8174  0.093492197  0.093493685            1 
 1353000    1.0544305   -2.4568101     1519.786   0.09360594   0.09348155            1 
 1354000    1.0533235   -2.4617823    1516.5342  0.093336667  0.093469682            3 
 1355000    1.0404322    -2.452401    1524.5741  0.093762246  0.093457857            2 
 1356000    1.0323406   -2.4590542    1518.2376  0.093303689   0.09344566            3 
 1357000    1.0277488   -2.4473154    1524.1095  0.093595524  0.093433875            3 
 1358000    1.0266658   -2.4521277    1524.6108  0.093557366  0.093421539            2 
 1359000     1.021944   -2.4649912    1522.6956  0.093371084  0.093409364            3 
 1360000    1.0443808   -2.4713673    1520.2982  0.093155529  0.093397013            3 
 1361000    1.0369347   -2.4268791    1526.5428  0.093469436  0.093384834            1 
 1362000    1.0062368   -2.4533502     1518.888  0.092932449  0.093372754            3 
 1363000    1.0554799   -2.4308167    1526.7351  0.093344038  0.093360573            2 
 1364000    1.0388636   -2.4528937    1526.8433  0.093282217  0.093348406            1 
 1365000    1.0235169   -2.4420099    1523.5491  0.093012767  0.093336531            3 
 1366000    1.0141953   -2.4681731    1534.5267  0.093614366  0.093324235           13 
 1367000    1.0220363   -2.4266495    1530.5523  0.093303602  0.093311638            2 
 1368000    1.0476559    -2.427603    1528.1239  0.093087472   0.09329886            3 
 1369000    1.0285912   -2.4353321    1530.8428  0.093184977  0.093285893            5 
 1370000    1.0637051    -2.462859    1531.8525  0.093178379   0.09327332            1 
 1371000    1.0310491   -2.4301361    1534.1775  0.093251735  0.093260899            3 
 1372000    1.0266176   -2.4587476    1532.6433   0.09309058  0.093248278            2 
 1373000    1.0635405   -2.4332571    1535.1642  0.093175783   0.09323598            2 
 1374000    1.0496208   -2.4329002    1543.8259    0.0936333  0.093223465            3 
 1375000    1.0173328   -2.4778974    1528.5774  0.092641057  0.093210821            5 
 1376000    1.0272788   -2.4516101    1535.9944  0.093022916  0.093198061            3 
 1377000    1.0289359   -2.4302125    1541.8383  0.093309022   0.09318572            3 
 1378000    1.0394528   -2.4627972    1538.8799  0.093062404  0.093173398            5 
 1379000    1.0507471   -2.4422061    1538.9166  0.092997136  0.093160821            1 
 1380000    1.0223914   -2.4655397    1546.6486  0.093396657  0.093148262            2 
 1381000    1.0270737   -2.4721064    1540.6715  0.092968351  0.093135553            3 
 1382000    1.0434317   -2.4417738    1549.3546  0.093424663  0.093123221            3 
 1383000    1.0361108   -2.4660611    1545.4189  0.093119963  0.093111054            3 
 1384000    1.0068925   -2.4601724    1544.7912  0.093014884  0.093099082            3 
 1385000    1.0486678   -2.4519625    1544.8794   0.09295303  0.093087389            2 
 1386000    1.0443309   -2.4366426    1551.3312  0.093273883  0.093075553            3 
 1387000    1.0242166   -2.4607243    1549.6132  0.093103414  0.093063376            2 
 1388000    1.0368989   -2.4467328     1546.716  0.092862391  0.093050916            4 
 1389000    1.0260445   -2.4595808    1542.3951  0.092536302  0.093038279            1 
 1390000    1.0227371   -2.4420305    1551.1781  0.092996286  0.093025544            2 
 1391000    1.0214067   -2.4423903    1548.1764  0.092749604  0.093012811            3 
 1392000    1.0371229   -2.4356964    1553.0286  0.092973457  0.093000611            2 
 1393000    1.0405616    -2.435997    1553.4098  0.092929516  0.092988019            3 
 1394000    1.0306458   -2.4325777    1548.7701  0.092585492  0.092975527            1 
 1395000    1.0267297    -2.429119    1555.8871  0.092944272   0.09296293            2 
 1396000    1.0221683   -2.4285547    1558.0424  0.093006352  0.092950277            1 
 1397000    1.0154924   -2.4694635    1559.6257  0.093034221  0.092937825            2 
 1398000    1.0381225   -2.4730517    1554.6597  0.092671655  0.092924761            2 
 1399000    1.0481008   -2.4612809    1557.4271   0.09277026  0.092912385            1 
 1400000    1.0366951   -2.4493956    1554.8408  0.092550051  0.092899469            3 
 1401000    1.0203283   -2.4538182    1555.7312  0.092536948  0.092886579            2 
 1402000    1.0108084   -2.4892421    1560.5913  0.092759825   0.09287346            1 
 1403000    1.0127963   -2.4580391    1566.3624  0.093036495  0.092860697            2 
 1404000   0.99069528   -2.4564268    1562.5462  0.092743721  0.092847693            2 
 1405000    1.0131385   -2.4640339    1565.5405  0.092855307  0.092835309            3 
 1406000    1.0156898   -2.4860251    1568.6722  0.092974882  0.092822521            3 
 1407000    1.0255067   -2.4243111    1571.4876   0.09307555   0.09280992            2 
 1408000    1.0340549   -2.4414086     1560.424  0.092354641  0.092797261            2 
 1409000     1.031473    -2.453728     1567.635  0.092715577  0.092784276            5 
 1410000     1.041782   -2.4513132    1562.8033   0.09236426  0.092771399            2 
 1411000    1.0284649   -2.4558125    1569.3737  0.092686848  0.092758308            2 
 1412000    1.0405175   -2.4140481    1570.9375    0.0927135  0.092745555            1 
 1413000    1.0359506   -2.4542228    1574.9642  0.092885362  0.092732544            3 
 1414000    1.0310957    -2.450606    1569.4722  0.092496006  0.092720137            2 
 1415000    1.0460199    -2.463303    1572.8992  0.092632464  0.092706985            3 
 1416000     1.027297   -2.4802949    1566.9132  0.092214758  0.092694208            2 
 1417000    1.0273256   -2.4627784    1566.4078  0.092119958  0.092681104            2 
 1418000    1.0193214   -2.4475721    1575.1082  0.092566305  0.092668487            2 
 1419000    1.0578031   -2.4567638     1573.614  0.092413319  0.092655598            2 
 1420000    1.0143855    -2.482153    1580.4684  0.092750492  0.092642563            3 
 1421000   0.99474597   -2.4463166    1577.1058  0.092488027  0.092630029            2 
 1422000    1.0245196   -2.4462789    1579.8585  0.092584298  0.092617299            2 
 1423000    1.0127159   -2.4470473    1578.7333  0.092453344   0.09260451            2 
 1424000    1.0408264   -2.4588338    1578.0051  0.092345806  0.092591924            1 
 1425000    1.0264232   -2.4649659    1583.2046  0.092585065  0.092579402            2 
 1426000    1.0434193   -2.4623319    1579.6541   0.09231265  0.092566077            2 
 1427000    1.0492452   -2.4592582    1584.6458  0.092539467  0.092554069            4 
 1428000    1.0049751    -2.452352     1580.547  0.092235467  0.092541981            3 
 1429000    1.0208796   -2.5012243    1584.3178  0.092390823  0.092529418            2 
 1430000    1.0259458    -2.475599    1581.2293   0.09214623  0.092517016            1 
 1431000    1.0029358   -2.4585879     1587.836  0.092466575  0.092504521            2 
 1432000    1.0067148   -2.4453285    1587.0288  0.092355026  0.092491925            2 
 1433000    1.0176959   -2.4363792     1589.486  0.092433474  0.092479525            1 
 1434000    1.0330348   -2.4607966    1590.6885  0.092438893  0.092467142            5 
 1435000    1.0434454   -2.4562286    1586.8791  0.092153258  0.092454825            3 
 1436000    1.0193949    -2.461043    1591.2512  0.092342805  0.092441724            1 
 1437000    1.0389048   -2.4688834    1595.4204  0.092520323  0.092428385            3 
 1438000    1.0258644   -2.4902647    1587.6235  0.092004142  0.092415329            6 
 1439000    1.0117313   -2.4520188    1591.1257  0.092143019  0.092402204            2 
 1440000     1.005917   -2.4966455    1585.9251  0.091778075  0.092388902            1 
 1441000    1.0145471   -2.4231191    1588.8699  0.091884681  0.092375944            2 
 1442000    1.0106586    -2.449242    1595.1849  0.092185902  0.092363284            2 
 1443000    1.0348739   -2.4657239    1595.5889   0.09214535  0.092350672            2 
 1444000    1.0221597   -2.4374764    1599.2233  0.092291278  0.092337693            1 
 1445000   0.98746132   -2.4456469     1596.629  0.092077799  0.092325255            1 
 1446000    1.0260117   -2.4532859    1602.6316  0.092360053  0.092312462            1 
 1447000    1.0199088   -2.4495485    1598.2063  0.092041369  0.092300047            2 
 1448000    1.0541783   -2.4505075     1601.415  0.092162463  0.092287572            2 
 1449000    1.0129377   -2.4562864    1602.3759  0.092154122  0.092274876            1 
 1450000    1.0389909   -2.4749239    1602.8424  0.092117382  0.092261834            2 
 1451000   0.99590509    -2.478058    1596.3507  0.091681065   0.09224869            2 
 1452000    1.0369237   -2.4541238    1602.0471  0.091944851  0.092235769            2 
 1453000     1.014751   -2.4602938    1605.5728  0.092083782  0.092222754            1 
 1454000    1.0240906   -2.4785973    1607.6068  0.092137023  0.092209836            2 
 1455000    1.0195159   -2.4642833    1606.4405  0.092006904   0.09219684            3 
 1456000   0.99410123   -2.4395612    1612.2223  0.092274628  0.092183765            1 
 1457000    1.0335331   -2.4769297    1604.6256  0.091776802  0.092170758            1 
 1458000    1.0303556   -2.4512872    1610.1354  0.092028771   0.09215782            3 
 1459000    1.0289185   -2.4583244    1606.7462  0.091772116  0.092144074            2 
 1460000    1.0083943   -2.4480059     1610.156  0.091903882   0.09213176            1 
 1461000    1.0163468   -2.4305533    1613.3616  0.092023818  0.092119505            1 
 1462000     1.014916   -2.4472715    1613.7673  0.091983997  0.092106537            2 
 1463000    1.0280482   -2.4729286    1612.2119  0.091832528  0.092093173            3 
 1464000    1.0065911   -2.4482303    1621.3993  0.092292762  0.092080486            1 
 1465000   0.99552092   -2.4469097    1615.4054  0.091888814   0.09206723            3 
 1466000    1.0093222   -2.4840416    1614.6265  0.091781862    0.0920543            2 
 1467000    1.0248784   -2.4779443    1615.0819  0.091745164  0.092041541            4 
 1468000    1.0283358   -2.4823413    1612.4794  0.091534934  0.092028606            4 
 1469000    1.0351196   -2.4657652    1620.9471  0.091952979   0.09201552            2 
 1470000    1.0144284   -2.4479677    1618.3305   0.09174209   0.09200261            3 
 1471000    1.0040932   -2.4601302     1620.817  0.091820586  0.091989936            1 
 1472000    1.0329325   -2.4647813    1618.4279  0.091622956  0.091976811            2 
 1473000    1.0157787   -2.4725601    1618.4584  0.091562483  0.091964391            3 
 1474000    1.0129665   -2.4529054     1622.704  0.091740388  0.091951739            3 
 1475000    1.0217088   -2.4888644    1624.4919  0.091779205  0.091938777            1 
 1476000    1.0437058   -2.4777228    1622.0872  0.091581257  0.091925965            3 
 1477000     1.008528   -2.4592836     1624.331  0.091645845  0.091913272            2 
 1478000    1.0304877   -2.4695164    1625.2327  0.091634679   0.09190037            2 
 1479000    1.0060309   -2.4601984     1626.636  0.091651792  0.091887397            1 
 1480000    1.0086014   -2.4813413     1620.721  0.091256811  0.091874676            1 
 1481000    1.0349425    -2.468642    1631.5682  0.091805546  0.091861867            3 
 1482000    1.0363996   -2.4693257    1628.6754  0.091580939  0.091849008            2 
 1483000    1.0217661   -2.4482436    1632.3354  0.091724847  0.091836093            1 
 1484000    1.0309417   -2.4831108    1633.0835  0.091705046  0.091823447            2 
 1485000    1.0275349   -2.4629811    1635.3347  0.091769626  0.091810822            2 
 1486000    1.0199003   -2.4797797    1634.4191  0.091656523   0.09179867            2 
 1487000    1.0289903   -2.4697129    1635.6522  0.091663986  0.091786002            2 
 1488000   0.99431771   -2.4845846    1635.8943  0.091615943  0.091772966            4 
 1489000    1.0043719   -2.4870764    1638.3648  0.091692677  0.091760592            3 
 1490000    1.0113281   -2.4505968    1636.4124  0.091521949  0.091748122            1 
 1491000    1.0136015   -2.4698733    1640.7037  0.091700408  0.091735736            3 
 1492000     1.040018   -2.4695674    1638.1672  0.091497274  0.091723096            3 
 1493000    1.0054554   -2.4484175    1643.6148  0.091740051  0.091710442            2 
 1494000     1.027157   -2.4705908    1647.6576  0.091904147  0.091698147            2 
 1495000    1.0357729   -2.4651275    1640.4877  0.091443016  0.091686074            2 
 1496000    1.0561141   -2.4565254    1650.2188   0.09192395  0.091673794            2 
 1497000    1.0441993   -2.4443547    1643.4433  0.091485376  0.091661287            2 
 1498000    1.0228498   -2.4989631    1641.3252  0.091306475  0.091648304            3 
 1499000    1.0221174   -2.4943976    1647.8389  0.091607678  0.091635257            1 
 1500000   0.99438008   -2.4909699    1642.0446  0.091224701   0.09162223            2 
 1501000   0.99929692   -2.4531563    1644.9618  0.091325881  0.091609497            1 
 1502000    1.0298694   -2.4807881    1640.6519  0.091025959  0.091596133            4 
 1503000    1.0090399   -2.4527928    1648.3337  0.091391312  0.091582721            1 
 1504000   0.99762102   -2.4615537    1650.2158  0.091434827  0.091569354            3 
 1505000    1.0205667   -2.4527703    1644.4819  0.091056584  0.091556225            2 
 1506000    1.0121742   -2.4699662    1647.8498  0.091182481  0.091542573            3 
 1507000    1.0215397   -2.4503562    1650.9258  0.091292072  0.091529652            2 
 1508000    1.0145928   -2.4458608    1653.2935  0.091362373  0.091517136            6 
 1509000   0.99638627   -2.4889493    1649.2775  0.091080045  0.091504197            1 
 1510000    1.0322039   -2.4750725    1655.7644  0.091377725  0.091491092            2 
 1511000    1.0179539   -2.5059334    1656.9203  0.091381002  0.091477629            3 
 1512000    1.0109599   -2.4954529    1651.1446  0.091002238  0.091464448            1 
 1513000   0.98778408   -2.4713113    1648.3791  0.090789772  0.091451017            2 
 1514000    1.0248889   -2.4666893    1652.9096  0.090979171  0.091437246            2 
 1515000    1.0094598   -2.4625903    1659.3738  0.091274687  0.091424143            1 
 1516000    1.0060821    -2.469779    1657.9433  0.091135844  0.091410498            1 
 1517000    1.0001303   -2.4921287    1655.3845  0.090935204  0.091397149            1 
 1518000     1.010887   -2.4489924      1659.73  0.091113858  0.091384102            3 
 1519000    1.0020032   -2.4555971    1659.3469  0.091032855  0.091371531            2 
 1520000    1.0114315   -2.4759437    1665.4041  0.091305048  0.091358432            2 
 1521000    1.0032451   -2.4657009    1662.2324  0.091071249  0.091345766            3 
 1522000    1.0079973   -2.4647272    1666.4277  0.091241112  0.091332507            2 
 1523000   0.99679316   -2.4719985    1671.1734  0.091440871  0.091319439            2 
 1524000    1.0039581   -2.4554475     1669.217  0.091273897  0.091306345            3 
 1525000    1.0084375   -2.4911549    1668.0059  0.091147865  0.091293186            2 
 1526000    1.0123295   -2.4554756    1668.2919  0.091103752  0.091280504            5 
 1527000   0.98624286   -2.4804985    1668.4924   0.09105503  0.091267688            5 
 1528000    1.0114834   -2.4554594    1671.3397  0.091150727  0.091254923            2 
 1529000    1.0018199   -2.4935681    1663.6044  0.090669523   0.09124201            2 
 1530000    1.0110037   -2.4745728    1669.9788  0.090957451  0.091228673            2 
 1531000   0.99934029   -2.4610884    1678.2276   0.09134703  0.091215925            4 
 1532000    0.9971527   -2.4735656    1677.1594  0.091229297   0.09120306            3 
 1533000     1.034063   -2.5083377    1675.4597  0.091077394  0.091190397            2 
 1534000    1.0278132   -2.4712063    1673.0177  0.090885359  0.091177333            3 
 1535000    1.0343676   -2.4785184    1677.1827  0.091052261  0.091164688            5 
 1536000     1.015965   -2.4766707    1679.5596   0.09112194  0.091151806            6 
 1537000    1.0051642   -2.5134751    1675.2968  0.090831531  0.091139012            5 
 1538000    1.0085589   -2.4981596    1675.6398  0.090791059  0.091126255            3 
 1539000   0.98422068   -2.5096144     1681.795  0.091065354  0.091113688            1 
 1540000    1.0265378    -2.502837    1669.5841  0.090345458  0.091100806            2 
 1541000    1.0097086   -2.4776998    1683.1638  0.091021186  0.091087523            1 
 1542000    1.0011784   -2.4776736    1676.7769  0.090616997  0.091074346            2 
 1543000    1.0057454   -2.5006538    1676.4964   0.09054312  0.091061215            2 
 1544000    1.0080194   -2.4743748     1680.931  0.090723823  0.091048051            3 
 1545000    1.0189253   -2.4730098    1682.7066  0.090760872  0.091034856            1 
 1546000    1.0016225    -2.500886    1676.2846  0.090356002  0.091021576            3 
 1547000   0.99044636   -2.4617899    1687.6096   0.09090765  0.091008449            2 
 1548000   0.98662608   -2.4578062    1686.2601  0.090776277  0.090994721            4 
 1549000    1.0048397   -2.4566265    1685.8269  0.090694368  0.090981279            2 
 1550000   0.97399836   -2.4742355      1683.32  0.090501074  0.090968132            3 
 1551000    1.0074681   -2.4890814    1687.7779  0.090682241  0.090954967            5 
 1552000     1.002282   -2.4803261    1680.7542  0.090246682  0.090941246            2 
 1553000    1.0014721     -2.48502     1688.433  0.090600612  0.090927383            4 
 1554000    1.0081051   -2.4823413    1693.1835  0.090797059  0.090914075            3 
 1555000    1.0328065   -2.4622595    1689.9325  0.090564445  0.090901003            5 
 1556000   0.99212683   -2.5096112    1689.6638  0.090491851  0.090887614            2 
 1557000   0.99920409   -2.5043321    1689.6697  0.090434045  0.090873883            3 
 1558000   0.99541121   -2.4673785    1695.2362  0.090673737  0.090860551            3 
 1559000   0.99661813   -2.4973072    1687.7337  0.090214543  0.090847281            2 
 1560000    1.0038376   -2.4502677    1692.6595  0.090419846  0.090833991            1 
 1561000    1.0015956   -2.4754405    1693.3539   0.09039899  0.090820544            3 
 1562000    1.0205695   -2.4906068    1692.0027   0.09026903  0.090807029            1 
 1563000    1.0036246   -2.4864945    1697.7264  0.090516443  0.090793476            2 
 1564000    1.0063666   -2.5082189      1697.23  0.090432119  0.090779961            5 
 1565000    1.0104108   -2.4918515    1688.5867  0.089914094  0.090766217            1 
 1566000   0.99300746   -2.4961284     1697.118  0.090310667  0.090752382            4 
 1567000   0.99497371    -2.489136    1698.7762  0.090341212  0.090738952            7 
 1568000   0.99663408   -2.4902731    1701.8258  0.090445674  0.090724696            1 
 1569000   0.98217158   -2.5276665    1695.6967  0.090062499  0.090710234            2 
 1570000    0.9834155   -2.4745333    1702.1388   0.09034707  0.090696068            1 
 1571000   0.98194984   -2.4963911    1699.9953  0.090175861  0.090682019            2 
 1572000     1.001839   -2.4612345    1699.7722   0.09010667  0.090667627            2 
 1573000   0.99623275   -2.4703875    1702.0785  0.090171567  0.090653375            2 
 1574000   0.98922909   -2.4822036    1696.7647  0.089832945  0.090638993            5 
 1575000    0.9849654   -2.5005126    1706.0683  0.090268166  0.090624487            1 
 1576000   0.99805978   -2.5066312    1700.8366  0.089934256  0.090609858            2 
 1577000    1.0141294   -2.4906109    1701.9886    0.0899381  0.090595087            3 
 1578000    1.0114589   -2.4745198    1707.6012  0.090177506  0.090581011            3 
 1579000   0.97373275   -2.5021253    1705.1186  0.089989373  0.090566538            5 
 1580000    0.9939318   -2.4900082    1707.9088  0.090079581  0.090552511            2 
 1581000   0.99699942   -2.4813927    1706.6988  0.089958826  0.090538306            1 
 1582000    1.0000205   -2.4773271     1705.331  0.089829912  0.090523791            5 
 1583000   0.99254084   -2.4721318    1710.3369  0.090036686  0.090509475            4 
 1584000    0.9840031   -2.4599941    1707.6041  0.089836077  0.090495186            1 
 1585000   0.97459004   -2.5125712    1714.0653    0.0901191  0.090480946            3 
 1586000   0.99270164    -2.466736    1707.5804  0.089721545  0.090466706            4 
 1587000   0.99297597   -2.4678401    1715.6953  0.090091123  0.090452509            2 
 1588000     1.002726   -2.4864964    1717.6636  0.090137679  0.090437885            1 
 1589000    1.0106055   -2.5047125    1716.3081  0.090009866  0.090423904            3 
 1590000    1.0065755   -2.4927623    1720.1771   0.09015603  0.090409966            2 
 1591000   0.99984376   -2.4796435    1719.1203  0.090044016  0.090396571            1 
 1592000   0.99641088    -2.480347    1725.7712  0.090335595  0.090383195            5 
 1593000    1.0104476   -2.5146678    1722.9615  0.090131907  0.090369799            4 
 1594000   0.99571903   -2.4759761    1728.8792  0.090384733  0.090356344            1 
 1595000    0.9944708   -2.4901995    1733.3192  0.090560042   0.09034287            3 
 1596000   0.99438491   -2.4985636    1727.2304  0.090185382  0.090329856            1 
 1597000   0.99133248   -2.4953854    1724.4915  0.089985991  0.090316894            1 
 1598000   0.98754971   -2.4931284    1727.6667  0.090095261  0.090303405            1 
 1599000    1.0182551   -2.4936784    1731.8535  0.090257112  0.090290174            3 
 1600000   0.99602306   -2.4845957    1724.3991  0.089812451  0.090276942            2 
 1601000   0.98923622    -2.468571    1741.9831  0.090671616  0.090263973            3 
 1602000   0.97116172    -2.483795    1727.9636  0.089885745  0.090250665            4 
 1603000    0.9916045    -2.470756    1731.0898  0.089992193  0.090236915            2 
 1604000    1.0226532   -2.4762883    1735.4674  0.090163519  0.090223861            3 
 1605000   0.97163709   -2.4767627    1733.8728  0.090024547  0.090210679            3 
 1606000   0.96715443   -2.5254878    1722.5668  0.089381841  0.090197356            1 
 1607000     1.005826   -2.4953518    1729.4841  0.089684924  0.090183698            4 
 1608000   0.99567257   -2.4825063     1725.795  0.089437967  0.090170169            2 
 1609000   0.98999748   -2.4876773    1734.8552  0.089851626  0.090156622            3 
 1610000   0.99082085   -2.5156618    1732.5273  0.089675325  0.090142955            3 
 1611000   0.97677957   -2.5121133    1737.7895  0.089891862  0.090128919            2 
 1612000   0.96879001    -2.500074    1735.2807  0.089706405  0.090115395            1 
 1613000   0.99576959   -2.4924099    1740.2955  0.089909872  0.090102062            3 
 1614000    1.0047694    -2.503262    1740.6656  0.089873273  0.090088669            3 
 1615000   0.98311885   -2.4918363    1734.6777  0.089508653  0.090075434            4 
 1616000   0.98179524    -2.527987    1733.8819  0.089412226  0.090061511            1 
 1617000   0.98946623   -2.4801768    1745.5883  0.089960231  0.090047711            5 
 1618000    1.0174872   -2.4783841    1748.7982  0.090069954  0.090034096            4 
 1619000   0.99468079   -2.4973645    1741.1031  0.089618235  0.090020101            4 
 1620000    1.0098529   -2.4731364    1743.0382  0.089662456   0.09000591            5 
 1621000   0.97916702   -2.4825979    1743.1252  0.089611621  0.089992175            2 
 1622000   0.99435604   -2.4923908    1746.5516  0.089732408  0.089978132            2 
 1623000   0.99884274    -2.499724    1742.9074  0.089490007   0.08996423            2 
 1624000   0.99252384   -2.4818284    1742.9323  0.089436179  0.089950275            1 
 1625000    1.0050283   -2.4671786    1755.6368  0.090032655  0.089936927            1 
 1626000   0.98099703   -2.4765989    1745.3139  0.089448231  0.089923421            3 
 1627000   0.97401952   -2.4895004      1753.18  0.089796147  0.089909805            3 
 1628000    1.0051746   -2.4863697    1751.7674  0.089668683  0.089896499            3 
 1629000   0.99763966   -2.4788508    1752.4364   0.08964786  0.089883041            2 
 1630000   0.96449784   -2.5036949     1750.595  0.089498724  0.089868993            3 
 1631000   0.98460589   -2.4824595     1750.554  0.089441752  0.089855131            1 
 1632000   0.99306456   -2.5035911    1751.4411  0.089432245  0.089840839            3 
 1633000   0.98016007   -2.5031606    1747.7384   0.08918853  0.089826816            2 
 1634000    0.9890963   -2.4755466    1755.1317  0.089510999  0.089812042            4 
 1635000   0.99817861   -2.5027783    1750.2774  0.089208839  0.089797551            2 
 1636000    1.0055629    -2.500918    1752.0181  0.089242977  0.089782915            6 
 1637000   0.98628363   -2.4970035    1750.8177  0.089127352  0.089768474            2 
 1638000   0.96605286   -2.4805227    1749.0452  0.088982761  0.089754017            2 
 1639000     1.007851   -2.4973255    1756.1063  0.089287488  0.089739435            4 
 1640000   0.99685896   -2.4671173    1757.0874  0.089282896  0.089725023            1 
 1641000   0.99976538   -2.5041797    1757.7857  0.089263951  0.089710502            2 
 1642000   0.98416963   -2.5110876    1756.0705   0.08912254  0.089695855            5 
 1643000   0.97607518   -2.5009761    1755.6145  0.089045165  0.089681699            3 
 1644000   0.98735022   -2.5087953      1763.78  0.089404905  0.089667522            3 
 1645000   0.98824361   -2.5051907    1760.2697   0.08917273  0.089653426            3 
 1646000   0.98589456   -2.4983401    1755.6651  0.088885437  0.089639338            3 
 1647000   0.98173422   -2.5031114    1767.1928  0.089414732  0.089624895            1 
 1648000   0.99539203   -2.4928423    1762.8665  0.089141714  0.089610444            4 
 1649000   0.98241158   -2.4784811    1764.4951  0.089169955  0.089596319            2 
 1650000   0.97208658   -2.4850483    1759.8073  0.088879155  0.089581318            1 
 1651000   0.96996429   -2.5064691    1766.3103  0.089153556  0.089566858            4 
 1652000   0.98752069   -2.4843021    1758.1129  0.088686085  0.089552443            5 
 1653000   0.98993198   -2.4905867    1763.7712  0.088917686   0.08953773            3 
 1654000    0.9846979   -2.4811737    1758.0413  0.088575236  0.089523513            1 
 1655000   0.99070551    -2.509597    1764.1637  0.088829992  0.089508881            2 
 1656000   0.99171848   -2.5042042    1761.0904  0.088621698  0.089494185            2 
 1657000    1.0028944   -2.5219645    1771.6798  0.089100775  0.089479355            3 
 1658000    1.0003601    -2.474552    1762.3095  0.088576069  0.089464535            1 
 1659000   0.98137212   -2.4657808    1774.1443  0.089117154  0.089449751       -1e+20 
 1660000   0.97972097   -2.4913262    1765.9902  0.088654129  0.089434906            1 
 1661000    1.0097465   -2.4651947    1775.4668  0.089076201  0.089420428            3 
 1662000   0.98309183   -2.4903265    1774.5649  0.088977382  0.089405981            4 
 1663000    1.0054368   -2.4776738    1774.3507  0.088913146  0.089391648            2 
 1664000   0.98936315   -2.4870987    1774.0414  0.088844219  0.089376819            3 
 1665000   0.99653176    -2.497395    1770.2288  0.088600041  0.089361838            2 
 1666000   0.98295861   -2.5010359      1773.31  0.088700983  0.089346935            3 
 1667000   0.98892711   -2.4872651    1780.3006  0.088997231  0.089332248            3 
 1668000   0.99381667   -2.4799607    1782.7534  0.089066415   0.08931751            3 
 1669000   0.97508035   -2.5078128    1779.4807  0.088849647   0.08930274            2 
 1670000   0.97878519   -2.4857937    1780.8343  0.088863987  0.089288594            1 
 1671000   0.98293294   -2.4932049    1777.6235  0.088650682  0.089273869            4 
 1672000   0.95737964   -2.5242312    1773.1784  0.088376118  0.089258895            3 
 1673000   0.98402571   -2.4602516    1780.7585  0.088700862  0.089244474            3 
 1674000   0.97746004   -2.4991427    1775.1698  0.088369664   0.08922971            3 
 1675000   0.99800314   -2.4831314    1776.0819  0.088362284  0.089214663            1 
 1676000   0.98313791   -2.5078443    1778.8414  0.088446769  0.089200242            2 
 1677000   0.98758199   -2.4992476    1784.4722  0.088673832  0.089185572            2 
 1678000   0.97225494   -2.4841216    1776.5711    0.0882286   0.08917043            3 
 1679000   0.97874826   -2.5103444    1778.5377  0.088273659  0.089155491            3 
 1680000   0.96539196   -2.4884085    1781.6916  0.088377558  0.089140312            1 
 1681000   0.97234987   -2.5194261    1780.5511  0.088268448  0.089125499            3 
 1682000   0.99761059   -2.5282426     1785.334  0.088452933  0.089110405            2 
 1683000   0.98531379   -2.4975545    1786.9958   0.08848266  0.089095842            2 
 1684000   0.99177043   -2.5236142    1787.2884  0.088444597  0.089080777            3 
 1685000   0.97020134   -2.5262026    1786.3189  0.088344159  0.089066488            3 
 1686000    1.0034761   -2.4914907    1793.1096  0.088627401  0.089051889            2 
 1687000    1.0021803   -2.4873161      1793.62  0.088600078  0.089037588            1 
 1688000   0.98460382   -2.5018193    1795.7437  0.088652433  0.089023332            4 
 1689000   0.98139804    -2.500596    1795.7476  0.088600136  0.089009034            2 
 1690000   0.98441903   -2.4972491    1792.7019  0.088397529  0.088994826            4 
 1691000   0.95928277   -2.4991013    1796.1588   0.08851561  0.088980556            2 
 1692000   0.98116042   -2.4651029    1798.9251  0.088599541  0.088966273            1 
 1693000   0.97513809   -2.5133221      1799.85  0.088592735  0.088952285            1 
 1694000   0.97709507   -2.5019569    1801.7216  0.088632505  0.088938068            1 
 1695000   0.97945365   -2.5031796    1802.4925  0.088618119  0.088924448            2 
 1696000   0.96680858    -2.474274    1801.5715   0.08852061  0.088910417            5 
 1697000   0.97424872   -2.4953438    1814.8018  0.089118138  0.088896401            2 
 1698000    0.9983354   -2.5218895    1804.2179  0.088546227  0.088882608            1 
 1699000   0.97075554   -2.5244886     1802.513  0.088410487  0.088868203            3 
 1700000   0.97841747    -2.530275    1801.0386  0.088286208  0.088854089            2 
 1701000   0.97215108   -2.4621277    1808.6172  0.088605583   0.08883995            2 
 1702000   0.98109307   -2.5084016    1798.7327  0.088069562  0.088825582            1 
 1703000   0.96860557    -2.510045      1800.56   0.08810726   0.08881146            4 
 1704000   0.98135439   -2.4966102     1806.806  0.088361013  0.088797049            4 
 1705000   0.96568491   -2.4946266    1812.6732  0.088595953  0.088782521            3 
 1706000   0.98657342   -2.4859788    1798.8342  0.087868024   0.08876799            2 
 1707000   0.98949389   -2.5065687    1809.9485  0.088359133  0.088753616            2 
 1708000   0.97952691   -2.5179861    1807.4275    0.0881844  0.088739389            2 
 1709000   0.97699273   -2.5162336    1806.7502  0.088099774   0.08872479            2 
 1710000   0.96378579   -2.4976362    1812.2526  0.088316401  0.088710825            2 
 1711000    0.9726486   -2.5116588    1820.0545  0.088644773  0.088696675            2 
 1712000   0.98260575   -2.5337946    1811.2055  0.088162264  0.088682353            2 
 1713000   0.98526551   -2.5045509    1811.8441  0.088141859  0.088667673            2 
 1714000     0.983314    -2.511853     1819.389  0.088457264   0.08865312            2 
 1715000   0.98041331   -2.5083112    1814.4924  0.088167754  0.088638895            3 
 1716000   0.96033918   -2.5049261    1815.0008  0.088141063  0.088624272            2 
 1717000   0.98676818   -2.4928516    1823.4347  0.088499061  0.088610136            1 
 1718000   0.98405901   -2.5201653    1813.3807  0.087959873  0.088596067            2 
 1719000   0.97601069   -2.4963086    1817.2251  0.088095072  0.088581742            1 
 1720000   0.97804431   -2.4843236    1820.6614  0.088210337  0.088567173            2 
 1721000    0.9941476   -2.4796001    1818.8457  0.088071164  0.088552708            4 
 1722000   0.97514224   -2.5062073    1824.4776  0.088292567  0.088538735            2 
 1723000   0.96179895   -2.5040438    1821.3144  0.088088332  0.088524335            2 
 1724000   0.97612893   -2.5031097    1821.1358  0.088028608  0.088510004            2 
 1725000   0.97766182   -2.5174465    1825.9363  0.088209482  0.088495463            3 
 1726000    0.9800507     -2.50439     1819.732  0.087858824  0.088481369            3 
 1727000   0.98048062   -2.5207714    1822.3788  0.087935668  0.088466887            2 
 1728000   0.96091336   -2.5275108    1825.6375  0.088041934  0.088452274            2 
 1729000   0.96872047   -2.5055013    1822.2247  0.087826521   0.08843787            3 
 1730000   0.97655881   -2.5147977    1827.6732   0.08803821  0.088423159            1 
 1731000   0.95980741   -2.5137306    1821.4501   0.08768776   0.08840898            4 
 1732000   0.99344409   -2.5072775    1821.3493  0.087632282  0.088394175            2 
 1733000   0.97764232   -2.4930749      1826.37  0.087823139  0.088379781            2 
 1734000   0.99415164   -2.5007661    1828.0839  0.087854861  0.088365387            1 
 1735000   0.98497441   -2.5222328    1826.8374  0.087744351  0.088350975            3 
 1736000    0.9706041   -2.5370094    1821.7186  0.087448091  0.088336259            4 
 1737000   0.98730186   -2.4758867     1829.832   0.08778699   0.08832143            3 
 1738000   0.94693935   -2.5267527    1829.9694  0.087743065  0.088306858            2 
 1739000   0.95648757    -2.497901    1829.3983  0.087665245  0.088292386            2 
 1740000   0.98813898   -2.5032816    1832.6437  0.087770294   0.08827762            1 
 1741000   0.98098864   -2.4839548    1832.9718  0.087735583  0.088262686            2 
 1742000   0.97835412   -2.5202398    1835.5943  0.087810673  0.088247893            2 
 1743000    0.9632551   -2.5065683    1826.9299  0.087346046   0.08823308            1 
 1744000   0.96581484   -2.5079729    1828.9054  0.087390358  0.088218319            2 
 1745000   0.97341944   -2.5196201    1840.8729   0.08791179  0.088203922            2 
 1746000   0.96530463   -2.4842911    1836.6822  0.087661426  0.088189083            2 
 1747000   0.97207672   -2.5247923    1829.5206  0.087269634  0.088174202            1 
 1748000   0.97909277   -2.5132672    1838.7218  0.087658361  0.088159133            2 
 1749000    0.9558765   -2.5100496     1840.942  0.087714026  0.088144201            5 
 1750000   0.98712508   -2.5174838    1838.5438  0.087549705  0.088129056            2 
 1751000   0.95724356   -2.5109714    1837.8124  0.087464895   0.08811399            1 
 1752000   0.96582612   -2.5145973    1835.7606  0.087317381  0.088098881            6 
 1753000   0.99025879   -2.5235177     1841.763  0.087552909  0.088083909            2 
 1754000   0.98758794   -2.5206623    1844.5925  0.087637422  0.088069153            2 
 1755000   0.96862567   -2.5064099      1836.86  0.087220325  0.088054325            2 
 1756000   0.97200779   -2.5152862    1845.9459  0.087601837  0.088039627            2 
 1757000   0.96372255   -2.5199957    1838.1134   0.08718049  0.088024896            2 
 1758000   0.97660614   -2.5392832    1840.6301  0.087250193  0.088010158            2 
 1759000   0.96975609   -2.5219788    1848.0159    0.0875505   0.08799529            2 
 1760000   0.97499554    -2.496075     1849.913  0.087590578  0.087980435            2 
 1761000   0.96241592   -2.4985573    1850.1374  0.087551459  0.087965791            3 
 1762000   0.98497001   -2.4856543    1847.5008  0.087377069  0.087951426            4 
 1763000   0.96859977   -2.5072678    1850.7594  0.087481538  0.087937062            2 
 1764000   0.98083309   -2.5030579    1848.3578  0.087318491  0.087922572            2 
 1765000   0.96039987   -2.5004501    1850.9644  0.087392086  0.087908358            2 
 1766000   0.96406502   -2.5201272    1848.3078  0.087217245  0.087893744            1 
 1767000   0.98348464   -2.5111945    1859.0305  0.087673577  0.087879932            2 
 1768000   0.95753246   -2.5353363    1854.2361  0.087398005  0.087865535            3 
 1769000   0.95895377    -2.526776    1848.8294  0.087093906  0.087851378            1 
 1770000   0.96006876    -2.528682    1856.9935  0.087429073  0.087836963            1 
 1771000   0.97676259   -2.5297693    1861.9609  0.087613443  0.087822748            2 
 1772000   0.98845881   -2.5229114    1858.1408  0.087384349  0.087808482            2 
 1773000   0.97361449   -2.5166942    1863.2255  0.087574052  0.087794391            4 
 1774000   0.97015863    -2.493064    1860.7825  0.087409927  0.087780125            3 
 1775000   0.95041006   -2.5057674    1866.8445  0.087645284   0.08776659            2 
 1776000   0.95800748   -2.4921991    1865.9263  0.087552847  0.087752551            3 
 1777000    0.9540474   -2.5115857    1867.9162  0.087596897  0.087738685            1 
 1778000   0.98712147   -2.5282963    1862.3238  0.087285517  0.087724431            2 
 1779000   0.97355325   -2.4968309    1854.7561   0.08688196   0.08771041            3 
 1780000   0.95405425   -2.5148066     1860.007   0.08707898  0.087696329            1 
 1781000   0.96957666   -2.5335996     1860.242   0.08704108  0.087681965            1 
 1782000   0.95532135    -2.519071    1871.2469  0.087506869  0.087667928            3 
 1783000   0.98564132   -2.5047794    1875.7482  0.087668173  0.087653328            2 
 1784000   0.97038213   -2.5088093    1873.0302  0.087492067  0.087639318            3 
 1785000   0.96155492   -2.5151549    1862.6735  0.086959545  0.087624919            1 
 1786000   0.95926565    -2.512252    1870.4667  0.087274481  0.087610312            1 
 1787000   0.96773995   -2.5302354    1868.3785  0.087128264  0.087596306            3 
 1788000   0.96145865   -2.5227517    1862.3677   0.08679939  0.087582374            3 
 1789000   0.97248624   -2.5079503    1867.6866  0.086998629  0.087567922            2 
 1790000    0.9752068   -2.4986469    1870.0685  0.087060918  0.087553344            6 
 1791000    0.9498847   -2.5383149    1871.3716  0.087072939  0.087538989            3 
 1792000   0.96220071   -2.5280275    1871.7762  0.087043165    0.0875244            3 
 1793000   0.96848016   -2.5354221    1876.4216  0.087210522  0.087509343            2 
 1794000   0.95571769      -2.5366    1873.0278  0.087004264  0.087494573            2 
 1795000   0.96674124   -2.5229577    1874.8032  0.087038216  0.087479758            2 
 1796000   0.96535604   -2.5014845    1870.6043  0.086794929   0.08746501            2 
 1797000    0.9716712   -2.5286081    1872.5845  0.086838456  0.087449768            4 
 1798000   0.97116639   -2.5119196    1869.9595  0.086668496  0.087435091            3 
 1799000   0.98139879   -2.5456322    1867.7109   0.08651616  0.087419755            4 
 1800000   0.96756575   -2.5355046    1871.2393  0.086631448   0.08740471            2 
 1801000   0.95010948   -2.5193159    1876.8207  0.086841602   0.08738937            2 
 1802000   0.97783434    -2.523279    1881.8124  0.087024253  0.087374339            4 
 1803000   0.95432535    -2.544697    1878.0931  0.086804081  0.087359392            1 
 1804000   0.97925561   -2.5101098    1877.7517  0.086740191  0.087344275            3 
 1805000   0.93204476   -2.5325082    1879.0943  0.086754122  0.087328996            2 
 1806000   0.95881316    -2.514318    1876.1262  0.086569133  0.087313364            3 
 1807000   0.96489863   -2.5115684    1877.8474    0.0866006  0.087298119            2 
 1808000   0.95259667    -2.505318    1885.1994  0.086891565  0.087282979            2 
 1809000    0.9816572   -2.5218385    1872.2506  0.086247032  0.087267302            2 
 1810000   0.95824107    -2.531942     1878.092  0.086468324  0.087251717            1 
 1811000   0.94803937   -2.5285907    1882.1401  0.086606854  0.087236325            1 
 1812000   0.96219198   -2.5395833    1886.5678  0.086762684  0.087221101            2 
 1813000   0.95131312   -2.5357084    1877.7533  0.086309676  0.087206131            3 
 1814000   0.97241974   -2.5235078    1872.0206  0.085998741  0.087190575            1 
 1815000   0.95849523    -2.550506    1885.1384  0.086553646  0.087175095            7 
 1816000   0.97960546   -2.5364407    1873.9047  0.085990488  0.087159459            4 
 1817000   0.96535104   -2.5360891    1882.4303  0.086334174   0.08714396            3 
 1818000   0.97026028   -2.5133536    1889.0281  0.086589112  0.087128434            2 
 1819000   0.94379409   -2.5129279    1895.8813  0.086855476  0.087113593            2 
 1820000   0.98687967   -2.5248403    1885.5809  0.086336124  0.087098928            3 
 1821000   0.96996687   -2.5345214    1882.0931    0.0861291  0.087084021            6 
 1822000   0.95702492   -2.5194558     1890.858   0.08648271  0.087069085            2 
 1823000   0.94784045   -2.5357766    1897.0602  0.086718786  0.087054394            1 
 1824000   0.97863571   -2.5271222    1894.9478  0.086574734  0.087039902            6 
 1825000   0.95044972   -2.5310327    1882.8714  0.085975865  0.087025286            6 
 1826000   0.97062435    -2.530977    1896.2673  0.086540127  0.087010843            2 
 1827000   0.96722098   -2.5369432    1889.5608  0.086186862   0.08699636            2 
 1828000   0.94862896   -2.5509735    1898.9934  0.086569719  0.086981945            2 
 1829000   0.97548523   -2.5483761    1900.3172  0.086582705  0.086967365            2 
 1830000   0.95697796   -2.5221576    1903.6951  0.086689214  0.086953147            2 
 1831000   0.94904166   -2.5174028    1908.6261   0.08686629  0.086938771            2 
 1832000   0.94523582   -2.5156028    1899.3606  0.086397409  0.086924452            6 
 1833000   0.98201323   -2.5395358    1897.9052  0.086284108  0.086910232            2 
 1834000   0.96909421   -2.5548072    1904.4587  0.086534836  0.086895949            4 
 1835000   0.96491202   -2.5456864    1899.2156  0.086249573  0.086881224            4 
 1836000   0.96256014   -2.5223597    1908.8213  0.086638583    0.0868671            6 
 1837000   0.96197045   -2.5321736    1900.7583  0.086225654  0.086853209            1 
 1838000   0.95280761   -2.5442897    1912.1469  0.086695092   0.08683907            2 
 1839000   0.94698868   -2.5303849    1901.3831  0.086160193  0.086824518            3 
 1840000   0.96210121   -2.5640871     1901.263  0.086107925  0.086809937            1 
 1841000   0.96132218   -2.5451714    1907.6431   0.08634995  0.086795483            2 
 1842000   0.96681915   -2.5306311    1904.9698  0.086182128    0.0867809            1 
 1843000   0.95166562    -2.522246    1912.7583  0.086487533  0.086766601            3 
 1844000   0.94888051   -2.5589348    1904.6749  0.086075329   0.08675218            3 
 1845000   0.96418967   -2.5391768     1909.091  0.086228138  0.086738116            4 
 1846000   0.93062125   -2.5193609      1912.28  0.086325388  0.086724066            4 
 1847000   0.97499131   -2.5245439    1913.4687  0.086332283   0.08671015            5 
 1848000   0.94692604   -2.5330996     1915.578   0.08638068  0.086696219            4 
 1849000   0.96033784   -2.5244731    1913.5209  0.086241254  0.086681628            5 
 1850000   0.95359578   -2.5449896    1915.8872  0.086301227  0.086667468            2 
 1851000   0.97119129     -2.53429    1923.0902  0.086578886  0.086653413            2 
 1852000   0.96312204   -2.5331374    1927.9245  0.086749663  0.086639203            3 
 1853000   0.96476752   -2.5304972    1918.0945  0.086260769  0.086624631            1 
 1854000   0.94521266   -2.5248334    1920.0435  0.086301846   0.08661039            2 
 1855000   0.94490587   -2.5544055    1910.4683   0.08582517  0.086595693            3 
 1856000   0.97896623   -2.5159394    1924.3184  0.086400789  0.086581018            2 
 1857000   0.96821322   -2.5386443    1918.0967  0.086075064  0.086566771            1 
 1858000   0.94885015    -2.525105    1916.0753  0.085938073  0.086552276            2 
 1859000   0.96452912   -2.5323569    1926.2034  0.086345859  0.086537894            3 
 1860000   0.95445191   -2.5359725    1927.0148  0.086335787  0.086523898            2 
 1861000    0.9382445   -2.5196858    1920.9108  0.086016065  0.086509733            2 
 1862000   0.95712076   -2.5245055    1926.2708  0.086209756  0.086495321            3 
 1863000   0.95330406   -2.5633392    1926.4652  0.086172179  0.086481015            2 
 1864000   0.94276877   -2.5211655     1932.742  0.086406561  0.086467195            2 
 1865000   0.95606094    -2.547288     1924.507  0.085992272  0.086453278            1 
 1866000   0.96853137   -2.5359156    1923.8693  0.085917706  0.086439083            3 
 1867000   0.96144682   -2.5498566    1929.2416   0.08611148  0.086425105            2 
 1868000   0.94886919   -2.5306677    1928.8075  0.086046018  0.086411238            2 
 1869000   0.94221333    -2.533765    1927.0211  0.085920329   0.08639725            4 
 1870000   0.95877997   -2.5237876    1934.7276  0.086217808   0.08638353            6 
 1871000   0.95143556   -2.5433465    1929.4859  0.085938262  0.086369666            1 
 1872000   0.97298415   -2.5370556    1930.2336  0.085925639  0.086355491            2 
 1873000   0.95412619   -2.5127781    1933.0553  0.086005306  0.086341454            1 
 1874000   0.95033461   -2.5605874    1931.6761  0.085898082  0.086327639            2 
 1875000   0.95014923   -2.5126879    1939.3896  0.086195092  0.086313778            1 
 1876000   0.94345821    -2.534011     1936.783   0.08603336  0.086299763            1 
 1877000   0.96194361   -2.5211511    1940.4678   0.08615112  0.086285868            2 
 1878000   0.94697454   -2.5429271    1940.6009  0.086111152  0.086271952            2 
 1879000    0.9416819   -2.5524148    1939.6433  0.086022853  0.086258167            1 
 1880000   0.95125545   -2.5247674    1943.6255   0.08615361   0.08624414            2 
 1881000   0.94948535    -2.530201       1940.6  0.085973774  0.086230338            2 
 1882000   0.96106248    -2.532896    1943.1976  0.086043108  0.086216515            4 
 1883000    0.9508124   -2.5250639    1949.7058  0.086285442  0.086202928            5 
 1884000   0.95680434   -2.5321408    1953.6643  0.086414733  0.086189614            4 
 1885000   0.95454805   -2.5117691    1944.0936  0.085945782  0.086175925            3 
 1886000   0.95685127   -2.5288531    1949.1831  0.086125092  0.086162567            3 
 1887000   0.93131466   -2.5557043    1949.5257   0.08609458  0.086148741            2 
 1888000   0.94768847   -2.5138418    1952.1471  0.086164685  0.086135274            2 
 1889000   0.94371874   -2.5233954    1944.0257  0.085760796  0.086121668            3 
 1890000   0.95085566   -2.5545087    1960.0195  0.086420611  0.086108656            4 
 1891000   0.96302089   -2.5226432    1958.2593  0.086297341  0.086095143            4 
 1892000   0.95426214   -2.5434466    1956.7954  0.086187252  0.086081465            2 
 1893000   0.94398411   -2.5280828    1944.3451   0.08559364  0.086067698            3 
 1894000   0.93681731   -2.5335961    1946.5681  0.085646256  0.086053762            2 
 1895000   0.93570626    -2.510798    1956.6346  0.086043738  0.086039974            1 
 1896000   0.94411022   -2.5428644    1953.5531  0.085862916  0.086026279            2 
 1897000   0.93294158   -2.5478991    1957.0748  0.085972361  0.086012532            2 
 1898000   0.94903941   -2.5485321    1957.8451  0.085960883  0.085999084            2 
 1899000   0.94907684   -2.5219013    1955.1958  0.085799358  0.085985237            4 
 1900000   0.95470328   -2.5446166     1961.559  0.086033288  0.085971338            2 
 1901000   0.97221809   -2.5530909    1954.5196  0.085679448  0.085957453            3 
 1902000   0.93797866   -2.5250822    1952.7646  0.085557508  0.085943717            4 
 1903000   0.94353561   -2.5592022    1957.1622  0.085705124  0.085929836            2 
 1904000   0.94523369   -2.5417828     1954.946  0.085563112  0.085915882            3 
 1905000   0.93736609   -2.5101161     1954.349  0.085492083  0.085902176            3 
 1906000   0.92562159   -2.5376652    1959.9728  0.085693109  0.085888385            3 
 1907000   0.94961145   -2.5196252    1958.2799  0.085574194  0.085874785            3 
 1908000    0.9516118   -2.5560615    1966.3809  0.085883162  0.085860849            2 
 1909000   0.94282443   -2.5442772    1962.2721  0.085658814  0.085846966            2 
 1910000    0.9237738   -2.5180498    1962.8151  0.085637658  0.085833148            1 
 1911000   0.97143572   -2.5328633    1966.9149  0.085771625  0.085819511            4 
 1912000   0.96842805    -2.526473    1974.3488  0.086050768  0.085805773            2 
 1913000   0.94119529   -2.5595989    1968.6969  0.085759579  0.085792077            3 
 1914000   0.94956838   -2.5401777    1962.7347  0.085455185  0.085778246            7 
 1915000   0.94602761   -2.5314528    1966.5252  0.085575511  0.085764828            3 
 1916000   0.93832016   -2.5508979    1969.1327  0.085644253  0.085751338            5 
 1917000   0.95635847   -2.5260861    1972.1628  0.085731298  0.085737582            2 
 1918000   0.92891106   -2.5217141    1968.6629  0.085534535  0.085723939            2 
 1919000   0.92624844   -2.5399914    1970.3795  0.085564508  0.085710332            2 
 1920000   0.95886685   -2.5835342    1962.1069  0.085160888  0.085696628            4 
 1921000   0.93981496   -2.5392871    1969.6976  0.085445846  0.085682989            3 
 1922000   0.93766897    -2.528907    1975.1688  0.085638605  0.085669459            2 
 1923000   0.98481129   -2.5370935    1967.5399  0.085263472   0.08565569            2 
 1924000    0.9388754   -2.5183868     1973.008  0.085455995  0.085642089            3 
 1925000   0.93883768   -2.5546402    1972.1991  0.085376584  0.085628189            2 
 1926000   0.96207825    -2.538983    1969.7964  0.085228297  0.085614036            2 
 1927000   0.93165348   -2.5199251    1978.2613  0.085550134  0.085600529            2 
 1928000   0.94593199   -2.5740084    1970.5547  0.085172662  0.085586469            5 
 1929000   0.94378668   -2.5571058    1977.3444  0.085421826  0.085572462            1 
 1930000   0.93328069    -2.555002    1975.4884  0.085297425  0.085558538            5 
 1931000   0.93517583   -2.5428658    1974.7877  0.085223014  0.085544848            3 
 1932000   0.93515575   -2.5468401    1971.7159  0.085046406  0.085530546            8 
 1933000   0.96280974   -2.5419318     1977.783  0.085263966  0.085516465            4 
 1934000   0.95802739   -2.5542385    1972.8315  0.085006527  0.085502322            2 
 1935000   0.94268951   -2.5459289    1980.2444  0.085281843  0.085487927            5 
 1936000   0.93631383   -2.5530606     1979.195  0.085192623  0.085473941            4 
 1937000   0.95088305    -2.564399    1980.6535  0.085211389  0.085459888            3 
 1938000   0.94826106   -2.5483805    1979.1069  0.085100916  0.085445713            2 
 1939000   0.92631974   -2.5498122    1978.9123  0.085048664  0.085431568            2 
 1940000   0.93274737   -2.5460517    1982.2739  0.085149223  0.085417268            2 
 1941000   0.95884326   -2.5711276    1982.8473  0.085129974  0.085403145            3 
 1942000    0.9180373   -2.5407609    1981.1102  0.085011594  0.085388886            2 
 1943000   0.93518891   -2.5532104    1985.5709  0.085159156  0.085374468            2 
 1944000   0.93765004   -2.5723471    1982.8822  0.085000093  0.085360091            2 
 1945000   0.91879975   -2.5443633    1989.8598  0.085255348  0.085346093            2 
 1946000   0.94395881   -2.5676897    1984.2102  0.084969606  0.085331608            1 
 1947000   0.92373725   -2.5357816    1986.3167  0.085016124  0.085317245            2 
 1948000   0.92916948   -2.5545082    1988.8254  0.085079799  0.085302977            2 
 1949000   0.95971331   -2.5433357    1989.7107  0.085073999  0.085288791            2 
 1950000   0.94851692   -2.5758301    1973.9716   0.08435776  0.085274394            3 
 1951000   0.94708619   -2.5636688    1988.8866  0.084951589  0.085259832            2 
 1952000   0.93872878   -2.5699738    1981.5376  0.084594331   0.08524516            3 
 1953000   0.93775262    -2.536148    1991.0274   0.08495594   0.08523057            2 
 1954000   0.91776611   -2.5380578    1986.9577  0.084738897  0.085215862            2 
 1955000   0.94404683   -2.5659913    1990.1125  0.084830029  0.085201315            5 
 1956000   0.94936724   -2.5528232    1987.5221    0.0846763  0.085186733            2 
 1957000    0.9329138   -2.5733147     1986.843  0.084604115  0.085172127            4 
 1958000   0.93184301    -2.578004    1987.2332  0.084577513  0.085157572            2 
 1959000   0.95257056   -2.5545889    1988.7612  0.084599338  0.085142979            2 
 1960000   0.92981316   -2.5306032    1990.2226  0.084618306  0.085128703            1 
 1961000   0.92575871   -2.5555813    2000.9836   0.08503245  0.085114263            2 
 1962000   0.94141727    -2.524979    1997.3202  0.084833513  0.085099839            2 
 1963000   0.94735166   -2.5423478    1992.9669  0.084605489  0.085084939            3 
 1964000   0.93359339   -2.5555969    1996.0236  0.084692109  0.085070143            1 
 1965000   0.93169503   -2.5587847    1988.2356  0.084318728  0.085055199            1 
 1966000   0.93324752   -2.5567373    1993.8445  0.084513586  0.085040297            3 
 1967000   0.94172088   -2.5523535    1993.8087  0.084469102  0.085025616            3 
 1968000   0.94570895   -2.5357918    1992.9919  0.084391597   0.08501116            2 
 1969000   0.95074839   -2.5360014    1998.8718  0.084597586  0.084996095            3 
 1970000   0.93306743   -2.5630093    1984.5056  0.083946937  0.084980884            2 
 1971000   0.94115516   -2.5513705    1998.8331  0.084510109  0.084965967            2 
 1972000   0.95130792   -2.5120687    1998.0283  0.084433244  0.084951318            2 
 1973000   0.94434393   -2.5522832    1993.6296  0.084204665  0.084936242            1 
 1974000   0.96188058   -2.5546614    2005.7364  0.084673101  0.084921547            2 
 1975000   0.93033313   -2.5732123    1997.6917   0.08429079  0.084906856            2 
 1976000   0.96321052   -2.5737994    1996.9859  0.084218364  0.084891769            2 
 1977000   0.93048924   -2.5608973      1999.76  0.084292697  0.084876928            8 
 1978000   0.93765559   -2.5704392    1997.8438  0.084169355  0.084862068            3 
 1979000   0.95010329   -2.5311368    2007.4837  0.084532746   0.08484762            3 
 1980000   0.92295809   -2.5782127    1998.0598  0.084093427  0.084832787            5 
 1981000   0.94719479   -2.5609678    1999.6797  0.084119121   0.08481803            6 
 1982000   0.94649427   -2.5241999    2016.4135   0.08478025   0.08480352            4 
 1983000   0.97048219   -2.5464465    2002.9023  0.084169705  0.084788906            4 
 1984000   0.92038907   -2.5713434    1997.2879  0.083891461  0.084773871            7 
 1985000    0.9368355   -2.5714868    1998.5948  0.083904063  0.084758909            2 
 1986000   0.91506541   -2.5826347     2015.031  0.084551487  0.084744287            2 
 1987000   0.94393346   -2.5732486     2006.123  0.084135339  0.084729851            3 
 1988000   0.95286089   -2.5675213    2004.4239  0.084021792  0.084715403            3 
 1989000   0.94479096    -2.548599    2016.6495  0.084491767  0.084700556            2 
 1990000   0.94160498   -2.5532296    2002.7077  0.083865482  0.084685865            1 
 1991000   0.94866065    -2.549842    2010.7567  0.084160251  0.084670917            3 
 1992000   0.94110503   -2.5516625     2011.499  0.084149052   0.08465599            2 
 1993000   0.91813236   -2.5756484    2006.1755  0.083884239  0.084641236            3 
 1994000   0.93273607   -2.5703707    2006.6147  0.083860527  0.084626323            2 
 1995000   0.91426025    -2.561518     2007.964  0.083874854  0.084611377            3 
 1996000   0.93612381   -2.5433161    2013.3078  0.084055936  0.084596344            3 
 1997000    0.9174817    -2.560573    2009.8337  0.083868872  0.084581529            1 
 1998000    0.9206126   -2.5537904    2019.8061  0.084242831  0.084567152            2 
 1999000   0.93235587   -2.5339077    2019.3745  0.084182694  0.084552984            3 
 2000000   0.94158281   -2.5703298    2022.0142  0.084250591   0.08453893            1 
 2001000   0.94478694   -2.5831273    2026.2376  0.084384376  0.084524852            2 
 2002000   0.95642968   -2.5338689    2020.9408  0.084121744  0.084510542            3 
 2003000   0.94743336   -2.5792836    2022.7376  0.084154503  0.084496466            3 
 2004000   0.93557635    -2.585372    2022.6357  0.084108271  0.084482243            1 
 2005000   0.92343053   -2.5599948    2029.3293  0.084344528  0.084467993            2 
 2006000   0.93300415   -2.5816982    2026.0251  0.084165217  0.084454027            2 
 2007000   0.93003768   -2.5329252    2020.9576  0.083912873  0.084439722            4 
 2008000   0.92581822   -2.5656506    2029.6042  0.084229923  0.084425665            4 
 2009000   0.93931416   -2.6007018    2024.9002  0.083992873  0.084411516            2 
 2010000   0.92656827   -2.5561943    2026.3736  0.084012174  0.084397353            3 
 2011000   0.94362009   -2.5753667    2025.1497  0.083919678   0.08438318            1 
 2012000   0.91715573   -2.5525279    2023.7646  0.083820602  0.084368746            2 
 2013000   0.94736671   -2.5407786    2023.6943   0.08377605  0.084354439            3 
 2014000   0.93309864   -2.5609759    2025.1078  0.083792941  0.084340024            1 
 2015000   0.92671456   -2.5675634    2033.4461    0.0840962  0.084325605            3 
 2016000   0.92853002   -2.5473076    2032.0011  0.083994756  0.084311039            3 
 2017000   0.94824406   -2.5791792     2026.274  0.083716495  0.084296694            3 
 2018000   0.91200744   -2.5782505     2029.454  0.083806328  0.084282328            2 
 2019000   0.95161056   -2.5558656    2043.2894  0.084335866   0.08426828            3 
 2020000    0.9269841   -2.5988097     2030.504  0.083766668  0.084254262            2 
 2021000   0.94621508   -2.5528769    2030.9504  0.083743624  0.084239902            2 
 2022000   0.94372991   -2.5570544    2037.1821  0.083959036  0.084226035            5 
 2023000   0.92186638   -2.5508683     2031.969  0.083702792  0.084212181            1 
 2024000   0.91940498   -2.5799368    2032.5644  0.083685953  0.084197976            5 
 2025000   0.92426012      -2.5545    2036.7859  0.083818351    0.0841838            2 
 2026000   0.93161095   -2.5635049    2038.3465   0.08384117  0.084169961            2 
 2027000   0.93716118   -2.5558699    2049.2498  0.084248058  0.084156198            2 
 2028000   0.92130315   -2.5789569    2038.9989  0.083785293  0.084142229            5 
 2029000   0.93237124    -2.588691    2048.3634   0.08412861  0.084128501            2 
 2030000    0.9510214    -2.565397    2041.9474  0.083823785  0.084114514            5 
 2031000   0.94152519   -2.5581184    2045.6123  0.083932885  0.084100296            2 
 2032000   0.91982173   -2.5476154    2040.5837  0.083685356  0.084086088            2 
 2033000   0.91466599   -2.5745731    2048.2806   0.08395969  0.084071956            2 
 2034000   0.93102309   -2.5578317    2041.9748  0.083660064  0.084057596            2 
 2035000   0.93216709   -2.5783784    2044.2447  0.083711903  0.084043323            5 
 2036000   0.92161592   -2.5451968    2047.3785  0.083799055  0.084028575            2 
 2037000   0.91840573   -2.5488566    2050.3257  0.083878485    0.0840144            3 
 2038000    0.9195987    -2.573523    2035.3739  0.083225954   0.08399993            2 
 2039000   0.94848443   -2.5794601    2053.8226   0.08393913  0.083985523            2 
 2040000    0.9225049   -2.5641581    2045.6841  0.083565528  0.083971327            2 
 2041000   0.93515544   -2.5458519    2040.5926  0.083316697  0.083956817            3 
 2042000     0.918358   -2.5906687    2048.5943  0.083602444  0.083942348            3 
 2043000   0.94814031   -2.5649716    2049.5065  0.083598731   0.08392771            4 
 2044000   0.92830625   -2.5829292    2045.2128  0.083382778  0.083913391            5 
 2045000    0.9416546   -2.5744819    2047.3696  0.083429893   0.08389923            4 
 2046000   0.92194619   -2.5630433    2046.0623  0.083335872  0.083884836            1 
 2047000   0.92127832   -2.5691027    2050.8388  0.083489609  0.083870177            2 
 2048000   0.93724521   -2.5785683     2046.365  0.083266806  0.083855764            1 
 2049000   0.90971958   -2.5739739    2052.8885  0.083491481  0.083841159            3 
 2050000   0.93800495   -2.5845264    2044.6124  0.083114327  0.083826426            3 
 2051000   0.93476459    -2.576759    2050.1265  0.083297841  0.083811818            3 
 2052000   0.93084882    -2.569118    2052.0977  0.083337303  0.083797452            4 
 2053000   0.91475661   -2.5808881    2050.7957   0.08324386  0.083782463            2 
 2054000   0.91234379   -2.5787875    2052.6004  0.083276551  0.083767524            2 
 2055000   0.91211927   -2.5775431    2058.7172  0.083484073  0.083752897            3 
 2056000   0.92994376   -2.5736517    2055.0902  0.083296456  0.083738085            3 
 2057000   0.92809125   -2.5794475    2049.7645   0.08304021  0.083723087            1 
 2058000   0.91236923   -2.5788115    2050.3058  0.083021776  0.083707897            5 
 2059000   0.91324543   -2.5733925    2051.4847  0.083029167  0.083693027            2 
 2060000   0.91041948    -2.573223    2059.4463  0.083310934  0.083678182            2 
 2061000   0.92681425   -2.5660057    2057.7523  0.083202017  0.083663344            3 
 2062000   0.93167307   -2.5812376    2065.7941  0.083486669  0.083648513            3 
 2063000   0.92752345   -2.5822152    2054.4977  0.082989891  0.083633864            1 
 2064000   0.92749907    -2.543148    2058.1937  0.083098908  0.083619056            3 
 2065000   0.90403843   -2.5818892    2059.8758  0.083126546  0.083604373            2 
 2066000   0.92259662   -2.6128865    2048.7456  0.082637365  0.083589175            3 
 2067000   0.92838962   -2.5843759    2048.9962  0.082607493   0.08357405            2 
 2068000    0.9158529    -2.583219    2065.4318  0.083229842  0.083559201            4 
 2069000   0.92265846   -2.5902418    2062.1178  0.083056137  0.083544112            2 
 2070000   0.94917321   -2.6176314    2056.6861  0.082797349  0.083529041            3 
 2071000   0.89584282   -2.5727894    2064.3864  0.083067213   0.08351433            2 
 2072000   0.91830078   -2.5549094    2069.5665  0.083235463  0.083499377            2 
 2073000   0.91329642    -2.589414    2070.3773  0.083227902  0.083484663            3 
 2074000   0.92424101   -2.5833299    2069.7161  0.083161206  0.083469414            4 
 2075000   0.90468935   -2.5765354    2064.7855  0.082923114  0.083454508            1 
 2076000   0.92591806   -2.5683318    2068.5953  0.083036097  0.083439641            3 
 2077000    0.9262335   -2.5571275    2066.6638  0.082918624  0.083424663            1 
 2078000   0.92539342   -2.5819567    2059.2264  0.082580463  0.083409496            3 
 2079000   0.92440934    -2.584137    2062.1346  0.082657312  0.083394301            3 
 2080000   0.92091247   -2.5532901    2065.1027  0.082736488   0.08337924            4 
 2081000   0.93140032   -2.5937547    2074.7334   0.08308239  0.083364258            3 
 2082000    0.9250888   -2.5806254    2066.3048  0.082705123  0.083349467            2 
 2083000   0.89981658   -2.5785463    2063.6378  0.082558721  0.083334392            5 
 2084000   0.91610003   -2.5876126    2071.1891  0.082821059  0.083319474            5 
 2085000    0.9178584   -2.5750819    2073.5333   0.08287503  0.083304819            2 
 2086000   0.91645755   -2.5945753    2069.1557  0.082660424  0.083289904            4 
 2087000   0.91468082   -2.5554378    2075.8647  0.082888706  0.083274986            2 
 2088000   0.92533885   -2.5825695    2068.4924  0.082554772  0.083260255            6 
 2089000   0.91043976   -2.5521375     2076.224  0.082823679  0.083245384            5 
 2090000   0.89864576   -2.5654858    2077.1698  0.082821763  0.083230759            5 
 2091000   0.91423342   -2.5725497    2079.7072  0.082883278  0.083215894            2 
 2092000   0.91152671   -2.5741537    2073.1897  0.082584037   0.08320135            5 
 2093000   0.91514382   -2.5570225    2075.5977  0.082640455  0.083186419            2 
 2094000   0.92012503   -2.5721899    2078.8748  0.082731406  0.083171373            3 
 2095000   0.91215802   -2.5942858    2075.4284   0.08255483  0.083156345            3 
 2096000   0.91010541   -2.5998576     2074.494  0.082478291  0.083141183            2 
 2097000   0.90909489   -2.5811492    2081.5372  0.082718852  0.083126129            2 
 2098000   0.90131232   -2.5666052    2079.2024  0.082586684  0.083111359            3 
 2099000   0.88808424   -2.5932933    2078.4086  0.082515826  0.083096403            4 
 2100000   0.91592022   -2.5884646    2074.8725  0.082336209  0.083081261            4 
 2101000   0.92018974   -2.5787504    2074.5508  0.082284263  0.083066128            3 
 2102000   0.91380074   -2.5905509    2078.9476  0.082419426  0.083051449            5 
 2103000   0.92040228    -2.546582    2078.9311  0.082379579   0.08303642            2 
 2104000   0.91598713    -2.581564     2078.358  0.082317727  0.083021315            2 
 2105000   0.90901114    -2.594709    2072.2578  0.082037127  0.083006165            4 
 2106000   0.89434378   -2.5896813    2084.6283  0.082487665  0.082991053            4 
 2107000   0.90887695   -2.6067707    2081.2061  0.082313168  0.082975788            6 
 2108000   0.91181372   -2.5967913    2079.9409  0.082224103  0.082960196            2 
 2109000   0.90176822   -2.5942543    2083.2441  0.082315637  0.082944947            1 
 2110000   0.90853562   -2.5789735    2085.2898  0.082357419  0.082929539            2 
 2111000   0.92799848   -2.6000072    2090.8837  0.082539226  0.082914072            6 
 2112000   0.91980464   -2.5813515    2087.1776  0.082353915  0.082898881            2 
 2113000   0.90233095   -2.5963222    2080.6985  0.082059415  0.082883479            1 
 2114000   0.91477627   -2.5925921    2084.2969  0.082162443  0.082868202            5 
 2115000   0.90642227   -2.5552128    2084.7063   0.08213973  0.082852868            3 
 2116000   0.92295907   -2.5918722    2078.4175   0.08185324  0.082837435            3 
 2117000   0.91820965   -2.5876049    2089.8035  0.082262775  0.082821941            3 
 2118000   0.92236105   -2.5853828    2095.2494  0.082438206  0.082806966            4 
 2119000    0.9035128   -2.5828111    2087.4496  0.082092559  0.082792022            3 
 2120000   0.91349782   -2.6081622    2090.5514  0.082175764  0.082776778            2 
 2121000   0.91777565   -2.5923737    2083.3534  0.081854211  0.082761545            3 
 2122000   0.90979478   -2.5795845    2101.7254  0.082537128  0.082746447            2 
 2123000    0.9449911   -2.5742205    2095.1038  0.082238336  0.082731453            2 
 2124000   0.89112042   -2.5866757    2091.9596  0.082076255  0.082716673            1 
 2125000   0.93286332    -2.591276     2088.671  0.081908667  0.082701789            6 
 2126000   0.89806153   -2.6017534    2085.6821  0.081752984  0.082686662            1 
 2127000   0.90470094   -2.5833533    2105.2873  0.082482657  0.082671863            2 
 2128000   0.91997315   -2.5630833    2098.2444  0.082168093  0.082656903            2 
 2129000   0.91380114   -2.5678305    2107.7709  0.082502383   0.08264212            1 
 2130000   0.91812293   -2.5832406    2103.0243  0.082277945  0.082627799            2 
 2131000   0.89280735   -2.6021103    2104.0598  0.082279831  0.082612846            3 
 2132000   0.92203921   -2.5786122    2096.5907  0.081949292  0.082598053            2 
 2133000   0.90442482   -2.5730504    2101.0493  0.082085062  0.082583406            3 
 2134000   0.91251563   -2.5916388    2101.3704  0.082059136  0.082568755            2 
 2135000   0.90334974   -2.5863442    2100.1148  0.081971693   0.08255398            3 
 2136000   0.91210473    -2.603993    2106.4733  0.082181387  0.082539329            2 
 2137000   0.91436735   -2.5836144    2107.9452  0.082200329  0.082524833            2 
 2138000   0.91544908   -2.5897474    2102.4926  0.081949354  0.082510187            8 
 2139000   0.89848309   -2.5813199    2107.5416  0.082107745  0.082495366            3 
 2140000    0.8985201   -2.5783497    2110.4557  0.082182856   0.08248062            2 
 2141000   0.92400992   -2.5888626    2108.3064  0.082060814  0.082466182            2 
 2142000   0.93516315   -2.5754136    2106.6619  0.081958525  0.082451719            2 
 2143000   0.89888728   -2.5744085     2123.872  0.082589516   0.08243726            4 
 2144000   0.89826843   -2.6002213    2106.8856  0.081890763  0.082422627            2 
 2145000   0.92254297   -2.5993112    2114.7678  0.082158809  0.082407862            4 
 2146000   0.90390988   -2.5954973    2103.1694  0.081670137  0.082393054            5 
 2147000   0.90405155    -2.593497    2103.6869  0.081652184  0.082378341            3 
 2148000   0.92410332   -2.5808904    2120.9968  0.082285723  0.082363814            2 
 2149000    0.9123443   -2.5966602    2118.9827   0.08216933  0.082349216            2 
 2150000   0.91050956   -2.5966225    2108.1652   0.08171183  0.082334763            4 
 2151000   0.90866081    -2.598708    2117.9783  0.082054016  0.082320101            2 
 2152000   0.91734196   -2.5852662    2116.5405  0.081960213  0.082305811            4 
 2153000   0.90312314    -2.590342     2113.814  0.081816613  0.082291693            2 
 2154000   0.91570587   -2.5943685    2111.9482  0.081706444  0.082277167            1 
 2155000   0.92710524   -2.5780052    2125.9192  0.082208785  0.082262757            4 
 2156000   0.90292765   -2.6034838    2115.3858  0.081763522  0.082248125            4 
 2157000   0.91065374   -2.5937122    2116.3241  0.081761864  0.082233548            2 
 2158000   0.90953011   -2.5867596    2118.3056  0.081800494  0.082218774            4 
 2159000   0.91711994    -2.579095    2118.1057  0.081754892  0.082204283            6 
 2160000   0.91512892   -2.6044921    2121.5655  0.081850522  0.082189499            3 
 2161000   0.92348469   -2.6237821    2104.9309  0.081171173  0.082174658            3 
 2162000   0.89878546   -2.5938642    2119.3083    0.0816878  0.082159673            4 
 2163000   0.90909728   -2.5880637    2115.2237  0.081492667  0.082144814            2 
 2164000   0.89289395   -2.5979772    2114.4075  0.081423579  0.082130108            2 
 2165000   0.91991777   -2.5908916    2118.8946  0.081558683  0.082115102            4 
 2166000   0.92726065   -2.5844583    2127.3611  0.081846763  0.082100179            4 
 2167000   0.91284692   -2.6066151    2125.4176  0.081734257  0.082085215            5 
 2168000   0.88140991   -2.5818506    2119.9881  0.081487858  0.082070245            2 
 2169000   0.90894924   -2.5954689    2121.1968  0.081496727  0.082055245            2 
 2170000   0.91110319   -2.6191095    2117.2558  0.081307826  0.082040217            3 
 2171000   0.90074505   -2.5820802    2127.8039  0.081675261  0.082025017            4 
 2172000   0.91256262   -2.5877143    2121.5185  0.081396506  0.082009819            3 
 2173000   0.90899502   -2.5955054    2133.5221  0.081819376  0.081994761            2 
 2174000   0.91794742   -2.5739535    2124.8928  0.081450967  0.081979721            2 
 2175000   0.91130911   -2.5846326    2119.4897    0.0812065  0.081964685            9 
 2176000   0.89670695   -2.6124139    2127.8285  0.081488531  0.081949967            3 
 2177000   0.90996784   -2.6010727    2121.1825  0.081196696   0.08193494            3 
 2178000   0.88711869   -2.5785523    2134.1871  0.081656992  0.081919885            3 
 2179000   0.90740304   -2.6142127    2124.1755  0.081236632  0.081904891            4 
 2180000   0.89412484   -2.6086134    2128.9215  0.081380791   0.08188993            2 
 2181000   0.91746261   -2.5935862    2125.2786  0.081204288   0.08187513            3 
 2182000   0.90656776    -2.586671    2134.3377  0.081513049  0.081860279            3 
 2183000   0.88588083   -2.6043179    2130.0624  0.081312506  0.081845387            3 
 2184000   0.90930476   -2.6105056    2129.3854  0.081249443  0.081830639            1 
 2185000   0.90211198   -2.6106448    2133.6806  0.081376072  0.081815627            3 
 2186000   0.90230864   -2.5851435    2136.4497  0.081444409  0.081800533            2 
 2187000   0.89885185   -2.5816282    2126.1881   0.08101616  0.081785754            7 
 2188000    0.9032506   -2.6209692    2130.9434  0.081160244  0.081770691            2 
 2189000   0.91323107   -2.6098015    2131.0034  0.081125452  0.081755653            2 
 2190000   0.90395849   -2.5987512    2137.6002   0.08133943  0.081740535            4 
 2191000   0.90517604   -2.5917921    2131.7053  0.081078096  0.081725317            4 
 2192000   0.91716593   -2.6000809    2130.5796  0.080998311   0.08171011            3 
 2193000   0.89527049    -2.629522     2132.755  0.081044042  0.081694799            5 
 2194000   0.89200331   -2.5823079    2132.6497  0.081003104  0.081679523            3 
 2195000   0.89212732    -2.611225    2140.7933  0.081275373  0.081664316            2 
 2196000   0.90177607   -2.5861226    2139.0914  0.081173778  0.081649066            1 
 2197000    0.8921104   -2.5932292    2131.9138   0.08086458  0.081633666            3 
 2198000   0.89801706   -2.6053343    2134.8881  0.080940554  0.081618243            2 
 2199000   0.89413933   -2.6134499    2141.7556  0.081163999  0.081602811            2 
 2200000    0.8842529   -2.6165796    2128.0912  0.080609514  0.081587333            2 
 2201000     0.916054   -2.6014302    2131.0489  0.080684874  0.081571835            5 
 2202000   0.89949527   -2.5998241    2138.3909  0.080926085  0.081556377            2 
 2203000   0.89269104   -2.5770185    2138.7616  0.080903375  0.081541097            4 
 2204000   0.88786749   -2.6073939    2137.4209  0.080815977   0.08152546            5 
 2205000     0.899263   -2.5997352    2128.5261  0.080443164   0.08150969            4 
 2206000   0.90566525   -2.6354306    2124.3047  0.080247231  0.081493897            4 
 2207000   0.88513416   -2.6152326    2134.1751  0.080583564  0.081478235            2 
 2208000   0.89495673   -2.5769026    2136.9561  0.080652025  0.081462549            3 
 2209000   0.89521898   -2.6130564    2138.6206  0.080678307   0.08144703            4 
 2210000   0.89925796   -2.6108935     2148.214  0.081003546   0.08143105            3 
 2211000   0.91297557   -2.5899223    2129.5979  0.080265261  0.081415331            1 
 2212000   0.89267576   -2.5928633    2142.1189  0.080700682  0.081399552            2 
 2213000   0.89335881     -2.63879    2135.8392  0.080427747  0.081383568            4 
 2214000   0.87553262   -2.6043465    2138.2078  0.080480569  0.081367617            4 
 2215000   0.89119049   -2.5859758    2150.9175  0.080922402  0.081352045            2 
 2216000   0.90523077   -2.6090174    2141.6659  0.080537978   0.08133638            3 
 2217000   0.89051631   -2.6019335    2148.3714  0.080753697  0.081320739            4 
 2218000   0.90130027    -2.624155    2146.4686  0.080645801  0.081305094            2 
 2219000   0.89668564    -2.625343    2140.3303  0.080378936  0.081289377            4 
 2220000   0.88993893   -2.6015566    2143.1251  0.080447637  0.081273683            4 
 2221000   0.90345994   -2.6043726    2143.5033  0.080425608  0.081258057            5 
 2222000   0.90465827   -2.5953513    2144.0027  0.080408142  0.081242262            4 
 2223000   0.90547343   -2.5909114    2139.3798  0.080198672  0.081226582            2 
 2224000   0.87345452    -2.610431    2138.4453  0.080127596  0.081210925            3 
 2225000   0.87448387   -2.5951325    2148.9429  0.080484753  0.081195306            4 
 2226000   0.90975683   -2.6190927     2145.751  0.080329102  0.081179647            3 
 2227000     0.890943   -2.5998354    2153.5393  0.080584466  0.081163673            2 
 2228000   0.88948077   -2.6313042    2142.9329  0.080151588  0.081147973            2 
 2229000   0.87830087   -2.5698991    2151.6362  0.080441011  0.081132204            2 
 2230000   0.90869287   -2.6064126    2151.1477  0.080386685  0.081116331            3 
 2231000   0.90097125   -2.6016091    2149.4591  0.080287581  0.081100576            3 
 2232000   0.90008947   -2.5922899    2154.4663  0.080438558  0.081084842            2 
 2233000   0.89290624   -2.6338285    2141.5167  0.079919269  0.081069156            5 
 2234000   0.90171071   -2.5979532    2157.8351  0.080492207  0.081053415            2 
 2235000   0.90994805   -2.6176627    2151.8359  0.080232508  0.081037584            2 
 2236000   0.88964652   -2.6100346    2156.4209  0.080367506  0.081021959            3 
 2237000   0.89587557   -2.6019865    2158.8007  0.080420232  0.081006216            2 
 2238000   0.89598588   -2.6035885    2159.6848  0.080417216  0.080990923            3 
 2239000   0.88604988   -2.5911277    2160.1844  0.080399894  0.080975443            2 
 2240000   0.89095057   -2.6193565    2157.1379  0.080250666  0.080959681            3 
 2241000   0.89418316   -2.6124279     2153.202  0.080068496  0.080943865            3 
 2242000   0.90317288   -2.6301338    2147.5378  0.079822249  0.080927988            3 
 2243000   0.90364806   -2.6137496    2165.1743  0.080441903  0.080912527            2 
 2244000   0.91202242   -2.5973793    2161.8769  0.080283603  0.080896861            2 
 2245000   0.87484215    -2.613928    2164.4614  0.080343779  0.080881091            3 
 2246000   0.87910747   -2.6243027    2154.4053  0.079934896  0.080865393            2 
 2247000    0.9037073   -2.6066527    2163.6383  0.080241741  0.080849705            1 
 2248000    0.9039099   -2.6113996    2164.1571  0.080225277  0.080834232            3 
 2249000   0.89480945   -2.5941309    2162.2236  0.080117965   0.08081874            2 
 2250000   0.88828341   -2.6029676    2171.8445  0.080438687  0.080803291            2 
 2251000   0.88017436   -2.5970643     2158.267  0.079900302  0.080787811            2 
 2252000   0.89766863    -2.597024    2161.5399  0.079985936  0.080772227            4 
 2253000   0.87712314    -2.589515    2166.0253  0.080116337  0.080756541            3 
 2254000   0.88724355   -2.6162776    2159.5108  0.079839945  0.080740966            6 
 2255000   0.90445808   -2.6336176     2159.082   0.07978869  0.080725294            2 
 2256000   0.89714468   -2.6120864    2160.9404  0.079821972  0.080709348            3 
 2257000   0.90776832   -2.6005402    2166.5274  0.079992889  0.080693351            1 
 2258000   0.89567851   -2.6038503    2158.4093  0.079657857  0.080677615            2 
 2259000   0.90799571   -2.6136432    2162.8249  0.079785484  0.080661629            3 
 2260000   0.88662242   -2.6114959    2164.5096    0.0798123  0.080645633            3 
 2261000   0.90097741   -2.5991054    2167.4826  0.079886578  0.080629974            6 
 2262000     0.892793   -2.6381662    2159.2014  0.079546175  0.080613984            4 
 2263000    0.8770275    -2.622122    2167.5573  0.079818724  0.080598261            2 
 2264000   0.89979912   -2.6258714    2167.8892  0.079795687  0.080582538            4 
 2265000   0.88916695   -2.6348674    2165.9964  0.079690817  0.080566689            2 
 2266000   0.88803605   -2.6120707    2173.6053  0.079935471   0.08055117            3 
 2267000   0.89252671   -2.6043589     2172.847  0.079872336  0.080535959            2 
 2268000   0.87944093   -2.6115745    2176.4198  0.079968394  0.080520525            1 
 2269000   0.87589442   -2.6206426    2179.6273  0.080050952  0.080505078            3 
 2270000   0.90025421   -2.6342203     2177.358  0.079932381  0.080489874            2 
 2271000    0.8624886   -2.6262273    2169.5059  0.079609051  0.080474287            3 
 2272000   0.89643442   -2.5934581    2173.7769  0.079730666  0.080458789            2 
 2273000   0.87816689   -2.6097314    2183.6693  0.080058267  0.080443409            2 
 2274000   0.88364717   -2.6410781    2173.2426  0.079640963  0.080427942            3 
 2275000   0.89287587   -2.6230415     2180.457  0.079870219  0.080412354            3 
 2276000   0.89662812   -2.6061723    2174.4475  0.079615097  0.080396838            4 
 2277000   0.87840879   -2.6179476    2175.7991  0.079629597  0.080381225            2 
 2278000   0.88690627   -2.5986607    2178.9629  0.079710378  0.080365884            4 
 2279000   0.88086956   -2.6121723    2180.0798  0.079716241  0.080350422            4 
 2280000   0.87895485   -2.6339681    2173.4684  0.079439633  0.080334576            2 
 2281000   0.88545072   -2.6413395    2181.2796  0.079690178  0.080318844            8 
 2282000   0.88996453   -2.5916844    2179.8417  0.079602749  0.080303168            1 
 2283000   0.88402279   -2.6115519    2181.8565  0.079641426  0.080287591            2 
 2284000    0.8943701   -2.6229426    2181.7363  0.079602172  0.080271921            2 
 2285000   0.92340543   -2.6118337    2185.9027   0.07971928   0.08025637            2 
 2286000   0.90339074    -2.597029    2181.0042   0.07950584   0.08024073            4 
 2287000   0.87576647   -2.6093623    2186.3579  0.079666153  0.080224986            3 
 2288000    0.8887728   -2.6135015    2172.5323  0.079127778  0.080209056            3 
 2289000   0.88524865   -2.6352876     2178.614   0.07931462  0.080193245            2 
 2290000   0.87565968   -2.6325109    2188.3089  0.079632783  0.080177432            4 
 2291000   0.89210298   -2.6116485     2190.254  0.079668776  0.080162051            4 
 2292000   0.88306871   -2.6267402    2190.7454  0.079651883  0.080146567            3 
 2293000     0.867006    -2.638298    2181.8987  0.079295634   0.08013065            4 
 2294000   0.87707173   -2.6332902    2186.4102  0.079424956  0.080115212            3 
 2295000    0.8948505   -2.5950059    2193.0348  0.079630891  0.080099859            2 
 2296000   0.89585498   -2.6201821    2188.7873  0.079442046  0.080084294            2 
 2297000   0.88302717   -2.6299327    2193.8987    0.0795929  0.080068717            4 
 2298000   0.87285042    -2.635164    2188.6803  0.079369029   0.08005345            5 
 2299000    0.8785021   -2.6196981    2198.1269  0.079676922  0.080037982            4 
 2300000   0.88312981   -2.6463417    2194.4133  0.079507728  0.080022483            3 
 2301000   0.88838473   -2.6052601    2191.6123  0.079371733  0.080006912            4 
 2302000   0.87701419   -2.6134811    2197.2677  0.079541983  0.079991723            3 
 2303000   0.87859751   -2.6344048    2194.4877   0.07940685  0.079976407            3 
 2304000   0.89681648   -2.6116701    2191.7436  0.079273135  0.079961192            2 
 2305000   0.86625301   -2.6340962    2197.8905  0.079460971  0.079946078            3 
 2306000   0.89585045    -2.609817    2196.8011  0.079387146  0.079931089            2 
 2307000   0.88738158   -2.6355397    2199.3678  0.079445447  0.079915996            4 
 2308000   0.87803768   -2.6217183    2202.5091  0.079524449  0.079901116            2 
 2309000   0.87848432   -2.6239378    2202.4011  0.079486107  0.079886049            3 
 2310000   0.89736731    -2.606394     2195.505  0.079202922  0.079871257            2 
 2311000   0.85704634   -2.6191021    2198.7937  0.079287237  0.079856066            2 
 2312000   0.88940504   -2.6009999    2198.0382  0.079225714  0.079841134            3 
 2313000   0.89315494   -2.6506111    2197.5666   0.07917447  0.079826193            6 
 2314000   0.88944755   -2.6374834    2204.8681  0.079403203  0.079811114            3 
 2315000   0.87135284   -2.6147092    2198.4159  0.079136643  0.079796077            3 
 2316000   0.89860652    -2.630507    2193.0588  0.078909715  0.079781091            2 
 2317000   0.88654631   -2.6533341    2201.5799  0.079182127  0.079766123            2 
 2318000   0.88315332   -2.6033533    2198.3454  0.079031687  0.079750946            4 
 2319000   0.88518451   -2.6240395    2206.4286  0.079288078   0.07973595            4 
 2320000   0.89131778   -2.6374086    2202.6072  0.079116638  0.079720806            5 
 2321000   0.86552138   -2.6320712    2199.8355  0.078983035  0.079705545            3 
 2322000   0.85508529   -2.6061465     2208.072  0.079244615  0.079690377            9 
 2323000   0.88091535   -2.6007164    2213.1007  0.079390901  0.079675528            2 
 2324000   0.86248529   -2.6364514    2208.2638  0.079183297  0.079660632            3 
 2325000   0.88875699   -2.5981453    2209.7452  0.079202338   0.07964557            3 
 2326000   0.90095006   -2.6084828    2219.9508   0.07953392    0.0796307            2 
 2327000   0.88145531   -2.6207921    2210.9001  0.079175621  0.079615773            3 
 2328000   0.88931157   -2.6261296    2215.7867  0.079316533  0.079600891            4 
 2329000   0.88751933    -2.628122    2227.0937  0.079687049  0.079586279            1 
 2330000   0.88069313    -2.617074    2207.0973  0.078937672  0.079571635            6 
 2331000   0.88415189   -2.6066319     2217.078  0.079260619  0.079556598            2 
 2332000   0.87147135   -2.6215818    2216.0012  0.079188152  0.079541732            6 
 2333000   0.85332598   -2.5943705    2211.7076  0.079000843  0.079526836            4 
 2334000   0.88867228   -2.6374431     2210.677  0.078930198  0.079511905            3 
 2335000    0.8821674   -2.6311461    2218.9359  0.079191146  0.079496962            3 
 2336000   0.87721891   -2.6229465    2223.0883  0.079305377  0.079481867            3 
 2337000   0.87929004   -2.6387067    2213.6368  0.078934419  0.079466906            3 
 2338000   0.89486076   -2.6248674     2212.117  0.078846486  0.079451889            3 
 2339000   0.87349478   -2.6421712      2219.27  0.079067623  0.079437007            3 
 2340000   0.86322908   -2.6188887    2213.8187  0.078839698   0.07942198            4 
 2341000   0.87483906   -2.6389207    2224.4089  0.079183002  0.079407032            6 
 2342000   0.87681205   -2.6348824    2217.8349  0.078915276  0.079392055            2 
 2343000   0.87452473   -2.6382217    2214.3318  0.078756998   0.07937682            1 
 2344000    0.8863663   -2.6197103    2229.1461  0.079250075  0.079361806            2 
 2345000   0.86952588   -2.6417335    2211.5239  0.078590045  0.079346698            7 
 2346000   0.88271576   -2.6321054    2214.8829  0.078675862  0.079331673            3 
 2347000    0.8685863   -2.6403564    2220.6799  0.078848172  0.079316778            4 
 2348000    0.8621032   -2.6285958     2214.514  0.078595754  0.079301686            2 
 2349000   0.87340035   -2.6285949    2225.4358   0.07894976  0.079286614            3 
 2350000   0.88210592   -2.6424477    2222.9272  0.078827204   0.07927142            2 
 2351000   0.87922338   -2.6491674    2212.4202  0.078421248  0.079256299            5 
 2352000   0.90833304   -2.6180819    2222.8299  0.078756728  0.079241385            2 
 2353000   0.87906177   -2.6375578    2224.8563  0.078795024  0.079226611            4 
 2354000   0.86540215   -2.5941182    2224.1233  0.078735604  0.079211564            3 
 2355000    0.8822332   -2.6311874    2223.8535  0.078692623  0.079196591            2 
 2356000    0.8582304   -2.6081315    2232.0324  0.078948513  0.079181585            2 
 2357000   0.87012302   -2.6216892    2223.1409  0.078600653  0.079166587            4 
 2358000   0.84874185   -2.6359973    2219.9543  0.078454703  0.079151719            2 
 2359000   0.87895746   -2.6345751    2226.0837  0.078637973   0.07913699            2 
 2360000   0.88289194   -2.6228592    2229.1202   0.07871187  0.079122041            3 
 2361000   0.88041413   -2.6373865    2231.0744  0.078747508  0.079107197            4 
 2362000   0.86783455   -2.6169756    2232.6848  0.078770986  0.079092371            3 
 2363000   0.84962325   -2.6408264     2221.149  0.078330828  0.079077531            3 
 2364000    0.8781566   -2.6537944    2233.2144  0.078723013  0.079062669            4 
 2365000   0.87389731   -2.6209034    2227.5838  0.078491327  0.079047765            4 
 2366000   0.88968814   -2.6364878    2239.7759   0.07888757  0.079032771            5 
 2367000   0.86201715   -2.6178814    2225.7661  0.078361009  0.079017708            3 
 2368000    0.8751595   -2.6314897    2237.4371  0.078738637  0.079002747            3 
 2369000   0.86672909   -2.6301006    2228.9502  0.078406858  0.078987492            4 
 2370000   0.85537198   -2.6291561    2235.5146  0.078604591  0.078972528            6 
 2371000   0.87008322   -2.6397221    2221.4619   0.07807753   0.07895726            2 
 2372000   0.88121274   -2.6413344    2232.0668  0.078417185  0.078942062            3 
 2373000   0.86571467   -2.6418936    2226.7589  0.078197742  0.078926795            3 
 2374000   0.84942141   -2.6433767    2225.6812  0.078126973  0.078911544            2 
 2375000   0.87266111   -2.6550859    2227.6393  0.078162781  0.078896292            5 
 2376000   0.88049454   -2.6369098    2236.7422  0.078449152  0.078880901            2 
 2377000   0.88940757   -2.6380474    2228.1988  0.078116632  0.078865664            8 
 2378000   0.85994504   -2.6397408    2239.8275  0.078491291  0.078850538            5 
 2379000   0.86565456   -2.6361726    2233.1612  0.078224786  0.078835337            3 
 2380000   0.88537585   -2.6316319    2237.6879  0.078350416  0.078820065            7 
 2381000   0.88569707   -2.6611198    2228.3712  0.077991431  0.078804821            7 
 2382000    0.8668925    -2.645796     2242.965  0.078469249  0.078789815            4 
 2383000     0.862206   -2.6365602    2234.1311    0.0781274  0.078774607            3 
 2384000   0.86158995   -2.6521513    2235.1352  0.078129727  0.078759411            4 
 2385000   0.86050775   -2.6266833    2228.7373  0.077873421  0.078744079            5 
 2386000   0.89428915   -2.6454743     2233.547  0.078008767  0.078728991            5 
 2387000   0.83894006   -2.6285475    2241.3694  0.078249177  0.078713894            2 
 2388000   0.88379962   -2.6567565    2235.8462  0.078023668  0.078698506            5 
 2389000    0.8698619    -2.611283    2239.2026  0.078108084  0.078683263            2 
 2390000   0.87149272   -2.6502643    2239.1535  0.078073692  0.078668029            3 
 2391000   0.84117413   -2.6327013    2233.1604  0.077832163  0.078652819            3 
 2392000   0.86776583   -2.6355733    2235.8198  0.077892271  0.078637449            2 
 2393000    0.8666357   -2.6300326    2245.1684  0.078185277  0.078622218            2 
 2394000   0.87172642   -2.6259828    2239.0055  0.077938092  0.078606937            3 
 2395000   0.86683003   -2.6234626    2235.8577  0.077796024  0.078591612            3 
 2396000   0.85767488   -2.6584094     2246.928  0.078148582  0.078576367            3 
 2397000   0.87129623   -2.6558506    2237.2199  0.077778469  0.078560997            2 
 2398000   0.88209033   -2.6388708    2248.7256  0.078145872  0.078545582            3 
 2399000   0.84859834   -2.6488991    2243.7967  0.077942082  0.078530214            3 
 2400000   0.86239116   -2.6586659    2253.0541  0.078231046   0.07851482            5 
 2401000   0.88562233   -2.6386845    2252.7221  0.078186939  0.078499756            3 
 2402000   0.85423277   -2.6201451    2248.8763  0.078020966  0.078484636            2 
 2403000   0.87063642   -2.6474751    2256.3621  0.078248096    0.0784696            2 
 2404000   0.87175802   -2.6385048    2248.3263  0.077936989   0.07845466            2 
 2405000   0.86411186   -2.6171321    2259.6064  0.078295441  0.078439449            2 
 2406000   0.86378992   -2.6211828    2251.4307  0.077979728  0.078424426            4 
 2407000   0.84990414   -2.6479845    2255.7086  0.078095437  0.078409329            4 
 2408000   0.88904663   -2.6221526    2252.4952  0.077951799   0.07839419            4 
 2409000   0.86897328   -2.6275457    2252.4876  0.077919178  0.078378878            2 
 2410000   0.88008187   -2.6432865    2251.4753  0.077851842  0.078363581            4 
 2411000   0.85553733   -2.6337003    2249.1664  0.077739748  0.078348376            4 
 2412000    0.8739884   -2.6351916    2258.0462   0.07801431  0.078333141            3 
 2413000   0.85079471   -2.6319494    2253.9618  0.077840925  0.078317987            2 
 2414000    0.8886845   -2.6264107    2257.4619  0.077929505  0.078302668            2 
 2415000    0.8559592   -2.6580071    2246.2762  0.077511255  0.078287462            4 
 2416000     0.847808   -2.6487462    2254.0467  0.077747196  0.078272053            1 
 2417000   0.87862796   -2.6486625    2238.6963  0.077185777  0.078256693            3 
 2418000   0.85139629   -2.6296008    2258.0159  0.077819683  0.078241228            2 
 2419000   0.86578442   -2.6381691    2254.0239  0.077649991  0.078226128            3 
 2420000   0.87947224   -2.6389415    2258.4851  0.077771524  0.078210939            2 
 2421000   0.86408868   -2.6466535      2261.69  0.077849719   0.07819605            2 
 2422000   0.88597317   -2.6358117     2257.515  0.077673928  0.078180739            1 
 2423000    0.8788174   -2.6366686    2251.1992  0.077424652  0.078165586            3 
 2424000   0.87527498   -2.6502364     2263.196  0.077805143  0.078150277            4 
 2425000   0.86055252   -2.6282793    2253.5457  0.077441432  0.078134987            6 
 2426000   0.85374426   -2.6655772    2247.3265   0.07719588  0.078119664            2 
 2427000   0.86081868   -2.6549481    2254.1143  0.077397141  0.078104068            2 
 2428000   0.85943799   -2.6385512    2258.8768  0.077528719  0.078088919            3 
 2429000   0.85295721   -2.6587066    2249.7184  0.077182598  0.078073797            2 
 2430000   0.87104679   -2.6387314    2261.9107  0.077568953  0.078058414            3 
 2431000   0.86473782   -2.6439413    2266.4356  0.077692156  0.078043226            4 
 2432000   0.86391279   -2.6417454    2257.9809  0.077370508  0.078027929            2 
 2433000   0.86094912   -2.6646211    2261.1141  0.077446023  0.078012657            2 
 2434000   0.88695559   -2.6365628    2264.6306  0.077534602  0.077997191            4 
 2435000   0.86443745   -2.6351975    2258.1149  0.077279771  0.077981726            2 
 2436000   0.85533026   -2.6373212    2260.3043  0.077322944  0.077966464            5 
 2437000    0.8777012    -2.656278    2263.8838  0.077413616  0.077951204            4 
 2438000   0.85343768   -2.6409693     2268.242   0.07753083  0.077935781            3 
 2439000   0.85745945   -2.6399657    2260.5997  0.077237927  0.077920427            4 
 2440000   0.83806574   -2.6624158    2263.5053   0.07730551  0.077905065            3 
 2441000   0.86832187   -2.6385079    2259.0643   0.07712223  0.077889991            8 
 2442000   0.86860954   -2.6578987    2268.3482   0.07740746  0.077874605            2 
 2443000   0.87159761    -2.654766    2262.7833  0.077185948  0.077859315            2 
 2444000   0.86554971   -2.6659203    2271.8051  0.077461986   0.07784414            3 
 2445000   0.86038212    -2.655007    2267.9892  0.077300244  0.077829076            3 
 2446000   0.87586814   -2.6651463    2270.3879  0.077350363  0.077813793            1 
 2447000   0.85870614   -2.6246662    2265.5867  0.077155248  0.077798608            2 
 2448000   0.84890269   -2.6649701    2265.7494  0.077129269  0.077783175            5 
 2449000   0.85428037   -2.6706929    2268.5077  0.077191633   0.07776792            3 
 2450000   0.84424549   -2.6506365    2258.4177  0.076816928  0.077752531            3 
 2451000   0.84619672   -2.6310491    2270.1596  0.077184809  0.077737113            5 
 2452000   0.85760345   -2.6403846    2265.6452  0.076999905  0.077721959            4 
 2453000   0.85656181   -2.6713154    2268.4083  0.077062382  0.077706609            2 
 2454000   0.84245854   -2.6612537    2279.5038  0.077407762  0.077691356            2 
 2455000   0.85452978   -2.6370851     2281.178  0.077433061   0.07767616            6 
 2456000   0.85422945    -2.643957    2263.5801  0.076804429   0.07766081            5 
 2457000   0.85622734     -2.66909    2275.7325  0.077185339  0.077645471            4 
 2458000   0.85468826   -2.6301414    2270.9149  0.076990606  0.077630109            5 
 2459000   0.85987557   -2.6418273    2272.5223  0.077013769  0.077614813            4 
 2460000   0.85043617   -2.6423505     2279.571   0.07722124  0.077599592            2 
 2461000   0.86281223   -2.6443117    2271.3195  0.076910453  0.077584022            3 
 2462000   0.84814357   -2.6399226    2279.4625  0.077154836  0.077568675            1 
 2463000   0.84680619   -2.6436978    2266.6236   0.07668912  0.077553135            4 
 2464000   0.85330289   -2.6420539    2268.1817  0.076710689  0.077537667            4 
 2465000   0.84459826   -2.6380361    2283.6634  0.077202954  0.077522239            2 
 2466000   0.83920219   -2.6582337    2281.9318  0.077113133   0.07750691            4 
 2467000   0.86319489   -2.6609731    2267.7308  0.076602176  0.077491643            3 
 2468000   0.84235423   -2.6662615    2276.4365  0.076865089  0.077476269            2 
 2469000   0.85121059   -2.6619732    2269.5968  0.076603105  0.077460869            2 
 2470000   0.86332272   -2.6590009    2284.2399  0.077066125  0.077445571            3 
 2471000   0.87806124   -2.6734438    2281.5548   0.07694438  0.077430277            3 
 2472000   0.84365458   -2.6531563    2273.0825  0.076627645  0.077414886            5 
 2473000   0.83655306   -2.6270788    2276.6994  0.076718541  0.077399479            2 
 2474000   0.84472459   -2.6539102    2276.2206  0.076671401  0.077384095            3 
 2475000   0.84586873   -2.6329394    2290.7234  0.077128736  0.077368965            3 
 2476000    0.8433739   -2.6450663    2278.2284  0.076677048  0.077353737            2 
 2477000   0.84754726    -2.659707    2274.8077  0.076531007  0.077338377            3 
 2478000   0.85916611   -2.6388557    2286.7484   0.07690168  0.077323126            3 
 2479000   0.83767831   -2.6578568    2282.9496   0.07674296  0.077307846            4 
 2480000   0.84420016   -2.6443758    2283.4791  0.076729807  0.077292625            3 
 2481000   0.85086119   -2.6690998    2284.3197  0.076727115  0.077277255            3 
 2482000   0.85493904   -2.6577305    2297.0155  0.077122465  0.077261783            2 
 2483000   0.86050946   -2.6522117    2287.3136  0.076765793  0.077246616            4 
 2484000   0.86213824   -2.6802398    2289.4592  0.076806871  0.077231183            2 
 2485000   0.85052933   -2.6838139    2280.6251  0.076479713  0.077215944            2 
 2486000   0.82043506   -2.6497193    2286.5537  0.076647684  0.077200715            2 
 2487000   0.84815458   -2.6653202    2286.5411  0.076616442  0.077185325            2 
 2488000   0.82988507   -2.6767505    2289.8999  0.076698149  0.077169835            5 
 2489000   0.83923778   -2.6468973    2285.4908  0.076519714   0.07715443            5 
 2490000   0.85293476   -2.6440305    2285.2133  0.076479696    0.0771391            4 
 2491000   0.85680876   -2.6477066    2291.3238  0.076653411  0.077123616            2 
 2492000   0.84342041   -2.6613113    2286.3309  0.076455689  0.077108292            4 
 2493000    0.8478774   -2.6554427    2288.5089  0.076497824  0.077092946            5 
 2494000    0.8583909   -2.6678917    2296.1668  0.076723029   0.07707761            3 
 2495000   0.86015271    -2.666752    2290.6176  0.076506935  0.077062232            1 
 2496000   0.83668507   -2.6488099    2293.8922  0.076585611  0.077046946            3 
 2497000   0.87027262   -2.6382761    2296.0538  0.076627078  0.077031693            4 
 2498000   0.86451486   -2.6820366    2288.4952  0.076344248  0.077016327            4 
 2499000   0.87345702   -2.6581808    2286.8343  0.076258312  0.077001044            2 
 2500000   0.85257294   -2.6692374    2288.1635  0.076272115   0.07698564            2 
 2501000   0.82441885   -2.6812597    2290.5285   0.07632042   0.07697024            3 
 2502000   0.87725914   -2.6785602      2289.85  0.076267319  0.076954895            8 
 2503000   0.84318541    -2.654744    2291.1015  0.076278516  0.076939508            2 
 2504000   0.85431145   -2.6824485     2294.956   0.07637633  0.076924314            3 
 2505000    0.8478779   -2.6824977     2293.478  0.076296675  0.076909026            5 
 2506000   0.84792695   -2.6582745     2301.009   0.07651666  0.076893764            1 
 2507000   0.85443472   -2.6597688    2302.2378  0.076526983  0.076878642            5 
 2508000    0.8632353   -2.6598093     2298.449  0.076370582  0.076863282            2 
 2509000   0.84126809   -2.6803892    2287.4615  0.075975205  0.076847757            3 
 2510000   0.86377816   -2.6388971    2296.1573  0.076233643  0.076832407            5 
 2511000   0.87862239   -2.6331134     2307.114  0.076566904  0.076817138            3 
 2512000    0.8453897   -2.6445406    2299.8694  0.076296094  0.076801869            2 
 2513000   0.84850863   -2.6681888     2294.556  0.076089533  0.076786574            2 
 2514000   0.84341581   -2.6588117    2307.6634  0.076493749  0.076771331            4 
 2515000   0.83465292   -2.6670521    2300.9715  0.076241601  0.076756064            4 
 2516000   0.82761344   -2.6513083     2305.284  0.076354134  0.076740477            3 
 2517000   0.85459088     -2.68847     2294.586  0.075969607  0.076725033            4 
 2518000   0.85755357   -2.6601927    2303.1434  0.076222645  0.076709506            2 
 2519000   0.84662135   -2.6629283    2289.9178  0.075754856  0.076693947            4 
 2520000   0.87246009   -2.6611442    2307.4508   0.07630459  0.076678451            2 
 2521000   0.85424681   -2.6356132     2298.778  0.075987636  0.076663264            5 
 2522000   0.85191221   -2.6619457    2296.4097  0.075879253  0.076647986            4 
 2523000    0.8361937    -2.659132    2297.6047  0.075888648    0.0766324            3 
 2524000   0.83573249   -2.6529351    2304.3652  0.076081788  0.076616727            7 
 2525000   0.85505224   -2.6639663    2302.7062  0.075996905  0.076601214            2 
 2526000   0.85366002   -2.6626205    2293.2275  0.075654115  0.076585914            2 
 2527000   0.85608709   -2.6420507    2309.0348  0.076145456  0.076570488            5 
 2528000   0.84091243   -2.6628897     2302.709   0.07590681  0.076554845            4 
 2529000    0.8203959   -2.6518828    2304.9336  0.075950098  0.076539419            3 
 2530000   0.82421496   -2.6680742    2299.6007  0.075744424   0.07652392            5 
 2531000   0.84045938   -2.6559745      2305.65  0.075913669  0.076508333            4 
 2532000   0.85554805    -2.642525    2308.9482  0.075992239  0.076492986            3 
 2533000     0.842146   -2.6874063    2302.8006  0.075759988  0.076477247            3 
 2534000   0.84674159   -2.6571148    2302.2372  0.075711563  0.076461865            4 
 2535000   0.85318633   -2.6809807     2312.367  0.076014693  0.076446736            3 
 2536000   0.83916693   -2.6468682     2305.069  0.075744906  0.076431427            1 
 2537000   0.83568168   -2.6687132    2309.2724   0.07585312  0.076416054            5 
 2538000   0.85882541   -2.6321927    2309.6208  0.075834673  0.076400733            6 
 2539000    0.8497336   -2.6799395    2311.0497  0.075851702  0.076385245            3 
 2540000   0.86188462   -2.6648766    2309.7614  0.075779575  0.076369994            9 
 2541000   0.85421024     -2.66317    2311.9895  0.075822823  0.076354643            3 
 2542000   0.84873067   -2.6565132    2311.9946  0.075793162  0.076339413            5 
 2543000   0.84459868   -2.6584888    2305.5317  0.075551569   0.07632412            3 
 2544000   0.83788539   -2.6856227    2312.2852  0.075743095   0.07630865            3 
 2545000   0.82587067   -2.6747663    2312.0208  0.075704677  0.076293333            2 
 2546000   0.84557074     -2.65016    2324.2898  0.076076518  0.076278036            4 
 2547000   0.84282637   -2.6540621    2308.8106  0.075540196  0.076262827            2 
 2548000   0.81826475   -2.6501377    2318.1624  0.075816405  0.076247531            3 
 2549000   0.83827488   -2.6748988    2314.0784  0.075653146  0.076232174            3 
 2550000   0.84822754   -2.6646755    2318.6569  0.075773103  0.076217115            2 
 2551000   0.84478905   -2.6712788    2312.7543  0.075550577  0.076201748            1 
 2552000   0.84426432    -2.663154    2313.2953  0.075538638  0.076186444            2 
 2553000   0.85605281   -2.6858071    2312.2072  0.075473533  0.076171185            3 
 2554000   0.83723578    -2.661722    2317.3284  0.075611079  0.076155723            4 
 2555000   0.83978202   -2.6622667    2319.6225   0.07565631  0.076140254            3 
 2556000   0.82860935   -2.6471634     2323.222  0.075744065  0.076124968            2 
 2557000   0.85497926   -2.6927331    2315.1043  0.075449886  0.076109707            2 
 2558000   0.84476971   -2.6706277    2318.8695  0.075543052  0.076094456            3 
 2559000    0.8433035   -2.6575061    2316.3605  0.075431826  0.076079212            2 
 2560000   0.84330948   -2.7012686    2323.4855  0.075634295  0.076064187            3 
 2561000   0.85410736   -2.6519377    2321.2973  0.075533558  0.076049149            3 
 2562000    0.8469914   -2.6656277     2314.166  0.075272118  0.076034003            5 
 2563000   0.84316518   -2.6729604    2324.5104  0.075579088  0.076018783            4 
 2564000   0.84352059   -2.6862916    2329.0458  0.075697016  0.076003586            3 
 2565000   0.84389246   -2.6585966    2327.0919  0.075604024  0.075988515            3 
 2566000   0.84176378   -2.6994163    2324.4201  0.075487793  0.075973418            3 
 2567000   0.86629635   -2.6511262    2322.0129  0.075380239  0.075958362            3 
 2568000   0.80545978   -2.6822302    2321.6671  0.075339665  0.075943301            3 
 2569000   0.82180551   -2.7009367    2326.4079   0.07546412  0.075928215            4 
 2570000   0.85279748   -2.6814935    2324.8693  0.075384869  0.075913129            2 
 2571000   0.85534022    -2.661763    2335.7543  0.075708358   0.07589808            1 
 2572000    0.8439947   -2.6897472    2333.9154  0.075619344  0.075883116            4 
 2573000   0.83518542   -2.6678908     2328.694  0.075420844  0.075868173            2 
 2574000   0.83908981     -2.68151    2326.1863  0.075310358  0.075853258            2 
 2575000   0.86812532   -2.6771819     2327.093  0.075310452  0.075838353            4 
 2576000   0.83623252   -2.6653155    2327.5631  0.075296424  0.075823033            3 
 2577000   0.84343121   -2.6602098    2331.2212  0.075385498  0.075807843           11 
 2578000   0.84202483    -2.671486    2328.0208  0.075252807  0.075792877            3 
 2579000     0.838135    -2.682985    2334.4598  0.075431684  0.075777526            4 
 2580000   0.83282348    -2.667165    2328.2773  0.075202755  0.075762442            3 
 2581000   0.83901832   -2.6623107    2335.8826  0.075419174  0.075747403            2 
 2582000   0.83658644   -2.6757556    2328.8501  0.075162992  0.075732478            3 
 2583000   0.84521431   -2.6929965    2327.6372  0.075094761  0.075717433            6 
 2584000    0.8438519   -2.6834923    2336.6955  0.075357828  0.075702382            7 
 2585000   0.84724837   -2.6859995    2334.9903  0.075273702  0.075687394            4 
 2586000   0.82787837   -2.6662207     2342.224  0.075477701  0.075672558            4 
 2587000   0.81469839   -2.7043504     2335.414  0.075229157  0.075657546            4 
 2588000   0.85539142   -2.6594694    2329.6097  0.075013192  0.075642521            4 
 2589000   0.83146888   -2.6675665    2341.6787  0.075372688  0.075627284            1 
 2590000   0.82737889   -2.6834286    2326.8307  0.074865853  0.075612183            5 
 2591000   0.86389119    -2.657986    2333.9374  0.075065528   0.07559702            4 
 2592000   0.83861282   -2.6714847    2332.1189  0.074978101  0.075581943            3 
 2593000   0.83892863   -2.6551747    2352.2945  0.075597588  0.075566894            3 
 2594000   0.83547314   -2.6734052    2337.2344   0.07508463  0.075551729            3 
 2595000   0.84047819   -2.6987042    2336.5452  0.075033565  0.075536646            3 
 2596000   0.83574415    -2.681033    2342.7067  0.075202451  0.075521608            4 
 2597000   0.83283794   -2.6776304    2345.9634  0.075277994  0.075506542            5 
 2598000   0.83077648    -2.649842    2341.5119  0.075106232  0.075491675            2 
 2599000   0.82319627   -2.6580512    2344.7976  0.075182686   0.07547659            4 
 2600000   0.83716914   -2.6862933    2339.9834  0.074999467  0.075461327            4 
 2601000   0.82984694   -2.6832909    2342.5804  0.075053839  0.075446313            3 
 2602000   0.82957579   -2.6841772    2344.6002  0.075089681  0.075431149            2 
 2603000   0.81882891   -2.6732495    2345.2737  0.075082396  0.075416203            2 
 2604000   0.82866107   -2.6785787    2344.4061  0.075025798  0.075401054            4 
 2605000   0.83258381   -2.6692503    2346.5086  0.075064255  0.075386059            2 
 2606000    0.8424346   -2.6606152    2350.7528  0.075171168  0.075370988            4 
 2607000   0.85441279   -2.6809697    2344.6231  0.074946397  0.075356037            3 
 2608000   0.82673175    -2.684836    2346.0948  0.074964686  0.075341042            4 
 2609000   0.84809435   -2.7109081    2348.0568  0.074998621   0.07532592            2 
 2610000   0.83752999   -2.6620179     2344.385  0.074852649  0.075310938            3 
 2611000   0.83545383   -2.6985512    2349.8694  0.074999023  0.075296034            8 
 2612000   0.82487132   -2.6857787    2338.6483   0.07461231  0.075280897            2 
 2613000   0.82787873   -2.6863652     2344.019  0.074755039  0.075265757            2 
 2614000   0.84691234   -2.6776923    2360.6552  0.075256797   0.07525062            3 
 2615000    0.8329068   -2.6786747    2342.6855   0.07465537  0.075235525            4 
 2616000   0.83636442   -2.7039693    2344.9998  0.074700554  0.075220336            5 
 2617000   0.82536419    -2.684578    2348.0372  0.074768731  0.075205401            4 
 2618000   0.83284204   -2.6791531    2347.4604  0.074721812  0.075190523            4 
 2619000   0.83082608   -2.6946202    2348.7273  0.074733591   0.07517559            2 
 2620000   0.83484308   -2.6704658    2348.5197  0.074698463  0.075160514            2 
 2621000   0.83011811    -2.702512    2352.1139  0.074784241  0.075145293            2 
 2622000   0.84297721   -2.6895337     2347.056  0.074594967  0.075130184           10 
 2623000   0.81136611   -2.6766377    2353.7321   0.07477863  0.075114905            3 
 2624000   0.83764687   -2.6555921    2349.7773  0.074624532  0.075099738            2 
 2625000   0.82437347   -2.6951888    2351.7945  0.074660143  0.075084391            2 
 2626000   0.81361738   -2.6832504    2353.3537  0.074681192  0.075069142            2 
 2627000   0.84290728   -2.7001459    2350.7514  0.074570214  0.075054075            4 
 2628000   0.84063497   -2.7071087    2357.2594  0.074748204  0.075038814            2 
 2629000   0.82154492   -2.7003151    2350.3695  0.074501379  0.075023659            2 
 2630000   0.84974559   -2.6716906    2346.5392  0.074351687  0.075008531            6 
 2631000   0.83450298   -2.6798748     2352.505  0.074512384  0.074993335            4 
 2632000   0.84003918   -2.6901005    2362.3279  0.074795084  0.074978109            3 
 2633000   0.81848944   -2.6859868    2360.5306  0.074709793  0.074963054            3 
 2634000   0.84068965   -2.6763603    2356.5875  0.074556678  0.074947921            2 
 2635000   0.83354971   -2.6829669    2357.1018  0.074544648  0.074932718            2 
 2636000   0.81692567    -2.667205     2355.942  0.074479705  0.074917689            1 
 2637000   0.81787519   -2.6802453    2355.1943  0.074427831  0.074902464            1 
 2638000    0.8250275   -2.7023162    2360.4348  0.074565162  0.074887255           10 
 2639000   0.82019307   -2.6760255    2365.3654  0.074692606  0.074872192            2 
 2640000   0.83609456   -2.6935274    2359.6098  0.074482633  0.074857243            3 
 2641000   0.82049745   -2.6633207    2367.3952   0.07470009  0.074842272            2 
 2642000   0.83384472   -2.7065116    2360.0994  0.074441692  0.074827177            2 
 2643000   0.82992284   -2.7056458    2355.9807  0.074283664  0.074812166            3 
 2644000   0.83590858   -2.6894393     2358.071  0.074321451  0.074797117            2 
 2645000   0.81272178   -2.6806019    2361.8552  0.074412577  0.074782033            3 
 2646000   0.83436627   -2.6669379    2351.7956  0.074067636  0.074766926            4 
 2647000   0.83059447   -2.6806015    2361.3122  0.074339257  0.074751651            3 
 2648000   0.82475689   -2.6956509    2367.9537  0.074520194  0.074736763            6 
 2649000   0.83201513   -2.6722982    2368.1676  0.074498792  0.074721818            2 
 2650000   0.81832829   -2.6851401    2363.4688  0.074322917  0.074706835            4 
 2651000   0.81270199   -2.6791113    2365.8274  0.074369026  0.074692059            2 
 2652000   0.82036163   -2.6959066    2361.1158   0.07419293  0.074677082            2 
 2653000   0.80345151   -2.6667908    2364.1811  0.074261249  0.074662191            2 
 2654000   0.83883971   -2.6853399    2362.4686  0.074179496  0.074647272            3 
 2655000   0.82292889   -2.6852373    2370.0598  0.074389825   0.07463237            4 
 2656000   0.84206139   -2.6937742     2367.665  0.074286679  0.074617596            4 
 2657000   0.84343196   -2.7023072    2370.3782  0.074343815  0.074602761            3 
 2658000   0.81320983   -2.6655455    2367.0377  0.074211115  0.074587764            2 
 2659000   0.81394948    -2.693246    2368.5895  0.074231839  0.074572811            3 
 2660000   0.83097061   -2.6752911    2363.5145   0.07404494  0.074558017            2 
 2661000   0.82795582   -2.7090504    2372.1605  0.074287877  0.074543173            2 
 2662000   0.83782572   -2.6863161    2367.8923  0.074126355  0.074528338            3 
 2663000   0.81222894   -2.6855586    2375.2054   0.07432737    0.0745136            3 
 2664000   0.83428558   -2.6769346    2375.5977  0.074311741  0.074498628            3 
 2665000   0.83943283   -2.6760271    2379.8735  0.074417558  0.074483814            2 
 2666000   0.81715734   -2.6897416     2369.658  0.074070329  0.074469006            5 
 2667000     0.824742   -2.6975204    2376.8515  0.074267325   0.07445429            5 
 2668000    0.8215775   -2.6631671     2381.054  0.074370753  0.074439388            2 
 2669000   0.82154088   -2.6772637     2375.511  0.074169819  0.074424587            2 
 2670000   0.80258255   -2.6654998    2381.5538  0.074330642  0.074409883            3 
 2671000   0.81199115   -2.6995585    2371.7166    0.0739959  0.074395023            3 
 2672000   0.81713952   -2.7131654    2375.1675  0.074075833  0.074380152            4 
 2673000   0.84420909   -2.6830011    2369.9614  0.073885814  0.074365387            3 
 2674000   0.81625336   -2.6948119    2375.0264   0.07401603  0.074350457            3 
 2675000   0.82223432   -2.6960584    2376.7396  0.074041732  0.074335611            5 
 2676000   0.82788908   -2.6931501    2375.7471  0.073983157  0.074320864            2 
 2677000   0.82391502   -2.7121898    2378.0217  0.074026325  0.074306063            2 
 2678000    0.8064163   -2.7209205    2372.1255  0.073815207   0.07429116            3 
 2679000   0.83641649    -2.690776    2371.1816  0.073758292  0.074276356            4 
 2680000   0.81098791    -2.692717    2378.7676  0.073966654  0.074261588            6 
 2681000    0.8344234   -2.6837255    2378.2953  0.073924385  0.074246732            6 
 2682000   0.82089411   -2.7110391    2379.1821  0.073924374  0.074232032            9 
 2683000   0.82795251     -2.70753    2382.6562  0.074004726  0.074217386            3 
 2684000   0.82749672   -2.6966648    2384.1421   0.07402329  0.074202682            3 
 2685000   0.82688031   -2.7011651    2376.9664  0.073773009  0.074188003           10 
 2686000   0.81506862   -2.6923402    2388.5825  0.074105936  0.074173225            5 
 2687000   0.82430229   -2.6761916    2372.9658  0.073594026  0.074158393            2 
 2688000    0.8161181    -2.690764    2381.5796  0.073833692  0.074143671            3 
 2689000   0.83214505   -2.6954578    2382.0509  0.073820841  0.074128855            3 
 2690000   0.81696062   -2.6790574     2376.562  0.073623359  0.074114093            4 
 2691000   0.80553648   -2.6809312    2391.9633  0.074072937  0.074099376            5 
 2692000   0.84004656   -2.6927446    2386.1849  0.073866546  0.074084659            3 
 2693000   0.83365574   -2.7163713    2384.0856  0.073774155  0.074069959            6 
 2694000   0.79572441   -2.6971736    2384.7544   0.07376746  0.074055122            2 
 2695000   0.82251916   -2.6863205    2380.7308   0.07361567  0.074040296            4 
 2696000   0.82157636   -2.6888334    2387.8703  0.073809048  0.074025566            3 
 2697000   0.82980604   -2.6972194     2393.789  0.073964559  0.074010917            3 
 2698000   0.81887444    -2.692658    2385.9902  0.073696263  0.073996169            4 
 2699000   0.79960562   -2.6791394    2386.5942  0.073687605  0.073981443            4 
 2700000   0.82618939   -2.7040632    2390.4594   0.07377961  0.073966774            5 
 2701000   0.82035613    -2.697863    2389.5505  0.073724254  0.073952149            1 
 2702000   0.82779567   -2.6980259    2386.7541  0.073610722  0.073937454            2 
 2703000   0.81659136   -2.7033317    2394.4106  0.073819538  0.073922639            2 
 2704000   0.82026989   -2.6959972    2394.9196  0.073807926  0.073907831            2 
 2705000    0.8018672   -2.6712949     2394.376  0.073763893  0.073893239            5 
 2706000   0.81810441   -2.7098594    2381.1585  0.073329591  0.073878549            4 
 2707000   0.82467206   -2.7127589    2396.2896  0.073768306  0.073863798            3 
 2708000   0.81423661   -2.6828561    2391.8741  0.073605185  0.073849006            3 
 2709000   0.81898551   -2.7057656    2396.6936   0.07372627  0.073834208            4 
 2710000   0.81130889   -2.6950819     2399.698  0.073791451  0.073819487            3 
 2711000   0.82404196   -2.6810526    2399.8596  0.073769201  0.073804675            2 
 2712000   0.83462832   -2.7201506    2384.7858  0.073278817  0.073789958            3 
 2713000    0.8234487   -2.7213298    2397.3398  0.073637419  0.073775194            6 
 2714000   0.81637266   -2.7190545    2392.0742  0.073448605  0.073760555            5 
 2715000   0.80939915   -2.7043841     2387.129  0.073269765  0.073745923            5 
 2716000    0.8189492   -2.7231528    2393.3869  0.073434797  0.073731143            4 
 2717000   0.84050496   -2.7092906    2397.9595  0.073548016  0.073716416            5 
 2718000   0.80516027    -2.695971    2397.0937  0.073494412  0.073701788            3 
 2719000    0.8091778   -2.7011313    2392.9863  0.073341495  0.073687218            2 
 2720000   0.83139522   -2.7169297    2401.0383  0.073561222  0.073672595           10 
 2721000   0.81493616   -2.7138313    2395.8368  0.073374888  0.073658081            3 
 2722000   0.82069483   -2.7080799    2405.5334  0.073644789  0.073643462            6 
 2723000    0.8154359   -2.6978263    2413.8363  0.073871842  0.073628931            3 
 2724000   0.81298938   -2.7097779    2397.9918  0.073360002  0.073614303            5 
 2725000   0.83500867   -2.7265881    2402.8583  0.073481905  0.073599675            6 
 2726000   0.82478304   -2.6883289    2402.8282   0.07345403   0.07358487            2 
 2727000    0.8258088   -2.6948908    2397.4527  0.073262824    0.0735702            6 
 2728000   0.79890828   -2.7125102    2402.5426  0.073391452  0.073555562            2 
 2729000   0.80783307     -2.70133     2393.971  0.073102814  0.073540896            5 
 2730000   0.80907733   -2.6937424     2403.838  0.073377229  0.073526243            6 
 2731000   0.81129913   -2.7098566    2401.1537  0.073268453  0.073511624            9 
 2732000   0.82134382    -2.704727    2402.8095  0.073292139  0.073497177            3 
 2733000   0.79355936   -2.7118345    2405.5466   0.07334878  0.073482645            2 
 2734000    0.8194038   -2.7046102    2404.4924  0.073289818  0.073467941            5 
 2735000   0.80623179   -2.7039653    2410.0228  0.073431529  0.073453465            3 
 2736000   0.80683614   -2.7196514    2409.4534  0.073387347  0.073439088            6 
 2737000   0.81192319   -2.7107953    2403.2624  0.073172036  0.073424634            3 
 2738000   0.81185408   -2.7050701    2402.1777  0.073112299  0.073410399            3 
 2739000   0.82721209    -2.693917    2414.8447  0.073470997  0.073395917            4 
 2740000   0.82310383   -2.7181476    2402.7529  0.073076428  0.073381615            5 
 2741000   0.81305059   -2.7153007    2393.8412  0.072778826  0.073366973            2 
 2742000   0.82157452   -2.7126507    2402.5008  0.073015464  0.073352271            2 
 2743000   0.81536732    -2.717353    2404.8552  0.073060371  0.073337559            6 
 2744000   0.80917828   -2.7200669    2407.6155  0.073117574  0.073322938            4 
 2745000   0.82496416   -2.7165149    2404.6548  0.073001057  0.073308506            5 
 2746000   0.79616491   -2.7099061    2411.6726  0.073187441  0.073293927            3 
 2747000   0.82403194     -2.70876    2417.4622  0.073336433  0.073279476            3 
 2748000   0.83321043   -2.7032564    2416.9032  0.073292795  0.073265134            5 
 2749000   0.81950935   -2.7027282    2412.3119  0.073126952  0.073250935            3 
 2750000   0.80468802   -2.7208456    2410.8559  0.073056241  0.073236595            3 
 2751000   0.81229395   -2.7070424    2412.0026  0.073064419  0.073222062            1 
 2752000   0.82414087   -2.6996346    2416.7512  0.073181661   0.07320762            3 
 2753000   0.81686328   -2.6924162    2414.9766  0.073101362  0.073193123            3 
 2754000    0.8262072   -2.6859293    2410.2481  0.072931739  0.073178564            5 
 2755000   0.79411858   -2.7269773    2416.1214   0.07308292  0.073163894            4 
 2756000   0.82224894   -2.7121523    2418.9619  0.073142293  0.073149339            2 
 2757000   0.81359417   -2.7047181    2415.2434  0.073003367  0.073134914            4 
 2758000    0.8190778   -2.7215963    2408.9293  0.072786115  0.073120231            2 
 2759000   0.81206743   -2.6756822    2413.1217  0.072886364  0.073105545            5 
 2760000   0.80896214   -2.7096496    2415.6336  0.072935796  0.073090906            4 
 2761000   0.80531462   -2.7046213    2415.4029  0.072902418  0.073076188            4 
 2762000   0.80054424   -2.7194231    2414.9637  0.072862773   0.07306154            4 
 2763000    0.7990721   -2.7392071    2416.6781  0.072888107  0.073046627            2 
 2764000   0.81060433   -2.7245778    2418.5868  0.072919282  0.073031808            6 
 2765000   0.82417845   -2.7214728    2418.4605  0.072889106  0.073017131            5 
 2766000   0.81661461   -2.7179687     2411.379  0.072649404  0.073002536            1 
 2767000   0.83271685   -2.7141437    2416.6471  0.072781806  0.072987868            3 
 2768000   0.80007793   -2.7112289    2413.5917  0.072663526  0.072973056            7 
 2769000   0.79210877    -2.703032    2423.4148  0.072932911  0.072958296            2 
 2770000   0.80656138   -2.7128699    2420.4837  0.072818404  0.072943696            3 
 2771000   0.81696658   -2.7206288    2416.6055  0.072675494  0.072928858            2 
 2772000   0.80629469    -2.711987    2420.4976  0.072766283  0.072914177            3 
 2773000   0.82273147   -2.7038937    2420.2077  0.072731328  0.072899522            6 
 2774000   0.82132304   -2.7318126    2421.5639  0.072745851  0.072884738            4 
 2775000    0.8024308   -2.7127312    2418.3327  0.072622605  0.072870083            4 
 2776000   0.80149645   -2.7028144    2416.2859  0.072534998  0.072855252            3 
 2777000   0.78907886   -2.7249121    2413.8793  0.072436661  0.072840583            7 
 2778000   0.80861844   -2.7160386    2420.4094  0.072606473  0.072825948            4 
 2779000   0.80302553   -2.7154813    2419.4078  0.072550312  0.072811206            7 
 2780000   0.80438783    -2.716772    2417.1756  0.072457301  0.072796389            4 
 2781000   0.81251887    -2.742472    2415.3732  0.072377239  0.072781332            4 
 2782000   0.81317688   -2.7238541    2419.7728   0.07248301  0.072766389            4 
 2783000    0.8096753   -2.7046177    2417.0987  0.072376892  0.072751386            5 
 2784000   0.79384818   -2.7228129     2412.871  0.072224349  0.072736224            4 
 2785000   0.82286639   -2.7443745    2415.4338  0.072275099  0.072721115            5 
 2786000   0.81063625   -2.7363369    2412.9529  0.072174948  0.072706086            6 
 2787000   0.82105255   -2.7171744    2425.3283  0.072519085  0.072691244            4 
 2788000   0.80276449   -2.7147765    2427.9032  0.072570039  0.072676252            4 
 2789000   0.80658908   -2.7063801    2422.9465  0.072395916  0.072661258            5 
 2790000   0.82156968   -2.7192926     2423.098  0.072374491  0.072646602            5 
 2791000   0.80384359   -2.7206537    2421.9024  0.072312864   0.07263181            4 
 2792000   0.80410526    -2.737759    2423.1121  0.072323068  0.072617032            5 
 2793000   0.77741125   -2.7249814    2429.3821  0.072484249  0.072602141            3 
 2794000   0.79996638   -2.7101869    2421.4964   0.07222311   0.07258712            2 
 2795000    0.8128963   -2.7404474     2432.519  0.072525909   0.07257232            3 
 2796000   0.78811617   -2.7160956    2426.4036  0.072317704  0.072557603            3 
 2797000   0.80215562   -2.7252337    2429.1169  0.072372689  0.072542748            2 
 2798000    0.7907193   -2.7424863    2424.4548  0.072207971  0.072527944            3 
 2799000   0.78946711   -2.7061206    2438.4442  0.072598672  0.072513135            3 
 2800000   0.80709966   -2.7172987    2425.8205  0.072197037  0.072498281            5 
 2801000   0.78006006   -2.7327401    2418.8747  0.071964616  0.072483474            3 
 2802000   0.79610141   -2.7303932    2432.9765   0.07235833  0.072468784            2 
 2803000   0.78498884   -2.7166053     2429.319  0.072223779  0.072454186            3 
 2804000   0.80062091   -2.7137667    2426.8035  0.072123263  0.072439419            3 
 2805000   0.80201421   -2.7060579    2425.9174  0.072071225  0.072424813            8 
 2806000   0.80305476   -2.7351814    2429.5527  0.072153501   0.07240996            8 
 2807000   0.80656914   -2.7130245     2438.928  0.072406127  0.072395283            3 
 2808000   0.81656249   -2.7129796    2429.5445  0.072101868  0.072380493            3 
 2809000   0.79120962   -2.6939762    2436.2361  0.072274714  0.072365692            5 
 2810000   0.81122498   -2.7219129    2426.1229  0.071949079  0.072350741            2 
 2811000   0.78110496   -2.7507662    2420.5955  0.071759619  0.072335866            4 
 2812000   0.82114998   -2.7448035    2428.1101  0.071956796    0.0723209            5 
 2813000   0.80921815   -2.7191623    2426.6643  0.071888385  0.072306003            2 
 2814000   0.78582844   -2.7060033     2438.146  0.072202855  0.072291099            2 
 2815000   0.80296129   -2.7383607    2421.4622   0.07168331  0.072276342            4 
 2816000   0.79240205   -2.7049556    2431.8505  0.071965272  0.072261336            2 
 2817000   0.80883171    -2.730947    2433.9126  0.072000728  0.072246325            3 
 2818000   0.79667331   -2.7181615     2430.949   0.07188754  0.072231412            3 
 2819000   0.79077911   -2.7414703    2435.7231  0.072003167  0.072216598            3 
 2820000   0.80363004   -2.7390161    2429.1217  0.071782555  0.072201692            5 
 2821000   0.80245459   -2.7048911    2438.3932  0.072030993  0.072186907            3 
 2822000   0.79396139   -2.7311042    2440.6831   0.07207309  0.072172099            3 
 2823000   0.80985738   -2.7279345    2438.5365  0.071984192  0.072157351            2 
 2824000   0.78728297   -2.7243683    2434.4755  0.071838866  0.072142543            3 
 2825000   0.80839368   -2.7226817    2428.2637  0.071630198  0.072127716            4 
 2826000   0.79847797   -2.7188578     2437.433  0.071875235  0.072112755            5 
 2827000     0.799764   -2.7123315    2432.0091  0.071689928  0.072097786            4 
 2828000   0.79603166   -2.7086134    2427.5352  0.071532744  0.072082802            3 
 2829000   0.80989798   -2.7440776    2424.8635  0.071428759  0.072067818            4 
 2830000   0.79133528   -2.7375847    2429.7494  0.071547391   0.07205264            5 
 2831000   0.80265309   -2.7287943     2426.981  0.071440626  0.072037654            3 
 2832000   0.80789261   -2.7466225    2428.3018  0.071454267  0.072022401            3 
 2833000   0.79350299   -2.7354617    2440.5221  0.071788508   0.07200709            2 
 2834000   0.78616294   -2.7237121    2430.2725   0.07146179  0.071991981            4 
 2835000   0.79693476   -2.7087823    2429.1738  0.071404286  0.071976791            4 
 2836000   0.79178842   -2.6992698    2440.2652   0.07170502  0.071961828            5 
 2837000   0.79979725    -2.727513    2438.5846  0.071630378  0.071946611            2 
 2838000   0.78908202   -2.7209371    2431.4124  0.071394539  0.071931476            4 
 2839000   0.81138627   -2.7568706     2432.487  0.071400934  0.071916137            4 
 2840000   0.78105158   -2.7484904      2433.79  0.071414027  0.071900916            3 
 2841000   0.79300343   -2.7406506     2436.434  0.071466444   0.07188582            4 
 2842000   0.78619384   -2.7435551    2435.3519  0.071409568  0.071870623            4 
 2843000   0.78804314   -2.7372616    2434.9428  0.071372459  0.071855485            3 
 2844000   0.78609458   -2.7378865    2433.8378  0.071314984  0.071840196            2 
 2845000   0.77785643    -2.737167     2434.935  0.071322057  0.071825147            4 
 2846000   0.78635196   -2.7200779    2431.7734  0.071204421  0.071809889            3 
 2847000   0.78809959   -2.7386874     2436.303  0.071311994  0.071794827            2 
 2848000   0.78458409   -2.7293725    2439.5317   0.07138143  0.071779851            4 
 2849000   0.79166262   -2.7220167    2434.2465  0.071201782  0.071764773            6 
 2850000   0.78795586   -2.7224887      2440.88   0.07137076  0.071749596            4 
 2851000   0.80371234   -2.7419854    2434.4789  0.071158624  0.071734431            3 
 2852000    0.7993582   -2.7424352    2440.0194  0.071295566  0.071719413            2 
 2853000   0.80245482   -2.7477099    2439.4571  0.071254151  0.071704342            5 
 2854000   0.80929483   -2.7210887    2439.8188  0.071239745  0.071689378            3 
 2855000   0.78401201   -2.7500322    2450.0454  0.071513292  0.071674464            4 
 2856000   0.80127736   -2.7483099    2446.9121  0.071396828   0.07165946            2 
 2857000   0.77795911   -2.7143924     2452.313  0.071529372  0.071644678            2 
 2858000   0.80076078   -2.7172936    2446.2079  0.071326333  0.071629701            5 
 2859000   0.79202322    -2.725433    2443.8032  0.071231292  0.071614687            6 
 2860000   0.80096992   -2.7142255     2442.745  0.071175553  0.071599752            4 
 2861000   0.79223704    -2.741628    2451.5267  0.071406463  0.071584646            2 
 2862000   0.80242527   -2.6975767    2447.8217  0.071273635  0.071569663            3 
 2863000   0.79524566    -2.719494    2444.6184  0.071155501  0.071554753            5 
 2864000   0.79014661   -2.7070549     2449.134  0.071262047  0.071539748            4 
 2865000   0.78371435   -2.7359278    2452.5431  0.071336332  0.071524813            3 
 2866000     0.795565   -2.7354058    2455.1662  0.071387713  0.071509789            7 
 2867000   0.81821658    -2.727275    2447.6535  0.071144446   0.07149485            3 
 2868000   0.78133079   -2.7212676    2449.2435   0.07116584  0.071479933            8 
 2869000   0.81457023   -2.7292183     2445.029  0.071018618  0.071464759            3 
 2870000    0.7921916   -2.7435826    2450.2293  0.071144869  0.071449738            5 
 2871000   0.80352954    -2.737064    2445.1545  0.070972789  0.071434684            4 
 2872000   0.80035498   -2.7357664    2450.3772  0.071099617  0.071419652            6 
 2873000   0.79833375   -2.7336309    2455.5891  0.071226045  0.071404659            4 
 2874000   0.79283006   -2.7390936    2455.6638  0.071203426  0.071389654            5 
 2875000   0.78973552   -2.7549767    2445.0862  0.070872064  0.071374538            2 
 2876000   0.77878695    -2.762293    2451.9578  0.071046528  0.071359524            3 
 2877000   0.80137948   -2.7178026    2457.8316  0.071191972  0.071344627            2 
 2878000   0.79958625   -2.7128309    2447.9484  0.070881064  0.071329683            3 
 2879000   0.77646719   -2.7195668    2463.0534  0.071293662  0.071314765            3 
 2880000   0.78516852   -2.7394892    2456.1008  0.071067733   0.07129987            3 
 2881000    0.7956946   -2.7496066    2453.8567  0.070978153  0.071285011            3 
 2882000   0.78977744   -2.7367315    2451.0769  0.070873145  0.071270123            3 
 2883000   0.78271802   -2.7526917    2452.8317  0.070899287  0.071255193            4 
 2884000   0.78562948   -2.7504309    2458.3489  0.071034121  0.071240372            2 
 2885000   0.77399234   -2.7472773    2460.3648   0.07106773   0.07122552            5 
 2886000   0.78504318   -2.7438504    2454.8474   0.07088379  0.071210559            6 
 2887000   0.79285226   -2.7284524    2463.1717  0.071099517    0.0711957            3 
 2888000     0.789169   -2.7313312    2449.9746  0.070694096  0.071180953            2 
 2889000   0.79244042   -2.7476724    2460.4838  0.070972766  0.071166171            3 
 2890000   0.79173235   -2.7368054    2459.6305  0.070923602  0.071151319            4 
 2891000   0.78610093   -2.7359111    2455.0994  0.070768458   0.07113647            4 
 2892000   0.78636914    -2.758456    2458.5653   0.07084386  0.071121722            4 
 2893000   0.79705181   -2.7304949    2456.1602  0.070750093  0.071106963            4 
 2894000     0.783352   -2.7448096    2447.2584  0.070469315  0.071092078            4 
 2895000     0.794187   -2.7410473    2460.8076  0.070834991  0.071077215            4 
 2896000   0.78824366   -2.7158637    2468.2416  0.071024449  0.071062311            3 
 2897000   0.76533023   -2.7365196    2466.3767  0.070946287  0.071047701            4 
 2898000   0.79822459   -2.7472122    2462.9574  0.070823481  0.071032969            2 
 2899000   0.79013894   -2.7176214    2469.5916  0.070989755  0.071018416            5 
 2900000    0.7889478   -2.7580979    2455.9651  0.070573709  0.071003804            3 
 2901000   0.78415556   -2.7513225    2463.4291  0.070763791  0.070989133            3 
 2902000   0.79316263   -2.7370586    2467.2372   0.07084876   0.07097444            3 
 2903000   0.79763619   -2.7384434    2467.3301  0.070827022  0.070959877            3 
 2904000   0.79143559    -2.738277    2452.4852   0.07037664  0.070945155            3 
 2905000   0.79349128   -2.7423941    2471.4875   0.07089752  0.070930322            4 
 2906000   0.77629484   -2.7304868    2473.4059  0.070928135  0.070915738            5 
 2907000   0.77441603   -2.7364291    2465.2288  0.070669328  0.070901081            5 
 2908000   0.79457758   -2.7447559    2470.6088  0.070799197  0.070886564            2 
 2909000   0.78320174   -2.7270021    2465.9266  0.070640731  0.070871957            3 
 2910000   0.78216287   -2.7771841    2464.8654  0.070586065  0.070857309            4 
 2911000   0.79829997     -2.74102    2474.1107  0.070826484  0.070842598            3 
 2912000   0.78915119   -2.7424221    2467.9158  0.070624879  0.070828002            3 
 2913000   0.78321808   -2.7438193    2473.4718  0.070759578  0.070813308            3 
 2914000   0.78121032   -2.7490769    2469.7253  0.070628155  0.070798654            5 
 2915000   0.79715787   -2.7488554    2465.8204  0.070492293  0.070783994            3 
 2916000   0.78629531   -2.7479774    2469.5932  0.070575937  0.070769253            5 
 2917000   0.77775864   -2.7634353    2467.2042  0.070483492  0.070754453            3 
 2918000   0.77636492    -2.724895    2463.6869   0.07035889  0.070739759            2 
 2919000   0.78132282   -2.7654902    2473.8439  0.070624756  0.070725005            8 
 2920000   0.78386386   -2.7219606    2473.0659  0.070578366  0.070710319            3 
 2921000   0.79063942   -2.7408595    2483.9543  0.070864839  0.070695748            4 
 2922000   0.78624116   -2.7324508    2471.8779  0.070496177  0.070681196            3 
 2923000   0.77991869    -2.739635    2469.6688  0.070409077  0.070666749            7 
 2924000   0.78178213   -2.7439652    2479.0042  0.070651053  0.070651991            2 
 2925000   0.77732423   -2.7697803    2482.7257  0.070732926  0.070637416            5 
 2926000   0.78008603   -2.7376979     2472.878  0.070428288  0.070622974           16 
 2927000   0.78830196   -2.7495188    2482.4045  0.070675451  0.070608466            3 
 2928000   0.78607794   -2.7481072    2475.6633  0.070459452  0.070594023            2 
 2929000   0.77236571   -2.7493884    2477.5822  0.070489992  0.070579594            3 
 2930000   0.78221173   -2.7620058    2476.1667  0.070425674  0.070565119            2 
 2931000   0.76618649    -2.735013    2486.4191   0.07069314   0.07055082            6 
 2932000    0.7874236   -2.7332996     2475.368  0.070354934  0.070536291            4 
 2933000   0.78478624   -2.7532168    2479.0348   0.07043513  0.070521799            5 
 2934000   0.77442717   -2.7515149    2489.6524   0.07071269  0.070507357            3 
 2935000   0.77152735    -2.749937     2480.316  0.070423509  0.070492994            3 
 2936000   0.78503638   -2.7462049     2483.579  0.070492138   0.07047848            5 
 2937000   0.79371012   -2.7492588    2477.9675  0.070308918  0.070464099            1 
 2938000   0.78904972   -2.7430071    2488.8368  0.070593285  0.070449646            7 
 2939000   0.77939786   -2.7388934     2479.598  0.070307305  0.070435398            4 
 2940000   0.78505634   -2.7721233    2486.9738  0.070492454   0.07042101            4 
 2941000    0.7725703   -2.7418655    2487.6313  0.070487117  0.070406748            4 
 2942000   0.78579753   -2.7416065    2483.3648  0.070342306  0.070392314            3 
 2943000   0.76451458   -2.7326857    2487.5898  0.070438039  0.070378146            3 
 2944000    0.7725433   -2.7319808    2484.9637  0.070339779  0.070363981            6 
 2945000   0.77364577   -2.7580825    2492.9026  0.070540538  0.070349898            5 
 2946000   0.77679779   -2.7507066    2491.1386  0.070466696  0.070335744            4 
 2947000   0.79486179   -2.7425612    2492.8243  0.070490449  0.070321562            5 
 2948000   0.77889262   -2.7860897    2487.9202  0.070327911  0.070307394            3 
 2949000   0.77189877   -2.7627506    2496.9327   0.07055874  0.070293048            4 
 2950000   0.77442185   -2.7301987    2489.0438   0.07031197  0.070278647            2 
 2951000   0.78712647   -2.7462004    2492.6173  0.070389057  0.070264412            4 
 2952000   0.77335898    -2.749196    2492.1315    0.0703515   0.07025023            5 
 2953000   0.79775574   -2.7413785    2495.9325  0.070434939  0.070235866            5 
 2954000   0.78106746   -2.7526591    2482.7799  0.070040055  0.070221626            2 
 2955000   0.76543554   -2.7467072    2499.2927  0.070482027  0.070207362            5 
 2956000   0.77254487    -2.753138    2495.1169  0.070340464  0.070193117            4 
 2957000   0.77500928   -2.7688593    2497.4154  0.070381452  0.070178822            4 
 2958000   0.77911588   -2.7572698     2490.687  0.070168103  0.070164458            7 
 2959000   0.75537523     -2.74267     2500.727  0.070427143  0.070150193            3 
 2960000   0.77479642   -2.7639846    2484.9972  0.069960508   0.07013587            5 
 2961000   0.78328182   -2.7477619    2496.7869  0.070268684  0.070121523            5 
 2962000   0.77112324   -2.7641781    2484.5568  0.069900877  0.070107196            3 
 2963000   0.78942371   -2.7757381    2490.1845  0.070035564  0.070092907            2 
 2964000   0.77218269   -2.7505267    2495.5614  0.070163108  0.070078573            3 
 2965000   0.79107063   -2.7632395    2488.3823   0.06993767  0.070064256            7 
 2966000   0.77305339   -2.7380446    2489.9538  0.069958244  0.070050025            3 
 2967000   0.77537983   -2.7413636    2505.7257  0.070377645  0.070035833            4 
 2968000   0.79269276   -2.7427196    2495.2644  0.070060208  0.070021699            4 
 2969000   0.76040568   -2.7685891     2493.529  0.069987902  0.070007406            5 
 2970000   0.79276215   -2.7530312    2495.2693  0.070013168  0.069993144            4 
 2971000   0.76997568   -2.7470946    2498.8555  0.070090192  0.069978838            8 
 2972000   0.77250086   -2.7541162    2491.2338    0.0698529  0.069964607            3 
 2973000   0.79337168   -2.7662994    2490.5449  0.069810095  0.069950432            2 
 2974000   0.76828318   -2.7716738      2497.18   0.06997254  0.069936126            3 
 2975000   0.78223771   -2.7600934    2494.1575  0.069864355  0.069921901            6 
 2976000   0.77047444   -2.7707885    2499.7779  0.069998261  0.069907543            4 
 2977000   0.77179625   -2.7718133    2497.2399  0.069903703  0.069893169            7 
 2978000   0.77341303   -2.7591134    2492.1604   0.06973809  0.069878822            4 
 2979000   0.77955574   -2.7741739    2494.4847    0.0697797  0.069864524            2 
 2980000   0.77023658   -2.7146449    2499.8541  0.069906434  0.069850312            2 
 2981000   0.77657502   -2.7596521    2500.4961  0.069900931  0.069836075            4 
 2982000     0.784205   -2.7464731     2498.037  0.069808768  0.069821805            2 
 2983000   0.78452857   -2.7697186    2504.2829  0.069959852    0.0698077            7 
 2984000   0.76885405   -2.7688364    2493.9588  0.069648091  0.069793427            3 
 2985000   0.75355703   -2.7548094    2500.5627   0.06980912  0.069779226            2 
 2986000   0.78534578   -2.7481259     2508.436  0.070005469  0.069765047            3 
 2987000   0.77568882    -2.769016    2500.3103  0.069755336  0.069751082            3 
 2988000   0.78183969   -2.7353053    2506.9615  0.069917489  0.069736883            5 
 2989000   0.78002837   -2.7491037    2502.2626  0.069763092  0.069722791            7 
 2990000   0.77024624   -2.7743783    2495.3833   0.06954803  0.069708644            2 
 2991000   0.77916629   -2.7453441    2502.6529  0.069727317  0.069694385            3 
 2992000   0.78303163   -2.7551569    2504.6569  0.069759828  0.069680166            3 
 2993000   0.77363449   -2.7735201    2498.6359   0.06956888  0.069666011            3 
 2994000   0.77519016   -2.7646766    2508.6675  0.069824858  0.069651802            8 
 2995000   0.78534319   -2.7575718    2500.8864  0.069585042   0.06963741            2 
 2996000   0.75024383   -2.7539613    2503.6055  0.069637448  0.069623017            4 
 2997000   0.78071984   -2.7409518    2507.2139  0.069714546  0.069608628            4 
 2998000   0.78374247   -2.7518267    2499.8178  0.069485708  0.069594377            2 
 2999000   0.76879497   -2.7499062    2504.4023  0.069589926  0.069580128            3 
 3000000   0.76605653   -2.7622683    2505.3481  0.069593002  0.069565918            5 
 3001000   0.77745499   -2.7559851    2496.0324   0.06931113  0.069551529            2 
 3002000   0.78705012   -2.7734867    2506.3847  0.069575414  0.069537267            3 
 3003000   0.77322249    -2.777486    2504.8195   0.06950881  0.069522921            6 
 3004000   0.75944282   -2.7647297    2509.5722  0.069617515  0.069508371            4 
 3005000   0.77747919   -2.7383366    2506.6531  0.069513398  0.069494012            5 
 3006000   0.78908291   -2.7679521    2502.9189  0.069386751  0.069479592            3 
 3007000   0.76521313   -2.7429837    2507.2015  0.069482361  0.069465446            2 
 3008000   0.79306794     -2.76148    2503.7569  0.069363832  0.069451145            5 
 3009000   0.76562848   -2.7726315    2507.7982  0.069452702  0.069436935            8 
 3010000   0.77606317    -2.772161    2501.9996  0.069269091   0.06942255            3 
 3011000   0.76788764   -2.7613634    2506.8229  0.069379578  0.069408226            4 
 3012000   0.76190954   -2.7341006    2508.3586  0.069399033  0.069393922            4 
 3013000   0.77522993   -2.7551823    2511.1386  0.069452887  0.069379691            6 
 3014000   0.77574563   -2.7556456    2518.0401  0.069620661  0.069365353            2 
 3015000   0.76226904   -2.7739384    2511.1387  0.069406819  0.069351326            3 
 3016000   0.76527394   -2.7470453    2517.3349  0.069555009  0.069337083            2 
 3017000   0.75999205   -2.7661314    2507.2197  0.069252562  0.069322928            2 
 3018000   0.77384276   -2.7833381     2507.271   0.06923103  0.069308728            2 
 3019000   0.77545494   -2.7865527    2517.5004  0.069490459   0.06929454            2 
 3020000   0.75870351   -2.7713408    2508.9128  0.069230485   0.06928033            3 
 3021000   0.76102334   -2.7647945    2516.6104  0.069419904  0.069266155            4 
 3022000   0.77259675   -2.7737248    2512.0004  0.069269812  0.069251943            2 
 3023000    0.7644212   -2.7794335    2509.8489  0.069187588  0.069237642            4 
 3024000   0.77174571    -2.771772    2521.3946  0.069482877  0.069223494            4 
 3025000    0.7667867   -2.7991198    2514.7447  0.069276714  0.069209406            4 
 3026000   0.75413107    -2.753639    2520.9359  0.069424319  0.069195357            4 
 3027000   0.76764045   -2.7504472    2515.6579   0.06925608  0.069181252            4 
 3028000   0.75863735   -2.7719021     2519.923   0.06935059  0.069167113            5 
 3029000   0.76340747   -2.7536611    2516.8846  0.069244102  0.069153135            3 
 3030000   0.77275439   -2.7721577    2522.1583   0.06936629  0.069139004            6 
 3031000   0.77437742   -2.7696702    2516.7026  0.069193408  0.069124894            3 
 3032000   0.75816252   -2.7814393    2512.6614  0.069059516  0.069110864            5 
 3033000   0.76993749    -2.783744    2515.7536  0.069121706  0.069096875            4 
 3034000     0.772044    -2.775177    2520.9035  0.069240374  0.069082843            6 
 3035000   0.76759162   -2.7788738    2525.9966  0.069357403   0.06906868            3 
 3036000   0.79361252   -2.7796087    2522.5457  0.069239835  0.069054704            3 
 3037000   0.76578751   -2.7698345    2523.2636  0.069236735  0.069040706            9 
 3038000   0.76023212    -2.765201    2518.1012  0.069072339  0.069026743            4 
 3039000   0.75733676   -2.7593468    2516.0673  0.068993839  0.069012748            2 
 3040000   0.77109009   -2.7639407    2530.0737  0.069355091  0.068998836            5 
 3041000   0.74604173   -2.7598243    2529.7708  0.069323984  0.068984949            3 
 3042000   0.76078772   -2.7891274    2525.7631  0.069191405  0.068971025            8 
 3043000   0.75673134   -2.7549551     2519.408  0.068994632   0.06895715            4 
 3044000   0.75113855   -2.7785049    2524.2585  0.069104755  0.068943158            6 
 3045000   0.77844763   -2.7698626    2528.8129  0.069206702  0.068929296            3 
 3046000   0.76951749    -2.774742    2526.8393  0.069129989   0.06891542            3 
 3047000   0.75757153   -2.7563242    2532.1613  0.069252853  0.068901702            5 
 3048000   0.76233379   -2.7854047    2523.7853  0.069001129  0.068887818            3 
 3049000   0.77454614    -2.764679    2538.2615  0.069374153   0.06887399            5 
 3050000   0.76755458   -2.7730027    2524.0476   0.06896305   0.06886031            3 
 3051000   0.76636246   -2.7692527    2530.8812  0.069127096  0.068846524            5 
 3052000   0.76282705   -2.7735773    2521.2875  0.068842494  0.068832786            3 
 3053000   0.76755639   -2.7758706    2533.3402   0.06914893  0.068819062            4 
 3054000   0.76573468   -2.7778079    2527.8972  0.068977766  0.068805329           10 
 3055000   0.75307317   -2.7687805    2527.5319  0.068945222  0.068791412            5 
 3056000   0.76059883   -2.7606255    2534.2025  0.069104563  0.068777693            4 
 3057000   0.75329732   -2.7884574    2536.8041  0.069152876  0.068763937            7 
 3058000   0.77347125    -2.774624    2524.8468  0.068804415   0.06874997            5 
 3059000   0.74506567   -2.7970739    2528.3156   0.06887642  0.068735977            4 
 3060000    0.7700893   -2.7566398    2538.0878  0.069120038  0.068722156            2 
 3061000   0.75977849   -2.7785459    2539.7252  0.069142035  0.068708573            6 
 3062000   0.76437368   -2.7626107     2534.033  0.068964538  0.068694889            6 
 3063000   0.75787806   -2.7542876    2533.4849  0.068927112  0.068681168            4 
 3064000   0.76807657   -2.7617931     2543.934  0.069188806  0.068667615            2 
 3065000   0.76493707   -2.7685254    2536.2314  0.068956807  0.068653923            4 
 3066000   0.74803275   -2.7737926    2538.5147  0.068996377  0.068640405            4 
 3067000   0.74867571   -2.7675134     2537.481  0.068945794  0.068627024            3 
 3068000   0.77093877   -2.7983203    2540.4775  0.069004713  0.068613385            5 
 3069000   0.75963987   -2.7800303    2535.1259  0.068836916  0.068599816           12 
 3070000   0.76336824    -2.815424     2532.807  0.068751549  0.068586272            6 
 3071000   0.74268896   -2.7561943    2539.1152  0.068900336  0.068572744            5 
 3072000   0.76822733    -2.747142    2546.8171  0.069086836  0.068559315            3 
 3073000   0.77765428   -2.7614517    2540.3719  0.068889573  0.068545893            3 
 3074000   0.75078775   -2.7709976     2548.668  0.069092061  0.068532523            3 
 3075000   0.75414791   -2.7787944    2549.1871  0.069083661  0.068519336            3 
 3076000   0.73912086   -2.7734867     2541.793  0.068860887  0.068505906            6 
 3077000   0.76991268   -2.8010959    2550.3057  0.069069053  0.068492439            9 
 3078000   0.75249253   -2.7789601    2553.7833  0.069140766  0.068479111            3 
 3079000   0.75894072   -2.7739528    2562.3949  0.069351383  0.068465965            7 
 3080000   0.76261843   -2.7988835    2552.8981   0.06907192  0.068452706            4 
 3081000   0.76367674   -2.7664547    2550.1192  0.068974339  0.068439629            3 
 3082000   0.76790284   -2.7810904    2556.6533  0.069128631  0.068426396            2 
 3083000   0.74161133   -2.7835715     2553.445  0.069019489  0.068413273            2 
 3084000   0.76414105   -2.7856668    2548.2747  0.068857402  0.068400012            5 
 3085000   0.74970753     -2.77856     2550.024  0.068882334  0.068386888            3 
 3086000   0.76968409   -2.7906787    2549.7091   0.06885151  0.068373845            3 
 3087000   0.75541279   -2.7653854     2561.308  0.069142317  0.068360911            2 
 3088000   0.76766235   -2.7877189    2550.0054  0.068814912  0.068347923            8 
 3089000   0.75351613   -2.7649857    2557.4849  0.068994412   0.06833493            3 
 3090000   0.75905912   -2.7815891    2556.0248  0.068932707  0.068322013            3 
 3091000   0.75264296   -2.7585038     2557.969  0.068962822   0.06830902            4 
 3092000   0.76839318   -2.7717588    2564.3492  0.069112474  0.068296069            4 
 3093000   0.77286893   -2.7935409    2555.5505  0.068853068  0.068282998            8 
 3094000   0.76396508   -2.7714425     2554.721  0.068808475  0.068270042            5 
 3095000   0.74320338   -2.7725432    2565.3617  0.069072744  0.068256915           11 
 3096000   0.76922628    -2.781402    2561.9851  0.068959547  0.068243937            3 
 3097000   0.75319709   -2.8049332    2558.4497   0.06884215  0.068231022            4 
 3098000   0.75751554   -2.7838359    2563.0548  0.068943803  0.068218131            2 
 3099000   0.75742782   -2.7673592    2570.3774  0.069118463  0.068205327            7 
 3100000   0.75543038   -2.7794318    2565.0397  0.068952679  0.068192629            4 
 3101000   0.75364717   -2.8113422    2567.3196  0.068991712  0.068179815            3 
 3102000   0.75384628   -2.7938183    2568.9528  0.069013347  0.068167023            3 
 3103000   0.75252837   -2.7917705    2568.6679  0.068983455  0.068154203            4 
 3104000   0.75605098   -2.7843786    2570.2867  0.069004689  0.068141407            3 
 3105000   0.75316036    -2.796044    2570.9311  0.068999762  0.068128634            6 
 3106000   0.75195266   -2.7663629    2566.8783   0.06886881  0.068115811            4 
 3107000   0.76279019     -2.81952    2560.9705  0.068688191  0.068102971            5 
 3108000   0.74863931   -2.7929233    2568.0461  0.068855804  0.068090097            2 
 3109000    0.7481055   -2.7835108    2568.2274  0.068838518  0.068077353            6 
 3110000   0.76470603   -2.7785391    2575.4405  0.069009661  0.068064724            3 
 3111000   0.75705977   -2.7964453    2573.6732  0.068940136  0.068051919            6 
 3112000   0.76008674   -2.7597554    2574.3868  0.068937093  0.068039212            4 
 3113000   0.75748297   -2.7505569    2576.6651  0.068975936  0.068026641            4 
 3114000   0.74701992   -2.7940404    2573.4577  0.068867954  0.068014019            5 
 3115000   0.74711754   -2.7848508    2571.7906  0.068801247  0.068001261            4 
 3116000   0.74421143   -2.7870535    2574.7679  0.068858789  0.067988629            4 
 3117000   0.75896262   -2.7724838    2568.1547  0.068659895   0.06797594            2 
 3118000    0.7599605   -2.7925328    2567.1895  0.068612077  0.067963281            7 
 3119000   0.74938582   -2.7943191    2579.1267  0.068909018  0.067950658            3 
 3120000   0.76582357   -2.7729866    2571.3154  0.068678295  0.067937888            5 
 3121000   0.77130508   -2.7830686    2579.6478  0.068878773  0.067925188            4 
 3122000   0.74223269   -2.7703944    2567.6974  0.068537728  0.067912558            3 
 3123000   0.74237732    -2.788263    2578.3405  0.068799778  0.067899958            3 
 3124000   0.75594265   -2.7897585     2582.591  0.068891137  0.067887381            4 
 3125000   0.75630164   -2.7746979     2579.466   0.06878576  0.067874725            3 
 3126000   0.72942815   -2.7481693    2589.0982  0.069020533  0.067862085            4 
 3127000   0.76530016   -2.7760785    2576.6467  0.068666631  0.067849434            3 
 3128000   0.73659853   -2.7927152    2574.0856  0.068576449   0.06783671            3 
 3129000   0.74604706    -2.780296    2578.0577   0.06866032   0.06782394            4 
 3130000   0.74999365   -2.7882395    2572.2497   0.06848375  0.067811174            6 
 3131000    0.7672175   -2.7975188    2573.8869  0.068505453  0.067798369            4 
 3132000    0.7575632   -2.7833082    2579.3592  0.068629181  0.067785665            5 
 3133000    0.7589968   -2.7974697    2579.7935   0.06861883  0.067772934            5 
 3134000   0.75340243   -2.7839513    2579.1339  0.068579395  0.067760322            3 
 3135000   0.74694684   -2.7881797    2569.2193  0.068293974   0.06774755            6 
 3136000   0.73241079   -2.7600154    2577.1659  0.068483363  0.067734876            2 
 3137000   0.75722548   -2.7825385    2580.3644  0.068546498  0.067722197            7 
 3138000   0.75244028    -2.811129    2575.0964  0.068384758  0.067709348           10 
 3139000   0.74921814   -2.7885472    2575.6427  0.068377475  0.067696444            3 
 3140000   0.74612611   -2.7858179    2576.5853  0.068380713  0.067683711            3 
 3141000   0.76727094   -2.7870974    2580.3618  0.068459138  0.067670823            4 
 3142000   0.73536135    -2.810466    2576.4769  0.068334311  0.067657977            2 
 3143000   0.74577793   -2.7970454    2578.5805  0.068368346  0.067645114            4 
 3144000    0.7483457   -2.8217831    2577.1006  0.068307373  0.067632218            3 
 3145000   0.74072857   -2.7836416    2572.1094  0.068153402   0.06761934            6 
 3146000   0.73570912   -2.7880595    2582.7059  0.068412425  0.067606606            4 
 3147000   0.74724355   -2.7933882     2588.445  0.068542658  0.067593725            6 
 3148000   0.75168289   -2.7857254     2579.904  0.068294789  0.067580749            6 
 3149000   0.74262602   -2.7866676     2586.889  0.068457949  0.067567821            3 
 3150000    0.7472376   -2.8089161    2582.3002  0.068314821    0.0675548            4 
 3151000   0.75563531   -2.8060809      2577.84  0.068175183  0.067541725            9 
 3152000   0.74549858   -2.7803154     2582.714  0.068282413  0.067528619            4 
 3153000   0.73924883   -2.7968592    2573.3267  0.068012651  0.067515532            4 
 3154000    0.7585119   -2.7902846    2579.3313  0.068149737  0.067502498            3 
 3155000   0.75366061   -2.8056286    2573.4968   0.06797403  0.067489385            4 
 3156000    0.7461016    -2.796724    2573.0894  0.067941734  0.067476137            4 
 3157000    0.7383113   -2.8087293    2574.4104  0.067955085  0.067462928            7 
 3158000   0.75614085   -2.8104258    2567.3669  0.067747702  0.067449714            3 
 3159000    0.7368951   -2.8060863    2582.8066  0.068133548  0.067436554            5 
 3160000   0.74140094   -2.8130069    2579.9264  0.068036035  0.067423409            5 
 3161000   0.74612165   -2.7997975    2579.6593  0.068007469  0.067410176            3 
 3162000   0.75355081   -2.7984266     2579.336  0.067977441  0.067396762            6 
 3163000   0.76084057   -2.7899785    2575.8796  0.067864885  0.067383491            4 
 3164000   0.71900873   -2.7998746    2573.8312  0.067789485  0.067370031            3 
 3165000   0.74569065   -2.7997461    2581.9766  0.067982532  0.067356699            6 
 3166000   0.74046684   -2.7982318    2588.4623  0.068131772  0.067343539            4 
 3167000   0.75131794   -2.8070267    2578.2958  0.067842749  0.067330267            7 
 3168000   0.74612062   -2.8267081    2578.3866  0.067823722  0.067317015            4 
 3169000   0.76040501   -2.8029705    2579.7649  0.067838565  0.067303766            2 
 3170000   0.74493595   -2.8074124    2575.0656  0.067693627  0.067290416            4 
 3171000   0.74895728   -2.8229642    2577.7815  0.067743654   0.06727701            4 
 3172000   0.74561615   -2.7945946    2580.1587  0.067784749  0.067263715            4 
 3173000   0.74460019   -2.8077619    2575.1312  0.067631347  0.067250538            3 
 3174000   0.76549791   -2.8221197    2590.9259  0.068024729  0.067237281            5 
 3175000     0.730201   -2.7997265     2580.034  0.067717427  0.067223991            3 
 3176000   0.74949149   -2.7928405    2577.8735  0.067639419   0.06721065            3 
 3177000   0.75296643   -2.8003584    2578.0684   0.06762324  0.067197314            5 
 3178000   0.72935322   -2.8111952    2583.5822  0.067746544   0.06718406            9 
 3179000   0.73373407   -2.7901509    2587.0704  0.067816671  0.067170686            4 
 3180000   0.73806509   -2.8081912    2579.2675  0.067590867  0.067157348            6 
 3181000   0.75771555   -2.8175435    2580.9162   0.06761281  0.067144018           12 
 3182000   0.75195581   -2.8194016    2586.0825  0.067726862  0.067130705            3 
 3183000   0.73592215   -2.7975806    2582.4759   0.06761116  0.067117475            4 
 3184000   0.74512054   -2.8127574    2592.6986  0.067857481  0.067104126            3 
 3185000   0.74693221   -2.7997852    2588.6426  0.067730051  0.067090906            3 
 3186000   0.73975754   -2.8112831    2578.2893  0.067437992  0.067077563            4 
 3187000   0.75280545   -2.7773219    2587.5703  0.067659509   0.06706445            6 
 3188000   0.75182503   -2.8123694    2585.7506  0.067590721  0.067051147            7 
 3189000   0.72707707   -2.8007007     2582.433  0.067482831  0.067037878            5 
 3190000   0.74592723   -2.8214876    2583.4906  0.067489305  0.067024641            3 
 3191000   0.73866115   -2.8105029    2589.9938  0.067637987   0.06701143            8 
 3192000   0.74987504   -2.7858785    2591.6701  0.067660561   0.06699813            7 
 3193000   0.73129139   -2.8052837    2587.8394  0.067539392  0.066984904            4 
 3194000   0.73262689   -2.7966323    2580.5672  0.067328513  0.066971622            4 
 3195000   0.74562717    -2.822822    2584.9282  0.067421184  0.066958508            4 
 3196000   0.76618296   -2.7538287    2588.5811  0.067495336  0.066945209           15 
 3197000   0.72923857   -2.8248604    2587.1997  0.067438215  0.066932009            6 
 3198000   0.73861038   -2.8123546    2589.7505  0.067483596  0.066918634            7 
 3199000   0.73520674   -2.8274798    2578.5829  0.067171588  0.066905254            4 
 3200000   0.73265666    -2.804511    2594.2525  0.067558658  0.066891838            3 
 3201000   0.71146435   -2.7983283    2588.7989  0.067395576  0.066878456            8 
 3202000    0.7590811   -2.8089776    2578.6811  0.067111208  0.066865029            4 
 3203000   0.73988877    -2.808363    2578.6136  0.067088501  0.066851626            4 
 3204000   0.73985216    -2.821118    2581.6517   0.06714658  0.066838182            5 
 3205000   0.72732562   -2.8109001    2577.4555  0.067016523  0.066824834            5 
 3206000   0.74563097   -2.8086368    2587.5587  0.067258231  0.066811474            5 
 3207000   0.73638035   -2.8122807    2590.0693  0.067302498   0.06679816            4 
 3208000   0.75394852   -2.8149324    2596.5564  0.067450032  0.066784837            5 
 3209000   0.73626402   -2.7843523    2594.7883  0.067383097   0.06677163            6 
 3210000   0.73342116    -2.816145    2586.6435  0.067150662  0.066758333            2 
 3211000    0.7454925    -2.819586    2590.6595  0.067233975  0.066745002            5 
 3212000   0.73344081   -2.7955694    2594.8787  0.067322507  0.066731715            5 
 3213000   0.73688903   -2.8068193    2586.6531  0.067088211  0.066718428            2 
 3214000   0.73500542   -2.7966217    2590.0384  0.067155112   0.06670524            6 
 3215000   0.73384495   -2.8077612     2593.265   0.06721786   0.06669192            3 
 3216000   0.74182973   -2.8269155    2588.7939  0.067081101   0.06667852            4 
 3217000   0.74673481   -2.8025608    2590.6123  0.067107353   0.06666516            7 
 3218000   0.71730547   -2.8213921    2593.2223   0.06715409  0.066651788            4 
 3219000   0.75344624   -2.8241731    2588.0833  0.067000189  0.066638463            3 
 3220000   0.74140825    -2.817847     2597.046  0.067211335  0.066625066            3 
 3221000   0.75806334   -2.8287754    2591.1598  0.067038182  0.066611648            8 
 3222000   0.73892575   -2.8011641     2588.587  0.066950834  0.066598243            2 
 3223000   0.74518915   -2.7968448    2582.6871  0.066777513  0.066584803            6 
 3224000   0.74110223   -2.8322574    2590.7289  0.066964663  0.066571457            3 
 3225000   0.73489126   -2.8284368    2586.9058   0.06684511  0.066558019            4 
 3226000   0.73449407   -2.8045796     2593.722  0.067000466  0.066544543            6 
 3227000   0.72733947   -2.7982398    2593.8642  0.066983375  0.066531031            4 
 3228000   0.71879832   -2.7873492     2594.303  0.066973952  0.066517667            3 
 3229000   0.74381503   -2.8259994    2589.2563  0.066822966  0.066504287            4 
 3230000   0.71581557   -2.8202134    2586.8231  0.066739502   0.06649084            4 
 3231000   0.74094416   -2.8258702    2587.0395  0.066724428  0.066477389            9 
 3232000   0.71447096   -2.8079535    2597.8141  0.066981594   0.06646391            6 
 3233000   0.74141847   -2.8316125    2582.0152  0.066553645  0.066450385            5 
 3234000   0.72306005   -2.8263858     2594.634  0.066858226  0.066436864            5 
 3235000   0.73260365    -2.821932    2594.0905  0.066823558  0.066423335            5 
 3236000    0.7358841    -2.799335    2589.4329  0.066682965  0.066409768            2 
 3237000   0.74087829   -2.8335814    2585.1972  0.066553322  0.066396282            8 
 3238000   0.72140349   -2.8066905    2603.4378  0.067002208  0.066382811            6 
 3239000   0.73077965   -2.8376362    2591.5847  0.066676564  0.066369285            3 
 3240000   0.72395672   -2.8111954    2595.4644  0.066755771  0.066355831            6 
 3241000   0.72346552   -2.8162354    2592.8726  0.066668534  0.066342461            4 
 3242000   0.73711786    -2.808635    2606.4885  0.066997955  0.066329177            3 
 3243000   0.74009981   -2.8210424    2601.4293  0.066847293  0.066315783            6 
 3244000   0.73285678   -2.8149011    2599.6835   0.06678184    0.0663024            5 
 3245000   0.74731766   -2.8204668    2601.1105  0.066797907  0.066289014            5 
 3246000   0.73126979   -2.8244154    2598.8493  0.066719276  0.066275604           11 
 3247000    0.7358149   -2.8021276     2601.791  0.066774228  0.066262181            6 
 3248000   0.73000468   -2.8058032    2596.2598  0.066611756  0.066248936            5 
 3249000   0.73139344   -2.8041195    2590.9661  0.066455475  0.066235512            4 
 3250000   0.74325699   -2.8287627    2590.8129    0.0664311  0.066221972            2 
 3251000   0.71555742    -2.814666    2602.7275  0.066716076  0.066208452            7 
 3252000   0.73840696   -2.8151523    2603.6557  0.066719345  0.066195095            6 
 3253000   0.72900258   -2.8243237    2599.5875  0.066594617  0.066181667            4 
 3254000   0.73143073   -2.8297782    2601.8085  0.066631032  0.066168226            7 
 3255000   0.72205586   -2.7870664    2616.0078  0.066974087  0.066154701            4 
 3256000   0.71816902   -2.8187527    2599.1617  0.066522362  0.066141373           11 
 3257000   0.71494377   -2.8214238    2599.7027  0.066515779  0.066127941            4 
 3258000   0.72287785   -2.8236346    2599.3951  0.066487495  0.066114463            5 
 3259000   0.73197843   -2.8119842    2609.2885  0.066720071   0.06610115            4 
 3260000   0.71951598   -2.8152283    2602.2468    0.0665196  0.066087779           10 
 3261000   0.73172518   -2.8094286    2607.2408  0.066626823  0.066074341            4 
 3262000   0.72333311   -2.8115128    2604.3358  0.066532183  0.066061078            5 
 3263000   0.73200315   -2.8068925    2600.4026  0.066411343  0.066047671            3 
 3264000   0.70796445   -2.8181248    2604.5388  0.066496599  0.066034345            7 
 3265000   0.73873041   -2.8156441    2596.4681  0.066270242  0.066020865           11 
 3266000   0.73219091   -2.8102583    2604.4075  0.066452528  0.066007451            4 
 3267000   0.75163658   -2.8254804    2604.1816  0.066426427  0.065994047            4 
 3268000   0.71761194   -2.8030518    2604.1771  0.066405984   0.06598066            3 
 3269000     0.736519   -2.8139887    2608.6621  0.066500002  0.065967178            5 
 3270000    0.7212927   -2.8523215    2600.6795  0.066276235  0.065953791            4 
 3271000   0.73854974   -2.8121567    2597.2988  0.066169847  0.065940263            3 
 3272000   0.73106345    -2.823037    2602.8884  0.066291981  0.065926875            5 
 3273000   0.73867598   -2.8006558    2606.4156  0.066361534  0.065913456            5 
 3274000   0.72221398   -2.8332697    2606.2297  0.066336533  0.065900005            3 
 3275000   0.72142802   -2.8115062    2616.5669   0.06657931  0.065886652            2 
 3276000   0.72997278   -2.8141078    2611.0814  0.066419449  0.065873227            4 
 3277000   0.72085825   -2.8326923    2610.8901  0.066394317  0.065859871            3 
 3278000   0.72556849   -2.8343257     2601.219  0.066128204  0.065846524            6 
 3279000   0.72102351   -2.8384357    2603.2822  0.066160471  0.065833021            3 
 3280000   0.73289411    -2.827769    2608.0457  0.066261323  0.065819703            3 
 3281000   0.71078348   -2.8418473    2610.3221  0.066298946  0.065806385            3 
 3282000   0.73033057    -2.830989    2601.7585  0.066061306  0.065792991            3 
 3283000   0.71683079   -2.8386678    2612.6921  0.066318715   0.06577961            6 
 3284000   0.72253175   -2.8365972    2609.7016  0.066222634  0.065766106            4 
 3285000   0.73427496   -2.8236589    2604.5615  0.066072083   0.06575266            8 
 3286000   0.74010851   -2.8123804    2611.9082  0.066238289   0.06573931            8 
 3287000   0.72595016   -2.8290452    2610.6349  0.066185857   0.06572577            8 
 3288000   0.71173763   -2.8100741    2609.3907  0.066134191  0.065712236            7 
 3289000   0.71074257   -2.8296054    2610.3593  0.066138627  0.065698723            3 
 3290000   0.74071956   -2.8210233    2609.5907  0.066099055  0.065685338            2 
 3291000   0.70417001   -2.8561675    2604.1094  0.065940174  0.065671869            4 
 3292000   0.72967894   -2.8264693    2608.0555  0.066020035  0.065658259            4 
 3293000   0.72650147   -2.8503972    2602.5414  0.065860445  0.065644757            5 
 3294000   0.72227864   -2.8296994    2617.1859  0.066210937  0.065631242            3 
 3295000   0.71849236   -2.8451528    2598.9431  0.065729467   0.06561782            8 
 3296000   0.74613314   -2.8455598    2600.6348  0.065752295  0.065604298            5 
 3297000   0.73827102   -2.8060137    2612.6982   0.06603726  0.065590911           12 
 3298000   0.72607272   -2.8383821     2612.081  0.066001642  0.065577454            3 
 3299000   0.73185118   -2.8238855    2614.8678  0.066052032  0.065563944            4 
 3300000   0.71427216   -2.8285472    2616.2009  0.066065678  0.065550584            3 
 3301000   0.72018803   -2.8448447    2605.2413  0.065768992  0.065537274            5 
 3302000    0.7198636   -2.8521397    2602.0994  0.065669781  0.065523662            5 
 3303000   0.71701931   -2.8490211    2610.6761  0.065866287  0.065510172           10 
 3304000   0.72663188   -2.8322244     2607.276  0.065760592  0.065496579            9 
 3305000   0.73805796   -2.8187799    2608.7907  0.065778889  0.065483142            2 
 3306000   0.71843042   -2.8216866    2622.6976  0.066109538  0.065469653            2 
 3307000   0.72857044   -2.8265796    2617.5014  0.065958609  0.065456247            7 
 3308000   0.73944228    -2.815873    2615.1507  0.065879452  0.065442756            4 
 3309000   0.72017935   -2.8628475    2614.8091  0.065850938  0.065429312            5 
 3310000   0.72743164   -2.8150555    2614.7136   0.06582864  0.065415775            5 
 3311000   0.71378122   -2.8297566     2606.018  0.065589902  0.065402213            7 
 3312000   0.73151265   -2.8413073    2614.1123  0.065773761  0.065388741            5 
 3313000   0.74264222   -2.8451118    2606.8581  0.065571438  0.065375301            3 
 3314000   0.71877555   -2.8480334    2611.7231  0.065673988  0.065361741            5 
 3315000   0.72077099   -2.8245569    2615.4868  0.065748787   0.06534836            8 
 3316000   0.71727208   -2.8270685    2615.3085  0.065724479  0.065334936            3 
 3317000    0.7224659   -2.8102302    2621.8575  0.065869196  0.065321349            5 
 3318000   0.72290347   -2.8317795    2613.1423  0.065630458  0.065307804            3 
 3319000   0.70368465     -2.82086    2615.9221   0.06568048  0.065294265            3 
 3320000   0.71795829   -2.8354054    2618.9697  0.065737192  0.065280709            4 
 3321000   0.70243775   -2.8601596    2615.6726  0.065634663  0.065267206            5 
 3322000   0.71932555   -2.8194217    2615.2411  0.065604082  0.065253678            7 
 3323000   0.71417493    -2.822722    2612.9325  0.065526445  0.065240132           10 
 3324000   0.72598534   -2.8165056    2614.7469  0.065552219  0.065226586            6 
 3325000    0.7216601   -2.8367971    2615.2263  0.065544518  0.065213066            7 
 3326000   0.73611128   -2.8098205    2612.4253  0.065454633  0.065199602            5 
 3327000   0.70698834   -2.8379205    2613.1508  0.065453132  0.065186026            2 
 3328000   0.70956139   -2.8308814    2616.1279   0.06550801  0.065172421            7 
 3329000    0.7257888   -2.8547667    2616.9862  0.065509818  0.065158871            6 
 3330000   0.73620134   -2.8413755    2616.1102  0.065468224  0.065145293            4 
 3331000   0.72109862   -2.8396253    2620.2026  0.065550951  0.065131801            2 
 3332000   0.71801579   -2.8381966    2615.9684  0.065425379  0.065118323            5 
 3333000   0.73055496   -2.8385274    2615.9851  0.065406169  0.065104754            6 
 3334000   0.72253873    -2.839847    2618.4294  0.065447644  0.065091273            2 
 3335000   0.72164678   -2.8399756    2613.0365  0.065293265  0.065077697            8 
 3336000   0.72091846   -2.8486927    2615.0317  0.065323533  0.065064012            4 
 3337000   0.70955049   -2.8422044    2620.9921  0.065452805  0.065050343            6 
 3338000   0.71798614    -2.848375    2613.5114  0.065246439   0.06503669            4 
 3339000   0.72071919   -2.8467853    2624.8678  0.065510328  0.065023055            3 
 3340000   0.71462984   -2.8195029    2620.2864  0.065376407  0.065009456            4 
 3341000   0.71613172    -2.838411    2609.0752  0.065077202   0.06499593            5 
 3342000   0.71418396   -2.8251682    2616.4508  0.065241641  0.064982356            4 
 3343000   0.71342741   -2.8579996    2612.8445   0.06513223  0.064968718            6 
 3344000   0.70477485   -2.8549717    2617.3206  0.065224297  0.064955003            3 
 3345000    0.7183446   -2.8569187    2614.3566  0.065130958  0.064941488            3 
 3346000   0.71917315   -2.8283646    2618.7357  0.065220555  0.064927862            3 
 3347000    0.7185581   -2.8571645    2617.1088  0.065160561  0.064914188            7 
 3348000   0.70791289   -2.8363075    2618.8164  0.065183603  0.064900508            7 
 3349000    0.7025012   -2.8339943    2616.7488  0.065112691  0.064886916            4 
 3350000   0.73294156   -2.8450514     2618.258  0.065130795  0.064873346            3 
 3351000   0.71091678   -2.8495707    2621.0762  0.065181443  0.064859687            3 
 3352000   0.71150804   -2.8392802    2618.8275  0.065106094  0.064846059            4 
 3353000   0.72175738   -2.8421564    2623.4069  0.065200488  0.064832576            5 
 3354000    0.7152931   -2.8469598    2616.9935  0.065021703   0.06481906            4 
 3355000   0.69715147   -2.8519871    2623.8782  0.065173329  0.064805538            8 
 3356000   0.70861945   -2.8319847     2629.155  0.065284938  0.064791927            3 
 3357000   0.72035711   -2.8498711      2615.65  0.064930244  0.064778363           13 
 3358000   0.72264084   -2.8429585     2625.247  0.065149072  0.064764768            4 
 3359000   0.72099189   -2.8520684    2621.8186  0.065044622   0.06475107            4 
 3360000   0.72294754   -2.8455819    2621.3692  0.065014116  0.064737427            4 
 3361000   0.70357722   -2.8316536    2615.3936  0.064846614  0.064723771            4 
 3362000   0.70579308   -2.8478702    2622.7476  0.065009608   0.06471021            4 
 3363000   0.71788822   -2.8485845    2621.8533  0.064968116  0.064696563            4 
 3364000   0.69260855   -2.8447343    2628.9763  0.065125255  0.064682884            4 
 3365000   0.70592567   -2.8543959    2614.4787  0.064746871  0.064669275            4 
 3366000   0.70588546   -2.8511383    2621.0932  0.064891395  0.064655552            5 
 3367000   0.72715795   -2.8636468    2625.3107  0.064976505  0.064641877            5 
 3368000   0.72126513   -2.8498687    2627.9341  0.065022123  0.064628201            2 
 3369000    0.7203233   -2.8285567    2625.1771  0.064934627  0.064614482            3 
 3370000   0.71532427   -2.8439017    2624.7469   0.06490472  0.064600923            3 
 3371000   0.71640672   -2.8529384    2623.6872  0.064859269  0.064587407            6 
 3372000   0.70525156   -2.8370717    2631.3091  0.065028397  0.064573646            2 
 3373000   0.71302095    -2.847088    2622.3733  0.064788351  0.064559965            6 
 3374000   0.70768911   -2.8336333    2627.2208  0.064888875   0.06454634            8 
 3375000   0.71322174   -2.8466414    2632.2013  0.064992625  0.064532737            5 
 3376000   0.71142137   -2.8349458    2625.6007  0.064810444  0.064519038            4 
 3377000   0.71519152   -2.8345349     2626.466  0.064812606  0.064505492            5 
 3378000   0.72718481   -2.8453608    2624.1078  0.064735243  0.064491871            6 
 3379000   0.70849282   -2.8287948    2631.9524  0.064909549  0.064478287            3 
 3380000   0.71799525   -2.8541178    2629.1956  0.064822376  0.064464594            4 
 3381000   0.70846284   -2.8500558    2625.2234  0.064705299  0.064451008            8 
 3382000    0.7131437   -2.8543768    2617.8482  0.064504441  0.064437455            5 
 3383000   0.71555025   -2.8705837    2630.6448  0.064800592  0.064423824            2 
 3384000   0.71437379   -2.8337481      2632.24  0.064820725  0.064410266            6 
 3385000   0.71915364   -2.8722657    2623.1766   0.06457845  0.064396633            3 
 3386000   0.70090295   -2.8719304     2627.143  0.064656994  0.064382938            6 
 3387000   0.70926714   -2.8304154    2632.5754  0.064771562  0.064369447            4 
 3388000   0.70456721   -2.8448176    2627.8695  0.064636696   0.06435601            3 
 3389000   0.71712885   -2.8383429    2628.8368  0.064641407  0.064342451            3 
 3390000   0.70703772   -2.8443124    2627.5974  0.064591872  0.064328938            5 
 3391000    0.6957444   -2.8549812    2629.1736  0.064611559  0.064315368            8 
 3392000   0.69586358   -2.8345952    2638.4895  0.064821382  0.064301709            4 
 3393000   0.71101683    -2.862279    2623.1933  0.064426596  0.064288031            2 
 3394000   0.71271784   -2.8592431    2633.7699  0.064667303  0.064274289            2 
 3395000   0.72587295   -2.8115925    2627.5401  0.064495339  0.064260667            8 
 3396000   0.70247129   -2.8390338    2629.3273  0.064520202   0.06424697            8 
 3397000   0.70589077   -2.8590805    2628.6701  0.064485086  0.064233351            6 
 3398000   0.70844191   -2.8550324    2624.4476  0.064362556  0.064219729            5 
 3399000   0.72104523   -2.8509263    2635.2933  0.064609526  0.064206079            6 
 3400000   0.70428231   -2.8601514    2635.0792  0.064585274  0.064192374            3 
 3401000   0.70633645   -2.8566786    2629.8743  0.064438751  0.064178835            5 
 3402000   0.70414534   -2.8493984    2637.3366  0.064602602  0.064165272            4 
 3403000   0.69889922   -2.8457025    2632.5669  0.064466817  0.064151748            3 
 3404000   0.71265101   -2.8498361    2639.5464  0.064618741  0.064138157            6 
 3405000   0.71991355   -2.8619064    2632.2766  0.064421846   0.06412447            4 
 3406000   0.70110896   -2.8530782    2635.1541  0.064473333  0.064110937            1 
 3407000   0.70090749   -2.8539988    2638.7803  0.064543104  0.064097301            9 
 3408000   0.70453034   -2.8564174    2638.3763  0.064514287  0.064083826            5 
 3409000   0.69320939    -2.864882    2629.4364  0.064276826  0.064070227            4 
 3410000   0.70518163   -2.8601481    2633.8878  0.064366759  0.064056561            4 
 3411000   0.70939414   -2.8640437    2636.8551  0.064420382  0.064042984            6 
 3412000   0.70070612   -2.8563206    2638.4895   0.06444142  0.064029225            3 
 3413000   0.69594929   -2.8584372    2625.9924  0.064117403  0.064015508            9 
 3414000   0.72996826   -2.8656129    2625.0318  0.064075176  0.064001905            6 
 3415000   0.70527978   -2.8551403    2637.2122  0.064353642    0.0639882            5 
 3416000   0.69934955   -2.8488534    2631.1425  0.064186731  0.063974565            6 
 3417000   0.69723817   -2.8626337    2626.9123  0.064064782  0.063960908            4 
 3418000   0.70380658   -2.8707156    2636.8704  0.064288825  0.063947233            5 
 3419000    0.7220355   -2.8307352    2629.0004    0.0640782  0.063933592            4 
 3420000   0.70420518   -2.8737479    2624.3768  0.063946804   0.06391993            8 
 3421000   0.71778552   -2.8530755    2636.1526  0.064214961  0.063906253            4 
 3422000   0.70364889   -2.8462613    2630.2738  0.064053035  0.063892649           12 
 3423000   0.71825489   -2.8570991    2637.4675  0.064209453  0.063879017            4 
 3424000   0.72090393   -2.8761535    2631.3269   0.06404125  0.063865319            7 
 3425000   0.69413406   -2.8768008    2643.8724  0.064327796  0.063851627            5 
 3426000    0.7110364   -2.8525084    2631.9872  0.064019925  0.063837938            7 
 3427000   0.71690326   -2.8569593    2635.3641  0.064083359  0.063824273            8 
 3428000   0.69534562   -2.8592798    2638.7376  0.064146675   0.06381076            5 
 3429000   0.70487567   -2.8749757    2640.1879  0.064163213  0.063797223            6 
 3430000   0.70768188   -2.8407487    2636.4526  0.064053756  0.063783706            2 
 3431000   0.68315032   -2.8731304    2637.7896   0.06406756  0.063770194            4 
 3432000   0.69750729   -2.8523098    2645.0941  0.064226255   0.06375664            7 
 3433000   0.70539121   -2.8852451    2630.3195  0.063848904  0.063743087            5 
 3434000   0.71599658   -2.8776829    2634.9967  0.063943815  0.063729432            4 
 3435000    0.7022456   -2.8560915     2637.541  0.063986923  0.063715959            2 
 3436000   0.70737747   -2.8519012    2642.1324  0.064079657  0.063702487            5 
 3437000   0.69859501   -2.8626818    2641.4403  0.064044231  0.063688969            4 
 3438000   0.70661952    -2.858312    2641.3686  0.064023867  0.063675416            6 
 3439000   0.69513132   -2.8788412    2629.5157  0.063718031  0.063661858            5 
 3440000   0.71472602   -2.8515259    2647.1188   0.06412594   0.06364834            4 
 3441000   0.70118186   -2.8736752    2639.5969  0.063925141  0.063634781            3 
 3442000   0.69192986   -2.8548039    2634.1754  0.063775311  0.063621161            5 
 3443000   0.70343029   -2.8687371     2639.129  0.063876683  0.063607448            7 
 3444000   0.70450599   -2.8630737    2643.2974  0.063958997  0.063593868            5 
 3445000   0.70766734   -2.8494366     2650.974  0.064126124  0.063580386           12 
 3446000   0.68746249   -2.8653119    2635.3212   0.06372899  0.063566744            7 
 3447000   0.68503736   -2.8524606    2641.5228   0.06386043  0.063553164            5 
 3448000   0.69062257   -2.8550942    2636.7149  0.063725709  0.063539524            4 
 3449000    0.6960146   -2.8866521    2636.2708  0.063696501  0.063525775            2 
 3450000    0.6920153   -2.8618266     2641.524  0.063804929  0.063512138            4 
 3451000   0.69171374   -2.8715643    2636.5025  0.063665183  0.063498523            4 
 3452000   0.68503391   -2.8491318    2642.6402  0.063794907  0.063484938            4 
 3453000   0.68699406    -2.869538    2635.4641  0.063603247  0.063471231            4 
 3454000   0.68414765    -2.843078    2640.2518  0.063700342  0.063457641           14 
 3455000   0.70397626   -2.8769203     2637.243  0.063609334  0.063444003            5 
 3456000   0.69605957   -2.8499852    2636.3634   0.06356972  0.063430353            3 
 3457000   0.72069077   -2.8623123    2639.0393  0.063615834  0.063416645            5 
 3458000    0.6834369   -2.8602628    2637.5255  0.063560959   0.06340304            5 
 3459000   0.68274071   -2.8662064    2650.1455   0.06384662    0.0633894            4 
 3460000   0.69814929    -2.867441    2640.2078   0.06358882   0.06337576            3 
 3461000   0.69631657   -2.8646738    2648.8698  0.063779009  0.063362162            4 
 3462000   0.71172128   -2.8538939    2649.9628  0.063786896  0.063348565            4 
 3463000   0.68858719   -2.8799501    2644.0557  0.063626329  0.063334948            8 
 3464000    0.7020816    -2.892914    2632.2191  0.063323209  0.063321207            5 
 3465000    0.7026016    -2.862408    2645.5719  0.063626069  0.063307494            4 
 3466000   0.70361845   -2.8751328    2647.0127  0.063642352  0.063293852            6 
 3467000   0.70820592    -2.852229    2643.2082   0.06353255  0.063280191            5 
 3468000   0.69986128   -2.8424226    2652.8448  0.063745791  0.063266561            3 
 3469000   0.68794313   -2.8604672    2648.6732  0.063627203  0.063252948            4 
 3470000   0.67172939   -2.8879369    2646.5849  0.063558714  0.063239226            2 
 3471000   0.67751528   -2.8825357    2636.0908  0.063288456  0.063225582            3 
 3472000   0.68838214   -2.8685837     2648.056  0.063557412  0.063211963            4 
 3473000   0.69888717   -2.8657701    2646.0739  0.063491553  0.063198271            5 
 3474000   0.69727081   -2.8708173    2648.2151  0.063524637  0.063184672            9 
 3475000   0.70423943   -2.8694064     2649.407   0.06353494  0.063171118            4 
 3476000   0.69107946   -2.8884566    2645.5813  0.063424945  0.063157443            3 
 3477000   0.70043553   -2.8751559    2652.5251  0.063573125  0.063143801            8 
 3478000    0.6965697   -2.8658835    2645.4605  0.063385579  0.063130135            5 
 3479000    0.6803395   -2.8812188    2657.2644    0.0636501   0.06311639            6 
 3480000   0.68975128   -2.8739268    2639.2801  0.063201153  0.063102719            3 
 3481000   0.70295121   -2.8764199    2646.6621  0.063359718  0.063089133            6 
 3482000   0.70594563   -2.8458962    2644.9818  0.063301308  0.063075411            9 
 3483000   0.71195805   -2.8565992    2655.0945  0.063525085  0.063061834            5 
 3484000    0.6966706   -2.8976734    2635.8084  0.063045552   0.06304817            5 
 3485000   0.69216192   -2.8831831    2650.1307  0.063369936  0.063034541            4 
 3486000   0.70939945   -2.8875717    2645.8005  0.063248243  0.063020925            4 
 3487000   0.67908867   -2.8712416    2651.8386  0.063374406  0.063007246            3 
 3488000   0.70581036   -2.8724132    2645.2973  0.063199955   0.06299366            4 
 3489000   0.70102299    -2.874893    2649.9012  0.063291803  0.062979948           11 
 3490000   0.68987235   -2.8897358    2647.6938   0.06322096  0.062966184            4 
 3491000   0.69902238   -2.8565754    2642.9648  0.063089964  0.062952469            4 
 3492000   0.69482095    -2.868247    2647.0859  0.063170244  0.062938728            5 
 3493000   0.69540695   -2.8713501    2647.2746  0.063156661  0.062924963           10 
 3494000   0.70377159   -2.8864011    2644.5157  0.063072785  0.062911292            4 
 3495000   0.69161895   -2.8470599    2655.8234  0.063324354  0.062897717            3 
 3496000   0.69000888   -2.8876968    2640.9149  0.062950869  0.062884028            7 
 3497000   0.69359333   -2.8754309    2650.1198   0.06315222  0.062870358            4 
 3498000   0.69060712    -2.870457    2654.4296  0.063236841  0.062856778           13 
 3499000   0.69031532   -2.8835241    2652.2171  0.063166074  0.062843157            3 
 3500000   0.71014973   -2.8757594    2648.4946  0.063059395    0.0628296            7 
 3501000   0.71150643   -2.9023916    2648.8971  0.063050964  0.062816026            4 
 3502000   0.70138008   -2.9010997    2656.7934  0.063220858  0.062802306            6 
 3503000    0.6792846    -2.880762    2661.1059  0.063305402  0.062788782            4 
 3504000   0.69850296   -2.8680892    2652.3817  0.063079854  0.062775262            9 
 3505000   0.68451599   -2.8889541    2640.2033   0.06277231  0.062761582            6 
 3506000   0.70728305   -2.8681637    2647.4308  0.062926194   0.06274796            8 
 3507000   0.68547051   -2.8970311    2655.8795  0.063109008  0.062734378            7 
 3508000   0.67902833   -2.8790741    2654.5954  0.063060514  0.062720754            6 
 3509000   0.69410722   -2.8839408    2645.4257  0.062824776  0.062707162            3 
 3510000   0.68216508   -2.8788545    2644.2345  0.062778597  0.062693548            8 
 3511000   0.69230247   -2.8657949    2658.2028  0.063092253  0.062679879            7 
 3512000   0.70052057   -2.8872308    2639.6657  0.062634437  0.062666241            4 
 3513000   0.69580554   -2.8972923    2659.6975  0.063091789  0.062652405           16 
 3514000   0.68396039   -2.8780344    2655.2353  0.062968015   0.06263868            8 
 3515000   0.67547796   -2.8593844    2656.2261  0.062973592   0.06262514            8 
 3516000   0.69646953   -2.8802959    2653.2325   0.06288473  0.062611649            3 
 3517000   0.68351778   -2.8760498    2652.4835  0.062849101  0.062598098            4 
 3518000   0.68433981   -2.8868735    2657.9299  0.062960249   0.06258454            6 
 3519000   0.69797262   -2.8555614    2657.5004  0.062932188  0.062570984            5 
 3520000   0.69063034   -2.8757871    2660.4321  0.062983715  0.062557375            4 
 3521000   0.67795454   -2.8802251    2652.8408   0.06278616  0.062543795            3 
 3522000   0.68744121    -2.907234    2660.6683  0.062953538  0.062530143            3 
 3523000   0.69610635   -2.8672984    2659.1718  0.062900269  0.062516553            5 
 3524000   0.67332309   -2.8563337     2659.913  0.062899947  0.062502947            5 
 3525000   0.69379201   -2.8641842    2653.7501   0.06273641  0.062489431            5 
 3526000   0.69229539    -2.869341    2660.6681  0.062882116  0.062475917            6 
 3527000   0.69507373   -2.8781841    2655.7295  0.062747602  0.062462397            8 
 3528000   0.68148842   -2.8939457    2658.9075  0.062804883  0.062448786            7 
 3529000   0.69684701   -2.9012043     2648.482    0.0625409  0.062435222            5 
 3530000   0.68144387   -2.8777104    2654.4797   0.06266477  0.062421681           12 
 3531000   0.68268523   -2.8677296    2659.7161  0.062770606  0.062408076            8 
 3532000   0.66487218   -2.8645795    2667.7087   0.06294141  0.062394544            4 
 3533000   0.67453518   -2.8783799    2658.4004  0.062704037   0.06238102            2 
 3534000   0.68684117   -2.9012193    2656.3548   0.06263806  0.062367508            5 
 3535000   0.68684913   -2.8827936    2663.2867  0.062783751   0.06235393            8 
 3536000   0.68212481   -2.8786929    2654.5505  0.062560108  0.062340471            4 
 3537000   0.67660467   -2.8710768     2663.277  0.062748021  0.062327045            4 
 3538000   0.69015579   -2.8636827    2665.1364  0.062774081   0.06231359            5 
 3539000    0.6836283   -2.8860116    2669.5615  0.062860543  0.062300193            5 
 3540000   0.67447394   -2.8784771    2660.3955  0.062627014  0.062286742            3 
 3541000    0.6848239   -2.8833955    2656.0888  0.062507972  0.062273292            5 
 3542000   0.69541137   -2.9094607     2660.844  0.062602201  0.062259782            4 
 3543000   0.68719225    -2.874955    2659.4885   0.06255265  0.062246382            8 
 3544000   0.68967176   -2.8860915    2653.3216  0.062389992  0.062232865            5 
 3545000   0.67777795   -2.8745441    2672.3167  0.062818916  0.062219427            6 
 3546000   0.68774344   -2.8916188    2661.9187  0.062556842  0.062206015            9 
 3547000   0.67561227   -2.9029181    2665.5564  0.062624669  0.062192523            8 
 3548000   0.68679834   -2.8936318    2660.6501  0.062491782    0.0621791            4 
 3549000   0.69509875   -2.8728222    2665.2982  0.062583315  0.062165691            7 
 3550000   0.67417809    -2.874894    2661.6855  0.062480881  0.062152306            6 
 3551000   0.67065592   -2.8927975    2656.7623  0.062347749  0.062138824            5 
 3552000    0.6783235   -2.8989209     2663.068  0.062478134  0.062125378            4 
 3553000   0.68947486   -2.8914749    2671.8526  0.062666587  0.062111932            4 
 3554000     0.696578   -2.8854677    2664.7611  0.062482675  0.062098509            6 
 3555000   0.68071883   -2.8600705    2663.7145  0.062440564  0.062085035            3 
 3556000   0.68707541   -2.8820342    2664.9705  0.062452441   0.06207152            7 
 3557000   0.68530379    -2.870711    2668.6122    0.0625202   0.06205815            3 
 3558000    0.6840636   -2.8982148    2666.0103  0.062441687    0.0620448            6 
 3559000   0.68596643   -2.8792087    2669.7434  0.062511553  0.062031414            4 
 3560000   0.68096804    -2.885172     2667.952  0.062452061   0.06201808            8 
 3561000   0.67885136   -2.8709413    2675.1072  0.062601966  0.062004592            5 
 3562000   0.67302326    -2.872993    2666.0713  0.062372994  0.061991216            3 
 3563000   0.68679656   -2.8861482    2676.3087  0.062594928  0.061977817            5 
 3564000   0.68853444   -2.8985462    2667.4258  0.062369664  0.061964372            3 
 3565000   0.67874522   -2.8897619    2671.8008  0.062454436  0.061950861            9 
 3566000   0.68261121   -2.8808136     2663.537  0.062243807  0.061937434            4 
 3567000   0.70323386   -2.8820372    2675.8289  0.062513525  0.061924082            8 
 3568000   0.66673343   -2.8978545    2671.9818  0.062406153   0.06191068            7 
 3569000   0.67874276   -2.8679537    2667.5491  0.062285167  0.061897249            7 
 3570000   0.66969088   -2.8911363    2668.7276  0.062295229  0.061883831            4 
 3571000   0.68663742   -2.8975352    2669.2574  0.062290146  0.061870499           11 
 3572000   0.70239039   -2.8705813    2681.0667  0.062548215  0.061857123            5 
 3573000   0.68264875   -2.8938336    2662.8199  0.062105138  0.061843789            4 
 3574000   0.68754412   -2.8890823    2676.6945  0.062411268  0.061830489            5 
 3575000   0.68965407   -2.9087321    2672.0062  0.062284526  0.061817158            6 
 3576000   0.68262399    -2.891623    2667.1739  0.062154499  0.061803872            7 
 3577000   0.67656325   -2.9019281    2669.5094  0.062191535  0.061790666            8 
 3578000    0.6624314   -2.9062311    2669.1577  0.062165961  0.061777411            7 
 3579000   0.68287245   -2.9144865    2675.8464  0.062304331  0.061764042            7 
 3580000   0.68705819   -2.8949835    2671.4281  0.062184082  0.061750691            6 
 3581000   0.67487345   -2.8721514    2678.2329  0.062325071  0.061737396           15 
 3582000   0.68000575   -2.8952969    2669.1206  0.062095677  0.061724102            5 
 3583000   0.68848448   -2.8915329    2674.8027  0.062210501  0.061710913            3 
 3584000   0.65996208   -2.8841094    2672.5981  0.062141882   0.06169771            5 
 3585000   0.68813435   -2.9157514    2675.5803  0.062193869  0.061684437            7 
 3586000    0.6716089   -2.8902436    2678.2203  0.062237876  0.061671056            3 
 3587000   0.68287543   -2.9016326    2669.0175  0.062006726   0.06165782            4 
 3588000   0.68122363    -2.909139    2675.8049  0.062147086  0.061644443            4 
 3589000   0.68353447   -2.9216667    2674.7675  0.062105682  0.061631216            9 
 3590000   0.69088978   -2.9121902    2673.0638  0.062048836  0.061618003            4 
 3591000   0.67103909   -2.8912328    2678.6657  0.062161555  0.061604804            6 
 3592000    0.6840249   -2.9006024    2680.6442  0.062190149  0.061591645            6 
 3593000   0.67230166     -2.89944    2670.6259  0.061940483  0.061578393            7 
 3594000    0.6806684   -2.8905699    2684.3655  0.062241826  0.061565216            5 
 3595000   0.67249921   -2.8893973     2685.955  0.062261358  0.061552013            5 
 3596000   0.69006112   -2.8934802    2680.8558  0.062125877  0.061538971            3 
 3597000   0.68447628   -2.9026385    2677.7688  0.062037087  0.061525782           10 
 3598000   0.68673037   -2.9207863     2681.912  0.062115805  0.061512516            4 
 3599000   0.67947679    -2.910186    2679.8449  0.062050684  0.061499261            4 
 3600000   0.68074619   -2.8693507    2680.3938  0.062046154   0.06148609            3 
 3601000   0.67001349   -2.8885134     2681.161  0.062046677  0.061472913            4 
 3602000   0.67821796   -2.9047007    2679.9169  0.062000668   0.06145974            3 
 3603000   0.68128436     -2.90335    2674.5838  0.061860113  0.061446445            5 
 3604000   0.67236199   -2.8652646    2677.3804  0.061907612  0.061433181            8 
 3605000   0.69198819   -2.9043353    2682.4172   0.06200687  0.061420003            5 
 3606000   0.68328538   -2.9126398    2677.8619  0.061884404  0.061406778            6 
 3607000   0.68487506   -2.9199804    2679.2751  0.061899896  0.061393478            6 
 3608000   0.67264184   -2.9006785    2675.8408  0.061803419  0.061380267            4 
 3609000   0.66767499    -2.918176    2682.2982  0.061935397  0.061367057            5 
 3610000   0.67357023   -2.8936495    2686.1705   0.06200763  0.061353887            4 
 3611000   0.68521251   -2.8822001    2680.4549  0.061858556  0.061340825            4 
 3612000   0.68147567   -2.8767354    2688.5072  0.062027205  0.061327813            3 
 3613000   0.67171978   -2.9218999    2681.1485   0.06184031  0.061314605            5 
 3614000   0.66812731   -2.8950647    2681.1231  0.061822612  0.061301544            4 
 3615000   0.67243463   -2.8940053    2686.1756  0.061921983  0.061288497            6 
 3616000   0.66185468   -2.8820152    2687.3999  0.061933073   0.06127546            7 
 3617000   0.65996072   -2.9036091    2690.4865  0.061987064  0.061262405            5 
 3618000   0.67133015   -2.9040761    2686.7692   0.06188431  0.061249253            3 
 3619000   0.67717258   -2.9068923    2683.7114  0.061796799  0.061236088            7 
 3620000   0.67915482   -2.9176293    2682.2201  0.061745398  0.061222932            4 
 3621000   0.68301059    -2.904213    2684.6676  0.061784674  0.061209799            6 
 3622000     0.665739   -2.9100125    2693.6159  0.061973492  0.061196733            4 
 3623000   0.66814085   -2.9174651    2682.3806  0.061697962    0.0611836            9 
 3624000   0.66754476   -2.9050472    2690.6497  0.061871083  0.061170665            3 
 3625000   0.68416856   -2.9175302    2690.3117  0.061846246  0.061157686            6 
 3626000   0.68163902   -2.9054479    2686.0516  0.061731283  0.061144654            8 
 3627000   0.67283028   -2.8980458    2693.3329  0.061881558  0.061131661            4 
 3628000   0.66832258   -2.9129213    2689.0766  0.061766735  0.061118644            6 
 3629000    0.6778176   -2.9039674    2691.2566  0.061799774  0.061105618            7 
 3630000   0.67039194    -2.883377    2683.4632  0.061603838  0.061092579            4 
 3631000   0.67527426    -2.935617    2683.7168  0.061592692  0.061079576            5 
 3632000   0.67556247    -2.916382     2693.911  0.061809632  0.061066589            5 
 3633000   0.66541862   -2.8868607    2693.2107  0.061776556  0.061053619            9 
 3634000   0.66612262   -2.9018819     2679.668     0.061449  0.061040706           12 
 3635000   0.67339583   -2.9042078    2696.1903  0.061810875  0.061027829           14 
 3636000   0.67159359   -2.9122229    2685.8817  0.061557612  0.061014822           15 
 3637000   0.65977929   -2.9021303    2688.2584  0.061595143  0.061001711            6 
 3638000   0.66373131   -2.9032041    2681.8373  0.061431128  0.060988641            8 
 3639000   0.65963779   -2.8904615    2683.7478  0.061457997   0.06097564            3 
 3640000   0.67302642   -2.8917777    2693.8678  0.061672798  0.060962667            4 
 3641000   0.67009315   -2.9101328    2699.3422  0.061781155  0.060949821            4 
 3642000   0.68251137   -2.9095351    2692.5187  0.061608061  0.060936944            6 
 3643000   0.65924683   -2.9221845    2690.6879   0.06154927  0.060924065            5 
 3644000   0.67074649   -2.9253215    2690.3169  0.061523895  0.060911156            8 
 3645000   0.68605251    -2.906053    2691.2028  0.061527269  0.060898167            8 
 3646000    0.6763339   -2.9002457    2691.0615  0.061507164  0.060885235            5 
 3647000   0.65978824   -2.8937256    2694.1728  0.061561394  0.060872322            4 
 3648000   0.64693173   -2.8799683    2688.9435  0.061425062  0.060859401            4 
 3649000   0.66035176   -2.9067282    2703.3491  0.061737213  0.060846529            6 
 3650000   0.66586018   -2.9080742    2697.9573    0.0615972  0.060833668            7 
 3651000   0.67063791   -2.9089662    2693.1105    0.0614697  0.060820756            9 
 3652000    0.6561325   -2.8993125    2697.5593  0.061554384  0.060807771            4 
 3653000   0.66443802   -2.8887045    2689.6375  0.061356819  0.060794911            3 
 3654000   0.65721259   -2.8999669    2699.8271  0.061572412  0.060782035            8 
 3655000   0.66383989   -2.9040756    2697.5783  0.061504293  0.060769167            6 
 3656000   0.67153631   -2.9292822    2691.6599  0.061352569  0.060756247            5 
 3657000   0.67579823   -2.9055035    2691.8785  0.061340773  0.060743372            2 
 3658000   0.65197964    -2.906816    2696.6988  0.061433817  0.060730532            5 
 3659000    0.6599511   -2.9249458    2704.2976  0.061590087  0.060717682            3 
 3660000   0.68067203   -2.9008038    2700.3568  0.061483534  0.060704907           10 
 3661000   0.65008936   -2.9028518    2697.5557   0.06140298   0.06069207            5 
 3662000     0.645259   -2.9044521     2700.843  0.061461018  0.060679281            6 
 3663000   0.66420467   -2.9315835    2696.4108  0.061343406  0.060666389            3 
 3664000   0.65902199   -2.8971366    2697.9653  0.061362021  0.060653508           15 
 3665000   0.65992745   -2.9040155    2705.5497  0.061517727  0.060640649           12 
 3666000   0.65697151   -2.9236895    2695.5387  0.061273384  0.060627854            5 
 3667000   0.65721832   -2.9038764    2697.8368    0.0613089  0.060614969            4 
 3668000   0.66903027   -2.9019641    2696.0483  0.061251552  0.060602117            9 
 3669000   0.65587463    -2.919456    2704.4477  0.061425632   0.06058937           13 
 3670000   0.66294048   -2.9143359    2694.5269  0.061183625  0.060576493            6 
 3671000   0.65889407   -2.9205049    2696.3961  0.061209391  0.060563615            5 
 3672000   0.67181087   -2.9285514    2703.3759  0.061351123  0.060550808            7 
 3673000   0.66523269   -2.9341326    2697.7843  0.061207557  0.060538038            3 
 3674000    0.6676589   -2.9332618      2697.31   0.06118014  0.060525248            7 
 3675000   0.65558447   -2.9015172    2702.5669  0.061282696  0.060512457            4 
 3676000   0.66713331   -2.9552349    2695.5559   0.06110709  0.060499625            4 
 3677000   0.65688443   -2.9163728    2705.0675  0.061306035  0.060486844            7 
 3678000   0.65771027   -2.9031624    2702.6616  0.061234855  0.060474065            4 
 3679000   0.66213529   -2.9011804    2703.6509  0.061240619  0.060461246            3 
 3680000   0.65153669   -2.9098377    2702.6458  0.061201218   0.06044851            5 
 3681000    0.6619754    -2.921911    2701.5446  0.061159663  0.060435777            5 
 3682000   0.65579628   -2.9005616    2710.3939  0.061343335  0.060423122            5 
 3683000   0.64906118   -2.9057474    2703.9035  0.061179824  0.060410505            3 
 3684000   0.66864179   -2.9272792    2701.8298   0.06111631  0.060397803            5 
 3685000   0.66468983   -2.9197796    2701.9739  0.061102983  0.060385122            7 
 3686000   0.66695996   -2.9256685    2711.3563  0.061298523  0.060372457            9 
 3687000   0.66710212   -2.9240128    2712.1672  0.061300226  0.060359873            5 
 3688000   0.67557146   -2.9195239    2700.9833  0.061030896   0.06034716            9 
 3689000   0.65834938    -2.930846    2700.3381  0.060999775  0.060334395           13 
 3690000   0.66604518   -2.9049888    2705.2153  0.061093389  0.060321592            4 
 3691000   0.65293719   -2.9190156    2703.5933  0.061040218  0.060308829            5 
 3692000    0.6624939   -2.8953983     2714.777  0.061276115  0.060296125            4 
 3693000   0.64301725   -2.9349825    2704.6289  0.061030529  0.060283383           10 
 3694000   0.66538247   -2.9198865    2712.9999  0.061202849  0.060270673            4 
 3695000    0.6615445   -2.9236054    2698.9116  0.060868552  0.060257914            3 
 3696000   0.67744082    -2.903239    2700.5964   0.06089007   0.06024516            4 
 3697000   0.65236969   -2.9026419    2702.7793  0.060922804  0.060232442           12 
 3698000   0.66385433    -2.930113    2714.5305   0.06117114  0.060219649            4 
 3699000   0.66582114   -2.9188774    2709.6533  0.061044727  0.060206864            4 
 3700000    0.6565701   -2.9288889    2700.4205  0.060820281  0.060194038           11 
 3701000   0.67081529   -2.9276809    2711.6808  0.061057389  0.060181307            6 
 3702000   0.66796313   -2.9071248     2709.268  0.060986583  0.060168632            5 
 3703000   0.67325502   -2.9069707    2706.3755  0.060905021  0.060155923            5 
 3704000    0.6691566     -2.93231     2708.492  0.060936195  0.060143238           16 
 3705000   0.66526435   -2.9157389    2716.5918   0.06110193  0.060130544            6 
 3706000   0.65993621   -2.9165884    2711.0199  0.060960151  0.060117841            4 
 3707000   0.65409161   -2.9221632     2713.395  0.060997101  0.060105173           12 
 3708000   0.67007214   -2.9284506    2713.9327  0.060992734  0.060092458            8 
 3709000   0.65386567   -2.9235396    2705.3635  0.060783758  0.060079701            7 
 3710000   0.66025366   -2.9417804    2718.3365   0.06105877  0.060067023           11 
 3711000   0.66079895   -2.9207935    2705.0335   0.06074359  0.060054324            6 
 3712000   0.67195956   -2.9230518    2700.7389  0.060630813  0.060041622            4 
 3713000   0.66260143   -2.9272615    2706.3815  0.060741124  0.060028853            5 
 3714000   0.66853293   -2.9261841    2707.2492  0.060744237  0.060016142           13 
 3715000   0.63657979   -2.9191437    2714.3525  0.060887224  0.060003424           14 
 3716000   0.65801143   -2.9282955    2704.5415  0.060650824  0.059990627            9 
 3717000    0.6522087   -2.9306372    2709.1333  0.060737452  0.059977937            5 
 3718000    0.6418902   -2.9153248    2711.8311  0.060781583  0.059965304            5 
 3719000   0.65810611   -2.9059749    2718.7535  0.060920354  0.059952687            4 
 3720000   0.66955458   -2.9234463    2714.3112  0.060804463  0.059939979            5 
 3721000   0.64534948   -2.9125317    2708.3717  0.060655105  0.059927265            8 
 3722000   0.65005178   -2.9336504    2715.2681  0.060793214  0.059914663            3 
 3723000   0.66078424   -2.9310538    2712.6005  0.060717175  0.059902002            4 
 3724000   0.65687965   -2.9159956    2708.0451  0.060598934  0.059889261            6 
 3725000   0.64889315   -2.9197832    2711.2582  0.060654547  0.059876516            9 
 3726000   0.64498487   -2.9242208    2715.0955   0.06072409  0.059863832            2 
 3727000   0.65517178   -2.9319439    2717.6875  0.060765753  0.059851177            9 
 3728000   0.64834776   -2.9275802    2708.5165  0.060544449  0.059838531            4 
 3729000   0.66061087   -2.9125864    2714.8951  0.060670759  0.059825926            3 
 3730000   0.65572059   -2.9155336     2719.467  0.060756636  0.059813295           12 
 3731000   0.65132763    -2.936768    2721.0256  0.060775162  0.059800638            8 
 3732000   0.64122202   -2.9088753    2717.5585  0.060681461  0.059787985            8 
 3733000    0.6628288   -2.9256108    2721.4992  0.060753174  0.059775361            7 
 3734000   0.65180491    -2.919081    2712.1063  0.060527279  0.059762732           10 
 3735000   0.65079351   -2.9299332    2715.3111  0.060582577  0.059750043            4 
 3736000   0.66057701    -2.926133    2720.5015  0.060682136  0.059737371            5 
 3737000   0.65453853   -2.9352015    2710.4779  0.060442376  0.059724765           16 
 3738000   0.66389381   -2.9415384     2718.635  0.060608056  0.059712116            5 
 3739000   0.65387368   -2.9288716    2722.3361  0.060674336  0.059699515            4 
 3740000   0.64918809   -2.9414326    2718.3324  0.060568903  0.059686794            5 
 3741000   0.64775332   -2.9313821    2712.7954  0.060429372  0.059674182            8 
 3742000   0.65056913    -2.930863    2712.5989  0.060408848  0.059661532           11 
 3743000   0.64236331   -2.9276733    2721.5115  0.060591138  0.059648951            8 
 3744000   0.63962541   -2.9422827    2729.0939  0.060743721  0.059636376            5 
 3745000   0.64407364   -2.9307772    2716.3508  0.060443943  0.059623665            4 
 3746000   0.65033061   -2.9416462    2721.1306  0.060534139  0.059610857            5 
 3747000   0.66071802   -2.9475755      2712.38  0.060323369  0.059598233            6 
 3748000   0.65990778   -2.9406923    2706.3153  0.060172433  0.059585434            5 
 3749000   0.66170067   -2.9340828    2725.4408  0.060581505  0.059572805            7 
 3750000   0.66000778   -2.9268627    2723.9606  0.060532459  0.059560185            6 
 3751000   0.63681827   -2.9535993    2720.9117  0.060448586  0.059547491            7 
 3752000   0.63857048   -2.9259301    2720.9981  0.060434393   0.05953481            5 
 3753000   0.64080017   -2.9511349    2711.7704  0.060213393  0.059522208            8 
 3754000   0.64912338   -2.9295903    2716.1565  0.060294719  0.059509623            8 
 3755000   0.64740093   -2.9488225    2729.5183  0.060575196  0.059497016            7 
 3756000   0.66314406   -2.9210803    2723.0867  0.060416373  0.059484438           10 
 3757000   0.64714617   -2.9247219    2718.0199  0.060287904   0.05947184            6 
 3758000   0.64110585   -2.9342851     2727.141  0.060474123  0.059459236            2 
 3759000   0.64383196   -2.9364152    2719.4492  0.060287515  0.059446647           10 
 3760000    0.6535718   -2.9189325      2716.53  0.060206781  0.059434083           10 
 3761000   0.63128256   -2.9330278    2714.6271  0.060148611   0.05942148            5 
 3762000    0.6589289   -2.9458639    2706.4592  0.059951692  0.059408716            8 
 3763000   0.63130399   -2.9345508    2718.0511  0.060192469  0.059396001            3 
 3764000   0.65861496   -2.9255724     2721.953  0.060262864  0.059383348            8 
 3765000   0.64704616   -2.9310315    2715.7218  0.060108938  0.059370603            4 
 3766000   0.65784596   -2.9269364    2724.0387  0.060277012  0.059358099            6 
 3767000   0.65139269   -2.9448497    2722.0255  0.060216474  0.059345514           10 
 3768000   0.64405936   -2.9371863    2713.3897  0.060009504  0.059332897            6 
 3769000   0.64167089   -2.9365019    2718.0241  0.060096049  0.059320181            6 
 3770000    0.6538869   -2.9385726    2717.7932  0.060075003   0.05930745            5 
 3771000   0.63313833   -2.9340707    2721.3137  0.060136871  0.059294854            3 
 3772000   0.64158816   -2.9395681    2724.3965  0.060189035  0.059282252            2 
 3773000   0.62997387   -2.9346513    2729.6327  0.060288734  0.059269734            6 
 3774000   0.65840093   -2.9424226    2724.9204  0.060168707   0.05925723           14 
 3775000   0.63865998   -2.9330187    2724.2238   0.06013739  0.059244816            6 
 3776000   0.66279792   -2.9572233    2732.6948  0.060308412  0.059232379            7 
 3777000   0.64859339   -2.9270257    2721.9367  0.060055087  0.059219995            5 
 3778000   0.64515347   -2.9415466    2728.8444  0.060191556  0.059207604            6 
 3779000   0.65286738   -2.9234296    2731.1689  0.060226888   0.05919517            4 
 3780000   0.64008937    -2.936239    2719.8291   0.05996096  0.059182786            9 
 3781000   0.65620853   -2.9502715    2722.3076  0.059999727   0.05917034            6 
 3782000   0.65678258   -2.9550579    2726.2777  0.060071341  0.059157884            7 
 3783000   0.62764832   -2.9401791    2732.8018  0.060199175  0.059145417            3 
 3784000   0.65106416   -2.9550699    2731.3821  0.060152002  0.059132925            5 
 3785000     0.643635   -2.9321441    2727.3533  0.060047409  0.059120564            6 
 3786000   0.63863776   -2.9385454    2729.6469  0.060082032   0.05910807            7 
 3787000   0.65567755   -2.9187083    2735.2767  0.060190052  0.059095677           10 
 3788000    0.6424057   -2.9508126    2732.0911   0.06010408  0.059083262           10 
 3789000   0.64877268   -2.9611902    2728.6917  0.060013454  0.059070908            6 
 3790000    0.6431995   -2.9373328     2732.525  0.060081904  0.059058526            6 
 3791000   0.63963225    -2.951699    2735.4561  0.060130488  0.059046146            4 
 3792000   0.63792259   -2.9609063    2733.4775  0.060071148  0.059033761            8 
 3793000     0.650159   -2.9606835    2730.1885  0.059983051  0.059021323           12 
 3794000   0.64125758   -2.9432335    2732.2499  0.060012516  0.059008842            4 
 3795000   0.64959737   -2.9383253    2729.5414  0.059937228  0.058996367            4 
 3796000   0.64381066   -2.9267072    2736.5972  0.060076334  0.058983956            8 
 3797000   0.63682061    -2.939024    2732.9257  0.059979935  0.058971606           11 
 3798000   0.64844955   -2.9646909    2725.5145   0.05980153   0.05895916            5 
 3799000   0.63786933   -2.9406301    2726.6872  0.059811512  0.058946704            5 
 3800000   0.64918371   -2.9611324    2733.8725  0.059953344   0.05893433            5 
 3801000   0.63339429   -2.9477309    2727.5314  0.059798549  0.058921825            3 
 3802000   0.64275437    -2.962828    2728.8388  0.059811477  0.058909251           12 
 3803000   0.62866603   -2.9238574    2721.0074  0.059624144  0.058896743            4 
 3804000   0.64095381   -2.9526698    2731.3751  0.059835591   0.05888417            6 
 3805000   0.63690812   -2.9538657    2732.5895  0.059846463  0.058871638            7 
 3806000   0.63496053   -2.9304283    2738.5699  0.059961682  0.058859142            6 
 3807000   0.65419278   -2.9677984    2724.3838  0.059635404  0.058846615           13 
 3808000   0.64195473   -2.9412875    2729.7028  0.059736144  0.058834149            5 
 3809000   0.63677793    -2.962745    2723.6306  0.059587614  0.058821543            4 
 3810000   0.63662993   -2.9466617    2729.4035   0.05969824  0.058808915            6 
 3811000   0.63092037   -2.9356058    2732.5393  0.059751144  0.058796364            9 
 3812000   0.63361961    -2.955788    2725.8468  0.059589167  0.058783793            5 
 3813000   0.63478568   -2.9390139    2726.3018  0.059583482   0.05877124            8 
 3814000   0.63438882   -2.9454742    2726.8313  0.059579429  0.058758841            3 
 3815000   0.63760942    -2.939429    2731.9641   0.05967593   0.05874633            6 
 3816000    0.6386987   -2.9465425    2738.1466  0.059795305  0.058733827            8 
 3817000   0.64818959   -2.9523695    2728.3412  0.059565566  0.058721301            4 
 3818000   0.63349048   -2.9333097    2725.6574  0.059491387  0.058708791            9 
 3819000   0.63312493   -2.9438499     2738.344   0.05975264  0.058696233            9 
 3820000    0.6318011   -2.9508133    2731.6757   0.05959153  0.058683732            6 
 3821000   0.64527128   -2.9410177    2727.9368   0.05949439  0.058671209            7 
 3822000   0.64190751   -2.9464843    2733.0334  0.059589948  0.058658672            6 
 3823000    0.6555754   -2.9378097    2738.4373  0.059692155  0.058646124           12 
 3824000   0.64202209   -2.9528354    2728.0325  0.059449803  0.058633616            4 
 3825000   0.65068148   -2.9491683    2730.7658  0.059493809  0.058621009            7 
 3826000   0.62985703   -2.9357807    2739.2522  0.059663099  0.058608549            5 
 3827000   0.64392821    -2.925049    2727.1023  0.059382943  0.058596012            6 
 3828000    0.6367775   -2.9640054    2740.2003  0.059652568  0.058583498           13 
 3829000    0.6392041   -2.9456825     2733.776  0.059497171  0.058570984            3 
 3830000   0.63252997   -2.9499998    2726.0728   0.05931403  0.058558432           14 
 3831000   0.64062781   -2.9388612    2737.0536  0.059537406  0.058545942            8 
 3832000   0.64083914   -2.9432956     2741.586  0.059620433   0.05853348            9 
 3833000    0.6352001   -2.9416403    2725.2044  0.059248726  0.058521019            3 
 3834000   0.64328958   -2.9407219    2737.9232  0.059509721  0.058508516            8 
 3835000   0.63189615   -2.9660725    2741.8232  0.059578949   0.05849597           20 
 3836000   0.63042045   -2.9527014    2737.1313  0.059461489  0.058483452           10 
 3837000   0.62687101   -2.9500869    2736.4111  0.059430352  0.058471029            5 
 3838000    0.6444274   -2.9391038    2738.5233  0.059460729  0.058458522            4 
 3839000   0.64636102   -2.9616033    2731.0756  0.059283572   0.05844613            5 
 3840000   0.64880028   -2.9490637    2739.4426  0.059449709  0.058433718            4 
 3841000    0.6417608   -2.9658706    2730.1519  0.059232662  0.058421247            6 
 3842000   0.61770883   -2.9447732    2736.7042  0.059359365  0.058408759            5 
 3843000   0.62663788   -2.9583425    2738.1609  0.059375506  0.058396352           14 
 3844000   0.62428856   -2.9474571    2742.9937   0.05946483  0.058383955            4 
 3845000   0.63791649   -2.9882029     2734.631  0.059268118  0.058371604            5 
 3846000   0.64718034   -2.9636503    2737.4616  0.059314042  0.058359123            5 
 3847000   0.63882365   -2.9434743    2743.3939  0.059427128  0.058346686            8 
 3848000   0.63819269   -2.9644209    2734.0543  0.059209422  0.058334311            6 
 3849000   0.62978294    -2.961668    2740.1765  0.059326588  0.058321951            7 
 3850000   0.63985694   -2.9437303    2746.2646  0.059442957  0.058309505            5 
 3851000   0.63242872   -2.9682025    2744.6371  0.059392304  0.058297048            5 
 3852000   0.63680241   -2.9635153    2733.0489  0.059126188  0.058284697            4 
 3853000   0.63292956   -2.9634747    2742.4981   0.05931521  0.058272261            9 
 3854000   0.64706446   -2.9432316      2746.19   0.05937965  0.058259955            5 
 3855000    0.6279361   -2.9878836    2745.9356  0.059358746  0.058247601            7 
 3856000   0.63623776   -2.9616482    2732.9422  0.059062547  0.058235241            4 
 3857000   0.62750969   -2.9391662    2748.7057  0.059387816  0.058222951            8 
 3858000    0.6318371   -2.9536605    2745.1851  0.059296378   0.05821061            8 
 3859000   0.63004183   -2.9620198    2737.0431   0.05910519  0.058198188            4 
 3860000   0.63334504   -2.9684443    2741.8547  0.059193754  0.058185934            4 
 3861000   0.63557473    -2.952161    2745.8596  0.059264862  0.058173593            7 
 3862000   0.64482472    -2.956099    2747.9028  0.059293604   0.05816125            5 
 3863000   0.62531677   -2.9770043    2740.4115  0.059116652  0.058148986            6 
 3864000   0.62273962   -2.9384035    2746.0149  0.059222199  0.058136679            3 
 3865000   0.64186875   -2.9599669    2733.1619  0.058929753  0.058124349            9 
 3866000   0.63325561   -2.9494264    2745.4291  0.059178934  0.058111986            6 
 3867000   0.62756808   -2.9560904    2739.6218  0.059038484  0.058099578           10 
 3868000   0.61438775   -2.9558106    2749.5546  0.059237215   0.05808717           11 
 3869000   0.64824272   -2.9751495    2740.2972  0.059022513  0.058074941            5 
 3870000   0.63730056   -2.9579849    2748.6886  0.059187954  0.058062696            5 
 3871000   0.64286676   -2.9499912    2738.5013  0.058953357  0.058050336            5 
 3872000    0.6172382    -2.954085    2748.3124  0.059149286  0.058038088            9 
 3873000    0.6237546   -2.9536497    2743.2902  0.059025954  0.058025761            5 
 3874000   0.63537339   -2.9502407    2747.1333  0.059093385  0.058013447            2 
 3875000   0.62567665   -2.9792653    2736.1271  0.058841444  0.058001169            4 
 3876000   0.62692548   -2.9715345    2744.4844  0.059005943  0.057988895           13 
 3877000   0.61877153   -2.9504415    2747.7829  0.059061622   0.05797659            4 
 3878000   0.62930393   -2.9433053      2740.56  0.058891182  0.057964321            9 
 3879000    0.6331157   -2.9644818    2745.0454  0.058972359  0.057952079            8 
 3880000   0.62621301   -2.9647497    2745.7024  0.058971271  0.057939783            8 
 3881000   0.63109176   -2.9638727    2744.9219  0.058939317  0.057927469            5 
 3882000   0.62719427    -2.981682    2739.3058  0.058803575  0.057915134            8 
 3883000   0.61261917   -2.9701101    2745.7996  0.058927797  0.057902803            3 
 3884000   0.62143535   -2.9688266    2740.9984  0.058809611  0.057890531            8 
 3885000   0.62325145   -2.9567368    2749.0986  0.058968223  0.057878222            4 
 3886000   0.61844041   -2.9681955     2751.955  0.059014304  0.057865944            8 
 3887000   0.63845682   -2.9425543    2758.0821   0.05913048   0.05785373            4 
 3888000   0.62331779   -2.9702248    2753.4988  0.059017034    0.0578415            3 
 3889000   0.62731782   -2.9874888    2746.2198  0.058845886  0.057829325           12 
 3890000   0.63013901   -2.9607344    2750.0449  0.058912702  0.057817076            5 
 3891000   0.63655359   -2.9862221    2749.5114  0.058886135  0.057804799            6 
 3892000   0.62924764   -2.9666286    2746.9152  0.058815416  0.057792538           10 
 3893000   0.62576624   -2.9757723    2743.0962  0.058718559  0.057780277            6 
 3894000   0.62116862   -2.9731298    2759.5128  0.059054803  0.057768057            4 
 3895000   0.63532796   -2.9850012    2743.0039  0.058686434  0.057755854            4 
 3896000   0.63219763   -2.9827307    2751.6606  0.058856532  0.057743634            4 
 3897000   0.61779713   -2.9570193    2748.5603  0.058775133   0.05773142            6 
 3898000   0.62367275   -2.9571076    2753.8625  0.058873408  0.057719202           11 
 3899000   0.63083483   -2.9506949    2755.8152  0.058900043  0.057706967           15 
 3900000   0.63156767    -2.942885    2747.5929  0.058709251   0.05769477            5 
 3901000   0.62447612    -2.966024    2747.5208  0.058692661  0.057682629            7 
 3902000   0.63287476   -2.9558017    2765.7954    0.0590679  0.057670431            5 
 3903000   0.62461866   -2.9466972    2752.7815  0.058774907  0.057658198            8 
 3904000    0.6227665   -2.9725202    2748.9444  0.058677946  0.057645959            4 
 3905000   0.63848267   -2.9461763    2753.8442  0.058767481  0.057633769            5 
 3906000   0.62891723   -2.9798548    2747.3442  0.058613762  0.057621622            9 
 3907000   0.62407305   -2.9578055    2756.3458  0.058790756  0.057609453            4 
 3908000   0.63033546   -2.9524868    2753.5371  0.058715821  0.057597336            5 
 3909000   0.61152868   -2.9631508     2746.337  0.058547304  0.057585168            6 
 3910000   0.61832366    -2.987293    2750.3945  0.058618808  0.057572966           21 
 3911000   0.62725604   -2.9648762    2750.6788  0.058609878  0.057560822            4 
 3912000   0.63265634   -2.9629025    2757.4739  0.058739644  0.057548713            7 
 3913000   0.61623865   -2.9786275    2752.5835  0.058620485  0.057536588            6 
 3914000   0.61153919   -2.9824792    2745.7826  0.058460709   0.05752438            6 
 3915000   0.60838437   -2.9919068    2747.4353  0.058480955  0.057512195            6 
 3916000   0.62709641   -2.9876127    2748.1845  0.058481966  0.057499992            9 
 3917000   0.60979572   -2.9782393    2742.6456  0.058349195  0.057487902            8 
 3918000   0.63413808   -2.9800072    2758.6114  0.058673886  0.057475802           10 
 3919000   0.62895024   -2.9753257    2761.3006  0.058716097  0.057463609            4 
 3920000   0.63031849   -2.9738217    2752.4182  0.058512292  0.057451556           12 
 3921000   0.63012117   -2.9753572    2753.6164  0.058522835  0.057439475           12 
 3922000   0.62115262   -2.9734602    2747.8029   0.05838439   0.05742733           12 
 3923000   0.62430368   -2.9865391     2756.423  0.058552617  0.057415224            9 
 3924000   0.63059301   -2.9706478    2762.7251  0.058671533  0.057403197            8 
 3925000   0.63339079   -2.9691701    2753.5896  0.058462624  0.057391186            7 
 3926000    0.6198788   -2.9721109    2757.5936  0.058532723  0.057379028            6 
 3927000   0.63069377   -2.9571028    2753.9965  0.058441485  0.057366952           14 
 3928000   0.62023811   -2.9578407    2764.2262  0.058643631   0.05735498            4 
 3929000   0.62754898   -3.0005544    2758.0693  0.058498118  0.057342943            8 
 3930000   0.61430247   -2.9696104    2760.0096  0.058524376   0.05733094            9 
 3931000   0.61356871   -2.9952276    2756.1468    0.0584276  0.057318949            5 
 3932000   0.62752795   -2.9747748    2754.7963  0.058384119  0.057306873            9 
 3933000   0.61737877    -2.968996    2762.4135  0.058530671  0.057294779            6 
 3934000   0.62223266   -2.9711001    2761.2708  0.058491587  0.057282757            7 
 3935000   0.60338473   -2.9820092    2755.3782  0.058351932  0.057270733            8 
 3936000    0.6285681   -2.9882523    2760.7008  0.058449797  0.057258761            8 
 3937000   0.62118238   -2.9757657     2766.071  0.058548621   0.05724678            3 
 3938000   0.62545934   -2.9839286    2769.1942  0.058599844  0.057234826            7 
 3939000   0.61985879   -2.9891046    2760.5881  0.058402896  0.057222854           10 
 3940000   0.61354861    -2.992828    2755.2269   0.05827468  0.057210819            8 
 3941000   0.63117011   -2.9669953    2764.0068  0.058445546  0.057198827            8 
 3942000   0.61616398   -2.9648368    2764.2718  0.058436323  0.057186907            4 
 3943000   0.62457234   -2.9567671    2765.6835  0.058451337  0.057174993            7 
 3944000   0.63688188    -2.969236    2769.2431   0.05851173  0.057163101           11 
 3945000    0.6153871   -3.0023219    2762.0501  0.058344954  0.057151143            3 
 3946000   0.63192665   -2.9695873    2764.8222   0.05838871  0.057139096            5 
 3947000    0.6229551   -2.9759449    2767.4007  0.058428356  0.057127195            9 
 3948000   0.61983593   -2.9841025    2762.3213  0.058306343  0.057115173            5 
 3949000   0.63750754   -2.9987333    2768.4522  0.058420955  0.057103293            3 
 3950000   0.61032631   -2.9770711    2770.3316  0.058445814  0.057091416            8 
 3951000   0.61845385   -2.9740046    2770.0738  0.058425585  0.057079509           10 
 3952000    0.6148178    -2.968606    2757.0787  0.058136781  0.057067536            9 
 3953000   0.61034429   -2.9764358    2756.2408  0.058104411  0.057055566            3 
 3954000   0.63399332   -2.9929528    2773.4495  0.058452401  0.057043636            5 
 3955000   0.62490663   -2.9960241    2758.4311  0.058121177  0.057031628            5 
 3956000   0.60973531   -2.9872923    2762.5996  0.058194296  0.057019649            6 
 3957000   0.61458122   -2.9841106    2759.7219  0.058118986  0.057007726            8 
 3958000   0.61662611   -2.9761249    2766.1579  0.058239807  0.056995783            5 
 3959000   0.60777594   -2.9796044    2760.3417  0.058102671  0.056983886           11 
 3960000   0.61811468   -2.9836449    2753.5954   0.05794603  0.056971955            9 
 3961000   0.62160679   -2.9629946    2767.9714   0.05823385  0.056959963            5 
 3962000   0.62078096   -2.9933546    2760.4559  0.058061078  0.056947988            9 
 3963000   0.60932575   -2.9938498    2763.0479  0.058100932  0.056936027            5 
 3964000   0.61383622   -3.0006593    2764.1378  0.058109188  0.056924096            5 
 3965000   0.61881785   -2.9859552    2761.5511  0.058040166  0.056912143           12 
 3966000   0.60951826   -3.0129814    2770.3497  0.058210408  0.056900217           10 
 3967000   0.61222846   -2.9824834    2758.9594  0.057956462  0.056888188            4 
 3968000   0.60462023   -2.9689312     2776.817  0.058316889  0.056876254            9 
 3969000   0.61763986   -2.9919733    2766.3995  0.058083471  0.056864282            7 
 3970000   0.60394518   -2.9994421    2767.5874  0.058093774  0.056852299           11 
 3971000   0.60760262   -2.9833719    2766.0994  0.058047918  0.056840383            5 
 3972000   0.60947032    -2.989848    2765.4999  0.058020727  0.056828374            7 
 3973000   0.61136845   -2.9716459    2763.3994  0.057962064  0.056816379            6 
 3974000    0.6204645   -2.9694464    2770.9527  0.058105869   0.05680445            3 
 3975000   0.59853628   -2.9852274    2759.0094  0.057840867   0.05679252            4 
 3976000   0.61174777   -2.9847453    2771.6382  0.058091008  0.056780517            4 
 3977000   0.62408297   -2.9715743    2770.8577  0.058060046   0.05676861            9 
 3978000   0.60417793   -2.9933247    2761.2756  0.057844721  0.056756661           12 
 3979000   0.60153827   -3.0012383     2764.607  0.057899955  0.056744632            7 
 3980000   0.61801939   -2.9864863    2771.4915  0.058029554  0.056732713            7 
 3981000   0.63187462   -2.9783662    2774.5261  0.058078499  0.056720744            7 
 3982000   0.60631279   -2.9827785     2767.912  0.057925498  0.056708835            6 
 3983000   0.61672729   -2.9755807    2766.3216  0.057877681  0.056696885            5 
 3984000    0.6026631   -2.9932838    2772.2784  0.057987751  0.056684862           12 
 3985000   0.62545262   -2.9887658    2764.2018  0.057804303  0.056672852           20 
 3986000   0.61244003   -3.0052465    2765.3119   0.05781301  0.056660905           10 
 3987000   0.62324488   -2.9959856    2766.6929  0.057827374  0.056648904           10 
 3988000   0.61328355   -2.9911538    2770.8604  0.057899957  0.056636859           16 
 3989000   0.59863023   -2.9841507    2769.3281  0.057853432  0.056624905            7 
 3990000   0.62034825   -2.9885207    2762.2775  0.057691677  0.056612989            6 
 3991000   0.61210156   -2.9983426    2766.9189  0.057774136  0.056600998            6 
 3992000   0.61486386   -2.9825373    2773.6554  0.057900287  0.056589076            8 
 3993000   0.59965919   -2.9764766    2775.5317  0.057924945   0.05657718            6 
 3994000   0.61299508   -2.9883302    2774.3291   0.05788535  0.056565208           20 
 3995000   0.60515756   -3.0021151    2767.6418  0.057731368  0.056553274            7 
 3996000   0.60554913   -2.9858806    2777.5737  0.057924043   0.05654133           10 
 3997000   0.61493392   -3.0074803    2772.3473  0.057800587  0.056529412            6 
 3998000   0.60072668   -2.9969906    2771.1199  0.057760544   0.05651756            7 
 3999000   0.61354191   -2.9790827    2765.3798  0.057626486  0.056505679            9 
 4000000   0.60466586   -3.0125828    2774.7473  0.057807235  0.056493826            5 
 4001000   0.61438634   -3.0048838    2773.5819  0.057768513  0.056481869            6 
 4002000   0.59961824    -3.009266    2770.1222  0.057682039  0.056469953            5 
 4003000   0.62802251   -3.0001208    2776.7691  0.057806002  0.056458019            5 
 4004000   0.61262678   -2.9926048    2776.6736  0.057789577  0.056446096           10 
 4005000   0.62104783   -2.9780666    2767.5221   0.05758473  0.056434097            9 
 4006000   0.60781142   -2.9929436    2777.4414  0.057776698  0.056422154            7 
 4007000   0.63146242   -2.9937347    2775.5029  0.057721964  0.056410245            6 
 4008000   0.61322969   -3.0048418    2775.9821  0.057717525  0.056398337            8 
 4009000   0.61908062   -2.9871477    2771.7723  0.057615621  0.056386546            3 
 4010000   0.60301053   -3.0025649    2777.3765  0.057717716  0.056374644            7 
 4011000   0.61755427    -2.981701    2781.0925   0.05778053  0.056362755            4 
 4012000   0.61796208   -2.9985268    2767.1312  0.057476138  0.056350865            6 
 4013000   0.59720621   -2.9922132    2776.3292  0.057652821    0.0563389            4 
 4014000   0.61387876   -2.9979469    2768.7289  0.057480669  0.056326895            5 
 4015000   0.60899491   -2.9949784    2773.6341  0.057568163  0.056314991            5 
 4016000   0.62622839   -3.0134571    2767.0032  0.057416234  0.056303034           13 
 4017000   0.59939102   -3.0048821    2768.1158  0.057425023  0.056291221            7 
 4018000   0.60816057   -3.0024556    2779.6755   0.05765048  0.056279341            5 
 4019000   0.61365605   -2.9848184    2772.5115  0.057487591  0.056267476           19 
 4020000   0.59950882   -2.9997093    2775.0473  0.057525856  0.056255606            7 
 4021000   0.61261342   -2.9922922    2774.2836  0.057495723  0.056243714            9 
 4022000   0.58818962   -2.9984226    2775.2181   0.05750079  0.056231842           15 
 4023000   0.61040107   -2.9808108    2777.0543  0.057524532  0.056220052           11 
 4024000   0.60606425   -3.0057258     2774.317   0.05745355  0.056208204           14 
 4025000   0.60391846   -2.9979365    2764.4216  0.057234402  0.056196414            8 
 4026000   0.61029838    -3.029854    2775.8471   0.05745668  0.056184514            4 
 4027000   0.60437736   -3.0039603    2777.4354   0.05747528  0.056172701           16 
 4028000    0.6045822    -2.999871    2777.7765  0.057468067  0.056160923           12 
 4029000   0.61123791   -2.9900979    2783.9232  0.057580938  0.056149178            9 
 4030000   0.61150951   -3.0058129     2775.996   0.05740273  0.056137417            6 
 4031000   0.60526857   -3.0039148    2781.4094    0.0575004  0.056125574           11 
 4032000   0.59739571   -2.9854422    2783.3053  0.057525325  0.056113802            7 
 4033000    0.6034376   -3.0030612     2775.273  0.057345091  0.056102028            4 
 4034000   0.59152378   -3.0236829    2778.3217  0.057393854   0.05609019            6 
 4035000    0.6090862   -3.0043651    2777.2137  0.057356748  0.056078424            5 
 4036000    0.6102853   -2.9998172    2785.0246  0.057503811  0.056066583            5 
 4037000   0.59720313   -2.9969553    2784.4644  0.057478003  0.056054848            7 
 4038000   0.59554204   -2.9735387    2785.5161  0.057485474  0.056043099            6 
 4039000   0.61371326   -3.0135029     2781.452   0.05738739  0.056031356           12 
 4040000   0.60348725   -2.9910935    2779.8713  0.057340579  0.056019546            4 
 4041000   0.61107756   -3.0233647    2772.8258  0.057181099  0.056007713           19 
 4042000    0.5982938   -3.0100172    2781.5164  0.057346124  0.055995894           10 
 4043000   0.60057999   -3.0153137    2778.7234  0.057274371  0.055984084           10 
 4044000   0.60360265   -3.0085367    2775.3159  0.057189991  0.055972286            7 
 4045000     0.594518   -3.0144395    2775.1309  0.057172041  0.055960509           12 
 4046000   0.60608297   -2.9959171    2784.2892  0.057346539  0.055948817            5 
 4047000   0.59435923   -3.0075636    2779.1462  0.057226469  0.055937098           10 
 4048000   0.59997466    -3.017763     2777.491  0.057178256  0.055925344           14 
 4049000   0.59518269   -3.0171943    2779.3142  0.057201658   0.05591357           12 
 4050000   0.60873212   -3.0266145    2777.7642  0.057155643   0.05590185           13 
 4051000   0.61110471   -3.0109174    2778.5843  0.057158403  0.055890048            7 
 4052000   0.59904924   -3.0171537    2783.5263  0.057245934  0.055878294            4 
 4053000   0.62168338   -2.9923895     2778.271  0.057123756   0.05586648            9 
 4054000   0.60988784   -3.0040414    2781.2131  0.057170142  0.055854665            8 
 4055000   0.59987699     -3.00668    2787.2227  0.057279545  0.055842831            7 
 4056000    0.6092934   -2.9896433    2778.6849  0.057090009  0.055831068            4 
 4057000   0.58991222   -3.0093967    2782.3188  0.057150579   0.05581928            4 
 4058000   0.60667574     -3.01518    2779.0057   0.05706846  0.055807486           24 
 4059000   0.59495082   -3.0124912    2779.1209  0.057056764  0.055795754            6 
 4060000   0.59956216   -3.0180688     2782.619  0.057114511  0.055783915            7 
 4061000   0.61066433   -3.0061081    2772.0371  0.056883302  0.055772113            8 
 4062000   0.60274041   -3.0157863    2784.8128  0.057131396  0.055760306           14 
 4063000   0.59116841   -3.0142426    2789.4617  0.057212685  0.055748555            7 
 4064000   0.59467354   -2.9966049     2782.727  0.057060511  0.055736777           15 
 4065000   0.59107906   -3.0076764    2783.0426  0.057052944  0.055725048            6 
 4066000   0.59625346   -3.0097822    2778.7835  0.056951621  0.055713272            5 
 4067000   0.59758167   -3.0288315    2786.1747  0.057089065  0.055701547           10 
 4068000   0.60363295   -3.0145626    2784.1808  0.057034185  0.055689739            5 
 4069000   0.59185055   -3.0039232    2781.2415  0.056959972  0.055677967           12 
 4070000   0.61079145   -3.0317345    2782.1973  0.056965548  0.055666171            7 
 4071000   0.58983298   -3.0127931    2790.3271   0.05711797  0.055654397            5 
 4072000   0.59499094   -3.0101189    2783.2557  0.056959227  0.055642567            5 
 4073000   0.60739369   -2.9946567    2784.0685  0.056961872  0.055630773            5 
 4074000    0.6070619   -3.0145839      2783.55  0.056937285  0.055619045           13 
 4075000   0.60069365   -3.0086109    2784.6887  0.056946598  0.055607238            8 
 4076000     0.613967   -3.0075844    2778.3288  0.056802601  0.055595429           15 
 4077000   0.59840981   -3.0147622     2787.102  0.056967991  0.055583618            5 
 4078000   0.59788992   -3.0235313    2785.4119  0.056919484  0.055571848            5 
 4079000   0.60626968   -3.0049478    2783.6217  0.056868958  0.055560017            6 
 4080000   0.61659344   -3.0097147    2780.7158  0.056795665  0.055548228            7 
 4081000   0.60162119   -3.0121101    2784.2407  0.056853727  0.055536426           16 
 4082000   0.60092015   -3.0298286      2777.51  0.056702392  0.055524513            9 
 4083000   0.61306486   -3.0138535    2781.2889  0.056765632  0.055512718            7 
 4084000   0.59723637   -3.0039777    2789.9395  0.056928247  0.055500951            7 
 4085000   0.57894569   -3.0119755    2788.2071  0.056878969  0.055489102            8 
 4086000   0.60233559   -3.0072892    2782.6611  0.056751941  0.055477307            7 
 4087000   0.61628013   -3.0217512    2778.5823  0.056654887   0.05546548            7 
 4088000   0.59503701   -3.0090721    2793.8061  0.056951364  0.055453698            5 
 4089000   0.58994031   -3.0090254    2779.3521  0.056642864  0.055441886            7 
 4090000   0.60639806   -3.0001513    2780.4292  0.056650962  0.055430094            7 
 4091000   0.58345953   -3.0177998    2780.2452  0.056633367   0.05541825           10 
 4092000   0.58608735   -3.0125302    2787.1215   0.05675956  0.055406453            4 
 4093000   0.59299161   -3.0115231    2782.6033  0.056653703  0.055394706            6 
 4094000   0.60058933   -3.0272682    2781.9117  0.056625787  0.055382847            9 
 4095000   0.59919692   -3.0083142    2787.1424  0.056718404  0.055370931            8 
 4096000   0.59077534   -3.0242277    2786.0749   0.05668284  0.055359066            6 
 4097000   0.59910876   -3.0159055    2780.0138  0.056545721  0.055347224            8 
 4098000   0.59340948   -3.0237457    2785.6871  0.056647289  0.055335404           12 
 4099000   0.60873749   -3.0149094     2788.981  0.056700435  0.055323535            4 
 4100000   0.58509124   -3.0184279     2785.026  0.056606219  0.055311672            4 
 4101000   0.60134932   -3.0111492    2781.7945  0.056526752  0.055299843            6 
 4102000   0.59301016   -3.0202136    2775.9752  0.056394751  0.055287946            8 
 4103000   0.58910568   -3.0127012    2777.8038  0.056418146  0.055276104            5 
 4104000   0.59141311   -3.0322094    2775.7452  0.056362598  0.055264257            9 
 4105000   0.60634943   -3.0355798    2787.1387  0.056580161  0.055252364            6 
 4106000   0.59650076   -3.0247204    2787.1562  0.056566735  0.055240504            8 
 4107000   0.60224335    -3.001208     2783.178  0.056472242  0.055228702            8 
 4108000   0.60172278   -3.0390094    2781.5913  0.056426307  0.055216747            5 
 4109000   0.60173116   -3.0317907    2790.3356  0.056589917  0.055204877            7 
 4110000   0.59099846   -3.0375421    2781.9184  0.056405483  0.055193052            6 
 4111000   0.60838163   -3.0171796    2789.0902  0.056537141  0.055181252           12 
 4112000   0.58309354   -3.0178232    2792.1843  0.056586096  0.055169432            6 
 4113000    0.5926509   -3.0223381    2783.3779  0.056393913  0.055157574            8 
 4114000   0.60087634   -3.0275716    2781.7913  0.056348066  0.055145738            9 
 4115000   0.58975677   -3.0307314     2788.847  0.056477259  0.055133902           12 
 4116000   0.58317247   -3.0309992    2785.7862  0.056401567  0.055122061           10 
 4117000   0.58462136   -3.0082595    2784.5207  0.056362251  0.055110223            6 
 4118000   0.59512683   -3.0251677     2782.997  0.056317731  0.055098382           11 
 4119000   0.59123791    -3.034336    2780.3862  0.056251238  0.055086542            7 
 4120000   0.58895231   -3.0216402    2787.2599  0.056376617  0.055074654            3 
 4121000   0.58899083   -3.0195845    2786.4038  0.056345624  0.055062883            7 
 4122000   0.58193175   -3.0218545    2785.0731  0.056305052  0.055051032            7 
 4123000   0.61158734   -3.0260456     2789.916   0.05638928  0.055039294           12 
 4124000   0.58730966   -3.0276502     2789.082  0.056358753  0.055027485            4 
 4125000   0.59684593   -3.0310293    2784.7855  0.056258293  0.055015616           14 
 4126000   0.57765092   -3.0137546    2794.4788  0.056440434  0.055003768           14 
 4127000   0.57958519   -3.0158472    2786.4984  0.056265616  0.054991953            7 
 4128000   0.58390329   -3.0255025    2781.6958  0.056155035  0.054980067           11 
 4129000   0.58002041    -3.022284    2781.5683  0.056138861  0.054968278           12 
 4130000    0.5894325   -3.0169727     2795.962  0.056415698  0.054956515            7 
 4131000   0.59313371    -3.045623    2788.8804  0.056259187  0.054944687            3 
 4132000   0.58825125   -3.0193075    2792.8783  0.056326199  0.054932785            9 
 4133000   0.59054789   -3.0305428    2784.5229  0.056144103  0.054920931           12 
 4134000   0.59448365   -3.0039617    2781.9118  0.056077887  0.054909049            9 
 4135000   0.60138516   -3.0279046    2785.4453  0.056135536  0.054897153            7 
 4136000   0.59085444   -3.0253449    2788.9754  0.056193088  0.054885222            3 
 4137000   0.59028652   -3.0256283    2788.7729  0.056175428  0.054873333           19 
 4138000   0.58913424    -3.032001      2785.01  0.056086073  0.054861475           12 
 4139000   0.58072313    -3.027958    2783.7676  0.056047507  0.054849601           12 
 4140000   0.58665579   -3.0383504      2788.99  0.056139091  0.054837778            7 
 4141000   0.59777374   -3.0337455    2787.2004  0.056089519  0.054825936            6 
 4142000   0.58719337   -3.0196782    2784.8094  0.056027873  0.054814039            9 
 4143000    0.5948013   -3.0286858    2785.1034  0.056020263  0.054802212           10 
 4144000   0.59123486   -3.0371568    2784.5337  0.055995288  0.054790275           13 
 4145000   0.59022622   -3.0270543    2782.7364  0.055945644  0.054778389            7 
 4146000   0.58756812   -3.0364149     2792.845   0.05613533  0.054766517            9 
 4147000    0.5767996   -3.0176045    2796.0763  0.056186727  0.054754773           15 
 4148000    0.5933141    -3.017311    2787.8271  0.056007456  0.054743051            7 
 4149000   0.57856048   -3.0432076    2786.0822  0.055958909  0.054731261            8 
 4150000   0.59479164    -3.044578    2792.1493  0.056067254  0.054719503            6 
 4151000   0.59072753   -3.0106988    2788.9494  0.055989509  0.054707825            5 
 4152000   0.57872321   -3.0272201    2796.2567  0.056122686  0.054696049            4 
 4153000   0.58401801   -3.0407502    2792.0214  0.056024186  0.054684265            8 
 4154000   0.58825495   -3.0292835    2792.6677  0.056023666  0.054672505            4 
 4155000   0.57846772   -3.0346112    2795.5326  0.056067641   0.05466071           13 
 4156000   0.57100014   -3.0238144    2776.7364  0.055677261  0.054648864            5 
 4157000   0.57832298   -3.0301839    2793.7398  0.056004728  0.054637031            4 
 4158000   0.58539547   -3.0393106    2776.3386  0.055642509  0.054625172            7 
 4159000    0.5879698   -3.0305478    2788.8859  0.055880538  0.054613366            5 
 4160000   0.58974205   -3.0442612    2791.5296  0.055920064  0.054601525            2 
 4161000   0.60184024   -3.0289817    2787.5724  0.055827373  0.054589744            6 
 4162000   0.58697561   -3.0406464      2779.02   0.05564272  0.054577914           13 
 4163000   0.57949981     -3.03459    2792.1169  0.055891522  0.054566115            9 
 4164000   0.57288016   -3.0211032    2796.6578  0.055968977   0.05455436            4 
 4165000   0.60684476   -3.0365566     2796.362   0.05594962  0.054542562            5 
 4166000   0.56355012   -3.0411289    2793.1055  0.055871049   0.05453075            8 
 4167000    0.5780093   -3.0371013     2784.617  0.055687886   0.05451896            8 
 4168000   0.57939122   -3.0343172    2789.7771  0.055777693  0.054507154            7 
 4169000   0.58789624   -3.0476607    2791.0881  0.055790519  0.054495388            4 
 4170000   0.58756242    -3.028218    2788.4722  0.055724864  0.054483628           12 
 4171000   0.57015462   -3.0427403    2798.8847  0.055919537  0.054471854            5 
 4172000   0.59041744   -3.0389475    2785.7748  0.055644271  0.054460009            8 
 4173000   0.58327523    -3.045561    2791.0466  0.055736214   0.05444822            5 
 4174000   0.58293245   -3.0351417    2785.5737  0.055613595  0.054436383            5 
 4175000   0.59038325   -3.0387178    2788.0304   0.05564931  0.054424514           16 
 4176000   0.58343811   -3.0557182    2789.6605  0.055668513  0.054412663           17 
 4177000   0.57970048    -3.037571    2797.8045  0.055817662  0.054400865            7 
 4178000   0.57771582    -3.031182    2790.8089   0.05566477  0.054389074            4 
 4179000   0.57620037   -3.0241009    2790.0964  0.055637241  0.054377257           13 
 4180000   0.58949702   -3.0212269    2798.3364  0.055788206  0.054365466           11 
 4181000   0.57423385   -3.0521897    2797.7605  0.055763385  0.054353716            6 
 4182000   0.57948383   -3.0481343    2789.8524  0.055592467   0.05434197           10 
 4183000   0.58659687   -3.0301721    2795.8929  0.055699516  0.054330162            6 
 4184000    0.5976496   -3.0285006    2797.0288  0.055708828  0.054318424            4 
 4185000   0.58148164   -3.0238662    2798.5438  0.055725683  0.054306696            9 
 4186000   0.57578408   -3.0227027     2792.631  0.055594661  0.054294994           15 
 4187000    0.5862253   -3.0398523    2796.1357  0.055651136  0.054283313           11 
 4188000   0.57800278   -3.0175235    2795.4578  0.055624359  0.054271643            3 
 4189000   0.58431581   -3.0358594    2789.7203  0.055496943  0.054259997            6 
 4190000    0.5847161    -3.051678    2794.4554  0.055577872  0.054248272            6 
 4191000   0.56776105   -3.0371147    2785.9324  0.055395141  0.054236471            7 
 4192000   0.57037883   -3.0315448    2791.9022    0.0555006  0.054224758            3 
 4193000   0.58817153   -3.0452942    2800.1645  0.055651572  0.054213049           11 
 4194000   0.58828059   -3.0421332    2793.9249  0.055514324  0.054201261            5 
 4195000   0.59085918   -3.0247112    2794.7795  0.055518066  0.054189483           14 
 4196000   0.59678557   -3.0486638    2798.6681  0.055582065  0.054177743            6 
 4197000   0.57656122   -3.0505144    2789.1787  0.055380404  0.054165999            8 
 4198000   0.57699326   -3.0374802    2791.2812  0.055408949  0.054154213            6 
 4199000   0.57735467   -3.0370728    2787.8153  0.055326969  0.054142435            7 
 4200000    0.5812123   -3.0550095    2790.1307  0.055359737  0.054130582           21 
 4201000   0.57502797   -3.0425415    2789.1505  0.055327114  0.054118751            9 
 4202000   0.59513955   -3.0578022    2788.4679  0.055300411  0.054106945            7 
 4203000   0.59076828   -3.0611815    2796.7326  0.055451118  0.054095122            5 
 4204000   0.57640904    -3.042865    2791.9004  0.055342142  0.054083391           10 
 4205000   0.57533923   -3.0385762    2797.7189  0.055444291  0.054071611            7 
 4206000   0.57396749   -3.0332652    2796.1777  0.055400573  0.054059854            8 
 4207000   0.58463749   -3.0530314    2791.1928  0.055288661  0.054048108            8 
 4208000   0.57858501   -3.0351471    2800.4913  0.055459665  0.054036316           10 
 4209000   0.57558043   -3.0586947    2793.7009  0.055312047  0.054024522           10 
 4210000   0.59237579   -3.0489714    2792.4492  0.055274133  0.054012744           11 
 4211000   0.56869083   -3.0504409    2790.3132  0.055218737  0.054000935           14 
 4212000   0.58449097   -3.0546084    2793.3023  0.055264765  0.053989162            9 
 4213000   0.57433493   -3.0318604     2799.547  0.055375168  0.053977416            7 
 4214000   0.58067133    -3.048802    2794.2519  0.055257314   0.05396571           11 
 4215000   0.57722303   -3.0536992    2795.0263  0.055259516  0.053953907            6 
 4216000   0.56603344   -3.0634137    2794.3799  0.055233632  0.053942189            7 
 4217000   0.58505376    -3.060371    2798.8962  0.055309781  0.053930451            4 
 4218000   0.57621379   -3.0505693    2793.8923  0.055197809  0.053918716           10 
 4219000   0.57257244   -3.0569777     2785.323  0.055015465  0.053906988            7 
 4220000   0.57738872   -3.0464591    2800.9801  0.055311613  0.053895256            4 
 4221000   0.58104158     -3.04609    2793.6507  0.055153808   0.05388355           12 
 4222000   0.57481727    -3.062695    2800.6308  0.055278517   0.05387183           11 
 4223000   0.57746564   -3.0493727    2798.7858   0.05522902  0.053860128            6 
 4224000   0.58186486   -3.0445443    2781.4334  0.054873608   0.05384839            9 
 4225000   0.58094739   -3.0387594    2800.9925    0.0552464  0.053836632            8 
 4226000     0.570807   -3.0611365    2797.8554  0.055171467  0.053824939            6 
 4227000   0.57995461   -3.0662481    2796.0464  0.055122751  0.053813159           10 
 4228000   0.58574333   -3.0440453    2795.8583  0.055106005  0.053801378           10 
 4229000   0.57079716   -3.0621574    2798.0361  0.055135889   0.05378959           12 
 4230000   0.57515322   -3.0525984    2803.9427  0.055239219  0.053777919            8 
 4231000   0.55939285    -3.050488    2794.4992  0.055040165  0.053766149            8 
 4232000   0.57321356   -3.0389358    2798.3727  0.055103433  0.053754409            4 
 4233000   0.58298232   -3.0489858    2796.8688  0.055060807    0.0537427            6 
 4234000   0.57169962   -3.0637895    2801.4779   0.05513852   0.05373098           10 
 4235000   0.57547362   -3.0532217     2794.398  0.054986187  0.053719204           12 
 4236000    0.5774039   -3.0474118    2797.0507  0.055025392   0.05370743            6 
 4237000   0.55425015    -3.045841    2796.8287  0.055008038  0.053695714            8 
 4238000   0.56728127   -3.0329451    2793.2879  0.054925434  0.053683945            7 
 4239000   0.57442994   -3.0384254    2800.1116  0.055046624  0.053672236            7 
 4240000   0.56713033   -3.0509291    2796.3638   0.05495998  0.053660512           26 
 4241000   0.57852466   -3.0849187    2789.2916  0.054808057  0.053648714           13 
 4242000   0.56983682   -3.0634368    2790.5657  0.054820166  0.053636889            8 
 4243000   0.58026888   -3.0542579    2795.9248  0.054912499  0.053625139            7 
 4244000   0.57059421   -3.0540925    2797.1667  0.054923945  0.053613444            7 
 4245000   0.58191794   -3.0423002    2802.2922  0.055011626   0.05360171            8 
 4246000   0.56602507   -3.0681582    2794.9993  0.054855537  0.053589994            9 
 4247000   0.57469575   -3.0585792     2794.428  0.054831409  0.053578264           15 
 4248000   0.57419306   -3.0504154    2796.1502  0.054852287  0.053566517           14 
 4249000   0.57194324   -3.0506589    2792.8171  0.054774008  0.053554856            8 
 4250000   0.57535765   -3.0699992    2796.4926  0.054833187  0.053543161           23 
 4251000   0.57749492   -3.0611536    2790.3363  0.054699605  0.053531436            8 
 4252000   0.57156281   -3.0673434    2791.7503  0.054714453   0.05351968            9 
 4253000   0.55781221   -3.0742562    2795.1491  0.054768186   0.05350789           10 
 4254000   0.57748355   -3.0749923    2797.0412  0.054792377  0.053496145            7 
 4255000   0.56972778   -3.0687005    2797.2235   0.05478307  0.053484361            5 
 4256000   0.57313242   -3.0585289     2795.559  0.054737605  0.053472598            9 
 4257000   0.57785216   -3.0565965    2794.4719  0.054703466  0.053460769            6 
 4258000   0.56109299   -3.0571209    2794.2283  0.054685851  0.053448972           19 
 4259000   0.56916308    -3.063185    2797.3256  0.054733614  0.053437228            7 
 4260000   0.55783187   -3.0628309    2796.8274  0.054711021  0.053425475            6 
 4261000   0.57072356   -3.0541853    2790.2887  0.054570302  0.053413687            6 
 4262000   0.56914352   -3.0508163    2795.9274   0.05466775  0.053401885           15 
 4263000   0.57731606   -3.0568606    2799.5641  0.054726017  0.053390163           10 
 4264000    0.5708327   -3.0377114    2799.1019   0.05470415  0.053378417            6 
 4265000   0.56156799   -3.0657606    2794.9791  0.054610768  0.053366701            4 
 4266000   0.55474542   -3.0548552    2798.0933    0.0546588  0.053354944            9 
 4267000    0.5660751   -3.0556851    2802.2598  0.054727361  0.053343162            7 
 4268000   0.56829921   -3.0643361    2795.0359   0.05457349  0.053331378           10 
 4269000   0.56720066   -3.0581734    2798.6839  0.054631918  0.053319658            9 
 4270000   0.57182866   -3.0752782     2790.684  0.054462998  0.053307852            5 
 4271000   0.55510288   -3.0601376    2801.1606  0.054654658  0.053296096           10 
 4272000   0.58519702   -3.0623709      2799.88  0.054616885  0.053284378           14 
 4273000   0.56013339   -3.0699739    2796.9913  0.054547768  0.053272617            5 
 4274000   0.57050063   -3.0524738    2800.5305   0.05460401  0.053260838            7 
 4275000   0.57014612   -3.0699997    2799.8478   0.05457793    0.0532491           19 
 4276000    0.5675797   -3.0716829    2798.1161  0.054531419  0.053237315            8 
 4277000   0.57234459    -3.069002    2797.3754  0.054504235  0.053225544            8 
 4278000    0.5580268     -3.06907    2798.5532  0.054514438  0.053213754            9 
 4279000   0.56924263   -3.0662825    2791.7047  0.054368325   0.05320202           15 
 4280000   0.55751232   -3.0633198    2802.5912  0.054567587  0.053190247            5 
 4281000   0.56678634   -3.0470667    2793.6511  0.054380813  0.053178444            9 
 4282000   0.56003166     -3.07846     2791.297  0.054322298  0.053166647            4 
 4283000   0.57336409   -3.0647469    2795.7127   0.05439553  0.053154829            9 
 4284000   0.56859029   -3.0793193    2803.3584   0.05453156  0.053142978            9 
 4285000   0.58182222   -3.0593491    2793.9151  0.054335182  0.053131145           19 
 4286000   0.57121429   -3.0812233    2795.0622  0.054344809  0.053119355            8 
 4287000   0.56652665   -3.0670817    2793.2865  0.054297615   0.05310754            9 
 4288000   0.55834874   -3.0516138     2795.789  0.054333585  0.053095748            8 
 4289000   0.56439583   -3.0669166    2795.5483  0.054316242  0.053083883            7 
 4290000   0.57424897   -3.0575845    2794.6566  0.054286259  0.053072028           10 
 4291000   0.57178754    -3.064944    2798.4626  0.054347521  0.053060185           14 
 4292000   0.55865259   -3.0693147    2796.7774  0.054302139  0.053048388           10 
 4293000   0.55331821   -3.0525059    2793.5316  0.054226485  0.053036608            8 
 4294000   0.55968466   -3.0637277    2788.6539  0.054119195  0.053024801           13 
 4295000   0.55954533   -3.0829566    2797.9986  0.054287905  0.053012933            6 
 4296000   0.57042341   -3.0821256    2796.3514  0.054243315  0.053001093            9 
 4297000   0.55304513   -3.0805833    2790.8019  0.054123068  0.052989284            4 
 4298000   0.56568903   -3.0779597    2799.0134  0.054269688  0.052977419            5 
 4299000   0.56527239    -3.064937    2790.5115   0.05409226  0.052965579            6 
 4300000   0.56267543   -3.0729812    2790.0093  0.054069947   0.05295374            4 
 4301000   0.56293705   -3.0762668    2791.3607   0.05408356  0.052941886            7 
 4302000   0.55883272   -3.0824076    2793.5991  0.054114348  0.052930044           10 
 4303000   0.56477887   -3.0574456    2784.3985   0.05392359   0.05291818            7 
 4304000   0.56238601   -3.0995475    2790.2194  0.054023765  0.052906333           17 
 4305000   0.55726199    -3.082788    2792.6114  0.054057519  0.052894479           10 
 4306000   0.56543076   -3.0751221    2796.1743  0.054113916  0.052882637           10 
 4307000   0.55433076   -3.0696015    2799.6382  0.054168374  0.052870847           19 
 4308000   0.56616178    -3.062584     2794.594  0.054058226  0.052858974           10 
 4309000   0.56885551   -3.0691906    2800.8455  0.054166579  0.052847257           15 
 4310000   0.56341449   -3.0680209    2797.5974   0.05409121  0.052835392           14 
 4311000     0.562636   -3.0584848    2804.2757  0.054207758   0.05282357            6 
 4312000   0.56190215   -3.0602739    2798.9794  0.054092829  0.052811813            5 
 4313000    0.5692655   -3.0739889    2799.2559   0.05408563  0.052800041            6 
 4314000   0.56098532   -3.0557912     2799.044  0.054069001  0.052788244            8 
 4315000   0.56462386   -3.0688456    2801.6798  0.054107374  0.052776489           15 
 4316000   0.55757981   -3.0723292    2799.0739  0.054044523  0.052764767            9 
 4317000   0.55159731   -3.0734383    2797.1057  0.053994009  0.052753018           11 
 4318000   0.55347552   -3.0577454    2793.2185  0.053906486  0.052741214           16 
 4319000   0.55052968   -3.0682337    2799.3305  0.054011933   0.05272949           10 
 4320000   0.57857219   -3.0725207    2801.6912   0.05404497  0.052717755            8 
 4321000   0.56832791   -3.0807082    2795.6043  0.053915072  0.052705961            9 
 4322000   0.55703876   -3.0722171    2799.3083  0.053974014  0.052694152            8 
 4323000   0.55467931   -3.0666664    2786.3264  0.053711282  0.052682391            7 
 4324000   0.56186206   -3.0776116    2799.4758  0.053952279  0.052670641            7 
 4325000   0.56115778    -3.057902     2793.427  0.053823257  0.052658912           11 
 4326000   0.56253192   -3.0786923    2804.9989  0.054033728  0.052647247            5 
 4327000   0.55470624   -3.0732574    2794.9649  0.053827997  0.052635513           17 
 4328000    0.5578341   -3.0681539    2796.9227  0.053853257  0.052623763            6 
 4329000   0.56565583    -3.059443    2808.6809  0.054067161  0.052612062           10 
 4330000   0.56019361   -3.0590951     2805.229  0.053988242  0.052600431            6 
 4331000   0.56105973   -3.0771126    2801.0377  0.053895131  0.052588749            4 
 4332000   0.54368416   -3.0707098    2796.1143  0.053787979  0.052577111           10 
 4333000   0.57272737     -3.10364    2803.4012   0.05391571  0.052565339           19 
 4334000   0.56476525   -3.0753401    2800.3023  0.053843684  0.052553651            7 
 4335000   0.55144631   -3.0657407    2800.1451  0.053828241  0.052541986            6 
 4336000   0.55114341   -3.0981912    2801.7905  0.053847449  0.052530303            7 
 4337000   0.55595975    -3.091052    2801.2563   0.05382477  0.052518622            5 
 4338000   0.56659162   -3.0590239    2801.4325  0.053815746  0.052506957            8 
 4339000   0.54541006   -3.0765128    2799.4023  0.053764352  0.052495224            9 
 4340000    0.5570591   -3.0527837    2803.8294   0.05383697  0.052483527           11 
 4341000    0.5566967   -3.0883874    2799.5518  0.053742451   0.05247176           10 
 4342000   0.55404096   -3.0692671     2795.891  0.053659815  0.052460052            5 
 4343000    0.5685014   -3.0700386    2800.3113  0.053732276  0.052448351           11 
 4344000   0.55176091    -3.087155    2799.2124  0.053698825  0.052436659            4 
 4345000   0.54831248   -3.0736321    2804.4072  0.053786099  0.052424908            6 
 4346000    0.5475714   -3.0945317    2800.7777  0.053704129   0.05241319           11 
 4347000   0.56017742   -3.0849292    2801.4477  0.053704618  0.052401434            8 
 4348000   0.55027654   -3.0848418    2803.3028   0.05372782  0.052389632            8 
 4349000   0.55932297   -3.0938787    2797.2488  0.053599464  0.052377894            8 
 4350000   0.55884201    -3.095916    2794.7331  0.053538948  0.052366142           12 
 4351000   0.55834756   -3.0817654    2799.5426  0.053618758  0.052354432            8 
 4352000   0.55254617   -3.0919974    2801.8826  0.053651245  0.052342711            7 
 4353000    0.5600586   -3.0800732    2805.7094   0.05371218  0.052331011            8 
 4354000   0.55280753   -3.0889832    2800.1191  0.053592847  0.052319232           11 
 4355000   0.55295075   -3.0879575    2803.1278  0.053638113  0.052307536           13 
 4356000   0.54595733   -3.0704019     2795.789  0.053485404  0.052295945           19 
 4357000   0.55666113   -3.0936828    2793.4979  0.053429308  0.052284235           12 
 4358000   0.54139316   -3.0894561    2797.8866  0.053500967  0.052272556            8 
 4359000    0.5722511   -3.0861132    2798.5676  0.053501712  0.052260893            9 
 4360000   0.55594249   -3.0816047    2803.9144  0.053591637  0.052249184            8 
 4361000   0.56468422   -3.0828043    2810.4947  0.053705089  0.052237567           23 
 4362000    0.5390373   -3.0801404    2806.5044  0.053616545  0.052225902           11 
 4363000   0.54315729   -3.0670923    2804.5336  0.053566613  0.052214324            6 
 4364000    0.5359439   -3.0625221    2802.3557  0.053512751  0.052202711            4 
 4365000   0.54964313   -3.0780007    2805.3489  0.053557634  0.052191124           18 
 4366000   0.55770385   -3.0743117    2795.0112  0.053348053  0.052179477            8 
 4367000   0.55208637   -3.1032775    2804.7975  0.053522584  0.052167799            7 
 4368000   0.56400456   -3.0831071    2803.0503  0.053476998  0.052156127            8 
 4369000    0.5597305   -3.0911099    2797.2312  0.053353766  0.052144469            5 
 4370000   0.55061737   -3.0848063    2800.3166  0.053400393  0.052132845           17 
 4371000   0.55005077   -3.0983725     2812.632   0.05362297  0.052121191           15 
 4372000   0.55304215   -3.0850753    2799.4109    0.0533587  0.052109559           13 
 4373000   0.56159383   -3.0844696    2799.9604  0.053356972  0.052097971            9 
 4374000   0.55727223   -3.0918086    2799.8061  0.053341833  0.052086316           18 
 4375000   0.53782961   -3.0968016    2796.3703  0.053264196  0.052074582            6 
 4376000   0.55164887   -3.0897685    2800.8186  0.053336735  0.052062922            9 
 4377000   0.54549749   -3.0822798    2810.0069  0.053499484  0.052051372           12 
 4378000   0.54100885   -3.0717473    2810.1566  0.053490114  0.052039812           10 
 4379000   0.54911965   -3.0763897     2806.397  0.053406352  0.052028235            9 
 4380000   0.54003336   -3.0799399    2806.9617  0.053404903  0.052016661           16 
 4381000   0.55934687   -3.0779067    2804.5927   0.05334765  0.052005065           11 
 4382000   0.55454949   -3.0773495    2810.8577  0.053454619  0.051993447            3 
 4383000   0.54994441   -3.0901235    2798.5587  0.053208584  0.051981786           10 
 4384000   0.56737188    -3.082501    2807.5537   0.05336743  0.051970229            7 
 4385000   0.55496423   -3.0959464    2815.7605  0.053511223  0.051958673            7 
 4386000   0.54177583   -3.0977415    2805.1855  0.053298099  0.051947044            6 
 4387000   0.54154999   -3.0953708    2808.8047  0.053354698  0.051935405           13 
 4388000   0.54979459   -3.1078234     2800.791   0.05319035  0.051923765            7 
 4389000   0.54365786   -3.0885134    2808.8467  0.053331182  0.051912115            6 
 4390000     0.540371   -3.0933126    2806.0393  0.053265743  0.051900512           14 
 4391000   0.53814023   -3.0909595    2805.6745  0.053246689  0.051888928           16 
 4392000   0.54234978   -3.0880428    2804.4885  0.053212061  0.051877378            8 
 4393000   0.53952856   -3.0911093    2801.3935  0.053141238  0.051865742           26 
 4394000   0.54374113   -3.0983494    2804.8939   0.05319553  0.051854174            4 
 4395000   0.55742716    -3.091245    2808.2554  0.053247164  0.051842623            7 
 4396000   0.55215325   -3.0937705    2815.0775  0.053364375  0.051831075            9 
 4397000   0.55245045   -3.0914496     2807.494  0.053208514  0.051819466            8 
 4398000   0.54630926   -3.0968964    2799.4752  0.053044476  0.051807843            6 
 4399000   0.56767796   -3.0902971    2803.5621  0.053109837  0.051796216           11 
 4400000   0.54725081   -3.0898931    2805.5584  0.053135576  0.051784596            9 
 4401000   0.54284008   -3.0991446    2798.8205   0.05299592   0.05177298            7 
 4402000   0.55414274   -3.0953469    2816.3448  0.053315628  0.051761369           11 
 4403000   0.53929437   -3.1021014    2803.5159  0.053060713   0.05174979           23 
 4404000   0.53884019   -3.0976789    2805.0307  0.053077329  0.051738162           12 
 4405000   0.54136537   -3.0829752    2807.0554  0.053103582  0.051726587            4 
 4406000   0.53916912   -3.0849216    2803.2925   0.05302036  0.051714977            9 
 4407000   0.55432275   -3.1049789    2803.1806  0.053006214  0.051703246           10 
 4408000   0.55224803   -3.0791682    2811.8971  0.053158975  0.051691665           14 
 4409000   0.53783389   -3.0951002    2808.9945  0.053092057  0.051680013           18 
 4410000   0.54730861   -3.0983823    2805.4807  0.053013619  0.051668385            5 
 4411000   0.53924927   -3.0923459    2815.3354  0.053187777  0.051656716           24 
 4412000   0.55320377   -3.1019961     2810.219  0.053079084  0.051645134            7 
 4413000   0.53824696   -3.1039931    2803.9288  0.052948275  0.051633507           11 
 4414000   0.55432429   -3.0953711    2806.5684  0.052986112  0.051621874           11 
 4415000   0.54653182   -3.1035551     2799.736  0.052845149  0.051610174           10 
 4416000   0.54254126   -3.1054949    2805.6625  0.052945021  0.051598461           11 
 4417000   0.53823662   -3.0835266    2807.6151  0.052969872   0.05158681           12 
 4418000   0.54697935   -3.0929771    2807.9718  0.052964611  0.051575217           13 
 4419000   0.54634228   -3.0887341    2801.8074  0.052836377  0.051563636            5 
 4420000   0.54667215   -3.0984517    2801.9305  0.052826743   0.05155196           14 
 4421000   0.54052567   -3.1185723    2798.2709  0.052745814  0.051540328            9 
 4422000   0.54868844   -3.1085265    2799.8602  0.052763835  0.051528618            8 
 4423000   0.56024513    -3.101472    2805.0034  0.052848809  0.051516931            6 
 4424000   0.53707585    -3.097273    2807.7776  0.052889119  0.051505297            9 
 4425000   0.54642548   -3.0907229    2807.2015  0.052866319  0.051493616           15 
 4426000   0.54198639   -3.0960168    2803.5378  0.052785393   0.05148191           11 
 4427000   0.54288557   -3.0985143    2803.1213  0.052765629  0.051470193           17 
 4428000   0.53967937   -3.0943659    2805.0603  0.052790205  0.051458517           30 
 4429000    0.5427343   -3.1008132    2802.4298  0.052728791  0.051446847           21 
 4430000   0.54054048   -3.1035252    2804.4922  0.052755684  0.051435117           13 
 4431000   0.53955023   -3.1045164    2804.2912  0.052739998  0.051423464            8 
 4432000   0.54343018   -3.0940943    2804.5786  0.052733503  0.051411797           13 
 4433000   0.53842951   -3.1250134    2796.7415  0.052574282  0.051400085           29 
 4434000   0.54147746   -3.1065625    2807.1742  0.052758499  0.051388413            9 
 4435000   0.54846428     -3.10336    2806.4638  0.052733255  0.051376804            6 
 4436000   0.55303261   -3.0932466    2806.4462  0.052721035  0.051365162           11 
 4437000   0.54250804   -3.0967828    2796.3275  0.052519109  0.051353477            6 
 4438000   0.54266613    -3.094419    2803.4681  0.052641357  0.051341819            8 
 4439000   0.53647718   -3.1150072    2804.7094    0.0526528  0.051330136           11 
 4440000   0.54172497   -3.1044258    2801.6604  0.052583717  0.051318464            9 
 4441000   0.53702528   -3.1001557    2807.0156  0.052672363  0.051306705           19 
 4442000   0.54058347   -3.1096487    2800.2674  0.052533907  0.051294911           13 
 4443000    0.5361325   -3.0930528    2805.2525  0.052615585  0.051283209           12 
 4444000    0.5403727   -3.1107902    2799.1889   0.05249004  0.051271508           12 
 4445000    0.5488931   -3.1055995    2804.3444  0.052574887  0.051259772            9 
 4446000   0.53001765   -3.1247699    2796.9931  0.052425272  0.051248039            6 
 4447000   0.53848879   -3.1160847    2803.6237  0.052537734  0.051236257           13 
 4448000   0.53631031   -3.0853592    2806.0741  0.052571832  0.051224558           16 
 4449000   0.54453037   -3.1003578    2802.5075   0.05249321  0.051212905           10 
 4450000   0.53885475   -3.1002946      2801.62  0.052464794  0.051201286            8 
 4451000   0.54061578   -3.1092185    2803.4044  0.052486414  0.051189618           16 
 4452000   0.54209476   -3.1167266    2796.6051  0.052347356  0.051177934           10 
 4453000   0.54694341   -3.1055498    2803.4071  0.052462892  0.051166251           10 
 4454000   0.53155021   -3.1161313    2803.2069  0.052447368  0.051154533           19 
 4455000   0.53840998   -3.1054056    2801.4141  0.052402059   0.05114281           10 
 4456000   0.53054229   -3.1046742    2801.7601   0.05239677  0.051131148           24 
 4457000   0.53821505    -3.101606    2808.1401  0.052504303  0.051119502            8 
 4458000   0.54571223    -3.092807    2805.5055  0.052443276  0.051107837            8 
 4459000   0.53289131   -3.1273201    2799.2637  0.052314863  0.051096085           10 
 4460000   0.54368325   -3.1053973    2802.0238  0.052354705  0.051084328            6 
 4461000    0.5359225   -3.0985481     2806.892  0.052433908  0.051072637            6 
 4462000   0.53630079   -3.0965643    2810.6012  0.052491431  0.051060963            6 
 4463000   0.52569851   -3.1123426    2806.8844  0.052410269  0.051049326           10 
 4464000   0.53815162   -3.1221956    2798.6282  0.052244404  0.051037619           14 
 4465000    0.5349328    -3.112732    2802.4138  0.052303355  0.051025912            6 
 4466000   0.53292993   -3.1095469    2805.8062  0.052354945  0.051014224           11 
 4467000   0.52663364   -3.1250939    2799.2959  0.052221773  0.051002532            9 
 4468000   0.52967941   -3.1168837    2795.0418   0.05213074  0.050990848           16 
 4469000    0.5457313   -3.1119156    2805.3123  0.052310589  0.050979161           13 
 4470000   0.53084033   -3.1287264    2799.5603  0.052191654  0.050967495           18 
 4471000   0.54228355   -3.1138351    2802.2995  0.052231036  0.050955751           16 
 4472000   0.53842568   -3.1129757    2803.7423  0.052246241  0.050944061           29 
 4473000   0.52677362   -3.1047477    2806.0396   0.05227736   0.05093241           16 
 4474000   0.52465422   -3.1079976     2803.094   0.05221081  0.050920756            5 
 4475000   0.53252339   -3.1160936    2805.3897  0.052241893   0.05090914           10 
 4476000   0.53999127    -3.123656    2807.2076  0.052264067  0.050897574           12 
 4477000   0.53928652   -3.0973561    2801.2358  0.052141236  0.050885924            9 
 4478000   0.53750486   -3.1140396    2804.4217  0.052188881  0.050874259            9 
 4479000   0.53853564   -3.1156069      2805.81  0.052203059  0.050862664           10 
 4480000   0.53914967    -3.121424    2800.4105  0.052090968  0.050851028           30 
 4481000   0.54998813   -3.1066712    2802.9551  0.052126665  0.050839383            9 
 4482000   0.52782781   -3.1255782    2801.0196   0.05207905  0.050827705           17 
 4483000   0.54164538    -3.119412    2810.6325  0.052246124  0.050816022           13 
 4484000   0.52734297   -3.1137583    2798.9146  0.052016699   0.05080436           10 
 4485000   0.52613572   -3.1155625    2806.4894  0.052145845  0.050792686           12 
 4486000   0.53203571   -3.1250154      2804.99  0.052106368  0.050781079           15 
 4487000   0.52563544    -3.115564    2802.6977  0.052052182  0.050769457            8 
 4488000   0.53676068   -3.1333341    2803.1097  0.052048234  0.050757836            6 
 4489000   0.54843214   -3.1156889    2800.6325  0.051990653  0.050746209            9 
 4490000   0.53352771   -3.1066138    2807.1556  0.052100142  0.050734608           19 
 4491000   0.54482084   -3.1185524    2801.9127  0.051991254   0.05072297           17 
 4492000   0.53957572   -3.1215743    2801.3306  0.051968882  0.050711307            5 
 4493000   0.52820115   -3.1206972    2800.0618  0.051933783  0.050699672           17 
 4494000   0.53678903   -3.1137539    2805.3753  0.052020756  0.050688063           10 
 4495000   0.53903463   -3.1045331    2813.1729  0.052153742  0.050676498            7 
 4496000   0.52078005    -3.120108    2805.6757  0.052003182  0.050664892           22 
 4497000   0.53135554   -3.1133737    2803.7872  0.051956623  0.050653296           34 
 4498000    0.5191144    -3.117951    2803.4482  0.051938792  0.050641704            9 
 4499000   0.52545363   -3.1153328    2800.8419  0.051878972  0.050630109            8 
 4500000   0.53073835   -3.1302942    2799.3482  0.051839781  0.050618545            7 
 4501000   0.52460399   -3.1208183    2810.1668  0.052028564  0.050606948            4 
 4502000   0.52825473   -3.1295242    2806.1439  0.051942541  0.050595355            8 
 4503000    0.5269024    -3.147516    2809.8235  0.051999103  0.050583744           15 
 4504000   0.52348353   -3.1266267     2811.162  0.052012323  0.050572132           35 
 4505000    0.5390014   -3.1088358    2809.8629  0.051976747  0.050560552            6 
 4506000   0.53374938   -3.1162784    2804.2063  0.051860598  0.050548983           10 
 4507000   0.52454887   -3.1302099    2805.0244  0.051864218  0.050537394           17 
 4508000   0.53744942    -3.109501    2815.4755  0.052045909  0.050525825           17 
 4509000   0.52359618   -3.1257402    2803.8735  0.051819943  0.050514316           11 
 4510000   0.53268743   -3.1100132    2804.3271  0.051816835  0.050502772            9 
 4511000   0.53315546   -3.1122895    2812.4379  0.051955182   0.05049124            8 
 4512000   0.52520966     -3.11924     2802.054  0.051751883  0.050479707            7 
 4513000   0.52889375   -3.1201337    2803.5925  0.051768825   0.05046814           23 
 4514000   0.52744811   -3.1151417    2817.2184  0.052008906  0.050456622           27 
 4515000   0.52276531   -3.1339551    2804.3613  0.051760084  0.050445103           12 
 4516000   0.53311484    -3.134104     2804.189  0.051745442  0.050433572            9 
 4517000   0.53428619   -3.1367315    2808.3661  0.051811049  0.050422064            9 
 4518000   0.52910901   -3.1187782    2810.8663  0.051845696  0.050410553           11 
 4519000   0.52587226   -3.1250986    2809.2754  0.051804887  0.050399052           31 
 4520000   0.51599866   -3.1312517    2809.1858  0.051791774   0.05038754           12 
 4521000   0.53424411   -3.1215426    2808.0251  0.051758923  0.050376041            9 
 4522000   0.53265803   -3.1396669    2804.7321  0.051686793   0.05036456           13 
 4523000   0.52169632   -3.1389548    2812.7053  0.051822266  0.050353064            9 
 4524000   0.52641645   -3.1230578    2805.2679  0.051673812  0.050341621           12 
 4525000    0.5372416   -3.1231307    2809.9639  0.051748874  0.050330198           18 
 4526000   0.52918648   -3.1239091    2814.9351  0.051828971  0.050318718            6 
 4527000   0.51367643   -3.1457885    2802.1864  0.051582845  0.050307163            7 
 4528000   0.52076524   -3.1435346    2809.7224  0.051710144  0.050295589           13 
 4529000   0.52958347   -3.1322547    2802.0592  0.051557725  0.050284023           27 
 4530000   0.51712847   -3.1379243    2813.8147  0.051762595  0.050272454           15 
 4531000   0.53309766   -3.1329544    2805.7856  0.051603501  0.050260952            9 
 4532000   0.52652857     -3.13066     2805.814  0.051592638  0.050249384           12 
 4533000   0.53324218   -3.1386262    2808.7742  0.051635675  0.050237814           11 
 4534000   0.52409386    -3.137243    2804.4823  0.051545404  0.050226223           10 
 4535000   0.53836923   -3.1202025     2808.026  0.051599155   0.05021477           15 
 4536000   0.53027241   -3.1223687    2806.8542  0.051566252  0.050203257            8 
 4537000   0.53186791   -3.1371445    2807.7532  0.051571399  0.050191768           10 
 4538000   0.52764754   -3.1255759      2812.28  0.051643161  0.050180324           23 
 4539000   0.52109688   -3.1274841    2812.2937  0.051632036  0.050168819           22 
 4540000   0.53807674   -3.1481108    2805.4392  0.051494845  0.050157307           14 
 4541000    0.5336745   -3.1306854    2811.7413  0.051599158  0.050145794           10 
 4542000    0.5262775   -3.1296718    2802.3453  0.051415407  0.050134294           12 
 4543000   0.51605095   -3.1386397    2805.8726  0.051468791  0.050122801           17 
 4544000   0.52776777   -3.1465771    2807.0238  0.051478576  0.050111285           13 
 4545000   0.52244132    -3.122197    2821.0017  0.051723538  0.050099774           23 
 4546000   0.52167167   -3.1534017    2809.9927  0.051510351  0.050088308           15 
 4547000   0.53525502   -3.1319277    2808.6997  0.051475327  0.050076823           13 
 4548000   0.51908648   -3.1437773    2805.6443  0.051408023  0.050065361            8 
 4549000   0.52334239   -3.1263511    2813.5927   0.05154233  0.050053913            9 
 4550000    0.5244985   -3.1337379    2812.5692  0.051512257  0.050042497            5 
 4551000   0.53350344   -3.1431729     2810.377  0.051460796  0.050031073           12 
 4552000   0.53494895   -3.1254138    2806.4877  0.051378289  0.050019642            5 
 4553000   0.52290479   -3.1427494    2805.3007  0.051345279  0.050008225           32 
 4554000   0.53082186   -3.1380141    2808.3336  0.051389503  0.049996782            6 
 4555000   0.53255593    -3.131319    2803.0263  0.051281126  0.049985378           10 
 4556000    0.5280261   -3.1314175    2815.5617  0.051499153  0.049973898           28 
 4557000   0.52447971   -3.1230858    2814.1567  0.051462159  0.049962457           10 
 4558000   0.52232362   -3.1627691    2808.7537  0.051352086   0.04995103            8 
 4559000   0.51957914   -3.1336992     2811.053   0.05138285  0.049939617           18 
 4560000   0.52541435    -3.128035    2815.3181  0.051449528  0.049928232            8 
 4561000   0.52604934    -3.127981    2807.3508  0.051292677  0.049916781           11 
 4562000   0.51810826   -3.1256394    2809.8604  0.051327276  0.049905347           21 
 4563000   0.50918588   -3.1276906    2811.7332  0.051350229  0.049893929           23 
 4564000   0.52259748   -3.1319873    2814.6242  0.051391766  0.049882538           13 
 4565000   0.51384713   -3.1274571     2810.569  0.051306481   0.04987113           27 
 4566000   0.51771989   -3.1484975    2806.5583  0.051222045  0.049859689           14 
 4567000   0.52451552   -3.1474231    2811.3301  0.051297899  0.049848237           10 
 4568000   0.52234185   -3.1384873    2814.9156  0.051352079  0.049836833           10 
 4569000    0.5272343   -3.1396513    2811.7321  0.051282778  0.049825402           16 
 4570000   0.52499721   -3.1230123    2811.8712  0.051274092  0.049813972           14 
 4571000   0.52681623    -3.123532    2814.6992  0.051314431  0.049802543            7 
 4572000   0.52325558   -3.1404939    2808.0218  0.051181499   0.04979115            9 
 4573000   0.53356372   -3.1414468    2807.7032  0.051164501  0.049779712           10 
 4574000   0.52378837   -3.1494197    2807.0491    0.0511414  0.049768258            5 
 4575000   0.52256281   -3.1288124    2817.0866  0.051313052  0.049756827           13 
 4576000   0.53057878   -3.1552383    2807.0975  0.051119928  0.049745324           17 
 4577000   0.52227478   -3.1355272    2818.4463  0.051315387  0.049733872           10 
 4578000   0.52744779   -3.1450843    2816.4391  0.051267641  0.049722432            9 
 4579000   0.51348058   -3.1382799    2810.4472  0.051147397  0.049710978           18 
 4580000    0.5220673   -3.1424472    2801.8205  0.050979266  0.049699512           23 
 4581000   0.52695391   -3.1509322    2812.9782  0.051171109  0.049688051           13 
 4582000   0.51176175   -3.1367637    2815.2237   0.05120078  0.049676665           13 
 4583000    0.5218737   -3.1246488    2811.6326  0.051124311  0.049665257           20 
 4584000   0.51605575   -3.1295901    2813.5244   0.05114755  0.049653856           20 
 4585000   0.51515688   -3.1433553    2811.3186  0.051096304   0.04964243            9 
 4586000   0.51774934   -3.1283558    2814.3399  0.051140063  0.049631022           19 
 4587000   0.51832125   -3.1445142    2814.3404  0.051128922   0.04961961            9 
 4588000   0.52391605   -3.1421783    2809.0065  0.051020897  0.049608163           22 
 4589000    0.5264963   -3.1388444    2809.1704  0.051012755  0.049596717           13 
 4590000   0.53197771   -3.1713754    2816.3026   0.05113113  0.049585257            6 
 4591000   0.52130958    -3.152826    2803.3948  0.050885697  0.049573743           17 
 4592000   0.52284557   -3.1361767    2811.2671  0.051017477  0.049562268           12 
 4593000   0.50909166   -3.1327094    2812.2364  0.051023957  0.049550835            7 
 4594000    0.5183852   -3.1449713    2806.6411  0.050911353  0.049539371            9 
 4595000   0.52132633    -3.150066    2805.8436  0.050885811  0.049527855           15 
 4596000   0.51219303   -3.1437369    2809.5258  0.050941504  0.049516342           17 
 4597000    0.5086134   -3.1434115    2808.5845  0.050913359  0.049504918           17 
 4598000   0.51606736   -3.1375028    2811.2758  0.050951062   0.04949347           11 
 4599000   0.51546087   -3.1401437    2807.6049  0.050873467  0.049482033           13 
 4600000   0.53033042   -3.1318972    2808.0448  0.050870376  0.049470681           11 
 4601000   0.51522611   -3.1554745    2820.6932  0.051088409  0.049459289           14 
 4602000   0.51733732   -3.1321541    2809.7773   0.05087964  0.049447855           15 
 4603000   0.50801064   -3.1496997    2809.3984  0.050861728  0.049436475           17 
 4604000   0.51484161   -3.1537488    2804.3832  0.050759905  0.049425071           25 
 4605000   0.51887357   -3.1416368    2813.5202  0.050914227  0.049413664           13 
 4606000   0.51242807   -3.1333531    2811.1494   0.05086028  0.049402234           14 
 4607000   0.50532736   -3.1493133    2811.1793  0.050849781  0.049390862           10 
 4608000   0.50777604   -3.1416576    2813.9502  0.050888856  0.049379488            9 
 4609000   0.52063324   -3.1534717    2814.7994   0.05089317  0.049368076           12 
 4610000    0.5136911   -3.1624665    2806.8033  0.050737587  0.049356652            8 
 4611000   0.50305701   -3.1649248    2811.4292  0.050810185  0.049345217           11 
 4612000   0.50767173   -3.1422122    2805.6132   0.05069408  0.049333762           18 
 4613000   0.52128902   -3.1624433    2805.5628  0.050682182  0.049322331           14 
 4614000   0.50458708   -3.1484057    2808.6931  0.050727732  0.049310863            9 
 4615000   0.50782602     -3.15831     2805.258  0.050654713  0.049299385           10 
 4616000   0.51695277   -3.1495382     2804.053  0.050621985  0.049287914           17 
 4617000   0.51160204    -3.163902    2807.2255  0.050668281    0.0492765           14 
 4618000   0.51542908   -3.1651253    2803.1375  0.050583541  0.049265023           10 
 4619000   0.51334353    -3.151922    2810.5341  0.050706036  0.049253537            7 
 4620000   0.52202632   -3.1365712    2808.7334  0.050662579   0.04924209           10 
 4621000   0.51317514   -3.1450202    2813.2055  0.050732264  0.049230673            9 
 4622000   0.51389735   -3.1424686    2806.1112   0.05059338  0.049219224           12 
 4623000   0.50838261   -3.1492457    2806.9343  0.050597273  0.049207753            7 
 4624000   0.52283209    -3.167463    2810.6876  0.050653973  0.049196331            6 
 4625000   0.50284197   -3.1415657    2807.3069  0.050582106  0.049184915            7 
 4626000   0.50964088    -3.157004    2800.6414  0.050451098  0.049173478           13 
 4627000   0.50511509   -3.1464395    2805.5343  0.050528317  0.049162003           16 
 4628000   0.50765081   -3.1541482    2811.1577  0.050618657  0.049150576           17 
 4629000   0.50880465   -3.1560762    2805.8902  0.050512893  0.049139117           14 
 4630000   0.52254168   -3.1629328    2811.1266  0.050596231  0.049127682           15 
 4631000   0.52920892   -3.1504866     2812.165  0.050603991  0.049116253           11 
 4632000   0.49528741   -3.1508328    2809.1619  0.050539038  0.049104813           31 
 4633000   0.51394342   -3.1454109    2813.0296  0.050597697  0.049093362           21 
 4634000   0.50996023   -3.1622937    2813.9198  0.050602788  0.049081928           16 
 4635000   0.51253672   -3.1517354    2805.6115  0.050442494  0.049070502            6 
 4636000   0.50130516   -3.1617003    2808.3426  0.050480705  0.049059046            9 
 4637000   0.50303109   -3.1558605    2801.3275  0.050343747  0.049047608           13 
 4638000   0.51896847   -3.1499792    2804.4816  0.050389565  0.049036157           17 
 4639000    0.5136001   -3.1572699    2808.2749  0.050446844  0.049024699           29 
 4640000   0.51966526   -3.1656874    2807.3118  0.050418675  0.049013246           12 
 4641000   0.52331949   -3.1510468    2808.9578  0.050437367  0.049001785            9 
 4642000   0.51944506   -3.1572923    2802.4478  0.050309632  0.048990379           13 
 4643000   0.50589872   -3.1719907    2806.8468  0.050377751  0.048978919           30 
 4644000   0.49999928   -3.1655596    2802.1292  0.050282249  0.048967395           26 
 4645000   0.51359298   -3.1772404    2810.6221  0.050423791  0.048955883           12 
 4646000    0.5056236    -3.140197    2807.8311  0.050362876  0.048944396           15 
 4647000   0.51796016    -3.143461    2808.3324  0.050361029  0.048932917           12 
 4648000   0.50939179   -3.1733376    2805.2973  0.050295777  0.048921416           13 
 4649000   0.50609686   -3.1740718    2807.5373  0.050325111  0.048909945            7 
 4650000   0.49425382   -3.1580533    2806.8397  0.050301786  0.048898485           28 
 4651000   0.50828273   -3.1530758    2809.4729  0.050338151  0.048887027           11 
 4652000   0.50560692   -3.1485495    2807.2227  0.050287022  0.048875594           12 
 4653000   0.50695297   -3.1577597    2810.3154  0.050331604  0.048864122           19 
 4654000   0.50410081   -3.1547327    2807.6518  0.050273096  0.048852632           12 
 4655000   0.51498035   -3.1599607    2802.3863  0.050168033  0.048841146           10 
 4656000    0.4980564     -3.15027    2809.0173   0.05027594  0.048829738           12 
 4657000   0.50270282   -3.1526772    2807.1249   0.05023128  0.048818355           16 
 4658000   0.49772924    -3.156642    2807.3237  0.050224054  0.048806928           22 
 4659000   0.50327687   -3.1762459    2801.4393  0.050108022  0.048795504           10 
 4660000    0.5042714   -3.1549183    2807.5931  0.050207316  0.048784073            9 
 4661000   0.51291007   -3.1628011    2808.0746  0.050205154  0.048772677            8 
 4662000   0.51541478   -3.1767413    2810.1932  0.050232253  0.048761243           13 
 4663000   0.50508944   -3.1558095    2810.6782  0.050230149   0.04874983           17 
 4664000   0.50166434   -3.1798406      2808.09  0.050173136  0.048738388           16 
 4665000   0.51232197      -3.1411    2807.0244  0.050143344  0.048726994            9 
 4666000   0.51216359   -3.1778044    2807.9699  0.050149483    0.0487156           19 
 4667000    0.5080756   -3.1841769    2808.7588  0.050152825  0.048704146           13 
 4668000   0.50688392   -3.1681056    2807.6964  0.050123114  0.048692677           15 
 4669000   0.50846101    -3.154776    2813.8779  0.050222708  0.048681258           11 
 4670000   0.50753969   -3.1642372     2805.106  0.050055426  0.048669916           10 
 4671000   0.50033671   -3.1666425    2809.8543  0.050129421  0.048658551           29 
 4672000    0.5172048   -3.1866789    2807.4067  0.050075034   0.04864715            7 
 4673000    0.5069691   -3.1795347    2809.9427  0.050109543  0.048635756           13 
 4674000   0.49817929    -3.183037    2804.2655  0.049997602  0.048624322           24 
 4675000   0.50409133   -3.1704431    2804.3687  0.049988747  0.048612898           13 
 4676000   0.50049935   -3.1538273    2812.8437  0.050129093  0.048601536           10 
 4677000   0.50195897   -3.1732756    2805.7371  0.049991753  0.048590162           10 
 4678000   0.50493499   -3.1535552    2806.4799  0.049994298  0.048578806           10 
 4679000   0.50960144   -3.1782103    2806.0974    0.0499768  0.048567465           23 
 4680000   0.51156311   -3.1711163    2809.7947  0.050031956  0.048556084           22 
 4681000   0.50088931   -3.1804147    2809.2859   0.05001221  0.048544724           20 
 4682000    0.4909227   -3.1662475     2804.513  0.049916577  0.048533323           22 
 4683000   0.50190795   -3.1778688    2813.8072  0.050071308  0.048521946           16 
 4684000   0.48935906    -3.160652     2810.653  0.050004501  0.048510599            9 
 4685000   0.49968462   -3.1673348    2806.0629  0.049912182  0.048499258           12 
 4686000   0.50177824   -3.1709133     2807.062  0.049919298  0.048487898           18 
 4687000   0.50244995   -3.1902423     2808.995  0.049943016  0.048476464           10 
 4688000   0.50175154   -3.1690997    2816.2083  0.050060586  0.048465112           12 
 4689000   0.48896526   -3.1790562    2808.0944  0.049905708  0.048453735           23 
 4690000   0.49973541   -3.1765907    2812.1848  0.049967746   0.04844235            8 
 4691000   0.49593553   -3.1822087    2809.8059  0.049914835  0.048431008            7 
 4692000     0.512978   -3.1732917    2812.5175  0.049952357  0.048419725           11 
 4693000   0.49554836   -3.1761242    2814.8515  0.049983157  0.048408386           43 
 4694000   0.49986447   -3.1704844    2809.9139  0.049884852  0.048397083           26 
 4695000   0.50105824    -3.157854    2805.8946  0.049802886  0.048385794            9 
 4696000   0.50073048   -3.1785573    2812.9223  0.049916991   0.04837453           18 
 4697000   0.48750525   -3.1733338    2818.0872  0.049997998  0.048363258           13 
 4698000   0.51066352   -3.1602017      2817.85  0.049983149  0.048351999           10 
 4699000   0.50388943   -3.1767452    2809.0467  0.049816392  0.048340708           14 
 4700000    0.4865361   -3.1583972    2809.6127  0.049815827  0.048329419           16 
 4701000   0.49260026   -3.1644104    2805.9276  0.049739907  0.048318138           10 
 4702000   0.49988897   -3.1743783    2817.8398  0.049940448  0.048306854           13 
 4703000   0.51228035   -3.1752044    2809.7434  0.049786366  0.048295551           19 
 4704000   0.49468521   -3.1822608    2811.2751  0.049802917  0.048284192           10 
 4705000    0.4858158   -3.1871565    2811.1922  0.049790865  0.048272853           21 
 4706000   0.50005995   -3.1772713    2809.6518  0.049753007  0.048261504            7 
 4707000   0.51249806   -3.1748087    2805.2166  0.049663915  0.048250173           23 
 4708000   0.49471773   -3.1724169    2814.3985   0.04981589  0.048238886           19 
 4709000   0.48531072   -3.1840165    2808.4664  0.049700332  0.048227553           16 
 4710000    0.5025646   -3.1728613    2810.0524  0.049717841  0.048216292           12 
 4711000   0.49801683   -3.1759727    2810.6369  0.049717628  0.048205023           19 
 4712000   0.48475522   -3.1981841    2812.0296  0.049731706  0.048193699           19 
 4713000   0.50381974   -3.1798545    2812.6682  0.049732446  0.048182412           18 
 4714000   0.51132984   -3.1817332    2809.3942  0.049664019   0.04817108           19 
 4715000   0.49313842   -3.1818903    2814.5242  0.049744154  0.048159743           19 
 4716000   0.49547083   -3.1914257    2806.8432   0.04959788   0.04814843           15 
 4717000   0.50388599   -3.1949409    2802.9219  0.049518089  0.048137076           23 
 4718000   0.49443194   -3.1946964    2811.1008  0.049652057  0.048125734           23 
 4719000   0.50848266    -3.189548    2809.7248  0.049617235  0.048114417           14 
 4720000   0.49573085   -3.1792876    2819.4325  0.049778116  0.048103181           19 
 4721000   0.49870761   -3.1699009    2814.1636  0.049674568  0.048091927           14 
 4722000   0.48583425   -3.1773787    2809.7745  0.049586589  0.048080673           15 
 4723000   0.49060434    -3.168183    2815.5113  0.049677312  0.048069415           30 
 4724000   0.49221417   -3.1735341    2811.7964  0.049601263  0.048058234           23 
 4725000   0.49183822   -3.1697439    2814.5516  0.049639358  0.048047039           10 
 4726000   0.48960502   -3.1784905    2810.7728  0.049562223  0.048035844           13 
 4727000   0.48570711   -3.1857115     2817.383  0.049668272  0.048024634           11 
 4728000   0.49716367   -3.1864552    2815.5224  0.049624972   0.04801346           12 
 4729000   0.48686946   -3.1792127    2816.8552  0.049637965  0.048002272           11 
 4730000   0.50070412   -3.1883636    2805.9749   0.04943578  0.047991067           24 
 4731000   0.48989775   -3.1971967    2815.2844  0.049589311  0.047979793           12 
 4732000   0.50212307   -3.1816916    2816.2458  0.049595763  0.047968557            8 
 4733000   0.49958918   -3.1625691    2801.2894  0.049321948  0.047957356           20 
 4734000   0.49056688   -3.1934954    2812.1979  0.049503555  0.047946115           15 
 4735000   0.48108064   -3.1894018    2814.8405  0.049539607  0.047934888           11 
 4736000   0.49765258   -3.1918702     2811.329   0.04946736  0.047923696           12 
 4737000   0.50010159   -3.1711149    2813.0362   0.04948695  0.047912528            6 
 4738000   0.49229105   -3.1785867    2812.9866  0.049475634  0.047901361           13 
 4739000   0.49822378   -3.1833186    2813.9058  0.049481356  0.047890138           11 
 4740000   0.47973666   -3.1668719    2814.4106  0.049479793  0.047878933           26 
 4741000   0.49081043   -3.1686062    2805.4837  0.049312447  0.047867738           24 
 4742000   0.49769226   -3.1863393    2821.9039  0.049590607  0.047856552           21 
 4743000   0.49310936   -3.1882121    2814.8299  0.049455864  0.047845349           18 
 4744000   0.49835884   -3.1863062     2822.995  0.049588867  0.047834183           11 
 4745000   0.48851136   -3.1960577    2811.1623  0.049370607  0.047823023           15 
 4746000   0.48976114   -3.1950578    2819.1207  0.049499943  0.047811866           22 
 4747000   0.49052906   -3.1971958    2815.8413  0.049431944  0.047800634           10 
 4748000   0.48217594   -3.1775311    2810.2013  0.049322544  0.047789443           17 
 4749000    0.4861875    -3.181682    2807.2058  0.049259596  0.047778223            9 
 4750000   0.50878104   -3.1943286    2813.3571  0.049357142  0.047766988           15 
 4751000   0.49249968   -3.1950836    2805.6845  0.049212175  0.047755749            9 
 4752000   0.48319621   -3.1862598     2808.225  0.049246371  0.047744536           19 
 4753000   0.49163576    -3.181055    2808.0618  0.049233147  0.047733379           13 
 4754000   0.48826713   -3.1952303    2812.1133   0.04929381  0.047722216           18 
 4755000   0.48681849    -3.177722    2816.1207  0.049353676  0.047711001           13 
 4756000   0.48939587   -3.1718705    2815.4507  0.049331558    0.0476998           19 
 4757000   0.49593105   -3.1919792    2809.1007  0.049209948   0.04768862            9 
 4758000   0.49241935   -3.2009097    2817.9465  0.049354535  0.047677441           10 
 4759000    0.4899666   -3.1875635    2811.4863  0.049231041  0.047666257           15 
 4760000   0.49215278   -3.1956742     2814.614  0.049275455  0.047655022           18 
 4761000    0.4998902   -3.1934099    2808.2032  0.049152895    0.0476438            9 
 4762000   0.48068372   -3.1885674    2814.2312  0.049248061  0.047632633           16 
 4763000   0.50074626   -3.1640653    2812.8841  0.049214152  0.047621483           15 
 4764000    0.4899471   -3.1746547    2815.9574  0.049257582  0.047610371            9 
 4765000   0.47621003   -3.1956945    2820.2594  0.049322479  0.047599266           16 
 4766000   0.48896427   -3.1951393    2814.7123   0.04921514  0.047588143           21 
 4767000   0.49620869   -3.1862625    2813.4182  0.049182193  0.047576947           28 
 4768000   0.48084039   -3.1800432     2810.537  0.049121522  0.047565851           32 
 4769000   0.49295198   -3.1931536     2820.814  0.049290801  0.047554735           32 
 4770000   0.48143322   -3.1899835     2826.052  0.049371978  0.047543681           11 
 4771000   0.49282106   -3.1983763    2818.4967  0.049229664  0.047532585           12 
 4772000   0.49112686    -3.192743    2815.3743  0.049164821  0.047521458            7 
 4773000   0.48592337   -3.2045982    2813.7308  0.049125826  0.047510327           14 
 4774000   0.48321263   -3.1998783    2817.2917  0.049177694  0.047499213           20 
 4775000    0.4845686   -3.2026162    2813.5735  0.049102505  0.047488124           13 
 4776000   0.47079325   -3.1878019    2817.6261  0.049162934  0.047477032           41 
 4777000    0.4900841    -3.205661    2808.0602  0.048985768  0.047465947           14 
 4778000   0.48796131   -3.2067213    2821.0141  0.049201446  0.047454809           22 
 4779000   0.49331365   -3.2017098    2817.3397  0.049127079  0.047443651           28 
 4780000   0.47836858    -3.203249    2815.3315  0.049081791  0.047432577            6 
 4781000   0.48737291   -3.1902992    2814.9591  0.049065034  0.047421462           24 
 4782000   0.48113618   -3.2003684    2813.5339  0.049029936  0.047410342           22 
 4783000   0.49395468   -3.1857853    2806.9407  0.048904813  0.047399221           16 
 4784000   0.49077734   -3.1925422    2815.9576  0.049051659  0.047388136           10 
 4785000   0.47585032   -3.1786568     2813.136  0.048992267  0.047377026           19 
 4786000   0.49148628   -3.1879578     2818.129  0.049068969  0.047365983           10 
 4787000   0.48550745   -3.1972738    2814.9289  0.049003011  0.047354876           15 
 4788000   0.48248165   -3.2121181    2817.6793  0.049040645  0.047343759            8 
 4789000   0.49546039   -3.2179047    2817.1354   0.04902094  0.047332684            9 
 4790000   0.48372829   -3.1824799     2819.841  0.049057777  0.047321695           11 
 4791000   0.48605887   -3.1937403    2819.1033  0.049034706  0.047310731           10 
 4792000   0.47742144   -3.1975476    2821.5175  0.049066456  0.047299708           10 
 4793000   0.48861535   -3.1844514     2819.479  0.049020777  0.047288685            9 
 4794000   0.49092576     -3.19236    2810.7517  0.048858846  0.047277663           20 
 4795000   0.50291728   -3.2078407    2817.2539  0.048961659  0.047266625           13 
 4796000   0.48602393   -3.2105034    2815.3271  0.048917972  0.047255578           79 
 4797000   0.47771764   -3.1951188    2816.2958  0.048924601  0.047244571           43 
 4798000   0.48787251   -3.1930157    2816.6851  0.048921167  0.047233569           38 
 4799000   0.49308613   -3.2002907    2821.5468  0.048995395  0.047222543           17 
 4800000   0.47807004   -3.2050582    2822.1293  0.048995301  0.047211468           15 
 4801000   0.49799225   -3.2075851    2811.4187  0.048799186  0.047200437            9 
 4802000   0.47331488   -3.1927331    2819.6703   0.04893222  0.047189389           15 
 4803000   0.48321916   -3.2053564    2818.1605  0.048895838  0.047178369           12 
 4804000   0.48478981   -3.2023927    2821.5044  0.048943666  0.047167378            5 
 4805000   0.49149605   -3.1879836    2817.7462    0.0488683  0.047156307           14 
 4806000   0.48655113   -3.2001021    2820.0058  0.048897312   0.04714525           12 
 4807000   0.48108879   -3.2038416    2808.1193  0.048681078  0.047134202           30 
 4808000   0.47976429   -3.2084905    2810.7145  0.048715933  0.047123158           18 
 4809000   0.48096311    -3.182738    2815.9336  0.048796244  0.047112131           18 
 4810000   0.47437374   -3.1936362    2816.4078  0.048794314  0.047101093           16 
 4811000   0.48081907    -3.203884    2819.1049   0.04883089  0.047090065           14 
 4812000   0.48136992   -3.1934591    2819.7671  0.048832209  0.047079057           16 
 4813000   0.48100735   -3.2059362    2820.1586  0.048828842   0.04706802           28 
 4814000   0.47627235   -3.2005751    2817.6852  0.048775884  0.047056976           32 
 4815000   0.48240966   -3.2169937    2806.7094  0.048575794  0.047045876           17 
 4816000   0.48269831   -3.2224622    2819.3099  0.048783739  0.047034807           25 
 4817000   0.48735372   -3.2190236    2813.9126   0.04868024  0.047023767           32 
 4818000   0.49417626   -3.1995503    2817.0033  0.048723595  0.047012702           15 
 4819000   0.48055655    -3.207884    2816.1001  0.048697864  0.047001647           25 
 4820000   0.48205568   -3.2216749    2813.4576  0.048642075  0.046990645           12 
 4821000   0.47892511   -3.2055607    2813.7436  0.048636929  0.046979677           12 
 4822000   0.48446827   -3.1983078     2818.581  0.048710441  0.046968661           14 
 4823000   0.48429781   -3.2050309    2817.3115  0.048678408   0.04695768           18 
 4824000   0.47768172    -3.214504    2805.6212   0.04846637  0.046946654           19 
 4825000   0.47958296   -3.2005572    2813.4252  0.048591109  0.046935639           61 
 4826000   0.47672814   -3.1981041    2817.2576  0.048647217  0.046924609           21 
 4827000   0.47037495   -3.2066461    2821.4347  0.048709252  0.046913587           15 
 4828000   0.49055575    -3.215849    2816.6418  0.048616435  0.046902579           26 
 4829000   0.47914092   -3.2195832    2817.8946  0.048627986  0.046891534           19 
 4830000   0.48610666   -3.2120539    2812.6677  0.048527739   0.04688053           19 
 4831000   0.46844021   -3.2057208    2806.6465   0.04841383  0.046869496            7 
 4832000   0.48211985   -3.2283137    2810.2028  0.048465142  0.046858444           17 
 4833000   0.47003349   -3.2194992    2814.8203  0.048534732  0.046847377           25 
 4834000    0.4808624   -3.2162571    2813.4374  0.048500852  0.046836329           33 
 4835000   0.47374479   -3.2026113    2820.3376  0.048609749  0.046825353           47 
 4836000    0.4805641   -3.2092541    2811.1758  0.048441821  0.046814321           23 
 4837000    0.4726287   -3.2094241    2808.8208  0.048391234  0.046803331           16 
 4838000   0.47666338   -3.2303889    2813.3161  0.048458662  0.046792304           19 
 4839000   0.47548091   -3.2117977    2813.3424  0.048449101  0.046781242           22 
 4840000   0.47326708   -3.2043974    2811.8152  0.048412795   0.04677019           60 
 4841000   0.48765546   -3.2142033    2815.5089  0.048466379  0.046759163           19 
 4842000   0.47846034   -3.2138334      2819.97  0.048533148  0.046748151           29 
 4843000   0.48280696   -3.2103675    2811.3874  0.048375446  0.046737197           30 
 4844000   0.47982517    -3.209729    2811.9609  0.048375325  0.046726193            8 
 4845000   0.47573234   -3.2202912    2818.8753  0.048484267  0.046715214            6 
 4846000   0.47740519    -3.212114    2816.8105  0.048438755  0.046704206           11 
 4847000   0.47735076   -3.2250792    2811.5879   0.04833897  0.046693157           15 
 4848000   0.48841184    -3.209983    2819.2105  0.048460027  0.046682132           20 
 4849000   0.47535126   -3.2074946    2817.5602  0.048421671  0.046671188           13 
 4850000   0.47682232   -3.2083655    2819.9099   0.04845206  0.046660264           18 
 4851000   0.48148639   -3.2258699    2823.3355  0.048500919  0.046649307           26 
 4852000   0.47754993   -3.2142979    2815.1067  0.048349594  0.046638317           22 
 4853000   0.47191215   -3.2174632    2816.0846  0.048356422  0.046627323           12 
 4854000   0.47665192   -3.2157855    2819.1417  0.048398944  0.046616369           15 
 4855000   0.47544114   -3.1986419    2812.9137  0.048282075  0.046605482           22 
 4856000   0.47098988   -3.2087658    2815.5334  0.048317089  0.046594574           43 
 4857000   0.48034443   -3.2161945    2814.3067  0.048286094  0.046583622           16 
 4858000   0.48551826   -3.2209234    2814.8729  0.048285866  0.046572658           54 
 4859000    0.4716136   -3.2253428    2811.9719  0.048226176  0.046561694           32 
 4860000    0.4693974   -3.2181957    2820.7588  0.048366921  0.046550743           17 
 4861000   0.47998177   -3.2199906    2811.4207  0.048196884  0.046539808           14 
 4862000   0.47452542   -3.2242823    2816.4926  0.048273904  0.046528866           28 
 4863000   0.47349263   -3.2343665    2817.6481  0.048283777  0.046517884           22 
 4864000   0.46487039   -3.2242237    2817.0067  0.048262862   0.04650692           19 
 4865000    0.4832161   -3.2087849    2814.9608  0.048217897  0.046495993           26 
 4866000   0.47308201   -3.2341197    2818.2942  0.048265073  0.046485086           24 
 4867000   0.45920139   -3.2266103    2813.9637   0.04818101  0.046474156           15 
 4868000   0.46759246    -3.208805     2822.637  0.048319587  0.046463237           39 
 4869000   0.46706347   -3.2233995    2821.2056  0.048285165  0.046452304            8 
 4870000   0.47751468   -3.2312012    2820.9852  0.048271478  0.046441354           23 
 4871000    0.4803976   -3.2095369    2816.8038  0.048190033  0.046430415           18 
 4872000   0.47555062   -3.2130436    2806.5533  0.048004811  0.046419493           11 
 4873000   0.47722258   -3.2213674    2815.3092  0.048144695  0.046408585           19 
 4874000    0.4744441   -3.2260616    2819.5854  0.048207929  0.046397669           21 
 4875000   0.47880164   -3.2299505    2814.9516   0.04811883   0.04638674           54 
 4876000   0.47990697    -3.234597    2815.1958  0.048113135  0.046375764           23 
 4877000   0.47083915   -3.2348556    2814.4553  0.048090618  0.046364764           33 
 4878000   0.47262574   -3.2153067    2808.6455  0.047981507  0.046353761           35 
 4879000    0.4668696    -3.223304    2816.2243  0.048101118  0.046342805           28 
 4880000   0.45646661   -3.2190681    2812.0091  0.048019282  0.046331842           35 
 4881000   0.47206292   -3.2301115    2811.4672  0.048000192  0.046320932           26 
 4882000   0.47025779   -3.2314048    2818.0849   0.04810332  0.046310024           21 
 4883000   0.47974447   -3.2337475     2813.006  0.048006793  0.046299068           21 
 4884000   0.47050992     -3.21193    2817.6796  0.048076706  0.046288148            8 
 4885000   0.47593072    -3.243621    2815.6933  0.048032981  0.046277252           18 
 4886000   0.47055067   -3.2290398    2821.6376  0.048124532  0.046266345           31 
 4887000   0.47600766   -3.2255958    2819.2727  0.048074358  0.046255428           17 
 4888000   0.47386759   -3.2240412    2815.7116  0.048003812  0.046244495           13 
 4889000   0.47397259     -3.23342    2823.0994  0.048119919  0.046233567           17 
 4890000   0.47938614   -3.2224927    2820.7448  0.048069952   0.04622267           23 
 4891000   0.46513055   -3.2089721    2813.2506  0.047932437  0.046211763           17 
 4892000   0.46229583   -3.2264496    2817.3518  0.047992502  0.046200847           11 
 4893000   0.46809791     -3.23717    2818.4773  0.048001862  0.046189942           26 
 4894000   0.46571935   -3.2300179    2816.4168  0.047956968   0.04617904           14 
 4895000   0.47212637   -3.2238161    2817.2756  0.047961791  0.046168147           32 
 4896000   0.47520028   -3.2190601    2819.2097  0.047984915  0.046157261           22 
 4897000   0.46138073   -3.2397898    2812.0079  0.047852561  0.046146371           20 
 4898000    0.4680909   -3.2411889    2820.0193  0.047979094  0.046135463           16 
 4899000   0.47385681   -3.2386645    2809.7553  0.047794708  0.046124507           12 
 4900000   0.47670578   -3.2309332    2813.1408  0.047842531  0.046113587           16 
 4901000   0.46456678   -3.2263056    2814.3387  0.047853137  0.046102688           21 
 4902000   0.46664893   -3.2250384    2817.8697  0.047903402   0.04609177           20 
 4903000   0.46485242   -3.2252604    2818.5607  0.047905376  0.046080843           23 
 4904000    0.4556548   -3.2368452    2812.6959  0.047795947  0.046069914           35 
 4905000   0.46055943    -3.232168    2815.0269  0.047825806  0.046058954           26 
 4906000   0.46324673    -3.237848    2815.0725  0.047816832  0.046048037            7 
 4907000   0.47077297   -3.2136223     2815.336  0.047811561  0.046037151           17 
 4908000   0.46046636   -3.2347184     2814.444  0.047786675  0.046026228           15 
 4909000   0.47466895   -3.2197486    2819.2781  0.047859002  0.046015347           10 
 4910000   0.46438131   -3.2271957    2810.4426  0.047699297  0.046004449           21 
 4911000   0.46685658   -3.2417168    2815.9713    0.0477834  0.045993558           10 
 4912000    0.4549934    -3.222188    2815.9759  0.047773749  0.045982686           10 
 4913000   0.47690636   -3.2404612     2809.844  0.047660018  0.045971775            7 
 4914000   0.46359576   -3.2341333    2816.5148  0.047763445  0.045960903           10 
 4915000   0.46617871   -3.2321911    2812.0535  0.047678086  0.045950072           23 
 4916000   0.46545676   -3.2217046    2817.3063   0.04775743  0.045939245           14 
 4917000   0.47424617    -3.245182    2818.0697  0.047760655  0.045928416           28 
 4918000   0.46503216   -3.2386024    2812.9806  0.047664711  0.045917527           12 
 4919000   0.47978596   -3.2511819    2813.7027  0.047667255  0.045906607           31 
 4920000   0.46791183   -3.2488742    2813.6886  0.047657327  0.045895717           21 
 4921000   0.46475603    -3.226161     2819.319  0.047742989   0.04588483           24 
 4922000   0.46534781   -3.2370744    2817.3801  0.047700462  0.045873973           27 
 4923000   0.46033986   -3.2312714    2814.1971  0.047636893  0.045863129           36 
 4924000   0.46749906   -3.2347493    2818.2676  0.047696108  0.045852286           19 
 4925000   0.45607059   -3.2430376    2821.7007  0.047744512  0.045841395           38 
 4926000   0.47127174   -3.2337512    2812.4043  0.047577553   0.04583053           50 
 4927000   0.46425628   -3.2395552    2815.4482   0.04761938  0.045819662           21 
 4928000   0.45709789   -3.2328199    2818.8509  0.047667257  0.045808794           21 
 4929000   0.46422511   -3.2389675    2810.6274  0.047518553  0.045797912           21 
 4930000   0.46422205   -3.2475386    2805.1321  0.047416026  0.045787022           26 
 4931000   0.46648855   -3.2534616    2811.2112  0.047509146  0.045776066           28 
 4932000   0.46169154   -3.2490609    2812.9156  0.047528312  0.045765144           20 
 4933000   0.46898633   -3.2435473    2816.7263  0.047583052  0.045754212           31 
 4934000   0.46417708   -3.2386925    2816.9963  0.047577968  0.045743318           54 
 4935000   0.46289983   -3.2226182    2808.2555  0.047420728   0.04573244           23 
 4936000   0.45894198   -3.2379321    2807.9973  0.047406761  0.045721575           28 
 4937000   0.45661767   -3.2391523    2815.5305  0.047524314  0.045710659           33 
 4938000   0.46229096   -3.2284905    2811.1487  0.047440744  0.045699792           34 
 4939000   0.45664907   -3.2345625    2806.1989  0.047347623  0.045688883           16 
 4940000   0.45962969   -3.2441919    2816.4764  0.047511411  0.045678023           70 
 4941000   0.45816299   -3.2328628    2810.7578  0.047405346  0.045667136           27 
 4942000   0.46876989   -3.2443622    2808.3311  0.047354834  0.045656248           20 
 4943000   0.46208496   -3.2555312    2812.5605  0.047416557   0.04564537           20 
 4944000   0.45246111   -3.2618862    2807.5467  0.047322456  0.045634461           26 
 4945000   0.45526886   -3.2336846    2814.5184  0.047430374  0.045623567           16 
 4946000   0.45594947   -3.2298193    2809.7162  0.047339873  0.045612717           18 
 4947000    0.4546046   -3.2358467    2812.7519  0.047381441  0.045601831           14 
 4948000   0.46143115   -3.2405306    2812.4968  0.047367569  0.045590973           19 
 4949000   0.45794677   -3.2532128    2812.3121  0.047354889  0.045580124           34 
 4950000   0.46669928    -3.240567    2814.3384  0.047379434  0.045569227           15 
 4951000   0.45055636   -3.2445673    2814.5796  0.047373924  0.045558334           28 
 4952000   0.46123608   -3.2508383    2810.8933  0.047302325  0.045547463           16 
 4953000   0.45971485   -3.2476397    2809.9846  0.047277485  0.045536579           11 
 4954000   0.46591996   -3.2459578    2811.8441  0.047299222  0.045525686           14 
 4955000   0.45296062   -3.2331078    2806.7698  0.047204335   0.04551477           36 
 4956000   0.46344337    -3.256077    2813.4319  0.047306831  0.045503871           28 
 4957000   0.45289612   -3.2451182    2816.2232  0.047344213   0.04549302           17 
 4958000   0.44927736   -3.2386878    2812.4543  0.047271317  0.045482159           13 
 4959000   0.45767783   -3.2504699    2809.5736  0.047213377  0.045471324           23 
 4960000    0.4640386    -3.257466    2806.7093  0.047155734  0.045460488           21 
 4961000   0.45464671    -3.249623    2809.0578  0.047185678  0.045449655           21 
 4962000   0.46052525   -3.2504284    2812.2388  0.047229591  0.045438816           12 
 4963000   0.45761139    -3.249887    2814.5926  0.047259598  0.045428002           18 
 4964000   0.46485576   -3.2525414    2814.8504  0.047254405  0.045417189           13 
 4965000   0.46688115   -3.2360211    2815.9951  0.047264101  0.045406362           12 
 4966000   0.46321598    -3.246975    2808.6188  0.047130803  0.045395526           29 
 4967000   0.45757966   -3.2525051    2814.9615  0.047227728   0.04538469           27 
 4968000   0.46693752   -3.2618601    2816.2826  0.047240381  0.045373869           19 
 4969000   0.45892124    -3.244531    2812.6879  0.047170589  0.045363069           12 
 4970000   0.45339559   -3.2435999      2814.67  0.047194333  0.045352274           17 
 4971000   0.45681629   -3.2374546    2802.4532  0.046980038  0.045341466           16 
 4972000    0.4530624   -3.2506511    2804.0241  0.046996918  0.045330623           18 
 4973000   0.44462285   -3.2572414    2807.9466  0.047053197  0.045319752           19 
 4974000   0.44982131   -3.2542966    2813.1151  0.047130329   0.04530892           25 
 4975000   0.46092803   -3.2472225    2813.6121  0.047129181   0.04529808           12 
 4976000   0.45749113   -3.2579104    2806.8539   0.04700653  0.045287207           27 
 4977000   0.46051517   -3.2501543    2808.2901  0.047021132  0.045276364           35 
 4978000   0.45641796   -3.2510887    2811.6416  0.047067792   0.04526557           45 
 4979000   0.44966128   -3.2654075    2811.9082    0.0470628  0.045254769           18 
 4980000   0.45639231   -3.2567733    2814.3222  0.047093744  0.045243974           14 
 4981000   0.45107401    -3.237164    2816.6091   0.04712255  0.045233205           12 
 4982000    0.4543451   -3.2574885    2818.4529  0.047143934  0.045222482            9 
 4983000   0.44434536   -3.2521607    2809.0338  0.046976951  0.045211706           13 
 4984000   0.45866675   -3.2283686    2813.0327  0.047034388  0.045200921           24 
 4985000    0.4526737    -3.263051    2808.2669  0.046945285  0.045190128           17 
 4986000   0.45129812   -3.2661056    2805.3962   0.04688789  0.045179312           37 
 4987000   0.44676082   -3.2459414    2818.4355  0.047096375   0.04516847           28 
 4988000   0.44011368   -3.2662955    2811.7884  0.046975882  0.045157665           30 
 4989000   0.46025679   -3.2548694    2813.6368  0.046997341  0.045146831           30 
 4990000   0.44957246    -3.241796    2803.0037  0.046810349  0.045136028           35 
 4991000   0.44829664   -3.2760665    2815.8454  0.047015384  0.045125221           53 
 4992000    0.4559601   -3.2681025    2815.3801  0.046998199  0.045114474           61 
 4993000   0.46202409   -3.2658554    2811.2129  0.046919235  0.045103711           59 
 4994000   0.45516814   -3.2658296     2816.719   0.04700172   0.04509296           36 
 4995000   0.44524656   -3.2613648    2814.1381  0.046949251  0.045082162           28 
 4996000   0.44747717   -3.2487237    2812.2689  0.046908675  0.045071425           16 
 4997000   0.45234744   -3.2529422    2812.3011  0.046899825  0.045060647           30 
 4998000     0.450438   -3.2596578    2816.5302  0.046960955  0.045049865           61 
 4999000   0.43931135   -3.2474501    2813.3969  0.046899328  0.045039075            9 
 5000000   0.45902907   -3.2567133    2803.3005  0.046721675  0.045028315           37 
 5001000   0.45452365   -3.2610077    2809.1587   0.04680995  0.045017536           29 
 5002000   0.45597685   -3.2657607    2814.7115  0.046893101  0.045006759           65 
 5003000   0.44556457   -3.2713616    2813.1902  0.046858389  0.044995971           26 
 5004000   0.45519914   -3.2598845    2814.3903   0.04686901  0.044985203           14 
 5005000   0.44287579   -3.2640348    2810.1822   0.04678958  0.044974452           25 
 5006000   0.44960728   -3.2350972    2813.2755  0.046831726  0.044963721           10 
 5007000   0.44805638   -3.2469981    2816.0787  0.046869029   0.04495303           13 
 5008000   0.45229108   -3.2706006    2818.3708   0.04689781  0.044942342           32 
 5009000     0.451366   -3.2651472    2808.6463  0.046726663  0.044931608           12 
 5010000   0.44415804   -3.2506981    2814.6085  0.046816509  0.044920877           28 
 5011000   0.44365934   -3.2535747    2812.9137  0.046778982  0.044910165           19 
 5012000   0.45087545   -3.2537001    2809.8123  0.046718081  0.044899437           22 
Loop time of 12026.3 on 48 procs for 5000000 steps with 4000 atoms

Performance: 71842.717 tau/day, 415.756 timesteps/s
99.4% CPU use with 48 MPI tasks x no OpenMP threads

MPI task timing breakdown:
Section |  min time  |  avg time  |  max time  |%varavg| %total
---------------------------------------------------------------
Pair    | 795.48     | 841.64     | 888.25     |  87.0 |  7.00
Neigh   | 80.327     | 83.558     | 86.474     |  18.8 |  0.69
Comm    | 770.6      | 816.52     | 867.47     |  92.7 |  6.79
Output  | 49.159     | 49.165     | 49.242     |   0.2 |  0.41
Modify  | 10115      | 10130      | 10149      |   7.6 | 84.24
Other   |            | 104.9      |            |       |  0.87

Nlocal:        83.3333 ave          91 max          77 min
Histogram: 3 2 9 7 4 11 4 7 0 1
Nghost:        2163.92 ave        2186 max        2144 min
Histogram: 4 4 5 6 5 9 5 6 3 1
Neighs:        14251.4 ave       15454 max       12919 min
Histogram: 3 2 8 6 3 4 6 7 4 5
FullNghs:      28502.3 ave       31146 max       26263 min
Histogram: 3 2 5 11 7 8 4 7 0 1

Total # of neighbors = 1368109
Ave neighs/atom = 342.02725
Neighbor list builds = 271704
Dangerous builds = 0

#clear
#
#next RN
#
#jump SELF
Total wall time: 3:20:29
