
units lj                  # Use reduced LJ style units
atom_style atomic         # Uncharged point particles
atom_modify map hash      # Needed for indexing of clusters etc
                          # Used to be able to find where atoms are in relation to each other.

lattice fcc 1.0 spacing 1 1 1
Lattice spacing in x,y,z = 1.5874011 1.5874011 1.5874011
region box block 0 10 0 10 0 10 units lattice
create_box 2 box
Created orthogonal box = (0.0000000 0.0000000 0.0000000) to (15.874011 15.874011 15.874011)
  3 by 4 by 4 MPI processor grid
create_atoms 1 box
Created 4000 atoms
  using lattice units in orthogonal box = (0.0000000 0.0000000 0.0000000) to (15.874011 15.874011 15.874011)
  create_atoms CPU = 0.002 seconds
set type 1 type/fraction 2 0.86 78393
Setting atom values ...
  3427 settings made for type/fraction
mass 1 1.0
mass 2 1.0
pair_style lj/cut  3.5
pair_modify tail  yes
pair_coeff 1  1  1.0  1.0   # Intearaction between 1 and 1 set with epsilon = 1 and sigma = 1
pair_coeff 1  2  1.5  0.8
pair_coeff 2  2  0.5  0.88

write_data data.0
System init for write_data ...
Neighbor list info ...
  update every 1 steps, delay 10 steps, check yes
  max neighbors/atom: 2000, page size: 100000
  master list distance cutoff = 3.8
  ghost atom cutoff = 3.8
  binsize = 1.9, bins = 9 9 9
  1 neighbor lists, perpetual/occasional/extra = 1 0 0
  (1) pair lj/cut, perpetual
      attributes: half, newton on
      pair build: half/bin/atomonly/newton
      stencil: half/bin/3d
      bin: standard
WARNING: Not all mixed pair coeffs generated from mixing. Use write_data with 'pair ij' option to store all pair coeffs. (../write_data.cpp:312)


#############################
#   M E L T   S Y S T E M   #
#############################

velocity all create 2.4 5833274 mom yes dist gaussian # Assign velocities
                                                    # Temperature 2.4, random number seed, zero linear momentum
                                                                                # Gaussian distribution

timestep 0.002   # simulation timestep
thermo 1000       # output thermodynamic data every 1000 steps bf 100

# Define a fix  in this case with index 1 applied to all
# particles in the simulation. This fix is for simulations
# in the anisotropic NPT ensemble. Note that we use the MTK
# correction.
fix 1 all npt temp 2.4 2.4 0.1 iso 5.68 5.68 0.5 mtk yes tchain 5 pchain 5 # Use NPT ensemble
                                                                         # Set temperature and pressure and damping
                                                                         # Numbers of thermostats in chain and in barostat
run 10000          # run for 10000 steps
Per MPI rank memory allocation (min/avg/max) = 3.642 | 3.644 | 3.648 Mbytes
Step Temp E_pair E_mol TotEng Press Volume 
       0          2.4   -3.3969599            0   0.20214005   -2.8933285         4000 
    1000    2.4011703   -2.5523776            0    1.0484775    5.6345771    3919.0561 
    2000    2.3616259   -2.5466249            0    0.9949283    5.7330789    3915.4836 
    3000    2.3814403   -2.5506367            0    1.0206306    5.6646465     3926.648 
    4000    2.3726979    -2.587877            0   0.97028001    5.6794628    3894.1279 
    5000    2.4267464    -2.552399            0    1.0868106    5.8238727    3911.7728 
    6000    2.4080851    -2.530676            0    1.0805486    5.9359463    3902.1722 
    7000    2.3734689   -2.6036677            0    0.9556457     5.707399     3893.965 
    8000    2.4066125   -2.5629589            0    1.0460574    5.9337356    3883.5057 
    9000    2.4902929    -2.553211            0    1.1812946    5.6776414    3934.4357 
   10000    2.4214378   -2.5414925            0    1.0897562     5.807107    3911.0789 
Loop time of 2.579 on 48 procs for 10000 steps with 4000 atoms

Performance: 670028.132 tau/day, 3877.478 timesteps/s
99.6% CPU use with 48 MPI tasks x no OpenMP threads

MPI task timing breakdown:
Section |  min time  |  avg time  |  max time  |%varavg| %total
---------------------------------------------------------------
Pair    | 1.0945     | 1.1927     | 1.3532     |   4.4 | 46.25
Neigh   | 0.21057    | 0.22183    | 0.24694    |   1.3 |  8.60
Comm    | 0.75551    | 0.89207    | 1.0126     |   6.5 | 34.59
Output  | 0.000252   | 0.00025691 | 0.00032239 |   0.0 |  0.01
Modify  | 0.20273    | 0.25683    | 0.30414    |   6.2 |  9.96
Other   |            | 0.0153     |            |       |  0.59

Nlocal:        83.3333 ave          93 max          75 min
Histogram: 3 6 5 4 8 8 5 4 2 3
Nghost:        1670.33 ave        1708 max        1650 min
Histogram: 4 3 12 9 11 7 1 0 0 1
Neighs:        9766.35 ave       11392 max        8431 min
Histogram: 3 5 7 3 12 5 7 2 2 2

Total # of neighbors = 468785
Ave neighs/atom = 117.19625
Neighbor list builds = 915
Dangerous builds = 256

# Equilibrate just above the melting temperature to avoid step fn in T

fix 1 all npt temp 1.25 1.25 0.1 iso 5.68 5.68 0.5 mtk yes tchain 5 pchain 5
run 2000
Per MPI rank memory allocation (min/avg/max) = 3.643 | 3.645 | 3.649 Mbytes
Step Temp E_pair E_mol TotEng Press Volume 
   10000    2.4214378   -2.5414925            0    1.0897562     5.807107    3911.0789 
   11000    1.2471785   -3.7903624            0   -1.9200623     5.879338    3016.8089 
   12000    1.2280418    -3.813912            0   -1.9723098    5.7138812    3012.1439 
Loop time of 0.631765 on 48 procs for 2000 steps with 4000 atoms

Performance: 547038.504 tau/day, 3165.732 timesteps/s
99.6% CPU use with 48 MPI tasks x no OpenMP threads

MPI task timing breakdown:
Section |  min time  |  avg time  |  max time  |%varavg| %total
---------------------------------------------------------------
Pair    | 0.27665    | 0.30562    | 0.34532    |   2.1 | 48.38
Neigh   | 0.040571   | 0.04315    | 0.047671   |   0.7 |  6.83
Comm    | 0.19351    | 0.23243    | 0.26811    |   2.6 | 36.79
Output  | 5.2772e-05 | 5.4674e-05 | 7.2315e-05 |   0.0 |  0.01
Modify  | 0.039291   | 0.045657   | 0.050942   |   1.6 |  7.23
Other   |            | 0.004852   |            |       |  0.77

Nlocal:        83.3333 ave          91 max          76 min
Histogram: 4 2 4 5 9 5 7 8 3 1
Nghost:        1993.92 ave        2014 max        1973 min
Histogram: 1 2 4 7 9 11 7 2 2 3
Neighs:        12693.2 ave       14288 max       11355 min
Histogram: 5 3 8 6 7 4 3 6 3 3

Total # of neighbors = 609273
Ave neighs/atom = 152.31825
Neighbor list builds = 144
Dangerous builds = 18

#############################
# L I N E A R  Q U E N C H  #
#############################

# Define solid atoms. This closely follows ten Wolde  Ruiz-Montero and Frenkel  Faraday Discuss  1996  104  93-110
# Compute components of the per-atom q6 vector
compute q6 all orientorder/atom degrees 1 6 components 6 nnn NULL cutoff 1.3 # compute the Q6 parameter.
                                                                             # Use all neighbours within 1.3 unit cell.

# get number of connections
compute coord_number all coord/atom orientorder q6 0.5

# An atom is solid if it has 8 or more connections (of a possible 14)
variable is_solid atom c_coord_number>=8
group solid dynamic all var is_solid    # Must be dynamic to update
dynamic group solid defined

# do clustering
compute cluster solid cluster/atom 1.3 # Create a cluster where all atoms within are solid and max 1.3 units from another member

# define chunks one chunk per cluster
compute clus_chunks solid chunk/atom c_cluster nchunk every compress yes  # Says which atoms are in which chunk

# count the size of each chunk
compute size_chunks solid property/chunk clus_chunks count


# Find the maximum entry in the vector of chunk sizes
variable max_n equal max(c_size_chunks)


# Thermo style which includes this variable
# thermo_style custom step temp pe vol v_max_n

thermo ${N}  # Print the thermo information every 100 steps
thermo 1000  

# Reset the npt fix at a lower temperature (below freezing)
fix 1  all npt temp  ${temp} ${temp}  0.1  iso  5.68  5.68  0.5  mtk yes tchain  5  pchain  5
fix 1  all npt temp  0.45 ${temp}  0.1  iso  5.68  5.68  0.5  mtk yes tchain  5  pchain  5
fix 1  all npt temp  0.45 0.45  0.1  iso  5.68  5.68  0.5  mtk yes tchain  5  pchain  5

dump dmp2 all dcd ${N} traj.dcd
dump dmp2 all dcd 1000 traj.dcd


compute msd all msd com yes
variable twopoint equal c_msd[4]/6/(step*dt+1.0e-6)
fix 9 all vector 10 c_msd[4]
variable fit equal slope(f_9)/6/(10*dt)
thermo_style custom step temp pe c_msd[4] v_twopoint v_fit v_max_n

fix 1 all npt temp 1.25 ${temp} 0.1 iso 5.68 5.68 0.5 mtk yes tchain 5 pchain 5
fix 1 all npt temp 1.25 0.45 0.1 iso 5.68 5.68 0.5 mtk yes tchain 5 pchain 5
run 500000 # 5000000  # Run for this many steps
Neighbor list info ...
  update every 1 steps, delay 10 steps, check yes
  max neighbors/atom: 2000, page size: 100000
  master list distance cutoff = 3.8
  ghost atom cutoff = 3.8
  binsize = 1.9, bins = 8 8 8
  4 neighbor lists, perpetual/occasional/extra = 1 3 0
  (1) pair lj/cut, perpetual
      attributes: half, newton on
      pair build: half/bin/atomonly/newton
      stencil: half/bin/3d
      bin: standard
  (2) compute orientorder/atom, occasional
      attributes: full, newton on
      pair build: full/bin/atomonly
      stencil: full/bin/3d
      bin: standard
  (3) compute coord/atom, occasional
      attributes: full, newton on
      pair build: full/bin/atomonly
      stencil: full/bin/3d
      bin: standard
  (4) compute cluster/atom, occasional
      attributes: full, newton on
      pair build: full/bin/atomonly
      stencil: full/bin/3d
      bin: standard
Per MPI rank memory allocation (min/avg/max) = 9.829 | 9.835 | 9.839 Mbytes
Step Temp PotEng c_msd[4] v_twopoint v_fit v_max_n 
   12000    1.2280418    -3.813912 3.9443045e-34 2.7391003e-36 8.3333333e+20            3 
   13000    1.2345786    -3.824426   0.88262949 0.0056578811  0.074455518            2 
   14000    1.2283934   -3.8118704    1.8466609  0.010992029  0.077315359            1 
   15000     1.251863   -3.8238862    2.8162646  0.015645914  0.078494404            3 
   16000    1.2431244   -3.7891703    3.7725321  0.019648604  0.079495085            1 
   17000    1.2460582   -3.8244977    4.7460968  0.023265179  0.079703816            1 
   18000    1.2701784   -3.8451939    5.7176171  0.026470449  0.079776742            2 
   19000     1.233496   -3.8412929     6.712357  0.029440161  0.080071519            2 
   20000    1.2435745   -3.8126346     7.669923  0.031958012  0.080370193            2 
   21000    1.2376722     -3.82134    8.7693873  0.034799155  0.081113275            2 
   22000    1.2250424   -3.8649457      9.84818  0.037303711  0.081671573            4 
   23000    1.2529769   -3.8428373    10.822994  0.039213746  0.082257548            1 
   24000     1.225364   -3.8353138    11.711456  0.040664778  0.082422265            3 
   25000    1.2217631   -3.8467621    12.487998  0.041626658  0.082180607            1 
   26000    1.2111288   -3.8399649    13.604181  0.043603142  0.081844757            3 
   27000    1.1924053   -3.8833161    14.422843  0.044514948   0.08168776            3 
   28000    1.2270157   -3.8551839    15.408205  0.045857752   0.08143335            1 
   29000    1.2391129   -3.8615428    16.241844  0.046671965  0.081090899            2 
   30000    1.1888876   -3.8682524    17.041585  0.047337736  0.080617068            1 
   31000    1.1944749   -3.8665727     18.13305  0.048744756  0.080270277            2 
   32000    1.2162139   -3.8779663    18.939278  0.049321036  0.079865209            3 
   33000     1.231831   -3.8503452    20.048126  0.050626579  0.079732945            4 
   34000    1.2029487   -3.8378602    21.174993  0.051899493  0.079751214            1 
   35000    1.2029997   -3.8569479    22.101758  0.052623232  0.079775124            1 
   36000    1.2098628   -3.8667599     23.13133  0.053544745  0.079908803            2 
   37000    1.2258895   -3.9039248    23.961517  0.053967379  0.079927293            1 
   38000    1.2106549   -3.8897835    24.843395  0.054481128  0.079886781            4 
   39000    1.1766192    -3.889994    25.642458  0.054791576  0.079734909            2 
   40000    1.2191469   -3.8966031    26.287541  0.054765709  0.079541274            1 
   41000    1.1842977   -3.8707878    26.951642   0.05477976  0.079242123            2 
   42000    1.2225273   -3.8531268    27.727664  0.055015206  0.078785898            2 
   43000    1.2025205   -3.8718621    28.654752  0.055532465  0.078365063            2 
   44000    1.2108052    -3.889916    29.709485  0.056267963  0.078065015            1 
   45000    1.1768083   -3.9103207    30.581157  0.056631771  0.077827465            1 
   46000    1.2139586   -3.8645491    31.409342  0.056900982  0.077594521            2 
   47000    1.1750142   -3.8877843    32.103611  0.056921296   0.07735756            2 
   48000    1.1827797   -3.9105191    32.834268  0.057003937  0.077006641            3 
   49000    1.1652612   -3.8736944    33.726258  0.057357581  0.076715858            2 
   50000    1.1976168   -3.9274565    34.562344  0.057603906  0.076451213            1 
   51000    1.1799336   -3.8939846    35.588542  0.058151211  0.076250794            2 
   52000     1.167927    -3.916788    36.387102  0.058312664  0.076071583            1 
   53000    1.1892134   -3.8926799    37.355828  0.058735578   0.07588747            1 
   54000    1.1909116   -3.9264317    38.071695  0.058752615   0.07572832            1 
   55000     1.184098   -3.9510817    39.156165  0.059327522  0.075609572            1 
   56000    1.1596407   -3.9432176    40.080012  0.059642875  0.075505708            2 
   57000    1.1843816   -3.9303842    40.883639  0.059771401  0.075405925            2 
   58000    1.1660238   -3.9317331     41.77907  0.060027399  0.075308954            1 
   59000    1.1579105   -3.9241383    42.561689   0.06011538  0.075196164            1 
   60000    1.2039298   -3.8982466    43.505857  0.060424801   0.07510313            1 
   61000    1.1699297   -3.9318496    44.412592   0.06067294  0.074999061            1 
   62000    1.1591168   -3.9329156    45.005646  0.060491459  0.074872253            3 
   63000    1.1563951   -3.9513627    45.667435   0.06040666  0.074737729            1 
   64000    1.1721594   -3.9194273    46.804923  0.060943909  0.074625156            4 
   65000    1.1544185   -3.9489775     47.63914  0.061075819  0.074520048            4 
   66000    1.1557171   -3.9408324    48.257716   0.06093146  0.074407745            2 
   67000    1.1781266    -3.980674    48.818414   0.06071942  0.074267956            4 
   68000    1.1553387   -3.9582415    49.869418  0.061114482  0.074119859            2 
   69000     1.177028   -3.9529071    50.610692  0.061124024  0.073989076            2 
   70000    1.1686503   -3.9107379    51.350978  0.061132116   0.07386301            2 
   71000    1.1560316   -3.9565907    52.219201  0.061290141   0.07372033            3 
   72000    1.1617124   -3.9435774    53.185849  0.061557695  0.073565341            2 
   73000    1.1551259   -3.9533552    53.564442  0.061146623  0.073405634            3 
   74000     1.160464   -3.9403002    54.356476  0.061212247  0.073235327            2 
   75000    1.1577993   -3.9573882    54.991707  0.061101896  0.073066213            2 
   76000    1.1335765   -3.9534476    55.787722  0.061170747  0.072881332            2 
   77000     1.129501   -3.9667692     56.68805  0.061350703  0.072700438            4 
   78000    1.1197853   -3.9813019    57.088241   0.06099171  0.072515351            1 
   79000     1.150094    -3.997234    57.598843  0.060758273  0.072311344            1 
   80000    1.1589032   -3.9488495    58.598867  0.061040486  0.072107379            2 
   81000    1.1256074    -4.007894    58.696333  0.060387173  0.071895416            3 
   82000    1.1422442   -3.9702252    59.698283  0.060668986  0.071685058            1 
   83000    1.1308631   -3.9706073    60.505798  0.060748793  0.071469012            2 
   84000      1.14725   -3.9868832    61.063169  0.060578541  0.071268848            2 
   85000     1.131557   -3.9895107    62.455254   0.06123064  0.071094054            5 
   86000    1.1517918   -4.0151622    63.254752  0.061293364  0.070946683            3 
   87000    1.1298119   -3.9696474    63.897453  0.061204456  0.070798311            2 
   88000    1.1709615   -4.0040672    64.608441  0.061182236  0.070660079            1 
   89000    1.1395052    -4.003447    65.625311   0.06144692  0.070523736            5 
   90000    1.1213333   -4.0468452    65.962598  0.061076479  0.070392672            4 
   91000    1.1184924   -3.9579606    67.182742  0.061522657  0.070275941            6 
   92000    1.0999765   -4.0019677    68.046319  0.061636158  0.070175764            5 
   93000    1.1435435   -3.9890168    68.703123  0.061561938  0.070080242            2 
   94000    1.0973729   -3.9886106    69.355499  0.061485371  0.069963571            2 
   95000     1.098389    -4.016977    69.436462  0.060909177  0.069826339            4 
   96000    1.1083046   -4.0175698    70.654425  0.061331966  0.069701311            1 
   97000    1.1334815   -4.0362678    71.527736  0.061449945  0.069583092            5 
   98000    1.1134137   -4.0492766    72.236373  0.061425487  0.069466399            2 
   99000    1.1183125   -4.0122982    72.890358   0.06135552  0.069350651            3 
  100000    1.1177194   -4.0326605    73.557222  0.061297685  0.069222452            2 
  101000     1.119828   -4.0280744    74.604668  0.061555006  0.069109723            2 
  102000     1.113844   -4.0347498    75.146292  0.061394029  0.069012469            4 
  103000     1.114773   -4.0197181    76.050909  0.061529861  0.068914469            1 
  104000    1.0832254   -4.0374939    76.679276  0.061441727  0.068807652            3 
  105000    1.1147964    -4.019373    77.107926  0.061196766  0.068701118            2 
  106000    1.1145167   -4.0356999    77.895581  0.061238664  0.068583048            2 
  107000    1.0817219   -4.0675493    78.321637   0.06099816  0.068457105            2 
  108000    1.0821181    -4.001586    79.064521  0.061006574  0.068342447            2 
  109000    1.0801573   -4.0500977    79.859554  0.061054704  0.068217832            2 
  110000    1.0986975   -4.0771174    80.392776  0.060903618   0.06809539            2 
  111000    1.0953345   -4.0404671    81.506202  0.061190842  0.067975616            1 
  112000    1.0928905   -4.0527608    81.946683  0.060972234  0.067854294            3 
  113000     1.062816   -4.0757501    82.589643  0.060906816  0.067730966            4 
  114000    1.0952426   -4.0442266    83.210955  0.060826721  0.067616734            5 
  115000    1.0925248   -4.0531914    83.567498  0.060556158   0.06749448            2 
  116000    1.1011479   -4.0571876    84.025543  0.060363177    0.0673642            1 
  117000    1.0962475   -4.0889252    84.803242   0.06040117  0.067232732            2 
  118000    1.0529965   -4.0870661    85.690232    0.0605157  0.067108559            2 
  119000    1.0885867   -4.1101335    86.106003  0.060298321  0.066978389            3 
  120000    1.0854326    -4.044403    86.954094  0.060384787   0.06684135            2 
  121000     1.066653   -4.0613808    87.250535    0.0600899  0.066704195            3 
  122000    1.0757844   -4.1129304    87.952389  0.060076768  0.066561146            2 
  123000    1.0844583   -4.0854144    88.433709  0.059914437  0.066426032            4 
  124000    1.0898599   -4.1029962    88.949845  0.059778121   0.06629549            2 
  125000    1.0609439   -4.0934948    89.738516  0.059825677  0.066152656            3 
  126000    1.0394442   -4.1346875     89.92521  0.059474345  0.066009592            2 
  127000    1.0948375   -4.1070741    90.857056   0.05961749  0.065879926            2 
  128000    1.0630251    -4.085832    91.995841  0.059893126  0.065743222            2 
  129000     1.056682   -4.1013237    92.072502  0.059478361  0.065614599            3 
  130000    1.0578599   -4.1175384    92.868792  0.059531277  0.065484896            1 
  131000      1.05237   -4.1322552    93.540236  0.059503967  0.065352133            3 
  132000    1.0514669   -4.1190833    94.620531  0.059735183  0.065234895            7 
  133000    1.0431351   -4.1045907    95.478823  0.059823824  0.065122883            2 
  134000     1.046494   -4.1022393    95.654281  0.059486493  0.065004816            4 
  135000    1.0632883   -4.1252879    96.654955  0.059663552  0.064892916            2 
  136000    1.0719056   -4.1405502    96.828051  0.059330914  0.064778358            3 
  137000    1.0398932   -4.1230849    97.745229  0.059455735  0.064670358            3 
  138000    1.0505689   -4.1039935    98.638292  0.059564186  0.064565369            2 
  139000    1.0245081   -4.1153461    98.824967  0.059247582  0.064453411            2 
  140000    1.0808513   -4.1300897    100.02721  0.059540003  0.064342949            5 
  141000    1.0339585    -4.136175    99.887356   0.05903508  0.064224693            3 
  142000    1.0565399   -4.1291514    100.20789  0.058807447  0.064100472            4 
  143000    1.0591467   -4.1654596    100.62351  0.058638409  0.063979356            1 
  144000    1.0506215   -4.1430464    101.83755  0.058933766  0.063859966            2 
  145000    1.0596568   -4.1660929    102.40663  0.058854385  0.063746329            6 
  146000    1.0415612   -4.1627906    102.65053  0.058590483   0.06363044            6 
  147000    1.0474866   -4.1679758    103.25446  0.058534275  0.063510548            2 
  148000    1.0324486   -4.1536222    103.61927  0.058344186  0.063392183            4 
  149000     1.008498   -4.2027103    104.67604  0.058543648  0.063273067            4 
  150000    1.0254873   -4.1542521    105.07297  0.058373871  0.063151509            3 
  151000    1.0406492   -4.1680064    105.74458  0.058357938  0.063027016            2 
  152000    1.0235614   -4.1500968    106.03131  0.058131199  0.062905099            4 
  153000    1.0227473   -4.1744083    106.67634  0.058102581  0.062785739            2 
  154000     1.018831   -4.1493225    107.41603  0.058125557  0.062670484            2 
  155000    1.0242113   -4.1513564    107.79142  0.057952376   0.06255126            3 
  156000    1.0318645   -4.1803101    108.13337  0.057763553  0.062429844            3 
  157000    1.0211435   -4.1506456    108.40165   0.05753803  0.062298706           10 
  158000    1.0158024    -4.173615    109.32892  0.057662932  0.062173555            2 
  159000   0.99047922   -4.1793898    109.74461  0.057518138  0.062047287            3 
  160000     1.011192   -4.2205357    109.87305  0.057225547  0.061922993            3 
  161000    1.0069859   -4.1806594    110.77074  0.057334754  0.061799888            4 
  162000   0.99777663   -4.2047985    111.19749  0.057200357  0.061671905            2 
  163000   0.99773336   -4.1952632    111.84594  0.057180953   0.06154523            3 
  164000   0.97410058   -4.2200083    112.55517  0.057192668  0.061417105            3 
  165000   0.99865183   -4.2053178    112.66877  0.056903417  0.061294276            2 
  166000    1.0065826   -4.1863151    113.00054  0.056727176  0.061170339            7 
  167000    0.9920091   -4.2024368    113.91683  0.056844728  0.061048613            2 
  168000    1.0100517   -4.1954761    114.23345  0.056663415  0.060924233            7 
  169000   0.99880419   -4.2088872    115.02976  0.056720791  0.060806886            5 
  170000    1.0007355   -4.2246732    115.24126  0.056490816  0.060688694            6 
  171000   0.99634863   -4.2163225    116.31607  0.056684246  0.060565126            3 
  172000   0.98348012    -4.226801    116.79891  0.056588617  0.060443809            2 
  173000   0.99403222   -4.2103291    117.00583  0.056361187  0.060323832            2 
  174000    1.0013056   -4.2058939    117.47918  0.056263973  0.060196679            3 
  175000    1.0130381   -4.2510044    117.46981  0.055938003  0.060070833            4 
  176000     1.010465   -4.2288552    117.73797  0.055747145  0.059944837            2 
  177000   0.97109343   -4.2226401    118.11222  0.055608387  0.059817306            2 
  178000   0.99235293   -4.2131473    119.06326  0.055741228  0.059695063            6 
  179000   0.96440325     -4.22793      119.504  0.055635011     0.059569            4 
  180000   0.97170433   -4.2382029    119.86513  0.055493114  0.059443777            4 
  181000   0.97664144   -4.2106617    120.30661  0.055389785  0.059315727            3 
  182000    0.9729071     -4.25077    120.72815  0.055278458  0.059184832            5 
  183000   0.97198424   -4.2560495    121.00181  0.055101004  0.059056638            4 
  184000   0.95613998   -4.2598619    121.88885  0.055203283  0.058931102            3 
  185000   0.96594986   -4.2264068    122.25871  0.055071491  0.058803003            5 
  186000   0.98743286   -4.2771415    122.20992  0.054753547  0.058671706            2 
  187000   0.95541189   -4.2351278    123.15008  0.054879713  0.058542789            3 
  188000    0.9698208   -4.2467751    123.43176  0.054712661  0.058418975            4 
  189000   0.96770516   -4.2469597    124.48137  0.054885967  0.058295103            3 
  190000   0.96369824   -4.2521108    124.51731  0.054612857  0.058170713            3 
  191000   0.97326922   -4.2537289    125.35004  0.054690242  0.058049191            3 
  192000    0.9437537   -4.2816639     125.3313  0.054397264  0.057928421            2 
  193000   0.94120401   -4.2870483    125.65471  0.054255055  0.057802506            3 
  194000    0.9663125   -4.2838552    125.93858  0.054097329  0.057679281            6 
  195000   0.96451324   -4.2868464    127.10401  0.054317952  0.057559922            2 
  196000   0.96281403   -4.2868769    127.42943  0.054179179  0.057441432            3 
  197000   0.95401212   -4.3141494    128.01498  0.054151854  0.057322539            5 
  198000   0.96104653   -4.2972236    128.02877  0.053884163   0.05720226            4 
  199000   0.95619983   -4.2985798    128.20272   0.05368623  0.057078075            3 
  200000   0.92987616   -4.2618655    129.04173  0.053767387  0.056954592           11 
  201000   0.93637452   -4.3104621    129.16537  0.053551147  0.056830303            4 
  202000   0.94200249   -4.2788801    129.65066  0.053486245  0.056705183            4 
  203000   0.95102343   -4.3105032     129.8915  0.053321633   0.05657946            3 
  204000   0.93412795   -4.3163755    130.78697  0.053426049  0.056456693            3 
  205000   0.94849163   -4.2991949    131.06818   0.05327975  0.056334589            4 
  206000   0.94122797   -4.3123196    131.75456  0.053298772  0.056216988            4 
  207000    0.9534042   -4.2966738    131.86038  0.053083891  0.056100469            2 
  208000   0.95105192   -4.3239503    132.51944  0.053092724  0.055981648            3 
  209000   0.93061901   -4.3356422    133.31573  0.053156192  0.055866072            3 
  210000   0.95385851   -4.3065341     133.8373  0.053110039  0.055752904            4 
  211000   0.94444852   -4.3415996    134.09554  0.052960325  0.055640962            5 
  212000   0.92557009   -4.2996587    134.47426  0.052859378    0.0555293            4 
  213000   0.92477272   -4.3185934     134.4958  0.052619639  0.055416984            2 
  214000   0.91518197    -4.354926    135.40147  0.052726428  0.055306286            4 
  215000   0.93770354   -4.3425191    135.75019  0.052616354  0.055197635            7 
  216000   0.92806864   -4.3279315    136.44485   0.05264076  0.055089414            4 
  217000   0.91390048    -4.352056     136.9618  0.052596697   0.05498427            3 
  218000   0.91256273   -4.3572157    137.62577  0.052609241  0.054881173            2 
  219000   0.92466468   -4.3245674    138.42065  0.052671479  0.054779662            7 
  220000   0.90897777   -4.3411507    138.62014  0.052507629  0.054677214            3 
  221000   0.91682153   -4.3308795    138.28975  0.052145456  0.054571591            4 
  222000   0.93063666   -4.3611486    139.28616  0.052284595  0.054467933            3 
  223000   0.91386365   -4.3639088    139.79125  0.052238881  0.054366111            3 
  224000   0.92599298   -4.3913926    139.63711  0.051948331  0.054263629            4 
  225000    0.9143375   -4.3644848    140.87288  0.052175139  0.054163009            2 
  226000   0.91695249   -4.3989458    140.45763   0.05179116   0.05406387            4 
  227000   0.90135381   -4.3888966    140.66101   0.05163767   0.05396206            2 
  228000   0.89610467    -4.373376    141.52158  0.051725722  0.053861172            4 
  229000   0.90889792     -4.35422    142.62134  0.051900053  0.053761886            4 
  230000   0.91424408   -4.3648009    142.83483  0.051751749  0.053663203            8 
  231000   0.89289947   -4.3696024       143.27  0.051684705  0.053568388            5 
  232000   0.89061918   -4.3651604    143.60446   0.05158206  0.053472663            5 
  233000   0.89861045   -4.3997118    144.00677  0.051504568  0.053375355            3 
  234000   0.89069601   -4.4121711     144.1868  0.051348575  0.053277455            4 
  235000   0.89595666   -4.4023871    144.37603  0.051197173  0.053178052            6 
  236000    0.8933026   -4.3781422    145.10831  0.051238809  0.053075937            3 
  237000   0.89771353   -4.3776041    145.43177  0.051136346  0.052975158            4 
  238000   0.87996379   -4.4247492    144.96089  0.050756614  0.052873889            8 
  239000    0.9054763   -4.4120899    146.05433  0.050925498  0.052771523            3 
  240000   0.88200071     -4.45359    145.66427  0.050577872  0.052671025            9 
  241000   0.87173383   -4.4021646    146.61913  0.050698179  0.052571461            4 
  242000   0.87013875    -4.365853    147.21532  0.050693979  0.052471957            4 
  243000   0.88405967   -4.3780594    147.55734  0.050602654  0.052372992            2 
  244000   0.88550643   -4.4098706    147.67116  0.050434139  0.052272701            6 
  245000   0.86601679     -4.40756    147.67243  0.050228719  0.052171212            5 
  246000   0.87145046   -4.4190522    148.39539  0.050269441  0.052069379            4 
  247000   0.86225371   -4.3902662    149.19725  0.050336454  0.051969034            3 
  248000   0.86179138   -4.3784036    149.65079  0.050285885  0.051868521            5 
  249000   0.87009007   -4.4245815    150.09181   0.05023153  0.051771158            3 
  250000   0.85980365   -4.4289978    149.91046  0.049970152   0.05167354            3 
  251000   0.87083303   -4.4440932    150.55594  0.049985373  0.051575767            9 
  252000   0.86237967   -4.4452429    150.63608  0.049813518  0.051478414            1 
  253000   0.86178355   -4.4560054    150.75485  0.049655747  0.051379538            5 
  254000   0.85705755   -4.4433948    151.61674  0.049743025  0.051282297            7 
  255000   0.85573171   -4.4297893     151.7839  0.049602583  0.051186337            4 
  256000   0.84712208   -4.4612205    152.44816  0.049625052  0.051086949           14 
  257000   0.85176391   -4.4360871    152.19702  0.049350524  0.050988842            2 
  258000   0.85162507   -4.4682021    152.31483  0.049197295  0.050888533            7 
  259000   0.85526186   -4.4528759     152.3801  0.049028347  0.050787206            6 
  260000   0.86032688   -4.4519955    152.86835  0.048996265  0.050685549            5 
  261000     0.858472   -4.4670938    152.99927  0.048850341  0.050581875            6 
  262000   0.84750692   -4.4624972    153.20112   0.04872809  0.050478523            5 
  263000   0.83988603   -4.4844473    153.85012  0.048748453  0.050376624            5 
  264000   0.84051301   -4.4937343     154.8162  0.048868748  0.050277724            4 
  265000   0.85690762   -4.4781984     154.8478  0.048694278  0.050178013            4 
  266000   0.83290279   -4.4790573     154.7188  0.048470802  0.050078717            5 
  267000   0.83469007   -4.4933076    155.42861  0.048510801  0.049980724            4 
  268000   0.84884035   -4.4709576    155.49777  0.048351295  0.049882881            3 
  269000   0.84679959   -4.4801214    155.80815  0.048267704  0.049784409            7 
  270000    0.8374888   -4.4908724    156.01723  0.048153466   0.04968358            5 
  271000   0.83901413   -4.4809872    155.90491  0.047941238  0.049583448            4 
  272000   0.82937229   -4.4801725    156.66359  0.047997424  0.049482484            5 
  273000   0.83453307   -4.5098723    156.95154  0.047909504  0.049384238            4 
  274000   0.82797595   -4.4851948    157.51956  0.047907407  0.049284693            5 
  275000   0.82217593   -4.5139767    157.07258  0.047597751   0.04918677            4 
  276000   0.83579329   -4.5404675    157.82264  0.047651763   0.04908859            8 
  277000   0.83605506   -4.5220099     158.5664  0.047703488  0.048991526            4 
  278000   0.82261598   -4.5678876    157.63761  0.047253481  0.048893436            4 
  279000   0.80269718   -4.5630213    157.88377  0.047157636  0.048793196            6 
  280000   0.82635661   -4.5203715    158.81333  0.047265871  0.048692397            3 
  281000    0.8297934   -4.5143135    159.26317   0.04723107  0.048593021            2 
  282000   0.81834471   -4.5374796    159.01709  0.046990866  0.048493561            7 
  283000   0.80658669   -4.5352266    160.04533    0.0471276  0.048394801            9 
  284000   0.81989183   -4.5167441    160.35214  0.047051684  0.048296507            4 
  285000   0.80194617   -4.5385817    160.40795  0.046902909  0.048197635           14 
  286000   0.82112497   -4.5367219    160.50024  0.046765804  0.048098295            5 
  287000   0.79327088   -4.5435181    160.69099  0.046658243  0.047997724            4 
  288000   0.80700793   -4.5374419    161.35817  0.046689286  0.047898166            6 
  289000   0.80727669   -4.5367971    161.26585  0.046501109    0.0477982            7 
  290000   0.81776401   -4.5520706    161.67835  0.046459295  0.047699693            6 
  291000   0.78167558   -4.5840178    161.55914  0.046265503  0.047600419            5 
  292000   0.79488615   -4.5723226    161.44247  0.046073765  0.047501243            6 
  293000   0.80098568   -4.5769141    161.84536  0.046031102  0.047401734            6 
  294000   0.80077751   -4.6012448    162.08106  0.045941344  0.047301925            6 
  295000   0.81274614   -4.5770051    162.31816  0.045852588  0.047203012            4 
  296000   0.78564416   -4.5681233     162.5323  0.045757968  0.047103172            9 
  297000    0.7837666   -4.5908635    162.68481  0.045646691  0.047003837            6 
  298000    0.7944034   -4.5572653    163.23999  0.045648768  0.046903345            4 
  299000   0.76660147   -4.5608474    163.10879  0.045459529  0.046802672            9 
  300000   0.78563224   -4.5972192    163.29984  0.045361068  0.046701082            3 
  301000   0.80297151   -4.5982717     163.3241  0.045217081  0.046599415            5 
  302000   0.77639028   -4.6036611    163.96785  0.045244992  0.046497607            4 
  303000   0.79485537   -4.6126431    164.29392  0.045185346  0.046396807            6 
  304000   0.77296304   -4.6029868     164.2704  0.045030263  0.046296578            4 
  305000   0.77152972   -4.6051166    165.57314  0.045238563  0.046197546            9 
  306000   0.77059994   -4.6012804    165.17189  0.044981453  0.046098397            5 
  307000   0.78120958   -4.5671604    166.01239   0.04506308  0.046002016            3 
  308000   0.77062896   -4.6309689    165.60395  0.044806264  0.045905429            7 
  309000   0.76918625   -4.6012612    166.56204  0.044919644  0.045808388            9 
  310000   0.76807543   -4.6150392    166.19076  0.044674934  0.045712288            5 
  311000   0.77556403   -4.5895445    166.75753  0.044683154  0.045615517            4 
  312000   0.77424749   -4.6179231    166.82745  0.044558613  0.045520774            6 
  313000   0.74905879   -4.6241251    167.08603    0.0444851  0.045424606            3 
  314000   0.77143708   -4.6279192    167.42265  0.044432763  0.045329541            7 
  315000   0.77585512   -4.6273131    167.83357  0.044400415  0.045235298            8 
  316000   0.78108956   -4.6425862    167.34681  0.044131541  0.045139392            5 
  317000   0.76147839   -4.6066346     167.9571   0.04415276  0.045044372            4 
  318000   0.76861097   -4.6066737    168.33023  0.044111695  0.044951612            6 
  319000   0.78565163   -4.6271028     168.4466  0.044003813  0.044859298            4 
  320000   0.74064294    -4.652238     168.8127   0.04396164  0.044765172            4 
  321000    0.7690893   -4.6578279    169.21051  0.043927963  0.044672725            7 
  322000   0.76821684     -4.65007    169.64833  0.043904848  0.044581253            4 
  323000    0.7746729   -4.6479537    169.51492    0.0437345  0.044489707           10 
  324000   0.74344225   -4.6647361    169.43071  0.043577857  0.044397931            4 
  325000   0.75153828   -4.6501643     170.2067  0.043642743  0.044304654           12 
  326000   0.76000062   -4.6305966    170.36811  0.043550131   0.04421166            7 
  327000   0.74799473   -4.6486617    170.54017  0.043460796  0.044120026            3 
  328000   0.74059636   -4.6782468    170.19943  0.043241725  0.044027323            8 
  329000   0.73814351   -4.7007394    170.53694   0.04319578  0.043935096            6 
  330000   0.75083562   -4.6895986    171.08564  0.043203445  0.043843989           10 
  331000   0.72736826   -4.6599579    171.47454   0.04317083  0.043752221            7 
  332000   0.74285236   -4.6948313    171.48935  0.043044515  0.043660823           15 
  333000   0.74235515   -4.7373166    170.76463   0.04273389   0.04356962           26 
  334000   0.73766292   -4.6991123    171.93843  0.042898809  0.043478032            7 
  335000    0.7358941   -4.6991823    171.32261  0.042617564  0.043385973            5 
  336000   0.73923894    -4.700981    172.16747  0.042700266  0.043294005            5 
  337000   0.71925851   -4.7049294    172.75604    0.0427191  0.043202369            9 
  338000   0.73450745   -4.6868185    172.23131   0.04246334  0.043111787            5 
  339000   0.71421367   -4.7182728    172.52236  0.042409626  0.043021151           14 
  340000   0.71902372   -4.7068172    172.97463  0.042395743  0.042930722            5 
  341000   0.72828361   -4.7108277    172.75528   0.04221781  0.042840029            5 
  342000   0.75265327   -4.7280809    172.72557  0.042087128  0.042748389           14 
  343000   0.72576764   -4.6953934    173.02889  0.042038117  0.042657291            5 
  344000   0.73326774   -4.7093364    173.22691  0.041963884  0.042565927            7 
  345000   0.71351272   -4.6901118    173.39187  0.041882094  0.042474526            5 
  346000   0.71243508   -4.7090849    173.57213  0.041804463  0.042382571            9 
  347000   0.71210148   -4.7311948    173.47036  0.041659548   0.04229026            9 
  348000   0.70915306   -4.7561317    173.68819     0.041592  0.042199144            7 
  349000   0.71074632   -4.7116157    174.73413  0.041722573  0.042108431           10 
  350000    0.7023864   -4.7239032    174.36046  0.041514396  0.042018833            6 
  351000   0.69587116   -4.7602287    174.73538  0.041485133  0.041929487            4 
  352000   0.69844334   -4.7430312    174.97457  0.041423904  0.041839856           10 
  353000   0.70159163   -4.7187403    175.77747  0.041496098   0.04175084            5 
  354000   0.71893801   -4.7602956    175.42604  0.041296149  0.041662648           10 
  355000   0.71155367   -4.7486642    175.72706  0.041250483  0.041573532           13 
  356000    0.7251429   -4.7667369    175.55052  0.041093287  0.041483975            3 
  357000   0.69597747   -4.7852348    175.39814   0.04094261  0.041395201            7 
  358000   0.69605797   -4.7886232    175.65607  0.040888284  0.041306899           12 
  359000   0.69692724   -4.7690102    176.10236  0.040877986  0.041217868            6 
  360000   0.70403646   -4.7884203    176.20695  0.040788647  0.041128893           10 
  361000   0.69831612     -4.75509    175.95973  0.040618589  0.041039991            6 
  362000   0.68558646   -4.7958671    176.55837  0.040644193  0.040950855            7 
  363000   0.69778718   -4.7645668    177.03798  0.040642327  0.040862347            6 
  364000   0.69220059   -4.7567529    177.25414  0.040580161  0.040774757            8 
  365000    0.6904468   -4.7817954    177.02001  0.040415526   0.04068841            9 
  366000   0.68868341   -4.7965781    177.19927  0.040345917  0.040601893           12 
  367000   0.67372974    -4.805254    177.49474  0.040303073  0.040515495            6 
  368000   0.67498962    -4.785409    177.25489  0.040139242  0.040429199            8 
  369000   0.69015593   -4.8199371    177.42094  0.040067964  0.040342347            4 
  370000   0.68121162   -4.8104517    177.48535  0.039974177  0.040255434            4 
  371000   0.68109802   -4.8116519     178.0406  0.039991149  0.040169106            8 
  372000    0.6760751   -4.8180604    177.70549  0.039808579  0.040082922           13 
  373000   0.66468859   -4.8036761    178.38729  0.039854175  0.039996973           14 
  374000   0.67772794   -4.8144912    178.28612  0.039725072  0.039910902           15 
  375000   0.67780663   -4.8040735    178.76473  0.039725496  0.039825389            6 
  376000    0.6684638   -4.8199104    178.68171  0.039601443  0.039740643           10 
  377000   0.66130668   -4.8425131    178.44776  0.039444685  0.039655156           11 
  378000   0.65835001   -4.8540512    178.58412  0.039370398  0.039568867            6 
  379000   0.65797365   -4.8288683    178.86124  0.039327449  0.039483277            9 
  380000   0.67015047   -4.8345626    179.13499  0.039283989  0.039397729            5 
  381000    0.6636716   -4.8223712    179.31622  0.039220521  0.039311704           13 
  382000   0.65971152   -4.8423305    179.34247  0.039123575  0.039225921            7 
  383000   0.65033848   -4.8313355    179.63595  0.039085281  0.039140635            8 
  384000   0.64407505   -4.8391582     179.2836  0.038907031  0.039055645            7 
  385000   0.63601188   -4.8596702    179.92375  0.038944536  0.038970634            6 
  386000    0.6445793   -4.8679712    179.87672  0.038833489  0.038885587            4 
  387000   0.65206781     -4.84394    179.94618  0.038748102  0.038800106            8 
  388000   0.64776395   -4.8377111    179.85885  0.038629479  0.038715317           15 
  389000   0.64160646   -4.8626774    180.04496  0.038570044   0.03863176            9 
  390000   0.64303059   -4.8696438    180.19642  0.038503509  0.038548056            5 
  391000   0.64761666   -4.8714557    180.11316   0.03838729  0.038463374            7 
  392000   0.65071418   -4.8602708    180.34259  0.038338135  0.038378027            5 
  393000   0.64368007   -4.8903319    180.12615  0.038194689  0.038293094            8 
  394000     0.641082     -4.89602    180.76582  0.038233041  0.038208913           13 
  395000   0.63295912   -4.8902317    180.98958  0.038183456   0.03812452           17 
  396000   0.63716885   -4.8747918    180.77759  0.038042422   0.03803991           12 
  397000   0.63980516   -4.9052592    181.24299  0.038044289  0.037955296           14 
  398000   0.64518687   -4.8923436    180.84159  0.037864655  0.037870439            6 
  399000   0.63300975   -4.8881826     181.2388  0.037852715   0.03778588           14 
  400000   0.61644465   -4.8922336    181.10581  0.037730376  0.037701721           12 
  401000   0.62176673   -4.9059613    181.18855  0.037653481   0.03761732            8 
  402000   0.61950457   -4.9232209     181.0195  0.037524772  0.037533149           19 
  403000     0.616609   -4.9210081    180.81333  0.037389026  0.037449111           10 
  404000   0.63373925    -4.911912    181.45997  0.037429862  0.037365617           19 
  405000   0.63148567     -4.90273    181.77592  0.037402453   0.03728209            8 
  406000   0.61548388   -4.9446699    181.09348  0.037170254  0.037197432            9 
  407000   0.60920082   -4.9284279    181.77403  0.037218269  0.037112592            7 
  408000   0.61992889   -4.9279238    181.33995  0.037038388   0.03702794           12 
  409000   0.60581896   -4.9776922    180.97464  0.036873398  0.036943026           21 
  410000   0.62170447   -4.9309183    181.18933    0.0368271   0.03685789           18 
  411000   0.61648009   -4.9322691    181.32117  0.036764227  0.036772469            8 
  412000   0.60065414   -4.9477593    181.30189  0.036671094  0.036687288            7 
  413000   0.59867245   -4.9438645    181.09383  0.036540321  0.036602399           16 
  414000   0.60235375   -4.9678098    181.23024  0.036479516  0.036517602            7 
  415000   0.60557397    -4.947314    181.89581  0.036525264  0.036432407            9 
  416000   0.60648391   -4.9524538    181.56978  0.036372152  0.036347479            6 
  417000   0.59748955   -4.9671897    181.59164  0.036289297  0.036262995           26 
  418000   0.58765359   -4.9401484     182.2338  0.036330503  0.036178878           28 
  419000   0.60947453    -4.970087    181.47048  0.036091981  0.036094648           11 
  420000   0.60281952   -4.9868294    181.37972  0.035988039  0.036009789           12 
  421000   0.59070041   -4.9819702    181.51428  0.035929193  0.035924625           10 
  422000   0.58948234   -4.9903551    181.58065  0.035857159  0.035840118           21 
  423000   0.58194032    -4.969465    182.37177  0.035928244  0.035755907            9 
  424000   0.58682137   -5.0043025    181.64397  0.035700466   0.03567148           12 
  425000   0.59775842   -4.9700071    181.71142   0.03562969  0.035587142           12 
  426000   0.58617608   -4.9863842    182.14797  0.035631449  0.035502791           14 
  427000   0.59310505   -5.0121146    181.68001  0.035456677  0.035418472            5 
  428000   0.58932968   -4.9891808    182.21122  0.035477263  0.035334152            7 
  429000   0.58700054    -5.002522    181.61133  0.035278036  0.035249901           25 
  430000   0.57803336   -5.0152113    181.85551  0.035243316  0.035165329           13 
  431000    0.5781559   -5.0117598    181.68825  0.035129205  0.035080862            4 
  432000   0.58026126   -4.9900038    181.97809  0.035103799  0.034996546           12 
  433000   0.58083146   -5.0305322    181.77478  0.034983599  0.034911839            9 
  434000   0.56988808   -5.0373847    182.24333   0.03499296  0.034827505           15 
  435000   0.57851635   -5.0047253    181.94258  0.034854901  0.034743206           22 
  436000   0.55480593   -5.0226732    182.09467  0.034804027  0.034659447           12 
  437000   0.56653686   -5.0342172    181.93878  0.034694656  0.034575029           14 
  438000   0.57763378   -5.0116494    181.99653  0.034626432  0.034490742           36 
  439000   0.56261741   -5.0489092    181.53377  0.034459713  0.034406373           16 
  440000   0.55427194   -5.0359744    181.65169  0.034403729  0.034322296           12 
  441000   0.56773662   -5.0481827    182.01065  0.034393547  0.034238656           21 
  442000   0.55358114   -5.0610005    181.80873  0.034277664  0.034154881           39 
  443000   0.55760044   -5.0613366    181.86301  0.034210499  0.034071144           30 
  444000   0.55416154   -5.0653071    181.54231  0.034073256   0.03398742           21 
  445000   0.55557067   -5.0701385    181.57656    0.0340031  0.033903482           21 
  446000   0.54641055   -5.0680319    182.08174  0.034021251  0.033820025           16 
  447000    0.5557631   -5.0621068    181.91873  0.033914753  0.033737004           18 
  448000   0.54195722   -5.0797308    181.86102  0.033828315  0.033654045           12 
  449000   0.53373405   -5.0632569    182.61527   0.03389296  0.033571452           15 
  450000   0.54115223   -5.0682414    182.36304  0.033770934  0.033489634           20 
  451000   0.53798244   -5.0719269    182.42663  0.033707802  0.033407839           14 
  452000   0.54301958   -5.0760683    182.33872   0.03361702   0.03332613           21 
  453000   0.53690484   -5.0766717     182.3929  0.033552777  0.033244345           28 
  454000   0.54937423   -5.0861588    182.59165  0.033515354  0.033162613           16 
  455000   0.53315179   -5.1128068    182.37266  0.033401587  0.033081015           43 
  456000   0.53406797   -5.0922043    182.43307  0.033339377  0.032999577           38 
  457000   0.54428618    -5.094572    182.40595  0.033261479  0.032918553           10 
  458000   0.52861379   -5.1102024    182.48264   0.03320281  0.032837588           19 
  459000   0.53816741   -5.0900029    182.64786  0.033160468  0.032756846           29 
  460000   0.54274305   -5.1352647    182.72445  0.033102256  0.032676696           18 
  461000   0.53779424    -5.087819    182.89875  0.033061958  0.032596933            9 
  462000   0.52940158   -5.1244884     182.6435  0.032944355  0.032516962           20 
  463000   0.52497972   -5.1151781    182.61884  0.032868761  0.032436741           10 
  464000   0.53774673   -5.1174126    182.65942  0.032805212  0.032356756           25 
  465000   0.53133134   -5.1222236    182.99421  0.032794661  0.032276637           13 
  466000    0.5198974   -5.1194249    182.62773  0.032658749  0.032196728           18 
  467000    0.5247558   -5.1297797     182.3643  0.032541809  0.032116535           30 
  468000   0.52016677   -5.1236468    182.70183  0.032532377  0.032036484           15 
  469000   0.52836816   -5.1383954    182.46937  0.032421708  0.031956664            6 
  470000   0.52155224    -5.148374    182.51671  0.032361119  0.031876968           47 
  471000   0.52574559   -5.1413561    182.37248  0.032266893  0.031797292           35 
  472000   0.50916772   -5.1585854    182.51611   0.03222389   0.03171773           25 
  473000   0.53236714   -5.1534624    182.41236  0.032137484  0.031638358           21 
  474000   0.50642635   -5.1669899    182.15795  0.032024956  0.031559176           23 
  475000   0.50700658   -5.1502719    182.47485  0.032013132  0.031480167           19 
  476000   0.52479079    -5.172332    182.76248  0.031996232   0.03140117           24 
  477000   0.50815601     -5.16088    182.74082   0.03192537  0.031322186           50 
  478000    0.5059006   -5.1733374    182.30609  0.031782791  0.031243315           11 
  479000    0.4980207   -5.1671038      182.579  0.031763918  0.031164671           18 
  480000   0.49232719   -5.1915058    182.42975  0.031671831   0.03108612           14 
  481000   0.50388183   -5.1756039    182.05185  0.031540515  0.031007863           26 
  482000   0.50931106   -5.1903423    182.35626  0.031527707  0.030929407           15 
  483000    0.5017467   -5.1661144    182.47242  0.031482474  0.030851606           22 
  484000   0.48449575   -5.1734464    182.16858  0.031365114  0.030773928           15 
  485000   0.49940173    -5.192363    181.84219  0.031244363   0.03069583           11 
  486000   0.49427811   -5.2110796    182.15253  0.031233286  0.030617642           42 
  487000   0.49552971   -5.2110545    182.17226  0.031172528  0.030539542           21 
  488000   0.48555176   -5.2142826    181.93383  0.031067935   0.03046134           65 
  489000   0.48220328   -5.2143559    181.91139  0.031000577  0.030383353           24 
  490000   0.49566011   -5.2180288    181.56622  0.030878609  0.030305528           18 
  491000    0.4913453   -5.2068625    182.05452  0.030898595  0.030227904           30 
  492000   0.47331581   -5.2265337    182.05892  0.030836538  0.030150474           29 
  493000    0.4763582   -5.2281456    182.29479  0.030813858  0.030073171           61 
  494000    0.4838638   -5.2323834    182.07827  0.030714958  0.029996191           52 
  495000   0.47619274   -5.2169371    182.21574  0.030676051  0.029919483           84 
  496000   0.46862781   -5.2438268    182.01189  0.030579954   0.02984292           48 
  497000   0.47785426   -5.2554915    182.38618  0.030581184  0.029766537           75 
  498000   0.47067644   -5.2373424    181.69131  0.030403498  0.029690131           62 
  499000   0.46771962   -5.2503625    181.87965  0.030374023  0.029613895           52 
  500000   0.46163331   -5.2486126    181.82991  0.030304986  0.029537694           52 
  501000   0.47092008   -5.2475813    181.71351  0.030225134  0.029461407          114 
  502000   0.47496893   -5.2512499    181.72686  0.030167142  0.029385275          128 
  503000   0.47815497   -5.2430217    181.96217  0.030146152  0.029309389           57 
  504000   0.46242855   -5.2689242    181.58408  0.030023822  0.029233621           99 
  505000   0.45723585   -5.2685471    181.75637  0.029992801  0.029157781          153 
  506000    0.4605834   -5.2804042    181.62859  0.029912482  0.029082041           61 
  507000   0.45408334   -5.2628081    181.58748  0.029846725  0.029006916           44 
  508000   0.46344559   -5.2826899    181.27171  0.029736173  0.028931716           69 
  509000    0.4593119   -5.2757123    181.46028  0.029708625   0.02885662           63 
  510000   0.45471055   -5.2645801    181.86916  0.029717183  0.028781869           36 
  511000   0.45326992   -5.2866295    181.57732  0.029611435  0.028707374           33 
  512000    0.4587961   -5.2871753    181.54146  0.029547763  0.028632922           53 
Loop time of 1254.2 on 48 procs for 500000 steps with 4000 atoms

Performance: 68888.640 tau/day, 398.661 timesteps/s
99.4% CPU use with 48 MPI tasks x no OpenMP threads

MPI task timing breakdown:
Section |  min time  |  avg time  |  max time  |%varavg| %total
---------------------------------------------------------------
Pair    | 84.334     | 91.085     | 99.738     |  33.7 |  7.26
Neigh   | 8.4356     | 8.8322     | 9.4654     |   7.6 |  0.70
Comm    | 78.823     | 87.261     | 94.365     |  35.0 |  6.96
Output  | 0.87192    | 0.87269    | 0.89592    |   0.4 |  0.07
Modify  | 1052.2     | 1054.5     | 1058.2     |   4.2 | 84.07
Other   |            | 11.69      |            |       |  0.93

Nlocal:        83.3333 ave          92 max          74 min
Histogram: 1 1 6 6 9 7 8 8 1 1
Nghost:        2300.12 ave        2327 max        2279 min
Histogram: 3 6 5 11 4 7 5 2 3 2
Neighs:        15588.7 ave       17536 max       13517 min
Histogram: 1 2 5 4 13 6 9 5 0 3
FullNghs:      31178.1 ave       34755 max       27667 min
Histogram: 1 1 3 14 6 8 7 6 1 1

Total # of neighbors = 1496547
Ave neighs/atom = 374.13675
Neighbor list builds = 26964
Dangerous builds = 1

#clear
#
#next RN
#
#jump SELF
Total wall time: 0:20:57
