
units lj                  # Use reduced LJ style units
atom_style atomic         # Uncharged point particles
atom_modify map hash      # Needed for indexing of clusters etc
                          # Used to be able to find where atoms are in relation to each other.

lattice fcc 1.0 spacing 1 1 1
Lattice spacing in x,y,z = 1.5874011 1.5874011 1.5874011
region box block 0 10 0 10 0 10 units lattice
create_box 2 box
Created orthogonal box = (0.0000000 0.0000000 0.0000000) to (15.874011 15.874011 15.874011)
  3 by 4 by 4 MPI processor grid
create_atoms 1 box
Created 4000 atoms
  using lattice units in orthogonal box = (0.0000000 0.0000000 0.0000000) to (15.874011 15.874011 15.874011)
  create_atoms CPU = 0.003 seconds
set type 1 type/fraction 2 0.24 78393
Setting atom values ...
  997 settings made for type/fraction
mass 1 1.0
mass 2 1.0
pair_style lj/cut  3.5
pair_modify tail  yes
pair_coeff 1  1  1.0  1.0   # Intearaction between 1 and 1 set with epsilon = 1 and sigma = 1
pair_coeff 1  2  1.5  0.8
pair_coeff 2  2  0.5  0.88

write_data data.0
System init for write_data ...
Neighbor list info ...
  update every 1 steps, delay 10 steps, check yes
  max neighbors/atom: 2000, page size: 100000
  master list distance cutoff = 3.8
  ghost atom cutoff = 3.8
  binsize = 1.9, bins = 9 9 9
  1 neighbor lists, perpetual/occasional/extra = 1 0 0
  (1) pair lj/cut, perpetual
      attributes: half, newton on
      pair build: half/bin/atomonly/newton
      stencil: half/bin/3d
      bin: standard
WARNING: Not all mixed pair coeffs generated from mixing. Use write_data with 'pair ij' option to store all pair coeffs. (../write_data.cpp:312)


#############################
#   M E L T   S Y S T E M   #
#############################

velocity all create 2.4 2750902 mom yes dist gaussian # Assign velocities
                                                    # Temperature 2.4, random number seed, zero linear momentum
                                                                                # Gaussian distribution

timestep 0.002   # simulation timestep
thermo 1000       # output thermodynamic data every 1000 steps bf 100

# Define a fix  in this case with index 1 applied to all
# particles in the simulation. This fix is for simulations
# in the anisotropic NPT ensemble. Note that we use the MTK
# correction.
fix 1 all npt temp 2.4 2.4 0.1 iso 5.68 5.68 0.5 mtk yes tchain 5 pchain 5 # Use NPT ensemble
                                                                         # Set temperature and pressure and damping
                                                                         # Numbers of thermostats in chain and in barostat
run 10000          # run for 10000 steps
Per MPI rank memory allocation (min/avg/max) = 3.642 | 3.644 | 3.648 Mbytes
Step Temp E_pair E_mol TotEng Press Volume 
       0          2.4   -6.7864136            0   -3.1873136   -3.7949501         4000 
    1000    2.4005348   -4.9480129            0   -1.3481109    5.7362042    4306.6564 
    2000    2.3290757   -4.9102158            0   -1.4174757    5.4109686     4357.718 
    3000    2.3748641   -4.9166201            0   -1.3552145    5.6711035     4320.053 
    4000    2.4460554   -4.8907786            0   -1.2226127    5.9761924    4317.7029 
    5000    2.3754432   -4.9549384            0   -1.3926644    5.5713341    4324.1529 
    6000    2.3796256   -4.8457488            0   -1.2772027    5.6691125    4368.2558 
    7000    2.4086146     -4.86037            0   -1.2483513     5.990659    4330.8983 
    8000    2.3981456   -4.8574506            0   -1.2611315    5.6643741    4358.5236 
    9000    2.4018624   -4.8990657            0   -1.2971728    5.6661338    4344.9341 
   10000    2.4299977   -4.8774053            0     -1.23332    5.3070539    4394.2398 
Loop time of 2.31854 on 48 procs for 10000 steps with 4000 atoms

Performance: 745296.692 tau/day, 4313.060 timesteps/s
99.6% CPU use with 48 MPI tasks x no OpenMP threads

MPI task timing breakdown:
Section |  min time  |  avg time  |  max time  |%varavg| %total
---------------------------------------------------------------
Pair    | 0.99688    | 1.0645     | 1.1807     |   3.5 | 45.91
Neigh   | 0.19899    | 0.20696    | 0.23194    |   1.2 |  8.93
Comm    | 0.65842    | 0.79782    | 0.86319    |   4.6 | 34.41
Output  | 0.0002613  | 0.00026555 | 0.00032599 |   0.0 |  0.01
Modify  | 0.21085    | 0.2336     | 0.25525    |   2.8 | 10.08
Other   |            | 0.01535    |            |       |  0.66

Nlocal:        83.3333 ave          91 max          73 min
Histogram: 1 2 5 4 5 8 7 6 5 5
Nghost:        1544.58 ave        1572 max        1523 min
Histogram: 3 7 5 6 7 8 6 4 1 1
Neighs:        8687.35 ave        9891 max        7444 min
Histogram: 2 2 8 5 5 6 9 4 5 2

Total # of neighbors = 416993
Ave neighs/atom = 104.24825
Neighbor list builds = 904
Dangerous builds = 205

# Equilibrate just above the melting temperature to avoid step fn in T

fix 1 all npt temp 1.25 1.25 0.1 iso 5.68 5.68 0.5 mtk yes tchain 5 pchain 5
run 2000
Per MPI rank memory allocation (min/avg/max) = 3.643 | 3.645 | 3.649 Mbytes
Step Temp E_pair E_mol TotEng Press Volume 
   10000    2.4299977   -4.8774053            0     -1.23332    5.3070539    4394.2398 
   11000    1.2589582   -6.6593191            0   -4.7713538    5.4707007    3538.7047 
   12000    1.2401573   -6.7086925            0   -4.8489216    5.6147637    3511.1666 
Loop time of 0.519669 on 48 procs for 2000 steps with 4000 atoms

Performance: 665038.093 tau/day, 3848.600 timesteps/s
99.6% CPU use with 48 MPI tasks x no OpenMP threads

MPI task timing breakdown:
Section |  min time  |  avg time  |  max time  |%varavg| %total
---------------------------------------------------------------
Pair    | 0.23323    | 0.25504    | 0.28128    |   2.2 | 49.08
Neigh   | 0.033069   | 0.035666   | 0.038219   |   0.6 |  6.86
Comm    | 0.14797    | 0.17598    | 0.20151    |   2.8 | 33.86
Output  | 5.0939e-05 | 5.242e-05  | 6.5767e-05 |   0.0 |  0.01
Modify  | 0.043044   | 0.048324   | 0.056024   |   1.5 |  9.30
Other   |            | 0.004607   |            |       |  0.89

Nlocal:        83.3333 ave          93 max          74 min
Histogram: 1 0 5 14 6 10 5 4 2 1
Nghost:        1792.29 ave        1819 max        1759 min
Histogram: 2 0 4 4 4 14 8 5 5 2
Neighs:        10874.2 ave       12118 max        9885 min
Histogram: 3 3 11 5 8 6 4 2 2 4

Total # of neighbors = 521964
Ave neighs/atom = 130.49100
Neighbor list builds = 143
Dangerous builds = 14

#############################
# L I N E A R  Q U E N C H  #
#############################

# Define solid atoms. This closely follows ten Wolde  Ruiz-Montero and Frenkel  Faraday Discuss  1996  104  93-110
# Compute components of the per-atom q6 vector
compute q6 all orientorder/atom degrees 1 6 components 6 nnn NULL cutoff 1.3 # compute the Q6 parameter.
                                                                             # Use all neighbours within 1.3 unit cell.

# get number of connections
compute coord_number all coord/atom orientorder q6 0.5

# An atom is solid if it has 8 or more connections (of a possible 14)
variable is_solid atom c_coord_number>=8
group solid dynamic all var is_solid    # Must be dynamic to update
dynamic group solid defined

# do clustering
compute cluster solid cluster/atom 1.3 # Create a cluster where all atoms within are solid and max 1.3 units from another member

# define chunks one chunk per cluster
compute clus_chunks solid chunk/atom c_cluster nchunk every compress yes  # Says which atoms are in which chunk

# count the size of each chunk
compute size_chunks solid property/chunk clus_chunks count


# Find the maximum entry in the vector of chunk sizes
variable max_n equal max(c_size_chunks)


# Thermo style which includes this variable
# thermo_style custom step temp pe vol v_max_n

thermo ${N}  # Print the thermo information every 100 steps
thermo 1000  

# Reset the npt fix at a lower temperature (below freezing)
fix 1  all npt temp  ${temp} ${temp}  0.1  iso  5.68  5.68  0.5  mtk yes tchain  5  pchain  5
fix 1  all npt temp  0.45 ${temp}  0.1  iso  5.68  5.68  0.5  mtk yes tchain  5  pchain  5
fix 1  all npt temp  0.45 0.45  0.1  iso  5.68  5.68  0.5  mtk yes tchain  5  pchain  5

dump dmp2 all dcd ${N} traj.dcd
dump dmp2 all dcd 1000 traj.dcd


compute msd all msd com yes
variable twopoint equal c_msd[4]/6/(step*dt+1.0e-6)
fix 9 all vector 10 c_msd[4]
variable fit equal slope(f_9)/6/(10*dt)
thermo_style custom step temp pe c_msd[4] v_twopoint v_fit v_max_n

fix 1 all npt temp 1.25 ${temp} 0.1 iso 5.68 5.68 0.5 mtk yes tchain 5 pchain 5
fix 1 all npt temp 1.25 0.45 0.1 iso 5.68 5.68 0.5 mtk yes tchain 5 pchain 5
run 2000000 # 5000000  # Run for this many steps
Neighbor list info ...
  update every 1 steps, delay 10 steps, check yes
  max neighbors/atom: 2000, page size: 100000
  master list distance cutoff = 3.8
  ghost atom cutoff = 3.8
  binsize = 1.9, bins = 8 8 8
  4 neighbor lists, perpetual/occasional/extra = 1 3 0
  (1) pair lj/cut, perpetual
      attributes: half, newton on
      pair build: half/bin/atomonly/newton
      stencil: half/bin/3d
      bin: standard
  (2) compute orientorder/atom, occasional
      attributes: full, newton on
      pair build: full/bin/atomonly
      stencil: full/bin/3d
      bin: standard
  (3) compute coord/atom, occasional
      attributes: full, newton on
      pair build: full/bin/atomonly
      stencil: full/bin/3d
      bin: standard
  (4) compute cluster/atom, occasional
      attributes: full, newton on
      pair build: full/bin/atomonly
      stencil: full/bin/3d
      bin: standard
Per MPI rank memory allocation (min/avg/max) = 9.801 | 9.806 | 9.811 Mbytes
Step Temp PotEng c_msd[4] v_twopoint v_fit v_max_n 
   12000    1.2401573   -6.7086925 1.8625006e-30 1.2934031e-32 8.3333333e+20            1 
   13000    1.2322139   -6.6960836   0.52544158 0.0033682151   0.04318542            2 
   14000    1.2380212   -6.7060478    1.0500501 0.0062502979  0.044501294            1 
   15000    1.2425696   -6.6926193     1.509396 0.0083855329  0.042212651            2 
   16000    1.2705454   -6.6841965    2.0155357  0.010497582  0.041070709            6 
   17000    1.2622786   -6.7263874    2.5439632  0.012470408  0.041425578            5 
   18000    1.2260193    -6.696809    2.9996974  0.013887487  0.041464626            1 
   19000    1.2672954   -6.6861948    3.4714462  0.015225641   0.04111909            2 
   20000     1.263501   -6.7222814    3.9245899  0.016352458  0.040624942            1 
   21000    1.2472103   -6.6914906     4.414501  0.017517861  0.040406701            1 
   22000    1.2396551   -6.6940759    4.9318492  0.018681247   0.04045792            2 
   23000    1.2459941   -6.7175745    5.4667082  0.019806913  0.040618064            1 
   24000    1.2441747   -6.6925679    5.9184398  0.020550138   0.04080214            4 
   25000     1.238665   -6.7313644     6.467443  0.021558143  0.040877653            3 
   26000    1.2451625   -6.7211749    6.9349289  0.022227336  0.040953428            4 
   27000    1.2622648   -6.7186316     7.414099  0.022883021  0.040933255            2 
   28000    1.2278033   -6.7141986    7.9030527   0.02352099  0.040938787            1 
   29000    1.2388128   -6.7143734     8.406283  0.024155985  0.040941533            1 
   30000    1.2382254    -6.695803    8.9626615  0.024896282  0.040977763            4 
   31000    1.2584329   -6.6948976    9.4096595  0.025294783  0.041021165            2 
   32000    1.2233266   -6.6970707    9.9774245  0.025982876    0.0410703            1 
   33000    1.2479292    -6.737724    10.450569  0.026390325  0.041158347            1 
   34000    1.2248695   -6.7190548    10.972505  0.026893394  0.041220299            2 
   35000    1.2722244   -6.7602351    11.351393  0.027027126  0.041246093            2 
   36000    1.2454666   -6.7115139    11.907368  0.027563351  0.041235763            2 
   37000    1.2671103   -6.7198685    12.415312  0.027962414  0.041233183            1 
   38000    1.2530108   -6.7017411    12.875056  0.028234771  0.041249297            2 
   39000    1.2148776   -6.7405744     13.43061  0.028697884  0.041252971            1 
   40000    1.2306005   -6.6994753     14.01326  0.029194291  0.041292553            1 
   41000    1.2505568    -6.725552    14.472386  0.029415419   0.04136336            2 
   42000    1.2494731    -6.751576    14.936842   0.02963659  0.041423566            1 
   43000    1.2389491    -6.711559    15.335127  0.029719238  0.041413002            1 
   44000    1.2280107   -6.7018849    15.806179  0.029935944  0.041357261            1 
   45000    1.2226687   -6.7076034    16.425367  0.030417345  0.041345804            2 
   46000    1.2529105   -6.7027851    16.913313   0.03064006  0.041355048            1 
   47000    1.2401389   -6.6871155    17.466419  0.030968828  0.041380169            3 
   48000    1.2392408   -6.7102384    17.690581  0.030712815  0.041355654            2 
   49000    1.2445762    -6.750404    18.143576  0.030856422  0.041296316            1 
   50000     1.246511   -6.7218222    18.650524  0.031084207  0.041234738            2 
   51000    1.2476924   -6.7352631    19.131163  0.031260071  0.041174085            2 
   52000    1.2208063   -6.7236887    19.579867  0.031377991  0.041112393            3 
   53000    1.2448745   -6.7460706    20.060975  0.031542414  0.041049096            2 
   54000    1.2718542   -6.7387764    20.670176  0.031898419   0.04100381            2 
   55000    1.2187248   -6.6699661    21.124972  0.032007533  0.040991084            1 
   56000    1.2037684   -6.7410143    21.533132   0.03204335  0.040943083            3 
   57000    1.1995777   -6.7680341    22.105303  0.032317695  0.040909414            1 
   58000    1.2285557   -6.6800237    22.552733  0.032403352  0.040878499            1 
   59000    1.2496249   -6.7439876    22.940242  0.032401472  0.040834211            2 
   60000    1.2091957   -6.7445762    23.406658  0.032509246  0.040799819            1 
   61000    1.2154362    -6.720081    23.998871  0.032785343  0.040776739            6 
   62000    1.2385995   -6.7619229     24.27564  0.032628549  0.040738105            2 
   63000    1.2466903   -6.7630693    24.754893  0.032744567  0.040682227            2 
   64000    1.2286548   -6.7203357    25.208276  0.032823275   0.04062641            3 
   65000    1.2364276   -6.7682781    25.670184  0.032910492  0.040583086            2 
   66000    1.2425432   -6.7609541    26.253534  0.033148401   0.04054537            3 
   67000    1.2269593   -6.7797388    26.643726  0.033138963  0.040514945            2 
   68000    1.2327306   -6.7382822    27.183132  0.033312661  0.040479694            1 
   69000    1.2435974   -6.7498932    27.497269  0.033209262    0.0404404            2 
   70000    1.2391448   -6.7184627    28.182319   0.03355038  0.040412885            2 
   71000    1.2541081    -6.734565    28.606447  0.033575642    0.0403932            1 
   72000    1.2343921   -6.7483394     29.19084  0.033785694  0.040380304            2 
   73000    1.2046359   -6.7798961    29.470947  0.033642634  0.040360312            3 
   74000    1.2335808   -6.7418116    30.140061   0.03394151  0.040345291            1 
   75000    1.2138398   -6.7942171     30.57156    0.0339684  0.040332628            2 
   76000    1.2068292   -6.7393369     31.02386   0.03401739  0.040317351            2 
   77000    1.2485345   -6.7494601    31.428539   0.03401357  0.040290068            2 
   78000    1.2251096   -6.7663316     31.88696  0.034067265   0.04027222            3 
   79000    1.2497303   -6.7395705    32.416076  0.034194173  0.040257396            1 
   80000    1.2024252   -6.7104777    32.941593  0.034314159  0.040239205            1 
   81000    1.2298166   -6.7505851    33.346251  0.034306843   0.04021619            1 
   82000    1.2365818    -6.740272    33.971374  0.034523754  0.040199116            2 
   83000    1.2034357   -6.7411016    34.558172   0.03469696  0.040197065            2 
   84000    1.2560359   -6.7488794    35.025786  0.034747803  0.040201027            1 
   85000    1.2232912   -6.7669312    35.360527  0.034667183  0.040204221            1 
   86000    1.2055926   -6.7473784    35.785522  0.034675893  0.040194771            5 
   87000    1.2326713   -6.7456631    36.153679   0.03462996  0.040179413            1 
   88000    1.2494907   -6.7897083     36.44261  0.034510047  0.040154292            3 
   89000    1.2195791   -6.7157716    36.858255  0.034511474  0.040109809            2 
   90000    1.2157672   -6.7676859    37.167815  0.034414644  0.040062868            2 
   91000    1.2298982    -6.750736    37.591777  0.034424704  0.040010279            2 
   92000    1.2035455   -6.7451182    38.280602  0.034674458  0.039964975            2 
   93000    1.2153345   -6.7389075    38.632829   0.03461723  0.039923501            1 
   94000    1.2256058   -6.7589986    38.926979  0.034509733  0.039881274            1 
   95000    1.2277145   -6.7558925    39.469485  0.034622355  0.039837651            1 
   96000    1.2316939   -6.7941431    40.037081  0.034754411  0.039807037            3 
   97000    1.1716437   -6.7995067    40.325199  0.034643642  0.039774771            1 
   98000    1.1988237   -6.7974861    40.843485  0.034730855  0.039738016            1 
   99000    1.2020234   -6.7619673    41.295528  0.034760545   0.03970371            1 
  100000    1.2267157   -6.7814163    41.621073  0.034684227  0.039671497            1 
  101000     1.212316   -6.7464221    42.258023  0.034866356  0.039636438            1 
  102000    1.2257601   -6.7824682    42.465748  0.034694239  0.039594483            2 
  103000    1.2373947   -6.7635247    42.877658  0.034690662  0.039550994            3 
  104000    1.2353963   -6.7647818    43.359491  0.034743182  0.039507168            2 
  105000    1.2169138   -6.7574631     43.93473  0.034868833  0.039470934            1 
  106000     1.215889   -6.7914808    44.494915  0.034980279  0.039436936            1 
  107000    1.2119789   -6.7690514    44.694622  0.034808896  0.039399201            2 
  108000    1.1890876   -6.7357497    45.380086  0.035015499  0.039367411            2 
  109000    1.1988254   -6.8236276    45.769162  0.034991714  0.039337559            2 
  110000    1.1869245   -6.7822587    46.135507  0.034951142  0.039312549            1 
  111000    1.2324085   -6.7648711    46.852149  0.035174286   0.03928554            1 
  112000    1.2258459   -6.8118455    47.219622  0.035133647  0.039262881            1 
  113000    1.1892299   -6.7664701    47.611255  0.035111545  0.039239579            2 
  114000    1.2101437   -6.7480469    48.226675  0.035253418  0.039215347            3 
  115000    1.2116702    -6.771898    48.607411  0.035222761  0.039193791            2 
  116000    1.1902809   -6.7553858    49.060868  0.035244876  0.039172238            2 
  117000    1.2175764   -6.7585352    49.707406  0.035404135   0.03915315            1 
  118000    1.2004212   -6.7922155    50.218612  0.035465121  0.039142849            1 
  119000    1.2073644   -6.8175551    50.716792   0.03551596   0.03913618            1 
  120000    1.1978265    -6.806772    50.954898  0.035385346  0.039129035            2 
  121000    1.2220213   -6.8083759    51.660277  0.035578703  0.039119818            1 
  122000    1.1870757   -6.7672839    52.043749  0.035549009  0.039108823            1 
  123000    1.1994317   -6.8143672    52.343422  0.035463023  0.039094122            2 
  124000    1.2125272   -6.7902798    52.523809  0.035298259  0.039076041            1 
  125000    1.2055195   -6.7987002    53.081309  0.035387539  0.039059318            1 
  126000    1.2083672   -6.7412208    53.568541  0.035428929  0.039040154            1 
  127000    1.1906166   -6.7953367    54.136005  0.035522313  0.039024241            2 
  128000    1.2155789   -6.8310918    54.520798  0.035495311  0.039006058            2 
  129000    1.2149957   -6.7952347    54.947061  0.035495517  0.038986602            2 
  130000    1.2066558   -6.8447333    55.285206  0.035439235  0.038965957            1 
  131000    1.2035513   -6.7930775    55.945716  0.035588878  0.038950949            1 
  132000     1.187408   -6.7689623    56.330735  0.035562333  0.038933411            2 
  133000    1.2171013   -6.8040672    56.677614  0.035512289  0.038913652            1 
  134000    1.1944745   -6.7820719      57.3332  0.035654975  0.038896874            3 
  135000    1.2454047   -6.8163978    57.628333  0.035573045  0.038882402            5 
  136000    1.1751487   -6.8220879    58.017998  0.035550244  0.038866093            4 
  137000    1.2393108   -6.8092259    58.540305  0.035608458  0.038850061            1 
  138000    1.2104885    -6.827321    58.928825  0.035585039  0.038835408            2 
  139000    1.1924556   -6.7985112    59.442402  0.035636932  0.038819018            1 
  140000    1.1622661   -6.8178095    59.934914  0.035675544  0.038807125            2 
  141000    1.2192772   -6.8089463     60.23177  0.035597973  0.038792259            2 
  142000    1.1937152   -6.8175489    60.780824  0.035669497  0.038777716            2 
  143000    1.2101014   -6.7895502    61.155772  0.035638562  0.038763397            2 
  144000    1.2104315   -6.7878452    61.742648  0.035730699  0.038748835            3 
  145000    1.2028519   -6.8133299    62.082275  0.035679468  0.038735814            3 
  146000    1.2033902   -6.7785826    62.587285  0.035723336  0.038722728            1 
  147000    1.1928447   -6.8267172    62.761051  0.035578827  0.038704414            2 
  148000    1.2134233   -6.7953992     63.12192  0.035541621  0.038681978            1 
  149000    1.1906324   -6.8169019    63.636462  0.035590862  0.038662809            1 
  150000    1.1716794   -6.8417639    64.154023  0.035641124  0.038644618            2 
  151000    1.2103217   -6.8374143    64.497699  0.035594756  0.038626988            1 
  152000    1.2059015   -6.8478505    64.952929  0.035610158   0.03861013            2 
  153000    1.1914281   -6.8913329    65.529692  0.035691553  0.038594082            1 
  154000    1.2139309   -6.8172774    65.927927  0.035675285   0.03857542            2 
  155000    1.1837434    -6.857763    66.520457  0.035763686  0.038557033            3 
  156000    1.1781751   -6.8442489    66.825505  0.035697385  0.038541074            2 
  157000    1.2057035   -6.8077024    67.476247  0.035815417  0.038527276            1 
  158000    1.1864642   -6.8118693    67.862379  0.035792394  0.038517031            2 
  159000    1.1774355   -6.7609487    68.621178  0.035964978  0.038507155            2 
  160000    1.1830169   -6.8081743    68.717363  0.035790293  0.038495579            3 
  161000    1.1872091   -6.8002345    69.430116  0.035936913  0.038481828            1 
  162000    1.1726259   -6.8624281    69.673762  0.035840413  0.038470505            3 
  163000    1.1853547   -6.8329647    69.931491  0.035752296  0.038459758            2 
  164000    1.1893085   -6.8699098    70.457173  0.035801409  0.038445694            1 
  165000    1.2085432   -6.8232269    70.822865  0.035769124  0.038432155            3 
  166000    1.1987755   -6.8629491    71.371784  0.035829209  0.038416919            2 
  167000    1.1940997   -6.8492993    71.866756  0.035861654  0.038405927            3 
  168000    1.1902462   -6.8671258    72.324696  0.035875345  0.038396178            2 
  169000     1.175114   -6.7787437    73.038288  0.036014935  0.038385355            1 
  170000     1.194022   -6.8601655    73.143054  0.035854438  0.038377697            1 
  171000    1.1645201   -6.8272748    73.656191   0.03589483  0.038367801            1 
  172000    1.2130546   -6.8563064    74.101614  0.035901945  0.038355776            1 
  173000    1.1939849   -6.8881031    74.341887  0.035810157  0.038345365            2 
  174000    1.2051348   -6.8546153    74.457565  0.035659753  0.038330601            3 
  175000    1.1820607   -6.8121353    75.530656  0.035966979   0.03831882            1 
  176000    1.1865404   -6.8447639    75.648136  0.035818246  0.038306634            3 
  177000    1.1650055   -6.8037049     76.50601  0.036019779  0.038296235            2 
  178000    1.1843841   -6.8443723    77.056958  0.036075355  0.038288444            2 
  179000    1.1661561   -6.8237775    77.217628  0.035948616  0.038280786            2 
  180000    1.1817062   -6.8464909    77.906795   0.03606796  0.038273304            4 
  181000    1.2011294   -6.8397434    78.022131  0.035921791  0.038265446            3 
  182000    1.2051506   -6.7967017    78.756045   0.03606046  0.038257423            3 
  183000    1.1891385   -6.8568015    78.897088  0.035927636  0.038248086            4 
  184000    1.1937879   -6.8242206    79.433054  0.035975115  0.038240285            1 
  185000    1.1798705   -6.8465505    79.608069   0.03585949  0.038227647            2 
  186000    1.1788048   -6.8269007     79.99934  0.035841998  0.038213099            1 
  187000    1.1520699   -6.8369927    80.186116  0.035733563  0.038196227            2 
  188000    1.1536408   -6.8732255    80.794337  0.035813092  0.038179227            1 
  189000    1.1802151   -6.8014489    81.803822  0.036068705  0.038166346            1 
  190000    1.1605028   -6.8468538    81.540256   0.03576327  0.038153702            3 
  191000    1.1651385   -6.8168132    82.299568  0.035907316  0.038141081            2 
  192000    1.1635306   -6.8299846    82.915593  0.035987671  0.038128646            3 
  193000    1.1857345   -6.8675638    82.972366  0.035825719  0.038115573            1 
  194000    1.1968305   -6.8028731    83.499123  0.035867321  0.038101352            2 
  195000    1.1623643   -6.9060532    84.148151  0.035960748   0.03808459            1 
  196000    1.1951939   -6.8081606    84.656605  0.035993454  0.038072699            2 
  197000     1.182443    -6.829427    84.665741  0.035814611  0.038060932            3 
  198000    1.1859095   -6.8830012    85.001365  0.035774985  0.038046647            3 
  199000    1.1469894   -6.8198862    85.430143  0.035774766   0.03802997            2 
  200000    1.1938445   -6.8823037    85.633509  0.035680629  0.038011826            1 
  201000    1.1934813   -6.8466518    86.073335  0.035685462  0.037992549            1 
  202000    1.1734904   -6.8191728    86.470381  0.035672599  0.037974694            2 
  203000    1.1750109   -6.8285704    86.690703  0.035587317  0.037953977            3 
  204000    1.1739299   -6.8584776    87.409368  0.035706441  0.037933628            3 
  205000    1.1637954    -6.873924    87.948514  0.035751429  0.037919126            1 
  206000    1.1534683    -6.822658    89.009736  0.036007175  0.037906378            1 
  207000    1.1689147   -6.8574737    88.883755   0.03578251  0.037895954            2 
  208000    1.1528866   -6.8498633    89.086117  0.035691553  0.037879723            2 
  209000    1.1776024   -6.8625396    89.489593  0.035681656  0.037863152            2 
  210000    1.1509837   -6.8369609    89.969094  0.035702021  0.037845127            4 
  211000    1.1790994   -6.8758099    89.920433  0.035513599  0.037824673            2 
  212000    1.1506786   -6.8452583    90.630922  0.035625362  0.037805521            2 
  213000    1.1480384   -6.8507944    91.009731  0.035606311  0.037786479            1 
  214000    1.1394652   -6.8750363    90.983776  0.035429819  0.037764469            1 
  215000    1.1507876   -6.9001947    91.666357  0.035529596  0.037742244            2 
  216000    1.1471034   -6.8152914    91.754417  0.035399081  0.037719129            1 
  217000    1.1845061    -6.840212    92.020539  0.035338148  0.037693854            3 
  218000    1.1943152   -6.9001217    92.525452  0.035369056  0.037669802            2 
  219000    1.1728326   -6.8496245    93.065027  0.035412872  0.037646285            2 
  220000    1.1622487   -6.8727057    93.747884  0.035510562   0.03762361            2 
  221000    1.1752271   -6.8626923    94.065001  0.035469457  0.037600938            2 
  222000    1.1741631   -6.8511774    94.166518  0.035347792   0.03757665            3 
  223000    1.1406612   -6.9026227    94.480183  0.035306496   0.03755256            2 
  224000    1.1520706    -6.888524    94.714934  0.035236211  0.037527155            2 
  225000    1.1612678   -6.8573143     95.16063  0.035244678  0.037503032            1 
  226000    1.1725312    -6.848472    95.769297  0.035313162  0.037478638            1 
  227000    1.1621382    -6.884446    95.867734  0.035193735  0.037453275            4 
  228000    1.1413151   -6.8694229    96.438825  0.035248108  0.037427076            2 
  229000    1.1920094   -6.8705634    96.515649  0.035122143  0.037401724            1 
  230000    1.1723442   -6.8533534    97.027316  0.035154825  0.037373549            1 
  231000    1.1467603   -6.8756699    96.889694  0.034952992  0.037343655            1 
  232000    1.1708698   -6.8833587    97.263355   0.03493655  0.037310373            2 
  233000    1.1595762   -6.8913109    97.584959   0.03490163  0.037276522            1 
  234000     1.161298   -6.9179979    97.592009  0.034754989  0.037243643            4 
  235000    1.1545911   -6.8547584    98.372056  0.034883708  0.037209897            1 
  236000    1.1383921   -6.9130812    98.665434  0.034839489  0.037176976            4 
  237000    1.1405816    -6.886267    98.639212  0.034683267  0.037142817            1 
  238000    1.1897723   -6.9009894     99.08433  0.034693393  0.037108826            4 
  239000    1.1476205    -6.875953    99.304847  0.034625121  0.037073837            2 
  240000    1.1618994   -6.8655908    99.888314  0.034683442  0.037039246            1 
  241000     1.145169   -6.8758435    100.25483  0.034666263  0.037004531            3 
  242000    1.1271624    -6.873638    100.99164  0.034776734  0.036972215            2 
  243000    1.1759197   -6.8876791    101.01189  0.034640565  0.036940436            2 
  244000    1.1698752   -6.8680817    101.47811  0.034657823  0.036908131            3 
  245000    1.1674457   -6.8715062    101.96843  0.034683138  0.036876841            2 
  246000    1.1408255   -6.8812208    102.43298  0.034699517  0.036845333            2 
  247000    1.1604859   -6.9416796    102.42775   0.03455727  0.036813266            3 
  248000    1.1669828    -6.871544    103.49908  0.034777915  0.036784208            2 
  249000    1.1409165   -6.8691652    103.49306  0.034636231  0.036755855            3 
  250000    1.1616043   -6.9001489    103.74459  0.034581531  0.036725698            3 
  251000    1.1592746   -6.8925757    104.35974   0.03464799  0.036694391            2 
  252000    1.1561287   -6.8723268    104.80451  0.034657577  0.036665168            1 
  253000    1.1549824   -6.8910706     105.6459  0.034797726  0.036637303            2 
  254000    1.1544657   -6.9155693    105.68484  0.034673505  0.036610754            2 
  255000    1.1733877   -6.8682365    106.18406  0.034700673  0.036583569            2 
  256000    1.1370714   -6.8869042    106.90233  0.034798937  0.036556922            1 
  257000    1.1617873    -6.912773    107.02722  0.034704028  0.036532727            1 
  258000    1.1627852   -6.9174657    107.16247  0.034613202  0.036509216            3 
  259000    1.1580264   -6.9016028    107.79431  0.034682854  0.036484713            1 
  260000    1.1557687   -6.8731323    108.23965  0.034692195  0.036461232            1 
  261000    1.1618119   -6.8982782    108.29839   0.03457803  0.036437516            1 
  262000    1.1677584   -6.8710609    108.94991  0.034653278  0.036413133            1 
  263000     1.130912   -6.9301943    108.94584  0.034520227  0.036388298            2 
  264000    1.1385716   -6.9101367    109.30442  0.034502657  0.036362109            2 
  265000    1.1444569   -6.8848345    109.77884  0.034521647   0.03633554            2 
  266000    1.1506694   -6.8846979    110.09168  0.034489874  0.036309929            2 
  267000    1.1555145   -6.8794571    110.85513  0.034598981  0.036285272            3 
  268000    1.1394835   -6.8731635     111.5849  0.034696798  0.036262523            3 
  269000    1.1467917   -6.9178262    111.44742  0.034525222  0.036239192            2 
  270000    1.1485948   -6.9489194    111.08452  0.034285345  0.036215201            3 
  271000    1.1410413   -6.9072502    112.07566   0.03446361  0.036190606            3 
  272000    1.1755233   -6.8917911      112.511  0.034470283  0.036168113            2 
  273000    1.1730452    -6.924104    112.71392   0.03440596  0.036145148            1 
  274000    1.1546927   -6.9262577    113.43235   0.03449889   0.03612176            2 
  275000    1.1411307   -6.9047628    114.14666  0.034589898  0.036099643            3 
  276000    1.1225772   -6.8796363    114.74005  0.034643735  0.036078334            2 
  277000    1.1419366   -6.9225193     114.5695  0.034467358  0.036057988            2 
  278000    1.1280465   -6.9342705    114.96392  0.034461606  0.036038707            2 
  279000    1.1373994   -6.9472827    115.38816  0.034464803  0.036017738            3 
  280000    1.1406962   -6.9171797    115.56877  0.034395468  0.035997825            1 
  281000    1.1667304   -6.8856504    116.48275  0.034544113   0.03597834            2 
  282000    1.1371044   -6.8801661    116.96916  0.034565354  0.035959672            1 
  283000    1.1750763   -6.9442799    117.25113  0.034526244  0.035941862            2 
  284000    1.1473792   -6.9348137    117.74758  0.034550347  0.035923016            3 
  285000    1.1461824   -6.9456905    118.16179  0.034550231  0.035904338            2 
  286000    1.1404785   -6.9190803    118.38296   0.03449387  0.035886296            1 
  287000    1.1330292   -6.9265184    118.87821  0.034517482  0.035868473            1 
  288000    1.1304394      -6.8996    119.81764  0.034669457  0.035850963            3 
  289000    1.1328124   -6.9320254    119.49392  0.034456147  0.035834528            3 
  290000    1.1211683   -6.9350635    119.55326  0.034354386  0.035816731            2 
  291000    1.1348673   -6.9602285    120.24248  0.034433699  0.035798769            1 
  292000    1.1283609   -6.9012952     120.7529  0.034461445  0.035782077            3 
  293000    1.1478599   -6.9480941    120.95522   0.03440137  0.035764199            2 
  294000    1.1534554   -6.9735854    121.30639  0.034383897  0.035745439            2 
  295000     1.135772   -6.9207356    121.75207   0.03439324  0.035726746            1 
  296000    1.1235662   -6.9126019    122.18371  0.034398567  0.035707735            1 
  297000     1.119675   -6.9342093    122.37273  0.034335782  0.035688618            3 
  298000    1.1348962   -6.9026764    122.93005  0.034376411  0.035669803            1 
  299000    1.1483858   -6.9615064    123.54024  0.034431504  0.035652463            2 
  300000    1.1421543   -6.9276159    123.56687  0.034324131  0.035634001            1 
  301000     1.121397   -6.9363023    123.76409  0.034264699  0.035614789            1 
  302000    1.1292966   -6.9405932    124.04335  0.034228297  0.035595491            2 
  303000    1.1107828   -6.9356485    124.23198  0.034167211  0.035575614            2 
  304000    1.1442741   -6.9425606    124.29144  0.034071119  0.035553482            1 
  305000    1.1178763   -6.9265769    125.16453  0.034197959   0.03553174            2 
  306000    1.1343383   -6.9431406    125.09133  0.034066267  0.035510884            2 
  307000    1.1253221   -6.9124259    125.65139  0.034107327  0.035488951            1 
  308000    1.1425377   -6.9208947    125.71204  0.034012997  0.035467368            2 
  309000    1.1541178   -6.9541076    126.51055   0.03411827  0.035446014            1 
  310000    1.1459395   -6.9243713    126.68311  0.034054598   0.03542509            3 
  311000    1.1412885   -6.9513797    126.53628  0.033905756  0.035403154            4 
  312000    1.1172046   -6.9169022     127.2863  0.033997409  0.035380141            2 
  313000    1.1042039    -6.942016    127.15666  0.033854276  0.035357224            2 
  314000    1.1174775   -6.9794131    127.66129  0.033880386  0.035333834            1 
  315000    1.0957431   -6.9864371    127.87199   0.03382857  0.035310063            2 
  316000    1.1238099   -6.9230992    128.05629  0.033770119  0.035285417            1 
  317000    1.1271031   -6.9693857    128.11817  0.033679855  0.035262057            2 
  318000    1.1153842   -6.8866287    129.06281  0.033821491  0.035238532            1 
  319000    1.1208003   -6.9179897    129.74161  0.033892793   0.03521597            3 
  320000    1.1277227   -6.9056247    129.95736  0.033843062  0.035192784            1 
  321000    1.1023473    -6.938206    129.97854  0.033743131  0.035170229            2 
  322000    1.1380154   -6.9607046    130.06822  0.033661546  0.035147926            2 
  323000     1.112036   -6.9461119    130.88901  0.033769093  0.035124749            3 
  324000    1.1212922   -6.9655873    131.32443  0.033776859  0.035101985            3 
  325000    1.1126525   -6.9116508    131.63229  0.033751868   0.03507982            1 
  326000     1.123474   -6.8808577    132.19982  0.033793409  0.035057612            3 
  327000    1.1456238   -6.9529041    132.34975  0.033728274  0.035035543            3 
  328000    1.1104081   -6.9020894    132.50916  0.033665946   0.03501271            2 
  329000    1.1290076   -6.9213542    132.51494   0.03356508  0.034989251            2 
  330000    1.1218436    -6.944604    133.18264  0.033631979  0.034966008            2 
  331000    1.1209261   -6.9394516    133.79291  0.033684015  0.034944281            2 
  332000    1.1218415   -6.9781215    134.09198  0.033657626  0.034922439            2 
  333000    1.1296439   -6.9520317    134.28869  0.033605778  0.034901197            2 
  334000    1.1196877   -6.9499421    134.48864  0.033555049  0.034879099            2 
  335000    1.1187296   -6.9299489    135.13982   0.03361687  0.034857106            1 
  336000    1.0985555   -6.9113113    135.64036  0.033640962  0.034836777            2 
  337000    1.1172993   -6.9584087    135.73367   0.03356421  0.034816032            2 
  338000    1.1206136   -6.9973333    136.23348  0.033588135   0.03479462            2 
  339000    1.1177364   -6.9088634    137.28775  0.033748217  0.034774511            1 
  340000    1.1155311   -6.9783435    136.95947  0.033568498  0.034754804            1 
  341000    1.1162602   -6.9717931    137.82194  0.033680825  0.034735657            2 
  342000    1.1255952   -6.9438174    138.03766  0.033634907  0.034716063            2 
  343000    1.1147202   -6.9695146    138.21124  0.033579019  0.034696876            2 
  344000    1.1312216   -6.9605627    138.23441  0.033487018  0.034677428            1 
  345000    1.1103704   -6.9031776    139.30901   0.03364952  0.034658302            2 
  346000    1.1093475    -6.957147    138.86342  0.033444946   0.03463972            2 
  347000    1.1106659   -6.9838811    140.04874  0.033633222  0.034620996            4 
  348000     1.139296    -6.956787    140.09572  0.033547826  0.034603404            3 
  349000    1.0984564   -6.9718086    139.83591  0.033389664  0.034584651            3 
  350000    1.0931947   -6.9690021    140.35391  0.033417597   0.03456503            1 
  351000    1.1047952    -6.971786    140.56259  0.033371936  0.034545238            2 
  352000    1.1113404   -6.9718475    141.38066  0.033470801  0.034525039            2 
  353000    1.1426328    -7.004243    140.94864  0.033273995  0.034505394            4 
  354000    1.1206941   -6.9354026    141.99476  0.033426262  0.034485249            2 
  355000     1.095391   -6.9871373    142.31894  0.033408201  0.034465172            1 
  356000    1.1172868   -6.9805702    142.44444  0.033343736  0.034445119            2 
  357000    1.0955176   -6.9482665     142.9235   0.03336216  0.034425279            1 
  358000    1.1293917   -7.0079938    143.11695  0.033314002   0.03440588            1 
  359000    1.1027082   -6.9615203    143.61225  0.033336176  0.034386009            2 
  360000    1.1365758   -7.0044918    143.48056  0.033213094  0.034366231            3 
  361000    1.1278717   -6.9829954     144.3527  0.033322414  0.034347027            2 
  362000     1.117407   -6.9895556    144.65338  0.033299581   0.03432787            2 
  363000    1.1339166   -6.9962125    145.30138  0.033356608   0.03430913            1 
  364000    1.1032448   -6.9787065    145.39988  0.033287519  0.034290467            2 
  365000    1.0954319   -6.9765386    145.67012  0.033258018  0.034272061            3 
  366000    1.0805933   -6.9834432    146.02506  0.033247964  0.034253006            2 
  367000    1.0944026   -6.9741069     146.3941  0.033241167  0.034233267            4 
  368000    1.1240177   -7.0317463    146.15385  0.033096434  0.034213184            2 
  369000    1.0999786   -6.9404294    146.94965  0.033186461   0.03419289            1 
  370000    1.1131031   -6.9937892    147.41409  0.033201371  0.034174224            2 
  371000    1.1015414   -7.0073729    147.77238   0.03319236  0.034155117            2 
  372000    1.1113289   -6.9760029    148.14664  0.033186972   0.03413563            2 
  373000    1.0680896   -7.0418334    148.52723  0.033183026  0.034116615            3 
  374000    1.0966448   -7.0088889    149.04507  0.033209687  0.034099225            1 
  375000    1.1144432   -7.0297328    149.35831  0.033190736  0.034082869            2 
  376000    1.0909129   -6.9796241    149.83921  0.033209045  0.034066585            2 
  377000    1.0894223   -6.9811945    150.55458  0.033279085  0.034050641            2 
  378000    1.0720319   -6.9960815    151.00405  0.033290135  0.034035822            2 
  379000    1.1184331    -6.962519     151.9548  0.033411345  0.034020755            1 
  380000    1.0762358   -7.0031365    151.94914  0.033322181  0.034006571            5 
  381000    1.0932593   -6.9971772    152.11734   0.03327151  0.033991346            2 
  382000    1.1003354   -7.0019596    152.51045  0.033270169  0.033976743            2 
  383000    1.1221018   -7.0410653    152.56927    0.0331961  0.033961425            2 
  384000    1.1241606   -7.0472734    152.90711  0.033182967  0.033945931            2 
  385000    1.0864833   -7.0149328    153.35238  0.033193155  0.033930964            2 
  386000     1.100844    -7.009745    154.07723  0.033263651  0.033916409            1 
  387000    1.0930099    -6.993961    154.36424    0.0332395   0.03390258            1 
  388000    1.1008268   -7.0217836    154.70439  0.033226887  0.033887898            1 
  389000    1.1048986   -7.0271743     154.9649   0.03319728  0.033873607            2 
  390000    1.1194013   -7.0054986    155.29038  0.033181705  0.033858796            3 
  391000    1.0864281   -7.0005726    155.25866  0.033090082  0.033842873            4 
  392000    1.1005538   -7.0426948    155.52176  0.033061599   0.03382723            1 
  393000    1.1080019   -6.9568831    155.77549  0.033031274  0.033811881            2 
  394000    1.1382636   -6.9972359     156.2797  0.033054082  0.033796194            3 
  395000    1.1196629   -6.9912101    156.59721  0.033037385  0.033780051            4 
  396000    1.0938429   -7.0118749    156.87103  0.033011581  0.033763888            3 
  397000    1.0848232   -7.0393856    156.74116  0.032901166  0.033747452            1 
  398000    1.1049363    -6.984014    157.76224  0.033032295   0.03373155            1 
  399000    1.0896164   -7.0472649    156.98111  0.032786364  0.033716491            4 
  400000    1.0688853   -7.0344124    158.10223  0.032937964  0.033700756            2 
  401000    1.1063202   -7.0454259    158.75531  0.032991543  0.033685991            4 
  402000     1.086167   -7.0114674    159.56189  0.033076677  0.033671228            3 
  403000    1.0999922   -7.0179348    159.11519   0.03290223  0.033656146            2 
  404000    1.0939065   -7.0079703    159.94666  0.032992297  0.033640739            3 
  405000    1.0819421   -7.0256217    159.64362   0.03284848  0.033625232            1 
  406000    1.0967008   -7.0252986    160.12631  0.032866649  0.033608984            1 
  407000    1.0925552   -7.0101418    160.69053  0.032901419  0.033592758            1 
  408000    1.0963055   -7.0223272    161.40746   0.03296721  0.033577116            2 
  409000    1.0753237   -6.9938354    161.44973  0.032895219  0.033561343            2 
  410000    1.0919184     -7.04672     161.2074  0.032765732  0.033544704            4 
  411000     1.089964   -6.9983806    162.19556  0.032886366   0.03352819            3 
  412000    1.0620055   -6.9721297    162.49542  0.032867196  0.033512594            4 
  413000    1.0877635   -7.0338592    162.34956  0.032758184  0.033497027            2 
  414000    1.0924487   -7.0452988     162.6851  0.032746598  0.033481076            3 
  415000    1.0870758   -7.0454588    162.72428  0.032675557  0.033464366            2 
  416000    1.0821569    -7.022133    163.08811  0.032669895  0.033447036            5 
  417000     1.075389   -7.0052307    163.09553  0.032593032  0.033429965            2 
  418000    1.0915249   -7.0176973    163.25803  0.032547454  0.033412246            2 
  419000    1.1058822   -7.0326756    163.69284  0.032556253  0.033393357            3 
  420000    1.0857983   -7.0402685    163.76815  0.032493681  0.033374359            4 
  421000    1.0836849    -7.050569    164.19846  0.032501674  0.033355897            1 
  422000    1.1305946   -7.0334865    164.86496  0.032556273  0.033337489            2 
  423000    1.0738003    -7.017039    165.08066    0.0325218  0.033319368            2 
  424000    1.0854669   -7.0900259    164.80851   0.03239161  0.033301388            5 
  425000    1.1204731   -7.0476708    166.09512   0.03256767  0.033283678            1 
  426000    1.0765393   -7.0584871    165.85638  0.032444518  0.033265875            1 
  427000    1.0633888   -7.0556069    166.27688  0.032450601  0.033248452            2 
  428000    1.0874953   -7.0230188    166.30082  0.032379442  0.033230836            1 
  429000    1.0786877   -7.0227107    167.42832  0.032522984  0.033213655            3 
  430000    1.0804327   -7.0254821    168.10134   0.03257778  0.033197186            3 
  431000    1.0811371   -7.0036368    168.59076  0.032596821  0.033180982            4 
  432000    1.0707516   -7.0265011    168.14792  0.032435941  0.033165101            1 
  433000    1.0759129   -7.0448368    169.11032  0.032546251  0.033148219            3 
  434000    1.0941094   -7.0479131    169.04108  0.032457964  0.033132047            2 
  435000    1.0887889   -7.0947709    170.03405  0.032573572  0.033116545            1 
  436000    1.0852314   -7.0625588    170.18043  0.032526841   0.03310162            1 
  437000    1.1036986   -7.0373553    170.49352  0.032512113   0.03308612            2 
  438000    1.0680906   -7.0527975    170.20641  0.032383259  0.033070384            1 
  439000    1.0745211    -7.012742    171.05064   0.03246975  0.033054221            2 
  440000    1.0771632   -7.0654275    171.02191  0.032390514   0.03303848            3 
  441000    1.0913435    -7.075498    171.61711  0.032429537  0.033022615            3 
  442000    1.0492599   -7.0429102    171.94648  0.032418266  0.033007121            3 
  443000    1.0886096   -7.0373958    172.08036   0.03237027  0.032991137            3 
  444000    1.0728507   -7.0572942    171.79529  0.032243861  0.032975058            2 
  445000    1.0731919   -7.0703314    171.99293  0.032208414  0.032958569            2 
  446000    1.0936487    -7.043096    173.08507  0.032340261  0.032942363            2 
  447000    1.0734361   -7.0608909    173.09791  0.032270304  0.032926299            7 
  448000    1.0416622   -7.0747673    173.50553  0.032274094  0.032909175            5 
  449000    1.0644852   -7.0421284    173.87314  0.032270441  0.032892669            2 
  450000     1.081705   -7.0798303    173.77397  0.032180366  0.032876571            2 
  451000    1.0584251   -7.0423387    174.22538   0.03219242  0.032859944            1 
  452000    1.0867864    -7.050093    174.94679  0.032254201  0.032843382            2 
  453000    1.0705634   -7.0776218     174.5565  0.032111203  0.032826052            4 
  454000    1.0741955    -7.036476    175.75276  0.032260051  0.032809418            1 
  455000    1.0817699   -7.0254817    175.74779   0.03218824  0.032793933            1 
  456000    1.0797948   -7.0127579    176.28576  0.032215965  0.032778392            1 
  457000    1.0752702   -7.0479385    176.39626  0.032165621  0.032762674            2 
  458000    1.0702649    -7.048078    176.31134  0.032079938  0.032746529            1 
  459000    1.0772206   -7.0631483    176.82037  0.032102464  0.032730255            2 
  460000     1.086032   -7.0715034    177.32129  0.032123421   0.03271455            2 
  461000    1.0459623   -7.0938726    177.65552  0.032114157   0.03269813            2 
  462000    1.0810719     -7.07566     177.8957  0.032087968   0.03268229            1 
  463000    1.0572458   -7.0568003    178.33218  0.032097225  0.032666668            1 
  464000    1.0921465   -7.0800858    179.24633   0.03219223  0.032651055            1 
  465000    1.0642057   -7.0801686    178.85696  0.032053218  0.032635364            3 
  466000    1.0763863   -7.0662607    179.30249  0.032064108  0.032620137            2 
  467000    1.0575729   -7.0532669    179.58743  0.032046293  0.032605111            1 
  468000    1.0670829   -7.0545081    179.59642   0.03197942  0.032589196            2 
  469000    1.0591846   -7.0570165     179.8955  0.031964375  0.032573795            1 
  470000    1.0754107   -7.0896932    180.08188  0.031929411  0.032557733            2 
  471000    1.0535423   -7.0496602    180.75614  0.031980916  0.032542069            2 
  472000     1.072079   -7.0453935    181.26285  0.032002622  0.032526967            1 
  473000    1.0772588    -7.099741    180.80194  0.031853759  0.032511094            4 
  474000    1.0680395   -7.0961191    181.37689  0.031887639  0.032494521            7 
  475000    1.0988871   -7.0904287    182.01054  0.031931674  0.032478746            2 
  476000    1.0539806   -7.0618705    182.28828  0.031913215  0.032463729            2 
  477000    1.0658647   -7.1012992    183.06223  0.031981521  0.032448901            3 
  478000    1.0643055   -7.0674193    183.41518  0.031976147  0.032434077            2 
  479000    1.0446135   -7.1271889    183.64332  0.031949081  0.032419502            1 
  480000    1.0947555   -7.0767806    183.71569  0.031895086  0.032405161            3 
  481000    1.0682297    -7.075464     183.7468  0.031834165  0.032390677            2 
  482000     1.062517   -7.1042347    184.57529  0.031911358  0.032375561            3 
  483000    1.0755475   -7.0839218    184.53753  0.031838773  0.032360949            2 
  484000    1.0539414   -7.1097622    184.18703  0.031712643  0.032345619            4 
  485000    1.0540186   -7.1054409    184.92317  0.031773741   0.03233101            3 
  486000    1.0596986   -7.0371447    186.32601  0.031948905   0.03231608            3 
  487000    1.0644583   -7.0826312    185.82846  0.031798163  0.032301159            2 
  488000    1.0642209   -7.0653874    186.01405  0.031764694  0.032286477            3 
  489000     1.046574   -7.1059922    186.44128  0.031772542  0.032272313            1 
  490000    1.0674652   -7.0831575    187.03353  0.031808424  0.032258102            3 
  491000    1.0285734   -7.0991487    187.70992  0.031858438  0.032243983            3 
  492000    1.0615609   -7.0962801    187.84867  0.031817187  0.032229909            7 
  493000    1.0431179   -7.1024492    187.83752  0.031750765  0.032215198            2 
  494000    1.0511349   -7.0801602    188.24681  0.031755534  0.032200672            3 
  495000     1.050226   -7.1267197    188.06232  0.031660323  0.032185518            2 
  496000    1.0440431    -7.043899    188.65278  0.031695696   0.03217045            2 
  497000    1.0496654   -7.1020278    189.32141  0.031744032  0.032155936            2 
  498000    1.0340239   -7.1135312    189.46602  0.031704489   0.03214117            2 
  499000    1.0411495   -7.1064863    189.53057  0.031651732  0.032126792            2 
  500000     1.080146   -7.1011223    189.72993  0.031621656   0.03211243            4 
  501000    1.0536182   -7.1236015    190.60468  0.031704038  0.032097665            3 
  502000    1.0487658   -7.0752227    190.99353  0.031705434  0.032083094            3 
  503000    1.0550271   -7.1397697    191.06374  0.031654032  0.032068361            1 
  504000    1.0501119   -7.0899524    191.84647  0.031720646  0.032053856            3 
  505000    1.0573153   -7.1031981    191.87681   0.03166284  0.032039692            2 
  506000    1.0404625   -7.1083039    192.16515  0.031647752  0.032025483            2 
  507000    1.0570196   -7.0654543     192.1521  0.031583185  0.032011606            1 
  508000    1.0505149   -7.1009701    193.17596   0.03168897   0.03199768            2 
  509000    1.0395216   -7.1051561    193.39496  0.031662567  0.031984044            1 
  510000    1.0363752    -7.117746    193.14645  0.031559878  0.031969545            4 
  511000    1.0621185   -7.1385151     193.1482  0.031498402  0.031954861            2 
  512000    1.0533465   -7.1232648     193.5174  0.031496973  0.031940655            3 
  513000    1.0319909     -7.08719    194.42762  0.031583435   0.03192685            1 
  514000    1.0474973    -7.092826    194.42199  0.031521075  0.031912892            2 
  515000    1.0485598   -7.1254408    194.43552  0.031462058  0.031898852            2 
  516000    1.0421128   -7.1202828    195.26098  0.031534396  0.031884374            2 
  517000    1.0399965   -7.1343713    194.87718  0.031411537  0.031869463            1 
  518000    1.0645128   -7.0755445    195.95747   0.03152469  0.031854964            3 
  519000    1.0518275   -7.1320489    195.89725   0.03145428  0.031840774            1 
  520000    1.0174993   -7.1152395    195.82723  0.031382568  0.031826225            1 
  521000    1.0485883   -7.1084966    196.24624  0.031389354  0.031811725            1 
  522000    1.0269928   -7.1267664    196.15582  0.031314787  0.031796788            1 
  523000    1.0366108   -7.1206607    196.93189  0.031378567  0.031781853            1 
  524000    1.0263849   -7.0927411    197.22136   0.03136472  0.031767146            4 
  525000    1.0271756   -7.1227277    197.14216  0.031292406   0.03175284            2 
  526000    1.0275465   -7.0914872    197.45714  0.031282817  0.031738508            5 
  527000    1.0529869   -7.1007552    198.97871   0.03146406  0.031724759            2 
  528000    1.0252767   -7.1315659    198.68628  0.031358315  0.031711111            1 
  529000    1.0468756    -7.150577    199.49061  0.031425742  0.031697545            2 
  530000    1.0495146   -7.0955214    199.28399   0.03133396  0.031683856            4 
  531000    1.0512998   -7.1251571    199.48605  0.031306662  0.031669755            3 
  532000      1.05276   -7.1261709    199.33297  0.031223837   0.03165567            3 
  533000    1.0471684   -7.0961888    200.09182  0.031283899  0.031641056            3 
  534000    1.0388799   -7.1431039    200.29778  0.031257457  0.031626205            2 
  535000     1.033924   -7.0916041     200.9544  0.031301309  0.031611405            2 
  536000    1.0707259    -7.131411    200.81598  0.031221391  0.031596699            2 
  537000    1.0588698   -7.0964208    200.99445  0.031190946  0.031581951            2 
  538000    1.0561176   -7.1131374    200.89698  0.031117872  0.031567161            1 
  539000    1.0500501   -7.1275489    201.79158  0.031198451  0.031552401            1 
  540000    1.0364875   -7.1450772    201.09924  0.031033833  0.031536989            2 
  541000    1.0362996   -7.1401086    201.44898  0.031030342   0.03152183            2 
  542000    1.0415985   -7.1095369    202.05193  0.031065795  0.031506876            5 
  543000    1.0314154   -7.1351922    202.66043  0.031101968   0.03149149            2 
  544000    1.0514284    -7.154087    202.23912  0.030980258  0.031476085            3 
  545000    1.0585414    -7.122477    203.14969  0.031062643  0.031460852            1 
  546000    1.0432653   -7.1207596    202.15021  0.030853206  0.031445834            7 
  547000     1.025239   -7.1138039    203.42998   0.03099177  0.031430318            3 
  548000    1.0602606   -7.1374769    203.05398  0.030878038  0.031414894            2 
  549000    1.0398031   -7.1113754    204.02149  0.030968653   0.03139975            3 
  550000    1.0542188   -7.1373833    203.51029  0.030834892  0.031384701            2 
  551000    1.0206979   -7.1571159     204.3245  0.030902073  0.031368886            3 
  552000    1.0132131   -7.1290962    204.24994  0.030834834   0.03135304            2 
  553000     1.023859   -7.1045368    204.84972  0.030869457  0.031337141            2 
  554000    1.0389361   -7.1444905    203.89836  0.030670632  0.031320758            2 
  555000    1.0207834    -7.163366    204.64481  0.030727448  0.031304027            2 
  556000    1.0186933   -7.1482738    204.00844  0.030576804  0.031286952            3 
  557000    1.0419842   -7.1738164    204.47209  0.030591277  0.031269726            3 
  558000    1.0384525   -7.1625737     205.3673  0.030670146  0.031252605            1 
  559000     1.024533   -7.1157602    206.08184    0.0307218  0.031236105            4 
  560000    1.0297415   -7.1768371    205.77445  0.030621197   0.03121939            3 
  561000   0.99805602   -7.1843323    206.04279  0.030606476  0.031202452            2 
  562000    1.0317654   -7.1958722    206.54765  0.030626875  0.031185784            1 
  563000    1.0302083   -7.1360507    207.14317  0.030660623  0.031169145            2 
  564000    1.0218833   -7.1430777    207.48616  0.030656939  0.031152409            2 
  565000     1.022375   -7.1665374    207.11372  0.030547746  0.031135615            2 
  566000    1.0402359   -7.1815287    207.89506  0.030608814  0.031119299            2 
  567000    1.0280434   -7.1508121    208.17421  0.030595856  0.031103144            2 
  568000    1.0151308   -7.2123229    207.64561  0.030464438  0.031086561            2 
  569000    1.0306313   -7.1588915    208.29156  0.030505501  0.031070516            3 
  570000    1.0491678   -7.1579313    209.53517  0.030633797  0.031054825            4 
  571000    1.0314572   -7.1451144    209.15177  0.030524192  0.031038757            2 
  572000    1.0233566   -7.1634252    209.81083  0.030566846  0.031022731            3 
  573000    1.0187562   -7.1564557    209.45599  0.030461894  0.031006388            3 
  574000    1.0190058   -7.1675009    209.75626  0.030452419  0.030989853            2 
  575000    1.0509196   -7.1912451    210.66957  0.030531821  0.030973738            2 
  576000    1.0214079   -7.1853201    210.01647  0.030384328  0.030957592            3 
  577000    1.0104566   -7.2033398    210.50062  0.030401592  0.030941066            2 
  578000    1.0352397   -7.1537337    211.83896  0.030541949  0.030924976            3 
  579000    1.0227069   -7.1263576     211.6217   0.03045793  0.030909095            1 
  580000     1.023941   -7.2129825    211.49364  0.030387017  0.030893279            2 
  581000     1.028036   -7.1798394    212.15835  0.030430056  0.030877123            3 
  582000    1.0340214   -7.1852368    212.12947  0.030373635  0.030860674            5 
  583000    1.0176405   -7.1857848     212.1109  0.030318883  0.030844036            2 
  584000     1.002405   -7.1749069    211.91545  0.030239076  0.030827272            2 
  585000    1.0156046   -7.1718351    212.68494  0.030296999  0.030810804            2 
  586000     1.017956   -7.1619081    213.56198   0.03037002  0.030794488            2 
  587000    1.0203647   -7.1351653    213.11624  0.030255003  0.030778318            4 
  588000     1.019457   -7.1571602    213.21467  0.030217499  0.030762137            2 
  589000    1.0293065   -7.1843899    213.39158  0.030191225   0.03074507            2 
  590000    1.0232128   -7.1675311    213.85013  0.030204821  0.030728255            1 
  591000    1.0249215   -7.1727793     213.8395  0.030152214  0.030710968            2 
  592000    1.0235669   -7.2050289    213.52997  0.030057709  0.030693719            2 
  593000    1.0171857   -7.1967938    214.00611  0.030073933  0.030675875            5 
  594000     1.028574    -7.139428    215.12011  0.030179588   0.03065867            3 
  595000   0.98948222   -7.1561451    214.34943  0.030020929  0.030641221            2 
  596000    1.0115803   -7.2036782    214.43899  0.029983081  0.030623346            2 
  597000    1.0239684   -7.1824041    214.17686  0.029896267  0.030604889            2 
  598000     1.011537   -7.2226669     214.1616  0.029844147  0.030586415            2 
  599000     1.038398   -7.1654467    215.10813  0.029926006  0.030568192            2 
  600000    1.0113411   -7.2055505     214.5143  0.029793652  0.030549585            2 
  601000    1.0237241    -7.170479    215.14727  0.029831846  0.030530809            3 
  602000    1.0158677    -7.200144    215.21382  0.029791504  0.030512085            4 
  603000    1.0216431   -7.1776859    215.76881  0.029818796  0.030492683            2 
  604000    1.0045871   -7.1742006    215.96132  0.029795987   0.03047349            3 
  605000    1.0056112   -7.1267914    215.72396  0.029714044  0.030454456            6 
  606000    1.0327203   -7.1973375    215.36868  0.029616155  0.030435293            1 
  607000    1.0158566   -7.1854531    216.38556  0.029706969  0.030416038            2 
  608000    1.0218886   -7.1805016    216.41509  0.029662156  0.030397029            1 
  609000    1.0101588   -7.1773363    216.80848  0.029667279  0.030377727            3 
  610000   0.98988127   -7.1855561    216.59495  0.029589474  0.030358787            2 
  611000   0.99635933   -7.1973593    216.58153  0.029539216    0.0303393            3 
  612000    1.0023845   -7.1878492    217.25588  0.029582772  0.030320091            2 
  613000   0.98182061   -7.2055718    217.29559  0.029539911  0.030300959           14 
  614000    1.0173314   -7.1980738    218.17764  0.029611515  0.030281913            2 
  615000    1.0105566   -7.2329288    217.78415  0.029510048  0.030262853            2 
  616000    1.0139107   -7.2122837    218.59364   0.02957165  0.030243702            3 
  617000   0.99769551   -7.1907525    218.43392   0.02950215  0.030224774            2 
  618000    1.0170155   -7.2149971    218.68995  0.029488936  0.030205682            1 
  619000    1.0011358   -7.2343099    218.44869  0.029408817  0.030186653            5 
  620000   0.99551535   -7.2239226    218.24901  0.029334545  0.030167355            3 
  621000   0.99223617   -7.2221568    219.13349  0.029405997  0.030148171            3 
  622000    1.0181976   -7.2122448    219.41156  0.029395975  0.030129008            6 
  623000    1.0033519   -7.2026412    218.97178  0.029289965  0.030109365            2 
  624000    1.0135971   -7.2113964    219.81614  0.029355788  0.030090078            3 
  625000    1.0063954   -7.2386672    219.98127  0.029330837  0.030070403            1 
  626000   0.99647753   -7.1741607    220.11925   0.02930235  0.030050757            5 
  627000   0.98426644   -7.1939865    220.54905   0.02931274  0.030030957            3 
  628000   0.99889001   -7.1983268    220.40795   0.02924734  0.030011127            2 
  629000    1.0251735   -7.2249431    220.45824  0.029207504   0.02999155            1 
  630000   0.99744834    -7.184768     221.4221  0.029288637  0.029971942            1 
  631000    1.0156164   -7.2304111    221.15729  0.029207249  0.029952262            3 
  632000   0.99786083   -7.2063128    221.54014  0.029211517  0.029932427            1 
  633000   0.98666769   -7.2365883    221.41792  0.029149279  0.029912649            1 
  634000    1.0249403   -7.2344402    221.26307  0.029082948  0.029892922            1 
  635000   0.98989385   -7.2218144    222.15123  0.029153705  0.029872961            3 
  636000   0.98233984   -7.1806138    223.06988  0.029228234  0.029853319            3 
  637000   0.99558623   -7.1939012    222.20624  0.029069367  0.029833821            5 
  638000   0.99517944   -7.2295704    222.70445  0.029088878  0.029814014            4 
  639000    1.0101007    -7.217926    222.45993  0.029011467  0.029794103            1 
  640000   0.97791556   -7.1908799    222.80367  0.029010895  0.029774397            1 
  641000    1.0066365   -7.2140349    222.90402  0.028978682  0.029754698            1 
  642000    1.0078497   -7.2494317    222.89036   0.02893177  0.029734443            2 
  643000    1.0120253   -7.2276435    223.26562   0.02893541  0.029714434            2 
  644000    1.0068409   -7.2481403    223.23557   0.02888659  0.029694432            3 
  645000     0.990416   -7.2033152    223.91031  0.028928981  0.029674727            2 
  646000   0.97281943   -7.1975189    224.20312  0.028921971  0.029655099            2 
  647000   0.99281028   -7.2131638    224.47175  0.028911869  0.029635183            6 
  648000    1.0185023   -7.2004443    224.41502  0.028859957   0.02961515            2 
  649000   0.99657367   -7.2438882    224.29045  0.028799492  0.029594876            2 
  650000   0.97369771   -7.2224363    224.58801  0.028793335  0.029574624            2 
  651000    1.0047025   -7.2148269    224.52436  0.028740957  0.029554458            4 
  652000    1.0003013   -7.1941254    225.12245  0.028773319   0.02953432            3 
  653000   0.99808264   -7.1990912    224.90519   0.02870153  0.029514203            1 
  654000   0.97421259   -7.2140727    225.12521  0.028685679  0.029493837            1 
  655000   0.99433747   -7.2241475    225.58841  0.028700815  0.029473496            3 
  656000    1.0050723    -7.203754    225.72404  0.028674294  0.029453154            1 
  657000    1.0163203   -7.2112045    225.31451  0.028578704  0.029432744            2 
  658000   0.98521291   -7.2184251    226.31303  0.028661732  0.029412516            4 
  659000   0.99824662   -7.2375068    226.10209  0.028591564  0.029392244            9 
  660000    1.0148272   -7.2163391    225.93964  0.028527732  0.029372049            2 
  661000   0.99783124   -7.2283142    226.83008  0.028596833  0.029351817            2 
  662000    1.0108489   -7.2096156    227.05583  0.028582054  0.029331611            4 
  663000   0.98138053   -7.2396721    227.11835  0.028546801  0.029311468            3 
  664000      0.99948   -7.2359906    227.30034  0.028526649  0.029291117            2 
  665000   0.99511035   -7.2522133     227.1877  0.028469636   0.02927066            4 
  666000   0.96224784   -7.2393912    228.22508  0.028556692   0.02925051            1 
  667000   0.99121998   -7.2318553    228.70527  0.028573871  0.029230406            1 
  668000   0.99346966   -7.2510033     228.4243  0.028496045  0.029210603            2 
  669000     1.001893   -7.2254047     228.7597  0.028495229  0.029190853            1 
  670000    1.0003425   -7.2561236    228.12496  0.028373751  0.029171272            4 
  671000   0.97661717   -7.2329846    229.24755  0.028470883  0.029151682            2 
  672000   0.98585166   -7.2393624    229.39519  0.028446824  0.029132509            5 
  673000   0.99806474   -7.2460734    229.81218  0.028456188  0.029113167            1 
  674000   0.96851489   -7.2553583    230.60275  0.028511715   0.02909418            3 
  675000   0.98177885   -7.2691915     230.2406  0.028424765  0.029074931            6 
  676000   0.96131221   -7.2450715    230.34321  0.028395367  0.029055446            2 
  677000   0.98618575   -7.2643914    230.57043  0.028381392  0.029036061            3 
  678000   0.97195363   -7.2270675     231.0075  0.028393252  0.029016703            3 
  679000   0.97313729   -7.2497158      231.152   0.02836917  0.028997395            3 
  680000   0.99411541   -7.2489905    231.61523  0.028384219  0.028978416            2 
  681000   0.99062337   -7.2910977     231.1151  0.028281339   0.02895943            2 
  682000   0.96955652   -7.2488458    231.76135  0.028318835  0.028940394            2 
  683000   0.97363569   -7.2177308    232.55519   0.02837423  0.028921387            2 
  684000   0.99115671   -7.2460787    232.48924  0.028324712  0.028902441            2 
  685000   0.99627684   -7.2452135    233.11578  0.028359583  0.028883725            2 
  686000   0.96714398   -7.2336005    233.40311  0.028353147  0.028865243            6 
  687000    1.0224025   -7.2339816     233.1958   0.02828673  0.028846933            2 
  688000   0.95274206   -7.2647884    232.88024  0.028207393  0.028828294            5 
  689000   0.98093681   -7.2538626    233.94323   0.02829502  0.028809881            2 
  690000   0.97155105   -7.2375903    234.42745  0.028312494  0.028791434            3 
  691000    1.0084072   -7.2509003    234.45349  0.028274661  0.028773365            2 
  692000    0.9738457   -7.2922864    233.81885  0.028157376  0.028755534            2 
  693000   0.96409718   -7.2580332    234.59223  0.028209744   0.02873746            3 
  694000    0.9698305   -7.2694439    234.91908  0.028208343  0.028719296            2 
  695000   0.95952495   -7.3166845    234.87174  0.028162079  0.028701083            4 
  696000   0.96856588   -7.2993137    234.38247  0.028063035   0.02868244            2 
  697000    0.9837673   -7.2589239     235.8118  0.028193664  0.028663964            1 
  698000   0.98658059   -7.2610024    236.13343   0.02819167  0.028645348            3 
  699000   0.97345028   -7.2307007    235.37433   0.02806084  0.028626731            4 
  700000   0.96019541   -7.2502407    235.86177  0.028078782  0.028608042            2 
  701000   0.96638849   -7.2704958    235.98269  0.028053101  0.028589147            2 
  702000   0.96869655   -7.2560163    235.53912  0.027960484  0.028569907            2 
  703000   0.98396463   -7.3197461    235.68096  0.027937524  0.028550588            2 
  704000   0.99211544    -7.277792    236.33981   0.02797583  0.028531582            2 
  705000   0.96752513   -7.2450547    236.31578  0.027933307  0.028512727            2 
  706000   0.98259601   -7.2875485    236.55081  0.027921484  0.028493987            3 
  707000   0.96487059   -7.2709952    237.05737  0.027941698  0.028475217            1 
  708000   0.97698668   -7.2866353    236.91306  0.027885247   0.02845661            7 
  709000   0.96151125   -7.2702536    236.90431  0.027844888  0.028437562            2 
  710000   0.97683368   -7.2686859    236.79843  0.027793243  0.028418677            2 
  711000   0.98149048   -7.3053122    238.23236  0.027922218  0.028399762            2 
  712000   0.96558752   -7.2716353    238.02334  0.027858537  0.028381071            2 
  713000   0.95321102   -7.2895065    237.66406  0.027777473  0.028362074            2 
  714000   0.96270952   -7.2463197    238.00723  0.027778622   0.02834308            3 
  715000    0.9745032   -7.2801921    237.54871   0.02768633  0.028324004            1 
  716000   0.97894557   -7.2698691    238.18872   0.02772215  0.028304886            2 
  717000    0.9607411   -7.2855589    238.92501  0.027769062  0.028285726            6 
  718000   0.95813961   -7.2907715    238.71437  0.027705939  0.028266472            4 
  719000   0.97243814   -7.2754576    239.07497  0.027709199  0.028247305            4 
  720000   0.95068172   -7.3223324    238.79727  0.027638573  0.028228286            3 
  721000      0.97836   -7.2767039    238.88436  0.027610305  0.028209294            4 
  722000   0.95190036   -7.2419368    239.96061  0.027696285  0.028190283            2 
  723000   0.94280086   -7.2831386    239.94629  0.027656327  0.028171233            2 
  724000   0.98794051   -7.3045587    239.21981  0.027534508  0.028151911            1 
  725000   0.95677765   -7.2791506    240.03982  0.027590783  0.028132653            2 
  726000   0.96787706   -7.3195558    240.02918  0.027551559  0.028113291            1 
  727000   0.94144104   -7.2885752     240.1743  0.027530295  0.028093929            2 
  728000   0.95792511   -7.2865821     240.2983  0.027506673  0.028074937            1 
  729000    0.9731328   -7.3213007    240.27289  0.027466037  0.028055819            2 
  730000    1.0044277    -7.289366    241.82923  0.027606076    0.0280367            4 
  731000   0.96392402   -7.3141944    240.22038  0.027384904  0.028017776            2 
  732000   0.95805523   -7.2882363    241.82573  0.027530251  0.027998742            1 
  733000   0.94671397   -7.3140346    240.98887  0.027397552  0.027979766            2 
  734000   0.95484153   -7.2850083    241.45223  0.027412832   0.02796048            2 
  735000    0.9759475   -7.2950039    241.24382  0.027351907   0.02794115            2 
  736000    0.9495151   -7.3005663    241.69284  0.027365584  0.027921824            1 
  737000   0.95282076   -7.3068453    241.31506  0.027285737   0.02790272            3 
  738000   0.96525958   -7.3168829    241.94459  0.027319849  0.027883674            1 
  739000   0.98114562   -7.3236643    241.90562  0.027278487  0.027864609            2 
  740000   0.96323467   -7.3084542    242.43712  0.027301477  0.027845519            3 
  741000   0.98003792   -7.3146873    243.48625  0.027382619  0.027826824            2 
  742000   0.95966888   -7.2876816    243.19519  0.027313026  0.027808454            4 
  743000   0.96669609   -7.3137594     243.9758  0.027363817  0.027790232            3 
  744000   0.95230955   -7.2958642    243.62406  0.027287641  0.027772021            1 
  745000   0.96956783   -7.3405805    244.21191  0.027316768  0.027753585            3 
  746000    0.9534716   -7.3294012    244.20478  0.027279354  0.027735336            3 
  747000   0.96001867   -7.3018032    244.79549  0.027308734   0.02771713            1 
  748000   0.96211848   -7.3231058    244.86419  0.027279879  0.027698994            1 
  749000   0.96149114   -7.3097607    245.82713  0.027350593  0.027681078            2 
  750000   0.96031228   -7.2837188    245.24747  0.027249719  0.027663104            9 
  751000   0.95812398   -7.3534594    245.29109  0.027218275  0.027645138            3 
  752000   0.98679361   -7.3048064    246.02423  0.027263324  0.027627068            2 
  753000    0.9362433   -7.3014263    245.74357  0.027196057  0.027609153            2 
  754000   0.97091635   -7.2963436    245.66286  0.027151068  0.027591143            2 
  755000   0.96955266   -7.3252289    245.77113  0.027127056  0.027573025            2 
  756000   0.97704363   -7.3329442    245.16712  0.027024595  0.027554668            1 
  757000   0.94868464    -7.298675    245.74563  0.027052579  0.027535915            3 
  758000   0.94854066   -7.3496185     245.3363  0.026971888  0.027517119            4 
  759000   0.95786448   -7.3209343    246.30825  0.027043067  0.027498399            2 
  760000   0.93247704   -7.3357612     246.1482  0.026989934  0.027479646            2 
  761000   0.95284266   -7.3483721    246.26502   0.02696726   0.02746124            1 
  762000    0.9291377   -7.2884571    247.03384   0.02701595  0.027442898            1 
  763000   0.94975738    -7.298254    247.37414  0.027017709  0.027424701            2 
  764000   0.97745863   -7.3246481     246.5547  0.026892965  0.027406343            1 
  765000   0.95754053    -7.296518    247.73263  0.026986126  0.027387958            5 
  766000   0.95940677   -7.2986427    248.08066  0.026988757  0.027369487            2 
  767000   0.96545084    -7.326513    246.91029  0.026826412  0.027350765            3 
  768000   0.93420269   -7.3533558    247.03602  0.026805124  0.027331991            6 
  769000   0.94651534   -7.3529549    246.84397  0.026749454  0.027313319            3 
  770000   0.92336629   -7.3125242    248.16309  0.026857477   0.02729468            2 
  771000   0.95997947   -7.3513568    247.85313  0.026789141  0.027276169            2 
  772000    0.9381033   -7.3485059    247.82517  0.026751422  0.027257382            3 
  773000   0.93409639   -7.3477243    248.23614  0.026761119  0.027238484            3 
  774000   0.95413437   -7.3465809    247.66497  0.026665048  0.027219607            1 
  775000   0.94785744   -7.3177225    248.27514  0.026696252  0.027200743            1 
  776000   0.96604254    -7.330337     248.9603  0.026735428  0.027181953            3 
  777000   0.92884026   -7.3332177    248.49724  0.026651356  0.027163174            2 
  778000   0.94033497   -7.3767681    248.72493  0.026641488  0.027144323            1 
  779000   0.93690961   -7.3353799     248.5401  0.026587516  0.027125365            2 
  780000   0.93025947   -7.3298229    249.75672   0.02668341  0.027106375            1 
  781000   0.92128179   -7.3656112    249.16089  0.026585669  0.027087332            1 
  782000   0.95284348   -7.3348837    249.55243  0.026593396    0.0270684            3 
  783000   0.92947843   -7.3345743    250.13262  0.026621182  0.027049489            2 
  784000   0.93153523   -7.3744751    249.72801  0.026544219  0.027030606            3 
  785000   0.94510936   -7.3555764    249.62119  0.026499065  0.027011782            2 
  786000   0.92919229   -7.3470211    250.07341  0.026513297  0.026992864            2 
  787000   0.93731821   -7.3169237    250.60548  0.026535947  0.026974297            3 
  788000   0.95299816   -7.3794148    250.57544  0.026499095  0.026955845            2 
  789000    0.9471033    -7.301888     250.4258  0.026449704  0.026937122            2 
  790000   0.93903982   -7.3498851    251.16685  0.026494393  0.026918436            2 
  791000    0.9426653   -7.3678758    251.50775  0.026496814  0.026899858            3 
  792000   0.94554726    -7.368872    251.35442  0.026447224  0.026881421            3 
  793000   0.94915409   -7.3539424     251.2869  0.026406778  0.026863021            3 
  794000   0.93216238   -7.3838162     251.7306  0.026420089  0.026844445            3 
  795000    0.9351213   -7.3607206    251.82124  0.026396357  0.026826029            2 
  796000   0.94015619    -7.331506    252.60672  0.026445427  0.026807604            2 
  797000   0.94810965   -7.4018447     251.7408  0.026321706  0.026789191            4 
  798000   0.93194641   -7.3698788    252.47903  0.026365814  0.026770851            3 
  799000   0.93951226   -7.3928227    252.60051  0.026345484  0.026752622            1 
  800000   0.95601412   -7.3894699     252.5453  0.026306802  0.026734218            4 
  801000   0.93470616   -7.3555857    253.30798  0.026353306  0.026716042            3 
  802000    0.9256712   -7.3591298    253.09886  0.026298717  0.026697776            2 
  803000   0.93046989   -7.3720579    253.82568  0.026341394  0.026679492            2 
  804000   0.92452784   -7.3616552    253.16357  0.026240005  0.026661198            2 
  805000   0.91265488   -7.3598677     252.7724  0.026166915  0.026642868            3 
  806000   0.91088037   -7.3724407    253.93874  0.026255039  0.026624614            3 
  807000   0.93361954   -7.3359973    252.82271   0.02610726  0.026606126            1 
  808000   0.91865614   -7.3274373    253.74814  0.026170394  0.026587663            2 
  809000   0.94170161   -7.3450506    253.89378  0.026153047  0.026569164            4 
  810000   0.93282411    -7.364307    253.85571  0.026116843  0.026550682            1 
  811000   0.91559725   -7.3561433    254.06087  0.026105721  0.026532235            3 
  812000   0.90830013   -7.3324182    253.94352  0.026061527  0.026513742            3 
  813000   0.94179533   -7.3545927    254.64738  0.026101617  0.026495418            3 
  814000   0.94496878   -7.3750721    255.16238  0.026122275  0.026477164            2 
  815000   0.92852702    -7.383171    254.82475    0.0260557  0.026458817            2 
  816000   0.91891666    -7.372282     255.2373  0.026065901  0.026440652            2 
  817000   0.93747608    -7.389239    254.86495  0.025996017  0.026422504            3 
  818000   0.94151316   -7.4022664    254.90956  0.025968782  0.026404206            5 
  819000   0.92777329   -7.3615229    255.19285  0.025965899  0.026385768            2 
  820000   0.90157835     -7.39989    255.40741  0.025956037   0.02636756            3 
  821000   0.94402954   -7.3903456     256.1299  0.025997757  0.026349294            2 
  822000   0.91920915   -7.3877511    256.06156  0.025959201  0.026331054            3 
  823000   0.91625276   -7.3369639    256.70115  0.025992421  0.026312948            2 
  824000   0.93455557   -7.3388765    257.43916  0.026035513  0.026295081            4 
  825000    0.9230255   -7.3557892    256.44406   0.02590344  0.026277083            2 
  826000    0.9113825   -7.4046696    256.10436  0.025837809  0.026258851            3 
  827000   0.93091611   -7.3608175    257.58346  0.025955608  0.026240922            3 
  828000   0.93488413   -7.3525424    256.81918  0.025847341  0.026223311            1 
  829000   0.92078015   -7.3997054    257.41995  0.025876553  0.026205574            2 
  830000   0.90641307   -7.3509243    257.88579  0.025892147  0.026188046            2 
  831000   0.93347627   -7.3765151    258.15159  0.025887644  0.026170561            3 
  832000   0.92489177   -7.3988219    257.05927  0.025747122  0.026152917            2 
  833000    0.9287268   -7.3965996     258.4178  0.025852121  0.026135245            3 
  834000   0.92793144    -7.388852      259.008  0.025880096  0.026117388            5 
  835000   0.90744583   -7.3873932    258.80239  0.025828582  0.026099674            3 
  836000   0.92967558   -7.3600767    259.16044  0.025833377  0.026082058            2 
  837000   0.90885215   -7.4080315    258.10758  0.025697688  0.026064559            3 
  838000   0.90893859   -7.4056305    259.13108  0.025768803  0.026046975            3 
  839000   0.89739232   -7.4261607    258.80352  0.025705554  0.026029224            3 
  840000   0.91208419   -7.3813874    259.95147  0.025788836  0.026011654            1 
  841000      0.90173   -7.4110029    259.56918  0.025720291  0.025994326            1 
  842000   0.92689108   -7.3607961    260.04162  0.025736502  0.025976894           10 
  843000   0.91395795   -7.4158732    259.42503   0.02564502  0.025959278            2 
  844000   0.91085329   -7.3860559    260.16844  0.025688037  0.025941589            6 
  845000   0.91765766    -7.383197    260.44191  0.025684606  0.025923813            2 
  846000   0.90403083    -7.380706    260.90185  0.025699552  0.025906184            7 
  847000   0.93592799   -7.3851243    259.62571  0.025543655  0.025888607            3 
  848000   0.92972589   -7.4156248    259.87044  0.025537582  0.025870826            1 
  849000   0.91319443    -7.418161    260.84628  0.025603287   0.02585322            1 
  850000   0.93035021   -7.4132557    261.17196  0.025605094  0.025835809            2 
  851000     0.936194   -7.4033315    261.43799  0.025601056  0.025818404            3 
  852000   0.90154964   -7.3877866    261.70383   0.02559701  0.025800985            3 
  853000   0.92171347   -7.3885444    261.79368   0.02557578  0.025783756            2 
  854000   0.89914766   -7.3916885     261.1759  0.025485549  0.025766397            1 
  855000    0.9261185   -7.4087664    261.55738  0.025492922  0.025748808            3 
  856000   0.91953974   -7.3966103    261.60302  0.025467584  0.025731032            2 
  857000   0.91224906   -7.3890863     261.4791  0.025425816  0.025713114            5 
  858000   0.92077945   -7.4088472    261.39928   0.02538843  0.025695332            2 
  859000   0.90976876   -7.4378853    262.01579  0.025418683  0.025677466            2 
  860000   0.92990718   -7.4326882     261.5849  0.025347374  0.025659579            3 
  861000   0.91068885   -7.3913705    261.82532  0.025341204  0.025641787            2 
  862000   0.89078448   -7.3981252    261.73664  0.025303233   0.02562403            3 
  863000   0.92678215    -7.421192    262.39024  0.025337026  0.025606326            2 
  864000   0.90642048   -7.4165776    263.14797  0.025380784   0.02558855            2 
  865000   0.92781938   -7.4041537     262.9423  0.025331628  0.025570971            1 
  866000   0.91285977   -7.3660385    263.20923  0.025328063  0.025553621            3 
  867000   0.90470284   -7.4143609    263.10716  0.025289039  0.025536237            1 
  868000   0.89503084   -7.4117816    262.67789  0.025218691  0.025518598            2 
  869000   0.89068431   -7.4347826    262.68085  0.025189955  0.025500964            3 
  870000    0.9093843   -7.4380905    262.86903  0.025179026  0.025483081            2 
  871000   0.89712312    -7.413507    263.75566  0.025234946  0.025465474            5 
  872000   0.90576767   -7.4177905    263.78524  0.025208834  0.025447847            1 
  873000   0.89940906     -7.42868    263.73075  0.025174757  0.025430379            4 
  874000   0.91279828   -7.3754191    264.78663  0.025246628  0.025412976            2 
  875000     0.900656   -7.4136247    264.93574  0.025231976  0.025395743            2 
  876000   0.91397376   -7.4100108    264.59819  0.025171061  0.025378414            2 
  877000   0.90811899   -7.4357308     265.2126  0.025200741  0.025361076            1 
  878000    0.9065507   -7.4419884    264.35387  0.025090535  0.025343868            3 
  879000   0.90555896   -7.3761472    265.37043  0.025158365  0.025326939            2 
  880000    0.9012241   -7.4248055     264.7397  0.025070048  0.025309919            3 
  881000   0.91920619   -7.4399893    265.61739  0.025124611  0.025292816            3 
  882000   0.91913596   -7.4074058    265.91879  0.025124603  0.025275679            7 
  883000   0.90983113   -7.4437551    265.75971  0.025081135  0.025258527            2 
  884000   0.89708124   -7.4537998    265.53915  0.025031971  0.025241349            2 
  885000    0.9002076   -7.4494388    265.91075  0.025038677  0.025224077            2 
  886000   0.90434162   -7.4510268    265.77259  0.024997422   0.02520693            5 
  887000   0.90880511   -7.4380454    265.22339  0.024917643  0.025189688            3 
  888000   0.90073012   -7.4603484    266.54808  0.025013896  0.025172649            2 
  889000   0.90244635   -7.4301897    266.64852  0.024995175   0.02515576            1 
  890000   0.91741214   -7.4256761    266.27553  0.024932165  0.025138662            2 
  891000   0.88174219   -7.4511447    266.34712  0.024910879  0.025121354            4 
  892000   0.90563418   -7.4245488    266.62347   0.02490877  0.025103987            3 
  893000   0.90773717   -7.4681008    266.17158  0.024838707  0.025086846            6 
  894000   0.88420272   -7.4661681    266.34336  0.024826935  0.025069519            3 
  895000   0.88060987   -7.4442293     266.9814  0.024858604  0.025052132            3 
  896000     0.886273   -7.4567448    266.18976  0.024757232  0.025034631            4 
  897000    0.9009292   -7.4413193    268.00843   0.02489859  0.025017481            3 
  898000   0.87250001   -7.4013802    267.58288  0.024831374  0.025000352            3 
  899000   0.89987339   -7.4513565    267.08386  0.024757495  0.024983184            3 
  900000   0.88705411   -7.4337186    267.68182  0.024785354  0.024966036            3 
  901000   0.90292098   -7.4667245     268.0562  0.024792471  0.024949011            5 
  902000   0.89949901     -7.44399    268.04104  0.024763585  0.024931879            2 
  903000   0.90749421   -7.4720884    267.71828  0.024706375  0.024914815            2 
  904000   0.88110603    -7.433651    268.84624  0.024783023  0.024897765            1 
  905000   0.89094349   -7.4368027    268.80003  0.024751384  0.024880956            4 
  906000   0.87868286   -7.4234477    268.87824  0.024731258   0.02486392            3 
  907000    0.8944331    -7.484407    268.59815  0.024678257  0.024847016            2 
  908000   0.90363054   -7.4547699    268.69539  0.024660002   0.02483001            7 
  909000   0.90511308   -7.4711682    268.59048  0.024623257  0.024813036            4 
  910000   0.88788487   -7.4745546    268.59098  0.024596244  0.024796095            2 
  911000   0.88404528   -7.4756357    268.93763  0.024600954  0.024779064            2 
  912000   0.88960776   -7.4554054    269.21115  0.024598972  0.024761893            3 
  913000   0.89107938   -7.4489795    269.13729  0.024565287  0.024744705            3 
  914000   0.89398029    -7.451872    269.05375  0.024530794  0.024727716            3 
  915000    0.9022272   -7.4564789    269.63887  0.024557274  0.024710545            4 
  916000   0.88439395   -7.4650841    268.71391  0.024446316  0.024693212            2 
  917000    0.9101819   -7.4448678    269.97606  0.024534356  0.024675937            2 
  918000   0.88087619   -7.4521542    269.62551  0.024475809  0.024658629            1 
  919000   0.86866963   -7.4631244     270.0546  0.024488084  0.024641367            4 
  920000   0.87527561   -7.4837488    269.19573  0.024383672   0.02462408            3 
  921000   0.88467678   -7.4752704    269.66587  0.024399735  0.024606846            4 
  922000   0.87891265   -7.4440365    270.59457   0.02445721  0.024589518            1 
  923000   0.90529752   -7.4593475    270.56756  0.024428273  0.024572336            3 
  924000   0.88992601   -7.4813155    270.11828  0.024361317  0.024555092            2 
  925000   0.88869662   -7.4794237    270.47676  0.024367275  0.024537911            4 
  926000    0.8924621   -7.4474641      270.475  0.024340803  0.024520759            2 
  927000    0.8715376   -7.4758068    270.65284  0.024330533  0.024503703            1 
  928000   0.87047019   -7.4751556    270.26104  0.024269131  0.024486427            2 
  929000   0.86436248   -7.5196321    270.00057  0.024219642  0.024469203            4 
  930000   0.89416936   -7.4676901    271.41421  0.024320269  0.024452125            2 
  931000   0.89111693   -7.4773052    271.06875  0.024263225   0.02443492            5 
  932000    0.8890081   -7.4666846    271.42876  0.024269381  0.024417899            4 
  933000   0.88618805   -7.4922048    271.19641  0.024222616  0.024400904            3 
  934000   0.88259532   -7.4868675    272.06684  0.024274343  0.024383869            3 
  935000   0.88021524   -7.4850817    271.40999  0.024189838  0.024367031            2 
  936000   0.86178384   -7.5017828    271.04756  0.024131727  0.024349996            4 
  937000   0.90894663   -7.4878329    271.27424  0.024126133  0.024332727            5 
  938000   0.86552802   -7.4621314    272.43105  0.024203185  0.024315777            2 
  939000   0.88685059    -7.510373    272.14678  0.024152182  0.024298918            2 
  940000   0.87794519   -7.4718143    272.61789  0.024168253  0.024282039            3 
  941000   0.87924586    -7.484493    272.83956    0.0241622  0.024265219            4 
  942000    0.8633765   -7.5165391    272.57522  0.024113165  0.024248343            3 
  943000   0.88926949   -7.4961791    273.16019  0.024139289  0.024231612            4 
  944000   0.85548455    -7.496379    273.48701  0.024142568  0.024214821            3 
  945000   0.88193062   -7.4722633    272.99435  0.024073576   0.02419806            4 
  946000   0.85939761   -7.4889929    273.34633  0.024079134  0.024181179            2 
  947000   0.86414133    -7.502173    273.57781  0.024074077  0.024164255            3 
  948000   0.87135251   -7.4725482     273.4579  0.024038141  0.024147593            3 
  949000   0.87942832   -7.4844359    273.64116  0.024028904  0.024130819            5 
  950000   0.88123393   -7.4690029    274.02459  0.024037245  0.024114141            5 
  951000   0.88825307   -7.4647774    273.85421  0.023997039  0.024097514            3 
  952000   0.87064821    -7.489632    274.08781  0.023992281  0.024081018            3 
  953000   0.86476426   -7.4965102    273.24243  0.023893182  0.024064373            3 
  954000   0.87717801   -7.4959577    274.47846  0.023976106  0.024047704            3 
  955000   0.86391047   -7.5076746    274.11602  0.023919374  0.024031082            3 
  956000   0.88523863   -7.4848494    274.97671  0.023969378  0.024014352            3 
  957000   0.86463384    -7.504807    274.67898  0.023918406  0.023997579            4 
  958000   0.86789775   -7.4572538    275.22122  0.023940607  0.023980909            1 
  959000   0.88136248   -7.5023628    275.03249  0.023899243  0.023964273            3 
  960000   0.86902049   -7.5065427    275.19741  0.023888664  0.023947611            2 
  961000   0.86942838   -7.4857031    275.67968  0.023905626  0.023931042            1 
  962000   0.86384829   -7.5538761    274.80857  0.023805316  0.023914607            3 
  963000   0.86747191   -7.4913148    275.69914  0.023857662  0.023898168            3 
  964000    0.8560877    -7.491541    275.76052  0.023838219   0.02388172            4 
  965000   0.86792525    -7.490313    276.58922  0.023885079  0.023865408           13 
  966000   0.87383771   -7.4675459     276.6938  0.023869376  0.023849219            2 
  967000   0.87350079   -7.5022537    276.40621  0.023819908  0.023833031            3 
  968000   0.87277161   -7.5056676    276.15359  0.023773553  0.023816746            4 
  969000   0.88112736   -7.5049388    275.84144  0.023722174  0.023800352            3 
  970000   0.86333389   -7.5152197    276.28648  0.023735952  0.023783954            5 
  971000   0.86833386   -7.5151114    276.67523  0.023744871  0.023767445            6 
  972000   0.85385347   -7.5337422    276.96331   0.02374514  0.023751002            2 
  973000   0.88808924   -7.5178675    276.39657  0.023672197  0.023734504            2 
  974000   0.85623933   -7.5479005    276.73154  0.023676552  0.023718127            3 
  975000   0.85257674   -7.5185298    276.82472  0.023660232  0.023701765            4 
  976000   0.85961344   -7.5025407    276.89053  0.023641609  0.023685414            2 
  977000   0.86433003   -7.5815832    276.23665  0.023561639  0.023668911            2 
  978000   0.87176533   -7.5330397    277.27583  0.023626093  0.023652588            4 
  979000    0.8791747    -7.530788    276.55828  0.023540882  0.023636262            3 
  980000   0.86879907    -7.530592    277.10264   0.02356315  0.023619833            2 
  981000   0.87381361   -7.5249137    277.71968  0.023591546  0.023603423            2 
  982000   0.86571645   -7.5336546    277.49852  0.023548754  0.023587069            5 
  983000   0.87014265    -7.548099    277.20435   0.02349986  0.023570643            2 
  984000   0.85665403    -7.528852    277.45645  0.023497328  0.023554255            3 
  985000   0.86669693   -7.5163067    277.49432  0.023476677  0.023537902            3 
  986000   0.83501496   -7.5155283    278.06436  0.023501045  0.023521523            4 
  987000   0.88217297   -7.5037286    278.63534  0.023525443  0.023505201            1 
  988000   0.86584561   -7.5243624    278.02826  0.023450427   0.02348897            3 
  989000   0.85028413   -7.5096066    277.72431  0.023401105  0.023472766            3 
  990000   0.84580197   -7.5303401    278.64266  0.023454769  0.023456511            3 
  991000   0.84553148    -7.504274    278.76558  0.023441438  0.023440375            6 
  992000   0.85109546   -7.5466613    278.07817  0.023360062  0.023424118            2 
  993000    0.8626997   -7.5248524    279.17476  0.023428563  0.023407985            5 
  994000   0.85217523   -7.5117192    279.19508  0.023406697  0.023391819            2 
  995000   0.84007548   -7.5259067    279.20811  0.023384263  0.023375685            3 
  996000   0.84619434   -7.5395913    279.15845   0.02335663  0.023359558            2 
  997000   0.86112552   -7.5018243     280.1625  0.023417126  0.023343504            3 
  998000   0.84578289   -7.5211332    280.32224  0.023407001  0.023327479            3 
  999000   0.85636286    -7.529213    279.82884  0.023342412  0.023311507            2 
 1000000   0.85704037   -7.5527999    279.32671  0.023277226  0.023295604            4 
 1001000   0.86035158    -7.536705    279.94684  0.023305597  0.023279543            4 
 1002000    0.8658462   -7.5579513    279.61578  0.023254806  0.023263518            4 
 1003000   0.84806013   -7.5357334    279.87105  0.023252829  0.023247506            2 
 1004000   0.85544821   -7.5733624    280.08597  0.023247507  0.023231411            2 
 1005000   0.84584741    -7.548282    280.96407  0.023297186  0.023215352            4 
 1006000   0.86520056   -7.5426661    280.26701  0.023216286  0.023199241            1 
 1007000   0.83837508   -7.5459173    280.38301  0.023202831  0.023183225            4 
 1008000   0.84678776   -7.5416694    279.93197  0.023142524  0.023167172            2 
 1009000   0.87055165   -7.5564724    279.79486  0.023108264  0.023150949            6 
 1010000   0.86070415   -7.5466143    279.97096  0.023099914  0.023134673            2 
 1011000   0.84715794    -7.546115    280.58871  0.023127985  0.023118275            7 
 1012000   0.84682209   -7.5498155    279.87838  0.023046639  0.023101842            2 
 1013000    0.8433319    -7.543139    280.59712  0.023083014  0.023085605            5 
 1014000   0.84834575   -7.5450046    281.07487  0.023099513  0.023069445            1 
 1015000   0.85412642    -7.529613    281.15005  0.023082927  0.023053405            1 
 1016000   0.85952068   -7.5774052    280.31567  0.022991771  0.023037297            7 
 1017000   0.85108639   -7.5538492    281.13035  0.023035919  0.023021111            3 
 1018000   0.84560514   -7.5380354    281.02038  0.023004288  0.023004935            3 
 1019000   0.83487162   -7.5786073    280.22944   0.02291703  0.022988666            4 
 1020000    0.8507831   -7.5916783     280.4527  0.022912802  0.022972305            2 
 1021000   0.83509302   -7.5731657    280.80503  0.022919117  0.022955934            5 
 1022000   0.85365947    -7.545255    281.50908    0.0229541  0.022939624            4 
 1023000   0.83911017   -7.5442828    281.87072  0.022961121   0.02292348            3 
 1024000   0.85164004   -7.5923708    280.62357  0.022837204  0.022907276            3 
 1025000   0.85300689   -7.5805375    280.95598   0.02284195   0.02289111            1 
 1026000   0.83385161   -7.5618846    281.02453  0.022825254  0.022874758            1 
 1027000   0.85643311   -7.5632205    281.98326  0.022880822  0.022858468            3 
 1028000   0.85828384   -7.5903361    281.84933  0.022847708  0.022842194            2 
 1029000   0.84896967   -7.5571634    281.86751  0.022826977  0.022825914            3 
 1030000   0.84067247   -7.6013864    282.24077  0.022835014   0.02280971            4 
 1031000   0.84975843   -7.5946968     281.7059  0.022769633  0.022793493            4 
 1032000   0.83141075   -7.5726264     282.1273  0.022781597  0.022777352            2 
 1033000   0.83903683   -7.5548193     282.5124   0.02279061  0.022761423            4 
 1034000   0.84546756   -7.5672247    282.58396  0.022774336  0.022745433            4 
 1035000   0.84731963   -7.5619695    282.49993  0.022745566  0.022729304            6 
 1036000   0.85838107   -7.5435786    282.28615  0.022706415  0.022713238            5 
 1037000   0.85286284   -7.5698158    283.12585  0.022751997  0.022697151            1 
 1038000   0.85100325   -7.5692809    282.56273  0.022684869  0.022681071            2 
 1039000   0.85321073   -7.5650025    282.76427    0.0226792  0.022664982            2 
 1040000    0.8481835   -7.5672565    283.85312  0.022744641  0.022648979            2 
 1041000   0.83004295   -7.5689833    283.12693   0.02266466  0.022633001            1 
 1042000   0.83400529   -7.5854894    282.46389  0.022589882  0.022616948            1 
 1043000    0.8396744   -7.5874995    283.47865  0.022649301  0.022600871            3 
 1044000   0.83728964   -7.6143043    282.93617  0.022584305  0.022584856            2 
 1045000    0.8444332   -7.5704122      283.129   0.02257807  0.022568784            3 
 1046000   0.84769815   -7.6111082    283.47791  0.022584282  0.022552834            3 
 1047000   0.82764504   -7.5843889    283.16512  0.022537816  0.022536801            4 
 1048000   0.81067804   -7.5748851    284.34135   0.02260984  0.022520819            3 
 1049000   0.85013431   -7.5435953      284.589   0.02260796  0.022505078            3 
 1050000   0.83049599   -7.6121062    284.59554  0.022586948  0.022489168            3 
 1051000   0.85091259   -7.5996562     283.8216  0.022504091  0.022473217            4 
 1052000   0.84838976   -7.5820839    284.40443  0.022528868  0.022457307            6 
 1053000   0.84653808   -7.5879241    284.33248  0.022501779  0.022441455            4 
 1054000   0.83229968   -7.5922984    284.50467  0.022494044  0.022425527            3 
 1055000   0.81238532   -7.6061036    284.27812  0.022454828  0.022409571            2 
 1056000   0.83435344    -7.590804    284.44098  0.022446416  0.022393646            5 
 1057000   0.85623834   -7.5833146    284.16767  0.022403632  0.022377664            2 
 1058000    0.8375193   -7.5945013    284.53146   0.02241111   0.02236171            2 
 1059000   0.83020252   -7.6064789    285.02016  0.022428404  0.022345684            2 
 1060000   0.82799339   -7.5740145    285.10526  0.022413935    0.0223297            6 
 1061000   0.83308403   -7.5853641    284.54461  0.022348775  0.022313682            1 
 1062000   0.82738685   -7.5890224    284.89785   0.02235545  0.022297722            5 
 1063000   0.83591007   -7.6220314     284.6395  0.022314166  0.022281804            5 
 1064000   0.81771511     -7.58821    285.09779  0.022329087  0.022265945            4 
 1065000   0.83422444   -7.5760285    285.65364  0.022351615  0.022250152            2 
 1066000    0.8281428   -7.6170792    284.93591   0.02227454  0.022234351            3 
 1067000   0.82356488    -7.586792    285.81253  0.022322128   0.02221868            2 
 1068000   0.84663998   -7.6118951    286.47629  0.022353019  0.022202986            5 
 1069000   0.82317928   -7.5987772    286.26307  0.022315487  0.022187426            4 
 1070000   0.82495508   -7.5821111    286.47641  0.022311247  0.022171787            4 
 1071000   0.82516709   -7.6088591    285.61753  0.022223586  0.022156251            3 
 1072000   0.81159511   -7.6159752    285.80038  0.022217069  0.022140571            4 
 1073000   0.83810083   -7.6202468    286.45184  0.022246959  0.022124991            3 
 1074000   0.83687473   -7.5952056    286.98659  0.022267737  0.022109507            2 
 1075000   0.81530751   -7.6103787    286.97429  0.022246069  0.022094137            7 
 1076000    0.8395562   -7.5927808    287.13222  0.022237625  0.022078791            3 
 1077000   0.81525321   -7.6049521    286.98402  0.022205511  0.022063429            3 
 1078000   0.83410986   -7.6224635    286.53362  0.022150094  0.022047982            2 
 1079000   0.80645391   -7.6150677    287.97932   0.02224122  0.022032589            4 
 1080000   0.82657821   -7.6102648    287.04704  0.022148692  0.022017244            6 
 1081000   0.83655447   -7.6295302    287.31703  0.022149016  0.022001854            1 
 1082000   0.82873959   -7.5952866    287.34583  0.022130763   0.02198646            2 
 1083000   0.82777256   -7.5995623    287.97512   0.02215875  0.021971165            2 
 1084000   0.84029829   -7.6643163    286.55465  0.022029109  0.021955705            4 
 1085000   0.81698088   -7.6246714    287.06599  0.022048079  0.021940166            3 
 1086000   0.81599033   -7.6209865    287.37568  0.022051541    0.0219246            2 
 1087000   0.81700747   -7.6128468    287.71435  0.022057218  0.021909021            3 
 1088000   0.81644416   -7.6071015    286.96619  0.021979641  0.021893445            9 
 1089000   0.81844042   -7.6436919    286.79755  0.021946553  0.021877845            2 
 1090000    0.8288635   -7.5992372     287.3092  0.021965535  0.021862234            3 
 1091000   0.81610133   -7.6443906    287.43276   0.02195484   0.02184665            3 
 1092000   0.81471849   -7.6406365    287.26294  0.021921775  0.021830978            5 
 1093000   0.82419551   -7.6432388    287.70819  0.021935666   0.02181535            4 
 1094000   0.79801061   -7.6193215    287.49255  0.021899189  0.021799821            3 
 1095000   0.81426009   -7.6080723    287.21809  0.021858302  0.021784266            2 
 1096000   0.81434534   -7.6099523    288.20841  0.021913657  0.021768666            5 
 1097000   0.80640159   -7.6064883     288.1803  0.021891545  0.021753126            3 
 1098000   0.83482223   -7.6110013    288.03615  0.021860667  0.021737531            3 
 1099000   0.80208756   -7.6592398    287.85588  0.021827106  0.021721807            2 
 1100000   0.81421946   -7.6241452    287.34974   0.02176892  0.021706065            2 
 1101000   0.81025047   -7.6387453    288.22191  0.021815161   0.02169041            2 
 1102000   0.82106909   -7.6592132    287.63012  0.021750614  0.021674764            4 
 1103000   0.80351751   -7.6199854    287.94776  0.021754893  0.021659082            2 
 1104000   0.80127648   -7.6289928    287.96682  0.021736626  0.021643449            2 
 1105000   0.78772505   -7.6519675    287.80866  0.021705027  0.021627762            2 
 1106000   0.80551359    -7.646856    288.33301   0.02172491  0.021612109            1 
 1107000    0.8211445   -7.6371501    288.07185  0.021685625  0.021596397            2 
 1108000    0.8239526   -7.6413712    288.01543  0.021661811  0.021580732            2 
 1109000   0.81790852   -7.6714512    288.19686  0.021655911  0.021564974            3 
 1110000   0.81045385   -7.6274449    287.79927  0.021606552  0.021549285            3 
 1111000   0.79844068    -7.661152    287.96222  0.021599326  0.021533573            5 
 1112000   0.79610498    -7.634504    288.30421  0.021605532  0.021517815            5 
 1113000   0.81436776   -7.6502462    288.40096  0.021593363  0.021502104            3 
 1114000   0.78209439   -7.6384546    288.64557  0.021592278  0.021486386            5 
 1115000   0.81857197    -7.666708    287.90933  0.021517887  0.021470683            3 
 1116000   0.80279523   -7.6331784    287.98174  0.021504013  0.021454966            4 
 1117000   0.82492419   -7.6429753     288.2253  0.021502932  0.021439226            3 
 1118000   0.80462796   -7.6651649    289.22314  0.021558076  0.021423559            3 
 1119000   0.81350876   -7.6422598    288.96705  0.021519739  0.021407901            6 
 1120000   0.80593528    -7.624293    288.75569  0.021484798  0.021392263            7 
 1121000   0.81020158   -7.6357407    288.56529  0.021451479  0.021376551            2 
 1122000   0.79527407   -7.6574864    289.39435  0.021493935  0.021360844            1 
 1123000   0.80506728   -7.6555477    288.73262  0.021425691  0.021345044            2 
 1124000    0.8243853   -7.6363692     289.3746  0.021454226  0.021329334            3 
 1125000   0.79378301   -7.6614327    288.40394  0.021363255  0.021313584            3 
 1126000   0.81239962   -7.6589553    289.46723  0.021422974  0.021297816            2 
 1127000   0.81127753   -7.6782527    289.01717  0.021370687  0.021282079            5 
 1128000   0.79820236   -7.6515272    289.52973  0.021389608  0.021266459            6 
 1129000   0.78974567   -7.6617545    289.52933  0.021370632  0.021250793            3 
 1130000    0.8149968    -7.652687    288.84079  0.021300944  0.021235096            4 
 1131000   0.78945004   -7.6429792    289.75066   0.02134915  0.021219466            3 
 1132000   0.79402547   -7.6509194    290.28111   0.02136934  0.021203794            3 
 1133000   0.78803416   -7.6802413    289.76889  0.021312804  0.021188158            7 
 1134000   0.79640198   -7.6628805    290.28456  0.021331905  0.021172461            2 
 1135000   0.79454828   -7.6619933    289.21465  0.021234556  0.021156772            2 
 1136000   0.79398512   -7.6895911    290.11738  0.021282084  0.021141077            2 
 1137000   0.80021832   -7.6690554    289.43682  0.021213488  0.021125402            3 
 1138000   0.81915904   -7.6488169    289.77381  0.021219524  0.021109699           11 
 1139000   0.81037044   -7.6811803    290.40261  0.021246898  0.021094145            5 
 1140000   0.79361756   -7.6715325    290.08734  0.021205215   0.02107854            2 
 1141000   0.79622292   -7.6691292    289.82008  0.021167111  0.021062863            2 
 1142000   0.80107169   -7.6809094    290.01078  0.021162492  0.021047187            3 
 1143000   0.80478624   -7.6821349    289.99695  0.021142968  0.021031558            3 
 1144000   0.79222486   -7.6696965    290.30285   0.02114677  0.021015909            5 
 1145000   0.77937962   -7.6541227    290.25195  0.021124596  0.021000189            3 
 1146000   0.81221411   -7.6807443     290.2956  0.021109336  0.020984448            3 
 1147000   0.80908776   -7.6983231    289.58329  0.021039181  0.020968618            4 
 1148000   0.80394853   -7.6747305    289.79289   0.02103607  0.020952808            2 
 1149000   0.78861608   -7.6540485    290.16085  0.021044448  0.020937185            2 
 1150000   0.79428987   -7.6968207    290.69344  0.021064742  0.020921553            2 
 1151000   0.79893751   -7.6943996    290.45797  0.021029393  0.020905804            2 
 1152000   0.78803019   -7.7243495    289.46441  0.020939266  0.020889961            5 
 1153000   0.79631885   -7.7098915    290.08801  0.020966176  0.020874159            4 
 1154000   0.80552998   -7.7098288    290.34543  0.020966596  0.020858421            4 
 1155000   0.80021317   -7.7344763    290.01853  0.020924858  0.020842718            2 
 1156000   0.77240396   -7.6905171    290.47859  0.020939921  0.020827051            2 
 1157000   0.79070479   -7.6699957    290.98199  0.020958081   0.02081148            3 
 1158000   0.78249704   -7.6986821    290.49547   0.02090497  0.020795906            5 
 1159000    0.7839364   -7.6822019    291.08344  0.020929209  0.020780254            4 
 1160000    0.8056322   -7.6936615    290.76124   0.02088802  0.020764608            3 
 1161000   0.79238512   -7.6999145    290.71893  0.020866991  0.020748897            4 
 1162000   0.79413859   -7.7079672    290.16048  0.020808985  0.020733235            3 
 1163000   0.81377954   -7.7199006    290.97095  0.020849166  0.020717593            2 
 1164000   0.78959094   -7.7036463    291.22176   0.02084921   0.02070202            1 
 1165000   0.79976302   -7.7061987    290.89264  0.020807771  0.020686461            2 
 1166000   0.77992656   -7.7175998    290.95777   0.02079458  0.020670862            4 
 1167000   0.80167534   -7.6766177    291.17002  0.020791918  0.020655252            4 
 1168000   0.80201908       -7.677    290.87822  0.020753298  0.020639728            2 
 1169000   0.79813514   -7.7045093    291.30332  0.020765848  0.020624218            2 
 1170000   0.80897312   -7.6771519    290.99245  0.020725958  0.020608673            3 
 1171000   0.79227931   -7.6872243    291.54408  0.020747515  0.020593125            2 
 1172000   0.78050987   -7.6993232    291.61448  0.020734818  0.020577687            3 
 1173000   0.77992687    -7.669593    291.54004  0.020711853   0.02056219            4 
 1174000   0.76878977   -7.6886733    290.85595  0.020645653  0.020546773            4 
 1175000   0.79233393   -7.6860691    291.46984   0.02067162   0.02053138            3 
 1176000   0.78127941    -7.693494    291.95807  0.020688639  0.020515952            3 
 1177000   0.76704852   -7.7006559    292.26271  0.020692631  0.020500554            2 
 1178000   0.80070989   -7.6903934    292.08587  0.020662555   0.02048529            4 
 1179000   0.77150929   -7.6893402     292.2403  0.020655944   0.02046992            2 
 1180000    0.7834302   -7.7093291    292.27987  0.020641234  0.020454532            4 
 1181000   0.78997213   -7.6879102    292.74498  0.020656575  0.020439288            4 
 1182000   0.78281343   -7.7359019    292.13197  0.020595881  0.020424002            2 
 1183000   0.79327732   -7.7273823    292.18656  0.020582316  0.020408741            3 
 1184000   0.79633296   -7.7151008    292.51683  0.020588178  0.020393545            4 
 1185000   0.78910679   -7.7454541    292.51964  0.020571001  0.020378337            3 
 1186000    0.7868854   -7.6979646    292.81886  0.020574681  0.020363148            2 
 1187000   0.78099976   -7.7355139    292.86231  0.020560398  0.020347958            2 
 1188000   0.76964125   -7.7231328    293.04811  0.020556125  0.020332704            3 
 1189000   0.78710935   -7.7081188    293.02147  0.020536969  0.020317529            1 
 1190000   0.80910596   -7.7326285    292.27705  0.020467581  0.020302386           11 
 1191000   0.76315854    -7.720185     292.7602  0.020484201   0.02028716            2 
 1192000   0.76533096   -7.7231109    292.28758  0.020433975  0.020271954            3 
 1193000   0.78169164   -7.6957596    293.35492  0.020491402  0.020256747            2 
 1194000   0.77626385   -7.7199508    293.16923  0.020461281  0.020241515            2 
 1195000   0.77141128   -7.7374195    292.87613  0.020423719  0.020226193            3 
 1196000   0.76924871   -7.7286623    292.69944  0.020394331  0.020210886            3 
 1197000   0.77079195   -7.7272875    292.98513  0.020397183  0.020195715            3 
 1198000    0.7792288   -7.7281965    293.24988  0.020398573  0.020180519            2 
 1199000   0.77334652   -7.7461044    292.54283  0.020332418  0.020165364            5 
 1200000   0.75324586   -7.7294254    293.38333  0.020373842  0.020150248            3 
 1201000   0.75595978   -7.7235055    293.45532  0.020361873  0.020135144            3 
 1202000   0.76069927   -7.7116405    293.77155  0.020366857  0.020120149            2 
 1203000   0.76061348   -7.7063204    293.40501  0.020324537  0.020105154            4 
 1204000   0.75778765   -7.7387008    293.78091  0.020333673  0.020090151            1 
 1205000    0.7630349   -7.7387084    293.32985  0.020285605  0.020075187            3 
 1206000   0.77229012   -7.7087431     293.4797  0.020279139  0.020060202            5 
 1207000   0.78277101    -7.707646    293.79394  0.020284033  0.020045154            6 
 1208000   0.77031583    -7.711287    294.20492  0.020295593  0.020030155            4 
 1209000   0.77261689   -7.7228663    293.98793   0.02026385  0.020015267            4 
 1210000   0.77633763   -7.7380823    294.55648  0.020286259  0.020000332            2 
 1211000   0.78276541   -7.7507623     293.4631  0.020194268  0.019985376            2 
 1212000   0.77651961   -7.7165539    293.59421  0.020186621  0.019970393            2 
 1213000   0.75871697   -7.7422688     293.8929  0.020190499  0.019955409            3 
 1214000   0.76760343   -7.7310003     294.4254   0.02021042  0.019940362            2 
 1215000   0.76505743    -7.742274    294.10565  0.020171855  0.019925426            6 
 1216000   0.76194587   -7.7458511    294.41272   0.02017631  0.019910453            5 
 1217000   0.77248639   -7.7417841    294.24559  0.020148288  0.019895455            2 
 1218000   0.76883435   -7.7555268    294.22349  0.020130233  0.019880379            2 
 1219000   0.75269787   -7.7444996    293.65964  0.020075173  0.019865315            3 
 1220000   0.78367962   -7.7668821    294.35437  0.020106173  0.019850316            3 
 1221000    0.7864652    -7.725551     294.4814  0.020098376  0.019835338            2 
 1222000   0.76321229   -7.7663726    293.53328  0.020017272  0.019820304            3 
 1223000   0.75766328   -7.7731882     293.8024  0.020019242  0.019805246            4 
 1224000   0.77065331   -7.7757363    293.69298  0.019995437  0.019790149            2 
 1225000   0.75886695   -7.7696902    293.85258  0.019989971  0.019775054            4 
 1226000   0.75912591   -7.7733146     293.4181  0.019944134   0.01975993            4 
 1227000   0.74528384   -7.7817459    293.47334  0.019931632  0.019744778            6 
 1228000   0.76360972    -7.779427    294.19101  0.019964102  0.019729658            4 
 1229000   0.75817075    -7.798216    293.99003   0.01993423  0.019714592            2 
 1230000   0.74501517    -7.770337    293.87426   0.01991018  0.019699563            3 
 1231000   0.77846157   -7.7635573    294.39689  0.019929386  0.019684528            2 
 1232000   0.75447885   -7.7819974    294.56764  0.019924759  0.019669461            5 
 1233000   0.77399492   -7.7737783    294.33563  0.019892919  0.019654428            9 
 1234000   0.76763063   -7.7956318    294.60389  0.019894914   0.01963947            3 
 1235000   0.74162739   -7.7461964    294.30707  0.019858777  0.019624435            1 
 1236000    0.7559196   -7.7706817    293.66318  0.019799297  0.019609367            4 
 1237000   0.74604713   -7.7732673    294.32661  0.019827985  0.019594286            7 
 1238000   0.78106644   -7.7855723    294.24938  0.019806771  0.019579157            3 
 1239000   0.76881964   -7.7882865    294.18787  0.019786647  0.019564058            2 
 1240000   0.78140304   -7.7715692    293.85565  0.019748364  0.019549071            1 
 1241000   0.75554693   -7.7447372    294.51422  0.019776674  0.019534112            5 
 1242000   0.75108958   -7.7601982    294.79736  0.019779748  0.019519121            3 
 1243000   0.77843336    -7.782721    294.61451  0.019751576  0.019504196            3 
 1244000   0.77409024   -7.7682917    293.87458  0.019686132  0.019489229            5 
 1245000   0.75608466   -7.7697632    294.74746  0.019728746  0.019474241            4 
 1246000   0.72798389   -7.7784664    294.50457  0.019696667  0.019459274            5 
 1247000   0.76057983   -7.7749308    294.65797  0.019691123  0.019444342            9 
 1248000   0.75881819   -7.7769366    293.98921   0.01963069  0.019429402           12 
 1249000   0.75092572   -7.8074933    294.82401  0.019670671  0.019414471            4 
 1250000   0.76350532   -7.7812356    294.70709  0.019647139  0.019399554            3 
 1251000   0.75005312    -7.787096    295.14866  0.019660849   0.01938467            3 
 1252000   0.74762184   -7.7830343     295.2493  0.019651844  0.019369749            3 
 1253000   0.74301243   -7.8189153     294.6091  0.019593582  0.019354761            5 
 1254000   0.75090808   -7.8173103    294.38362  0.019562973  0.019339821            4 
 1255000   0.75221867   -7.8063902    294.91046  0.019582368  0.019324985            5 
 1256000   0.74889951   -7.8245898    295.15541  0.019583029  0.019310095            4 
 1257000   0.74202697   -7.8053688     294.6444  0.019533572  0.019295286            2 
 1258000   0.76085699   -7.8320671     294.5066  0.019508917  0.019280481            4 
 1259000   0.73899678   -7.7859756    294.70976  0.019506868  0.019265684            1 
 1260000   0.74268344   -7.7763188    295.12667  0.019518959  0.019250862            1 
 1261000   0.74175668   -7.7994363    295.03924  0.019497703  0.019236014            5 
 1262000   0.75259495    -7.794098    295.44972  0.019509358  0.019221253            5 
 1263000   0.75028688   -7.7830077    295.72503  0.019512076  0.019206512            6 
 1264000   0.75947001   -7.7511102    295.84656  0.019504652  0.019191888            2 
 1265000   0.76206695   -7.7805776    295.88803  0.019491965  0.019177227            2 
 1266000   0.74838438   -7.7991715    296.36758  0.019508134  0.019162548            7 
 1267000   0.75073166   -7.7894922    295.97445  0.019466881  0.019147928            3 
 1268000   0.73163422    -7.803625    295.67715  0.019431989  0.019133242            2 
 1269000   0.75196726   -7.8050457    295.43879  0.019401024    0.0191186            3 
 1270000    0.7673622   -7.8011057    295.43115  0.019385246  0.019103934            4 
 1271000   0.76654348   -7.8215784    295.63926  0.019383639  0.019089278            2 
 1272000   0.76174666    -7.802018    295.56455  0.019363506   0.01907459            1 
 1273000    0.7395005   -7.8265428    295.94762  0.019373371  0.019059933            2 
 1274000   0.74074958   -7.7958082    296.06356  0.019365748  0.019045327            2 
 1275000   0.72920366   -7.8048753    295.48478  0.019312731  0.019030695            2 
 1276000   0.74419001   -7.7958511    296.04791  0.019334372  0.019016044            2 
 1277000   0.74948541   -7.8084192    295.94793  0.019312707  0.019001436            2 
 1278000   0.74060955   -7.8139081    295.12883  0.019244186  0.018986762            5 
 1279000   0.74018118   -7.8020691    295.67629  0.019264809   0.01897206            4 
 1280000   0.74518199   -7.8126701    295.23634  0.019221116  0.018957405            2 
 1281000    0.7570268   -7.7993211    296.02628  0.019257499  0.018942765            2 
 1282000   0.74622943   -7.8125916    295.56174  0.019212282  0.018928173            5 
 1283000   0.72969797   -7.8207015    296.17053  0.019236849  0.018913543            2 
 1284000   0.74814434    -7.806562    296.53817  0.019245727  0.018898932            2 
 1285000   0.72843111   -7.7861894    296.50483  0.019228588  0.018884322            2 
 1286000   0.73529721   -7.8101262    296.32614  0.019202057  0.018869763            5 
 1287000   0.74383221   -7.7998182    295.90113  0.019159617  0.018855195            3 
 1288000    0.7288949   -7.7902509     296.4812  0.019182272   0.01884067            6 
 1289000   0.73863945   -7.8343932    295.63092  0.019112421  0.018826135            2 
 1290000    0.7359806   -7.7971512    296.75278  0.019170077   0.01881161            2 
 1291000   0.73994451   -7.8030543    296.36276  0.019130052  0.018797175            3 
 1292000   0.73458382   -7.8033513    296.56449  0.019128257  0.018782774            3 
 1293000   0.74106043   -7.7906895    296.81493  0.019129604  0.018768443            3 
 1294000   0.74359153   -7.7992883    297.33269  0.019148164  0.018754116            3 
 1295000   0.73046512   -7.7906536    296.99333   0.01911154  0.018739815            2 
 1296000   0.74269453   -7.7999491    297.05432  0.019100715  0.018725561            2 
 1297000   0.71033312   -7.8378609    296.96467  0.019080228  0.018711238            2 
 1298000   0.72643358    -7.797046    297.12972  0.019076125  0.018696915            3 
 1299000   0.74632506   -7.8207275    296.76237  0.019037873  0.018682599            8 
 1300000   0.74611448   -7.8406189    297.40184   0.01906422  0.018668223            5 
 1301000   0.74109417   -7.8013399    297.47273  0.019054108  0.018653865            3 
 1302000   0.73729694   -7.8532991     296.4612  0.018974731  0.018639521            2 
 1303000   0.73722454   -7.8552461    296.96287  0.018992253  0.018625128            4 
 1304000   0.71654993   -7.8513744    297.05435  0.018983535  0.018610724            2 
 1305000   0.75351812   -7.8612029    296.13389   0.01891021  0.018596276            3 
 1306000    0.7405162   -7.8398916    297.15319   0.01896077  0.018581924            2 
 1307000   0.74187465   -7.8590097    296.80175  0.018923856  0.018567617            3 
 1308000   0.72526186   -7.8236256    297.11805  0.018929539  0.018553321            5 
 1309000   0.74318299   -7.8482275    296.95115  0.018904453  0.018539083            4 
 1310000   0.72708983   -7.8215127    296.99699  0.018892938  0.018524789            1 
 1311000   0.73104623   -7.8421555    296.21623  0.018828898  0.018510476            5 
 1312000   0.73863574   -7.8416377    296.92635  0.018859651  0.018496125            3 
 1313000   0.72678207   -7.8355431    297.46078  0.018879207  0.018481774            5 
 1314000   0.72193534   -7.8385475    296.62288    0.0188117  0.018467459            4 
 1315000   0.73112155   -7.8182135    297.30713  0.018840756  0.018453125            5 
 1316000   0.71977811   -7.8058901    296.95165  0.018803929  0.018438848            4 
 1317000    0.7429612   -7.8551278     297.0587  0.018796425  0.018424525            3 
 1318000    0.7276479   -7.8462747    297.00601  0.018778832  0.018410177            1 
 1319000   0.72299375   -7.8429647    296.50126  0.018732706  0.018395826            4 
 1320000   0.73310269   -7.8314327    296.61254  0.018725539  0.018381447            4 
 1321000   0.73600693   -7.8415747     296.8302  0.018725095  0.018367053            5 
 1322000   0.72374385   -7.8479116     296.8261  0.018710672  0.018352685            2 
 1323000    0.7395222   -7.8559885     297.3894  0.018732011  0.018338374            3 
 1324000   0.73297046   -7.8456441    296.35308  0.018652636  0.018324025            2 
 1325000   0.70715676   -7.8640905    296.66114  0.018657933  0.018309661            4 
 1326000    0.7259389   -7.8628651    297.17543  0.018676183  0.018295306            5 
 1327000   0.71618255    -7.855214     296.6534  0.018629327   0.01828094            2 
 1328000   0.72076171   -7.8610143    296.64703  0.018614899  0.018266582            5 
 1329000   0.72818994   -7.8429093    296.95393  0.018620136  0.018252235            3 
 1330000    0.7187008   -7.8570546    297.08197  0.018614159  0.018237932            3 
 1331000   0.69773056   -7.8625055    296.88707  0.018587971  0.018223639            3 
 1332000    0.7274456   -7.8603122    296.23174  0.018533017  0.018209299            3 
 1333000   0.73034668   -7.8876584    296.61707  0.018543202  0.018194913            2 
 1334000    0.7102755   -7.8636682    296.36855  0.018513778   0.01818053            2 
 1335000   0.72037831   -7.8930535    296.16547  0.018487233  0.018166171            3 
 1336000   0.72356042   -7.8709445    297.13461  0.018533845  0.018151811            2 
 1337000   0.72849014   -7.8861303    296.61158  0.018487384  0.018137462            3 
 1338000   0.72334028   -7.8705354    296.91097  0.018492213  0.018123131            4 
 1339000   0.70572184   -7.8895826    295.92581  0.018417091   0.01810879            2 
 1340000   0.71880899   -7.8825525    296.51829  0.018440192  0.018094428            3 
 1341000   0.72432318   -7.8656709    296.65073  0.018434672  0.018080107            5 
 1342000   0.71657372   -7.8733332    297.25751  0.018458613  0.018065834            5 
 1343000   0.71458517    -7.843598    297.38674  0.018452888  0.018051555            3 
 1344000   0.71901005    -7.857478    297.27243   0.01843207  0.018037314            1 
 1345000    0.7166517   -7.8773795    297.34472  0.018422845  0.018023115            4 
 1346000   0.71081491   -7.8282766     297.0907  0.018393431  0.018008934            2 
 1347000   0.70899395    -7.860127     297.3415  0.018395292  0.017994752            6 
 1348000   0.71750749   -7.8434576    297.29043  0.018378489  0.017980536            3 
 1349000   0.70642146   -7.8551052     296.7946  0.018334235  0.017966247            4 
 1350000    0.7150034   -7.8536365    296.00681  0.018272025  0.017951928            2 
 1351000   0.72715389   -7.8847959    296.69327  0.018300843   0.01793761            3 
 1352000   0.71588389   -7.8884413    296.90686  0.018300472   0.01792332            4 
 1353000   0.70381398   -7.8563101    296.90913  0.018287086  0.017909065            2 
 1354000   0.70868205   -7.9004304    296.92109  0.018274316  0.017894852            4 
 1355000   0.70799128   -7.9054059    297.52495  0.018297967  0.017880608            5 
 1356000   0.72317083    -7.876695     296.4804   0.01822028  0.017866325            3 
 1357000   0.69708929   -7.8596443    297.68451  0.018280798  0.017852072            4 
 1358000   0.70947291   -7.8652452    296.77462  0.018211501  0.017837869            7 
 1359000    0.7127782   -7.8899321    296.97821  0.018210584  0.017823666            2 
 1360000   0.72830865   -7.9005498    296.75612  0.018183586  0.017809454            5 
 1361000   0.71573074   -7.8816822    296.69928  0.018166745  0.017795229            3 
 1362000   0.71433178    -7.891587    296.89715  0.018165513  0.017781012            2 
 1363000   0.72108207   -7.8822367     296.7089  0.018140676  0.017766858            3 
 1364000   0.69727718   -7.8714217    297.40766  0.018170067   0.01775273            7 
 1365000   0.70585143   -7.8729423    296.94968  0.018128796  0.017738615            3 
 1366000   0.70783317   -7.8972008    296.35232  0.018079082  0.017724503            4 
 1367000   0.72092689   -7.8837297    297.53746  0.018138104  0.017710383            4 
 1368000   0.70549366   -7.8752514    297.31091  0.018111045   0.01769627            3 
 1369000   0.69081834   -7.9083812    297.06907  0.018083094  0.017682147            3 
 1370000    0.7099699   -7.8970744    297.57679  0.018100778  0.017668049            3 
 1371000   0.71711649    -7.884699    296.61857  0.018029332  0.017653914            2 
 1372000   0.71492747   -7.9126482    296.74293  0.018023744  0.017639763            5 
 1373000   0.70822342   -7.8915718    297.02411  0.018027683  0.017625608            3 
 1374000   0.69809579   -7.8795785    296.94517  0.018009775  0.017611451            8 
 1375000   0.69508522   -7.8956275    297.49473  0.018029983  0.017597296            1 
 1376000   0.70938975   -7.9007068    297.25418  0.018002312  0.017583149            7 
 1377000   0.71493565   -7.9010897    296.92972  0.017969603  0.017569001            5 
 1378000   0.71212396    -7.883904    297.11541  0.017967792  0.017554859            2 
 1379000   0.66941384   -7.9037111    296.99418  0.017947436  0.017540738            3 
 1380000   0.70374201   -7.9047582    297.18308  0.017945838   0.01752667            5 
 1381000   0.70856061   -7.9184153    297.03982  0.017924198  0.017512576            3 
 1382000   0.70870793   -7.9050946    296.10941  0.017855126  0.017498446            2 
 1383000   0.70000252   -7.9144112    296.78361   0.01788284   0.01748432            2 
 1384000    0.7063111   -7.9111084    296.42271  0.017848188  0.017470174            5 
 1385000   0.70792734   -7.9071572    297.08585  0.017875201  0.017456077            3 
 1386000   0.70638598   -7.9557832     296.8367  0.017847324  0.017441959            2 
 1387000   0.70498387   -7.8802424    297.05863  0.017847791  0.017427895            4 
 1388000   0.68822713   -7.9205756    297.42273  0.017856792  0.017413875            4 
 1389000   0.69820155   -7.9114759    297.64675  0.017857376  0.017399852            2 
 1390000   0.71128931   -7.9511671    297.23504  0.017819846  0.017385838           10 
 1391000   0.69500026   -7.9059081    297.46811  0.017820999  0.017371849            9 
 1392000   0.70141741   -7.9139745    297.09242  0.017785705  0.017357851            9 
 1393000   0.70545867   -7.9198473    297.73706  0.017811501  0.017343929            7 
 1394000   0.68999072    -7.913163    297.34621  0.017775359  0.017329988            5 
 1395000   0.71270582   -7.9175747    297.08293   0.01774689  0.017316053            2 
 1396000   0.68900375   -7.9227305    297.44181    0.0177556   0.01730209            2 
 1397000   0.68382337   -7.9242671    297.64491  0.017755005   0.01728819            7 
 1398000   0.69889766   -7.9057126    297.24313  0.017718355  0.017274295            4 
 1399000   0.68748514   -7.9064783     296.9937  0.017690833   0.01726037            2 
 1400000    0.6909811   -7.9245084    296.59161  0.017654262  0.017246491            6 
 1401000   0.67644204   -7.9174164    296.62916  0.017643895  0.017232578            5 
 1402000   0.69851651   -7.9313676    297.24245  0.017667763  0.017218684            9 
 1403000     0.691317   -7.9279952    297.38495  0.017663635  0.017204792            7 
 1404000   0.69398285   -7.9157255    297.09735  0.017633984  0.017190921            7 
 1405000    0.6883507     -7.91426    297.55939  0.017648837   0.01717707            9 
 1406000   0.68843656   -7.9482933    297.41142  0.017627514  0.017163224            3 
 1407000   0.68602149   -7.9329744    297.30242   0.01760853  0.017149415            2 
 1408000   0.67993954   -7.9149792    297.06772  0.017582133  0.017135617            3 
 1409000   0.69892903   -7.9524486    297.18219  0.017576425  0.017121765            2 
 1410000   0.70211632    -7.925306    297.25791  0.017568435  0.017107934            7 
 1411000   0.68582538   -7.9442198    297.01048   0.01754137  0.017094101            2 
 1412000   0.68327528   -7.9787665    296.55748  0.017502212  0.017080242            3 
 1413000   0.67826775    -7.961371    296.82909  0.017505844  0.017066354            2 
 1414000   0.69011379   -7.9734943    297.58119  0.017537788  0.017052509            2 
 1415000   0.69784012   -7.9600017    297.69478  0.017532084  0.017038689            4 
 1416000   0.69102167   -7.9588094    296.75307  0.017464282  0.017024871            2 
 1417000    0.6821254   -7.9412558    297.26229  0.017481904    0.0170111            3 
 1418000   0.66548166   -7.9470797    297.95953  0.017510551  0.016997303            4 
 1419000   0.70417829   -7.9583846    297.23392  0.017455598  0.016983568            3 
 1420000   0.67435484   -7.9462807    297.17849  0.017440052  0.016969838            4 
 1421000   0.70046111   -7.9648711    297.47916  0.017445412  0.016956078            2 
 1422000   0.70740369   -7.9545222    297.08038  0.017409774  0.016942312            5 
 1423000   0.67879025   -7.9584705    297.92992   0.01744729  0.016928568            4 
 1424000   0.68440414   -7.9618521    297.28318   0.01739719  0.016914861            3 
 1425000   0.68572823   -7.9445841     297.8048  0.017415485   0.01690114            3 
 1426000   0.69458227   -7.9394511    297.08442  0.017361175  0.016887429            3 
 1427000   0.68922343   -7.9712318    297.35894   0.01736504  0.016873739            4 
 1428000   0.69244689   -7.9446687    297.48944  0.017360495  0.016860042            4 
 1429000   0.66993529   -7.9586005    297.24849  0.017334295  0.016846358            2 
 1430000   0.68853987   -7.9572138    297.50024  0.017336844   0.01683268            3 
 1431000   0.67725416   -7.9330216    297.92022  0.017349186  0.016819035            3 
 1432000    0.6894402   -7.9596352    297.36979  0.017305039  0.016805369            4 
 1433000   0.69220087   -7.9727865    296.72091  0.017255229  0.016791723            4 
 1434000   0.68033836   -7.9546859    297.58223  0.017293249  0.016778076            4 
 1435000    0.6791788   -7.9670338    297.64603  0.017284903  0.016764436            4 
 1436000   0.67923074   -7.9330368    297.71435  0.017276831  0.016750828            4 
 1437000   0.67149314   -7.9697655    297.80055  0.017269807  0.016737245            3 
 1438000   0.67599555   -7.9544089    297.75897  0.017255388  0.016723665            3 
 1439000   0.68053717   -7.9469892    297.49695  0.017228223  0.016710097            7 
 1440000   0.69275585   -7.9730336      297.701  0.017228067  0.016696494            6 
 1441000   0.68500988   -7.9834323     297.2848  0.017192043  0.016682942            3 
 1442000     0.679067   -7.9804923    297.43165  0.017188607  0.016669396            4 
 1443000   0.68245205   -7.9389663    297.73812  0.017194394  0.016655908            4 
 1444000   0.68526251   -7.9643552    297.71682  0.017181257  0.016642412            3 
 1445000   0.67829731    -7.971119    298.19657  0.017197034  0.016628913            2 
 1446000   0.69086157   -7.9649743    297.44461  0.017141805  0.016615457            5 
 1447000   0.68127758   -7.9589467     297.5838  0.017137975  0.016602004            3 
 1448000   0.68339436   -7.9531019    297.78948  0.017137976  0.016588552            2 
 1449000   0.67652842   -7.9787824    297.26809  0.017096164  0.016575096            4 
 1450000   0.67339872    -7.931371    297.85895  0.017118331  0.016561649            5 
 1451000   0.68307656   -7.9548732    297.45296  0.017083216  0.016548196            5 
 1452000   0.67792359   -7.9372951    297.81093  0.017091996    0.0165348            4 
 1453000   0.67877642   -7.9496774     297.6475  0.017070859  0.016521398            4 
 1454000   0.66936555   -7.9823821    296.48929  0.016992738  0.016507985           11 
 1455000   0.68021956     -7.96642    297.85041  0.017059016  0.016494599            2 
 1456000   0.67099462   -7.9612659    297.35195   0.01701877  0.016481247            7 
 1457000   0.67711188   -7.9607737    297.82547  0.017034172  0.016467904            4 
 1458000   0.66744518   -7.9652777    297.81644  0.017021973  0.016454575            3 
 1459000   0.66422558   -7.9517501    298.16859   0.01703042  0.016441258            4 
 1460000    0.6772605   -7.9587637    297.84876    0.0170005  0.016427924            4 
 1461000   0.66680635    -7.985508    297.44285  0.016965711  0.016414604            5 
 1462000   0.67357685   -7.9650868    297.48819  0.016956691   0.01640131            8 
 1463000   0.66561416   -7.9595274    297.64868  0.016954242  0.016387974            8 
 1464000   0.68767979   -7.9677464    297.20198  0.016917235  0.016374669            5 
 1465000   0.67869201   -7.9827339     297.3449  0.016913817  0.016361359            4 
 1466000   0.67392733   -7.9608907    297.19411  0.016893708  0.016348036            2 
 1467000   0.66532841   -7.9647241    297.60913  0.016905768  0.016334745            8 
 1468000   0.67102877   -7.9946035    297.88553  0.016909942   0.01632147            3 
 1469000   0.66041612   -7.9579075    298.26853  0.016920157  0.016308228            5 
 1470000   0.67628639   -7.9875196    297.88694  0.016887015  0.016294951            5 
 1471000    0.6697082     -7.98252     297.6092    0.0168598  0.016281666            4 
 1472000   0.66744138   -8.0028055    297.68781  0.016852797  0.016268413            5 
 1473000   0.66857625   -7.9863576    297.49059  0.016830198  0.016255184            4 
 1474000   0.66479469   -7.9715382     297.1826  0.016801368  0.016241882            7 
 1475000   0.67129567   -8.0093911    297.72525  0.016820636  0.016228631            4 
 1476000   0.66984561   -7.9737824    297.52376  0.016797863  0.016215388            7 
 1477000   0.68019378   -7.9906998    297.84443  0.016804583  0.016202127            5 
 1478000   0.66571372   -8.0028224    297.48516  0.016772957  0.016188912            2 
 1479000   0.67307414   -7.9879085    297.93181  0.016786782  0.016175732            8 
 1480000   0.66523016   -7.9996041    297.84251  0.016770411  0.016162534            7 
 1481000   0.67679538     -7.98877     297.2925   0.01672814  0.016149355            5 
 1482000   0.65060731   -7.9892681    297.09035  0.016705485  0.016136181            4 
 1483000   0.65306962   -7.9937262    297.87132  0.016738105  0.016123022            3 
 1484000   0.67539345   -8.0155799    297.72393  0.016718549   0.01610988            3 
 1485000   0.66921474   -8.0106453    297.50881  0.016695219  0.016096723            7 
 1486000   0.66697283   -8.0039992    297.95614   0.01670907  0.016083558            2 
 1487000   0.66122229     -8.00656    297.58605  0.016677093  0.016070409            4 
 1488000   0.64448028    -8.008652    297.57255   0.01666513  0.016057255            3 
 1489000   0.64911034   -8.0139033     296.9806  0.016620808  0.016044074            4 
 1490000   0.65896993   -8.0088465    297.15205  0.016619242  0.016030937            5 
 1491000   0.66089929   -7.9881171    297.53057  0.016629252   0.01601782            6 
 1492000   0.65844073   -8.0340842    296.84701  0.016579927  0.016004694            5 
 1493000   0.66654891   -8.0315157    297.33625  0.016596129  0.015991555            2 
 1494000   0.67411088   -8.0093052    296.87811  0.016559466  0.015978427            5 
 1495000   0.65416515   -8.0167648     296.8621  0.016547497  0.015965264            5 
 1496000   0.65944902   -8.0302191    296.89764  0.016538416  0.015952122            2 
 1497000   0.66698214   -8.0304221    296.46915  0.016503515  0.015938941            8 
 1498000   0.66241777   -8.0346221    296.98543  0.016521219  0.015925771            5 
 1499000   0.65866626   -8.0344164    297.39618  0.016533032  0.015912638            3 
 1500000   0.64892144   -8.0200684    297.67919  0.016537733  0.015899497            2 
 1501000   0.64420434   -8.0207338    296.52407  0.016462585  0.015886409            3 
 1502000   0.67598044   -8.0291149    296.89105  0.016471985  0.015873326            5 
 1503000   0.66172653   -8.0164746    297.40168  0.016489337  0.015860257            6 
 1504000   0.63844976   -8.0244263    297.45981  0.016481594  0.015847173            4 
 1505000   0.64053469   -8.0485152    297.48367  0.016471964  0.015834097            2 
 1506000   0.64244985   -8.0032483    297.33185  0.016452626  0.015821092            3 
 1507000   0.65139905   -8.0361314    297.79175   0.01646714  0.015808086            3 
 1508000   0.65286319   -8.0161286    297.67162  0.016449581  0.015795083           10 
 1509000   0.65154053   -8.0366385    297.19823  0.016412537   0.01578213            3 
 1510000   0.65578584   -8.0152095    297.48251  0.016417357  0.015769198            3 
 1511000   0.67280792   -8.0200198    297.86093  0.016427362  0.015756273            2 
 1512000   0.65669599   -8.0264934    296.81968  0.016359109  0.015743321            1 
 1513000   0.64626655   -8.0316462    296.91574  0.016353588  0.015730388            4 
 1514000   0.65555966   -8.0283303    297.16886  0.016356718  0.015717442            7 
 1515000    0.6426572   -8.0204639    297.27635  0.016351835   0.01570452            4 
 1516000   0.66433485    -8.037489    297.50647  0.016353698  0.015691587            3 
 1517000   0.64308024   -8.0416891    296.90782  0.016310032  0.015678651            4 
 1518000   0.65050608   -8.0316891     297.0509  0.016307142  0.015665751            7 
 1519000   0.65670262   -8.0521377    297.13596  0.016301073  0.015652862            2 
 1520000   0.65476712   -8.0520661    297.03558  0.016284845  0.015639981            3 
 1521000   0.64627333   -8.0504458    297.13634  0.016279659  0.015627102            5 
 1522000   0.65622418   -8.0539962    296.92926  0.016257625  0.015614238            4 
 1523000   0.64124908   -8.0489477    297.54766  0.016280787  0.015601365            4 
 1524000   0.64591435   -8.0529156    297.60983  0.016273504  0.015588522            5 
 1525000      0.65619   -8.0629553    297.20523  0.016240723  0.015575664            5 
 1526000   0.64593857   -8.0730487    297.02291  0.016220124  0.015562805            4 
 1527000   0.65068696   -8.0547128    297.59905  0.016240944   0.01554997            4 
 1528000   0.64040249   -8.0401302    296.98853  0.016197018  0.015537136            3 
 1529000   0.65939316   -8.0385576    297.05586  0.016190095   0.01552431            4 
 1530000     0.648809   -8.0498997    297.16148  0.016185266  0.015511512            4 
 1531000   0.63479083   -8.0379501    297.09445  0.016171045   0.01549871            7 
 1532000   0.63342028   -8.0662065    296.95911  0.016153128  0.015485898            6 
 1533000   0.65431314   -8.0587264    297.49449  0.016171694  0.015473106            5 
 1534000   0.65257068   -8.0780414    297.21905  0.016146189  0.015460315            3 
 1535000   0.63748819   -8.0694055    296.61766  0.016103022  0.015447562            2 
 1536000   0.63606641   -8.0473906    296.84701  0.016104981  0.015434783            7 
 1537000   0.64509781   -8.0577143    296.79707  0.016091795  0.015422014            3 
 1538000   0.65825188    -8.058576    296.92482  0.016088254   0.01540926            3 
 1539000   0.62776478   -8.0724402    296.39705  0.016049223  0.015396496            4 
 1540000   0.63784185   -8.0656637    296.45423  0.016041896  0.015383736            5 
 1541000   0.63326116   -8.0498176    297.08694  0.016065701  0.015370986            4 
 1542000   0.63903696   -8.0715947    296.78695   0.01603907  0.015358237            3 
 1543000   0.63500483   -8.0881004    296.35219  0.016005195  0.015345489            3 
 1544000   0.64045923   -8.0879079    296.44908  0.016000058  0.015332781            3 
 1545000    0.6268933   -8.0709567    296.64953  0.016000514   0.01532007            2 
 1546000   0.62246914   -8.0709619    296.75147  0.015995659  0.015307354            3 
 1547000   0.65014563   -8.0598216    297.39232   0.01601984  0.015294684            2 
 1548000   0.64494139   -8.0755643    297.10107  0.015993813  0.015282038            4 
 1549000    0.6309062   -8.0816618    297.07245  0.015981948  0.015269386            5 
 1550000   0.62605534   -8.0597082    297.31325  0.015984583  0.015256732            4 
 1551000   0.63267905   -8.0609238    296.94546  0.015954516  0.015244107            4 
 1552000   0.63521008   -8.0813215    296.60373  0.015925888    0.0152315            4 
 1553000   0.63249605   -8.0787946    296.34988  0.015902011  0.015218896            3 
 1554000   0.63863552   -8.0888829    297.04943  0.015929292  0.015206282            3 
 1555000   0.64383348   -8.0839852    297.15589  0.015924753   0.01519368            2 
 1556000    0.6400483   -8.0891321    296.17842  0.015862169    0.0151811            5 
 1557000   0.63614859   -8.0723064    297.34133  0.015914222  0.015168548            3 
 1558000   0.63279897    -8.065911    297.37448  0.015905781  0.015155997            2 
 1559000   0.62685375   -8.0737718    297.16246  0.015884245  0.015143443            4 
 1560000   0.64201427   -8.0794116    296.84794  0.015857262  0.015130898            3 
 1561000   0.62668165   -8.0801259     296.4987   0.01582846  0.015118374            6 
 1562000   0.63707723   -8.0824399     296.6861  0.015828324  0.015105805            8 
 1563000    0.6227676    -8.080221    297.33866  0.015852989  0.015093278            3 
 1564000   0.62942918   -8.0775106    297.25987  0.015838655   0.01508081            5 
 1565000   0.63804223   -8.0895824    297.23243  0.015827073  0.015068318            3 
 1566000   0.62881489   -8.1076286    296.67754  0.015787438   0.01505585            3 
 1567000   0.63930947   -8.1224543     296.8637  0.015787263  0.015043377            4 
 1568000    0.6320061   -8.1225004    296.90004  0.015779127  0.015030908            3 
 1569000   0.63405002   -8.1085706    296.83522  0.015765627  0.015018467            4 
 1570000   0.63214952   -8.0886489    296.89002  0.015758494  0.015006009            6 
 1571000    0.6212909   -8.1009563    296.63816  0.015735103  0.014993565            5 
 1572000   0.62116202    -8.120809    296.93568  0.015740865  0.014981139            4 
 1573000   0.62510354   -8.1395386    296.64382  0.015715396  0.014968697            2 
 1574000   0.63016427   -8.0961756    297.35346  0.015742983  0.014956289            4 
 1575000   0.62054758   -8.1021722    296.87773  0.015707816  0.014943894            3 
 1576000   0.62149059   -8.0915221    296.25779  0.015665069  0.014931516            5 
 1577000   0.60796428    -8.115447    297.10202  0.015699747   0.01491914            3 
 1578000   0.62026264   -8.1125533    297.20497  0.015695235   0.01490679            2 
 1579000   0.60732601   -8.1160578    297.14726  0.015682249  0.014894426            6 
 1580000   0.62921356   -8.1101907    296.80902  0.015654484  0.014882085            3 
 1581000   0.61694654   -8.1343127    296.80808  0.015644533  0.014869739            4 
 1582000   0.62335513   -8.0988013    297.01541  0.015645565  0.014857419            2 
 1583000    0.6208525   -8.1054682    297.18075  0.015644386    0.0148451            2 
 1584000   0.61751057   -8.1134847    297.08793  0.015629626  0.014832816            4 
 1585000   0.62197115   -8.1098248    296.98752  0.015614486  0.014820535            2 
 1586000    0.6084301   -8.0949081    296.67674  0.015588311  0.014808281            4 
 1587000   0.62181923   -8.1122533    297.21744  0.015606881  0.014796016            2 
 1588000   0.62282096   -8.1320457    296.90165  0.015580481   0.01478376            4 
 1589000   0.61604563   -8.1318851     296.9051  0.015570857  0.014771515            3 
 1590000   0.62781374   -8.1180371    296.96914  0.015564421  0.014759283            3 
 1591000   0.61017551   -8.1287577    297.41423   0.01557795  0.014747037            7 
 1592000   0.62079201   -8.1110588    296.53181  0.015521975  0.014734792            3 
 1593000   0.60881521   -8.1110596    296.50185  0.015510664  0.014722588            3 
 1594000   0.59928437   -8.1098151    297.02746  0.015528412  0.014710391            3 
 1595000   0.61222968   -8.1106274    296.90452  0.015512253  0.014698157            6 
 1596000   0.63167618   -8.1223273    296.83527  0.015498918   0.01468597            3 
 1597000   0.62411062   -8.1401216    296.67188  0.015480687  0.014673791            5 
 1598000   0.62472259    -8.123988    296.95052   0.01548553  0.014661623            6 
 1599000   0.62537391   -8.1270684     296.4704  0.015450823  0.014649455            6 
 1600000   0.61306089   -8.1063273    296.87943   0.01546247  0.014637308            5 
 1601000    0.6152079    -8.135542    297.02727  0.015460507  0.014625202            2 
 1602000   0.60400712   -8.1108359    296.56189  0.015426648  0.014613088            4 
 1603000   0.62353265   -8.1365448    296.76178  0.015427416  0.014600998            3 
 1604000   0.60533109   -8.1275887    296.48544  0.015403442  0.014588906            3 
 1605000    0.5993991   -8.1219682    296.54105  0.015396732  0.014576817            4 
 1606000   0.61933411   -8.1350741     296.6751    0.0153941  0.014564733            3 
 1607000   0.61751647   -8.1243734    296.95736  0.015399158  0.014552674            6 
 1608000   0.61380279   -8.1242117    296.76724  0.015379729  0.014540646            6 
 1609000   0.61914502   -8.1304469    296.54202  0.015358505  0.014528602            3 
 1610000   0.61094002   -8.1367716    296.73224  0.015358811  0.014516553            3 
 1611000   0.61120676   -8.1248239    296.66727  0.015345917   0.01450452            2 
 1612000   0.61648501   -8.1485446    297.04515  0.015355932  0.014492481            2 
 1613000   0.60109741   -8.1429786    296.41434  0.015313822  0.014480441            2 
 1614000   0.59957649   -8.1258908    296.85886  0.015327285  0.014468439            3 
 1615000   0.60824026   -8.1583575     296.7139  0.015310315  0.014456441            7 
 1616000   0.61166345   -8.1296235    297.05535  0.015318448  0.014444447            4 
 1617000   0.60917573   -8.1383633    296.54406  0.015282625  0.014432473            4 
 1618000   0.60847209    -8.126722    297.41332   0.01531795  0.014420514            3 
 1619000   0.60344428   -8.1417361    296.62475  0.015267899  0.014408553            4 
 1620000   0.61320107   -8.1299493    296.04182  0.015228489  0.014396603            2 
 1621000   0.60514472   -8.1421629    296.08322  0.015221222  0.014384677            1 
 1622000   0.59464147   -8.1255957    296.76122  0.015246672  0.014372762            3 
 1623000   0.60624093   -8.1411052    296.39235  0.015218338  0.014360856            4 
 1624000   0.60219147   -8.1325471    297.03603  0.015241997  0.014348953            3 
 1625000   0.61083396   -8.1462853    296.77522  0.015219242   0.01433706            3 
 1626000   0.60142926   -8.1460658    296.61275  0.015201555  0.014325193            3 
 1627000   0.59763198   -8.1410136    296.99849  0.015211969  0.014313321            2 
 1628000   0.59432931   -8.1482967    296.92465  0.015198846  0.014301474            6 
 1629000   0.60452585   -8.1450208    296.57381  0.015171568  0.014289616            3 
 1630000   0.59641121   -8.1551437    296.35758  0.015151206  0.014277758            4 
 1631000   0.59700437   -8.1605463    296.37814  0.015142966  0.014265919            5 
 1632000   0.61101697   -8.1422012    296.74947  0.015152649  0.014254095            4 
 1633000   0.59746482    -8.150389    297.12023   0.01516229  0.014242268            3 
 1634000   0.59319432   -8.1390924    296.27912  0.015110114  0.014230462            2 
 1635000   0.59072895   -8.1432891    295.93716  0.015083443  0.014218649            6 
 1636000   0.60622698   -8.1559266    295.95617  0.015075192   0.01420685            4 
 1637000   0.60329041   -8.1417554    296.74078  0.015105924  0.014195076            4 
 1638000   0.59878605   -8.1356075    296.71349  0.015095314  0.014183304            5 
 1639000   0.60206749   -8.1702161    296.44339  0.015072371  0.014171535            3 
 1640000   0.60521844   -8.1476935     296.0193  0.015041631  0.014159778            2 
 1641000   0.59105401   -8.1399079    296.30742  0.015047096  0.014148006            4 
 1642000   0.59060331   -8.1370546    296.81709  0.015063799  0.014136273            2 
 1643000   0.58944673   -8.1576947    296.40735  0.015033848  0.014124541            5 
 1644000   0.58828537    -8.156248     296.2933  0.015018922  0.014112785            2 
 1645000   0.60245425    -8.163817     296.1775  0.015003926  0.014101035            6 
 1646000   0.59853525   -8.1591017    296.31705  0.015001876  0.014089318            6 
 1647000   0.58939349    -8.183763    296.04107  0.014978803  0.014077608            2 
 1648000   0.58798738   -8.1657059     296.0982  0.014972603   0.01406588            5 
 1649000   0.59798657    -8.158799    296.18501   0.01496791  0.014054182            4 
 1650000   0.59684546   -8.1901093    296.39716  0.014969553  0.014042494            8 
 1651000    0.5927598   -8.1723165    296.00217   0.01494055  0.014030801            3 
 1652000    0.5951843   -8.1763045    296.05519   0.01493418  0.014019133            5 
 1653000   0.60948677   -8.1742982    296.06024    0.0149254  0.014007458            4 
 1654000   0.59120994   -8.1832646    295.78339  0.014902428  0.013995769            3 
 1655000   0.58635504   -8.1855489    296.72786   0.01494098  0.013984128            4 
 1656000   0.59606087   -8.1838028    296.18197  0.014904487  0.013972491            2 
 1657000   0.58741417   -8.1739843    295.66518  0.014869502  0.013960874            9 
 1658000   0.59381311   -8.1704093    296.32252  0.014893572  0.013949258            4 
 1659000   0.59354555   -8.1824671    295.98943  0.014867863  0.013937641            3 
 1660000   0.59338933    -8.177564    295.70613  0.014844685  0.013926048            3 
 1661000   0.58972397   -8.1893978     295.6481  0.014832837  0.013914444            3 
 1662000   0.59298451   -8.1797251     295.6574  0.014824378  0.013902842            4 
 1663000   0.58938837   -8.1838067     295.4122  0.014803177  0.013891254            3 
 1664000   0.59571989   -8.1851287    295.63848  0.014805613  0.013879661            3 
 1665000   0.58591173   -8.1666941    295.55725  0.014792655  0.013868087            3 
 1666000   0.58819567   -8.1788681    295.83098  0.014797468  0.013856512            3 
 1667000   0.59226046    -8.189887    295.97818   0.01479595  0.013844942            3 
 1668000   0.59519353   -8.1884421     295.7788  0.014777118  0.013833391            6 
 1669000   0.57612146   -8.1935461    296.26548  0.014792564  0.013821843            4 
 1670000   0.58593954   -8.1995438     295.7634  0.014758653  0.013810299            2 
 1671000   0.58371247   -8.1627565     295.8228  0.014752783  0.013798777            3 
 1672000   0.59205745   -8.1726346    296.08498  0.014757026  0.013787292            3 
 1673000   0.58107643   -8.1735241    295.94043  0.014741006   0.01377581            8 
 1674000   0.57806985   -8.1914237    295.98309  0.014734323  0.013764344            5 
 1675000   0.59103025    -8.189011    295.27271  0.014690185  0.013752867            7 
 1676000   0.57781665   -8.1851517    296.26602  0.014730809  0.013741413            4 
 1677000   0.58593649   -8.1919021    295.74103  0.014695937  0.013729965            5 
 1678000   0.58289389   -8.2017263    296.07481  0.014703755  0.013718526            5 
 1679000   0.59075164   -8.1768638      295.635  0.014673168  0.013707089            3 
 1680000   0.58157157   -8.1750342    295.67718  0.014666527  0.013695668            3 
 1681000   0.58202003   -8.1827035    295.89933  0.014668815  0.013684253            3 
 1682000   0.56579699   -8.1985194    295.81537  0.014655934  0.013672854            2 
 1683000   0.58452405   -8.1874141    295.83317  0.014648107  0.013661475            9 
 1684000   0.58653883   -8.1845268     295.8507  0.014640276  0.013650098            6 
 1685000   0.58098029   -8.1915574    295.94105  0.014636056  0.013638714            3 
 1686000   0.59363518    -8.192695    295.69137  0.014615034  0.013627339            4 
 1687000   0.58442263   -8.1995516    295.59667  0.014601693  0.013615972            3 
 1688000   0.58564284   -8.2113139    295.74366  0.014600299  0.013604601            3 
 1689000   0.57251501   -8.1972477    295.87881  0.014598323  0.013593245            5 
 1690000   0.57566315   -8.1957944    295.36132  0.014564168  0.013581893            3 
 1691000   0.56437431   -8.1895698    295.65169  0.014569864  0.013570564            2 
 1692000   0.56553065   -8.2152944    295.65701  0.014561516  0.013559235            9 
 1693000   0.58365881   -8.1993452    295.81905   0.01456089  0.013547924            2 
 1694000   0.57225163   -8.2263181     295.7783   0.01455029  0.013536612            4 
 1695000   0.56401876   -8.1928392    295.42624  0.014524397  0.013525312            4 
 1696000   0.57575795    -8.221025    295.32646  0.014510931  0.013514012            3 
 1697000   0.57790089   -8.2265029    295.38223  0.014505118  0.013502728            3 
 1698000   0.57175976   -8.2279767    295.36681  0.014495819  0.013491472            2 
 1699000   0.57225243   -8.1902309    295.97967  0.014517347  0.013480223            4 
 1700000    0.5718859    -8.181341    295.49215  0.014484909  0.013468991            4 
 1701000   0.58030015    -8.227635    295.58117  0.014480755  0.013457751            5 
 1702000   0.56486994   -8.2105881    295.22481  0.014454799  0.013446511            3 
 1703000   0.58159378   -8.2260981    295.39726   0.01445475  0.013435291            3 
 1704000   0.58439757   -8.2008055    295.55873  0.014454163   0.01342409            5 
 1705000   0.57043641   -8.2004818    295.74474  0.014454777  0.013412905            3 
 1706000   0.57232322   -8.2183082    295.11635  0.014415609  0.013401727            4 
 1707000   0.56910132   -8.2308946    295.08751  0.014405756  0.013390561            3 
 1708000   0.56802068    -8.213084    295.61399  0.014423009  0.013379389            4 
 1709000   0.56587438   -8.2377445    295.63675  0.014415679  0.013368223            4 
 1710000   0.56802385     -8.22185    295.78382  0.014414416  0.013357083            4 
 1711000   0.57300301   -8.2259633    295.64587  0.014399273  0.013345941            3 
 1712000   0.57040401   -8.2329597    295.29246  0.014373659  0.013334812            4 
 1713000   0.56843141   -8.2014515    295.04284  0.014353125  0.013323707            4 
 1714000   0.56974558   -8.2225047    295.18977  0.014351894  0.013312617            3 
 1715000   0.57809856   -8.2284449    294.97909  0.014333289  0.013301545            3 
 1716000   0.56859061   -8.2107951    295.32939  0.014341948  0.013290491            4 
 1717000   0.56247902   -8.2396308    295.12882   0.01432386  0.013279438            6 
 1718000   0.56608476   -8.2220229    295.28993  0.014323338  0.013268386            2 
 1719000   0.57583494   -8.2275736    295.14668  0.014308061  0.013257354            2 
 1720000   0.57419175   -8.2244006     295.1809    0.0143014  0.013246322            4 
 1721000   0.57998314   -8.2049279    295.34905  0.014301232   0.01323529            3 
 1722000   0.57093951   -8.2427796    295.23236   0.01428728  0.013224274            5 
 1723000   0.57331436   -8.2241411    295.65883  0.014299615  0.013213276            4 
 1724000   0.56788818   -8.2407868    295.26927   0.01427249  0.013202268            3 
 1725000   0.56549504   -8.2325734    295.27066  0.014264283  0.013191277            7 
 1726000   0.57484559   -8.2422773    295.11728  0.014248613  0.013180295            3 
 1727000   0.55272403   -8.2425711     295.3215  0.014250217  0.013169342            6 
 1728000   0.55786636   -8.2355025     295.2654  0.014239265   0.01315838            5 
 1729000   0.57233509   -8.2346219     295.7561   0.01425468  0.013147436            3 
 1730000    0.5656824   -8.2396065    295.49571  0.014233897  0.013136499            3 
 1731000   0.56498289    -8.237942    295.58038  0.014229751  0.013125576            4 
 1732000   0.56221374   -8.2289142    295.75028   0.01422971  0.013114675            4 
 1733000   0.55917348   -8.2357248    295.11187    0.0141908  0.013103762            5 
 1734000   0.55998418   -8.2477373    294.97764  0.014176165   0.01309286            4 
 1735000   0.55924126   -8.2344441    295.00571  0.014169342  0.013081965            5 
 1736000   0.55153536   -8.2390883    295.28887  0.014174773  0.013071083            3 
 1737000   0.55898838   -8.2444989     295.1244  0.014158722  0.013060207            5 
 1738000   0.56593939   -8.2396363    294.85722  0.014137764  0.013049354            6 
 1739000    0.5594407    -8.227702    295.02911  0.014137872  0.013038508            4 
 1740000   0.56297305   -8.2448466    295.18972  0.014137439  0.013027656            4 
 1741000   0.56131802   -8.2598109    295.18092  0.014128897  0.013016825            8 
 1742000   0.56940587   -8.2356144    295.52338  0.014137169  0.013006018            4 
 1743000   0.55829738   -8.2411247     295.3507  0.014120802  0.012995216            6 
 1744000   0.55823437   -8.2365494    295.16276  0.014103725  0.012984435            5 
 1745000   0.55525971   -8.2520956    295.10693  0.014092976  0.012973647            7 
 1746000    0.5495162   -8.2452703    295.78099  0.014117077  0.012962874            4 
 1747000   0.56185889   -8.2373646    294.70324  0.014057586  0.012952112            4 
 1748000   0.56200052   -8.2467748     295.2561  0.014075901  0.012941347            4 
 1749000   0.55557497   -8.2570283    295.29363  0.014069641  0.012930608            6 
 1750000   0.54913022   -8.2414577    295.34838  0.014064209  0.012919879            5 
 1751000   0.55170817   -8.2389339    294.96171  0.014037774   0.01290914            4 
 1752000   0.55596201   -8.2522684    295.05184  0.014034049  0.012898407            3 
 1753000   0.56516704   -8.2472417    295.25642  0.014035768  0.012887698            5 
 1754000   0.54244142    -8.244603    295.71677  0.014049637  0.012877007            4 
 1755000   0.54780806   -8.2463318    294.85613  0.014000766   0.01286631            8 
 1756000   0.55247645   -8.2525854    295.04647  0.014001825  0.012855629            4 
 1757000   0.53660182   -8.2660516    294.94673  0.013989126  0.012844946           10 
 1758000   0.55633417   -8.2665311    295.22855  0.013994527  0.012834278            6 
 1759000   0.55683496    -8.253724    294.99224  0.013975376  0.012823625            7 
 1760000   0.55014309   -8.2650909    294.75549  0.013956226  0.012812972            5 
 1761000   0.53925135   -8.2581219    295.25089  0.013971744  0.012802347            6 
 1762000   0.54561833    -8.254801    295.25423  0.013963972  0.012791733            8 
 1763000   0.54625229   -8.2284771    294.97848  0.013943018  0.012781125            5 
 1764000   0.54623967   -8.2496243    295.27941   0.01394933   0.01277052            2 
 1765000   0.54891183   -8.2621667    295.08301  0.013932153  0.012759933            3 
 1766000   0.55379333   -8.2609959    294.57755  0.013900413  0.012749341            8 
 1767000   0.55215616   -8.2556682     294.8606  0.013905895  0.012738757            5 
 1768000   0.54392154   -8.2624208    295.04732  0.013906831  0.012728192            5 
 1769000   0.53827625   -8.2634144    294.57512  0.013876725  0.012717624            3 
 1770000   0.54899463   -8.2784997    294.91277  0.013884782  0.012707082            4 
 1771000   0.54901615   -8.2782299    294.66315  0.013865196   0.01269654            5 
 1772000   0.53427992   -8.2749628    294.82747  0.013865099   0.01268601            4 
 1773000   0.54184184   -8.2561098    294.77929  0.013855015  0.012675486            6 
 1774000   0.54158289   -8.2704819    294.77004   0.01384677  0.012664973            5 
 1775000   0.54856958   -8.2903179    294.39088  0.013821168  0.012654482            7 
 1776000   0.54635943   -8.2705814     294.8111  0.013833103  0.012643979            3 
 1777000   0.53930041   -8.2725304    294.81668  0.013825581  0.012633488            3 
 1778000   0.55011385   -8.2524656    294.55745  0.013805655  0.012623003            5 
 1779000   0.53411752   -8.2643706    294.59017  0.013799427  0.012612536            4 
 1780000   0.54310377   -8.2517868    294.81624  0.013802258  0.012602078           10 
 1781000   0.54226864   -8.2861291     294.7362  0.013790764  0.012591625            5 
 1782000   0.55237785    -8.267566    294.58862  0.013776123  0.012581182            7 
 1783000   0.54601836    -8.275536     295.2065  0.013797275  0.012570766            7 
 1784000   0.53706113   -8.2772019    294.72483  0.013767042  0.012560353            4 
 1785000   0.53503421   -8.2695671    294.74394  0.013760221  0.012549943            4 
 1786000   0.54202659   -8.2580161    294.49017  0.013740676  0.012539541            7 
 1787000   0.54800644   -8.2832548    294.73055  0.013744196  0.012529152            8 
 1788000   0.54085445   -8.2790877    294.35016  0.013718781  0.012518795            6 
 1789000   0.54935438   -8.2661187    294.56394  0.013721071  0.012508443            5 
 1790000   0.54284524   -8.2808903    294.61286  0.013715683  0.012498091            6 
 1791000   0.54532858   -8.2889377    294.97624  0.013724932  0.012487767            1 
 1792000   0.53536669   -8.2813802    294.41293  0.013691078  0.012477436            3 
 1793000   0.54387307   -8.2976435    294.49227  0.013687129  0.012467114            4 
 1794000   0.53191858   -8.2926843    294.87454  0.013697256  0.012456807            6 
 1795000   0.53069355   -8.2698873    294.31821  0.013663798  0.012446494            4 
 1796000   0.53267632   -8.2805118    294.48074  0.013663731  0.012436198            3 
 1797000    0.5476973   -8.2719518    295.08631   0.01368421    0.0124259            4 
 1798000   0.53958877   -8.2698913    294.35916  0.013642898  0.012415617            3 
 1799000    0.5301518   -8.2932205    294.16375  0.013626262  0.012405347            4 
 1800000   0.54255577   -8.2862989    294.22773  0.013621654  0.012395092            5 
 1801000   0.53108621   -8.2819678    294.70677  0.013636256  0.012384838            4 
 1802000   0.52765411   -8.3061748    294.53622  0.013620802  0.012374606            5 
 1803000    0.5408037   -8.2779456    294.15478  0.013595617  0.012364376            6 
 1804000   0.53371073   -8.3142319    294.75838  0.013615964  0.012354155            5 
 1805000   0.53309361   -8.2755833    294.30709  0.013587585  0.012343942            5 
 1806000   0.52843795   -8.2828057    294.07628  0.013569411   0.01233374            4 
 1807000   0.52781312   -8.2949824     294.4032  0.013576979   0.01232354            3 
 1808000   0.53336475   -8.2898706    294.46486  0.013572311  0.012313359            4 
 1809000   0.53288162   -8.2928194    294.43096  0.013563247  0.012303189            6 
 1810000   0.54020843   -8.2867808    294.36282  0.013552616  0.012293029            6 
 1811000   0.52162991   -8.2947449    294.42329  0.013547915  0.012282879            4 
 1812000   0.52472691   -8.2693529    294.47878   0.01354299  0.012272743            6 
 1813000   0.52488211   -8.2833338    294.57662  0.013540017  0.012262624            5 
 1814000   0.52332334   -8.3045833     294.5258  0.013530219    0.0122525            4 
 1815000   0.52430756      -8.2957    294.26809  0.013510931  0.012242377            6 
 1816000   0.52896568   -8.2753806    294.44475  0.013511598  0.012232272            4 
 1817000   0.52686277    -8.304607    294.17324   0.01349171  0.012222185            5 
 1818000   0.53706064    -8.296369    294.20699  0.013485836  0.012212108            9 
 1819000   0.52912299   -8.2932803     294.0689  0.013472095  0.012202026            4 
 1820000   0.52951854   -8.2794722    294.54265  0.013486385  0.012191953            4 
 1821000    0.5185315   -8.3074244    294.04437  0.013456177  0.012181888            7 
 1822000   0.52518922   -8.2895616    294.88615  0.013487292  0.012171833            6 
 1823000   0.51847296   -8.3029484    294.68094  0.013470513  0.012161796            3 
 1824000   0.52988518   -8.3069531    294.57994  0.013458513  0.012151759            4 
 1825000   0.52279692   -8.2844138    294.15343  0.013431663  0.012141735            5 
 1826000    0.5217724   -8.3122584    294.37403  0.013434375  0.012131714            2 
 1827000    0.5190953   -8.2946251     293.4398   0.01338441  0.012121707            3 
 1828000   0.51981942   -8.2962075    294.10842  0.013407569  0.012111704            4 
 1829000   0.52667407    -8.293827    293.87122  0.013389431  0.012101713            6 
 1830000   0.52807683   -8.3116318    294.54097  0.013412612  0.012091728            6 
 1831000   0.51483364    -8.317328    294.21568  0.013390483   0.01208175            4 
 1832000   0.52952707   -8.3399644    294.18971  0.013381992  0.012071782            4 
 1833000   0.51577354   -8.3066849    293.74861  0.013354638  0.012061825            3 
 1834000   0.52247977   -8.3162856    294.28328   0.01337165  0.012051882            6 
 1835000    0.5283963   -8.2980617    294.25217   0.01336295  0.012041943            4 
 1836000    0.5028213   -8.3037898    294.56088  0.013369684  0.012032014            4 
 1837000   0.51738715   -8.3145523    294.14624  0.013343596  0.012022101            5 
 1838000   0.52037903   -8.2999455    294.18141  0.013337931  0.012012193            2 
 1839000   0.52367809   -8.3279943    293.72901  0.013310178  0.012002292            6 
 1840000    0.5187257   -8.2994516    293.67138  0.013300334  0.011992399            6 
 1841000   0.52461712   -8.3188091    294.10321  0.013312657  0.011982526            4 
 1842000   0.51109629   -8.3116202    293.81302  0.013292301  0.011972648            6 
 1843000   0.50981385   -8.3027458    293.99213  0.013293187  0.011962782            4 
 1844000   0.51885546   -8.3174796    293.65099  0.013270562  0.011952923            8 
 1845000   0.50815488   -8.3224823    293.96511  0.013277557  0.011943077            4 
 1846000   0.52158859   -8.3305402    294.23496  0.013282546   0.01193325            5 
 1847000   0.52101852    -8.312091    293.89083  0.013259828  0.011923423            4 
 1848000   0.51310399   -8.3306212    293.83179   0.01324999  0.011913604            4 
 1849000   0.50667111   -8.3153168    294.43821  0.013270156  0.011903804            6 
 1850000   0.51735359   -8.3374298    293.84163  0.013236109  0.011894007            3 
 1851000   0.52739648   -8.3213554    293.79529  0.013226872  0.011884214            7 
 1852000   0.51694263   -8.3101298    293.97758  0.013227933  0.011874438            3 
 1853000   0.50867992    -8.318186    294.15727  0.013228875  0.011864673            6 
 1854000   0.50946571   -8.3162516    293.45747  0.013190285  0.011854905            5 
 1855000   0.50975336   -8.3105485     293.9406  0.013204879  0.011845154            5 
 1856000   0.51098141   -8.3175752    293.79703  0.013191318  0.011835414            4 
 1857000   0.51664626    -8.317578     294.1417  0.013199682  0.011825682            5 
 1858000   0.50659108   -8.3145083     293.5969  0.013168142  0.011815955            4 
 1859000   0.51316448   -8.3320324    293.60611  0.013161472  0.011806244            6 
 1860000   0.51124092   -8.3129233    293.45158  0.013147472  0.011796548            6 
 1861000   0.51583816   -8.3132488    294.32971  0.013179729  0.011786851            9 
 1862000   0.50025937    -8.320982    294.06115  0.013160632  0.011777164            7 
 1863000   0.51001225    -8.326639    293.93751  0.013148037  0.011767487            4 
 1864000   0.50152805   -8.3245655    293.74844  0.013132531  0.011757828            9 
 1865000   0.51086516   -8.3078724    293.56697   0.01311738  0.011748179            3 
 1866000   0.51475333   -8.3261392     293.5036   0.01310752  0.011738541            8 
 1867000   0.51706322   -8.3206954    293.80027  0.013113742  0.011728908            6 
 1868000   0.51818494   -8.3239239    293.83725  0.013108371  0.011719274            5 
 1869000   0.50737029   -8.3299655     293.9493  0.013106354   0.01170965            4 
 1870000   0.49373201   -8.3404883    294.00682  0.013101908  0.011700038            6 
 1871000   0.50354974   -8.3251541    293.40683  0.013068182   0.01169044            4 
 1872000   0.51589147   -8.3210319    293.70782    0.0130746  0.011680848            3 
 1873000   0.51497274    -8.332697    294.16284  0.013087864  0.011671266            3 
 1874000   0.50602104   -8.3210733    293.36223  0.013045279  0.011661705            8 
 1875000   0.50996947   -8.3202752    293.65286  0.013051238  0.011652146            3 
 1876000   0.49571931    -8.339303    293.59862  0.013041872  0.011642583            6 
 1877000   0.50507168   -8.3004101    293.53681  0.013032179  0.011633039            4 
 1878000   0.49690211   -8.3394959    294.00425  0.013045982  0.011623496            3 
 1879000   0.50590646   -8.3300339     293.6999  0.013025541  0.011613971            4 
 1880000   0.50586717   -8.3356514    293.26654  0.012999403  0.011604455            4 
 1881000   0.50276923    -8.327381    293.68814   0.01301117  0.011594952            6 
 1882000   0.50513855    -8.327842    293.90831  0.013014006  0.011585449            3 
 1883000    0.5049679   -8.3238138    293.65333  0.012995811  0.011575958            5 
 1884000    0.5122517   -8.3150004    293.84927  0.012997579  0.011566479            5 
 1885000   0.50200379   -8.3397252    293.31558   0.01296709  0.011557005            6 
 1886000   0.49893438   -8.3397986    294.03971  0.012992211  0.011547543            4 
 1887000    0.4920335   -8.3298732     293.2462  0.012950283  0.011538088            4 
 1888000   0.50401924   -8.3550699    293.87002  0.012970958  0.011528642            4 
 1889000   0.49511576   -8.3526981    293.58731  0.012951619  0.011519197            6 
 1890000   0.48815139   -8.3524503    293.63085  0.012946687  0.011509769            4 
 1891000   0.49350876   -8.3621755    294.08283  0.012959758  0.011500348            3 
 1892000   0.48681606   -8.3365009    293.94861  0.012946997  0.011490934            6 
 1893000   0.51195476   -8.3539885    293.29653  0.012911451  0.011481531            7 
 1894000   0.50228932   -8.3507121    293.26725  0.012903346   0.01147214            6 
 1895000   0.49548744   -8.3478464     293.8713    0.0129231  0.011462753            6 
 1896000   0.49146543   -8.3494404    293.45145  0.012897831  0.011453377            6 
 1897000   0.48486393   -8.3424686    293.28737  0.012883824  0.011444003            6 
 1898000   0.50129422    -8.327831    293.61583  0.012891457  0.011434646            6 
 1899000    0.5167137   -8.3490868    293.60117  0.012884025  0.011425312            5 
 1900000   0.49091605   -8.3414869    293.47039  0.012871508  0.011415972            3 
 1901000   0.49370164   -8.3653884    293.73375  0.012876282   0.01140664            6 
 1902000   0.49679867   -8.3461372    293.69239    0.0128677  0.011397316            4 
 1903000   0.49620081   -8.3379228    293.76456  0.012864099  0.011388009            6 
 1904000   0.49129045   -8.3637762      293.581  0.012849308  0.011378712            5 
 1905000   0.49869196   -8.3633762    293.39552   0.01283445  0.011369422            5 
 1906000   0.49049694   -8.3479439    293.71328  0.012841609  0.011360148            5 
 1907000   0.48221954   -8.3629424     293.4342  0.012822679  0.011350886            3 
 1908000   0.48888019   -8.3587738    293.34745   0.01281217  0.011341624            7 
 1909000   0.48819704     -8.35203    293.19896  0.012798977  0.011332378            4 
 1910000   0.49063109   -8.3597956    293.40989  0.012801479  0.011323138            5 
 1911000   0.48945995   -8.3477564    293.14136   0.01278307  0.011313907            4 
 1912000   0.49918767    -8.342435    293.31136  0.012783794  0.011304686            5 
 1913000   0.48712072   -8.3552662    294.19532  0.012815618  0.011295475            5 
 1914000   0.49037088   -8.3482395    293.31463  0.012770578  0.011286286            4 
 1915000   0.48281364   -8.3301503    292.78726   0.01274096  0.011277085            3 
 1916000   0.48838281    -8.348123    293.49807  0.012765226  0.011267905            5 
 1917000   0.49480756   -8.3526422     293.1436  0.012743158  0.011258715            2 
 1918000   0.47903315   -8.3821641    293.01458  0.012730908  0.011249546            4 
 1919000   0.49399015   -8.3577195    292.62083  0.012707175  0.011240386            4 
 1920000   0.48972703   -8.3688298    293.25333  0.012728009  0.011231231            5 
 1921000   0.49534405   -8.3600655    293.83802  0.012746747  0.011222083            4 
 1922000   0.48727068   -8.3588001    293.38035  0.012720272  0.011212948            7 
 1923000   0.49855685   -8.3531759    293.47841  0.012717906  0.011203825            6 
 1924000   0.48422032   -8.3472756    293.35727   0.01270605  0.011194718            2 
 1925000   0.48920743   -8.3797598     293.6701  0.012712991  0.011185615            5 
 1926000   0.49599307   -8.3545891    293.12151  0.012682654  0.011176512            8 
 1927000   0.48601674   -8.3575323    293.90886  0.012710122  0.011167437            4 
 1928000   0.48279541   -8.3618172    293.44245   0.01268337  0.011158353            6 
 1929000   0.48265267   -8.3607147     293.1854   0.01266569  0.011149281            3 
 1930000   0.49168147   -8.3636491    293.26479  0.012662556   0.01114022            7 
 1931000   0.48306429   -8.3673008    293.42636  0.012662971  0.011131169            7 
 1932000   0.48119979   -8.3579414    293.25196  0.012648894  0.011122118            3 
 1933000   0.48831004   -8.3707262    292.93826  0.012628827  0.011113083            5 
 1934000   0.47678733   -8.3670121    293.61193  0.012651324  0.011104064            4 
 1935000   0.47992313   -8.3727975    292.86649  0.012612683  0.011095049            3 
 1936000   0.47572557   -8.3665077    292.94301  0.012609461  0.011086041            6 
 1937000   0.47607448   -8.3779614    293.65098   0.01263341  0.011077039            4 
 1938000   0.46943807   -8.3706689    293.09971  0.012603187  0.011068048            5 
 1939000   0.46971558   -8.3665765    292.97182   0.01259119  0.011059064            6 
 1940000   0.48063058   -8.3792792    293.25034  0.012596664  0.011050092            5 
 1941000   0.48430516   -8.3868491    293.41394  0.012597198  0.011041115            4 
 1942000   0.46921546   -8.3813225    292.93839  0.012570305  0.011032158            4 
 1943000   0.47755156   -8.3522756    292.56517  0.012547829  0.011023206            6 
 1944000   0.47940391   -8.3792105    293.02506  0.012561088  0.011014268            7 
 1945000   0.46413283   -8.3675093    293.35658  0.012568834  0.011005341            9 
 1946000   0.48146776   -8.3677109    293.08833  0.012550888  0.010996428            5 
 1947000    0.4791697   -8.3817216    293.16986  0.012547931  0.010987515            3 
 1948000   0.49138077   -8.3707043    293.02875  0.012535453  0.010978605            9 
 1949000   0.47749668   -8.3649699    292.87095  0.012522274  0.010969716            5 
 1950000   0.47461538   -8.3769663    293.20911  0.012530304  0.010960833            5 
 1951000   0.48014287   -8.3859571     292.6611  0.012500474  0.010951948            7 
 1952000   0.46790469   -8.3831757    292.66789   0.01249436  0.010943075            5 
 1953000   0.47924328   -8.3812045    293.28066  0.012514109  0.010934215            2 
 1954000   0.47849504   -8.3791136    292.89831  0.012491398  0.010925362            2 
 1955000   0.47092777   -8.3769652    293.09075  0.012493212  0.010916518            4 
 1956000   0.47237201   -8.3891469    292.80965  0.012474849   0.01090769            4 
 1957000   0.47725943     -8.38339    292.92148  0.012473236  0.010898863            6 
 1958000   0.47002749    -8.359102    292.81255   0.01246223  0.010890052            5 
 1959000   0.46615074   -8.3712223    292.54732  0.012444586   0.01088125            6 
 1960000   0.47050474   -8.3733984    292.95602  0.012455613  0.010872454            7 
 1961000   0.46362582   -8.3941895    292.77976  0.012441771  0.010863654            8 
 1962000   0.46308806   -8.3886402    292.89997  0.012440536  0.010854876            3 
 1963000   0.46316441   -8.3909541    292.74128  0.012427461  0.010846112            4 
 1964000   0.46513158   -8.3842049    292.90091  0.012427907  0.010837345            4 
 1965000    0.4660022   -8.3913131    293.52835  0.012448191  0.010828594            5 
 1966000   0.46545556   -8.3803841    292.78062  0.012410165  0.010819859            3 
 1967000   0.46285631    -8.380937    292.96802  0.012411795  0.010811124            5 
 1968000    0.4661996   -8.3907861    293.06408  0.012409556  0.010802406            4 
 1969000   0.45886404    -8.379243    292.86055   0.01239464  0.010793682            7 
 1970000   0.47023685   -8.4028486    293.03562  0.012395754  0.010784971            4 
 1971000   0.46868637   -8.3904187    292.49105   0.01236644  0.010776271            5 
 1972000   0.46579476   -8.3985519    292.33254  0.012353471  0.010767575            3 
 1973000   0.46429016   -8.3896952    292.90658  0.012371455  0.010758892            6 
 1974000   0.46132817   -8.4005591    293.02833  0.012370328  0.010750212            5 
 1975000     0.469123   -8.3862649    293.01619  0.012363552  0.010741543            5 
 1976000   0.45638236    -8.381606     292.3569  0.012329491  0.010732892            4 
 1977000   0.47198963   -8.3943122    292.96512  0.012348892  0.010724247            4 
 1978000   0.46144589   -8.4047282    293.47349  0.012364067  0.010715605            4 
 1979000   0.46948211   -8.3943338    292.71538  0.012325896  0.010706973            5 
 1980000   0.45180229   -8.4111237    292.96159  0.012330033  0.010698346            5 
 1981000   0.47008076   -8.4081751    292.68023  0.012311973  0.010689732            6 
 1982000   0.46399958   -8.3897599    292.53263  0.012299556  0.010681123            6 
 1983000   0.45616008   -8.3901251    292.47812  0.012291062  0.010672526            6 
 1984000   0.46278354   -8.3822531    292.42045  0.012282445  0.010663929            5 
 1985000   0.46414297   -8.4011841     292.5719  0.012282615   0.01065535            5 
 1986000    0.4662357   -8.3999288    292.92574  0.012291278  0.010646773            5 
 1987000   0.46229961    -8.401253    292.64733  0.012273416  0.010638204            6 
 1988000   0.45757061   -8.3846437    292.87307  0.012276705  0.010629652            4 
 1989000   0.45449776   -8.3945696     293.0027  0.012275964  0.010621104            5 
 1990000   0.45999492   -8.3949531    292.22239  0.012237118  0.010612559            5 
 1991000   0.46559113   -8.4058935    292.87645  0.012258348  0.010604033            4 
 1992000   0.45669634   -8.4092906    292.24203  0.012225654  0.010595508            5 
 1993000    0.4615134   -8.4098816    292.66585  0.012237241  0.010586989            5 
 1994000   0.45255535   -8.4114599     292.4994  0.012224147  0.010578478            7 
 1995000   0.46769934   -8.3977236    292.42692  0.012214993  0.010569973            5 
 1996000   0.45945198   -8.4050371    292.48197  0.012211171  0.010561483           11 
 1997000   0.46141789   -8.4115535    292.28005   0.01219663  0.010553002            8 
 1998000   0.45105554   -8.4067102    292.89652  0.012216238  0.010544532            4 
 1999000   0.45627177   -8.3914083    292.49276  0.012193295  0.010536071            5 
 2000000   0.45769946   -8.4002838    292.82809  0.012201171  0.010527617            2 
 2001000    0.4558268   -8.3983156    292.25423  0.012171174  0.010519181            6 
 2002000    0.4434732   -8.4010144    292.63261  0.012180845  0.010510746            3 
 2003000   0.44947895   -8.4030934    292.68937  0.012177125  0.010502316            5 
 2004000   0.44668915   -8.4012622    292.54516  0.012165051   0.01049391            6 
 2005000   0.44952353   -8.4080321    292.90652  0.012174003  0.010485499            7 
 2006000   0.45439626   -8.4061507    292.66218  0.012157784    0.0104771            3 
 2007000   0.46133631   -8.4118692    292.55951  0.012147463  0.010468706            4 
 2008000   0.44593378   -8.4124902      292.891  0.012155171  0.010460319            8 
 2009000   0.44827216   -8.4244309     292.2452  0.012122333  0.010451937            8 
 2010000   0.45722156    -8.413862    292.27986  0.012117739  0.010443561            7 
 2011000   0.44949296   -8.4183916     292.3575   0.01211493  0.010435197            8 
 2012000   0.45782834   -8.4092871     291.9212  0.012090838  0.010426835            6 
Loop time of 4650.56 on 48 procs for 2000000 steps with 4000 atoms

Performance: 74313.589 tau/day, 430.055 timesteps/s
99.4% CPU use with 48 MPI tasks x no OpenMP threads

MPI task timing breakdown:
Section |  min time  |  avg time  |  max time  |%varavg| %total
---------------------------------------------------------------
Pair    | 293.53     | 316.47     | 340.44     |  61.1 |  6.80
Neigh   | 30.333     | 31.86      | 32.974     |  12.8 |  0.69
Comm    | 291.04     | 317.78     | 344.67     |  70.7 |  6.83
Output  | 4.0856     | 4.0874     | 4.121      |   0.2 |  0.09
Modify  | 3926.1     | 3938.4     | 3946.9     |   5.9 | 84.69
Other   |            | 41.92      |            |       |  0.90

Nlocal:        83.3333 ave          89 max          77 min
Histogram: 3 3 4 5 5 9 3 10 2 4
Nghost:        1979.17 ave        2000 max        1951 min
Histogram: 1 1 2 6 9 7 5 12 2 3
Neighs:        12713.5 ave       14483 max       11001 min
Histogram: 2 3 5 5 12 5 6 5 4 1
FullNghs:      25427.5 ave       27439 max       23270 min
Histogram: 4 2 6 5 7 3 5 9 3 4

Total # of neighbors = 1220518
Ave neighs/atom = 305.12950
Neighbor list builds = 107373
Dangerous builds = 0

#clear
#
#next RN
#
#jump SELF
Total wall time: 1:17:33
