
units lj                  # Use reduced LJ style units
atom_style atomic         # Uncharged point particles
atom_modify map hash      # Needed for indexing of clusters etc
                          # Used to be able to find where atoms are in relation to each other.

lattice fcc 1.0 spacing 1 1 1
Lattice spacing in x,y,z = 1.5874011 1.5874011 1.5874011
region box block 0 10 0 10 0 10 units lattice
create_box 2 box
Created orthogonal box = (0.0000000 0.0000000 0.0000000) to (15.874011 15.874011 15.874011)
  3 by 4 by 4 MPI processor grid
create_atoms 1 box
Created 4000 atoms
  using lattice units in orthogonal box = (0.0000000 0.0000000 0.0000000) to (15.874011 15.874011 15.874011)
  create_atoms CPU = 0.003 seconds
set type 1 type/fraction 2 0.02 78393
Setting atom values ...
  77 settings made for type/fraction
mass 1 1.0
mass 2 1.0
pair_style lj/cut  3.5
pair_modify tail  yes
pair_coeff 1  1  1.0  1.0   # Intearaction between 1 and 1 set with epsilon = 1 and sigma = 1
pair_coeff 1  2  1.5  0.8
pair_coeff 2  2  0.5  0.88

write_data data.0
System init for write_data ...
Neighbor list info ...
  update every 1 steps, delay 10 steps, check yes
  max neighbors/atom: 2000, page size: 100000
  master list distance cutoff = 3.8
  ghost atom cutoff = 3.8
  binsize = 1.9, bins = 9 9 9
  1 neighbor lists, perpetual/occasional/extra = 1 0 0
  (1) pair lj/cut, perpetual
      attributes: half, newton on
      pair build: half/bin/atomonly/newton
      stencil: half/bin/3d
      bin: standard
WARNING: Not all mixed pair coeffs generated from mixing. Use write_data with 'pair ij' option to store all pair coeffs. (../write_data.cpp:312)


#############################
#   M E L T   S Y S T E M   #
#############################

velocity all create 2.4 9622624 mom yes dist gaussian # Assign velocities
                                                    # Temperature 2.4, random number seed, zero linear momentum
                                                                                # Gaussian distribution

timestep 0.002   # simulation timestep
thermo 1000       # output thermodynamic data every 1000 steps bf 100

# Define a fix  in this case with index 1 applied to all
# particles in the simulation. This fix is for simulations
# in the anisotropic NPT ensemble. Note that we use the MTK
# correction.
fix 1 all npt temp 2.4 2.4 0.1 iso 5.68 5.68 0.5 mtk yes tchain 5 pchain 5 # Use NPT ensemble
                                                                         # Set temperature and pressure and damping
                                                                         # Numbers of thermostats in chain and in barostat
run 10000          # run for 10000 steps
Per MPI rank memory allocation (min/avg/max) = 3.642 | 3.644 | 3.648 Mbytes
Step Temp E_pair E_mol TotEng Press Volume 
       0          2.4   -8.2581388            0   -4.6590388   -2.3989133         4000 
    1000    2.3941835   -4.4851858            0  -0.89480831    5.6199334    5114.0852 
    2000    2.3923909   -4.3810759            0  -0.79338678    5.6682714    5174.5799 
    3000     2.415912   -4.3970825            0  -0.77412048    6.0332801      5117.97 
    4000    2.4191997   -4.3832914            0  -0.75539912    5.3935766    5215.6345 
    5000    2.4304923   -4.3901581            0  -0.74533105    5.5102899    5200.0447 
    6000    2.3993039   -4.3878916            0  -0.78983556    5.4458306     5200.951 
    7000    2.4284189    -4.358066            0  -0.71634825    5.6730226    5199.9582 
    8000    2.4097967   -4.3961618            0   -0.7823705     5.586951    5177.4912 
    9000    2.4569869   -4.3971638            0  -0.71260478    5.6132731    5179.4728 
   10000     2.432062   -4.3189697            0  -0.67178866    5.7971608    5194.5139 
Loop time of 2.04386 on 48 procs for 10000 steps with 4000 atoms

Performance: 845460.630 tau/day, 4892.712 timesteps/s
99.6% CPU use with 48 MPI tasks x no OpenMP threads

MPI task timing breakdown:
Section |  min time  |  avg time  |  max time  |%varavg| %total
---------------------------------------------------------------
Pair    | 0.83044    | 0.90823    | 0.96656    |   2.5 | 44.44
Neigh   | 0.16715    | 0.17243    | 0.1819     |   0.7 |  8.44
Comm    | 0.64374    | 0.71485    | 0.78944    |   3.5 | 34.98
Output  | 0.00023917 | 0.00024575 | 0.00032586 |   0.0 |  0.01
Modify  | 0.21385    | 0.234      | 0.2583     |   2.5 | 11.45
Other   |            | 0.01409    |            |       |  0.69

Nlocal:        83.3333 ave          89 max          75 min
Histogram: 2 0 4 2 7 11 4 9 3 6
Nghost:        1383.52 ave        1402 max        1362 min
Histogram: 1 5 4 7 3 7 7 3 6 5
Neighs:        7332.71 ave        8479 max        6427 min
Histogram: 2 4 7 8 9 4 7 5 1 1

Total # of neighbors = 351970
Ave neighs/atom = 87.992500
Neighbor list builds = 903
Dangerous builds = 191

# Equilibrate just above the melting temperature to avoid step fn in T

fix 1 all npt temp 1.25 1.25 0.1 iso 5.68 5.68 0.5 mtk yes tchain 5 pchain 5
run 2000
Per MPI rank memory allocation (min/avg/max) = 3.642 | 3.645 | 3.648 Mbytes
Step Temp E_pair E_mol TotEng Press Volume 
   10000     2.432062   -4.3189697            0  -0.67178866    5.7971608    5194.5139 
   11000    1.2687247   -5.8769215            0   -3.9743102    5.6924227    4289.5791 
   12000      1.26315   -5.9204744            0    -4.026223    5.8259709    4259.8593 
Loop time of 0.447337 on 48 procs for 2000 steps with 4000 atoms

Performance: 772571.470 tau/day, 4470.900 timesteps/s
99.6% CPU use with 48 MPI tasks x no OpenMP threads

MPI task timing breakdown:
Section |  min time  |  avg time  |  max time  |%varavg| %total
---------------------------------------------------------------
Pair    | 0.19723    | 0.20837    | 0.22036    |   1.2 | 46.58
Neigh   | 0.030418   | 0.031638   | 0.03311    |   0.4 |  7.07
Comm    | 0.13845    | 0.15419    | 0.16715    |   1.5 | 34.47
Output  | 5.5554e-05 | 5.7422e-05 | 6.9677e-05 |   0.0 |  0.01
Modify  | 0.040559   | 0.048687   | 0.055997   |   2.2 | 10.88
Other   |            | 0.004392   |            |       |  0.98

Nlocal:        83.3333 ave          92 max          77 min
Histogram: 4 1 8 9 7 8 9 0 0 2
Nghost:        1572.67 ave        1588 max        1558 min
Histogram: 1 5 3 8 6 9 4 7 3 2
Neighs:        8932.10 ave        9931 max        8039 min
Histogram: 2 2 7 6 8 12 6 3 0 2

Total # of neighbors = 428741
Ave neighs/atom = 107.18525
Neighbor list builds = 142
Dangerous builds = 13

#############################
# L I N E A R  Q U E N C H  #
#############################

# Define solid atoms. This closely follows ten Wolde  Ruiz-Montero and Frenkel  Faraday Discuss  1996  104  93-110
# Compute components of the per-atom q6 vector
compute q6 all orientorder/atom degrees 1 6 components 6 nnn NULL cutoff 1.3 # compute the Q6 parameter.
                                                                             # Use all neighbours within 1.3 unit cell.

# get number of connections
compute coord_number all coord/atom orientorder q6 0.5

# An atom is solid if it has 8 or more connections (of a possible 14)
variable is_solid atom c_coord_number>=8
group solid dynamic all var is_solid    # Must be dynamic to update
dynamic group solid defined

# do clustering
compute cluster solid cluster/atom 1.3 # Create a cluster where all atoms within are solid and max 1.3 units from another member

# define chunks one chunk per cluster
compute clus_chunks solid chunk/atom c_cluster nchunk every compress yes  # Says which atoms are in which chunk

# count the size of each chunk
compute size_chunks solid property/chunk clus_chunks count


# Find the maximum entry in the vector of chunk sizes
variable max_n equal max(c_size_chunks)


# Thermo style which includes this variable
# thermo_style custom step temp pe vol v_max_n

thermo ${N}  # Print the thermo information every 100 steps
thermo 1000  

# Reset the npt fix at a lower temperature (below freezing)
fix 1  all npt temp  ${temp} ${temp}  0.1  iso  5.68  5.68  0.5  mtk yes tchain  5  pchain  5
fix 1  all npt temp  0.45 ${temp}  0.1  iso  5.68  5.68  0.5  mtk yes tchain  5  pchain  5
fix 1  all npt temp  0.45 0.45  0.1  iso  5.68  5.68  0.5  mtk yes tchain  5  pchain  5

dump dmp2 all dcd ${N} traj.dcd
dump dmp2 all dcd 1000 traj.dcd


compute msd all msd com yes
variable twopoint equal c_msd[4]/6/(step*dt+1.0e-6)
fix 9 all vector 10 c_msd[4]
variable fit equal slope(f_9)/6/(10*dt)
thermo_style custom step temp pe c_msd[4] v_twopoint v_fit v_max_n

fix 1 all npt temp 1.25 ${temp} 0.1 iso 5.68 5.68 0.5 mtk yes tchain 5 pchain 5
fix 1 all npt temp 1.25 0.45 0.1 iso 5.68 5.68 0.5 mtk yes tchain 5 pchain 5
run 5000000 # 5000000  # Run for this many steps
Neighbor list info ...
  update every 1 steps, delay 10 steps, check yes
  max neighbors/atom: 2000, page size: 100000
  master list distance cutoff = 3.8
  ghost atom cutoff = 3.8
  binsize = 1.9, bins = 9 9 9
  4 neighbor lists, perpetual/occasional/extra = 1 3 0
  (1) pair lj/cut, perpetual
      attributes: half, newton on
      pair build: half/bin/atomonly/newton
      stencil: half/bin/3d
      bin: standard
  (2) compute orientorder/atom, occasional
      attributes: full, newton on
      pair build: full/bin/atomonly
      stencil: full/bin/3d
      bin: standard
  (3) compute coord/atom, occasional
      attributes: full, newton on
      pair build: full/bin/atomonly
      stencil: full/bin/3d
      bin: standard
  (4) compute cluster/atom, occasional
      attributes: full, newton on
      pair build: full/bin/atomonly
      stencil: full/bin/3d
      bin: standard
Per MPI rank memory allocation (min/avg/max) = 9.733 | 9.738 | 9.743 Mbytes
Step Temp PotEng c_msd[4] v_twopoint v_fit v_max_n 
   12000      1.26315   -5.9204744 1.0267025e-30 7.129878e-33 8.3333333e+20            3 
   13000     1.264805   -5.8935666    0.5430879 0.0034813326  0.044997693            2 
   14000    1.2341122   -5.9263655     1.091612 0.0064976904   0.04447757            2 
   15000    1.2577322   -5.9014712     1.679895 0.0093327495  0.046070933            3 
   16000    1.2629804   -5.9108756    2.2294117  0.011611519  0.046373743            3 
   17000    1.2452947   -5.9050509    2.8079809  0.013764612  0.046773296            1 
   18000     1.267078   -5.9052372    3.3123799  0.015335092  0.046702141            3 
   19000    1.2518253   -5.9232305    3.9278867  0.017227573  0.046648079            5 
   20000    1.2491655   -5.9060632    4.5200711  0.018833629  0.047011305            3 
   21000     1.263274   -5.8772936    5.0691178  0.020115547  0.047055138            3 
   22000    1.2504741   -5.9246343    5.6326314  0.021335725  0.047089688            6 
   23000    1.2557271   -5.9436159    6.1624561  0.022327739  0.047080746            3 
   24000    1.2458826   -5.9002546    6.7403799  0.023404096  0.047002334            3 
   25000    1.2378112   -5.9308356    7.4034743  0.024678247  0.047078439            2 
   26000    1.2469295   -5.9044833    8.0022174  0.025648132  0.047339455            3 
   27000    1.2369287   -5.9122228    8.5518288  0.026394533  0.047415935            3 
   28000    1.2424881   -5.9012099    9.0002838  0.026786558  0.047432178            2 
   29000    1.2427503   -5.9228641    9.6246057  0.027656912  0.047384963            3 
   30000    1.2627109   -5.8982524    10.073197  0.027981103   0.04724933            2 
   31000    1.2415049   -5.8989037     10.59968  0.028493764  0.047083411            4 
   32000    1.2051794   -5.9204471    11.149621  0.029035471  0.046911686            3 
   33000    1.2350946   -5.9160721    11.758401  0.029692932  0.046833844            2 
   34000    1.2417271   -5.9032023    12.350106  0.030269866  0.046782455            5 
   35000    1.2301138   -5.9166199    12.860773  0.030620888  0.046782911            2 
   36000    1.2539585   -5.8815059    13.595398  0.031470829   0.04682252            2 
   37000    1.2490318   -5.8619025    14.091258  0.031737066   0.04686821            3 
   38000    1.2474589   -5.9008417    14.611483  0.032042725  0.046840644            4 
   39000    1.2425526   -5.9400495    15.235341  0.032554148  0.046888992            2 
   40000     1.235197   -5.9338611    15.769135  0.032852364  0.046914404            5 
   41000    1.2467968   -5.9086296    16.366087  0.033264404  0.046944434            2 
   42000    1.1974028   -5.9272124    16.935144  0.033601475  0.046968739            2 
   43000    1.2567623   -5.9097233    17.291908  0.033511449  0.046936545            3 
   44000    1.2501079   -5.9335528     17.74269  0.033603579  0.046831003            5 
   45000    1.2473658   -5.9426461    18.453771   0.03417365  0.046770072            5 
   46000    1.2335003   -5.9400623    18.914572  0.034265528  0.046697206            9 
   47000    1.2567564   -5.8758211    19.516347  0.034603451  0.046628166            3 
   48000    1.2403333   -5.8988103    20.276674  0.035202558  0.046614838            3 
   49000    1.2480781   -5.8904734    20.786374  0.035350976  0.046646229            1 
   50000    1.2534093   -5.9251643    21.335529  0.035559215   0.04668144            4 
   51000    1.2810588   -5.8871071    21.871808  0.035738248  0.046675581            2 
   52000     1.207737   -5.9256343    22.355932  0.035826814  0.046661322            8 
   53000    1.2626678   -5.9035514    22.971019  0.036117953  0.046649018            2 
   54000    1.2512477   -5.9226132    23.437955  0.036169683  0.046627116            2 
   55000    1.2403694   -5.9054938    23.985322  0.036341397  0.046602892            2 
   56000    1.2459164   -5.9396963    24.358302  0.036247473  0.046546931            2 
   57000    1.2230524   -5.9358868    24.913326  0.036422991  0.046477499            2 
   58000    1.2524414    -5.911885     25.34118  0.036409741  0.046401866            3 
   59000    1.2517501   -5.8861069    25.901876   0.03658457  0.046317769            6 
   60000    1.2625999   -5.9316926    26.338867   0.03658176   0.04624103            3 
   61000    1.2597942   -5.9207211    26.909284  0.036761316  0.046168391            5 
   62000    1.2508845   -5.9325456    27.506475  0.036971068  0.046110976            3 
   63000    1.2372494   -5.9144846    28.132591  0.037212421  0.046060492            3 
   64000    1.2642925   -5.9253592    28.622498  0.037268877  0.046022628            1 
   65000    1.2575157   -5.9380539    29.360202  0.037641285  0.045994858            2 
   66000    1.2508138   -5.9110996     29.97621   0.03784875  0.045998142            3 
   67000    1.2444795   -5.8924378    30.513975  0.037952705  0.046006218            3 
   68000    1.2148209    -5.899308    30.915814  0.037887027  0.046001254            3 
   69000    1.2568192   -5.9258967    31.564958  0.038121929  0.045976314            2 
   70000    1.2481263   -5.9455362     31.90966   0.03798769  0.045951753            2 
   71000    1.2334002   -5.9420651    32.494547  0.038139139  0.045915474            4 
   72000    1.2302351   -5.9124563    32.916103  0.038097341   0.04587241            3 
   73000    1.2499234   -5.9208004    33.522271  0.038267432  0.045841987            3 
   74000    1.2615814   -5.9546265    34.120515  0.038424003  0.045827068            4 
   75000     1.222959   -5.9447909     34.67392  0.038526578  0.045798071            3 
   76000    1.2484031   -5.9648706    35.238781  0.038639014  0.045773188            3 
   77000    1.2404526   -5.9313165    35.813515  0.038759215  0.045762317            2 
   78000    1.2630261   -5.9480673    36.645845  0.039151543  0.045765722            4 
   79000    1.2326664    -5.951455    37.231093  0.039273304  0.045792942            4 
   80000    1.2247015   -5.9182168    37.806425  0.039381692  0.045826636            3 
   81000    1.2302333   -5.9359175    38.591157  0.039702836  0.045862534            4 
   82000    1.2585298   -5.9436329    38.999776  0.039633918  0.045899186            3 
   83000    1.2471785   -5.9240314    39.743092  0.039902703    0.0459387            6 
   84000    1.2574862   -5.9343048    40.213272  0.039894118  0.045980917            4 
   85000    1.2431576   -5.9361842    40.891726  0.040089927  0.046027808            3 
   86000    1.2402919   -5.9203042    41.401878  0.040118099   0.04605861           11 
   87000    1.2302717   -5.9052742    41.768393  0.040008039  0.046080245            3 
   88000    1.2338639   -5.9429873    42.396068  0.040147791  0.046100915            2 
   89000    1.2339184   -5.9819665    42.782054  0.040058103  0.046109403            2 
   90000    1.2194803   -5.9122118    43.557532  0.040331048  0.046126241            3 
   91000    1.2436386   -5.9150554    43.799332  0.040109279  0.046135941            5 
   92000     1.222469   -5.9232489    44.095733  0.039941787    0.0461259            5 
   93000    1.1999377   -5.9316988    44.733979  0.040084211  0.046108565            3 
   94000    1.2343815   -5.8869686    45.332592  0.040188468   0.04608954            2 
   95000    1.2217612   -5.9327101    45.612698  0.040011139  0.046064617            6 
   96000    1.2260815   -5.9497262    46.133766  0.040046672   0.04603702            4 
   97000    1.2273523   -5.9289974    46.723787   0.04014071  0.046011049            3 
   98000     1.235596   -5.9312119    47.352538  0.040265764  0.045993183            2 
   99000    1.2560289   -5.9219812    47.914742  0.040332274  0.045981303            2 
  100000    1.2466192   -5.9127784    48.847948  0.040706623  0.045982311            5 
  101000    1.2283338   -5.9002808     49.23937  0.040626543  0.045985335            3 
  102000    1.2271669   -5.9184835    49.799434  0.040685812  0.045985636            2 
  103000    1.2259189   -5.9085053    50.359142  0.040743642  0.045983602            1 
  104000     1.221222   -5.9510031    50.678977  0.040608155  0.045972474            2 
  105000    1.2332757   -5.9491289    50.976948  0.040457895  0.045949453            1 
  106000    1.2154249   -5.9335381    51.455298  0.040452278   0.04591866            2 
  107000    1.2409631   -5.9156938    51.945996  0.040456383  0.045885067            3 
  108000    1.2509444   -5.9263057    52.522946  0.040526964  0.045855108            4 
  109000      1.21413   -5.9594446    53.369049  0.040802025  0.045838021            3 
  110000    1.2409508   -5.9530414    53.859794  0.040802874  0.045823674            7 
  111000    1.2316868   -5.9301709    54.266963  0.040740963  0.045808771            5 
  112000    1.2397522   -5.9215599    55.018124  0.040936104  0.045796869            3 
  113000     1.263195   -5.9340288    55.744357  0.041109407  0.045793694            6 
  114000    1.2133042   -5.9219753    55.959976  0.040906415  0.045786672            2 
  115000    1.2381472   -5.9271668    56.192814   0.04071943  0.045766579            2 
  116000      1.23155   -5.9576169    56.802281  0.040806236  0.045749939            2 
  117000    1.2399839   -5.9126699    57.444776  0.040915082   0.04573074            5 
  118000    1.2160178   -5.9066492    58.003883  0.040963194  0.045714157            3 
  119000    1.1973393   -5.9530204    58.755711  0.041145456   0.04570067            3 
  120000    1.2218351   -5.9525558     58.96005  0.040944479  0.045682819            8 
  121000     1.270734   -5.9365346    59.735387  0.041140074  0.045665088            5 
  122000    1.2336607   -5.9254051    60.219429  0.041133489  0.045655327            5 
  123000    1.2355359     -5.95706    60.643728  0.041086536  0.045642895            2 
  124000    1.2135052   -5.9718561    60.808998  0.040866262  0.045619829            3 
  125000    1.2321118   -5.9102839     61.55171  0.041034473  0.045596652            2 
  126000    1.2334225   -5.9336061    62.176284  0.041121881  0.045569747            6 
  127000    1.2413581    -5.953111    62.861363  0.041247613  0.045548764            3 
  128000      1.24058   -5.9438401    63.113147  0.041089288  0.045526271            4 
  129000    1.2058088   -5.9485579    63.477418  0.041006084  0.045502659            2 
  130000     1.227837   -5.9469947    63.880923  0.040949309  0.045473228            2 
  131000     1.238868   -5.9527439    64.242517  0.040866741  0.045441017            6 
  132000    1.2267671   -5.9468211    64.903791  0.040974615  0.045408655            2 
  133000    1.2182186   -5.9300146    65.144769  0.040817524  0.045375769            1 
  134000     1.218469   -5.9599111    65.591963  0.040791022  0.045339589            4 
  135000    1.2109379   -5.9345034    66.073057  0.040785837  0.045297727            7 
  136000    1.2534771   -5.9776518    66.441402  0.040711644  0.045257994            2 
  137000    1.2430211   -5.9415182    67.156306  0.040849334  0.045218566            6 
  138000    1.2379649   -5.9662126    67.748265  0.040910788  0.045179348            2 
  139000    1.2209446   -5.9065629    68.437657   0.04102977  0.045144174            3 
  140000    1.2498257   -5.9611897    68.491268  0.040768612  0.045109809            2 
  141000    1.2500625   -5.9263963      68.8979  0.040719799  0.045071552            6 
  142000    1.2228719   -5.9700171    69.302501  0.040670481  0.045029591            4 
  143000    1.2539708   -5.9607973    69.736852  0.040639191  0.044986876            2 
  144000    1.2242651   -5.9910954    70.223152  0.040638398  0.044944204            4 
  145000    1.2371532   -5.9475062    70.890486  0.040741658  0.044902597            2 
  146000    1.2432151   -5.9367001    71.600333   0.04086777  0.044865648            1 
  147000    1.1995777   -5.9471084    71.887939    0.0407528  0.044829728            2 
  148000    1.2123856   -5.9394877    72.356573  0.040741313  0.044794579            4 
  149000    1.2414953    -5.934756    73.044544  0.040852653  0.044762116            4 
  150000    1.2333015   -5.9374031    73.690211  0.040939006  0.044732317            3 
  151000    1.2359471    -5.939661     74.22702  0.040964139  0.044704786            1 
  152000    1.2383821   -5.9447104    74.755532  0.040984393  0.044679087            3 
  153000    1.2368937   -5.9412769     75.00873  0.040854428  0.044650593            4 
  154000    1.2573343   -5.9008952    75.862517  0.041051146  0.044623456            4 
  155000    1.2209554   -5.9604822    76.559205  0.041160863   0.04459725            3 
  156000    1.2178955   -5.9382702    76.764379  0.041006612  0.044573458            6 
  157000    1.1748049   -5.9422894    77.430347   0.04109891  0.044548058            4 
  158000    1.2235801   -5.9339321    78.074962  0.041178777  0.044526595           12 
  159000     1.206111   -5.9325844    78.960042  0.041383669  0.044512335            3 
  160000    1.2257333   -5.9361072    79.064401  0.041179375  0.044497873            4 
  161000    1.2189268   -5.9719913    80.151868  0.041486474   0.04448521            4 
  162000    1.2100515    -5.944404    80.330764   0.04132241  0.044475615            3 
  163000    1.2182147   -5.9518794     81.73046  0.041784488  0.044475183            4 
  164000    1.2370262   -5.9712187    82.093378  0.041714115  0.044477567            3 
  165000     1.243464   -5.9531215    82.826278  0.041831453  0.044480431            3 
  166000    1.2184008   -5.9492595    83.559787  0.041947684  0.044482886            3 
  167000    1.2212651   -5.9835878    83.853317  0.041842972  0.044488255            2 
  168000    1.2215487   -5.9564593    84.083814  0.041708241  0.044489902            4 
  169000    1.2127719   -5.9587006    84.914288  0.041870951  0.044490134            6 
  170000     1.233421   -5.9597559     85.24729  0.041787887  0.044489054            3 
  171000    1.2280815   -5.9462503    86.228247  0.042021563  0.044491918            2 
  172000    1.2059429   -5.9542401    86.626961  0.041970427  0.044498374            2 
  173000    1.2088945   -5.9727895    86.725041  0.041775068  0.044497719            3 
  174000    1.2163964   -5.9571334    87.759492  0.042030408  0.044497401            3 
  175000    1.2021951   -5.9765111    88.044826  0.041926108  0.044501076            2 
  176000     1.215832    -5.929081    88.886232  0.042086284  0.044505637            3 
  177000    1.2363179   -5.9163492    89.168119  0.041981223  0.044513259            4 
  178000    1.2200989   -5.9860659    89.694637  0.041991871    0.0445184            3 
  179000    1.2089179   -5.9098645    90.097938  0.041945036  0.044522026            4 
  180000    1.2130333   -5.9385052    90.758083  0.042017631  0.044524166            2 
  181000    1.2118405   -5.9322393    91.341696  0.042054188  0.044522797            9 
  182000    1.1991415   -5.9813813    91.717755  0.041995309  0.044522325            4 
  183000    1.2145071   -5.9109331    92.091475  0.041936009  0.044519494            2 
  184000    1.1916142   -5.9091205    92.980657  0.042110805   0.04451948            5 
  185000    1.2239121    -5.986232    93.242765  0.042001245  0.044521387            3 
  186000     1.217502   -5.9915523    93.776583  0.042014598  0.044521516            4 
  187000    1.2004548   -5.9538278    94.487394  0.042106682  0.044522527            3 
  188000    1.2341325   -5.9390019     94.84005  0.042039029  0.044524115            2 
  189000    1.2146161   -5.9522899    95.515676  0.042114495  0.044524826            1 
  190000    1.2143087   -5.9510465    95.967382  0.042090957  0.044527225            2 
  191000    1.2508228   -5.8996328    96.907686   0.04228084   0.04453017            2 
  192000    1.2340145    -5.992158    97.249236   0.04220887  0.044533502            2 
  193000    1.1991799   -5.9309775    97.702322  0.042185804  0.044535494            2 
  194000    1.2160384   -5.9373873    98.370916  0.042255548  0.044537816            1 
  195000     1.232925   -5.9304436    99.140268  0.042367636  0.044544126            2 
  196000     1.220309   -5.9521357    100.14449  0.042578438  0.044550399            5 
  197000    1.2158233   -5.9311632      100.218  0.042393402  0.044560505            2 
  198000    1.2073549   -5.9674253    100.88239  0.042458919  0.044570379            3 
  199000    1.2549745   -5.9457714    101.45283  0.042484437  0.044579645            2 
  200000    1.2071434   -5.9771674    101.82545  0.042427271  0.044588489            4 
  201000    1.2253228   -6.0108367    102.60471  0.042539268  0.044596868            4 
  202000    1.2266348   -5.9479163    103.21464  0.042580298   0.04460494            2 
  203000    1.2308815   -5.8915375    104.08693  0.042728627   0.04461444            2 
  204000    1.2254037   -5.9372652    104.66153  0.042753893  0.044625957            7 
  205000    1.2299916   -5.9938346    105.05113  0.042703711  0.044639465            3 
  206000    1.2270911   -6.0118558    106.06385  0.042906089  0.044655644            5 
  207000    1.2329177   -5.9826387    106.79229  0.042992064  0.044672024            3 
  208000    1.2121594    -5.912652    107.18323  0.042941999  0.044687826            3 
  209000    1.2362696   -5.9514581      107.738  0.042957735  0.044702278            6 
  210000    1.2310631     -5.94999    108.19018  0.042932612  0.044716699            5 
  211000     1.232895   -6.0074051    108.58978   0.04288696  0.044734573            4 
  212000    1.2162697   -5.9834045    109.39364  0.043000643  0.044751621            2 
  213000    1.2135044   -5.9423549    109.90659   0.04299945   0.04476615            2 
  214000    1.2069238   -5.9570819    110.07504  0.042864111  0.044780167            6 
  215000    1.2149719    -5.948472    110.83219  0.042958212  0.044791828            3 
  216000    1.2071541   -5.9844145    110.89123  0.042782112  0.044803725            2 
  217000    1.2198814   -5.9170959    111.71873  0.042902738  0.044813112            2 
  218000    1.2249078    -5.957994    111.84843  0.042755517  0.044820935            2 
  219000    1.2262552   -5.9559063    112.40864  0.042773453   0.04482657            4 
  220000    1.2271698   -5.9673925    112.69933  0.042689141  0.044831423            3 
  221000    1.2068939    -5.947685    113.32696  0.042732639  0.044835126            4 
  222000    1.2298735    -5.988057    113.44966   0.04258621  0.044835578            2 
  223000    1.2234667   -5.9701984    114.12801  0.042648735  0.044837684            2 
  224000    1.2147206   -5.9452123    114.59356  0.042631533  0.044838137            3 
  225000    1.2238929   -5.9666569    115.31817  0.042710431   0.04483849            2 
  226000    1.2101361   -5.9343655    115.59636  0.042624026  0.044835969            3 
  227000    1.2324993   -5.9844346    116.06352  0.042607752  0.044832732            7 
  228000    1.2169425   -5.9632194     116.1345   0.04244682  0.044825847            4 
  229000    1.1956597   -5.9842664    116.82873  0.042514095  0.044818865            5 
  230000    1.2263628    -5.954815    117.75162   0.04266363  0.044814319            1 
  231000    1.2273251   -5.9460155    118.18175   0.04263411  0.044812465            2 
  232000    1.2220995   -5.9262806    119.03868  0.042758147  0.044810369            2 
  233000    1.2095993   -5.9983006    119.71562  0.042816744  0.044809581            5 
  234000    1.2318219   -6.0126189    120.49251  0.042910437  0.044813286            2 
  235000    1.2073497    -5.980371    121.05259   0.04292645  0.044817921            3 
  236000    1.2178242   -5.9525205     121.8452  0.043024434  0.044822595            6 
  237000    1.2025705   -5.9918795    121.96701  0.042885729  0.044826646            2 
  238000    1.2162689   -5.9823563    122.73566   0.04297467  0.044830856            4 
  239000     1.183035   -5.9665479    123.38341  0.043020716  0.044836323            3 
  240000    1.2079937    -5.943303    124.06611   0.04307851  0.044843322            1 
  241000    1.2365841   -5.9640592    124.51642  0.043055469  0.044850126            3 
  242000    1.2263938   -5.9920501    125.23478  0.043124923  0.044855733            6 
  243000    1.1930962   -6.0029088    125.78816  0.043137228  0.044862558            2 
  244000    1.2171423   -5.9716498     126.0506   0.04305007  0.044870844            2 
  245000    1.2112879   -5.9691675    126.71809  0.043101391  0.044879092            8 
  246000    1.2351525   -5.9637645    127.47566  0.043182812  0.044884683            6 
  247000    1.2173878   -5.9479567    128.22848   0.04326197  0.044892339            2 
  248000    1.1965988   -5.9883004    128.24126  0.043091822  0.044898131            3 
  249000    1.2464004   -6.0003845     128.5891  0.043035173  0.044902935            2 
  250000    1.2149814   -5.9409232    129.08628  0.043028761   0.04490615            2 
  251000    1.2177215    -5.972352     129.5693  0.043017695   0.04490976            1 
  252000    1.1980375   -5.9482494    130.17479   0.04304722  0.044912018            3 
  253000    1.1854586   -5.9392633    130.47605  0.042976301  0.044912506            2 
  254000    1.2300798   -5.9939657    130.71875  0.042886728  0.044913462            3 
  255000    1.2305358   -5.9550814    131.46336  0.042961882  0.044913048            1 
  256000    1.1762859   -5.9555752    132.27287  0.043057573  0.044911743            5 
  257000    1.2066712   -5.9196272    132.44466   0.04294574  0.044910648            2 
  258000    1.2072998    -5.983053    133.03827  0.042971017  0.044907777            4 
  259000    1.1862671   -5.9603186    133.06208  0.042812768  0.044904441            2 
  260000    1.2315771   -5.9974767     134.2347  0.043023942  0.044902686            3 
  261000    1.2036092   -5.9742612    134.55873  0.042962558  0.044901139            3 
  262000    1.2095836   -5.9544641    135.45074  0.043082296  0.044903644            2 
  263000    1.2012323    -5.993648    135.63176  0.042975842   0.04490486            2 
  264000    1.1964441   -5.9973286    136.37267  0.043046929  0.044905008            2 
  265000    1.2093817    -5.959228    137.41318  0.043211692  0.044907783            3 
  266000    1.1965979   -5.9754959     138.0139  0.043237438  0.044910512            3 
  267000    1.2163509   -5.9684691    138.11835  0.043108098  0.044913147            3 
  268000    1.2231987   -5.9861599    138.26872  0.042994004  0.044913674            3 
  269000    1.2296464   -6.0052705    138.83844   0.04301067  0.044911564            3 
  270000    1.1983858   -5.9687522    139.23097  0.042972522  0.044907599            3 
  271000    1.2179491   -5.9662655    139.81586  0.042993807  0.044905416            5 
  272000    1.2250587   -5.9524678    140.80973  0.043140235  0.044903715            4 
  273000    1.2295602   -5.9673162    141.14912   0.04308581  0.044902033            1 
  274000    1.2402456   -5.9475122    141.44756   0.04301933  0.044899684            2 
  275000    1.2110083    -5.973237    141.90494  0.043001498  0.044897689            3 
  276000    1.2280384   -5.9784593    142.65379  0.043071797   0.04489378            6 
  277000    1.2105763   -5.9826064    142.53537  0.042880678  0.044889803            3 
  278000    1.2100256   -5.9870445    143.34154  0.042968087  0.044885943            3 
  279000    1.2260188   -5.9780195    143.47331  0.042853437  0.044881659            8 
  280000     1.220443    -5.940661    144.54388  0.043019011  0.044877358            3 
  281000    1.2073481    -6.005512    144.71548  0.042916809  0.044872797            4 
  282000    1.2102352   -6.0002901    145.32693  0.042945311    0.0448669            3 
  283000    1.1914266    -5.986443    145.80345  0.042933879  0.044860579            1 
  284000    1.2165235   -5.9878868    146.37603  0.042950714  0.044854923            4 
  285000     1.198704   -5.9864659    146.47195  0.042828055  0.044848775            6 
  286000    1.1906625   -5.9727854    146.86455    0.0427927  0.044840249            3 
  287000    1.2209335   -5.9295817    147.70079  0.042886409  0.044832972            2 
  288000    1.2136143   -6.0167109    147.89594  0.042793964  0.044824725            3 
  289000     1.217892   -5.9731098    148.54721  0.042833681  0.044817727            5 
  290000    1.2078112   -5.9918982     149.3643  0.042920775  0.044810589            4 
  291000    1.1688199   -6.0047513    149.29179  0.042752517   0.04480263            5 
  292000     1.217526   -5.9889085    150.19006  0.042862459  0.044794938            3 
  293000    1.2084025   -5.9826202    150.68439  0.042856765  0.044788332            4 
  294000    1.2030504   -5.9878833    151.38845  0.042910559  0.044783502            3 
  295000    1.2062378   -5.9660227    151.62031  0.042830596  0.044776795            3 
  296000    1.2179177   -6.0069754    152.26944  0.042868649  0.044769212            6 
  297000    1.2077939   -5.9748196    151.85812    0.0426089  0.044759973            1 
  298000    1.1815283   -5.9805304    152.65476   0.04268869  0.044749289            3 
  299000    1.1924147   -6.0320294    152.45675  0.042490732  0.044738757            4 
  300000    1.2086498   -5.9703812     154.2238  0.042839944  0.044728147            3 
  301000    1.1816645   -5.9745043    154.23359   0.04270033  0.044718511            2 
  302000    1.1951473    -5.995161    154.95637   0.04275838  0.044708809            2 
  303000    1.2212102   -6.0091183    155.34452  0.042724016  0.044700561            3 
  304000    1.2009777   -5.9807282    156.35553  0.042860616   0.04469087            3 
  305000    1.1949568   -5.9532763     156.7547  0.042829152  0.044682384            6 
  306000    1.2044089    -5.980387    157.19492  0.042809074  0.044675126            2 
  307000    1.2357868   -5.9672812    157.81041  0.042836702  0.044668739            4 
  308000    1.2129023   -6.0169204    158.27585  0.042823552  0.044662635            3 
  309000    1.1842052   -5.9900564    159.20096  0.042934455  0.044656835            2 
  310000    1.1945058   -5.9761501    159.32545  0.042829423  0.044648933            4 
  311000    1.2039352   -5.9756247    159.42814  0.042719222  0.044641545            2 
  312000     1.185375   -5.9594657    160.33606  0.042824802  0.044632169            4 
  313000    1.1872493   -6.0023385    160.14727  0.042637719  0.044623219            4 
  314000    1.1856146   -5.9926013    161.01068  0.042731072  0.044615093            3 
  315000    1.2110321   -5.9746993    161.98732  0.042853787  0.044607665            5 
  316000    1.1796244   -5.9611495    162.43059  0.042835072  0.044598803            3 
  317000    1.2157876   -6.0165808    161.87707  0.042554435  0.044588705            5 
  318000    1.1784606   -6.0098393    162.90614  0.042690287  0.044578832            6 
  319000    1.2172389     -6.00353    162.93613  0.042564298  0.044569386            2 
  320000     1.216059   -6.0287149    163.84747  0.042668612  0.044559027            3 
  321000    1.2068501   -5.9855686    164.39322  0.042677367  0.044547702            4 
  322000    1.2243344   -6.0545552    164.30344  0.042521595  0.044537264            5 
  323000    1.1518389   -5.9949797    165.36935   0.04266495  0.044526288            3 
  324000    1.1918497    -6.007154    165.73587  0.042627538  0.044515402            2 
  325000    1.2143701   -5.9487268    166.53176  0.042700451   0.04450395            2 
  326000    1.2014675   -5.9804736    166.90812  0.042665674  0.044493445            2 
  327000    1.1959936    -5.975388     166.8212  0.042513048  0.044481996            3 
  328000    1.2002577    -6.008766    167.02306  0.042434721  0.044470293            3 
  329000    1.1940381   -6.0479553    167.89157  0.042525727  0.044458874            2 
  330000    1.1890036   -6.0111864     168.3438  0.042511061  0.044447768            2 
  331000    1.2052171   -5.9918344    168.61869  0.042451836  0.044436296            5 
  332000    1.1818539   -5.9597766    169.55109  0.042558003  0.044424933            3 
  333000    1.1853642   -6.0291742    169.15063  0.042329988  0.044412686            5 
  334000    1.1648073   -5.9745216    170.32952  0.042497386   0.04439924            4 
  335000    1.2008169   -6.0009996    170.89703  0.042511698  0.044387555            6 
  336000    1.2255158   -5.9767747    171.29613  0.042484159  0.044376291            4 
  337000     1.180256   -6.0687022    170.83635    0.0422444  0.044363654            2 
  338000    1.1935313    -5.922397     172.0833  0.042426849   0.04434959            4 
  339000    1.1753957   -5.9986582    172.03564  0.042289979  0.044335241            4 
  340000    1.1906188   -5.9795526    172.61472  0.042307529  0.044320711            3 
  341000    1.2019129   -5.9855883    172.86947  0.042245716  0.044305394            4 
  342000     1.184476   -5.9663324    174.21276  0.042449503  0.044291499            3 
  343000    1.1996887   -6.0018763    174.16318  0.042313698  0.044278309            4 
  344000    1.2190604   -5.9955441    174.73341   0.04232883  0.044264755            4 
  345000    1.1678985   -5.9972166    175.45162  0.042379618  0.044251654            4 
  346000    1.1973496   -5.9649993    176.05711  0.042402965  0.044239704            2 
  347000    1.2276633   -6.0068103    176.71428  0.042438589  0.044227229            3 
  348000    1.2250311   -5.9695482    177.06047  0.042399538  0.044215789            3 
  349000    1.1792733    -5.999325    177.15709   0.04230112  0.044203611            2 
  350000    1.2126521   -5.9838417    177.93807  0.042366207  0.044190181            4 
  351000    1.1921623   -5.9458165    178.44221  0.042365197  0.044176838            3 
  352000    1.1998596   -5.9855397    178.58821  0.042279406  0.044163227            2 
  353000    1.2023755   -6.0133464    178.75602  0.042199249  0.044148124            2 
  354000    1.1672775   -5.9676199     179.4566  0.042244961  0.044132997            3 
  355000    1.2074635   -5.9952573    179.73991  0.042192466  0.044119018            5 
  356000     1.191204   -5.9733713    180.98906  0.042366354  0.044104662            3 
  357000    1.1632707   -5.9725784    181.64925  0.042401787  0.044091542            3 
  358000    1.1789348   -5.9751773    181.81883  0.042322819  0.044079351            4 
  359000    1.1844771   -6.0188342    182.33501  0.042324748  0.044066782            6 
  360000    1.1676276   -6.0169076    183.07697  0.042378928  0.044055263            5 
  361000    1.2092378   -5.9868788    183.50627  0.042360635  0.044043852            4 
  362000    1.1830996   -5.9707533    183.78179  0.042307043  0.044034386            3 
  363000    1.1935057   -5.9964959    184.24951  0.042297867  0.044023351            3 
  364000    1.2115252   -5.9455604    185.18841  0.042396615  0.044012612            4 
  365000    1.2054103   -6.0482603    185.12232   0.04226537  0.044000122            2 
  366000    1.1811542   -6.0131846    186.06991  0.042365645  0.043988576            7 
  367000    1.2035249   -6.0084767    185.65117  0.042155124  0.043975525            4 
  368000    1.2069648   -6.0175603    186.33181  0.042194703  0.043962322            3 
  369000    1.2236718   -6.0319894    186.96696  0.042223795   0.04394987            6 
  370000    1.2006314   -5.9849165    187.63041  0.042259102  0.043937496            4 
  371000    1.1853238   -5.9906807    188.01277   0.04223108  0.043925263            2 
  372000    1.1893271   -6.0330357    188.24016  0.042168494  0.043912999            8 
  373000    1.1689156   -5.9760537     188.4307  0.042098011  0.043900061            7 
  374000    1.2005593   -5.9986355    188.73331  0.042052877  0.043887868            1 
  375000    1.2033046   -6.0367612     189.1753  0.042038956  0.043875028            3 
  376000    1.1789952   -5.9977757    190.15685  0.042144691  0.043861302            4 
  377000    1.1788908   -6.0159881    190.17211  0.042036276  0.043847894            5 
  378000    1.1976887    -6.008762    190.97911  0.042102978  0.043834833            2 
  379000    1.1939096   -6.0163255    191.37728  0.042079437  0.043821888            4 
  380000    1.1888029   -6.0156187    192.25034  0.042160162  0.043809087            4 
  381000     1.217154    -5.988463    192.45405  0.042094061  0.043796214            2 
  382000    1.1779868   -6.0252696    192.41616  0.041975602  0.043782774            3 
  383000     1.172817   -6.0017131    193.41236  0.042082759  0.043769661            4 
  384000    1.2053054   -6.0194783    193.45261  0.041981903  0.043756609            4 
  385000    1.1947849   -6.0607468    193.51892  0.041887212  0.043743255            4 
  386000    1.2061046   -6.0181803    194.65409  0.042023768  0.043728721            5 
  387000    1.2024845   -6.0001828    194.55717  0.041894309  0.043714615            3 
  388000    1.1883798   -6.0328936    195.66688  0.042024674  0.043701501            6 
  389000      1.23316   -6.0014291    196.24069  0.042039565  0.043688293            4 
  390000    1.2082125   -6.0354868    197.14006  0.042123944  0.043676414            4 
  391000    1.1673533   -6.0126893     196.8722  0.041959123  0.043664198            2 
  392000    1.2068017    -5.993457    196.74261  0.041824534  0.043650604            9 
  393000    1.2180183   -6.0181019    198.13173  0.042012665  0.043637465            4 
  394000    1.1775229   -6.0517902    198.13314  0.041906332  0.043624671            4 
  395000    1.1920726   -5.9931215    199.20158  0.042025651  0.043612041            5 
  396000    1.2080049   -5.9618992    199.64372  0.042012567  0.043599569            4 
  397000     1.181709   -6.0120629    199.79827  0.041939183  0.043586613            7 
  398000    1.1651965   -5.9932931    200.45507  0.041971329  0.043573428            3 
  399000    1.2064914    -6.025713    201.07393   0.04199539  0.043560101            8 
  400000    1.1795948   -6.0037369    201.40421  0.041959211  0.043547395            6 
  401000    1.1987118   -6.0121274    202.16408  0.042012485  0.043535461            3 
  402000    1.1840568   -5.9909027    202.16217  0.041907581  0.043524274            4 
  403000    1.1787054   -6.0382649    202.68536  0.041911778  0.043513462            3 
  404000    1.1813137   -6.0328259    203.97213  0.042073459  0.043502687            3 
  405000    1.1776621   -5.9901564    204.58166  0.042094992  0.043491764            7 
  406000    1.1946771   -5.9838637    205.54401  0.042188836  0.043482177            3 
  407000     1.172634   -6.0433314    206.07684  0.042194276  0.043472847            3 
  408000    1.1981237   -5.9918653    206.31601  0.042139708  0.043463497            3 
  409000    1.1633801   -6.0251936    206.29409  0.042032211   0.04345419            7 
  410000    1.1888462   -6.0014221    206.64827   0.04200168  0.043444635            3 
  411000    1.2034319    -6.025458    207.24468  0.042020413  0.043435159            4 
  412000    1.1783187   -6.0217116    207.93169  0.042057381   0.04342627            3 
  413000    1.1955045   -6.0328199    207.89117   0.04194737  0.043416585            4 
  414000    1.1785652   -6.0027401    208.97534   0.04206428  0.043406949            3 
  415000    1.1669526   -6.0090915    209.19634  0.042007296  0.043396477            8 
  416000    1.1995292   -6.0177601    210.19038  0.042105444  0.043386541            3 
  417000    1.1757583    -5.980729    211.46322  0.042258838    0.0433772            2 
  418000    1.1754878   -6.0256565    211.34691  0.042134551  0.043368856            4 
  419000    1.1894422   -5.9608684    210.85618  0.041936392  0.043359356            3 
  420000    1.1532915   -5.9950725    212.25758  0.042114598  0.043351228            4 
  421000    1.1904662    -6.009461    211.62832  0.041890008  0.043340842            3 
  422000    1.1755253   -6.0337435    212.15377  0.041894504  0.043330091            6 
  423000    1.1715558   -6.0576487     212.2898  0.041822262  0.043318489            6 
  424000    1.1932046   -6.0644581    212.21859  0.041709629  0.043306446            2 
  425000    1.1895284   -6.0464782    212.84709  0.041734723  0.043293767            3 
  426000    1.1905513   -6.0218799    213.17993  0.041701864  0.043281101            3 
  427000     1.183794    -6.032615    213.50452  0.041667548  0.043268512            2 
  428000    1.1733188   -6.0118323    214.41645   0.04174775  0.043255816            3 
  429000    1.1769502    -5.996554    215.23141  0.041808742  0.043243622            2 
  430000    1.1590107   -6.0032306    215.63101  0.041788955  0.043232024            2 
  431000    1.1785178   -6.0250269    216.29912  0.041821176  0.043220901            2 
  432000    1.1737155   -6.0380271    216.93432  0.041846898  0.043208732            4 
  433000    1.1775683   -6.0398419    216.63171  0.041692015  0.043197357            1 
  434000    1.1824358   -6.0161829    217.68675  0.041798532  0.043186007            4 
  435000    1.1753154   -6.0022642    218.73573  0.041903397  0.043175089            5 
  436000    1.1892461   -6.0227975    218.44448  0.041751621  0.043163923            4 
  437000    1.1769252   -5.9726351    219.52368  0.041861877    0.0431525            3 
  438000    1.1853217    -5.968765    219.80872  0.041820533  0.043140918            3 
  439000    1.1780074   -5.9762739    219.94767  0.041751646  0.043129273            3 
  440000    1.1915531    -6.021837    220.60495  0.041781241  0.043117791            5 
  441000    1.1803936   -5.9885335    220.89929  0.041742118  0.043107017            4 
  442000    1.1880332     -6.01777    222.06847  0.041868112  0.043095065            7 
  443000    1.1957544   -6.0335123    221.90652  0.041743137  0.043083604            3 
  444000    1.1798272    -6.013977    222.04839  0.041675749  0.043072588            3 
  445000    1.1853153   -6.0057261    223.42447  0.041839789  0.043061599            5 
  446000    1.1774561   -6.0729324    222.63214  0.041597933  0.043050512            3 
  447000    1.1525271    -6.019749    223.08678  0.041589631  0.043038469            5 
  448000     1.168614   -6.0178799    224.09327  0.041684016  0.043027676            4 
  449000    1.1837148   -5.9964872    225.22857  0.041801887  0.043017077            3 
  450000    1.1569482    -6.048294    225.55835  0.041770066  0.043006269            6 
  451000    1.1682315   -6.0617487    225.55695   0.04167719  0.042995816            6 
  452000    1.1829952   -6.0638744    225.84836  0.041638709  0.042985627            5 
  453000     1.164021   -6.0380774    226.87892  0.041736373  0.042975897            4 
  454000    1.1777607   -6.0261872    227.92946  0.041837273  0.042966203            2 
  455000    1.2040238   -6.0422604    227.95835  0.041750614  0.042957444            3 
  456000    1.1769076   -6.0127001    228.07348  0.041680095  0.042948846            5 
  457000    1.2005997     -6.02854    229.36936  0.041825193  0.042939668            2 
  458000    1.1870996   -6.0287096    228.73548  0.041618538  0.042930248            3 
  459000    1.1739722   -6.0571379    229.81123  0.041723172  0.042921402            3 
  460000    1.2082195   -6.0076128    230.74518  0.041801663  0.042911949            3 
  461000    1.1715598   -6.0157521    230.50306   0.04166722  0.042903042            3 
  462000     1.179108   -6.0352152    230.98978  0.041664824  0.042893342            2 
  463000    1.2015896   -6.0301468    231.92208  0.041742635   0.04288346            3 
  464000    1.1570573    -6.008576    231.85195  0.041640077  0.042873445            3 
  465000    1.1927602    -6.050128    232.38678  0.041646377   0.04286366            4 
  466000    1.1992446   -6.0322185    232.52639  0.041581973  0.042853078            5 
  467000    1.1541778   -6.0007903    232.94213  0.041567118  0.042841899            5 
  468000     1.191726   -5.9925187    233.33552  0.041548347   0.04283054            2 
  469000    1.1737586   -6.0604902    233.95758  0.041570288  0.042819832            4 
  470000    1.1702494   -6.0318159    233.82703  0.041458693  0.042808761            2 
  471000     1.161172    -6.054425    234.33477  0.041460505  0.042797773            7 
  472000    1.1843794   -6.0269636    235.90324  0.041649584  0.042787188            3 
  473000    1.1542896   -6.0360546    235.25537  0.041447387  0.042776897            4 
  474000    1.1737138   -6.0034491    236.28794   0.04154148  0.042765985            3 
  475000    1.1591303   -6.0530645    236.67168  0.041521348  0.042754678            3 
  476000    1.1713195   -6.0437961    235.75509   0.04127365  0.042742426            4 
  477000    1.1917253   -6.0379215     237.3997   0.04147444  0.042730262            2 
  478000    1.1503711   -6.0279352    237.82835  0.041462405  0.042719374            3 
  479000    1.1755771   -5.9882198    238.44617  0.041483328  0.042707972            4 
  480000    1.1607542   -6.0763506    239.12287  0.041514387  0.042696537            3 
  481000    1.1587342   -6.0382362    238.67326  0.041350183  0.042684341            4 
  482000    1.1801777    -6.027819    239.39773  0.041389649  0.042672057            4 
  483000    1.1770341   -6.0268666    240.27596   0.04145548  0.042660537            3 
  484000    1.1811565   -6.0319497    241.20227  0.041529316  0.042650069            4 
  485000    1.1734432   -6.0140349    241.34021  0.041467391  0.042638919            3 
  486000    1.1869293   -6.0285877    242.06743  0.041506762  0.042629042            5 
  487000    1.1794508   -6.0328676    242.26454  0.041455261  0.042618441            4 
  488000    1.1526636   -6.0524323     241.8009  0.041291138  0.042607053            6 
  489000    1.1580708   -6.0349267    242.88855   0.04139205  0.042594523            5 
  490000    1.1404891   -5.9977888    242.68878  0.041273601    0.0425817            4 
  491000    1.1521835   -6.0499701    242.69408  0.041190441  0.042569019            9 
  492000    1.1494292   -6.0049173    243.30251  0.041209776  0.042555823            2 
  493000     1.168284   -6.0490435    243.66404  0.041187296  0.042542917            2 
  494000    1.1896586   -5.9926585    243.60723  0.041094337  0.042529778            2 
  495000    1.2070034   -6.0431742    243.52818   0.04099801   0.04251552            3 
  496000    1.1678507   -6.0339582    244.63194  0.041100796   0.04250118            3 
  497000     1.154344   -6.0550727     245.1976  0.041112945  0.042487159            2 
  498000    1.1765578   -6.0621616    245.16885  0.041025577  0.042472935            7 
  499000    1.1844202   -6.0693348     245.8394  0.041055344  0.042458225           10 
  500000    1.1627958   -6.0450205    245.64619  0.040941032  0.042443308            4 
  501000    1.1810177    -6.079435    246.30227  0.040968441  0.042429246            3 
  502000    1.1707364   -6.0648424    247.02506  0.041006815  0.042415393            4 
  503000    1.2087074   -6.0364591    247.85755  0.041063213  0.042401932            4 
  504000    1.1788029   -6.0618316    248.27647  0.041051003  0.042387798            2 
  505000    1.1795297    -6.034046    248.14096  0.040947353  0.042373547            2 
  506000    1.1767654   -6.0250928    248.92595  0.040995709  0.042359237            8 
  507000    1.1739404   -6.0614941    248.95928  0.040920328  0.042344672            4 
  508000    1.1768017    -6.047674    248.71301  0.040799378  0.042329548            3 
  509000    1.1585919   -6.0210327    249.36627  0.040826174  0.042314439            3 
  510000    1.1826009   -6.0294838    249.77053  0.040812178  0.042298842            5 
  511000    1.1989569   -6.0705271    249.84535  0.040744512  0.042283012            3 
  512000    1.1654036    -6.046153     251.0289  0.040857568   0.04226752            4 
  513000    1.1642753   -6.0415626    251.79653   0.04090262  0.042253305            4 
  514000    1.1753947   -6.0429278    252.04821  0.040863847   0.04223853            4 
  515000    1.1672757   -6.0628872    252.39681  0.040840908  0.042223952            4 
  516000    1.1727142     -6.06878    252.05716  0.040706906  0.042208934            2 
  517000    1.1756665   -6.0521438    253.20995  0.040813983  0.042193926            2 
  518000    1.1560692   -6.0284696    254.21701  0.040897202  0.042178878            4 
  519000    1.1702022   -6.0456888    254.25956  0.040825234  0.042164429            5 
  520000    1.1582755   -6.0508488    253.47721  0.040621348  0.042149923            3 
  521000    1.1680296   -6.0581099    254.03922  0.040633272   0.04213496            6 
  522000     1.175263   -6.0980445    254.04595  0.040556505  0.042120139            3 
  523000    1.1589999   -6.0605305    255.20358  0.040663412  0.042105084            6 
  524000    1.1734847   -6.0588306    254.72998  0.040510493  0.042089669           11 
  525000    1.1586769   -6.0400221    256.09437  0.040649899  0.042074277            2 
  526000    1.1757236   -6.0619409    256.47151  0.040632369  0.042058674            4 
  527000    1.1534157   -6.0198776     257.1739  0.040666334  0.042043576            2 
  528000    1.1416434   -6.0202882    257.69459  0.040671495  0.042028851            4 
  529000    1.1561388   -6.0451838    258.35408    0.0406985  0.042014392            4 
  530000    1.1937871   -6.0220639    258.80512  0.040692629  0.041999942            2 
  531000    1.1483806   -6.0441117      258.892   0.04062963  0.041986156            2 
  532000    1.1787787   -6.0752827    259.08521  0.040583524  0.041971841            4 
  533000    1.1656473   -6.0477926    260.05373  0.040658807  0.041957854            3 
  534000    1.1642014   -6.0216287     261.4046  0.040793478  0.041944028           11 
  535000    1.1459453   -6.0162421     261.6601  0.040757025  0.041930102            3 
  536000    1.1781022   -6.0510512    261.00323   0.04057886  0.041916229            3 
  537000    1.1567776   -6.0559315    261.67094  0.040606912  0.041902315            4 
  538000    1.1678104   -6.1047399    261.48267  0.040502272  0.041887522            3 
  539000    1.1461995   -6.0494398    262.42333  0.040572562  0.041873729            5 
  540000    1.1734195   -6.0346083    262.77881  0.040552286  0.041859163            5 
  541000    1.1605123   -6.0710374    262.33154  0.040408432   0.04184387            3 
  542000    1.1848166   -5.9969603    262.59043  0.040373682  0.041828131            2 
  543000    1.1485631   -6.0533034    263.32428  0.040411952  0.041812855            3 
  544000    1.1757981   -6.0272027    263.96652  0.040436048  0.041797056            4 
  545000    1.1582442    -6.027424    265.07692  0.040531639  0.041782486            3 
  546000    1.1732617   -6.0084825    265.17526  0.040472415  0.041767504            3 
  547000    1.1679929    -6.063446    264.78981  0.040339703  0.041751768            4 
  548000    1.1512929   -6.0724958    265.26938  0.040339018  0.041735896            2 
  549000    1.1534153   -6.0726885    265.76601  0.040340924  0.041721118            6 
  550000    1.1613198   -6.0582878    267.24212   0.04049123  0.041706374            2 
  551000    1.1640074    -6.109653    266.48254  0.040302864  0.041693086            4 
  552000    1.1785253   -6.0475466    267.74482  0.040420414  0.041678943            2 
  553000    1.1749652   -6.0232328    268.02397  0.040389386  0.041664957            3 
  554000    1.1728474   -5.9757204    269.52356  0.040542052  0.041651271            2 
  555000    1.1407888   -6.0217418    269.14068  0.040411514  0.041637798            3 
  556000    1.1805812   -6.0772463     270.0179  0.040470308  0.041624265            3 
  557000    1.1673279   -6.0766047    269.24503  0.040282021  0.041611146           19 
  558000    1.1774402    -6.026511    271.14584  0.040493704  0.041597989            4 
  559000    1.1495744   -6.0396356    272.27971  0.040590296  0.041585781            2 
  560000    1.1476312   -6.0582305    272.63122  0.040570122  0.041574124            4 
  561000    1.1625862   -6.0604022    272.40256  0.040463838  0.041562149            5 
  562000    1.1712696   -6.0687125    274.01327  0.040630674  0.041550414            2 
  563000     1.160305   -6.0531329    274.26999  0.040596505  0.041538779            3 
  564000    1.1693943   -6.0063721    275.02329  0.040635829  0.041527258            6 
  565000    1.1818006   -6.0808517     275.6119  0.040650722  0.041516119            2 
  566000    1.1500579   -6.0571185    275.54143  0.040568526  0.041504759            3 
  567000    1.1639892   -6.0685842     275.2398  0.040452645  0.041493461            5 
  568000    1.1385938    -6.093007     275.5453  0.040426247  0.041481593            5 
  569000    1.1688581   -6.0422586      276.335  0.040470856  0.041470083            4 
  570000     1.165139   -6.1040429    276.98915   0.04049549  0.041458578            4 
  571000     1.169296    -6.069049    277.05199  0.040433741  0.041447055            5 
  572000    1.1615154   -6.0634286    277.26349  0.040393865  0.041435007            4 
  573000      1.16763   -6.0931194    277.54223  0.040363908  0.041422339            4 
  574000    1.1495476   -6.0662266    277.74551    0.0403231  0.041409127            2 
  575000    1.1653022   -6.0769601    277.62759  0.040235882  0.041395731            3 
  576000    1.1539992   -6.0607273    278.21627  0.040251197  0.041382575            2 
  577000    1.1358387   -6.0263238    278.45106  0.040215347  0.041369998            4 
  578000    1.1594791    -6.059709    279.75885  0.040334321  0.041357672            3 
  579000    1.1428392   -6.0478213    279.77611  0.040267142  0.041345877            3 
  580000    1.1615421   -6.1110705    280.70248  0.040330816  0.041334258            8 
  581000    1.1795651   -6.0551648    280.13328  0.040179759  0.041322299            6 
  582000     1.190257   -6.0762092    280.60516  0.040178287  0.041310179            5 
  583000    1.1738684    -6.030458    281.95454   0.04030225  0.041298333           11 
  584000    1.1413164   -6.0632056    282.89001  0.040366725  0.041286387            5 
  585000    1.1772425   -6.0802414    281.42855  0.040089538  0.041274027            3 
  586000    1.1418067    -6.076487    283.13513  0.040263812  0.041261904            4 
  587000    1.1451924   -6.0797159    283.99415  0.040317171  0.041249753            4 
  588000    1.1356194   -6.0634226     283.0083  0.040108886  0.041237395            4 
  589000    1.1589084   -6.0415234    284.80798  0.040295413  0.041225271            4 
  590000    1.1672806   -6.0424485    285.13348  0.040273091  0.041213173            4 
  591000    1.1749324   -6.0379732    285.41361  0.040244446  0.041200986            4 
  592000    1.1719336   -6.0932377    285.83312  0.040235518  0.041188905            6 
  593000    1.1556404    -6.056147      286.966  0.040326869  0.041177518            4 
  594000    1.1245915   -6.0645363    286.85467   0.04024336  0.041166202            4 
  595000    1.1565064   -6.0794284    287.49421  0.040265296  0.041154926            8 
  596000    1.1572212   -6.0923715    288.14575  0.040288835  0.041144065            7 
  597000    1.1458107   -6.0911861    287.54347   0.04013728  0.041132871            7 
  598000    1.1687405   -6.0541239    288.51729  0.040205865  0.041121361            6 
  599000     1.155584   -6.0347466    289.87337  0.040327403  0.041109816            5 
  600000    1.1555143   -6.0849223    289.35419  0.040188082  0.041099454            2 
  601000    1.1728863    -6.023577     290.0333  0.040215377  0.041088223            6 
  602000    1.1736196   -6.0919742     289.8687  0.040125789  0.041076719            4 
  603000    1.1592419   -6.0818849     290.3868  0.040130846  0.041065294            5 
  604000    1.1665219   -6.0637332    291.31775  0.040192847  0.041053997            4 
  605000    1.1511526   -6.0856036     290.8985  0.040068663  0.041043225            2 
  606000    1.1500351   -6.0784152    292.42161  0.040211993  0.041032886            2 
  607000    1.1583957   -6.0650569    293.44654  0.040286455  0.041022806            4 
  608000    1.1622497   -6.0736395     292.1868  0.040047534  0.041012084            2 
  609000    1.1229252   -6.0357797    293.96024  0.040224445  0.041001584            2 
  610000    1.1776654   -6.0289426    294.08504  0.040175552  0.040990917            3 
  611000    1.1565967    -6.101152    294.00675   0.04009912  0.040979975            4 
  612000    1.1437109   -6.0398253    294.42749  0.040090889  0.040968855            6 
  613000    1.1551526   -6.0437486    295.55686  0.040179019  0.040958085            9 
  614000    1.1593334   -6.0558876    295.87853  0.040157238  0.040947422            3 
  615000    1.1573374   -6.1092146    295.94277  0.040100646  0.040936962            3 
  616000    1.1632893   -6.1072055    296.51237  0.040112604  0.040926532            2 
  617000     1.161155   -6.0905639    296.90957  0.040101238  0.040915944            5 
  618000    1.1536367   -6.0729848    297.22168  0.040078436  0.040905524            2 
  619000    1.1677334   -6.0438627    297.30657  0.040025117  0.040895059            2 
  620000    1.1762718   -6.0772647    298.75999  0.040155913  0.040884524            7 
  621000    1.1600945    -6.058363    299.31809  0.040166143  0.040874624            5 
  622000    1.1403932   -6.0662561    298.89701  0.040045151  0.040865307            3 
  623000    1.1427571   -6.0398331    300.73159  0.040226269  0.040855024            4 
  624000    1.1523193   -6.0622778    300.41233  0.040119169  0.040845035            3 
  625000    1.1665157     -6.06123    300.18465   0.04002462  0.040834389            2 
  626000    1.1565917   -6.0575454    300.68548  0.040027354  0.040824371            5 
  627000    1.1682052   -6.0517742    302.01847  0.040140678  0.040814094            2 
  628000    1.1462193   -6.0818669    302.55864   0.04014844   0.04080409            5 
  629000    1.1441185   -6.0666799    301.66322  0.039965981  0.040793588            3 
  630000    1.1525847   -6.1012543    301.21615  0.039843405  0.040782882            5 
  631000    1.1613507   -6.0653535    301.01098  0.039753167  0.040771658            4 
  632000    1.1465149   -6.0781581    303.34514  0.039998041  0.040760918            4 
  633000    1.1616236   -6.0932386     303.3476  0.039935176  0.040750037           10 
  634000    1.1605281   -6.0991041    304.30532  0.039998071  0.040739582            5 
  635000    1.1488629   -6.0972097    304.05672  0.039902456   0.04072936            2 
  636000    1.1741168   -6.0325621    304.76813  0.039932931  0.040718973            3 
  637000    1.1487782   -6.1006804    304.79131  0.039873274  0.040708374            4 
  638000    1.1332253   -6.0359701    306.92943  0.040090051  0.040697858            2 
  639000    1.1346225   -6.0954226    306.74542  0.040003315  0.040687886            3 
  640000    1.1409318    -6.035685    306.27448  0.039879489  0.040677369            2 
  641000    1.1549689   -6.1313653    305.99224  0.039780582  0.040666841            3 
  642000    1.1478288   -6.0349112    307.41761  0.039903636   0.04065583            4 
  643000    1.1386328   -6.0455667    307.50117  0.039852407  0.040644911            2 
  644000     1.138804   -6.0396925    308.11919  0.039870496  0.040634201            4 
  645000    1.1440631    -6.036358    308.56016  0.039865654  0.040623322           14 
  646000    1.1269642   -6.0731039    308.81299  0.039836557  0.040612119            2 
  647000    1.1617715   -6.1069455    308.42753  0.039725339  0.040600943            3 
  648000    1.1317509    -6.047496    310.55674  0.039937853   0.04059065            5 
  649000    1.1669322   -6.1068834    310.07447  0.039814391  0.040580339            3 
  650000    1.1360946   -6.0949045    311.11095  0.039886019    0.0405698            2 
  651000    1.1644138   -6.0569715    311.09509   0.03982272  0.040559246            4 
  652000     1.142221   -6.0947048    311.35289  0.039794592  0.040548589            3 
  653000    1.1533571    -6.094095     311.4809  0.039749988  0.040538175            4 
  654000    1.1271148   -6.1005882    311.98739  0.039753745  0.040527461            3 
  655000    1.1691848   -6.0811656    312.63494  0.039775438  0.040517067            5 
  656000    1.1551733   -6.0471004    313.21703  0.039788748  0.040507086            4 
  657000    1.1490092   -6.1027682    313.47703  0.039761166  0.040497238            4 
  658000     1.171627   -6.0959471    313.11118  0.039654405  0.040486737            3 
  659000    1.1545042    -6.060093    313.88879  0.039692563  0.040475954            2 
  660000    1.1451033   -6.0895757    314.81938  0.039749921  0.040465181            3 
  661000    1.1487179   -6.0656982    315.68502  0.039798918  0.040455151            3 
  662000    1.1504099   -6.0929305    315.04872  0.039658701  0.040445574            6 
  663000    1.1366341   -6.0573991    317.68567  0.039930325  0.040436363            4 
  664000     1.154746    -6.095632    316.50885  0.039722496  0.040426611            6 
  665000     1.158963   -6.1186708    316.94744  0.039717724  0.040416491            5 
  666000    1.1638554   -6.1020386    317.71808  0.039754515  0.040406415            3 
  667000    1.1283675   -6.0549123    319.17035  0.039876355  0.040396061           11 
  668000    1.1575544   -6.0792318    318.29225  0.039707117  0.040386222            5 
  669000    1.1488027   -6.0512505    317.77901  0.039583833  0.040376141           10 
  670000    1.1404757   -6.0684105    319.70597  0.039764424    0.0403659            3 
  671000     1.142607   -6.0768477    320.17163  0.039762994  0.040356213            4 
  672000    1.1720706   -6.0514132    320.07229  0.039691504  0.040346609            6 
  673000    1.1296197   -6.0841729    320.48274   0.03968335  0.040336935            3 
  674000    1.1481227   -6.0632604    319.86698  0.039548341  0.040326696            4 
  675000    1.1300454   -6.1347189    320.60831  0.039581273  0.040316359            7 
  676000    1.1499868     -6.08345    321.34104  0.039613048  0.040306144            3 
  677000    1.1550885   -6.0992116    322.46805  0.039693261   0.04029579            4 
  678000    1.1585709      -6.1234    321.27459  0.039488027  0.040285713            4 
  679000    1.1660724   -6.0753178     322.8657  0.039625147  0.040275897            4 
  680000    1.1627957   -6.0320193    323.81188  0.039682829  0.040265797            9 
  681000    1.1623353   -6.0803795    323.59778  0.039598358  0.040255564            1 
  682000     1.144462   -6.0711646    322.52936  0.039409745  0.040245101            3 
  683000    1.1277569   -6.0781487    323.57385  0.039479484   0.04023514            3 
  684000    1.1092196   -6.1121023    325.28898  0.039630723  0.040225246            4 
  685000    1.1393171   -6.0840285    325.61473  0.039612498   0.04021556            2 
  686000    1.1335085   -6.0775375    325.23503  0.039508629  0.040205793            5 
  687000    1.1449655   -6.0932678    325.91689  0.039533829  0.040195997            2 
  688000    1.1244716    -6.095019    326.49552  0.039546453  0.040186025            3 
  689000    1.1045293   -6.1073258    327.19936  0.039574184  0.040176045            7 
  690000    1.1616387   -6.0654395    327.71656  0.039579294  0.040165792            5 
  691000    1.1486781   -6.0877001     328.0347  0.039560384  0.040155595            3 
  692000    1.1425719   -6.0921252    327.72292  0.039465669  0.040145757            3 
  693000    1.1481686   -6.0801546     328.5612  0.039509523   0.04013568            5 
  694000    1.1204551   -6.0889253    330.00696  0.039626196  0.040125545            2 
  695000    1.1633732   -6.0846066    328.96843  0.039444656  0.040115583            3 
  696000    1.1288056   -6.0806346    328.37256  0.039316637  0.040105129           14 
  697000    1.1316413   -6.0998961    329.31108  0.039372439  0.040094777            4 
  698000    1.1388859   -6.0993182    329.06448  0.039286591  0.040083654            4 
  699000    1.1209771   -6.0779342    330.18224  0.039363644  0.040072152            3 
  700000     1.158563   -6.0849925    330.41093  0.039334635   0.04006111            3 
  701000    1.1426375   -6.0447506    330.68352  0.039310927   0.04005031            3 
  702000     1.132505   -6.0392244    331.52973   0.03935538  0.040039333            4 
  703000    1.1320776   -6.1284139     330.9953  0.039236048  0.040028438            6 
  704000    1.1364534   -6.0908236    332.96495  0.039413465  0.040017703            4 
  705000    1.1292558   -6.0971015    332.11837   0.03925749   0.04000713            3 
  706000     1.174997    -6.097927    332.75271   0.03927676  0.039996621            4 
  707000    1.1670347   -6.1109771    333.27649  0.039282943  0.039986085            4 
  708000    1.1596519   -6.1244915    332.65006  0.039153727  0.039975577            6 
  709000    1.1617282   -6.0420255    334.87486  0.039359998  0.039965073            3 
  710000    1.1280432   -6.0896064    334.84864  0.039301484  0.039954396            6 
  711000    1.1527924    -6.068892    335.29891  0.039298981  0.039943683            2 
  712000    1.1425441    -6.061102    335.34612  0.039249312  0.039932921            3 
  713000    1.1711097   -6.0892401    334.67649     0.039116  0.039922175           11 
  714000     1.136743   -6.1141946    336.12803  0.039230629  0.039911464            6 
  715000    1.1195704   -6.0753923    336.74491  0.039247659  0.039901096            6 
  716000    1.1296321   -6.0764637    337.07947  0.039231782   0.03989044           13 
  717000    1.1206328   -6.1082354    337.84868  0.039266466  0.039879957            9 
  718000    1.1458985    -6.044549    337.96516  0.039225298  0.039869815            8 
  719000    1.1131684   -6.1007617    337.39225  0.039104341  0.039859245            5 
  720000    1.1367444   -6.1145042    338.17235  0.039140319   0.03984862            7 
  721000    1.1476628   -6.1122559    338.47161  0.039120621  0.039838033            3 
  722000    1.1381302    -6.098039      339.412  0.039174977  0.039827092            4 
  723000    1.1414066   -6.0775007     339.0964  0.039084417  0.039816311            3 
  724000    1.1444388   -6.0594966    339.85947  0.039118263  0.039805309            6 
  725000    1.1256477   -6.1193311    339.70912  0.039047025  0.039794523            2 
  726000    1.1217405   -6.0688594    339.78451  0.039001895  0.039783518            4 
  727000    1.1121062   -6.0919577    340.70055  0.039053249  0.039772019            5 
  728000     1.116039   -6.0863216    340.35089   0.03895958   0.03976057            3 
  729000    1.1512147   -6.0728365    341.02352  0.038983027  0.039749246            4 
  730000    1.1343305   -6.0820215    341.08476  0.038936616  0.039737669            4 
  731000    1.1582123   -6.0920911    341.62705  0.038945172    0.0397262            6 
  732000    1.1396998   -6.1079302    341.27069  0.038851399  0.039714626            2 
  733000    1.1353798   -6.1035507    342.94768   0.03898905   0.03970334            4 
  734000    1.1426963   -6.0887459    341.95729  0.038823489  0.039691803            3 
  735000    1.1426487   -6.0772441    343.24174  0.038916297  0.039680687            9 
  736000    1.1572229   -6.1242902    343.37648  0.038878678  0.039669302            3 
  737000    1.1241951   -6.0824645    344.19505  0.038918481  0.039657815           11 
  738000     1.137885    -6.116045    343.68523  0.038808179  0.039646005            4 
  739000      1.12986   -6.0837961    344.91078  0.038893863  0.039633934            4 
  740000    1.1299023   -6.1581676    343.73734   0.03870916  0.039622025            6 
  741000    1.0986921   -6.1202526    344.26197  0.038715921   0.03960969            4 
  742000    1.1292397   -6.0976532    345.53663  0.038806899  0.039597834            4 
  743000    1.1148955   -6.0973058    347.05866  0.038925377   0.03958645            6 
  744000    1.1578594     -6.13045    345.84118  0.038736691  0.039575141            3 
  745000    1.1296381   -6.1156376    346.46755  0.038754759  0.039563937            3 
  746000    1.1460667   -6.0923253    347.51837  0.038820193  0.039553141            7 
  747000    1.1150531   -6.1086936    348.09795  0.038832881  0.039542264            2 
  748000    1.1346291   -6.1344544    349.06263  0.038888439   0.03953129            2 
  749000    1.1115608   -6.1225474    348.91947   0.03882059  0.039520241            3 
  750000    1.1466137   -6.1157098    349.24272  0.038804747  0.039509405            4 
  751000     1.126096   -6.1081925    349.99673  0.038836744  0.039498391            3 
  752000    1.1487157    -6.112603    349.82237  0.038765776  0.039487426            6 
  753000    1.1235119   -6.1234492    349.28466  0.038654788  0.039476264            2 
  754000    1.1256962   -6.0757671    350.89881   0.03878192  0.039465058            6 
  755000    1.1217965    -6.134101    350.48619   0.03868501  0.039453944            6 
  756000    1.1327847   -6.1230522    351.03211  0.038694016  0.039442667            3 
  757000    1.1260543   -6.0686953    351.80088   0.03872753  0.039431278            4 
  758000    1.1233107   -6.1182411    352.37241  0.038739271  0.039420212            3 
  759000     1.131481   -6.1393016    353.57259  0.038820003  0.039409063            5 
  760000    1.1252377   -6.1475075    352.67673  0.038670694  0.039398175            4 
  761000    1.1555743   -6.0887082     353.8055  0.038743484  0.039387148            3 
  762000    1.1402164   -6.1330014    353.41037  0.038649427   0.03937614            2 
  763000    1.1155854   -6.1382663    353.89149  0.038651321  0.039365289            4 
  764000    1.1084403   -6.1203498    355.02926  0.038724833  0.039354508            5 
  765000     1.140954   -6.1344479    356.00159   0.03878013  0.039344031            4 
  766000    1.1339466   -6.1015345    356.76762   0.03881284  0.039333587            6 
  767000      1.12452   -6.0614333    356.55413  0.038739041  0.039323541            9 
  768000    1.1266105   -6.0829339    357.22012  0.038760863  0.039313536            4 
  769000    1.1438089   -6.1353701    357.50074  0.038740869  0.039303585            3 
  770000    1.1431222   -6.0953926    358.21076  0.038767398    0.0392938            4 
  771000    1.1222178   -6.1181468    359.26647  0.038831223  0.039284055            3 
  772000    1.1125547   -6.1189499    359.99206  0.038859247  0.039274679            3 
  773000    1.0993971     -6.12703    359.48335  0.038754134  0.039264805            4 
  774000    1.1275206   -6.1096037     360.0796   0.03876826  0.039255183            7 
  775000    1.0951325   -6.1306772    360.53169  0.038766848  0.039245466            2 
  776000     1.098397   -6.0884997    361.10992  0.038778987   0.03923567            6 
  777000    1.1259004   -6.1412215    361.87906  0.038811568  0.039225887            2 
  778000    1.1582383   -6.1046939    360.22588  0.038584606  0.039216018            5 
  779000    1.1279954   -6.1036462    360.95076  0.038612619  0.039205732            4 
  780000    1.1269437   -6.1258399    361.66763  0.038639704  0.039195517            1 
  781000    1.1316545   -6.1287805    362.03398   0.03862932    0.0391858            6 
  782000    1.1430164   -6.1061332    362.87087  0.038669104  0.039175973            4 
  783000     1.123435   -6.0823082    363.66676  0.038704424  0.039166388            3 
  784000    1.1192811   -6.0924383    362.31918  0.038511817  0.039156597            9 
  785000    1.1367118   -6.1425992    363.31551  0.038568525  0.039146678            4 
  786000    1.1235138   -6.1213125    364.34384  0.038628482  0.039137017            3 
  787000    1.1396964   -6.1376245    364.40343  0.038585708  0.039127131            4 
  788000    1.1119442   -6.1174495    365.76991  0.038681251   0.03911762            7 
  789000    1.1229633   -6.0904959    366.71504  0.038732049  0.039108379            4 
  790000    1.1098406   -6.0968098    365.49253  0.038554064  0.039098838            3 
  791000    1.1053971   -6.1379127    366.85358  0.038648713  0.039089412            5 
  792000    1.1158027   -6.1333614    366.74599  0.038588593   0.03908012            3 
  793000    1.1405598   -6.0953974    367.67793  0.038637865  0.039070696            5 
  794000    1.1020005   -6.1267813    367.78503  0.038600444  0.039061011            2 
  795000    1.1203341   -6.1212142    368.36513  0.038612697  0.039051626            4 
  796000     1.127339   -6.1013109    369.33728  0.038665963  0.039042231            2 
  797000    1.1429764   -6.1061278    369.40572  0.038624604  0.039033117            4 
  798000    1.1428581   -6.1193325    369.14225  0.038548689  0.039023569            4 
  799000    1.1305978   -6.1114715    370.25344  0.038616337   0.03901422            3 
  800000    1.1240549   -6.1229835    370.78649  0.038623593  0.039005047            4 
  801000     1.102152   -6.1323361    371.17444  0.038615734  0.038995796            6 
  802000    1.1238462   -6.0754164    371.15519  0.038565585  0.038986224            3 
  803000     1.117812   -6.1092792    372.22754  0.038628843   0.03897691            9 
  804000    1.1174245   -6.0838542    372.13599  0.038571309  0.038967628            5 
  805000    1.1124918   -6.1212243    372.82312  0.038594526    0.0389587            5 
  806000    1.1063131   -6.1483029    372.41403  0.038504346  0.038949265            4 
  807000     1.122799   -6.0986202    373.13746  0.038531336   0.03893993            5 
  808000    1.1138111   -6.1120731    373.22842   0.03849303  0.038931046            3 
  809000    1.1129948   -6.0908993    374.14923    0.0385403  0.038921653            3 
  810000     1.117419   -6.1250857    373.75614  0.038452278  0.038912237            7 
  811000    1.1005961   -6.1246887    372.76091  0.038302601  0.038902168            4 
  812000    1.1254665    -6.117752    373.55566  0.038336993  0.038892405            6 
  813000    1.1270489   -6.1280254    374.99574  0.038437448  0.038882395            4 
  814000    1.1263355   -6.1339371    374.32262  0.038321317   0.03887253            7 
  815000    1.1178524   -6.1202445    374.30021  0.038272005  0.038862592            4 
  816000    1.0907828   -6.1404514    375.32842  0.038330108  0.038852437            5 
  817000    1.1037951   -6.1102261    376.24257  0.038376435  0.038842639            4 
  818000    1.1252012    -6.139179    375.89997  0.038294617  0.038833124            6 
  819000    1.1204455   -6.1112239    377.61335  0.038422197  0.038823511            5 
  820000    1.1256375   -6.1022895    377.56433  0.038370359  0.038814134            3 
  821000    1.1136198   -6.1277752    377.48716   0.03831579  0.038804333            4 
  822000    1.0993606   -6.1465317    378.32626  0.038354244  0.038794608            7 
  823000    1.1355421   -6.1464457    378.77771  0.038353353  0.038784759            3 
  824000    1.0864581     -6.13333    378.24582  0.038253015  0.038774623            5 
  825000    1.1214552   -6.1030811    379.80174  0.038363813  0.038764504            5 
  826000      1.12678   -6.1369303    378.57222  0.038193323  0.038754233            3 
  827000     1.097821   -6.1635187    378.47211  0.038137053  0.038744084            4 
  828000    1.0955836   -6.1271296    380.51822  0.038296923  0.038734078            3 
  829000    1.1199855   -6.1579378    380.75385  0.038274412  0.038724471            4 
  830000    1.1289126    -6.117998    380.48122  0.038200925   0.03871476            7 
  831000    1.1289704   -6.1281881     382.8195  0.038389441  0.038705367            2 
  832000    1.1302398   -6.1189478    382.65291  0.038326614  0.038695841            4 
  833000    1.1169591   -6.0712677    382.27057  0.038242354  0.038686271            4 
  834000    1.0979848   -6.1509348    381.37518  0.038107032  0.038676666            5 
  835000    1.1016231   -6.1255376    383.34818  0.038258301  0.038666653            4 
  836000    1.1334501   -6.1456641    382.72474  0.038150393  0.038656838            3 
  837000    1.1185461   -6.1432457    381.57106   0.03798995   0.03864679            3 
  838000    1.1229234   -6.1160329    383.43143  0.038129617  0.038636832            2 
  839000    1.1121126   -6.1190615    382.54204  0.037995833  0.038627046            4 
  840000    1.1147672   -6.1032931    384.62973  0.038157712  0.038617191            6 
  841000    1.1088354   -6.1733794    385.03312  0.038152311  0.038607779            2 
  842000    1.1316713   -6.1160488     386.7937  0.038281245  0.038598278            2 
  843000    1.1047117   -6.1321728    386.06584  0.038163883  0.038589333            4 
  844000    1.1415096   -6.1344401    387.11476  0.038222232  0.038580503            4 
  845000    1.0916046   -6.1130975     387.8206  0.038246607  0.038571507            6 
  846000    1.1144627   -6.0817547    388.79497  0.038297377  0.038562913            2 
  847000    1.1014813   -6.1439084    388.01265  0.038175192  0.038554121            3 
  848000    1.1027685   -6.1656287    388.72447  0.038200125  0.038545062            3 
  849000    1.1133457   -6.1473801    388.18717  0.038102392  0.038536037            4 
  850000    1.1364063   -6.1838105    389.91386  0.038226849  0.038527129            6 
  851000      1.10633   -6.1514609    390.39318  0.038228866  0.038517997            4 
  852000    1.1124829   -6.1512178     391.3001  0.038272701  0.038509262            4 
  853000     1.110726   -6.1150482    390.25966  0.038126188  0.038500325            4 
  854000    1.1299324    -6.136024     389.6224   0.03801936  0.038491453            3 
  855000    1.1166572   -6.1074848    391.64785  0.038172305  0.038482719            6 
  856000    1.1086665   -6.1438932    392.37899  0.038198889  0.038473937            4 
  857000    1.1024569   -6.0786843    392.39483  0.038155857  0.038465357            3 
  858000    1.1302902   -6.1565537    392.23416  0.038095781  0.038456537            3 
  859000    1.1033103   -6.1434404    393.14488  0.038139783  0.038447838            3 
  860000    1.1028534   -6.1222736    393.82996  0.038161818  0.038438997            2 
  861000    1.0887334   -6.1323203    393.17341   0.03805395  0.038429662            4 
  862000    1.1047283   -6.1339333    393.69334  0.038060068  0.038420459            8 
  863000    1.1328559   -6.1144785    394.55469  0.038099139  0.038411359            4 
  864000    1.1061052   -6.1579932     393.7996  0.037982214  0.038402176            5 
  865000    1.1109754   -6.1239587    394.45706  0.038001644  0.038392961            9 
  866000    1.0908024   -6.1640679    394.62529   0.03797395  0.038383308            3 
  867000    1.1032006   -6.1206276    396.03103  0.038065266  0.038373615            4 
  868000    1.0894021   -6.1466683     395.1536  0.037937174  0.038364114            5 
  869000    1.1393622   -6.1109583    396.04325  0.037978831  0.038354558            1 
  870000    1.1067654   -6.1515061    395.84743   0.03791642  0.038345132            5 
  871000    1.0869864    -6.130419    396.90271  0.037973853   0.03833579            7 
  872000    1.1031387   -6.1696126    396.07413  0.037851121  0.038326261            6 
  873000    1.1001421   -6.1580557    397.02421  0.037898454   0.03831671            5 
  874000    1.1125464   -6.1138496    397.86594  0.037935349  0.038307209            2 
  875000    1.1129405   -6.0989323    398.26457  0.037929959  0.038297733            4 
  876000    1.1331978   -6.1069151    398.32852  0.037892743  0.038288271            3 
  877000    1.1119383   -6.1299484    398.49413  0.037865273  0.038278412            3 
  878000    1.1231473   -6.1335435    398.56455   0.03782883  0.038269015            5 
  879000    1.1237018   -6.1148383    399.92085  0.037914377  0.038259289            4 
  880000    1.1189058    -6.136754    399.61726  0.037842544  0.038249468            3 
  881000    1.1233966   -6.1453255    398.48188  0.037692195  0.038239491            4 
  882000    1.1108077   -6.1497831    400.47864  0.037838118   0.03822937            7 
  883000    1.1061126   -6.1777788    398.51246  0.037609708  0.038219358            4 
  884000    1.1030226    -6.160652    399.57903  0.037667707  0.038209299            8 
  885000    1.1044107    -6.131367    400.94865   0.03775411  0.038199279            2 
  886000    1.0783884   -6.1618857    401.24475  0.037739348  0.038189314            7 
  887000    1.1099777   -6.1438769    402.24301  0.037790587  0.038179196            6 
  888000    1.0856657   -6.1562402    400.92946  0.037624761  0.038169133            5 
  889000    1.1388462   -6.1315925    401.38925  0.037625539  0.038159094            5 
  890000    1.1183256    -6.133662    402.37414  0.037675481  0.038149387            4 
  891000    1.1286189   -6.1331663    402.06805  0.037604569  0.038139397            6 
  892000    1.1060889   -6.1536042    403.49663  0.037695874  0.038129781            6 
  893000    1.1082027   -6.1680226    405.17667  0.037810439  0.038120327            4 
  894000    1.1266337   -6.1383941    403.82344  0.037642006  0.038110972            4 
  895000    1.1002192   -6.1406139    405.26606   0.03773427  0.038101649            2 
  896000    1.1007121     -6.11987    406.14465   0.03777387  0.038092451            4 
  897000    1.1142791   -6.1425592    405.21919  0.037645781  0.038083221            3 
  898000    1.1110983   -6.1377584    406.37089  0.037710736  0.038073895            7 
  899000    1.1040736   -6.1278459    406.22421  0.037655192  0.038064484            4 
  900000    1.1188181   -6.1523488    406.41024  0.037630578  0.038055128            5 
  901000    1.1205436   -6.1710609    406.84744  0.037629249  0.038046077            3 
  902000    1.1160126    -6.173498    407.37571  0.037636337  0.038036738            2 
  903000    1.1243623   -6.1284836    407.90149  0.037643179   0.03802791            5 
  904000    1.1237364    -6.152695    408.15062  0.037624504   0.03801929            3 
  905000    1.1114268   -6.1515461    409.44245  0.037701883  0.038010271            3 
  906000    1.1085812   -6.1394484    409.12417  0.037630994  0.038001103            4 
  907000    1.1148255    -6.175337     408.0482  0.037490647  0.037992062            6 
  908000    1.0894262   -6.1317359    410.42211  0.037667227  0.037982778            2 
  909000    1.1265249   -6.1319341    410.79292  0.037659784  0.037973668            6 
  910000     1.095774    -6.148334    409.05951  0.037459662  0.037964468            5 
  911000    1.0952684   -6.1562105    411.01637  0.037597546   0.03795527            3 
  912000    1.1048175   -6.1967046    411.58923  0.037608665   0.03794617            9 
  913000    1.1162287   -6.1756541    411.65327  0.037573317  0.037937185           12 
  914000    1.1090383   -6.1357941    413.12679  0.037666556  0.037928081            6 
  915000    1.1067336   -6.1373182    413.69163  0.037676833  0.037919209            3 
  916000    1.1115663   -6.1635916    412.38515  0.037516844  0.037909943            5 
  917000    1.1206461    -6.124342    413.62741  0.037588823  0.037901039            4 
  918000    1.0863502   -6.1596638    414.34849  0.037613335  0.037891998            3 
  919000    1.1095803   -6.1660512    414.30532  0.037568491   0.03788336            6 
  920000    1.1037302    -6.153845    413.93945  0.037494516  0.037874111            8 
  921000    1.0934255   -6.1193642    416.12607  0.037651653   0.03786516            3 
  922000    1.1056762   -6.1522931     416.8568  0.037676861  0.037856262            2 
  923000    1.1080756   -6.1718673    415.41213   0.03750561  0.037847232            7 
  924000    1.0928439    -6.143735    416.50036  0.037563163  0.037838134            3 
  925000    1.1113727   -6.1686315    415.00532  0.037387867  0.037828979            3 
  926000    1.0980192   -6.1471787    418.01018  0.037617907  0.037819947            2 
  927000    1.1207952   -6.1528872    418.04801  0.037580728  0.037811164            5 
  928000    1.1119694   -6.1744512    417.25069  0.037468633  0.037802283            5 
  929000    1.0849982   -6.1574947    417.21656  0.037425238  0.037793386            4 
  930000    1.1130569   -6.1444665     419.5761  0.037596424   0.03778456            3 
  931000    1.1077905    -6.218048    418.22105  0.037434752  0.037776011            6 
  932000    1.1122212   -6.1626911     418.2765  0.037399544  0.037767288            9 
  933000    1.1001496   -6.1515761    420.86642  0.037590785   0.03775908            5 
  934000    1.1010971   -6.1684626    420.07332  0.037479775  0.037750568            6 
  935000    1.1009365   -6.1340262    421.08197  0.037529587  0.037742415            2 
  936000    1.0820397   -6.1834826    420.75742  0.037460597  0.037734001            4 
  937000    1.1205339   -6.1470895    420.92034  0.037435107  0.037725315            4 
  938000    1.1142526   -6.1611343    422.91155    0.0375721  0.037716963            6 
  939000     1.105004   -6.1448784    420.95845  0.037358755  0.037708555            7 
  940000    1.0848718   -6.1465693    423.05471   0.03750485  0.037699669            2 
  941000    1.1222075   -6.1392986    421.33626   0.03731281  0.037690907            3 
  942000    1.1055102   -6.1708034    423.38128  0.037454112  0.037681796            9 
  943000    1.1108065   -6.1080148    422.57236  0.037342909  0.037672696            3 
  944000    1.0963306   -6.1490476    423.63525  0.037397179  0.037663839            7 
  945000    1.0931678   -6.1503621     422.9283  0.037295265  0.037655168            6 
  946000    1.0886955   -6.1308098    425.03243  0.037441194  0.037646458            6 
  947000    1.1031535    -6.193989    424.74467  0.037376335  0.037638025           10 
  948000    1.1168095   -6.1555731    426.02485  0.037449442   0.03762918            4 
  949000      1.09676   -6.1884497     424.3868   0.03726614  0.037620284            6 
  950000    1.0970364    -6.164558    425.48053  0.037322853  0.037611357            4 
  951000    1.1002833   -6.1408864    426.32863  0.037357924  0.037602435            3 
  952000    1.0771165   -6.1944216     426.5222  0.037335627  0.037593596            3 
  953000    1.0899499   -6.1764981    426.94473  0.037333397  0.037584702            2 
  954000    1.0959496   -6.1834612    426.52575  0.037257665   0.03757593            4 
  955000    1.1048418   -6.1740973    428.39874  0.037382089   0.03756756            7 
  956000    1.1136461   -6.1498204    428.52672  0.037354142  0.037559269            5 
  957000    1.0950378   -6.1763623     428.6984  0.037330059  0.037551047            6 
  958000    1.1026466   -6.1910015    428.98977  0.037316438   0.03754257            2 
  959000    1.1139399   -6.1927887    428.75621  0.037257231  0.037533572           10 
  960000    1.0817317   -6.1611778    429.52158   0.03728486  0.037524812            5 
  961000    1.1129704   -6.1339212    429.13868  0.037212858  0.037516391           12 
  962000    1.0995789   -6.1642844    431.14217  0.037347728  0.037507714            2 
  963000     1.122438   -6.1595425     430.2684  0.037233333  0.037499054            4 
  964000    1.0928407   -6.1551454    430.30311   0.03719771  0.037490305           11 
  965000    1.0869053   -6.1546554    429.42041  0.037082937  0.037481491            6 
  966000    1.1219472    -6.163869     430.9105  0.037173094  0.037472571            3 
  967000    1.0988284   -6.1561653    432.26602  0.037251467   0.03746358            3 
  968000    1.0817012   -6.1811757     433.0493  0.037280415  0.037455124            4 
  969000    1.1162394   -6.1484153    433.73485  0.037300899  0.037446706            5 
  970000    1.0915515   -6.1678569    433.04973  0.037203585  0.037438046            6 
  971000    1.1199459   -6.1575763    432.08478  0.037082456  0.037429432            3 
  972000    1.1093132   -6.1642981    434.55291  0.037255908  0.037420878            7 
  973000    1.1099548   -6.1619031    434.80351  0.037239081  0.037412343            5 
  974000    1.0833793   -6.1938328    435.50429  0.037260805  0.037403899            3 
  975000     1.122455   -6.1818342    434.73239  0.037156615  0.037395627            5 
  976000    1.1049396   -6.1657478     436.3317  0.037255097  0.037387199            6 
  977000    1.0884357   -6.1403145    436.21671  0.037207157  0.037378885            4 
  978000    1.0792708   -6.1888411    436.28287  0.037174751  0.037370548            3 
  979000    1.0885925   -6.1804067    436.25035   0.03713401  0.037362228            3 
  980000    1.0934903   -6.1629543     436.3565  0.037105145  0.037353945            6 
  981000    1.0820568   -6.1812175    437.41421  0.037157171  0.037345496            3 
  982000    1.1309797   -6.1519847    437.77033  0.037149553   0.03733689            4 
  983000    1.1282695   -6.1743167    437.61951  0.037098975  0.037328614            4 
  984000    1.0957379    -6.155691    438.83053  0.037163832  0.037320622            4 
  985000    1.0949717   -6.1559402    440.41329  0.037260008  0.037312862            2 
  986000    1.1056704   -6.2221018    437.91841   0.03701136  0.037304829            4 
  987000    1.1049175   -6.1725436    441.09958   0.03724245   0.03729694            4 
  988000    1.0791047   -6.1760926    442.11437  0.037290349  0.037289403            3 
  989000    1.0909819   -6.1679124    441.15277  0.037171619  0.037281593            3 
  990000    1.1079235   -6.1810417    441.77893  0.037186779  0.037273764            3 
  991000    1.1045698   -6.1290355    441.83904  0.037154309   0.03726595            4 
  992000    1.0716739   -6.1746358    441.02398  0.037048386   0.03725797            4 
  993000    1.0964832   -6.1826214    442.61244  0.037144381  0.037249657            4 
  994000    1.0738035   -6.2152483    441.48113  0.037012167  0.037241181            5 
  995000    1.0944579    -6.172553    441.57794  0.036983077  0.037232883            7 
  996000    1.0854716   -6.2007811    443.24051   0.03708505  0.037224881            5 
  997000    1.0859617   -6.1926876    443.55163  0.037073858  0.037216903            4 
  998000    1.1075731   -6.1872175    445.11888  0.037167575  0.037209214            4 
  999000    1.0846744   -6.1812249    445.61066  0.037171393  0.037201605            7 
 1000000    1.1101039   -6.1834405    445.62097  0.037135081  0.037193884            3 
 1001000    1.0984952   -6.1827645    443.52578  0.036923558  0.037185951            8 
 1002000    1.0757153   -6.1711101    445.74684  0.037071427   0.03717798            5 
 1003000    1.1004465   -6.1717604    447.72849   0.03719911  0.037170148            2 
 1004000    1.0936138   -6.1628176    447.50296   0.03714334  0.037162433            4 
 1005000    1.0964414    -6.188182    446.86137  0.037053182  0.037154861            4 
 1006000     1.070211   -6.2088627    448.09909  0.037118878  0.037147249            3 
 1007000    1.0747571   -6.1769256    447.14203  0.037002816  0.037139647            2 
 1008000    1.0778715   -6.1613408    448.59695  0.037086388  0.037132061            4 
 1009000    1.0920064   -6.1939228    446.84682  0.036905089  0.037124359            6 
 1010000    1.0707239   -6.1614774    448.69623  0.037021141  0.037116565            7 
 1011000    1.0754694   -6.2112407    449.56889  0.037056453  0.037109273            5 
 1012000    1.0984013   -6.1660044    450.51554  0.037097788  0.037101833            5 
 1013000    1.0886407   -6.1847996     450.7855  0.037083374  0.037094546            4 
 1014000    1.0795759   -6.1940483    451.04993  0.037068535  0.037087365            5 
 1015000    1.0742527    -6.169165     452.6729  0.037165263  0.037080335            4 
 1016000    1.0841572   -6.1765108    452.42553  0.037108393  0.037073603            9 
 1017000     1.105391   -6.1546051     452.8078  0.037103228  0.037066818            5 
 1018000    1.1050627   -6.2158812    452.84353  0.037069706  0.037060069            1 
 1019000    1.0853002   -6.2008712    454.05434  0.037132347   0.03705313            5 
 1020000    1.0719887   -6.1641512    453.90022  0.037083352  0.037046331            4 
 1021000    1.0548581    -6.177283    453.58062  0.037020945  0.037039498            4 
 1022000    1.0881232   -6.1716536    454.59875  0.037067739  0.037032808            3 
 1023000    1.0655979   -6.2188644    454.25715  0.037003678  0.037026143            7 
 1024000    1.0795691   -6.2079356    456.19858  0.037125535  0.037019665            4 
 1025000    1.0859368   -6.2079578    454.80613  0.036976108  0.037013171            3 
 1026000    1.1007383   -6.1686692    456.99866   0.03711815  0.037006944            3 
 1027000    1.1020635   -6.1688882    456.61339  0.037050746  0.037000664            2 
 1028000    1.0821097   -6.2064604    458.76851  0.037189406  0.036994068            6 
 1029000    1.0985181   -6.1823716    459.97693  0.037251128  0.036987639            9 
 1030000    1.0754965   -6.1839349    457.81331  0.037039912  0.036981047            5 
 1031000    1.0784046   -6.2003841    459.76165  0.037161465  0.036974492            4 
 1032000    1.0904368   -6.1669406    458.51998  0.037025192  0.036968182            6 
 1033000    1.0976852   -6.1887594    459.57331  0.037074323  0.036961832            6 
 1034000    1.0743991    -6.173054    459.73007  0.037051102  0.036955549            4 
 1035000    1.0740748   -6.1966107    459.36257  0.036985714  0.036949025            8 
 1036000    1.0844719   -6.1907401    460.04424  0.037004845  0.036942223            3 
 1037000    1.1003467   -6.1743984    461.74995  0.037106232  0.036935563            5 
 1038000     1.078833   -6.2245824    461.41045  0.037043228  0.036928823            3 
 1039000    1.0864667   -6.1927434    461.89897  0.037046757  0.036922002            6 
 1040000    1.0945649   -6.1696336    462.94227  0.037094733  0.036915546            2 
 1041000     1.069176   -6.1960319    461.76323  0.036964716  0.036908989            7 
 1042000    1.0938628   -6.1840346    462.38751  0.036979167  0.036902412            3 
 1043000    1.0891535     -6.18226    463.25683   0.03701317  0.036895806            5 
 1044000    1.0730858   -6.1704623     462.7489  0.036937173  0.036889172            5 
 1045000    1.0605906    -6.154578    463.23608  0.036940676  0.036882552            6 
 1046000    1.0992778   -6.2052467    462.54843  0.036850576  0.036875801            4 
 1047000    1.0924681   -6.1378855    463.89007  0.036922164  0.036868876            7 
 1048000    1.0645285   -6.1940564    465.00226   0.03697537  0.036861995            3 
 1049000    1.0835784   -6.2054735    464.09737  0.036868238   0.03685527            4 
 1050000    1.1020972   -6.2136975    464.50607  0.036865561  0.036848433            3 
 1051000    1.0903074   -6.1892292    464.83264  0.036856378  0.036841634            6 
 1052000    1.0873607   -6.1871042    465.49382  0.036873718  0.036834853            3 
 1053000    1.0818723   -6.1916404    466.93124  0.036952456  0.036828251            4 
 1054000    1.0972006     -6.18377    467.30943  0.036947298  0.036821493            8 
 1055000    1.1002013   -6.1779727    467.24886  0.036907493  0.036814915            9 
 1056000    1.0859504   -6.1940528    468.34154  0.036958771  0.036808313           14 
 1057000    1.0806022   -6.1902153     467.4625  0.036854502  0.036801721            5 
 1058000    1.0933116   -6.1867104    467.06866  0.036788647  0.036794999            3 
 1059000    1.0836282   -6.2254137    467.47378  0.036785787  0.036788207            6 
 1060000    1.0779768   -6.2021727    468.77266  0.036853197  0.036781575            3 
 1061000    1.0946552   -6.2050107    470.48643  0.036953066  0.036775015            2 
 1062000    1.0963047   -6.1655558    470.11306  0.036888972  0.036768471            6 
 1063000    1.0805689   -6.2022098    470.85315  0.036912288  0.036762036            4 
 1064000    1.1051769   -6.1922936    471.83488  0.036954486  0.036755598            6 
 1065000     1.092078   -6.1863785    472.15699  0.036944991  0.036749055            4 
 1066000    1.0957813   -6.2235955    471.22177  0.036837224  0.036742411            3 
 1067000    1.0499181   -6.1801979    470.00515  0.036707681  0.036735796            9 
 1068000    1.0976252   -6.1991222    470.18086  0.036687021   0.03672897            3 
 1069000     1.093663    -6.233952     471.2155  0.036733356   0.03672198            4 
 1070000    1.0909634   -6.1848363    472.05747  0.036764601  0.036715041            3 
 1071000    1.0688731   -6.2065695    472.25709  0.036745806  0.036708169            3 
 1072000    1.0905613   -6.1848929    472.32367  0.036716703  0.036701248            5 
 1073000    1.0763916   -6.2027258     473.8893  0.036804077  0.036694246            3 
 1074000    1.0590399   -6.1804234    474.23283  0.036796464  0.036687465            4 
 1075000    1.0775197   -6.1939634    475.01762  0.036823071  0.036680873            7 
 1076000    1.1025819   -6.2031588    474.43408  0.036743656  0.036674245            7 
 1077000    1.0756975    -6.201662     474.6778  0.036728397    0.0366676            4 
 1078000    1.0801792   -6.2041441    476.12765  0.036806405  0.036660975            4 
 1079000     1.087787   -6.2334424    476.65484  0.036813009  0.036654426           10 
 1080000    1.0730514   -6.1734135    477.42369  0.036838247  0.036648129            5 
 1081000    1.0931436   -6.1929518    476.65234  0.036744707  0.036641998            3 
 1082000     1.072017    -6.178204    477.50714  0.036776582  0.036635864            3 
 1083000    1.0981239   -6.1943069    478.83412   0.03684473  0.036629827            7 
 1084000    1.0721882   -6.2007787    477.97472  0.036744674  0.036623474            5 
 1085000    1.0465815   -6.1948549    478.73459   0.03676917  0.036617144            4 
 1086000     1.095727   -6.1763414    477.72949  0.036658187  0.036610725            3 
 1087000    1.0663147   -6.1825173    479.76717  0.036780678  0.036604139            7 
 1088000    1.0760724   -6.2051799    478.42432   0.03664402  0.036597498            8 
 1089000    1.0437535   -6.2094321    478.46936  0.036613817  0.036590528            3 
 1090000    1.0662889   -6.2008498    478.78256  0.036604171  0.036583471            3 
 1091000    1.0769682   -6.2233293    478.70068  0.036564366  0.036576413            9 
 1092000     1.079466   -6.1961514    479.04905  0.036557467  0.036569117            4 
 1093000    1.0862687   -6.1777944    479.88244   0.03658756  0.036561994            6 
 1094000    1.0951872   -6.1901666      478.879  0.036477681   0.03655478            3 
 1095000    1.0767768    -6.171568    479.43254  0.036486495  0.036547393            4 
 1096000    1.0758303   -6.2176199    479.75461  0.036477693  0.036539827            4 
 1097000    1.0846054   -6.2512221    478.28569  0.036332854  0.036532073            4 
 1098000    1.0769782    -6.234136    479.20354  0.036369425  0.036524594            9 
 1099000    1.0702707   -6.2065919    480.47549  0.036432779  0.036516869            2 
 1100000    1.0705438   -6.2504753    480.59212  0.036408494   0.03650922            3 
 1101000    1.0680441   -6.1856353    481.97938  0.036480425  0.036501675            3 
 1102000    1.0851348   -6.2418467    480.94652  0.036369217  0.036494087            4 
 1103000    1.0607064   -6.2002963    481.92472  0.036410148   0.03648663           13 
 1104000    1.0704172   -6.2326879    480.97133  0.036305203  0.036479134            7 
 1105000    1.0761946   -6.1940234    482.96303  0.036422552   0.03647148            3 
 1106000    1.0699779   -6.2037679    483.03614  0.036395128  0.036463795            7 
 1107000    1.0715125   -6.1558858     482.1558   0.03629598  0.036456113            2 
 1108000    1.0741206    -6.182799    484.35122  0.036428341  0.036448505            3 
 1109000     1.071672   -6.2014196    483.46273   0.03632873  0.036440725            4 
 1110000      1.06965   -6.2013446    483.63317  0.036308797   0.03643283            4 
 1111000    1.0797197   -6.2227827    482.73884  0.036209034  0.036424836            6 
 1112000    1.0797252   -6.2070629    482.31668  0.036144835  0.036416702            3 
 1113000    1.0638181    -6.228195    482.93002  0.036158282  0.036408568            3 
 1114000    1.0783722   -6.1939426    483.86535  0.036195792  0.036400132            6 
 1115000    1.0813002   -6.2398548    482.69434   0.03607581  0.036391778            7 
 1116000     1.056099   -6.1763272    485.32168  0.036239671  0.036383587            6 
 1117000    1.0800476   -6.2321829    485.50167  0.036220656  0.036375623            5 
 1118000    1.0563352   -6.2084271    487.30273  0.036322505  0.036367323            3 
 1119000    1.0882697   -6.1931678    485.22638  0.036135417  0.036358976            3 
 1120000    1.0752883    -6.233135    484.22649  0.036028757  0.036350597            6 
 1121000     1.068282   -6.2132372    485.22025  0.036070491  0.036341964            4 
 1122000    1.0769973   -6.2095777    486.82424  0.036157474  0.036333372            7 
 1123000    1.0434335   -6.2000605    486.52568  0.036103123  0.036324703            4 
 1124000    1.0917658   -6.2225989    485.94144  0.036027687  0.036316034            7 
 1125000    1.0530041   -6.2252093    485.74836   0.03598136  0.036307329            3 
 1126000    1.0679286    -6.191153    486.50295  0.036005251  0.036298422            3 
 1127000    1.0611983   -6.1981786     486.1585  0.035947834  0.036289727            7 
 1128000    1.0779949   -6.2070359    486.80328    0.0359636  0.036280785            8 
 1129000    1.0744579   -6.1957762    488.00498  0.036020444  0.036271899            5 
 1130000    1.0400463   -6.1976653    488.31003  0.036011064  0.036263076            6 
 1131000    1.0888519   -6.1950534    488.18179  0.035969775   0.03625424            5 
 1132000    1.0734006    -6.225187    488.41261  0.035954992  0.036245411            4 
 1133000    1.0995459   -6.2226641    488.53328  0.035932133  0.036236515            7 
 1134000    1.0886098   -6.1880441    489.05435  0.035938738  0.036227794            5 
 1135000    1.0844086   -6.2102514    490.44051  0.036008848  0.036219099            4 
 1136000    1.0638753   -6.2081266    490.62812  0.035990912  0.036210458            3 
 1137000     1.053548   -6.2386144    489.15207  0.035851075  0.036201615            7 
 1138000    1.0683341    -6.234565    489.01452  0.035809499   0.03619277            4 
 1139000    1.0717776   -6.2022121    491.43846  0.035955404  0.036183938            6 
 1140000    1.0937547   -6.2318056    490.28692  0.035839687  0.036175179            5 
 1141000     1.057531   -6.2253511    491.98085  0.035931993  0.036166384           10 
 1142000     1.076918   -6.2063315    491.10939  0.035836937  0.036157664            4 
 1143000    1.0524023   -6.2132897    491.36997  0.035824582  0.036148864            3 
 1144000    1.0791111   -6.2101674    491.29996  0.035788167  0.036139858            5 
 1145000    1.0784074   -6.2170013    493.79006  0.035938141  0.036131044            4 
 1146000     1.085364   -6.1868124    491.01333  0.035704867  0.036121907            4 
 1147000    1.0582281   -6.2172053    492.99449  0.035817676   0.03611294            5 
 1148000    1.0651803    -6.238593    493.49949  0.035823134  0.036103962            5 
 1149000    1.0632461   -6.2231182    493.45273  0.035788565  0.036095071            4 
 1150000    1.0512873   -6.2104134     494.5192  0.035834725  0.036086202            6 
 1151000    1.0774214   -6.1999565    493.59052  0.035736354  0.036077367            2 
 1152000    1.0844719   -6.2124205    494.38904  0.035763096  0.036068771            6 
 1153000    1.0569145   -6.2218186      495.883  0.035840055   0.03606004            4 
 1154000     1.056355   -6.2207937    495.65494  0.035792529    0.0360515            6 
 1155000    1.0698535   -6.2036422    495.01449  0.035715331  0.036042987            8 
 1156000    1.0711599   -6.1961509    497.74668  0.035881393  0.036034365            6 
 1157000     1.061304   -6.2126298    497.11894  0.035805167  0.036025906            3 
 1158000    1.0626608   -6.2169354    498.38366  0.035865261  0.036017357            4 
 1159000    1.0639037   -6.2244646    496.48182  0.035697571  0.036008669            5 
 1160000    1.0533671   -6.2237408    499.09067  0.035854215  0.036000199            6 
 1161000    1.0561161   -6.1922854    498.68848  0.035794465  0.035991568            6 
 1162000    1.0734449   -6.2336848    498.66004  0.035761621  0.035982891            3 
 1163000    1.0452089   -6.1916433    499.21994   0.03577099   0.03597422            4 
 1164000     1.052634   -6.2694136    499.43374  0.035755566  0.035965577           10 
 1165000    1.0895831   -6.2322737     499.6343   0.03573922  0.035956943            4 
 1166000    1.0740694   -6.2099014    500.82732  0.035793834  0.035948429            4 
 1167000    1.0603884   -6.2098417    500.40887  0.035733281   0.03594014            4 
 1168000    1.0679049   -6.1963773    501.82889  0.035804002  0.035931835            5 
 1169000     1.053319   -6.2451879    502.29987  0.035806948  0.035923435            8 
 1170000    1.0691267   -6.2300409    501.14624  0.035694177  0.035915167            5 
 1171000    1.0554699   -6.1928705     502.6936  0.035773812  0.035907123            5 
 1172000    1.0540734    -6.236397    502.11952  0.035702469  0.035899094            5 
 1173000    1.0634081   -6.2148285    503.02527  0.035736379  0.035891037            5 
 1174000     1.044225   -6.1944609    504.01983  0.035776535  0.035882945            6 
 1175000    1.0616078   -6.2468641    503.09868  0.035680758  0.035874779            5 
 1176000    1.0475249   -6.2327582     503.7322  0.035695309  0.035866634            4 
 1177000    1.0795589   -6.1832456     505.4841  0.035789019  0.035858394            6 
 1178000    1.0599137    -6.236473    505.64185  0.035769797  0.035850191            5 
 1179000    1.0740071   -6.1921064    504.67874  0.035671384  0.035841956            2 
 1180000    1.0702666   -6.2114743    506.57272  0.035774909  0.035834068            3 
 1181000     1.065795   -6.2359174    506.83229  0.035762933  0.035826352            5 
 1182000    1.0736372   -6.2341773    506.03042  0.035676144  0.035818407            4 
 1183000    1.0735841   -6.2206474    506.65412  0.035689921  0.035810484           14 
 1184000    1.0664967   -6.2491104    506.31737  0.035636076    0.0358025            8 
 1185000    1.0518701    -6.235186    508.24129    0.0357413  0.035794476            4 
 1186000    1.0436318   -6.2676116    506.60656  0.035596301  0.035786489            6 
 1187000    1.0951158   -6.2244165    508.90107  0.035727399  0.035778442            4 
 1188000    1.0523827   -6.2427787    508.12903   0.03564317   0.03577074            7 
 1189000    1.0705212   -6.2538286    508.70751  0.035653736  0.035762745            5 
 1190000    1.0589607   -6.2200009    508.59149  0.035615651  0.035754919            7 
 1191000    1.0561043   -6.2219427    511.07245  0.035759337   0.03574709            2 
 1192000    1.0471434   -6.2309477    509.51672  0.035620576  0.035739327            4 
 1193000    1.1000643   -6.2264299    510.80828  0.035680936  0.035731448            3 
 1194000    1.0600484    -6.261212    510.42043  0.035623983  0.035723723            3 
 1195000    1.0856293   -6.2493796    510.96496  0.035632145  0.035715967            8 
 1196000    1.0568381    -6.240269    512.01324  0.035675393  0.035708323            7 
 1197000    1.0732495   -6.2340074    512.38224  0.035671278  0.035700786            4 
 1198000    1.0723425   -6.2720175    511.61673  0.035588253  0.035693162            6 
 1199000    1.0708245   -6.2095753    512.34038  0.035608867   0.03568536            3 
 1200000    1.0331567   -6.2226865    512.41503  0.035584377  0.035677534            5 
 1201000    1.0526134   -6.2339643    513.82399  0.035652511  0.035669907            3 
 1202000    1.0471854   -6.2486263    512.34364  0.035520219  0.035662124            7 
 1203000    1.0425601   -6.2817251     513.8541  0.035595324   0.03565446            3 
 1204000    1.0834324   -6.2513568    513.50924  0.035541891  0.035646663            4 
 1205000    1.0582626   -6.2434531    513.76105   0.03552981  0.035638651           10 
 1206000    1.0498073   -6.2257825    513.93287  0.035512222  0.035630762           11 
 1207000    1.0692088   -6.2667002     512.7962  0.035404322  0.035622555            4 
 1208000    1.0539467   -6.2284781    513.75551  0.035441192  0.035614305            5 
 1209000    1.0394441   -6.2153474    514.13853  0.035438278  0.035606271            7 
 1210000    1.0525158    -6.242258    514.95981  0.035465552  0.035598279            5 
 1211000    1.0625132   -6.2417872    515.10148  0.035446014  0.035590123           16 
 1212000    1.0484078   -6.2558339    515.04383  0.035412804  0.035581875            5 
 1213000    1.0423704   -6.2351961    516.43908  0.035479464  0.035573662            3 
 1214000    1.0399189   -6.2483879    515.95869  0.035417263  0.035565406            5 
 1215000    1.0887345   -6.2238145    517.19102  0.035472635  0.035557425            6 
 1216000    1.0589019   -6.2365877    516.97027  0.035428336  0.035549538            4 
 1217000     1.055892   -6.2421974    517.55215  0.035439068  0.035541572            7 
 1218000    1.0367218   -6.1967082    517.70914  0.035420713  0.035533592            5 
 1219000    1.0544317   -6.2438119    517.93755  0.035407271  0.035525486            7 
 1220000    1.0418351   -6.2187982    519.20107  0.035464554  0.035517348            3 
 1221000    1.0686069    -6.247756    518.73768  0.035403882  0.035509374            5 
 1222000    1.0642951   -6.2136308    519.61141  0.035434493  0.035501378            2 
 1223000    1.0340158   -6.2649365    517.22441  0.035242874  0.035493385            5 
 1224000    1.0652446   -6.2448115     519.2139  0.035349531  0.035485435            3 
 1225000    1.0635904   -6.2336641    521.09029  0.035448319  0.035477527            7 
 1226000     1.054426    -6.232126    522.66865  0.035526689  0.035469789            6 
 1227000    1.0479121   -6.2330878    520.81895   0.03537211  0.035461935            3 
 1228000    1.0477257   -6.2014728    521.01209  0.035356412  0.035454139            2 
 1229000    1.0514184   -6.2305402    521.74869  0.035377589  0.035446334           12 
 1230000    1.0730662   -6.2356193    522.30011  0.035386186  0.035438386           10 
 1231000    1.0547026   -6.2103014    521.77249  0.035321723  0.035430441           16 
 1232000    1.0459528   -6.2267208    521.59062  0.035280751  0.035422441            6 
 1233000    1.0618146   -6.2360106    520.95897  0.035209447  0.035414292            6 
 1234000      1.02579   -6.2235383    522.79831  0.035305127  0.035406299            4 
 1235000    1.0475193   -6.2423272    520.89003  0.035147775  0.035398129            4 
 1236000    1.0522195   -6.2530173    523.18724  0.035274221  0.035389941            7 
 1237000    1.0558895   -6.2447487    522.29842  0.035185827  0.035381556            5 
 1238000    1.0505892   -6.2479722    522.46585  0.035168676  0.035373194            5 
 1239000    1.0832068   -6.2492219    523.45841  0.035207049  0.035364897            3 
 1240000    1.0809911   -6.2577639    523.59307  0.035187706  0.035356574            2 
 1241000    1.0537205   -6.2446862    524.72124  0.035235109  0.035348347            7 
 1242000    1.0586562   -6.2513887    524.01765  0.035159531  0.035340042            3 
 1243000    1.0443422   -6.2572108    526.14475   0.03527385  0.035331845            4 
 1244000    1.0759693   -6.2355954    524.95828  0.035166016  0.035323658            4 
 1245000    1.0530424   -6.2235487    525.47849   0.03517259  0.035315362            8 
 1246000    1.0543372   -6.2435299    525.93588  0.035174952  0.035307075            3 
 1247000    1.0554938     -6.26408    527.68343  0.035263528  0.035299026            3 
 1248000    1.0601413   -6.2870882    526.56984  0.035160914  0.035290975           10 
 1249000     1.049998   -6.2680809    524.48179  0.034993448  0.035282875            4 
 1250000    1.0635334   -6.2562095    529.17009  0.035278006  0.035274676            5 
 1251000    1.0382752    -6.243675    527.34499   0.03512823  0.035266681            4 
 1252000    1.0238708    -6.274276    526.41358  0.035038177  0.035258661            7 
 1253000    1.0526374   -6.2637932    527.49746    0.0350823  0.035250535            5 
 1254000    1.0510049    -6.246003    527.47464  0.035052807  0.035242591            4 
 1255000    1.0505048   -6.2300752    529.77526   0.03517764  0.035234728            8 
 1256000    1.0481917   -6.2610225    529.66581  0.035142371  0.035226735            7 
 1257000    1.0388558   -6.2458922    528.11104  0.035011339  0.035218684           14 
 1258000    1.0403404   -6.2740029    531.16836  0.035186034  0.035210648            7 
 1259000    1.0605378   -6.2836244    530.22965  0.035095953  0.035202809           10 
 1260000    1.0576425   -6.2388714    531.23635  0.035134679  0.035195094           10 
 1261000    1.0392534   -6.2723891    532.14567   0.03516691  0.035187278            2 
 1262000    1.0511849   -6.2538465    531.69827    0.0351095  0.035179395            5 
 1263000    1.0650633   -6.2355908    534.71771  0.035280926  0.035171814            7 
 1264000    1.0692429   -6.2291705    532.58187  0.035112201  0.035164039            8 
 1265000     1.069999   -6.2271193    532.57968    0.0350843  0.035156193            3 
 1266000    1.0523804   -6.2207255    534.39556  0.035176116  0.035148519            6 
 1267000    1.0637645   -6.2470362    534.43712  0.035151087   0.03514102            6 
 1268000    1.0248688   -6.2752582    535.78848  0.035212177  0.035133581           13 
 1269000    1.0340473   -6.2571538    534.80878  0.035120093  0.035126372            3 
 1270000    1.0108528   -6.2481126    537.45242  0.035265907  0.035119135            4 
 1271000    1.0347328   -6.2711964    537.64777  0.035250968  0.035111934            3 
 1272000    1.0677305   -6.2534053    536.22005   0.03512972  0.035104886            6 
 1273000    1.0421259     -6.30034    536.43454  0.035116165  0.035097741            3 
 1274000    1.0559873   -6.2725476     538.6349  0.035232529  0.035090738           11 
 1275000     1.051513   -6.2636226    537.09201  0.035104053  0.035083576            5 
 1276000    1.0296838   -6.2230217    536.89664  0.035063783  0.035076401            3 
 1277000      1.05717   -6.2720332    538.81722  0.035161656  0.035069388            6 
 1278000    1.0415373   -6.2354549    538.20722  0.035094367  0.035062387            8 
 1279000    1.0143101   -6.2485113    540.83946  0.035238432  0.035055493            9 
 1280000    1.0334488   -6.2613704    541.13057  0.035229854  0.035048579            2 
 1281000    1.0575112   -6.2230075     539.8058  0.035116172  0.035041734            3 
 1282000    1.0421747   -6.2951112    539.68275  0.035080782  0.035034878            5 
 1283000    1.0355901   -6.2457689    541.93266  0.035199575  0.035028049            6 
 1284000    1.0520909   -6.2697498    540.10745  0.035053702  0.035021353            6 
 1285000    1.0471588   -6.2749859    542.13633  0.035157998  0.035014456            5 
 1286000    1.0609998   -6.2684493    542.61397   0.03516161  0.035007813            5 
 1287000    1.0385052   -6.2401259    541.84757  0.035084665  0.035001124            4 
 1288000    1.0583965   -6.2647551    543.10509  0.035138787  0.034994229            7 
 1289000     1.053761   -6.2216674    543.53231  0.035139146   0.03498752           10 
 1290000    1.0395321   -6.2255698     543.4977  0.035109671  0.034980878            3 
 1291000    1.0369388   -6.2192477    543.98449  0.035113897  0.034973999            4 
 1292000    1.0346139   -6.2473668    543.70221  0.035068512  0.034967171            3 
 1293000    1.0582597   -6.2462365    544.55251  0.035096192   0.03496018            4 
 1294000    1.0459089   -6.2908401    543.71115  0.035014886  0.034953345            5 
 1295000    1.0403875   -6.2672467     544.6994  0.035051441  0.034946445            4 
 1296000    1.0397666   -6.2597592    543.75311  0.034963549  0.034939633            3 
 1297000    1.0361679   -6.2986336    545.68831   0.03506093  0.034932816            6 
 1298000    1.0408209   -6.2839051    546.21933   0.03506801  0.034925997            5 
 1299000    1.0410252   -6.2960306    547.22495  0.035105527  0.034919178           10 
 1300000    1.0403215   -6.2897825    545.66175  0.034978318  0.034912452            9 
 1301000    1.0555794   -6.2696104    547.08432  0.035042552  0.034905753            5 
 1302000    1.0345869   -6.2485067    547.97754  0.035072807  0.034899007            5 
 1303000    1.0399668   -6.2744415    546.17789  0.034930794  0.034892319            7 
 1304000    1.0057167   -6.2537023    549.57527  0.035121119  0.034885635            4 
 1305000    1.0449285   -6.2259557    550.98072  0.035183954  0.034879074            7 
 1306000    1.0310756   -6.2899819    549.54754  0.035065565  0.034872385            4 
 1307000    1.0406809   -6.2699345    548.93113  0.034999435  0.034865639            5 
 1308000    1.0488509   -6.2407282    549.68764  0.035020874  0.034858982            4 
 1309000     1.048061   -6.2682204    552.89072  0.035198034  0.034852591            6 
 1310000    1.0400774   -6.2576675    550.81209  0.035038937  0.034846272            5 
 1311000    1.0280091   -6.2570877    552.16541  0.035098233   0.03483995            6 
 1312000    1.0467333   -6.2594162    552.64438  0.035101904  0.034833889            4 
 1313000    1.0627847   -6.2397828     551.9165  0.035028973  0.034827714            9 
 1314000    1.0519177   -6.2588411    553.67488   0.03511383  0.034821556            5 
 1315000    1.0420771   -6.2955766    553.13899  0.035053168  0.034815341           10 
 1316000    1.0481785   -6.2737341    554.47581  0.035111183  0.034809299            3 
 1317000    1.0220041   -6.2595842    554.28548  0.035072481  0.034803026            5 
 1318000    1.0214744    -6.267611    554.57833  0.035064386  0.034796957            4 
 1319000    1.0328779   -6.2879365    554.61137   0.03503989  0.034790831            4 
 1320000    1.0124831    -6.244989    555.19066  0.035049915  0.034784573            6 
 1321000    1.0459674   -6.2719652    556.94477  0.035134038  0.034778458            7 
 1322000    1.0488655   -6.2377576    556.10376  0.035054448  0.034772106            4 
 1323000    1.0404528   -6.2455178    555.78409  0.035007816   0.03476587            6 
 1324000    1.0400575   -6.2685554      555.284  0.034949899   0.03475962            5 
 1325000    1.0386824   -6.2714458    556.35559  0.034990918  0.034753517            4 
 1326000    1.0449412   -6.2768609    556.14241  0.034951132  0.034747195            7 
 1327000    1.0313038   -6.2788607    555.49143  0.034883913  0.034740806            4 
 1328000    1.0277699   -6.2525535    556.95657  0.034949584  0.034734468            6 
 1329000    1.0187386   -6.2858519    556.00443  0.034863584  0.034728123            7 
 1330000    1.0386677   -6.2514158    558.35334  0.034984545  0.034721528            4 
 1331000    1.0321643   -6.2690215    556.89882  0.034867194  0.034715002            3 
 1332000    1.0005682   -6.2552657    556.96709  0.034845288  0.034708397            5 
 1333000    1.0367393   -6.2748373    558.83677  0.034936032  0.034701943            3 
 1334000    1.0502317   -6.2618938    558.99778  0.034919901  0.034695351            7 
 1335000    1.0277659   -6.2700886    559.88868  0.034949356   0.03468883            3 
 1336000    1.0548282    -6.257289    559.55972  0.034902677  0.034682287            4 
 1337000    1.0405689   -6.2709799    558.57033  0.034814905  0.034675703            3 
 1338000    1.0466979   -6.2664403    559.54653  0.034849684  0.034669002            6 
 1339000    1.0192325   -6.3084849    559.74675  0.034836118  0.034662307            4 
 1340000    1.0414863   -6.2431419    561.73961  0.034934056  0.034655719            3 
 1341000     1.020765   -6.2697372     559.2727  0.034754704  0.034649136            8 
 1342000    1.0251494   -6.2769107    559.78133  0.034760391  0.034642508            4 
 1343000    1.0323253   -6.2745032    561.66362  0.034851304  0.034635859            2 
 1344000    1.0313283   -6.2726519    561.19067  0.034796048  0.034629187           11 
 1345000    1.0396681   -6.2784099    561.36728   0.03478112  0.034622495            3 
 1346000    1.0677064   -6.2561904    563.16107  0.034866336  0.034615897            8 
 1347000    1.0575444   -6.2705182    562.22793  0.034782723  0.034609376            7 
 1348000    1.0438588   -6.3092644    560.69325  0.034662046  0.034602862            6 
 1349000      1.04417   -6.2743052     562.7009  0.034760372  0.034596134            4 
 1350000    1.0387075   -6.2756816    562.28795  0.034709133  0.034589503            6 
 1351000    1.0294556   -6.2710821    564.02645  0.034790677  0.034583041            5 
 1352000    1.0462495   -6.2474865    564.80484  0.034812922  0.034576666            3 
 1353000    1.0462671   -6.3050982    563.87098  0.034729674   0.03457014            4 
 1354000    1.0403336   -6.2801188    563.45468  0.034678402  0.034563523            3 
 1355000    1.0433856   -6.2845216    563.10103   0.03463106  0.034556827            5 
 1356000    1.0280381   -6.3056721    565.94764   0.03478046  0.034550296            5 
 1357000    1.0386421   -6.3173024    563.79104  0.034622392  0.034543571            4 
 1358000    1.0557499   -6.2861038    564.48149  0.034639267  0.034536751            5 
 1359000    1.0098827    -6.270252    566.83948  0.034758369  0.034530179            5 
 1360000     1.043181   -6.2911941     566.2974  0.034699595  0.034523617            5 
 1361000    1.0592662   -6.3089965    565.47561  0.034623782  0.034517056            2 
 1362000     1.044114   -6.3192331    566.87357  0.034683895  0.034510617            8 
 1363000    1.0317211   -6.2494189    568.59465  0.034763674   0.03450417            8 
 1364000    1.0205206   -6.2596081    568.64821   0.03474146  0.034497926            4 
 1365000    1.0081043    -6.292704    569.24516  0.034752452  0.034491576            5 
 1366000    1.0218776   -6.2794647    570.21282  0.034786043  0.034485205            4 
 1367000    1.0192123   -6.2763437     567.5909  0.034600762  0.034478746           15 
 1368000   0.99690349   -6.2781365    569.06339  0.034665167  0.034472283            4 
 1369000    1.0186417   -6.3312054    569.85342  0.034687936  0.034465866            6 
 1370000    1.0445485   -6.2846854    570.41706  0.034696902   0.03445946            4 
 1371000    1.0166675   -6.3084476    569.12654  0.034593152  0.034453144            5 
 1372000    1.0473271   -6.2647554    569.12348  0.034567752   0.03444654            4 
 1373000    1.0400825   -6.2599067    570.40976  0.034620646  0.034440027            6 
 1374000    1.0341247   -6.3170577    569.55737  0.034543751  0.034433495           15 
 1375000    1.0605293   -6.2685076    569.16852  0.034495062  0.034426962            6 
 1376000    1.0498865   -6.2625417    572.00952   0.03464205  0.034420569            8 
 1377000    1.0390879   -6.2822932    572.28936  0.034633827  0.034414265            4 
 1378000    1.0450734   -6.2866153     572.2393  0.034605666  0.034407726            5 
 1379000    1.0262901   -6.2486026    573.93279   0.03468291  0.034401263            4 
 1380000     1.041022    -6.299405    571.13384  0.034488759  0.034394902            3 
 1381000    1.0286996   -6.2961052    573.23836  0.034590777  0.034388466            5 
 1382000    1.0316602    -6.285347    574.37589   0.03463434  0.034382016            8 
 1383000    1.0457046   -6.3100918    575.26583  0.034662921  0.034375642            5 
 1384000    1.0422629   -6.3102486    573.94586  0.034558397  0.034369198            2 
 1385000    1.0375333   -6.2942081     574.2302  0.034550554  0.034362684            9 
 1386000    1.0231951   -6.2830765    574.02112  0.034513055   0.03435604           15 
 1387000     1.034015    -6.324475    573.86295  0.034478668  0.034349399            4 
 1388000    1.0347974   -6.2923968    576.22302  0.034595522  0.034342721            3 
 1389000    1.0489266   -6.2295423    575.64131  0.034535716  0.034336104            3 
 1390000    1.0505159   -6.2870481     576.5942  0.034567998  0.034329482            3 
 1391000    1.0261928   -6.2950213    573.76415  0.034373601  0.034322788            4 
 1392000    1.0354607   -6.3120834    575.22102  0.034436124  0.034316057            6 
 1393000    1.0351159      -6.3136    577.21959  0.034530964  0.034309196            3 
 1394000    1.0413862   -6.2995943    577.51659  0.034523947   0.03430255            6 
 1395000    1.0250111    -6.274975    576.82174   0.03445769  0.034296035            8 
 1396000     1.018776   -6.3135223    577.61188  0.034480174  0.034289313            3 
 1397000    1.0404208   -6.3040189    577.29222  0.034436425  0.034282656            5 
 1398000      1.04024   -6.3212105    578.41111  0.034478487  0.034276181            6 
 1399000    1.0151519   -6.3150357    578.16784  0.034439352  0.034269674            5 
 1400000    1.0179003   -6.3193887    579.02792  0.034465948   0.03426316            6 
 1401000    1.0271826    -6.275531     580.0019   0.03449928  0.034256683           12 
 1402000    1.0141699   -6.2984289    579.52066  0.034446069  0.034250204            4 
 1403000    1.0327748   -6.3143187    580.48404  0.034478739  0.034243713            5 
 1404000     1.016762   -6.2943343    581.07298  0.034489137  0.034237276            5 
 1405000    1.0299747   -6.3009041    579.22938  0.034355242  0.034230696            6 
 1406000    1.0308612   -6.3050849    581.14452  0.034444317  0.034224211            3 
 1407000    1.0241169    -6.322946    579.41933  0.034317658  0.034217664            3 
 1408000   0.98256831   -6.2539159    583.48344  0.034533821  0.034211292            4 
 1409000    1.0203709   -6.2813476    582.28039  0.034438159  0.034204963            9 
 1410000    1.0296038   -6.2775692    582.95802  0.034453783  0.034198609            9 
 1411000    1.0432257   -6.2955975    581.84808  0.034363813  0.034192165            2 
 1412000    1.0274415   -6.3099616    582.86703  0.034399612  0.034185521            5 
 1413000    1.0256663   -6.2995352    583.22283  0.034396251  0.034178975            6 
 1414000    1.0216889   -6.3263945    582.40098   0.03432349  0.034172261            4 
 1415000    1.0212567   -6.2764256    582.57716  0.034309609    0.0341658            6 
 1416000    1.0618611   -6.2792884    584.97933  0.034426749  0.034159485            4 
 1417000    1.0234935   -6.2931715    584.23894  0.034358912  0.034153031            8 
 1418000    1.0191193   -6.2659809    584.73067  0.034363579  0.034146587            5 
 1419000    1.0126713   -6.2741866    583.76598   0.03428271  0.034140006            4 
 1420000    1.0229609   -6.3081477      583.967  0.034270364  0.034133466            5 
 1421000    1.0138946    -6.306016    583.60687  0.034225128  0.034126798            4 
 1422000    1.0376611   -6.3022809    585.14961  0.034291468  0.034120128            5 
 1423000    1.0186638   -6.3037348    585.82045  0.034306655  0.034113351            5 
 1424000    1.0058723   -6.3231164    583.41373  0.034141721  0.034106624            5 
 1425000    1.0341693    -6.260423    586.44947  0.034295291  0.034099836            8 
 1426000    1.0419505   -6.2882891    585.55207  0.034218798  0.034093035            6 
 1427000    1.0336483   -6.3001907    587.07138  0.034283542  0.034086247            7 
 1428000    1.0416517   -6.3131597    586.32927  0.034216227  0.034079568           10 
 1429000    1.0242659   -6.3125534    587.11968  0.034238376  0.034072697            3 
 1430000    1.0197116    -6.312831    586.33286  0.034168582  0.034065865            4 
 1431000    1.0262465   -6.3202266     583.9684  0.034007011  0.034058981            4 
 1432000    1.0508322   -6.2768586    587.91186  0.034212748  0.034052163            4 
 1433000    1.0181836   -6.3111624    585.79474  0.034065756  0.034045325            7 
 1434000    1.0340134     -6.30358    588.13182  0.034177814  0.034038383            2 
 1435000    1.0357424   -6.2967942    590.08091  0.034267184  0.034031656           10 
 1436000    1.0294637    -6.263725    588.38251   0.03414476  0.034024991            4 
 1437000     1.003338    -6.327933    589.53234  0.034187679  0.034018314            5 
 1438000    1.0305024   -6.3110238    589.09314  0.034138453  0.034011511            9 
 1439000    1.0207983    -6.319622    589.73563  0.034151936  0.034004533            5 
 1440000    1.0126414    -6.297748    590.65043  0.034181159  0.033997742            7 
 1441000       1.0216   -6.2998295    589.43765  0.034087303  0.033990931            6 
 1442000    1.0251601   -6.2700596    588.82357  0.034028177  0.033984023            3 
 1443000    1.0132584   -6.2925619    590.43742  0.034097795  0.033977133            3 
 1444000     1.043606    -6.328124    589.56562   0.03402387  0.033970288            5 
 1445000    1.0005114   -6.2970001    591.96773  0.034138854  0.033963584            3 
 1446000    1.0194489   -6.3065469    591.43023  0.034084269  0.033956828            5 
 1447000    1.0300993   -6.2728531    593.28228  0.034167374  0.033950091            4 
 1448000    1.0304764   -6.2967591    590.93521  0.034008702  0.033943321            5 
 1449000    1.0199331   -6.3206262     590.3426   0.03395115  0.033936451            4 
 1450000    1.0291041   -6.2959121    591.42334  0.033989847  0.033929438            2 
 1451000    1.0272337   -6.2987274    592.87112   0.03404957  0.033922535            5 
 1452000     1.023853   -6.3052471    592.36864  0.033997282  0.033915881            4 
 1453000    1.0315676   -6.3289577    591.68435  0.033934638  0.033909002            8 
 1454000    1.0173215   -6.3291227    593.00091  0.033986755  0.033901901            7 
 1455000     1.026293   -6.3005026    594.39054  0.034042986  0.033894918            5 
 1456000    1.0270548   -6.3015611    594.08069  0.034001871  0.033888153            5 
 1457000     1.015776   -6.2872962    595.72878  0.034072797  0.033881468           10 
 1458000   0.99588007   -6.2699952     596.3047  0.034082345  0.033874858           10 
 1459000    0.9974905   -6.3291346    595.23093  0.033997654   0.03386807            7 
 1460000    1.0059115   -6.3065446    595.00634  0.033961549  0.033861371            8 
 1461000    1.0026692   -6.2668351    598.66316  0.034146883  0.033854715            7 
 1462000   0.99436526    -6.292458    596.35841  0.033992158  0.033848026            6 
 1463000   0.99946936   -6.3073139    596.82745  0.033995639  0.033841319            5 
 1464000     0.995384   -6.2938274     597.1755   0.03399223  0.033834693           11 
 1465000    1.0238531   -6.2998942    598.43653  0.034040758   0.03382814           10 
 1466000    1.0132914   -6.3386944    597.05724  0.033939134  0.033821485            9 
 1467000    1.0058894   -6.3456317    598.34699  0.033989263  0.033814728            4 
 1468000    1.0326589   -6.3341249    596.95023   0.03388682  0.033807921           10 
 1469000    1.0070859   -6.2976647    598.21532  0.033935518  0.033801145           10 
 1470000    1.0010378   -6.2988311     599.5014   0.03398534  0.033794484           21 
 1471000    1.0098358   -6.2745278    601.11285  0.034053526   0.03378796            8 
 1472000    1.0317831   -6.3619706    599.45387  0.033936474  0.033781353            7 
 1473000    1.0096607    -6.325635    598.84727  0.033879117   0.03377457            3 
 1474000      1.03604   -6.3135003    600.12264  0.033928236  0.033767802            8 
 1475000    1.0217739    -6.304624    600.46738  0.033924711  0.033761036            7 
 1476000     1.009684   -6.2922234    602.01714  0.033989224  0.033754147            3 
 1477000    1.0151054   -6.3211082    601.26213  0.033923614  0.033747465            6 
 1478000   0.99269081   -6.3016678    600.18291  0.033839812  0.033740716            6 
 1479000    0.9987707   -6.3362709    602.31702  0.033937177  0.033733948            5 
 1480000    1.0101631   -6.3408589    601.67973  0.033878363   0.03372721           33 
 1481000    1.0166136   -6.2992054    602.04688  0.033876147  0.033720677            3 
 1482000    1.0436638   -6.3591787    602.82537  0.033897063  0.033714138            7 
 1483000     1.041565   -6.3099035    600.87933  0.033764853  0.033707479            6 
 1484000    1.0275358   -6.3280696     603.2963  0.033877825  0.033701044            7 
 1485000    1.0028011   -6.3138876    603.37889  0.033859646  0.033694417            6 
 1486000    1.0527784   -6.2978325    603.14687  0.033823849  0.033687745            3 
 1487000    1.0030942   -6.3017756    603.18939  0.033803485   0.03368095           12 
 1488000     1.022481   -6.3151465    603.89756  0.033820428  0.033674235           10 
 1489000    1.0351966   -6.3020198    604.50833  0.033831897  0.033667472            6 
 1490000    1.0149683   -6.3262352    604.97804  0.033835461  0.033660665            5 
 1491000    1.0223667      -6.3305    602.04546  0.033648863  0.033653727            4 
 1492000    1.0124618   -6.3285422    603.86266  0.033727807  0.033646752            8 
 1493000    1.0115837   -6.2974014    603.47738  0.033683712  0.033639603            7 
 1494000    1.0019854   -6.3349154    603.08706  0.033639394  0.033632574            5 
 1495000   0.97916228   -6.3203053    603.54137  0.033642217  0.033625639            4 
 1496000    1.0118451   -6.2968125    605.17075  0.033710492  0.033618527            3 
 1497000    1.0277304   -6.3609478    604.54244  0.033652997   0.03361145            6 
 1498000   0.98763174   -6.3049818     605.5547  0.033686844  0.033604437            5 
 1499000    1.0364479   -6.3401997    605.75543   0.03367553  0.033597581            8 
 1500000   0.99820728   -6.3012681    605.64762   0.03364709  0.033590691            5 
 1501000   0.98941353   -6.3419173    607.34687  0.033719014  0.033583659            5 
 1502000    1.0001635    -6.296645    607.37625  0.033698194  0.033576765            5 
 1503000    1.0148866   -6.3302822     606.3059  0.033616428  0.033569883            4 
 1504000    1.0121393   -6.3298761    608.18548  0.033698221  0.033563005            4 
 1505000   0.99530186   -6.2955816    609.22263  0.033733257  0.033556263            2 
 1506000     1.024184   -6.3078054    608.06871  0.033647007  0.033549423            6 
 1507000    1.0116496   -6.3567503    608.12139  0.033627593  0.033542572            7 
 1508000    1.0051134   -6.3364496    607.97845  0.033597394  0.033535613            6 
 1509000   0.99949485    -6.326907    609.39639  0.033653434  0.033528782            5 
 1510000    1.0089032   -6.3573437    609.92115  0.033660107   0.03352189            8 
 1511000    1.0213625   -6.3244354      608.664  0.033568498   0.03351499            3 
 1512000    0.9949036   -6.3602282    607.80003  0.033498679  0.033508065            3 
 1513000    1.0088055   -6.3268205    610.33434  0.033616124  0.033501044            9 
 1514000    1.0169987   -6.3011523    611.02335  0.033631845  0.033494257            5 
 1515000    1.0013018    -6.342459    610.16115  0.033562219  0.033487382            4 
 1516000    1.0160769   -6.3422521    610.08167  0.033535712  0.033480365            3 
 1517000    1.0232699   -6.3300579    610.44286  0.033533446  0.033473344            4 
 1518000   0.98770063   -6.3610167    608.53182  0.033406446  0.033466174            8 
 1519000    1.0073464   -6.3191658    611.04383  0.033522264  0.033459122            4 
 1520000   0.98967029   -6.3639602    611.94701  0.033549727  0.033451902            9 
 1521000    1.0159648   -6.3438953    610.58178   0.03345287  0.033444634           14 
 1522000    1.0193135   -6.3453843    611.54312  0.033483526  0.033437287            4 
 1523000    1.0119317   -6.3398642     608.6465  0.033303047  0.033429987            8 
 1524000    1.0037514   -6.3343153    612.21762  0.033476466  0.033422714           11 
 1525000    1.0027274   -6.3389668    610.49913  0.033360608  0.033415346            6 
 1526000    1.0038313   -6.3539023    611.34091  0.033384716  0.033408154            6 
 1527000   0.99258408   -6.3513055    610.91074  0.033339377  0.033400722            5 
 1528000   0.99136817   -6.3465196    612.08081  0.033381371  0.033393295            5 
 1529000    1.0025721   -6.3203817    612.89249  0.033403777   0.03338594            8 
 1530000   0.99806048   -6.3001068    613.76894  0.033429681  0.033378531            4 
 1531000    1.0160378   -6.3060833    613.12616  0.033372859  0.033371223            4 
 1532000   0.97988949   -6.3108351    613.61614  0.033377727  0.033363882           11 
 1533000   0.99502222   -6.3322201    613.13494  0.033329797  0.033356616            6 
 1534000     1.030524   -6.3327045    612.03981  0.033248577  0.033349323           11 
 1535000    0.9921331   -6.3197537    613.18699  0.033289196  0.033341985            4 
 1536000    1.0151014   -6.3057651    615.94316  0.033417055  0.033334608            7 
 1537000    1.0040376   -6.3300756    613.90481  0.033284798  0.033327283            3 
 1538000    1.0177126   -6.3569589     614.0624  0.033271695  0.033320024            5 
 1539000   0.99617682   -6.3381055    615.06153  0.033304177  0.033312552            6 
 1540000    1.0044849   -6.2999986    613.50729  0.033198446  0.033305207            5 
 1541000    1.0185517   -6.3114449    617.19496  0.033376323  0.033297945            9 
 1542000    1.0235775   -6.3081274    614.95645  0.033233703   0.03329059            7 
 1543000    1.0266098   -6.3507176    615.51354  0.033242252  0.033283152            5 
 1544000    1.0011032   -6.3188077    617.05693  0.033304022  0.033275814            5 
 1545000    1.0055112   -6.3517815    614.66446  0.033153423  0.033268473            4 
 1546000    1.0019084   -6.3339815    616.85347  0.033249972  0.033261084            6 
 1547000    1.0094672    -6.320994    616.51332  0.033210155  0.033253659            6 
 1548000    1.0136033   -6.3440116    615.89028  0.033155162  0.033246237           12 
 1549000   0.99912243    -6.330069     616.5138  0.033167301  0.033238695            7 
 1550000    1.0232274   -6.3303026    616.10065  0.033123691  0.033231124            8 
 1551000   0.99304737     -6.31125    616.76622  0.033138095  0.033223613            7 
 1552000    1.0184725   -6.3451619    616.33139  0.033093395  0.033216143           18 
 1553000   0.99810642   -6.3072233    617.74738  0.033148067  0.033208719            3 
 1554000    1.0010601   -6.3140968    617.09088  0.033091531  0.033201347            5 
 1555000    1.0247738   -6.3200921    619.59005  0.033204183  0.033193954            6 
 1556000    1.0156057   -6.3094829    619.15679  0.033159639  0.033186469            2 
 1557000     1.010801   -6.3139958     621.1438  0.033244691  0.033178966            7 
 1558000   0.98789269   -6.3627235    617.95336  0.033052704  0.033171375            6 
 1559000   0.99966002   -6.3307289    618.38645  0.033054653  0.033163826            9 
 1560000    1.0251883   -6.3578861    619.24804  0.033079489  0.033156314            5 
 1561000   0.99087073   -6.3328267    620.90493   0.03314675  0.033148749            5 
 1562000    1.0191436   -6.3212521    620.90876  0.033125734  0.033141214            5 
 1563000    1.0185192   -6.3522424    618.07874  0.032953654    0.0331336            7 
 1564000    1.0131995   -6.3219397    619.17788  0.032991149  0.033125894            6 
 1565000    1.0155513   -6.3281497    619.30231  0.032976694  0.033118099            8 
 1566000   0.99887776   -6.3302436    618.44121  0.032909813  0.033110459           18 
 1567000    1.0185394   -6.3333097    620.45492  0.032995901  0.033102697           10 
 1568000   0.99307678   -6.3110176    620.90074  0.032998551  0.033094968            3 
 1569000   0.99944627   -6.3563666    622.25609  0.033049505  0.033087285            8 
 1570000    1.0053695   -6.3090936    623.29127  0.033083401  0.033079662            8 
 1571000   0.98062191   -6.3388021    621.87377  0.032987151  0.033072027           14 
 1572000   0.99417785   -6.3505651    622.24745  0.032985976  0.033064267            4 
 1573000   0.99515385   -6.3322075    622.19145  0.032962039  0.033056545            5 
 1574000   0.98957952   -6.3001833    623.19963  0.032994474  0.033048791            6 
 1575000   0.99784829   -6.3462054    621.54501  0.032885979  0.033041154            6 
 1576000   0.98843962   -6.3750968    619.48526    0.0327562   0.03303331           13 
 1577000   0.99386449   -6.3461457    621.80232  0.032857869  0.033025553            5 
 1578000   0.98887433    -6.377752    621.99133  0.032847029  0.033017819            7 
 1579000   0.97735471   -6.3282012    624.20138  0.032942864  0.033010037           10 
 1580000   0.99381318   -6.3676413    622.89454  0.032853088  0.033002306            6 
 1581000    1.0171342   -6.3282226    624.16741  0.032899399  0.032994615            6 
 1582000   0.99175361   -6.3332144    623.21812  0.032828599  0.032986831            5 
 1583000    1.0051935   -6.3606276    624.11453   0.03285505  0.032978927            5 
 1584000    0.9790275   -6.3678356    621.67676  0.032706059   0.03297108            3 
 1585000   0.97747566   -6.3525602    624.28302  0.032822451  0.032963191            5 
 1586000   0.99674904   -6.3069264    626.90911  0.032939739  0.032955531            7 
 1587000    1.0022809   -6.3507575    624.94503  0.032815849   0.03294785            8 
 1588000   0.99983397   -6.3562725    625.16654  0.032806808  0.032940092            8 
 1589000    1.0066421   -6.3539867    626.76832  0.032870166  0.032932398            4 
 1590000   0.97953025   -6.3087979    625.55431  0.032785865  0.032924747            8 
 1591000   0.98284325   -6.3388192    624.76263  0.032723792  0.032917011            4 
 1592000   0.99269134   -6.3570437    626.96487  0.032818513   0.03290928            6 
 1593000   0.98694892   -6.3681331    624.97685  0.032693914  0.032901392           13 
 1594000      1.00235   -6.3455637    625.67876  0.032710098  0.032893512            7 
 1595000   0.97665305   -6.3244644    627.65602  0.032792896  0.032885662            4 
 1596000   0.99460103   -6.3744463    626.54119  0.032714139  0.032877832            3 
 1597000      1.00377    -6.337134    627.01773  0.032718521  0.032869888            4 
 1598000   0.98175293   -6.3449205     627.1793  0.032706472  0.032861957            5 
 1599000   0.98778818   -6.3603179    627.96238  0.032726828  0.032853995           11 
 1600000     1.000432    -6.367732    628.10923  0.032714022  0.032845939            4 
 1601000    1.0011566   -6.3736317    627.26833  0.032649819  0.032837988            5 
 1602000    1.0093141   -6.3394975     628.2084  0.032678339  0.032830035            3 
 1603000    1.0019729   -6.3354747    629.25873  0.032712556  0.032822274            5 
 1604000    1.0018652   -6.3297137     629.0432  0.032680964  0.032814476            3 
 1605000     0.977674   -6.3338864    629.78876  0.032699313  0.032806643            6 
 1606000   0.97341524   -6.3416829     629.8196  0.032680552  0.032798894            5 
 1607000   0.99858929   -6.3356847    631.13795  0.032728581  0.032791236            4 
 1608000   0.99132471   -6.3457728    631.91418  0.032748454  0.032783591            6 
 1609000   0.98229003   -6.3807411     630.9947   0.03268048  0.032775877            8 
 1610000    1.0001312   -6.3413981    632.19198  0.032722152  0.032768159            5 
 1611000    1.0059855   -6.3843717    631.63159  0.032672853  0.032760478            8 
 1612000    1.0073739   -6.3970222    631.15855   0.03262813  0.032752721            6 
 1613000   0.99014126   -6.3230847    632.26651  0.032665143   0.03274491            4 
 1614000   0.99381945   -6.3708386    631.14134   0.03258681  0.032737102            6 
 1615000   0.98905993   -6.2995958     633.3603   0.03268113  0.032729395            7 
 1616000   0.98848493    -6.343886    631.96732  0.032589074  0.032721626            9 
 1617000   0.98747008   -6.3417324     633.9039  0.032668723  0.032713862            8 
 1618000     1.011091   -6.3408976    633.80075  0.032643219  0.032706145            6 
 1619000    1.0098358   -6.3445331     632.3121  0.032546433  0.032698391           10 
 1620000    1.0057814   -6.3470584    633.42945   0.03258382  0.032690612            3 
 1621000   0.98472428   -6.3453864    632.81617  0.032532191  0.032682772            8 
 1622000   0.99309825   -6.3358521    633.23268  0.032533533  0.032675127            5 
 1623000   0.98323851   -6.3463089    635.67866  0.032639077  0.032667396            3 
 1624000   0.99492463   -6.3705462    633.30848  0.032497356   0.03265951           10 
 1625000    1.0162898   -6.3526137    635.17361  0.032573006   0.03265168            7 
 1626000   0.99676068   -6.3818835    634.58841  0.032522981  0.032643929            5 
 1627000      1.00247   -6.3607407    637.38208  0.032646081  0.032636267            3 
 1628000   0.99764229    -6.357658    635.14785  0.032511663  0.032628587            6 
 1629000   0.98590009   -6.3586425    636.22578  0.032546848  0.032620934            6 
 1630000    1.0016628   -6.3663872    637.20966  0.032577181  0.032613259            6 
 1631000   0.96223478   -6.3721479    636.09843   0.03250043  0.032605517            7 
 1632000   0.99104823   -6.3197587    637.38179  0.032546047  0.032597811           10 
 1633000   0.99395379    -6.375553    639.11814  0.032614724  0.032590255            2 
 1634000   0.98719239   -6.3375436     637.0297  0.032488255  0.032582773            8 
 1635000   0.99581588   -6.3730759    640.67511  0.032654185  0.032575271            6 
 1636000   0.98143828     -6.37704    636.27707  0.032410201  0.032567607            5 
 1637000   0.97948881   -6.3406685    639.73091  0.032566224  0.032559971            4 
 1638000   0.96561951   -6.3572624    638.23898   0.03247044  0.032552267            6 
 1639000   0.98948021   -6.3837366    637.51006  0.032413568  0.032544571            5 
 1640000   0.97612242   -6.3612518    640.35683  0.032538457  0.032536836            6 
 1641000    1.0234612    -6.374136    637.81147   0.03238937  0.032529117            9 
 1642000   0.97576887   -6.3933294    638.87786  0.032423765  0.032521384           10 
 1643000   0.99244837   -6.3827239    637.46908  0.032332577  0.032513658            9 
 1644000   0.98883512   -6.3264459    641.22953  0.032503524  0.032505995            8 
 1645000   0.98389385   -6.3429028    638.61778  0.032351458  0.032498305            7 
 1646000   0.97236135   -6.3586238    641.01278  0.032453057  0.032490585            2 
 1647000   0.97033878   -6.3762801    638.96566  0.032329774  0.032482883            9 
 1648000   0.98542082   -6.3616859    640.37832   0.03238159  0.032475062            8 
 1649000   0.98931363   -6.3685907    639.33424  0.032309189  0.032467209            4 
 1650000    0.9806735   -6.3600405    639.62663  0.032304375  0.032459406            4 
 1651000   0.99298252   -6.3332675    638.76497  0.032241317  0.032451556            8 
 1652000   0.98657944   -6.4123958    637.97047  0.032181723  0.032443648            7 
 1653000   0.97698419   -6.3887849    640.05854  0.032267521  0.032435634            8 
 1654000   0.96328233   -6.3872643    640.06595  0.032248385  0.032427602            6 
 1655000   0.99346362   -6.3343136    639.87489   0.03221928  0.032419595            7 
 1656000   0.96133712   -6.3780659    641.86606  0.032300023  0.032411651            4 
 1657000   0.97246818    -6.336178    641.10925  0.032242469  0.032403611            7 
 1658000   0.99356338   -6.3618135    640.47649  0.032191219  0.032395652           11 
 1659000    0.9862296   -6.3479769    640.93326  0.032194759  0.032387677            5 
 1660000   0.97414776   -6.3459025    641.27117  0.032192328  0.032379658            6 
 1661000   0.97351677   -6.3647699    641.18381  0.032168563  0.032371711           12 
 1662000    1.0063727   -6.3574402    643.87597  0.032284194   0.03236367            2 
 1663000   0.98487686   -6.3932321    641.21447  0.032131413  0.032355731            7 
 1664000   0.98433207   -6.3879997    643.21507  0.032212293  0.032347684            4 
 1665000   0.99223552   -6.3861334    642.10752  0.032137513  0.032339454            7 
 1666000   0.96654471   -6.3434663    644.02197  0.032213984  0.032331368            3 
 1667000   0.99390342    -6.355776    643.31903   0.03215952   0.03232332            7 
 1668000   0.96189407   -6.3641322    644.69856  0.032209161   0.03231543            6 
 1669000   0.96075891   -6.3560477    644.95407   0.03220262  0.032307507            2 
 1670000   0.96863462   -6.3246814    644.95178  0.032183222  0.032299593            7 
 1671000   0.98664281   -6.3494434    644.49264  0.032141065  0.032291684            4 
 1672000   0.97744842   -6.3845327    644.43859  0.032119148  0.032283576            5 
 1673000   0.98291637   -6.3788212    644.77117  0.032116516  0.032275573            4 
 1674000   0.98798053   -6.3874045    644.35865  0.032076795  0.032267661            5 
 1675000   0.98192515   -6.3785079    645.06598  0.032092835  0.032259817           12 
 1676000   0.99540523   -6.3784751      645.491  0.032094819   0.03225184            5 
 1677000   0.99747889   -6.3741485    645.50616  0.032076434  0.032243877            5 
 1678000   0.97301495   -6.3614758    646.38824  0.032101124  0.032235957           13 
 1679000   0.97840706   -6.3869573    644.40486  0.031983565  0.032227819            7 
 1680000   0.98663053   -6.3766147    645.06971  0.031997505  0.032219652            7 
 1681000   0.97132912   -6.4054943     644.8814  0.031969136  0.032211616            4 
 1682000   0.99519997   -6.3699082    645.33071  0.031972389  0.032203487            5 
 1683000   0.95558099     -6.39111    646.44489  0.032008561  0.032195375            5 
 1684000   0.98644672   -6.3650971    645.16525   0.03192623    0.0321873            4 
 1685000   0.98973011   -6.3806308    647.23569  0.032009678  0.032179136            8 
 1686000    1.0077472   -6.3679442    648.86241  0.032071096  0.032170981            8 
 1687000   0.99820212   -6.3935866    647.70174  0.031994751  0.032162902            5 
 1688000   0.97560669   -6.3266291    647.50782  0.031966223  0.032154752            5 
 1689000   0.96336879   -6.3792132    645.72682  0.031859425   0.03214659            3 
 1690000   0.96825212   -6.3851003    647.83927  0.031944737  0.032138324            6 
 1691000   0.99191433   -6.3744139    648.27733  0.031947434  0.032130039           14 
 1692000   0.99246291   -6.3875329    646.55712   0.03184383  0.032121798            4 
 1693000   0.97441288   -6.3658173    645.97783  0.031796507  0.032113494            6 
 1694000   0.96539511   -6.3821962    649.47923  0.031949982   0.03210528            7 
 1695000    0.9764424   -6.3868878    647.05897  0.031812142  0.032097019           13 
 1696000   0.98190066   -6.3474599     649.1824   0.03189772  0.032088795            4 
 1697000    1.0015962    -6.387443    645.64855   0.03170539  0.032080324            5 
 1698000    0.9657565   -6.3798983    646.62575  0.031734675   0.03207194            7 
 1699000   0.99461335   -6.3935595    647.22339  0.031745311  0.032063428           12 
 1700000   0.98248077   -6.3604434    649.35542  0.031831148   0.03205505           13 
 1701000   0.98240605   -6.3769101    648.63573  0.031777177  0.032046638           10 
 1702000   0.99764291   -6.3685946    649.61004   0.03180621  0.032038288            8 
 1703000   0.97942433   -6.3452399    650.66949  0.031839376  0.032030019            7 
 1704000   0.97582102   -6.3719594    650.06872  0.031791311  0.032021674            7 
 1705000   0.99277476   -6.3786092    650.65316  0.031801229  0.032013309            9 
 1706000   0.97993063   -6.3774714    647.10267  0.031609157  0.032004932            8 
 1707000    0.9913569   -6.3906761     649.0464   0.03168553  0.031996501            9 
 1708000   0.98137473   -6.3907638    650.17173  0.031721884  0.031988112            5 
 1709000   0.98029182   -6.3670564    652.71493  0.031827332  0.031979878            5 
 1710000   0.99955696   -6.3753859    650.96267  0.031723327  0.031971595            7 
 1711000   0.95680184   -6.3704437    652.15011   0.03176262  0.031963347            5 
 1712000     1.004613   -6.3761926     652.6705  0.031769397  0.031955102            6 
 1713000   0.96048211   -6.3737982    652.17776  0.031726881  0.031946756            4 
 1714000   0.98891413   -6.3684316    653.59082  0.031777072  0.031938537            5 
 1715000   0.98210133   -6.3853872    652.79039   0.03171965  0.031930362            6 
 1716000   0.97845138   -6.4187915    650.87403  0.031608102  0.031922107            8 
 1717000   0.98369072   -6.3832505    652.00391  0.031644531  0.031913725            7 
 1718000    0.9833754    -6.393527    653.01503  0.031675157  0.031905421            3 
 1719000   0.99350039   -6.3745904    653.46373  0.031678482   0.03189713            2 
 1720000   0.98891267   -6.3950664    652.77041  0.031626474  0.031888814           10 
 1721000   0.97167608    -6.402293    655.04082  0.031718033  0.031880485            7 
 1722000    0.9861115   -6.3803417    653.38787  0.031619622  0.031872209            6 
 1723000   0.96804973   -6.3831824    654.76927  0.031668082   0.03186394            6 
 1724000    0.9712249   -6.4311564    652.29823   0.03153027  0.031855598            8 
 1725000   0.95804015   -6.4212868    651.37252  0.031467271  0.031847264            4 
 1726000   0.97918029   -6.4076606    654.60461  0.031605089   0.03183886            6 
 1727000    1.0047169   -6.3970772    654.88161  0.031600155   0.03183048            6 
 1728000   0.96147053   -6.4055008    653.84028  0.031531649  0.031821971            9 
 1729000   0.97631766   -6.3642572    654.95757  0.031567263   0.03181359            3 
 1730000   0.96355095   -6.4026162    653.65544  0.031486293  0.031805051            3 
 1731000   0.95526202   -6.4066255     654.7807  0.031522275  0.031796597            8 
 1732000   0.97410067   -6.3855322    653.91571  0.031462457  0.031788103            5 
 1733000   0.97613366   -6.3771186     654.3495  0.031465162  0.031779619            6 
 1734000   0.97805085   -6.3909943    655.46303   0.03150053  0.031771147           22 
 1735000   0.96329901   -6.4043809    653.03107  0.031365565  0.031762555           24 
 1736000   0.95999899   -6.4038816    655.16812  0.031450082  0.031753921            7 
 1737000   0.97104511   -6.3580127    655.64669  0.031454936   0.03174539            4 
 1738000   0.96217854   -6.3814418    655.50563  0.031430074  0.031736744            4 
 1739000   0.97587682   -6.3783248    656.66164  0.031467397  0.031728177           13 
 1740000   0.97916659   -6.4067872    654.97501  0.031368535  0.031719586            5 
 1741000   0.97371173   -6.4013094    654.40899  0.031323425  0.031710877            5 
 1742000   0.95973757   -6.3994225    655.30302  0.031348212  0.031702149            7 
 1743000   0.99827947   -6.3821517    655.53706  0.031341416  0.031693551            5 
 1744000   0.98203624   -6.4223988    656.56109  0.031372376  0.031685003            5 
 1745000   0.96217869   -6.3780111    657.05927  0.031378189  0.031676423            3 
 1746000   0.94282122   -6.3832926    656.63809  0.031340115  0.031667849            3 
 1747000   0.97690088   -6.3765561     656.5803  0.031319419  0.031659344            4 
 1748000   0.97694487    -6.393802    657.00458  0.031321729  0.031650858            5 
 1749000   0.96749812   -6.3934361    656.83185   0.03129559  0.031642379            8 
 1750000   0.97022485   -6.3846912    659.33156  0.031396741  0.031633911            4 
 1751000   0.99478291   -6.3967404    658.55715  0.031341955  0.031625461            6 
 1752000   0.98142172   -6.3896111    657.89437  0.031292541  0.031616969           10 
 1753000   0.98921846   -6.4098934    656.47481  0.031207207  0.031608637           10 
 1754000   0.95713695   -6.3916317    659.95143  0.031354591  0.031600232            6 
 1755000   0.95823618   -6.3780421    659.53801  0.031317094  0.031591801            4 
 1756000   0.95603791   -6.4078459    659.93538  0.031318118  0.031583346            5 
 1757000   0.96307824     -6.39205    661.81369   0.03138938  0.031574959            6 
 1758000   0.94820257   -6.3837179    660.16803  0.031293517  0.031566552            8 
 1759000   0.96741228   -6.3963912    662.08621  0.031366601   0.03155822            8 
 1760000   0.99157202   -6.4329431    660.92211  0.031293661   0.03154984            8 
 1761000   0.95534573   -6.4256967    661.83785  0.031319225  0.031541477            5 
 1762000    0.9710248   -6.4039848    661.73834  0.031296743  0.031533118            8 
 1763000   0.96373887   -6.4076756    662.82869   0.03133053   0.03152477            5 
 1764000   0.96814139    -6.367979    662.80061  0.031311442  0.031516463            6 
 1765000   0.99146994   -6.3852146    662.62877  0.031285589   0.03150812            4 
 1766000   0.96681883   -6.3539316    663.63429  0.031315321  0.031499785            7 
 1767000   0.99252626   -6.3870223    663.24804  0.031279383  0.031491554            7 
 1768000   0.95393701   -6.4131782    664.07752  0.031300788   0.03148335            6 
 1769000   0.96235616   -6.3924967    664.98094  0.031325652  0.031475143           11 
 1770000     1.012198   -6.4290137    663.32573  0.031230025  0.031466838            7 
 1771000   0.94027329   -6.3822261    665.83998  0.031330697  0.031458597            7 
 1772000   0.96698991   -6.3982391    662.63122  0.031162116  0.031450239            8 
 1773000   0.98917711   -6.4091969    663.24671  0.031173468  0.031441961            9 
 1774000   0.97643325   -6.3953329    664.87919  0.031232581  0.031433519           12 
 1775000    0.9715146   -6.3874295     664.6805  0.031205657  0.031425119            4 
 1776000   0.97856887   -6.4182137    663.56533  0.031135761  0.031416852           10 
 1777000   0.95951995   -6.3977093    663.19631  0.031100933  0.031408479            7 
 1778000   0.97346641   -6.4015567    663.59738  0.031102239  0.031399948            4 
 1779000   0.96321324    -6.387896    664.11953  0.031109215  0.031391482            4 
 1780000   0.96132936   -6.4202259    664.64964  0.031116556  0.031383099            5 
 1781000    0.9531918   -6.4287647    664.76467  0.031104467  0.031374625            4 
 1782000   0.96278062   -6.4053417    663.41367  0.031023834  0.031366168            4 
 1783000   0.94483074   -6.3952405    666.23674  0.031138378  0.031357787            5 
 1784000   0.95825182   -6.3920042    667.57716  0.031183537  0.031349493           29 
 1785000   0.96295067   -6.3828521    667.24648   0.03115063  0.031341203            5 
 1786000   0.95028764   -6.4127593     668.4723  0.031190383   0.03133293            4 
 1787000   0.95571035   -6.3712486    668.05928  0.031153669  0.031324767            6 
 1788000   0.96625965   -6.3996505    665.62574  0.031022825  0.031316563            5 
 1789000    0.9604351    -6.353285    668.79666  0.031153189  0.031308295            7 
 1790000   0.94604493   -6.3944929    668.63667  0.031128337  0.031300075            4 
 1791000   0.97285297   -6.4379162    666.95814  0.031032856   0.03129184            7 
 1792000   0.95180716   -6.4395045    668.41607  0.031083337   0.03128349            5 
 1793000   0.94389999   -6.3989365    668.30469  0.031060824  0.031275156            8 
 1794000   0.96568139   -6.4392923    665.95066  0.030934163  0.031266781            5 
 1795000   0.96114597   -6.3822661    668.48062  0.031034384  0.031258411            6 
 1796000   0.95815971   -6.3968974    668.86531  0.031034953   0.03125012            6 
 1797000    0.9681059   -6.4182687    669.18425  0.031032473   0.03124181            9 
 1798000   0.97382787   -6.4047296    669.90572  0.031048652  0.031233339            4 
 1799000   0.95294558   -6.4248689    669.96418  0.031034101  0.031224879            4 
 1800000   0.98885897   -6.3943116    669.65059  0.031002342  0.031216587           11 
 1801000    0.9630196   -6.4259636    671.40146  0.031066142  0.031208233            4 
 1802000   0.95085461   -6.3885371    669.70325  0.030970369  0.031199872            7 
 1803000   0.97606232   -6.3885757    671.00002  0.031013127  0.031191618            6 
 1804000   0.97848414   -6.3963398     672.2063  0.031051658  0.031183362            4 
 1805000   0.96011872   -6.4357668    668.28508   0.03085342  0.031174984           11 
 1806000   0.96944626   -6.4451415    669.01605  0.030870065  0.031166512           19 
 1807000   0.99041056   -6.4270964    669.95961  0.030896496  0.031158122            7 
 1808000   0.96893294   -6.3889483    672.69259  0.031005374  0.031149875            6 
 1809000   0.97286332   -6.4208913    669.13207  0.030824216  0.031141553            8 
 1810000   0.96344573   -6.4177997    669.97785  0.030846126  0.031133225            7 
 1811000   0.96834232   -6.4443799    672.06618  0.030925188  0.031124779            3 
 1812000   0.97238438   -6.4085374    670.90511  0.030854724  0.031116419            4 
 1813000   0.98561415   -6.4028616    671.60907  0.030870062  0.031108137            7 
 1814000   0.97806621    -6.402362    672.85665  0.030910357  0.031099856           10 
 1815000   0.98573229   -6.4161133    672.42153  0.030873348  0.031091544            4 
 1816000   0.95994397   -6.4231332    669.68378  0.030730717  0.031083102            8 
 1817000   0.97715261    -6.407956    673.88996  0.030906713  0.031074723            5 
 1818000   0.95098882   -6.4131451    673.86849  0.030888728  0.031066511            4 
 1819000   0.96863098   -6.3787908    673.41183  0.030850826  0.031058253            6 
 1820000   0.96488295    -6.395986    674.94619   0.03090413  0.031050079            6 
 1821000   0.94517187   -6.4147213    674.09709  0.030848302  0.031041833            6 
 1822000    0.9583797   -6.3975766    673.82519  0.030818935   0.03103366            6 
 1823000   0.97007461   -6.4404627    675.74452  0.030889766  0.031025396            4 
 1824000   0.95967511    -6.405073    675.42118  0.030858058  0.031017234           10 
 1825000   0.93899436   -6.3635343    675.14167  0.030828387  0.031009148            9 
 1826000   0.96393694   -6.4102877    675.00177  0.030805119  0.031001047           12 
 1827000   0.95602544    -6.415595    674.89305  0.030783299  0.030992895           10 
 1828000   0.94851877   -6.4116955    674.77343  0.030761006  0.030984812            5 
 1829000   0.96722029   -6.4312912    678.08283  0.030894971   0.03097661            6 
 1830000   0.96542683   -6.4271985    675.93613  0.030780334  0.030968427           13 
 1831000   0.96246383   -6.4134965    676.19053  0.030775101  0.030960296            4 
 1832000   0.95766926   -6.3888917    676.07243  0.030752931  0.030952108            8 
 1833000   0.96691873   -6.4227588    676.35497  0.030748998  0.030943969           17 
 1834000   0.94890809   -6.4394619    676.96081   0.03075976   0.03093574            4 
 1835000   0.94917019   -6.4430025    676.97668  0.030743719  0.030927613            5 
 1836000   0.95622029   -6.4416725    676.42141  0.030701771  0.030919428            6 
 1837000    0.9494201   -6.4225487    676.25485  0.030677502  0.030911153            8 
 1838000   0.95562672   -6.3718559    678.92161   0.03078172  0.030903033            6 
 1839000   0.95983513   -6.4359829    677.49845  0.030700492   0.03089477            7 
 1840000   0.95017164   -6.4394653    675.85502  0.030609376  0.030886568            7 
 1841000   0.96821299   -6.4466104    676.93927  0.030641828  0.030878299            4 
 1842000   0.93670945   -6.4048552    677.35762   0.03064412   0.03086997            6 
 1843000   0.97886394   -6.4120871    678.95422  0.030699684  0.030861689            4 
 1844000   0.97842281   -6.4106596    680.60799  0.030757773   0.03085354            7 
 1845000   0.96371738   -6.4061803      677.276  0.030590605  0.030845257            7 
 1846000   0.95328358   -6.3961774    680.66611  0.030727073  0.030837003           17 
 1847000   0.97343976    -6.426237    676.15739  0.030507011  0.030828672            8 
 1848000   0.96126142   -6.4171773    677.55492  0.030553523  0.030820381            8 
 1849000   0.94362703   -6.4088795      678.302  0.030570669  0.030812096            5 
 1850000   0.95506812   -6.4288839    678.40447   0.03055876  0.030803815           13 
 1851000    0.9393195   -6.3995019    679.89539  0.030609373  0.030795512            6 
 1852000    0.9524149   -6.3935385    678.51935  0.030530928  0.030787262            4 
 1853000   0.97277771   -6.4537648    682.28198  0.030683665  0.030779012            6 
 1854000   0.96266533    -6.434123    678.10214   0.03047924  0.030770659            6 
 1855000   0.94763502   -6.4032118    679.71616  0.030535317  0.030762345            5 
 1856000   0.95148702   -6.4364559     676.9031   0.03039256  0.030753916           11 
 1857000   0.96208945   -6.4363813    680.36884   0.03053172  0.030745481            2 
 1858000   0.96311865   -6.4304999    679.11412  0.030459012  0.030737083            6 
 1859000     0.938591   -6.4079573    680.77022  0.030516865  0.030728707            3 
 1860000   0.95022629   -6.4216643    680.41289  0.030484448  0.030720455           11 
 1861000    0.9439397   -6.3872926    682.27737  0.030551557  0.030712142            8 
 1862000   0.96076902   -6.4226956    685.14984  0.030663706  0.030703956            4 
 1863000   0.95577604   -6.4250906    680.49458  0.030439013  0.030695728            5 
 1864000   0.96023224    -6.402445    681.01448  0.030445926    0.0306875            5 
 1865000    0.9394378   -6.4290971    683.22952  0.030528576  0.030679285            9 
 1866000   0.95338549   -6.4325477    683.35959  0.030518024  0.030671003            5 
 1867000   0.96284091   -6.4495868    683.03465  0.030487174  0.030662573           31 
 1868000    0.9456649   -6.4388415    682.30609  0.030438352  0.030654238            6 
 1869000   0.95359518   -6.4084935    682.34408   0.03042376  0.030645907           14 
 1870000   0.92508431   -6.4562229    682.03169  0.030393569   0.03063756            7 
 1871000   0.95621347   -6.4282275    683.17986  0.030428463  0.030629274            9 
 1872000   0.95449436    -6.402726    682.64755  0.030388513  0.030620923            4 
 1873000   0.94886117   -6.4345448    682.84715  0.030381169  0.030612609            8 
 1874000   0.96599485   -6.4384763    683.12308  0.030377227  0.030604298            5 
 1875000   0.92880732   -6.4298298    682.69693  0.030342086  0.030595967            8 
 1876000   0.95482658   -6.4413969     683.2996  0.030352683  0.030587523           10 
 1877000   0.94106633   -6.4451962     682.8318  0.030315743   0.03057913            7 
 1878000   0.94189429   -6.4400535    684.71224  0.030383042  0.030570781            5 
 1879000   0.93252481   -6.4304146    683.65314  0.030319902  0.030562493           10 
 1880000    0.9505995    -6.417011    684.08585  0.030322954  0.030554125            4 
 1881000     0.938772   -6.4207562    685.77206  0.030381537  0.030545835            7 
 1882000   0.96508456   -6.4099503    683.49838  0.030264718  0.030537486            8 
 1883000   0.95326498   -6.4193411    686.25554  0.030370665  0.030529143            3 
 1884000   0.94723582   -6.4196959    684.45995  0.030275122  0.030520808            6 
 1885000   0.93919728   -6.4594389    685.13773  0.030289024  0.030512456            4 
 1886000   0.96471809    -6.428578    686.49098  0.030332758  0.030504176            9 
 1887000    0.9459997   -6.4430768     684.1944  0.030215262  0.030495843           17 
 1888000   0.96621474   -6.4399373    686.46147  0.030299323  0.030487543            7 
 1889000   0.93110633   -6.4375771    686.41287  0.030281139  0.030479187            9 
 1890000   0.92122338   -6.4252995    685.84669  0.030240154  0.030470947           10 
 1891000   0.94379809   -6.4343941    687.84733  0.030312327  0.030462717            4 
 1892000   0.97044292   -6.4456105    686.54795  0.030239075  0.030454477            3 
 1893000   0.93460531   -6.4658702    685.60661  0.030181661  0.030446256           18 
 1894000   0.93997982   -6.4107812    688.08329  0.030274696  0.030438057            4 
 1895000   0.95043282   -6.4171476    689.73674  0.030331431  0.030429965            6 
 1896000   0.95429895   -6.4662931    686.79395  0.030186091  0.030421822            7 
 1897000   0.95536316   -6.4361787    688.59605  0.030249343  0.030413567            5 
 1898000   0.93942187   -6.4500253    688.01796  0.030208024  0.030405316           10 
 1899000   0.96036821    -6.454194    689.05042  0.030237424  0.030397117            8 
 1900000   0.93222739   -6.4217399    689.54693  0.030243286  0.030388813           10 
 1901000   0.92954875   -6.4236047    688.44073  0.030178885  0.030380527           17 
 1902000   0.93604502   -6.4247461    688.84158  0.030180581    0.0303722            5 
 1903000   0.94474129   -6.4445295    688.12787  0.030133468  0.030363922            8 
 1904000   0.94218292   -6.4434901    688.36993  0.030128236  0.030355659            8 
 1905000   0.94359332   -6.4671158    689.51558  0.030162536  0.030347495           14 
 1906000   0.95118543   -6.4610952    688.98339  0.030123443  0.030339247            5 
 1907000   0.98410104   -6.4539425    688.48076  0.030085682  0.030331052            6 
 1908000   0.94647669   -6.4868919    688.02873  0.030050172  0.030322793            4 
 1909000   0.96089251   -6.4235659    691.31199  0.030177754  0.030314624           11 
 1910000   0.95305383   -6.4409685    691.47348     0.030169  0.030306432            6 
 1911000   0.96939721   -6.4217356    690.85798  0.030126373  0.030298271            6 
 1912000   0.92238679   -6.4055584    691.23738  0.030127152   0.03029017            5 
 1913000   0.95374197   -6.4348249    690.05931  0.030060085   0.03028202            4 
 1914000   0.95003468   -6.4632911    692.21087  0.030138056  0.030273823            8 
 1915000   0.96042142   -6.4186451    692.63557  0.030140799  0.030265593            9 
 1916000   0.94928539   -6.4032196    691.94887  0.030095201   0.03025743            4 
 1917000   0.93644354   -6.4341102    693.76939  0.030158641  0.030249302            4 
 1918000   0.95744185   -6.4199896    694.04882  0.030155058  0.030241267            5 
 1919000   0.94984321    -6.426158    693.70592  0.030124454  0.030233346            8 
 1920000   0.94646411   -6.4257947    694.01148  0.030122026  0.030225404            5 
 1921000   0.93874195   -6.4393518    695.23578  0.030159456  0.030217464            7 
 1922000     0.938412   -6.4320158    694.89684  0.030129069  0.030209582            8 
 1923000   0.94814007   -6.4432203    695.50932  0.030139943  0.030201682            8 
 1924000     0.928961    -6.477166    695.77964  0.030135986  0.030193753            6 
 1925000   0.93602637   -6.4693083    694.98143  0.030085776  0.030185722            6 
 1926000   0.95714848   -6.4669753    695.65578  0.030099333  0.030177821            6 
 1927000   0.95348361   -6.4609293    696.52826  0.030121443  0.030169945            4 
 1928000    0.9420754   -6.4405388    696.60261  0.030109034  0.030161988           10 
 1929000   0.94700301   -6.4543684    695.69125  0.030054054  0.030154035            6 
 1930000   0.95499312   -6.4338615    698.69406  0.030168137  0.030146175            7 
 1931000   0.91506229   -6.4471251     694.5981  0.029975751  0.030138389            3 
 1932000   0.94744681   -6.4416995    698.95987  0.030148373  0.030130534            5 
 1933000   0.94745653   -6.4654191    699.97264  0.030176437  0.030122726           10 
 1934000   0.93059161   -6.4704641    696.74453   0.03002174  0.030114777           15 
 1935000   0.94384692   -6.4792565    696.52384   0.02999672  0.030106894            4 
 1936000   0.94704043   -6.4472707    697.94322  0.030042322  0.030098935            7 
 1937000   0.93263701   -6.4555681     698.0185  0.030030051  0.030091076            8 
 1938000   0.93037004   -6.4284724    696.39771  0.029944862  0.030083292            5 
 1939000   0.92465605   -6.4423424     698.0684   0.03000122  0.030075463            5 
 1940000   0.95317416   -6.4372066     698.5715  0.030007367  0.030067727           19 
 1941000   0.96241162   -6.4456644    698.51623  0.029989534  0.030059871            5 
 1942000   0.95333544    -6.459896    700.27678  0.030049638  0.030052051            3 
 1943000   0.93753811    -6.432298    699.43433  0.029998041  0.030044269            4 
 1944000   0.95496018   -6.4328073      700.042  0.030008659  0.030036512            9 
 1945000   0.95339439   -6.4531355    701.35393   0.03004944  0.030028764            6 
 1946000   0.93906655   -6.4236353    701.98338  0.030060953  0.030021167           11 
 1947000   0.93793037   -6.4519638    700.85043  0.029997022  0.030013533            5 
 1948000   0.93575876   -6.4360746    702.20342  0.030039503  0.030005933            6 
 1949000   0.93223053   -6.4818665    699.80438  0.029921514  0.029998115            7 
 1950000   0.93842398   -6.4450637    704.08252  0.030088997  0.029990426            8 
 1951000   0.92947322   -6.4509337    700.58803  0.029924313  0.029982828            3 
 1952000   0.93904079   -6.4448054    703.73818  0.030043467   0.02997521           13 
 1953000    0.9416729   -6.4559249    704.67517  0.030068065   0.02996774            7 
 1954000   0.94182994   -6.4368434    704.75843  0.030056228  0.029960274            3 
 1955000   0.96330567   -6.4612213     703.6701  0.029994463  0.029952835            6 
 1956000    0.9370158   -6.4172245    703.67354  0.029979275  0.029945354           13 
 1957000   0.92711778   -6.4601698    702.46886  0.029912658  0.029937878            8 
 1958000   0.94019753   -6.4850853      705.802  0.030039241   0.02993037            9 
 1959000   0.93041908   -6.4838182    705.20449  0.029998489  0.029922887            2 
 1960000   0.92222701   -6.4959097    704.72255  0.029962693   0.02991539            8 
 1961000   0.95737299   -6.4663878    705.84472  0.029995101  0.029907929            3 
 1962000   0.93306049   -6.4575794    705.29565  0.029956492  0.029900448           11 
 1963000   0.95575495   -6.4637533    705.53594  0.029951432  0.029893007           10 
 1964000   0.93238936   -6.4660637    704.68202   0.02989995  0.029885489            5 
 1965000   0.92047146    -6.475872    706.82267  0.029975516  0.029878003           12 
 1966000   0.93664502   -6.4500245    707.43037  0.029986028  0.029870537            8 
 1967000   0.93904315    -6.482207    706.12953  0.029915672   0.02986308           13 
 1968000   0.93735328   -6.4311138    707.35773  0.029952478  0.029855685           21 
 1969000    0.9418379   -6.4912157    705.74799  0.029869138   0.02984832            5 
 1970000   0.94566075   -6.4644949    705.81328  0.029856738  0.029840872           13 
 1971000   0.93585738   -6.4631223    709.08449  0.029979896  0.029833456            8 
 1972000   0.94566425   -6.4598963    708.04785  0.029920886  0.029825959            4 
 1973000   0.94550132   -6.4641042    707.76175  0.029893637  0.029818492           11 
 1974000   0.95162854   -6.4446651    707.54548  0.029869363  0.029811191            9 
 1975000   0.93582267   -6.4391111    709.81283  0.029949908  0.029803907            9 
 1976000    0.9353422   -6.4649651    708.71232   0.02988834  0.029796564            6 
 1977000   0.95326739   -6.4815994    709.85534  0.029921402  0.029789245            5 
 1978000   0.94664924    -6.499581    709.21024  0.029879097  0.029781881           22 
 1979000   0.93032394   -6.4785364    710.68413  0.029926063  0.029774556            6 
 1980000   0.92559825   -6.4620497    709.84697  0.029875714  0.029767286           10 
 1981000   0.91093273   -6.4521093    709.75966   0.02985696   0.02976005            9 
 1982000   0.96010336   -6.4706964    711.30409  0.029906832  0.029752862            9 
 1983000   0.93133236   -6.4792139    710.21165  0.029845842   0.02974563            4 
 1984000   0.91451453   -6.4657002    710.84819  0.029857535  0.029738426            7 
 1985000   0.93680931   -6.4662733    712.76065  0.029922781  0.029731212           15 
 1986000   0.92095664    -6.484673    712.36362  0.029891055  0.029723999            5 
 1987000   0.92323551   -6.4514314    713.08074  0.029906087  0.029716828            9 
 1988000   0.92029791    -6.448804    711.27174  0.029815214  0.029709651            6 
 1989000   0.93209662   -6.4749388    713.31095  0.029885661  0.029702491            6 
 1990000   0.92021634   -6.4828834    711.86931  0.029810273  0.029695334           10 
 1991000   0.92451953   -6.4517474    711.90121  0.029796635  0.029688236           12 
 1992000   0.95284594   -6.4381242    715.11202  0.029915998  0.029681175           15 
 1993000   0.93221167   -6.4541933    715.81637  0.029930438  0.029674153            3 
 1994000   0.92623727   -6.5141257    714.78006  0.029872119  0.029667144            4 
 1995000   0.94201556   -6.4858387    715.75472  0.029897858  0.029660076           19 
 1996000   0.94741761   -6.4529776    714.55445  0.029832768   0.02965306            8 
 1997000   0.93418659   -6.4791483    715.71573  0.029866288  0.029646027            7 
 1998000    0.9246325    -6.477739    716.29265  0.029875402  0.029639054            9 
 1999000   0.91557126   -6.4476929    718.91233  0.029969665  0.029632212            5 
 2000000   0.91979152    -6.496952    715.12129  0.029796721  0.029625368           14 
 2001000   0.92786758   -6.4831764    717.37968  0.029875882  0.029618509            7 
 2002000   0.91018578    -6.471343    718.28107  0.029898479  0.029611615           15 
 2003000   0.94824335   -6.4912437    718.81453  0.029905747  0.029604778            7 
 2004000   0.91646561   -6.4829631    718.75724  0.029888442  0.029597903           11 
 2005000   0.93271596   -6.4899555    718.60344  0.029867142  0.029591028            6 
 2006000   0.93808291   -6.4765643    719.60483  0.029893853    0.0295842           13 
 2007000   0.92839249    -6.432545      719.103  0.029858122  0.029577426            5 
 2008000   0.93160493   -6.4994473    718.45992  0.029816564  0.029570607            5 
 2009000   0.94617043   -6.4526509    719.52209  0.029845781  0.029563787            6 
 2010000   0.92177572   -6.4694313    719.79742  0.029842347   0.02955701           13 
 2011000   0.91895154   -6.4534898    721.35203  0.029891929   0.02955019            5 
 2012000    0.9350886   -6.4854882    720.40585  0.029837883   0.02954337           20 
 2013000   0.92479972   -6.4688409    721.04881  0.029849677  0.029536605            9 
 2014000   0.92170477   -6.4693931    720.71011  0.029820842  0.029529918            3 
 2015000   0.92648302   -6.4880208    721.26974  0.029829187  0.029523169            6 
 2016000   0.93423085   -6.4990804    721.42578  0.029820841  0.029516375            5 
 2017000   0.95019613   -6.4660964    720.96063  0.029786838  0.029509566           11 
 2018000   0.91952394    -6.508207     721.2866  0.029785538  0.029502799           12 
 2019000    0.9252931   -6.4584352    722.09035   0.02980396  0.029496106            9 
 2020000   0.93088525    -6.470891    723.79047  0.029859343  0.029489417            7 
 2021000    0.9144575    -6.489676    722.77787  0.029802815  0.029482757           14 
 2022000   0.92895783   -6.4863726    722.79949  0.029788967  0.029476055            9 
 2023000   0.94928196   -6.4508634    722.81774  0.029774993  0.029469364            3 
 2024000   0.91185676    -6.466337    724.70263  0.029837888  0.029462771            4 
 2025000   0.91070321   -6.4982363    724.36049  0.029809074  0.029456136            8 
 2026000   0.93345002   -6.4768073    723.79353   0.02977104  0.029449495            6 
 2027000   0.92879075   -6.4570809    723.12805  0.029728994   0.02944286            6 
 2028000    0.9115782   -6.4918734    724.49274  0.029770412  0.029436186            8 
 2029000   0.90327607   -6.4825808    722.67164  0.029680945  0.029429393           16 
 2030000   0.92243719   -6.4850117    722.87916  0.029674842  0.029422541           19 
 2031000   0.94451222   -6.4506833    725.63381  0.029773257  0.029415761            6 
 2032000   0.93726675   -6.4662139    724.40602  0.029708252  0.029409012            9 
 2033000   0.91126282   -6.4767007    725.01614  0.029718648  0.029402298            9 
 2034000   0.93976991   -6.4822045    723.53601  0.029643396   0.02939553            7 
 2035000   0.92632116   -6.4831098    724.54556   0.02967017  0.029388782            4 
 2036000   0.92439141   -6.4827759     725.7366  0.029704347  0.029382024            7 
 2037000   0.93064127   -6.4859897    724.16002  0.029625267  0.029375305           10 
 2038000   0.94180413   -6.4873475    725.40801   0.02966176  0.029368513            6 
 2039000   0.93450465   -6.4938586    724.35009  0.029603976  0.029361751           10 
 2040000   0.93981013   -6.4879928    725.96567   0.02965546  0.029355006           11 
 2041000   0.94183327    -6.451854    727.97814  0.029723099  0.029348317           18 
 2042000   0.92781762    -6.451412    727.01078  0.029669065  0.029341673           21 
 2043000   0.93439258   -6.5050289    725.82593  0.029606213  0.029334962            9 
 2044000   0.93755422   -6.5165656    726.34624  0.029612942  0.029328105            8 
 2045000   0.92630374   -6.4936449    727.43908  0.029642994  0.029321412            9 
 2046000   0.91536059   -6.4961394    726.62293  0.029595264  0.029314783            7 
 2047000   0.90492662   -6.5081842    725.95382  0.029553567   0.02930808            9 
 2048000   0.92262534   -6.4940038    728.44955  0.029640688  0.029301359           17 
 2049000   0.91517587   -6.4903268    727.92797   0.02960501  0.029294587            9 
 2050000   0.93300179   -6.4654929    727.17877  0.029560112  0.029287812            9 
 2051000   0.91341793   -6.4847099    726.94801  0.029536324    0.0292811           12 
 2052000   0.94916109   -6.4876408     729.5358  0.029627023  0.029274352           10 
 2053000   0.91160507   -6.4672822     729.0804  0.029594106   0.02926768           18 
 2054000   0.92763191   -6.4673756     730.1644  0.029623678   0.02926104            4 
 2055000   0.90110336   -6.5255887    727.95862  0.029519814  0.029254288            5 
 2056000   0.91679008   -6.5000441    728.90715  0.029543902  0.029247532           16 
 2057000   0.91091243   -6.5268605    728.68763  0.029520646  0.029240829            8 
 2058000   0.91060502   -6.4671467    729.14662  0.029524887  0.029234102            7 
 2059000    0.9400391   -6.4717751    729.62373  0.029529858   0.02922748            6 
 2060000   0.91555329   -6.4667909    729.72795  0.029519739  0.029220759           20 
 2061000   0.90974472   -6.4739729    728.82261   0.02946881  0.029214018            5 
 2062000   0.91426544   -6.4781259     729.1974  0.029469665  0.029207252            7 
 2063000   0.92079868   -6.4830109     729.6436  0.029473405   0.02920048           10 
 2064000   0.92133184   -6.4957202    729.53366  0.029454686  0.029193609           15 
 2065000   0.91792551   -6.4812889    730.95919  0.029497949  0.029186774           14 
 2066000   0.93042124   -6.5002794    729.03691  0.029406135  0.029179892           13 
 2067000   0.92402741    -6.475536    730.41095  0.029447305  0.029173067           17 
 2068000    0.9324328   -6.4855546    730.01115  0.029416955  0.029166212           11 
 2069000   0.92678317    -6.477891    729.89034  0.029397871   0.02915942            4 
 2070000    0.9276847   -6.4654364    729.72932  0.029377187  0.029152667            6 
 2071000   0.90907106   -6.4978683    730.15341  0.029380066  0.029145832            8 
 2072000    0.9305575   -6.4719115    730.44295  0.029377532  0.029139034            3 
 2073000   0.93852685   -6.4676665    731.91793  0.029422654  0.029132301            5 
 2074000   0.94733139   -6.5053934    730.42171  0.029348349   0.02912556            9 
 2075000   0.92422887   -6.4778539    731.36932  0.029372262  0.029118731            5 
 2076000   0.92109315   -6.4883222    732.69738  0.029411423  0.029111922            9 
 2077000   0.92931766   -6.4905166    730.07777  0.029292159  0.029105037           15 
 2078000   0.93180547    -6.488427    732.45468  0.029373383  0.029098161            9 
 2079000   0.93921802   -6.4869469    732.14815  0.029346968  0.029091379            6 
 2080000   0.90305896   -6.4735388    732.38027  0.029342158  0.029084529            4 
 2081000    0.8897873   -6.4633172    732.83016  0.029346074  0.029077658            5 
 2082000   0.92023256   -6.4708138    731.77069  0.029289573  0.029070737           12 
 2083000   0.95448883    -6.503675     731.9004  0.029280701  0.029063904           12 
 2084000   0.92251763   -6.5109543     731.9097  0.029267023  0.029056993            5 
 2085000   0.92335191   -6.4907934    732.68155  0.029283835  0.029050041           25 
 2086000   0.91904777   -6.4899715    733.08776  0.029286024  0.029043118           10 
 2087000   0.88648864   -6.5049164    732.08622  0.029232001  0.029036139           17 
 2088000   0.90625649   -6.4941796    732.14897  0.029220505  0.029029139            6 
 2089000   0.93004352   -6.5067602    731.75253  0.029190702  0.029022163           11 
 2090000   0.90003229   -6.5213749    733.17277  0.029233364  0.029015207            7 
 2091000   0.92008418   -6.5086046    733.95398  0.029250517   0.02900836           18 
 2092000   0.91405802   -6.5009941    732.21201  0.029167145  0.029001513            4 
 2093000   0.92008027   -6.5233813    732.44351  0.029162427  0.028994598            4 
 2094000    0.9189309   -6.4592733     735.4394  0.029267725    0.0289877            5 
 2095000   0.91749275    -6.523963    736.38399  0.029291328  0.028980787            6 
 2096000   0.92712182   -6.4934248    731.77286  0.029094023  0.028973906           14 
 2097000   0.91440697   -6.4887608    735.28978  0.029219909  0.028967019            5 
 2098000   0.92007592   -6.4929828    734.95676  0.029192754  0.028960124           14 
 2099000   0.93477547   -6.4933953    735.21341  0.029189035  0.028953307            8 
 2100000   0.91911645   -6.5197522    734.19978  0.029134912  0.028946447           12 
 2101000   0.92873296   -6.4828368    735.48864  0.029172166  0.028939597           24 
 2102000   0.91563597   -6.4541672    737.39786  0.029233978  0.028932775           14 
 2103000    0.9122319   -6.5161842    735.02567  0.029126077  0.028925973            6 
 2104000   0.91645332   -6.4604465    738.27113  0.029240777  0.028919126            9 
 2105000   0.93133337   -6.5065489    736.04477  0.029138748  0.028912274            6 
 2106000   0.91345335   -6.5039088    735.70796  0.029111584  0.028905421           18 
 2107000   0.90159417   -6.4989081    735.83024  0.029102604  0.028898506            7 
 2108000   0.89939791   -6.4928243     738.0295  0.029175739  0.028891648           10 
 2109000   0.91463928   -6.4591163    736.37055  0.029096355  0.028884787           12 
 2110000   0.93311698   -6.4811722     738.0429  0.029148614  0.028877988            8 
 2111000   0.89997177   -6.4967425    736.31794  0.029066712  0.028871105           14 
 2112000   0.91055546   -6.4917557    737.66675  0.029106169  0.028864184            7 
 2113000   0.88965404   -6.5257463    736.54891  0.029048309  0.028857278            8 
 2114000   0.91224733   -6.5321584    736.05128  0.029014951  0.028850304           16 
 2115000    0.9118618   -6.5309268    735.91814  0.028995987  0.028843323            8 
 2116000   0.92273315   -6.5046255    739.58784  0.029126805  0.028836442            6 
 2117000    0.8935896   -6.5013907    737.57551  0.029033834  0.028829524            7 
 2118000   0.91702885   -6.5097927    738.66119  0.029062842  0.028822558           16 
 2119000   0.89601836   -6.4882292    737.92704  0.029020255  0.028815568           13 
 2120000   0.89259769   -6.5058039    737.94611  0.029007316  0.028808685           12 
 2121000   0.93967754   -6.5116332    738.26054  0.029005993  0.028801712           12 
 2122000    0.9080375   -6.5221323    739.87216  0.029055614  0.028794759            6 
 2123000    0.9001781   -6.5132136    738.02783  0.028969533  0.028787853            8 
 2124000   0.90674208   -6.4914471    739.78706  0.029024916  0.028780947           14 
 2125000   0.92328375   -6.5234598    738.07711    0.0289442  0.028774033            7 
 2126000   0.90755246   -6.5010361    739.89426  0.029001813  0.028767071           22 
 2127000   0.90549594   -6.5428157    740.84309  0.029025352   0.02876015           12 
 2128000   0.88939421   -6.5334785    737.43815  0.028878374  0.028753212            9 
 2129000   0.89921571   -6.5044738    739.40321  0.028941726  0.028746277            6 
 2130000   0.90019516   -6.4754916    740.85065  0.028984767  0.028739305            5 
 2131000   0.91082984    -6.540811    741.21436  0.028985389   0.02873239            9 
 2132000   0.89747547   -6.5299408    739.18873  0.028892618  0.028725439            7 
 2133000   0.90773677   -6.5189313    739.10788  0.028875914  0.028718492            8 
 2134000   0.90572814   -6.5222201    742.68026  0.029001885  0.028711527            9 
 2135000   0.90044979   -6.5076313    741.30913  0.028934783  0.028704581           16 
 2136000   0.89725726   -6.4770329     741.1117  0.028913534  0.028697627           12 
 2137000    0.9117851   -6.5416913    740.38239  0.028871564  0.028690618            7 
 2138000    0.8907009   -6.5233411     741.5171  0.028902288  0.028683574            4 
 2139000   0.89683604   -6.5252349    743.36295  0.028960689  0.028676559           14 
 2140000   0.91364735   -6.4863578    743.24446  0.028942541  0.028669681            5 
 2141000   0.91243179   -6.4961573    741.50422  0.028861288   0.02866292           13 
 2142000   0.90819973   -6.5220202    742.01158  0.028867553   0.02865605            5 
 2143000   0.91415978    -6.497817    741.41796  0.028830998  0.028649157           11 
 2144000   0.91448812   -6.5252307    744.19448  0.028925469  0.028642287            5 
 2145000   0.92611707   -6.4981066    740.48537  0.028767885  0.028635356           10 
 2146000   0.89383975   -6.5096672     744.4846  0.028909778  0.028628465           11 
 2147000   0.91406406   -6.5087509    745.23546  0.028925456  0.028621615            8 
 2148000     0.915569   -6.5203208    744.47077  0.028882323  0.028614759            6 
 2149000   0.91658814    -6.524005    742.61901  0.028797076  0.028607825            4 
 2150000   0.92026934   -6.5337794    744.66434  0.028862959  0.028600861            7 
 2151000    0.9174508    -6.532882    742.87585  0.028780252  0.028593881           15 
 2152000   0.91183463   -6.5387888    745.51839  0.028869207  0.028586988           12 
 2153000   0.91508503   -6.4862737    742.57774  0.028741978  0.028580023            4 
 2154000   0.89808283   -6.5362915    742.40001  0.028721758  0.028573056           20 
 2155000   0.91933352   -6.5093649    744.52652  0.028790662  0.028566102           15 
 2156000   0.93115062   -6.4918622     745.4625  0.028813486  0.028559191            7 
 2157000   0.89705705   -6.4992868    744.22351  0.028752261  0.028552249            8 
 2158000   0.89747146   -6.4557207    744.71115  0.028757768  0.028545177           18 
 2159000    0.9081215   -6.5054857    743.87277  0.028712088  0.028538259            6 
 2160000   0.90265447   -6.5496097    744.57022  0.028725703  0.028531264            9 
 2161000   0.91069068   -6.5263526    744.51411  0.028710246  0.028524355            6 
 2162000   0.91523083   -6.5175972     746.2736  0.028764786  0.028517409            9 
 2163000   0.89577311   -6.5092312    743.37655  0.028639873  0.028510439           10 
 2164000   0.89728112   -6.5063868    747.59576  0.028789116  0.028503515            5 
 2165000   0.89692347   -6.5345185    745.36194  0.028689836  0.028496663            9 
 2166000   0.92366262    -6.507612    746.00802  0.028701447  0.028489838           12 
 2167000   0.88957381   -6.5578147     747.6802  0.028752507  0.028482936           10 
 2168000   0.89543817   -6.5200192    747.46017  0.028730788  0.028476036            6 
 2169000   0.89647273   -6.5231632    746.74788  0.028690175  0.028469184           19 
 2170000   0.89078564   -6.5121721    747.37107  0.028700886  0.028462309           18 
 2171000   0.90749312   -6.5080743    747.21477  0.028681666  0.028455512           12 
 2172000   0.88560099   -6.5116741    747.84688  0.028692713  0.028448617           13 
 2173000    0.9080966   -6.5228598    748.07877  0.028688402  0.028441767           10 
 2174000   0.90327081   -6.5325114    748.37417  0.028686529  0.028434946            8 
 2175000   0.88289452   -6.5346314    747.36788  0.028634785  0.028428027            4 
 2176000   0.92280562   -6.5001616    748.84292  0.028678114  0.028421132            6 
 2177000   0.89820623   -6.5301448    749.61207  0.028694384  0.028414283           10 
 2178000   0.90723753   -6.5215969    748.21142  0.028627618  0.028407465           11 
 2179000   0.88291563   -6.5057808    748.82974  0.028638127  0.028400636           10 
 2180000   0.90727779   -6.4947944    749.62083   0.02865523  0.028393791            8 
 2181000   0.89527235   -6.5255916    750.08105  0.028659677  0.028386974           10 
 2182000   0.89995026   -6.5414318    748.23565  0.028576064  0.028380065            6 
 2183000   0.88954069   -6.5344247     750.1548  0.028636234  0.028373175            7 
 2184000   0.89813092   -6.5029534    751.45657  0.028672794  0.028366283            9 
 2185000   0.89191243    -6.486284    749.52093  0.028585848  0.028359477            7 
 2186000   0.87616673   -6.5117958    750.15868  0.028597083  0.028352643           13 
 2187000   0.93152301    -6.558243    750.64726  0.028602624  0.028345734            5 
 2188000   0.88821907   -6.5671842    748.94561  0.028524741  0.028338754            9 
 2189000   0.90120664   -6.5451635    748.12709   0.02848055  0.028331798           11 
 2190000   0.90277151   -6.5429817    750.77835   0.02856843  0.028324869            6 
 2191000   0.90071535   -6.5397382    750.73298  0.028553666  0.028318016            6 
 2192000   0.91220635   -6.5191174    753.02164  0.028627647  0.028311114            8 
 2193000   0.89805602   -6.5625797    749.71342  0.028488882  0.028304257            9 
 2194000    0.9081753   -6.5192989    751.64468  0.028549251  0.028297378           15 
 2195000    0.9117465   -6.5111151    751.35784  0.028525355  0.028290529            4 
 2196000   0.91013064   -6.5352211    751.81536  0.028529727  0.028283681           12 
 2197000    0.9069861   -6.5258277    752.26366  0.028533745  0.028276792            5 
 2198000   0.91585805   -6.5295077    752.25887  0.028520582  0.028269947           13 
 2199000   0.92085583   -6.5037573    752.89779  0.028531825   0.02826314            8 
 2200000   0.89744297   -6.5158891    755.23954  0.028607558  0.028256354           11 
 2201000     0.897892   -6.5599382    753.24689  0.028519116  0.028249537           11 
 2202000   0.90913153   -6.5006342    751.30745  0.028432768  0.028242652            5 
 2203000   0.90317169   -6.5527335    753.66095  0.028508888  0.028235752            5 
 2204000   0.88003539   -6.5010865    754.02702  0.028509794  0.028228929            6 
 2205000   0.91819491   -6.5215831    754.09041   0.02849926  0.028222126            7 
 2206000   0.91066167   -6.5242219    754.23377  0.028491756  0.028215323            4 
 2207000   0.90474618   -6.5339124    752.32916  0.028406931  0.028208453           13 
 2208000    0.9004968   -6.5276242    753.92638  0.028454347  0.028201591           12 
 2209000   0.87489155   -6.5244976      753.331  0.028419006   0.02819472            5 
 2210000   0.89068587   -6.5180494    754.67648  0.028456881  0.028187836            5 
 2211000   0.90139591   -6.5143691    753.92259  0.028415596  0.028180922           15 
 2212000   0.86883345   -6.5326788    753.50597  0.028387054  0.028173978           10 
 2213000   0.90251578    -6.580883    753.89661  0.028388937  0.028167063           11 
 2214000   0.91008243    -6.544418    754.14155  0.028385334  0.028160153           16 
 2215000   0.90201915   -6.5121455    756.61939  0.028465741  0.028153265           11 
 2216000   0.89815369   -6.5342929    755.43632  0.028408406  0.028146446            6 
 2217000   0.87544989   -6.5363744    756.89415  0.028450389   0.02813968           20 
 2218000   0.88770395   -6.5048955    756.80252  0.028434119  0.028132837            7 
 2219000   0.88803987   -6.5241087    756.02736  0.028392195  0.028126016           14 
 2220000   0.90473683   -6.5315875    755.71004  0.028367494  0.028119123            7 
 2221000   0.90387711   -6.5177786     754.4008  0.028305598  0.028112252           10 
 2222000   0.88809021   -6.5368787    755.31729  0.028327231   0.02810541           14 
 2223000   0.88797291   -6.5509472    756.25208  0.028349531  0.028098604           11 
 2224000   0.87971247   -6.5358923    755.53486  0.028309909   0.02809176           13 
 2225000   0.90487265    -6.540813     755.6724  0.028302337  0.028084948            8 
 2226000   0.90085057   -6.5159073    756.90895  0.028335914  0.028078141           13 
 2227000   0.89946207   -6.5511405    755.29602  0.028262836  0.028071311            9 
 2228000   0.90098422   -6.5401165    758.52079  0.028370766  0.028064493            5 
 2229000    0.9048655    -6.559956    757.56592  0.028322339  0.028057652            5 
 2230000   0.91252561   -6.5575613    755.52521  0.028233379  0.028050789            8 
 2231000   0.90276159   -6.5589513    757.67103  0.028300875  0.028043843           23 
 2232000   0.89406236   -6.5455175    756.21128  0.028233695  0.028036906            4 
 2233000    0.9001598   -6.5063459    756.72843   0.02824035  0.028029992            9 
 2234000   0.87988235   -6.5380903    757.98248  0.028274488  0.028023055            5 
 2235000   0.88006776   -6.5367178    759.23232  0.028308438   0.02801611           10 
 2236000     0.891207   -6.5492565    758.32228  0.028261862  0.028009244           22 
 2237000   0.91661308   -6.5391897    757.38409  0.028214278  0.028002302            9 
 2238000   0.89731824   -6.5443127    760.21452  0.028307064  0.027995386            9 
 2239000   0.88502915   -6.5375857     759.0173  0.028249862   0.02798852            6 
 2240000   0.90756915   -6.5634021    758.41895  0.028214991  0.027981624           10 
 2241000   0.89725529   -6.5714454     760.4217  0.028276874  0.027974772            6 
 2242000   0.89472548   -6.5332517    758.38159  0.028188432  0.027967936            9 
 2243000   0.87923119   -6.5308039    758.30067  0.028172859  0.027961133            8 
 2244000   0.89159856   -6.5597792    758.41438  0.028164527  0.027954303           10 
 2245000   0.89003535    -6.566273    759.02329  0.028174584  0.027947458           11 
 2246000   0.89534628   -6.5540574    759.96081  0.028196824    0.0279406            5 
 2247000     0.887869   -6.5543103    760.33864  0.028198288  0.027933825           12 
 2248000   0.89351486   -6.5637826     761.1132  0.028214457  0.027927165           12 
 2249000   0.89160273   -6.5593061    761.66134  0.028222222  0.027920543            6 
 2250000   0.89141766   -6.5402075      761.733  0.028212333  0.027913852           14 
 2251000   0.90269214   -6.5478895    761.42221  0.028188294  0.027907247            6 
 2252000    0.8813584   -6.5166608    764.34689  0.028284003  0.027900571            5 
 2253000   0.90728005   -6.5316224    762.97475  0.028220697  0.027893905            7 
 2254000   0.88667742   -6.5098009    763.92718  0.028243389  0.027887236           12 
 2255000   0.89790431   -6.5356704    761.95195  0.028157869  0.027880542            8 
 2256000   0.88963714   -6.5495676    761.37405  0.028124041  0.027873822           12 
 2257000   0.89103301    -6.548721    762.63802  0.028158249  0.027867059            7 
 2258000   0.88324768   -6.5552604    762.82374  0.028152633  0.027860291            8 
 2259000   0.89645794    -6.521887    762.69966  0.028135593  0.027853575            6 
 2260000   0.89885703   -6.5728629    761.48202  0.028078246   0.02784678           10 
 2261000   0.90010206   -6.5326661    762.63813  0.028108438   0.02784004            4 
 2262000   0.88505261    -6.517589    763.24316  0.028118301   0.02783326            6 
 2263000   0.87829074   -6.5473553    762.99106  0.028096592  0.027826476           10 
 2264000     0.897756   -6.5126207    762.38545  0.028061891  0.027819724           10 
 2265000   0.89350269   -6.5136245    763.36482  0.028085534  0.027812944            8 
 2266000   0.88317773   -6.5527586    763.94027  0.028094302  0.027806158            9 
 2267000   0.87505433   -6.5532841    763.74583  0.028074762  0.027799378            9 
 2268000   0.88943989   -6.5264843      762.888  0.028030864  0.027792569            7 
 2269000   0.87540486   -6.5579822    763.55447  0.028042988  0.027785855            9 
 2270000   0.87379085   -6.5719067    764.64937  0.028070828  0.027779057           22 
 2271000   0.87128033   -6.5435791    765.63751  0.028094728  0.027772311           22 
 2272000   0.90236554    -6.567792    762.85855  0.027980434  0.027765538            7 
 2273000   0.87809964   -6.5518233    763.94199  0.028007845  0.027758794            4 
 2274000   0.89468512   -6.5479991    765.98347  0.028070341  0.027752055           11 
 2275000   0.90429752   -6.5667657    763.88099  0.027980989  0.027745318           15 
 2276000   0.88944821   -6.5302167    765.54481  0.028029614  0.027738592            8 
 2277000   0.86843334    -6.555114    765.86463  0.028029008  0.027731884            7 
 2278000   0.89512251   -6.5784354    765.49507  0.028003185  0.027725218            4 
 2279000   0.88326045   -6.5522809    764.78443  0.027964912  0.027718482           20 
 2280000   0.86825819   -6.5547929    766.56095  0.028017579  0.027711727            6 
 2281000     0.890999   -6.5580997     767.7419   0.02804844  0.027704983            5 
 2282000   0.86569947   -6.5512119    765.05602  0.027938067  0.027698221            7 
 2283000   0.87745338   -6.5284875    767.05851  0.027998924  0.027691409            9 
 2284000   0.90459212   -6.5482106    765.70514  0.027937286  0.027684661            7 
 2285000    0.8822901   -6.5638451    766.29263  0.027946485  0.027677914            5 
 2286000   0.89500034   -6.5529548    766.88252  0.027955764   0.02767116           12 
 2287000   0.90305399   -6.5549115    766.46808  0.027928439  0.027664366           11 
 2288000    0.8901141   -6.5798574    766.56616  0.027919805  0.027657596            7 
 2289000     0.863942   -6.5309858     768.5348  0.027979278  0.027650874            5 
 2290000   0.88550311   -6.5830074    766.50621  0.027893239  0.027644138            7 
 2291000   0.87730439   -6.5425704    766.29482  0.027873375  0.027637397           11 
 2292000   0.90165223   -6.5453001     768.5776  0.027944212  0.027630672           17 
 2293000   0.89346141   -6.5669105    767.71268  0.027900592  0.027623945            6 
 2294000   0.86710331    -6.587006    764.90843   0.02778656  0.027617167           18 
 2295000   0.89226631   -6.5570905    767.30129   0.02786134  0.027610365           13 
 2296000   0.89338855   -6.5416277    768.49655  0.027892587  0.027603591           16 
 2297000   0.88401146   -6.5559619    769.28343  0.027908991  0.027596826            7 
 2298000   0.89278868   -6.5619083    767.41753  0.027829182  0.027590058           10 
 2299000   0.88681266   -6.5363693    767.32066  0.027813566  0.027583257            7 
 2300000   0.90245064   -6.5454773    767.91165  0.027822886  0.027576444           10 
 2301000   0.87246628   -6.5725895    767.43662  0.027793591   0.02756964            9 
 2302000   0.87856101   -6.5428232    768.10225  0.027805613  0.027562834           19 
 2303000   0.87117063   -6.5164837    767.78992  0.027782238    0.0275561           10 
 2304000   0.88957702    -6.548133    770.74451  0.027877044  0.027549394           10 
 2305000   0.88536091   -6.5402831    769.39248  0.027816069  0.027542763            7 
 2306000   0.90716259   -6.5654698    769.63682  0.027812837  0.027536066            9 
 2307000   0.87967481   -6.5583503     769.8432  0.027808236  0.027529299            6 
 2308000   0.89085609   -6.5658494    769.80106  0.027794666  0.027522596            7 
 2309000    0.8815914   -6.5450241    770.43983  0.027805682  0.027515885            7 
 2310000   0.88256626   -6.5745161    769.85189  0.027772435  0.027509119            9 
 2311000   0.88494553   -6.5553297    770.65336  0.027789318  0.027502384           13 
 2312000   0.89085308   -6.5565339    770.69982  0.027778973  0.027495615           17 
 2313000   0.88419112   -6.5463904    772.70474  0.027839196  0.027488867           14 
 2314000   0.88235653   -6.5782669    771.12645  0.027770327  0.027482103            7 
 2315000   0.88495257   -6.5710646      770.506  0.027735997  0.027475308           16 
 2316000   0.88817983   -6.5433504     771.9253   0.02777509  0.027468582           11 
 2317000   0.89566274   -6.5606817    769.53329  0.027677071  0.027461828           17 
 2318000   0.88040896    -6.561023    769.77427  0.027673795  0.027455044           11 
 2319000   0.88464145   -6.5676938    771.17954   0.02771236  0.027448289            6 
 2320000   0.88724813   -6.5689044    771.93452  0.027727533  0.027441584            8 
 2321000   0.88184598   -6.5909831    769.81129  0.027639354  0.027434819           10 
 2322000    0.8744977   -6.5768783    772.64924  0.027729301  0.027428021           14 
 2323000   0.85931816   -6.5745289    771.95975   0.02769263  0.027421183           18 
 2324000    0.8632337   -6.5739033    771.44674  0.027662319  0.027414365           13 
 2325000   0.88368058   -6.5281671    772.69463  0.027695148  0.027407576            6 
 2326000   0.87682704    -6.575664    773.46756  0.027710933  0.027400825            7 
 2327000   0.85856601   -6.6178619    772.68269  0.027670917  0.027394018           18 
 2328000   0.88754982   -6.5989651    770.42615  0.027578256  0.027387177           10 
 2329000   0.89319284   -6.5722564    771.16676  0.027592914  0.027380303            7 
 2330000   0.90908412    -6.546299    773.20911  0.027654117   0.02737352           11 
 2331000   0.87219234   -6.5310156    772.89933  0.027631179  0.027366766            7 
 2332000   0.87617314   -6.5726744    772.17861  0.027593575  0.027359978           15 
 2333000   0.89210472   -6.5614109    772.12272  0.027579751   0.02735317            4 
 2334000   0.89246142   -6.5526206    774.66653  0.027658759  0.027346383            9 
 2335000   0.85674474   -6.5585948     772.5005  0.027569611    0.0273396            6 
 2336000   0.89375583   -6.5681567    772.85596  0.027570489  0.027332862           10 
 2337000   0.90537816   -6.5574106    773.35414  0.027576456  0.027326091           14 
 2338000   0.85332237   -6.5477179    773.64202  0.027574922  0.027319332            5 
 2339000   0.86620123   -6.5473212    774.51852  0.027594361  0.027312528           20 
 2340000   0.87727428   -6.6057742    771.91822  0.027489965  0.027305703            8 
 2341000   0.87646573   -6.6051703    771.62679  0.027467848  0.027298821            7 
 2342000   0.87552876    -6.546728    771.71574  0.027459285  0.027291925            6 
 2343000   0.89018207   -6.5921696    772.72211  0.027483359  0.027285025            6 
 2344000   0.87663246   -6.5772693    772.95006  0.027479737   0.02727808           12 
 2345000   0.86941293   -6.5530893    774.32019  0.027516709  0.027271197            7 
 2346000   0.88457977   -6.5790846    774.39681  0.027507702  0.027264291           17 
 2347000   0.86776378   -6.5895567    774.74049  0.027508184  0.027257433           10 
 2348000   0.85416669   -6.5878114    775.68405  0.027529956  0.027250597           10 
 2349000   0.88410288    -6.590089    774.13482  0.027463276  0.027243749           11 
 2350000   0.88569209   -6.5612409    774.70017  0.027471637  0.027236845           20 
 2351000   0.87358112   -6.5722495    774.66756  0.027458796  0.027229936            8 
 2352000   0.87800708   -6.5999621    772.67817  0.027376636  0.027222986           10 
 2353000   0.88439636   -6.6013522    773.91064   0.02740865  0.027215983            8 
 2354000   0.86445161     -6.59311    774.23023   0.02740832  0.027209007            9 
 2355000   0.88194918   -6.5997723    774.29499  0.027398973  0.027202072           12 
 2356000   0.88009192   -6.5935574    773.96424  0.027375645  0.027195134           13 
 2357000   0.88113803   -6.5985136    773.57216  0.027350168   0.02718817            5 
 2358000   0.87758685   -6.5836479    773.39826  0.027332424  0.027181177           20 
 2359000   0.87715983   -6.5824584    773.45696  0.027322911  0.027174132            7 
 2360000   0.86448585    -6.553335    776.73249  0.027426995  0.027167107            7 
 2361000   0.88869239   -6.5478486    774.36056  0.027331659    0.0271601            9 
 2362000   0.87539089   -6.5507296    773.62575  0.027294163  0.027153101            7 
 2363000    0.8646829   -6.5644493     775.4565  0.027347175  0.027146061            9 
 2364000   0.87903084   -6.5733687    774.64322  0.027306938  0.027139059            7 
 2365000   0.89370419   -6.5724755    773.94962  0.027270952  0.027131989           12 
 2366000   0.86123107   -6.5810651    774.43756  0.027276612  0.027124911            8 
 2367000   0.88098112   -6.5752936    775.29644  0.027295326  0.027117887           14 
 2368000   0.86386573    -6.566183    773.27007  0.027212489   0.02711081            8 
 2369000   0.86965144    -6.556078    775.17348  0.027267957  0.027103733           13 
 2370000   0.86429038   -6.5849643    772.23498  0.027153129  0.027096604            7 
 2371000   0.89026481    -6.613494     774.1965  0.027210618  0.027089448            6 
 2372000   0.86186416   -6.5860486    774.51507  0.027210338  0.027082359            6 
 2373000   0.89032742   -6.5838712    774.44175  0.027196297  0.027075255            5 
 2374000   0.85869929   -6.6009249    773.96879  0.027168239  0.027068194           13 
 2375000    0.8842069    -6.584497    773.84136  0.027152328  0.027061148           19 
 2376000   0.87429494    -6.627638    774.95908  0.027180102  0.027054062           24 
 2377000    0.8778287   -6.5925628    775.27063   0.02717959  0.027046919           10 
 2378000   0.85397068   -6.5857794    777.19414  0.027235567  0.027039852            7 
 2379000   0.86173698   -6.5462397    777.03839  0.027218663  0.027032855           11 
 2380000   0.85446992   -6.6063627    778.60169  0.027261964  0.027025838           14 
 2381000   0.88547202   -6.5884481    777.27539  0.027204094  0.027018827            5 
 2382000   0.86107072   -6.5925768    775.34599  0.027125175  0.027011837           11 
 2383000    0.8737567   -6.5722654    779.42554  0.027256453  0.027004843           22 
 2384000   0.87383447   -6.5704665     779.2837  0.027240062  0.026997834            9 
 2385000   0.88913511   -6.5895973    778.71159  0.027208651  0.026990884           10 
 2386000   0.89550546   -6.5999497    777.39386  0.027151224  0.026983903           19 
 2387000   0.87598495   -6.6049297     775.8388  0.027085561  0.026976886           10 
 2388000   0.87674761   -6.6015249    776.93476  0.027112464  0.026969924            5 
 2389000   0.87705929   -6.6002124    778.51455  0.027156221  0.026962978            7 
 2390000   0.86959163   -6.5534749    778.82673  0.027155744  0.026956046            5 
 2391000    0.8477567   -6.5736136    778.81366  0.027143931  0.026949191            6 
 2392000   0.85783108   -6.6260482    778.25851  0.027113242  0.026942263           11 
 2393000   0.86151828   -6.5879814    780.49336  0.027179738   0.02693533           13 
 2394000   0.88187783   -6.5953376    777.87635  0.027077289  0.026928379           15 
 2395000   0.86191775   -6.5924109     777.9218  0.027067564  0.026921437            8 
 2396000   0.86277124   -6.5854731    778.60292  0.027079957  0.026914453            9 
 2397000   0.85725536   -6.5992204    779.39424   0.02709617  0.026907439           13 
 2398000    0.8791105   -6.5923621    780.76885   0.02713264  0.026900471           27 
 2399000    0.8859071   -6.5780411    778.86318  0.027055133  0.026893475            6 
 2400000   0.87427407   -6.5911022    780.08207  0.027086183  0.026886495            8 
 2401000   0.86835696    -6.578315    777.26315  0.026977064   0.02687951           13 
 2402000   0.85711782   -6.6177733    777.92271  0.026988714   0.02687248           19 
 2403000   0.87324538   -6.5546862    779.69456  0.027038929  0.026865507            9 
 2404000   0.88360372   -6.6022222    780.25812  0.027047217  0.026858566           12 
 2405000   0.85795294   -6.6067149    781.12357  0.027065959  0.026851599           12 
 2406000   0.87226977   -6.6039044    779.71571  0.027005947   0.02684454           28 
 2407000   0.87104043   -6.5922166    779.48432  0.026986716   0.02683754            8 
 2408000   0.85846515   -6.5928272    780.12622  0.026997724  0.026830587            6 
 2409000   0.87262541   -6.5857614    780.36294  0.026994705  0.026823634            9 
 2410000    0.8665887   -6.5786172    783.07968  0.027077444  0.026816716           13 
 2411000   0.85575581   -6.6039978     781.8727  0.027024495  0.026809775           13 
 2412000   0.87198935   -6.6073902     781.9711  0.027016691  0.026802816           10 
 2413000   0.84841745   -6.5993185     780.4616  0.026953364  0.026795863           10 
 2414000   0.87446302   -6.6055439    780.17727  0.026932383  0.026788937           12 
 2415000    0.8769577   -6.6248772    782.99919  0.027018606  0.026781998            3 
 2416000   0.85985066   -6.6069327    782.13195  0.026977509  0.026775053            8 
 2417000   0.87172411   -6.6000155    782.05949  0.026963849  0.026768144            7 
 2418000   0.87406552   -6.5973571    785.26346  0.027063119  0.026761294           15 
 2419000    0.8721994   -6.5605191      785.572   0.02706256  0.026754489           23 
 2420000   0.86231047   -6.5745666    782.89684  0.026959258  0.026747708           10 
 2421000   0.85840671   -6.5732939    784.60572  0.027006943  0.026740912            9 
 2422000   0.86273622   -6.5862411    784.32739  0.026986216  0.026734107            7 
 2423000    0.8806102    -6.606946    784.08757  0.026966831  0.026727324           19 
 2424000    0.8338708   -6.5888602    784.99168  0.026986788  0.026720527            6 
 2425000   0.87068436   -6.5902081     784.9909  0.026975632  0.026713781            7 
 2426000    0.8624092   -6.5988732    783.35505  0.026908321  0.026706967           13 
 2427000   0.85395495   -6.6088536    785.02232  0.026954482  0.026700151            5 
 2428000   0.86990617   -6.5917868    784.46225  0.026924157  0.026693294            8 
 2429000   0.86097584   -6.6360845    783.92735  0.026894722  0.026686449            9 
 2430000   0.84303878   -6.5802864    786.20667   0.02696182  0.026679638           17 
 2431000   0.86627325   -6.5931402    783.89061  0.026871336   0.02667285            6 
 2432000   0.88375399   -6.5768519    785.42002  0.026912693  0.026666045           15 
 2433000   0.85910863   -6.6040604    784.67785  0.026876211  0.026659227            6 
 2434000   0.85636071    -6.583134    787.40663  0.026958594  0.026652395           12 
 2435000   0.87345929   -6.6097434    785.19144  0.026871712  0.026645622            7 
 2436000   0.87087571   -6.6092737    786.43505  0.026903224  0.026638866           15 
 2437000   0.86331639   -6.6230491    787.49362  0.026928382  0.026632055           21 
 2438000    0.8708643   -6.6114758    788.15355  0.026939894  0.026625295           45 
 2439000   0.85224304   -6.5643381     787.7983  0.026916711  0.026618568            5 
 2440000    0.8527561   -6.6065481    787.78556  0.026905245  0.026611822            8 
 2441000   0.85099359    -6.630256    784.12982  0.026769419  0.026605051            9 
 2442000   0.86099468   -6.6139228    784.25653  0.026762781  0.026598181            6 
 2443000   0.87666764   -6.6048907     786.0359  0.026812522  0.026591348           13 
 2444000   0.85596503   -6.5795446    787.01291  0.026834865   0.02658452           20 
 2445000   0.83883103   -6.6097733    786.12373  0.026793583  0.026577703           21 
 2446000   0.85828265   -6.6097142      787.302  0.026822772  0.026570933           12 
 2447000   0.84825123   -6.6025406    787.56165  0.026820653  0.026564187            6 
 2448000   0.86357833   -6.5782816    790.01663  0.026893268   0.02655743            5 
 2449000   0.84611035   -6.6180762    786.36125  0.026757903  0.026550681            9 
 2450000   0.85951537   -6.6105607    789.12274   0.02684091   0.02654393           12 
 2451000   0.87106716   -6.6349753    788.54597  0.026810349  0.026537149            4 
 2452000   0.87760556   -6.6016744    788.83269  0.026809159  0.026530392            8 
 2453000   0.83275916   -6.5919912    787.44668  0.026751144  0.026523624            7 
 2454000   0.85671705   -6.6183756    790.72231  0.026851477  0.026516866           13 
 2455000   0.85968714   -6.6299728    788.49251  0.026764851  0.026510111           10 
 2456000   0.85720589   -6.6153005    790.25931  0.026813902  0.026503375           30 
 2457000   0.83839981   -6.6058502    789.15152  0.026765416  0.026496609           12 
 2458000   0.85316469   -6.5998686    790.92481  0.026814646  0.026489929           11 
 2459000   0.84375541    -6.595134    789.57953  0.026758151  0.026483291           11 
 2460000   0.85297019   -6.6030617    790.03317  0.026762641  0.026476633           10 
 2461000   0.85248711   -6.6225004    789.69805  0.026740419  0.026469943            8 
 2462000   0.86482737   -6.6245431    791.74642  0.026798891  0.026463202            9 
 2463000   0.85844585   -6.6074514     790.7342  0.026753762  0.026456462            7 
 2464000   0.85930882   -6.5988452    788.44744  0.026665566  0.026449713           12 
 2465000   0.85680933     -6.61711    790.04918  0.026708897   0.02644296            6 
 2466000   0.86520252   -6.6089957    789.29843  0.026672696  0.026436262            8 
 2467000   0.87559796   -6.6025085    792.15934  0.026758524  0.026429563           10 
 2468000   0.85213184   -6.6042413    790.75434  0.026700241  0.026422847           19 
 2469000   0.85629154   -6.6225814    788.31656  0.026607147  0.026416035            9 
 2470000   0.86825527   -6.5993209    791.90304  0.026717376  0.026409259            9 
 2471000   0.85357724   -6.6402958    791.95359  0.026708269  0.026402507            6 
 2472000    0.8520598   -6.6167835    789.56259  0.026616862  0.026395719           12 
 2473000    0.8533926   -6.5936651    791.21645  0.026661829  0.026388922           11 
 2474000   0.88800741    -6.605606    789.22197  0.026583871  0.026382182           10 
 2475000   0.85701908   -6.6397229     791.7103  0.026656912  0.026375419           18 
 2476000    0.8492166   -6.6596783    791.89448  0.026652345  0.026368648           20 
 2477000   0.85600016   -6.6432112    792.49347  0.026661737  0.026361807            6 
 2478000   0.86507343   -6.6003015    792.29779  0.026644397  0.026355007           10 
 2479000   0.84372657   -6.5681038     793.3513  0.026669064  0.026348282           38 
 2480000   0.85187619   -6.6237059    792.20747  0.026619875  0.026341552           11 
 2481000    0.8373075   -6.6011498    791.60275  0.026588833  0.026334818            9 
 2482000   0.86374453   -6.6288455    792.39113  0.026604591  0.026328099            4 
 2483000   0.86444627   -6.5825171    792.54125  0.026598914  0.026321391            4 
 2484000   0.85345632   -6.6048833    791.97452  0.026569193  0.026314644            6 
 2485000   0.84593146   -6.6308608    793.25535  0.026601454  0.026307902           17 
 2486000   0.84493745   -6.6243061    791.83818  0.026543248  0.026301171           17 
 2487000   0.86506619   -6.6190353    792.55412  0.026556565  0.026294437           17 
 2488000   0.87996565   -6.6074302    791.70015  0.026517288  0.026287641           21 
 2489000   0.84169973   -6.6327989    793.05936  0.026552141  0.026280891           19 
 2490000   0.85831379   -6.6248342    792.19699  0.026512617  0.026274133           14 
 2491000   0.84666293   -6.6412899    793.23702  0.026536766  0.026267391           11 
 2492000   0.84883625   -6.6065538    794.86219  0.026580464   0.02626064           12 
 2493000   0.85381301   -6.6284541    793.68158  0.026530338  0.026253885            7 
 2494000    0.8463652   -6.6093056    794.65741  0.026552306  0.026247119            8 
 2495000   0.84897503   -6.5960746    792.92249  0.026483717   0.02624043           11 
 2496000   0.84578872   -6.6343701    794.81577  0.026536317  0.026233799           11 
 2497000   0.84865795   -6.6009536    796.12562  0.026569404  0.026227097           16 
 2498000   0.85634989   -6.6159975    794.91775  0.026518473  0.026220361           15 
 2499000   0.84625693   -6.5705596    793.17967  0.026449902  0.026213691           25 
 2500000   0.83845094   -6.6449902    795.48769  0.026516256  0.026206982           13 
 2501000   0.85247854   -6.5957201    795.95918  0.026521364  0.026200323           11 
 2502000   0.84398364   -6.6306456    797.35099  0.026557121  0.026193705           12 
 2503000   0.85466861   -6.6476443    796.39017  0.026514521  0.026187034           12 
 2504000   0.84985289   -6.6285196    795.05464  0.026459486  0.026180355           20 
 2505000   0.86099802   -6.5881419    795.26854  0.026456039  0.026173699           18 
 2506000   0.85524019   -6.6316558    793.69602   0.02639319  0.026166978           34 
 2507000   0.84384943   -6.6398888    794.03721  0.026394004  0.026160214           23 
 2508000   0.86799411    -6.614125    794.84585  0.026410348  0.026153453           23 
 2509000   0.83378829   -6.6381279    795.87826  0.026434113  0.026146698           12 
 2510000   0.85177622   -6.6300352    795.77904  0.026420287  0.026139994           10 
 2511000   0.83544133   -6.5957064    796.42366  0.026431158  0.026133289           28 
 2512000   0.85181761   -6.6105471    794.84184  0.026368161  0.026126595            9 
 2513000   0.85504876   -6.6325143    796.49508  0.026412491  0.026119904            6 
 2514000   0.83700624   -6.6567955    796.44521  0.026400332  0.026113169           33 
 2515000   0.84758422   -6.6614415    796.42783  0.026389259  0.026106384           18 
 2516000   0.83996697   -6.6262054    795.95626  0.026363151  0.026099619           22 
 2517000   0.84840354   -6.6203044    796.44623  0.026368899  0.026092891           15 
 2518000   0.84149269   -6.6291079    794.03089  0.026278491  0.026086162           11 
 2519000   0.85159313    -6.627385    797.84274  0.026394162  0.026079422           21 
 2520000   0.83538216   -6.6378612    796.21837  0.026329973  0.026072713           14 
 2521000   0.85756062   -6.6338847    797.53002  0.026362886  0.026065991           12 
 2522000   0.85817016   -6.6385388    797.14378   0.02633967  0.026059275           18 
 2523000   0.86091821   -6.6403599    797.28578  0.026333921  0.026052617           11 
 2524000   0.84613606   -6.6348933    798.16562  0.026352536   0.02604592           14 
 2525000   0.83979499   -6.6216286    797.06889  0.026305904  0.026039226           10 
 2526000      0.84599   -6.6373265    797.70084  0.026316338  0.026032531           14 
 2527000   0.86940766   -6.6406585    798.55537  0.026334104  0.026025849            7 
 2528000   0.84086314   -6.6320141    798.44956  0.026320199  0.026019151           23 
 2529000    0.8412698   -6.6487809    797.02381  0.026262812  0.026012449            8 
 2530000   0.83977324   -6.6492064    798.79582  0.026310798  0.026005696           18 
 2531000   0.85474457   -6.6547223    795.77465   0.02620093  0.025998982           10 
 2532000   0.84748911   -6.6394333    795.49008  0.026181216  0.025992254           27 
 2533000    0.8580975   -6.6360915    799.72875  0.026310329  0.025985528           16 
 2534000   0.87019445   -6.6337324    799.42149  0.026289841  0.025978899           15 
 2535000   0.83509942   -6.6470056    799.30847  0.026275755  0.025972256           24 
 2536000   0.84449623   -6.6537069    800.18436  0.026294176  0.025965581           15 
 2537000   0.83715997   -6.6461827    799.45434  0.026259832  0.025958925           12 
 2538000   0.85866732   -6.6406999    799.91936  0.026264754  0.025952306           20 
 2539000   0.82625923   -6.6521306      800.751  0.026281705  0.025945689           16 
 2540000   0.84670958   -6.6433049    800.94462   0.02627771  0.025939065           30 
 2541000   0.84702826   -6.6485938    799.05711  0.026205467  0.025932432           12 
 2542000   0.84361813   -6.6321354    801.67319   0.02628092  0.025925813            8 
 2543000   0.83350507   -6.6437213    800.15428  0.026220811  0.025919179           18 
 2544000   0.85879108     -6.66017    800.10005  0.026208728  0.025912514           14 
 2545000   0.84136535   -6.6473762     801.9731  0.026259761  0.025905939           12 
 2546000   0.83549819   -6.6335303    802.98166  0.026282458  0.025899363            7 
 2547000   0.83104097   -6.6048806    801.54198  0.026225035  0.025892796           13 
 2548000   0.83411171   -6.6480466    800.04274   0.02616571  0.025886196           12 
 2549000   0.83189747   -6.6453517    800.19866  0.026160542  0.025879614           14 
 2550000   0.86052488   -6.6330996    801.05558  0.026178287  0.025872996           17 
 2551000   0.85393788   -6.6440791    801.28778   0.02617561  0.025866382           14 
 2552000   0.82635854   -6.6222276    801.27978  0.026165092  0.025859801           14 
 2553000   0.83944066    -6.666817    803.66734  0.026232777  0.025853239           27 
 2554000   0.86122261   -6.6425686    802.18852  0.026174254  0.025846657           17 
 2555000   0.84393981   -6.6546601    801.88525  0.026154118  0.025840021           21 
 2556000    0.8366742   -6.6544185    802.69627  0.026170327  0.025833428           12 
 2557000   0.83714726   -6.6438152    802.09902  0.026140628  0.025826784           34 
 2558000   0.84938337   -6.6449677    800.90698  0.026091575  0.025820095           18 
 2559000   0.85511716   -6.6474965    801.81384   0.02611091  0.025813431           17 
 2560000   0.83991758   -6.6244316    801.33625  0.026085164  0.025806793            9 
 2561000   0.85077649   -6.6257502    801.11018  0.026067623  0.025800132           13 
 2562000   0.83683198    -6.635713    803.60014  0.026138438  0.025793495           24 
 2563000   0.84380252   -6.6364065    802.92441  0.026106269  0.025786844            7 
 2564000   0.84619291   -6.6385711    802.47162  0.026081371  0.025780179           15 
 2565000   0.83084319   -6.6133983    801.76137  0.026048128  0.025773574            8 
 2566000   0.86050691   -6.6411205    802.40742  0.026058957  0.025766895           13 
 2567000   0.85500046   -6.6312572    803.19275    0.0260743  0.025760238            8 
 2568000   0.85442568   -6.6533998    801.56608   0.02601136  0.025753512           16 
 2569000   0.83728461   -6.6380162    804.12657  0.026084292  0.025746808           20 
 2570000   0.84310118   -6.6186714    805.51294  0.026119096  0.025740176           11 
 2571000     0.853114   -6.6700211    803.41995  0.026041098  0.025733513           15 
 2572000   0.83631479   -6.6288808     803.1754   0.02602305  0.025726848           14 
 2573000   0.82514081   -6.6238505    802.57936  0.025993631  0.025720218           23 
 2574000    0.8519471   -6.6411839    805.32464  0.026072411  0.025713604           14 
 2575000   0.85040578   -6.6160453    803.31263  0.025997173     0.025707            8 
 2576000   0.83938694   -6.6486445    804.55748  0.026027351  0.025700352           26 
 2577000   0.82463808   -6.6823846    805.21974  0.026038667  0.025693683           22 
 2578000    0.8291227   -6.6452798    805.31172   0.02603154  0.025687002           31 
 2579000   0.82956226   -6.6345294    806.41072  0.026056957  0.025680415           11 
 2580000   0.82893136   -6.6085468     804.3952  0.025981757  0.025673795           18 
 2581000   0.83104529   -6.6457233    804.97765  0.025990496  0.025667217           15 
 2582000   0.82877298   -6.6423088    803.98286  0.025948324  0.025660574           12 
 2583000   0.84863916    -6.642882    805.64355  0.025991856  0.025653964            9 
 2584000   0.84725708   -6.6410497    805.33664  0.025971899  0.025647349            8 
 2585000   0.83378546   -6.6615935    803.88093  0.025914924  0.025640729            9 
 2586000   0.83661809   -6.6498126    806.67542  0.025994954  0.025634085           11 
 2587000   0.84735255   -6.6310599    804.09566  0.025901806  0.025627444            6 
 2588000   0.82717098   -6.6253909    805.33815  0.025931806  0.025620809           12 
 2589000   0.83280426   -6.6776136    805.29649  0.025920449   0.02561415           24 
 2590000   0.85440291   -6.6518394    805.47961  0.025916332  0.025607473           32 
 2591000   0.84350525   -6.6766328    805.02871  0.025891828   0.02560081           41 
 2592000   0.84184926   -6.6550773    805.76751  0.025905591  0.025594157           13 
 2593000   0.83741409   -6.6456159    804.06885  0.025841009  0.025587447           10 
 2594000   0.83635592   -6.6696352    804.99747   0.02586088  0.025580711            9 
 2595000   0.84492591   -6.6816613    803.61314  0.025806459  0.025573986            9 
 2596000   0.83133394   -6.6827915    806.05038  0.025874755  0.025567258            8 
 2597000   0.82522346   -6.6470213    803.81367   0.02579302  0.025560453           11 
 2598000   0.81658132   -6.6332908    805.77094  0.025845873  0.025553704           12 
 2599000   0.85019885    -6.663559    804.56906  0.025797392  0.025546971           17 
 2600000   0.84612221   -6.6383329    805.76414  0.025825774   0.02554025           12 
 2601000   0.84852714   -6.6737269    804.86442  0.025787019  0.025533504           13 
 2602000   0.81870757   -6.6648934    805.12447  0.025785437  0.025526767            9 
 2603000    0.8277536   -6.6644921    805.13023  0.025775715  0.025520047           18 
 2604000   0.83656412   -6.6509956    806.12052  0.025797508  0.025513302           43 
 2605000   0.83143898   -6.6536369    807.66464  0.025837001   0.02550657           12 
 2606000   0.82932121   -6.6551398    805.95183  0.025772315   0.02549984           26 
 2607000   0.83629295   -6.6328246    807.11764  0.025799694  0.025493153            7 
 2608000   0.81787415   -6.6726676    805.63464  0.025742416  0.025486465            5 
 2609000   0.81484067   -6.6512093    806.61609  0.025763897   0.02547977           12 
 2610000   0.83282594   -6.6520287    806.40011   0.02574713  0.025473072            9 
 2611000     0.808624   -6.6364414    805.36678  0.025704289  0.025466398           14 
 2612000   0.81907293   -6.6587619     806.1736  0.025720189  0.025459722            5 
 2613000   0.83477528   -6.6404097    807.40404  0.025749587  0.025453058            9 
 2614000   0.83227285   -6.6456366    807.84109  0.025753669  0.025446379            8 
 2615000   0.84143438   -6.6554242    808.48747  0.025764419  0.025439669           11 
 2616000   0.82067431   -6.6724982    804.88596  0.025639843  0.025432996           29 
 2617000   0.82559482   -6.6481281    806.47691  0.025680707  0.025426324           11 
 2618000   0.86335816   -6.6488015    808.03322  0.025720436  0.025419674            7 
 2619000     0.853493   -6.6482292    807.28628  0.025686849  0.025413061           10 
 2620000   0.83428497    -6.667554    807.07446  0.025670307  0.025406389           10 
 2621000   0.84095471   -6.6841018    806.35303  0.025637576  0.025399678           19 
 2622000   0.81945392   -6.6663446    805.58813  0.025603488  0.025392899           14 
 2623000   0.82177299   -6.6923246    806.19867  0.025613123    0.0253861           32 
 2624000   0.81912247   -6.6747757    804.78615  0.025558503  0.025379301           18 
 2625000   0.81366646   -6.6541191    804.34002  0.025534604  0.025372492           12 
 2626000   0.84447314   -6.6439575    805.75119  0.025569662  0.025365701            8 
 2627000   0.83019752   -6.6244018    807.88493  0.025627615  0.025358928           19 
 2628000    0.8305091   -6.6713652    808.24152   0.02562917  0.025352113           19 
 2629000   0.84173434   -6.6649924     805.1859  0.025522566  0.025345272           15 
 2630000   0.81687744   -6.6742639    807.15368  0.025575212  0.025338418            5 
 2631000   0.83155598   -6.6655714    807.01521  0.025561105  0.025331598           18 
 2632000   0.83095299    -6.672127    807.25765  0.025559069  0.025324803            9 
 2633000   0.83056197   -6.6412341    809.03605  0.025605648  0.025318054           11 
 2634000   0.83249305   -6.6524338    807.08288  0.025534133  0.025311301           24 
 2635000   0.84036468   -6.6324522      807.962  0.025552245  0.025304486            4 
 2636000   0.84170213   -6.6391111    806.30809  0.025490266  0.025297691           15 
 2637000   0.82726284   -6.6873831    808.64498  0.025554449  0.025290904           10 
 2638000   0.83255341   -6.6448341    808.57756  0.025542632  0.025284135            8 
 2639000    0.8546533   -6.6811816    808.88276  0.025542591  0.025277339           17 
 2640000   0.81632383   -6.6680404    806.09913  0.025445048  0.025270513            8 
 2641000   0.83126817    -6.699989    806.76728  0.025456496  0.025263709            6 
 2642000   0.81999992   -6.6874429    807.41101  0.025467165  0.025256845           12 
 2643000   0.82483548   -6.6570362    808.76284  0.025500153  0.025250055            6 
 2644000   0.84417294   -6.6988174    808.34595  0.025477369  0.025243251           31 
 2645000   0.81995469   -6.6847037    807.29712  0.025434692  0.025236433           14 
 2646000   0.80991534   -6.6749704    807.82618  0.025441742  0.025229616            6 
 2647000   0.83812849   -6.6528281     809.9527  0.025499078   0.02522285           12 
 2648000   0.82786568   -6.6713195      809.545  0.025476618  0.025216079            9 
 2649000   0.82306482   -6.6947877    808.99949  0.025449839  0.025209344           14 
 2650000   0.82551168   -6.6797249     810.8201  0.025497487  0.025202594            7 
 2651000   0.81569107   -6.6772667    809.05577  0.025432408  0.025195798            6 
 2652000   0.82188061   -6.6549184    809.02465   0.02542184  0.025189035           18 
 2653000   0.80503116    -6.663815    810.04889   0.02544443   0.02518227           15 
 2654000   0.81794332   -6.7016243    808.77611  0.025394879  0.025175457           21 
 2655000   0.82872458   -6.6634155    810.50331  0.025439526  0.025168697            8 
 2656000   0.83188562   -6.6503187    807.99644  0.025351294  0.025161932           14 
 2657000   0.81408144   -6.7030962    808.94955  0.025371646  0.025155114            9 
 2658000   0.83486018   -6.6960819    807.30141  0.025310428  0.025148269            8 
 2659000   0.82891695   -6.7045812    809.73895  0.025377302   0.02514145           11 
 2660000    0.8271757   -6.6752367    808.90132   0.02534152  0.025134659            9 
 2661000   0.81362665   -6.6300494     809.8847  0.025362793  0.025127868           19 
 2662000   0.82695406   -6.6493798    809.00419  0.025325701  0.025121112           15 
 2663000   0.80991342   -6.6974287    811.76608  0.025402619  0.025114335           10 
 2664000   0.83919365   -6.7071765    811.62757   0.02538875  0.025107557            9 
 2665000   0.83664532   -6.6624565    810.70359  0.025350331  0.025100785           11 
 2666000    0.8259407   -6.6867195    809.94703  0.025317174   0.02509402           16 
 2667000   0.82507714   -6.6692213    808.89214   0.02527472  0.025087273           16 
 2668000    0.8199148   -6.6818115    810.17017  0.025305165  0.025080524           16 
 2669000   0.83250042   -6.6417204    812.96288   0.02538288  0.025073779           15 
 2670000   0.83907028   -6.6742281    809.55286  0.025266943  0.025067021            8 
 2671000   0.81237165    -6.666774    809.23665  0.025247618  0.025060269            7 
 2672000   0.81125752   -6.6945023    809.78493  0.025255268  0.025053502            8 
 2673000   0.81178015   -6.6755426    809.40557  0.025233993  0.025046733           15 
 2674000   0.82988842   -6.7093826    810.54478  0.025260059  0.025039956           10 
 2675000   0.83085094   -6.6706418    811.41237  0.025277644  0.025033226            6 
 2676000   0.82688005   -6.6363365     815.5101  0.025395805  0.025026534            8 
 2677000   0.81783641   -6.6689086    812.50178  0.025292671  0.025019858           15 
 2678000   0.83807608   -6.6753169    811.23127  0.025243691  0.025013151           10 
 2679000   0.81649371   -6.6883918    810.91259  0.025224356  0.025006409           24 
 2680000   0.83425643   -6.6711029    811.16255  0.025222716   0.02499967           15 
 2681000   0.82911708   -6.6800645    812.02434  0.025240095  0.024992919           13 
 2682000   0.81074048   -6.6741484    814.57014  0.025309785  0.024986157            9 
 2683000   0.83188357   -6.6972643    810.92092  0.025187008   0.02497937           10 
 2684000   0.82031473   -6.6889801    812.26986  0.025219506  0.024972537           16 
 2685000   0.82262621   -6.6587584    811.81579  0.025196021  0.024965717           16 
 2686000   0.83629827   -6.6817997    812.02907  0.025193257  0.024958918           27 
 2687000   0.81612283   -6.6625137    812.85152  0.025209388   0.02495217           11 
 2688000   0.81910743   -6.6555032     813.3053  0.025214078  0.024945432           12 
 2689000    0.8210232   -6.6699075    810.95819  0.025131963  0.024938696            9 
 2690000   0.82527715   -6.6964037    811.32631  0.025134024   0.02493191            9 
 2691000   0.82958726   -6.6732606    814.51369   0.02522339   0.02492516           15 
 2692000   0.84216221   -6.6842653    811.96766  0.025135205  0.024918367            6 
 2693000   0.81032459    -6.681202     811.3563  0.025106953  0.024911531           31 
 2694000   0.82414631   -6.6842808    812.98624  0.025148053   0.02490475           15 
 2695000   0.80364434   -6.6591173    812.08236  0.025110772   0.02489794           16 
 2696000   0.80766358   -6.6938452     811.7243   0.02509039  0.024891099            8 
 2697000   0.82718498   -6.6980406    812.11736  0.025093232  0.024884255           16 
 2698000   0.81663853   -6.6753802    812.00192  0.025080366   0.02487742           16 
 2699000   0.81300243   -6.6846615    811.76926   0.02506389  0.024870568           29 
 2700000   0.83495473    -6.689601    812.62129  0.025080904  0.024863753           18 
 2701000    0.8196637   -6.6894141    812.82004   0.02507775  0.024856912           10 
 2702000   0.82854106   -6.7118614    811.66631  0.025032886  0.024850075           17 
 2703000   0.79396158   -6.6998397    811.65086  0.025023149  0.024843251           19 
 2704000   0.83487396   -6.7084472    814.40342  0.025098725  0.024836441           14 
 2705000   0.82143626   -6.6906064     813.2438  0.025053722  0.024829658           21 
 2706000   0.82064092   -6.6692346    815.33631  0.025108903  0.024822889            7 
 2707000   0.81455269   -6.7045309    813.89897   0.02505538  0.024816096           16 
 2708000   0.80774089   -6.6951717    811.94796  0.024986089  0.024809276           10 
 2709000   0.82526497   -6.6935929    813.79212  0.025033595  0.024802497           41 
 2710000   0.81150957   -6.6922921    814.43308  0.025044068  0.024795713           34 
 2711000   0.81154239     -6.69329    812.61153  0.024978837  0.024788951           21 
 2712000   0.80808932   -6.7069688    815.86128  0.025069484   0.02478215           13 
 2713000   0.82470711   -6.6903391    814.42582  0.025016151  0.024775393           15 
 2714000   0.80599283   -6.6996541    813.62595  0.024982374  0.024768601           22 
 2715000   0.81010263   -6.7211669    815.26715  0.025023547  0.024761766            7 
 2716000   0.82162221   -6.7228747    813.05964  0.024946602  0.024754981           17 
 2717000   0.81107476   -6.6791022    814.33013  0.024976387  0.024748189            9 
 2718000    0.8021955   -6.7017291    814.94811  0.024986145  0.024741412           20 
 2719000   0.84007163   -6.6727146    816.26978  0.025017463  0.024734652           12 
 2720000   0.79914819   -6.6822562    815.72579  0.024991599  0.024727856           24 
 2721000   0.81191885   -6.6705196    814.14261  0.024933928   0.02472112           10 
 2722000   0.82833756   -6.6879369    815.29974  0.024960193   0.02471438           28 
 2723000   0.82099365   -6.7243488    815.20122  0.024948011  0.024707621           19 
 2724000   0.81369648   -6.6944144    814.73879  0.024924706  0.024700868           17 
 2725000   0.83326047   -6.6839542    814.68771  0.024913997  0.024694141           11 
 2726000   0.81367336   -6.6912763    815.90403   0.02494204  0.024687356            8 
 2727000   0.81021723   -6.7063884    814.03484  0.024875775  0.024680572           17 
 2728000   0.81283545   -6.7042725    814.82337  0.024890743  0.024673761           14 
 2729000   0.79990256   -6.7097982    815.36378  0.024898125  0.024666969           20 
 2730000   0.82065057   -6.7173968    814.70947  0.024869031  0.024660166            8 
 2731000   0.79209249   -6.7054885    814.16325  0.024843258  0.024653381            7 
 2732000   0.79903491    -6.711874    816.97904  0.024920054  0.024646614           10 
 2733000   0.80828215   -6.6974888    816.26066  0.024889031  0.024639881           22 
 2734000    0.8306229   -6.7156494    815.93058  0.024869867  0.024633155           14 
 2735000   0.81744846   -6.6668014    816.84098  0.024888512  0.024626422           19 
 2736000   0.80398848   -6.6921371    815.21938  0.024830025  0.024619666           14 
 2737000   0.81517532   -6.6962057    817.51703  0.024890909  0.024612898           20 
 2738000    0.8071343   -6.7066733    814.22423  0.024781599   0.02460612           59 
 2739000   0.81114069   -6.6941037    814.38679  0.024777497  0.024599328           16 
 2740000   0.81409425   -6.7062076    815.12334  0.024790856  0.024592543           15 
 2741000   0.81719705   -6.7058359    819.29135  0.024908529  0.024585756           13 
 2742000   0.79918919   -6.7045442     817.6592  0.024849842     0.024579           11 
 2743000   0.83870346   -6.6847567    816.55106  0.024807117  0.024572215           18 
 2744000   0.82208773   -6.6847644    818.19144  0.024847893  0.024565502           21 
 2745000   0.81365602   -6.7201236    817.74332  0.024825237  0.024558751           20 
 2746000   0.80118867   -6.7117243    818.78412  0.024847782  0.024552034           14 
 2747000    0.7951581   -6.7072758    818.59027  0.024832856  0.024545279           15 
 2748000   0.82232106   -6.7015856    817.05682  0.024777317  0.024538521           28 
 2749000   0.80991046   -6.6790813    816.49228  0.024751191  0.024531791            6 
 2750000   0.81422029   -6.6999182    817.53775  0.024773871  0.024525054           44 
 2751000    0.8150792   -6.7067972    817.41995  0.024761297  0.024518294            9 
 2752000   0.82481311   -6.7078122     816.5045  0.024724579  0.024511549           35 
 2753000   0.81769844   -6.6552162    817.58853  0.024748412  0.024504803           10 
 2754000   0.83237707   -6.7102591    816.91641  0.024719088  0.024498051           14 
 2755000   0.81767878   -6.7059081    817.79784  0.024736777  0.024491328            7 
 2756000   0.80391471   -6.7126867    818.58806  0.024751695   0.02448459           13 
 2757000   0.82279741   -6.6692958    820.19337   0.02479124  0.024477883            6 
 2758000   0.81206632   -6.6949867    818.44074  0.024729295  0.024471223           12 
 2759000   0.80044145   -6.6682939    817.21927  0.024683438  0.024464492           12 
 2760000   0.80581851    -6.714589    819.77193  0.024751568  0.024457749           23 
 2761000   0.83152151   -6.7014338    816.68121  0.024649318  0.024450997           11 
 2762000   0.81365207   -6.6812802    820.30896  0.024749848  0.024444274           17 
 2763000   0.79498873     -6.67962    818.58867  0.024689006  0.024437595           29 
 2764000   0.81341583    -6.716626    817.89421  0.024659136  0.024430886           16 
 2765000   0.81152695   -6.6762192    818.62573  0.024672264  0.024424188           10 
 2766000   0.80576522   -6.6857982    818.77867  0.024667952  0.024417526           10 
 2767000   0.82755243   -6.6883045    818.30858   0.02464488  0.024410868            8 
 2768000   0.81420721   -6.6952767    819.61626  0.024675345  0.024404241           12 
 2769000   0.80433064   -6.7081638    822.12954  0.024742071  0.024397585           16 
 2770000   0.82006371   -6.7260526    821.18192   0.02470463  0.024390993           30 
 2771000   0.82320341    -6.713453    818.29605  0.024608927  0.024384357           34 
 2772000   0.79586923   -6.7118655    819.26408  0.024629151  0.024377679           19 
 2773000   0.79442618   -6.6936202    819.06349  0.024614241  0.024371015           16 
 2774000   0.81933757    -6.730142    819.68619  0.024624075  0.024364389            9 
 2775000   0.81228028   -6.6710942    820.88412  0.024651175  0.024357732           16 
 2776000   0.82397347   -6.7040529    821.90507  0.024672943   0.02435106            8 
 2777000   0.78319341   -6.6983342     821.1543  0.024641529  0.024344392           18 
 2778000   0.80773874    -6.708565    820.64541  0.024617393  0.024337725            6 
 2779000   0.79605473   -6.7076639    819.69159  0.024579933  0.024331038           10 
 2780000    0.8255542   -6.7053671    818.05353  0.024521988  0.024324325           11 
 2781000   0.80263136   -6.7216728    820.98392   0.02460098  0.024317632            7 
 2782000   0.79113641   -6.7439414    819.38284  0.024544178  0.024310933           11 
 2783000   0.82814891   -6.7251544    820.55645  0.024570501  0.024304244           13 
 2784000   0.81761816   -6.7094754    820.34782   0.02455543  0.024297565           17 
 2785000   0.81453677   -6.7248145    819.58072   0.02452366  0.024290899           12 
 2786000   0.81245084   -6.7041844    822.26371   0.02459511   0.02428426            7 
 2787000   0.81819074   -6.6979464    822.14733  0.024582805  0.024277588           14 
 2788000   0.78842574   -6.7358894    823.34158  0.024609684  0.024270915           40 
 2789000   0.78831265   -6.7096836    822.00164  0.024560824  0.024264236           15 
 2790000   0.81065346   -6.6944837     822.9798  0.024581237  0.024257577           28 
 2791000   0.79593044   -6.7046773    821.13475   0.02451734  0.024250911           38 
 2792000   0.80489827   -6.6840028    820.51086  0.024489937  0.024244229           16 
 2793000   0.79859671   -6.7275233     821.5494  0.024512155  0.024237584           10 
 2794000   0.78713724   -6.7149053    822.90104  0.024543696  0.024230947            7 
 2795000   0.81408929   -6.7115482    822.48892  0.024522627  0.024224305           25 
 2796000   0.80277303   -6.7183343    820.73207  0.024461495  0.024217621           22 
 2797000    0.7926882    -6.702369    822.27381  0.024498683  0.024210909            7 
 2798000    0.8010104   -6.7188926    821.06727  0.024453993  0.024204245           13 
 2799000    0.8111885   -6.7144521    821.09911  0.024446204  0.024197554           28 
 2800000   0.80255185   -6.7516026    819.30363  0.024384037  0.024190844           39 
 2801000   0.81513415   -6.6922628    820.94348  0.024424119  0.024184123           15 
 2802000   0.82161321   -6.6664551    822.81541  0.024471075   0.02417745           23 
 2803000    0.8112753   -6.7185114    821.69629  0.024429073  0.024170766           11 
 2804000   0.80602131   -6.6853745    823.79645  0.024482776  0.024164097           14 
 2805000   0.80571018   -6.7075413    822.28564  0.024429163  0.024157441           11 
 2806000   0.80070158    -6.715895    823.32413  0.024451299  0.024150794            9 
 2807000   0.80763794   -6.7286102     824.1625  0.024467477  0.024144135           16 
 2808000   0.79405678   -6.7159746    822.28454  0.024403031  0.024137511           44 
 2809000   0.80807208   -6.7246442    824.72542  0.024466756   0.02413091           36 
 2810000   0.80935393    -6.716614    823.92589  0.024434338  0.024124273           11 
 2811000   0.79984691   -6.7442755    821.39481  0.024350611  0.024117656           38 
 2812000   0.79536099   -6.7360524     823.9738   0.02441838   0.02411097           26 
 2813000   0.78997023   -6.7352156    823.56803  0.024397678  0.024104329           42 
 2814000    0.8231319   -6.7460373    824.21043  0.024408032  0.024097673           38 
 2815000   0.82387921   -6.7447525    824.57188  0.024410062  0.024091061           11 
 2816000   0.79106491   -6.7505886    823.68532  0.024375158  0.024084416           20 
 2817000   0.80572206   -6.7112187    824.60769   0.02439379  0.024077783            7 
 2818000   0.79915156   -6.7133819    825.28331  0.024405113  0.024071193           11 
 2819000   0.80077624   -6.7356345    824.59385  0.024376074  0.024064617           18 
 2820000   0.79054424   -6.7117472    825.00786  0.024379665  0.024058017           13 
 2821000   0.79029988    -6.726393    822.58874  0.024299561  0.024051405           19 
 2822000   0.79942928   -6.6869755    824.34376  0.024342776  0.024044809           19 
 2823000   0.80974809   -6.6955705    824.91491  0.024351013  0.024038228            8 
 2824000   0.79874011   -6.7129746    823.72427  0.024307255  0.024031674           13 
 2825000   0.78768012   -6.7258982    825.41373  0.024348488  0.024025132            6 
 2826000   0.78650224   -6.7087854      824.707  0.024319032  0.024018612            6 
 2827000   0.78519595   -6.7022432    826.52794  0.024364106  0.024012143           17 
 2828000   0.80317263   -6.7431921    827.13316  0.024373325  0.024005635            8 
 2829000    0.8006029   -6.7339613    825.17818  0.024307122  0.023999081           14 
 2830000   0.78793624   -6.7141573    825.36283   0.02430397  0.023992484           15 
 2831000   0.80772548   -6.7462789    825.46587  0.024298418  0.023985915            9 
 2832000    0.8135961     -6.68207    827.28382  0.024343333   0.02397938           11 
 2833000   0.80370416   -6.7103187    826.90262  0.024323527  0.023972858           16 
 2834000   0.78517692   -6.7394975    827.59422  0.024335281  0.023966348           19 
 2835000   0.80795416   -6.7106595    826.04834  0.024281256  0.023959838           17 
 2836000   0.79670736   -6.7291149    827.50607  0.024315529   0.02395332           35 
 2837000   0.79814566   -6.7261474    827.06628  0.024294039  0.023946783           34 
 2838000   0.79182112   -6.7574801    829.36402  0.024352949  0.023940274           17 
 2839000   0.80648928   -6.7396461    827.17003   0.02427997  0.023933725           11 
 2840000   0.79600444   -6.7263578    826.47979  0.024251168  0.023927202           18 
 2841000   0.79194623   -6.7374806    827.35944  0.024268434  0.023920662           14 
 2842000   0.78626883   -6.7136084    826.00927  0.024220305  0.023914113           11 
 2843000   0.80019942   -6.7296051    828.90591  0.024296691  0.023907604           19 
 2844000   0.80492131   -6.7255416    828.11917  0.024265095  0.023901099           11 
 2845000   0.79219515   -6.7124147    826.61165  0.024212409  0.023894585           10 
 2846000   0.79527515   -6.6984837     827.9831  0.024244059  0.023888074           15 
 2847000    0.8104552   -6.7462858    828.56186  0.024252484  0.023881595           25 
 2848000   0.79525929    -6.738355    829.37546  0.024267774  0.023875102           29 
 2849000   0.79777593   -6.7385427    828.18221  0.024224354  0.023868604           16 
 2850000    0.7994314    -6.713763    828.83905   0.02423506  0.023862126            8 
 2851000   0.80184407   -6.7322691    828.31804   0.02421133   0.02385565            9 
 2852000   0.81848289   -6.7460246    826.86077  0.024160261  0.023849158           33 
 2853000     0.799419   -6.7360776    828.47126  0.024198833  0.023842694           48 
 2854000   0.80025877   -6.7507949     827.6002  0.024164921  0.023836192           26 
 2855000   0.80649423   -6.7705465    828.06233  0.024169945  0.023829664           46 
 2856000   0.80009807   -6.7706513    826.91413   0.02412798  0.023823123           34 
 2857000   0.80096525   -6.7387236    827.42858   0.02413454  0.023816597           22 
 2858000   0.78841919   -6.7663451    830.13923  0.024205133  0.023810091           33 
 2859000   0.78402199   -6.7479266    830.61602  0.024210564  0.023803582           48 
 2860000   0.80380523   -6.7599099    828.61092  0.024143675  0.023797077           46 
 2861000   0.79380147   -6.7496362    827.48086   0.02410232  0.023790582           68 
 2862000   0.77909715    -6.756197    827.90647  0.024106291  0.023784082           39 
 2863000   0.78101539   -6.7264321    828.86593  0.024125798  0.023777609           17 
 2864000   0.80568971   -6.7595197    830.98612  0.024179066  0.023771137           11 
 2865000    0.7857803   -6.7111044    829.67624  0.024132526  0.023764683           13 
 2866000   0.79677094   -6.7203551    830.43066  0.024146041  0.023758237           16 
 2867000   0.78215514   -6.7384256    831.18445  0.024159529  0.023751786           16 
 2868000   0.79019389   -6.7545524    829.02221  0.024088279  0.023745325            8 
 2869000   0.79535008   -6.7392392    829.63493   0.02409768   0.02373885           28 
 2870000   0.81538942   -6.7339961    828.81237    0.0240654  0.023732354           16 
 2871000   0.81098791   -6.7456744    829.33215  0.024072105  0.023725903            9 
 2872000   0.78689541   -6.7364888    829.74874  0.024075811  0.023719455           10 
 2873000   0.78746027   -6.7308456    829.14656  0.024049964  0.023712986           17 
 2874000   0.77963514    -6.757393    830.75123  0.024088124  0.023706487            9 
 2875000   0.79614682   -6.7507779    829.58336  0.024045894  0.023699936           10 
 2876000   0.79895408   -6.7161217    829.58222  0.024037501  0.023693429            9 
 2877000   0.79153692   -6.7200168    828.05778   0.02398499   0.02368693           15 
 2878000   0.78058279   -6.7469185    827.51566  0.023960959  0.023680368           10 
 2879000   0.78228525   -6.7659785    828.76286  0.023988736  0.023673821           21 
 2880000   0.80587346   -6.7602093     832.3224  0.024083403  0.023667306            9 
 2881000   0.79592327   -6.6927208    831.65656  0.024055784  0.023660826           11 
 2882000   0.78309985   -6.7060938    833.07345  0.024088407  0.023654387           19 
 2883000     0.783187   -6.7262618    829.72634  0.023983303  0.023647949           28 
 2884000   0.79943772   -6.7462926    829.57095  0.023970497   0.02364145           59 
 2885000   0.78234556   -6.7466026    831.08482  0.024005916  0.023634952           37 
 2886000   0.78308981   -6.7609881    829.90536  0.023963541  0.023628448           30 
 2887000   0.78059725   -6.7598135    828.11497  0.023903561  0.023621886           38 
 2888000   0.78622192   -6.7655105    828.71692  0.023912653  0.023615321           42 
 2889000   0.78767353   -6.7494516    828.30059  0.023892367  0.023608797           34 
 2890000   0.77933064   -6.7443512    828.88849  0.023901052  0.023602242           22 
 2891000   0.78895998   -6.7557549    829.16263  0.023900687  0.023595673           39 
 2892000   0.78294413   -6.7797682    829.42311  0.023899928  0.023589135           15 
 2893000   0.78480904   -6.7739637    830.81892  0.023931874  0.023582634           13 
 2894000   0.78058747   -6.7493156    829.49852  0.023885583  0.023576101           15 
 2895000    0.7924287   -6.7521081    832.02259  0.023949988  0.023569639           23 
 2896000   0.79040423   -6.7363388    830.60264  0.023900859  0.023563151           11 
 2897000   0.79249552   -6.7494246    831.11496  0.023907346  0.023556655           12 
 2898000   0.79424931    -6.753811    831.73383  0.023916892  0.023550187           21 
 2899000   0.77103219   -6.7498562    832.27798  0.023924284  0.023543714           28 
 2900000   0.80069869   -6.7450631    831.88064  0.023904616  0.023537229           31 
 2901000   0.79338362   -6.7585122    831.63789  0.023889403  0.023530742           47 
 2902000    0.7917172   -6.7605585    829.72135  0.023826136  0.023524213           89 
 2903000   0.80867432   -6.7399049    832.65338  0.023902095  0.023517701           63 
 2904000   0.78678218   -6.7390818    830.13561  0.023821614   0.02351121           22 
 2905000   0.77429539   -6.7484435    832.21279     0.023873  0.023504734           59 
 2906000    0.7968708   -6.7505207    832.64916  0.023877299  0.023498278           51 
 2907000   0.81104414   -6.7234801    831.42278  0.023833929  0.023491781           25 
 2908000   0.78167816   -6.7387282    831.53763  0.023829024  0.023485277           19 
 2909000   0.77530569   -6.7745138    831.31986  0.023814594  0.023478797           27 
 2910000   0.78733602   -6.7253604    834.42053  0.023895204  0.023472318           18 
 2911000   0.79085864   -6.7349535    833.69806  0.023866313  0.023465853           42 
 2912000   0.78353208   -6.7394624    831.34981  0.023790917  0.023459364           16 
 2913000   0.77346351   -6.7516628    832.25592  0.023808672  0.023452874           14 
 2914000   0.78737956   -6.7796752    831.55548   0.02378047  0.023446361            8 
 2915000   0.77635446   -6.7480596    831.79332  0.023779111  0.023439874           30 
 2916000   0.78812949     -6.75802    832.18449  0.023782136  0.023433378           22 
 2917000   0.76128051   -6.7503889    831.67764  0.023759503  0.023426861           25 
 2918000   0.78244454   -6.7729088    831.89508   0.02375757  0.023420338           31 
 2919000   0.76733261   -6.7497027    832.53754  0.023767773  0.023413847           14 
 2920000   0.78416056   -6.7529188    831.32275  0.023724964  0.023407373           20 
 2921000   0.78725579    -6.779255     832.0907  0.023738751  0.023400914           50 
 2922000   0.76191158   -6.7618138    833.62668  0.023774432  0.023394443           22 
 2923000   0.77970431   -6.7724024    831.12475   0.02369497  0.023387971           19 
 2924000   0.78353791   -6.7654316    832.88264  0.023736965  0.023381488           21 
 2925000   0.78305839   -6.7320533    833.23831  0.023738983  0.023375036           10 
 2926000   0.77945247   -6.7493483    832.32048   0.02370473  0.023368536           18 
 2927000    0.7735214   -6.7569552    833.17611  0.023720992  0.023362069           25 
 2928000   0.79375646   -6.7543192    832.22311  0.023685767  0.023355601           15 
 2929000   0.78331917    -6.751674    835.13107  0.023760415  0.023349169           16 
 2930000   0.80280247   -6.7586737    834.95321  0.023747247  0.023342733           19 
 2931000   0.77385814   -6.7809097    832.23524  0.023661869  0.023336287           29 
 2932000   0.78706648   -6.7630077    833.45964  0.023688598  0.023329823           65 
 2933000   0.75760113    -6.741997    834.03299  0.023696812  0.023323361           28 
 2934000   0.77458753   -6.7626821    834.65322  0.023706352  0.023316907           26 
 2935000   0.78062869   -6.7724091    833.89255  0.023676677  0.023310462           13 
 2936000   0.77691081   -6.7592841    831.05734   0.02358814  0.023303968           22 
 2937000   0.80416227   -6.7515209    833.39263  0.023646369   0.02329747           28 
 2938000    0.7707364   -6.7790531    834.19108  0.023660968  0.023290988           19 
 2939000   0.79435198   -6.7540512     833.9416  0.023645843   0.02328455           13 
 2940000   0.78380006   -6.7327811    834.22638  0.023645872  0.023278104           14 
 2941000    0.7832106   -6.7468621    835.53853  0.023675012  0.023271679           15 
 2942000   0.79345258    -6.778823    835.40111  0.023663072  0.023265269           15 
 2943000   0.76666127   -6.7579528    834.44997    0.0236281  0.023258856           13 
 2944000   0.77113627   -6.7829498    834.71253  0.023627506  0.023252437           22 
 2945000   0.78323374   -6.7648182    836.47616  0.023669388  0.023246035           16 
 2946000   0.79717061   -6.7605823    836.36022  0.023658074  0.023239668           12 
 2947000   0.77426108   -6.7324403    836.13205  0.023643594  0.023233276           10 
 2948000   0.76726151   -6.7505847    836.31817  0.023640835  0.023226877           10 
 2949000   0.80538482   -6.7729917    834.74887  0.023588473  0.023220464           14 
 2950000    0.7710787   -6.7777237    837.63096  0.023661892  0.023214064           39 
 2951000    0.7686327   -6.7580081    836.08087    0.0236101  0.023207675           22 
 2952000   0.76885984   -6.7288308    835.37597  0.023582203  0.023201307           40 
 2953000   0.78232181   -6.7928155    836.75216  0.023613053  0.023194926           21 
 2954000   0.78830875   -6.7769249    836.71881  0.023604119   0.02318852           76 
 2955000   0.78401884   -6.7376241    837.80196  0.023626677  0.023182149           19 
 2956000   0.76919885   -6.7549417    837.81512  0.023619055  0.023175766           23 
 2957000   0.79477605   -6.7789864    836.80135  0.023582498  0.023169398           31 
 2958000   0.78209721   -6.7806659    836.37464  0.023562504  0.023163016           26 
 2959000   0.76978062   -6.7634118    837.90213  0.023597559  0.023156671           22 
 2960000   0.77247317   -6.7696812    837.77367  0.023585971  0.023150339           62 
 2961000   0.77665504    -6.778503    837.13833  0.023560124     0.023144           12 
 2962000   0.79162775   -6.7995193    836.23159   0.02352666  0.023137681           15 
 2963000   0.79214552   -6.7719508    836.70497  0.023532033  0.023131377           22 
 2964000   0.77162548   -6.7736461    838.01652  0.023560968  0.023125069           27 
 2965000    0.7788364   -6.7723426    837.78407  0.023546489  0.023118756           39 
 2966000   0.77681825    -6.771276    838.25091  0.023551666  0.023112441           62 
 2967000   0.78564569    -6.767591    838.02108  0.023537273  0.023106138           20 
 2968000   0.76041758   -6.7611636    836.17773  0.023477587  0.023099821           20 
 2969000   0.77487629   -6.7829157    836.08986  0.023467213   0.02309351           16 
 2970000   0.77101335    -6.775537    836.92668  0.023482791  0.023087171           57 
 2971000   0.77546038    -6.783061     839.1463  0.023537145  0.023080842           21 
 2972000   0.77769613   -6.7834434     837.8976  0.023494213  0.023074477           30 
 2973000   0.78476474   -6.7796731    837.12132  0.023464551  0.023068119           40 
 2974000   0.78129314   -6.7920536    836.80741  0.023447865   0.02306176           21 
 2975000   0.77538975    -6.783746    837.57751  0.023461555  0.023055369           21 
 2976000    0.7583299   -6.7865579    838.29449  0.023473748  0.023048993           13 
 2977000   0.77807472   -6.7700807    838.09005   0.02346014  0.023042693           24 
 2978000   0.76946141   -6.7916614    841.72415  0.023553955  0.023036372           14 
 2979000   0.78205342   -6.7588493    838.12284  0.023445307  0.023030084           14 
 2980000   0.78252486   -6.7763947    837.37159  0.023416431  0.023023782           43 
 2981000    0.7682779   -6.7920582     838.1238  0.023429604  0.023017429           13 
 2982000   0.77395991   -6.7664805    840.46251  0.023487103  0.023011102            8 
 2983000    0.7807385   -6.7491619    838.62651  0.023427939  0.023004806           10 
 2984000   0.76468694   -6.7721163    839.83413  0.023453813  0.022998449           18 
 2985000   0.76807377   -6.7960809    839.22812  0.023429037  0.022992094           16 
 2986000   0.78057345   -6.7468256     839.9553  0.023441485  0.022985777            9 
 2987000   0.77701082   -6.7888561    839.28993  0.023415074  0.022979476            8 
 2988000   0.76609861    -6.759684    838.82414  0.023394248  0.022973155           18 
 2989000   0.76322744   -6.7916717    840.79235  0.023441295  0.022966863            6 
 2990000   0.77891727   -6.7830894    840.86891  0.023435588  0.022960556            8 
 2991000   0.76768405   -6.7782962    837.59706  0.023336595  0.022954246           11 
 2992000   0.76203988   -6.7597744    839.27634  0.023375567  0.022947923           20 
 2993000    0.7619475   -6.7750809    838.96895  0.023359198   0.02294165           12 
 2994000   0.78941205   -6.7513712    840.64468  0.023398037  0.022935337           28 
 2995000   0.76536521   -6.7808067     837.7474  0.023309611  0.022929017           10 
 2996000   0.77197601   -6.7855484     839.3427  0.023346203  0.022922716           20 
 2997000   0.78436502    -6.800959    839.99725  0.023356614  0.022916369           21 
 2998000   0.76153392   -6.7767289    837.98144  0.023292791  0.022910036           22 
 2999000   0.77421028   -6.7824667    839.41302  0.023324803  0.022903709           16 
 3000000   0.77078566   -6.7852953    839.59221  0.023322006  0.022897409           39 
 3001000   0.76754173   -6.7881819    841.85044  0.023376942  0.022891075           18 
 3002000   0.77021746   -6.7910746    839.19053  0.023295318  0.022884777           39 
 3003000   0.77477907   -6.7901784    840.65417  0.023328176  0.022878439           27 
 3004000   0.76337672   -6.7931553    839.93539  0.023300471  0.022872158           36 
 3005000   0.77416372   -6.7874283    838.55509  0.023254439  0.022865861           22 
 3006000   0.77260751   -6.7892177    839.37073  0.023269315  0.022859601           26 
 3007000   0.75342251   -6.7811678    839.42475  0.023263074  0.022853312           23 
 3008000   0.77767769    -6.780835    839.36309  0.023253632  0.022846981           19 
 3009000   0.77877769   -6.7846263    838.64193  0.023225931  0.022840641           30 
 3010000   0.76574709   -6.7732322    841.00262  0.023283572  0.022834362           12 
 3011000    0.7913901   -6.7874522    839.77198   0.02324178  0.022828051           19 
 3012000   0.75740709   -6.8004717    840.93313  0.023266189  0.022821738           16 
 3013000   0.77125379   -6.7894578    839.65466  0.023223107  0.022815416           20 
 3014000   0.76407315   -6.7858387     840.4969  0.023238689  0.022809103           23 
 3015000   0.77129261    -6.783668    839.80274  0.023211795  0.022802789           38 
 3016000   0.76820278   -6.7733424    838.96088  0.023180838  0.022796503           20 
 3017000   0.79349524   -6.7778127    841.22393  0.023235663  0.022790237           16 
 3018000   0.77426907   -6.7571441    842.40002  0.023260438  0.022784004           15 
 3019000    0.7635323   -6.7920964    841.40814  0.023225354  0.022777746           34 
 3020000   0.77216383   -6.7976124    840.95811  0.023205246  0.022771487           43 
 3021000    0.7597595   -6.7859569    842.66149  0.023244552   0.02276521           22 
 3022000   0.76403971   -6.7971736    839.75268  0.023156648  0.022758882           39 
 3023000   0.77551914   -6.8061107     839.1411  0.023132129  0.022752551           39 
 3024000   0.77071414   -6.7835781    839.51476  0.023134776  0.022746247           25 
 3025000   0.76822959   -6.7585682    842.05843  0.023197202   0.02273997           29 
 3026000   0.76645036   -6.8167108    842.09584  0.023190566  0.022733679           26 
 3027000    0.7676739   -6.8040063    840.59681  0.023141637  0.022727372           79 
 3028000   0.75281286   -6.8003726    842.29227  0.023180655  0.022721079           22 
 3029000   0.76883697   -6.8277873    843.21103  0.023198279  0.022714786           30 
 3030000   0.76400245   -6.8000162    841.23662  0.023136321  0.022708485           88 
 3031000   0.75756252    -6.808469    842.34609  0.023159191  0.022702172           47 
 3032000   0.75694109   -6.8084798    839.84563  0.023082828  0.022695859           77 
 3033000   0.78233326   -6.8018695    841.02634  0.023107659  0.022689538           37 
 3034000   0.78322727   -6.8150797    841.93226  0.023124925  0.022683231           76 
 3035000   0.73201596    -6.789125     842.0569  0.023120728  0.022676972           41 
 3036000   0.75835028   -6.8162919      842.906  0.023136418  0.022670698           47 
 3037000   0.76419164   -6.8017979    843.64919  0.023149193  0.022664444           39 
 3038000   0.75916195   -6.8056955    842.78806  0.023117952   0.02265819           24 
 3039000   0.75158503   -6.7874382     841.0567  0.023062869  0.022651952           18 
 3040000   0.77265816   -6.7975517    843.98027  0.023135424  0.022645709           22 
 3041000   0.77262444     -6.79877     841.1693  0.023050787   0.02263946           12 
 3042000   0.75231158   -6.7980051    844.33825   0.02313002  0.022633226           10 
 3043000   0.75640459   -6.8020005    842.03469  0.023059335  0.022626974           17 
 3044000   0.78924077   -6.8006734    842.50185  0.023064549  0.022620739           11 
 3045000   0.76637113   -6.7786967    843.29344  0.023078638  0.022614557           19 
 3046000   0.76255363   -6.7953635    843.57801  0.023078847  0.022608344           44 
 3047000   0.74159594   -6.7900898    845.22056  0.023116195  0.022602142           26 
 3048000   0.76466401    -6.814899    844.75184  0.023095796  0.022595933           34 
 3049000   0.76860523   -6.8208467    842.98044  0.023039806  0.022589707           99 
 3050000   0.75980664   -6.7784148    845.14583  0.023091416  0.022583483           34 
 3051000   0.77503562   -6.8185154    845.02875   0.02308065  0.022577252           18 
 3052000   0.76871668   -6.8126866     842.1705  0.022995044  0.022571022           21 
 3053000   0.77274799   -6.8145862     842.1882  0.022987995  0.022564799           19 
 3054000   0.74502951   -6.7958605    843.35532  0.023012315  0.022558566           37 
 3055000   0.76217621   -6.8117453    843.71333  0.023014548  0.022552349           32 
 3056000   0.75914348   -6.7718928    843.31268  0.022996092  0.022546172           18 
 3057000   0.75776469   -6.7537748    845.55934  0.023049813  0.022539976           34 
 3058000   0.75584978   -6.8163078    844.58868  0.023015824  0.022533756           12 
 3059000   0.74890904   -6.8177464    843.46597  0.022977715  0.022527512           17 
 3060000   0.74949597   -6.8224895    843.38064  0.022967882  0.022521251           21 
 3061000   0.77906448   -6.8056639    844.09976  0.022979956   0.02251501           16 
 3062000   0.77135872   -6.8105115    844.67189  0.022988022  0.022508775           27 
 3063000   0.75335923    -6.821968    842.58393  0.022923711  0.022502523           40 
 3064000   0.76502348   -6.7988523    843.89854  0.022951984  0.022496298           28 
 3065000   0.76271098   -6.8054947    844.25749  0.022954255  0.022490057           22 
 3066000   0.76220995   -6.7943827    844.84927  0.022962853  0.022483807           30 
 3067000   0.75736891   -6.8133546     843.0153  0.022905535  0.022477577           36 
 3068000   0.75691023    -6.819499    843.58497  0.022913542  0.022471341           37 
 3069000   0.76269586   -6.8219658    843.39357  0.022900879  0.022465122           22 
 3070000   0.75072968   -6.7959091    845.63213  0.022954184  0.022458907           24 
 3071000   0.74832788    -6.812136    845.10495  0.022932404  0.022452692           25 
 3072000   0.75050513    -6.805364    844.76486  0.022915714  0.022446455           23 
 3073000     0.760088   -6.8087841    843.73686  0.022880379  0.022440212           36 
 3074000    0.7735142   -6.8072738    845.83538  0.022929825  0.022433973           28 
 3075000   0.75260884   -6.8058545    846.01269  0.022927173  0.022427756           22 
 3076000   0.77209673   -6.7859709    848.10973  0.022976531  0.022421553           30 
 3077000   0.75764417   -6.8113823    844.56153   0.02287297  0.022415359           29 
 3078000   0.76398992   -6.8132852      843.674   0.02284151  0.022409139           24 
 3079000   0.75654488    -6.811019    843.30002  0.022823969  0.022402884           35 
 3080000   0.75496829   -6.8002815    845.05303  0.022863989   0.02239667           11 
 3081000   0.75838152   -6.8032395    847.35112  0.022918725  0.022390454           31 
 3082000   0.74681949   -6.8074757    844.60033  0.022836911  0.022384221           21 
 3083000   0.74410791   -6.8216249    844.36139  0.022823046  0.022377986           10 
 3084000   0.75655774   -6.7899982    844.49426  0.022819235  0.022371784           12 
 3085000   0.77419085   -6.8247393     846.4308  0.022864149  0.022365582           31 
 3086000   0.75803193    -6.831711    845.28723   0.02282586   0.02235939           22 
 3087000   0.76010248   -6.8203491    846.76109  0.022858252  0.022353193           46 
 3088000   0.75334387    -6.794331    847.25353  0.022864139  0.022346995           17 
 3089000    0.7545027   -6.8398929    846.61838  0.022839602  0.022340801           21 
 3090000   0.76129165   -6.8173437    846.38431  0.022825898  0.022334632           18 
 3091000   0.75212609   -6.8004113     845.8972  0.022805381  0.022328471           25 
 3092000   0.74360708   -6.8290323    846.80484  0.022822468  0.022322318           36 
 3093000   0.74854261   -6.8169664    847.65409   0.02283797  0.022316139           20 
 3094000   0.77163062   -6.8320665    845.08914  0.022761505  0.022309955           32 
 3095000   0.75189997   -6.8224875     848.5285  0.022846756  0.022303803           38 
 3096000   0.74995672   -6.8210324    845.78899  0.022765638  0.022297652           40 
 3097000   0.76121289   -6.8113295     846.0129  0.022764312  0.022291522           14 
 3098000   0.77166933   -6.8068259    847.38406  0.022793847  0.022285388           18 
 3099000    0.7604483   -6.8207541    847.48888   0.02278931  0.022279264           13 
 3100000   0.76691979   -6.8175866    846.48792  0.022755051  0.022273104           34 
 3101000   0.77179062   -6.8161722    846.00479   0.02273473  0.022266958           26 
 3102000   0.74243628   -6.8453712     848.3879  0.022791422  0.022260827           44 
 3103000   0.74514224   -6.8096463    846.49655  0.022733284  0.022254682           26 
 3104000   0.75216369   -6.8027234    848.57571  0.022781779  0.022248547           29 
 3105000   0.75913825   -6.7914556    848.20348  0.022764452  0.022242442           28 
 3106000   0.75801533   -6.8160893    848.52127  0.022765649  0.022236321           35 
 3107000   0.74278403   -6.8165223    848.02912  0.022745122  0.022230183           31 
 3108000   0.75368996   -6.8102631    848.51563  0.022750848  0.022224043           23 
 3109000    0.7707252   -6.8320959    846.33143  0.022684985  0.022217869           53 
 3110000    0.7491619   -6.8156225    847.28436  0.022703225  0.022211721           40 
 3111000      0.74838    -6.824742    848.04204  0.022716223   0.02220558           31 
 3112000    0.7680171   -6.8293974    846.51271  0.022667971  0.022199404           46 
 3113000   0.75088224   -6.7966239    848.24581  0.022707084  0.022193233           33 
 3114000   0.76153066   -6.8289819    846.59975  0.022655741  0.022187081           45 
 3115000   0.75831473   -6.8103263    845.86468  0.022628804  0.022180918           61 
 3116000   0.75106518   -6.8091219    847.00255  0.022651972  0.022174768           55 
 3117000   0.76831803   -6.8148175    848.99365  0.022697937  0.022168626           35 
 3118000   0.74422619   -6.8499296    846.83932   0.02263308  0.022162462           33 
 3119000   0.74851538   -6.8006377    848.29246  0.022664648  0.022156284           61 
 3120000   0.74554833   -6.8308754    848.26836   0.02265674  0.022150143           61 
 3121000   0.77517064   -6.8059917    847.94779  0.022640921  0.022143999           47 
 3122000   0.75899225   -6.8319198    847.10643  0.022611212  0.022137834           56 
 3123000   0.73778427   -6.8098816    848.78408  0.022648737  0.022131659           58 
 3124000   0.76587811   -6.8007102    849.65196  0.022664638  0.022125521           51 
 3125000     0.742651   -6.8493648    847.87642  0.022610038  0.022119365          115 
 3126000   0.76112531   -6.8316402     847.8524  0.022602165  0.022113204           46 
 3127000   0.75968726   -6.8221572    847.85905  0.022595114  0.022107061          146 
 3128000   0.75087238   -6.8067102     847.3555  0.022574475  0.022100904           75 
 3129000   0.74841898   -6.8049534    847.86029  0.022580704  0.022094762           93 
 3130000   0.75551452   -6.8438451    848.25777  0.022584073  0.022088635          119 
 3131000   0.75749514   -6.8340818    849.08825  0.022598963  0.022082477          121 
 3132000   0.74516475   -6.8364224    850.36327  0.022625672   0.02207636          136 
 3133000   0.75933797   -6.8160788    849.10276  0.022584923   0.02207023          145 
 3134000   0.74688464   -6.8478336    848.95522  0.022573793  0.022064068          170 
 3135000   0.74672229    -6.850716    847.74403  0.022534397  0.022057888          134 
 3136000   0.76091963   -6.8247927    848.44257  0.022545774  0.022051731          157 
 3137000     0.749201    -6.833561    847.96891  0.022526004  0.022045591          198 
 3138000   0.74388254   -6.8278114    848.71701  0.022538693  0.022039419          209 
 3139000   0.76393759    -6.843705    847.67181  0.022503765  0.022033256          183 
 3140000    0.7439811   -6.8580513    847.23911  0.022485114  0.022027092          252 
 3141000   0.74561926   -6.8432392    847.40977  0.022482484  0.022020937          207 
 3142000   0.74185598   -6.8433794    848.19905  0.022496262  0.022014747          286 
 3143000    0.7577267   -6.8410937    847.69897  0.022475845  0.022008569          120 
 3144000   0.76286478   -6.8285268    848.51129  0.022490227  0.022002415          226 
 3145000   0.76121287   -6.8435867    849.70249  0.022514639   0.02199628          203 
 3146000   0.73162799   -6.8414229    847.60229  0.022451851  0.021990124          274 
 3147000   0.74708998   -6.8189264    848.30209  0.022463248  0.021983981          165 
 3148000   0.73750436   -6.8319151    849.15273   0.02247863  0.021977843          220 
 3149000    0.7551473   -6.8507382    849.13244  0.022470955  0.021971704          251 
 3150000   0.73370608   -6.8562015    847.91745  0.022431679  0.021965564          224 
 3151000   0.75017753   -6.8426203    848.54656  0.022441198  0.021959423          155 
 3152000    0.7453784   -6.8879748    849.09082  0.022448467  0.021953285          140 
 3153000   0.75551599   -6.8706162    851.55886  0.022506577  0.021947127          188 
 3154000   0.73269155   -6.8238611    848.86253    0.0224282  0.021941022          209 
 3155000   0.74645583   -6.8550094    850.81792   0.02247274  0.021934923          177 
 3156000   0.74624605   -6.8251689    850.54797  0.022458491  0.021928821          234 
 3157000   0.73688868   -6.8557273    850.52659  0.022450813  0.021922694          164 
 3158000   0.75639003   -6.8528386    849.73924  0.022422927  0.021916583          170 
 3159000   0.74010014   -6.8018646    849.78271  0.022416976  0.021910459          194 
 3160000   0.74326732    -6.823558    849.57707  0.022404459  0.021904343          144 
 3161000   0.74948095   -6.8632118    849.28242  0.022389603  0.021898191          188 
 3162000   0.75869158   -6.8643956    850.46828  0.022413775  0.021892037          241 
 3163000   0.74838454   -6.8457735    848.74043  0.022361166  0.021885897          126 
 3164000   0.75544249   -6.8685501    848.41287  0.022345472   0.02187977          189 
 3165000   0.73831851   -6.8618823    849.57033  0.022368887  0.021873635          171 
 3166000   0.74630364   -6.8431004    849.60418  0.022362713  0.021867501          233 
 3167000   0.76994238   -6.8561492    851.55645  0.022407022   0.02186136          174 
 3168000   0.74337901   -6.8425594    852.16894   0.02241606  0.021855242          134 
 3169000   0.74758806   -6.8533555    849.86657  0.022348443  0.021849114          158 
 3170000   0.73546864   -6.8382181     849.7594  0.022338575  0.021842992          278 
 3171000   0.73840555   -6.8417067    851.58696  0.022379559  0.021836877          212 
 3172000   0.73415579   -6.8727859    848.28294  0.022285701  0.021830743          169 
 3173000   0.74910258    -6.800691    852.25985  0.022383124  0.021824635          190 
 3174000   0.73845851   -6.8235153    851.29837  0.022350829  0.021818523          132 
 3175000   0.74911006   -6.8373481    852.17817  0.022366881  0.021812407          185 
 3176000   0.73909558   -6.8518286    851.03968  0.022329966  0.021806287          246 
 3177000   0.74731796   -6.8697051    849.39781  0.022279871   0.02180017          223 
 3178000   0.74946461   -6.8676737    847.68802  0.022228026  0.021794013          223 
 3179000   0.74706038   -6.8607856    850.19066  0.022286638   0.02178787          239 
 3180000   0.73879331   -6.8775032    850.83338  0.022296472  0.021781725          272 
 3181000    0.7473104   -6.8703532    848.58188   0.02223048  0.021775566          299 
 3182000   0.75152944   -6.8768167    850.46352  0.022272772  0.021769411          290 
 3183000   0.74045605    -6.869203    849.78735  0.022248072  0.021763261          257 
 3184000   0.73785336   -6.8607114    849.51255  0.022233892  0.021757106          234 
 3185000   0.75523665   -6.8583709    852.05853  0.022293525  0.021750968          265 
 3186000   0.74079125   -6.8862455    850.81342  0.022253961  0.021744818          305 
 3187000   0.73662355   -6.8471581    850.17805  0.022230364  0.021738673          343 
 3188000   0.74166243   -6.8886436    850.76916  0.022238843  0.021732543          407 
 3189000   0.74013288   -6.8770762    849.92035  0.022209688  0.021726407          359 
 3190000   0.74161797   -6.8925376    850.70922  0.022223334  0.021720264          422 
 3191000   0.74025146   -6.8983083    849.71712  0.022190461  0.021714095          453 
 3192000   0.74364197   -6.8748479    850.31731  0.022199178   0.02170794          451 
 3193000   0.74181601   -6.8731551    851.61282  0.022226037  0.021701825          474 
 3194000   0.73893817   -6.8762461    850.41468  0.022187818  0.021695706          594 
 3195000   0.74895698   -6.9064013    852.39566  0.022232542  0.021689573          571 
 3196000   0.73646318   -6.8866546    850.90723  0.022186776  0.021683437          532 
 3197000   0.75509682   -6.8774431    851.15954  0.022186413  0.021677293          532 
 3198000   0.74320647   -6.8831151    850.23111  0.022155282  0.021671124          499 
 3199000   0.75222681   -6.9114027    851.87835  0.022191267  0.021664966          530 
 3200000   0.72867708   -6.8753434    849.75841  0.022129125   0.02165878          597 
 3201000   0.75004289   -6.8845531    850.32885  0.022137063  0.021652633          577 
 3202000   0.74131038   -6.9048827    848.94836  0.022094221  0.021646486          606 
 3203000   0.74300005   -6.8843395    847.79858  0.022057409  0.021640302          587 
 3204000    0.7189473   -6.9321065    848.82079  0.022077112  0.021634126          626 
 3205000   0.73310684    -6.901304    850.01585  0.022101296  0.021627957          620 
 3206000   0.74291285   -6.9227748    851.47622  0.022132362  0.021621765          681 
 3207000   0.73583931   -6.9072292    850.59407  0.022102538  0.021615586          776 
 3208000    0.7296521   -6.9229751     850.3022  0.022088066  0.021609388          893 
 3209000   0.73756766    -6.951559    847.70806  0.022013817  0.021603166         1012 
 3210000   0.74197476   -6.9721113    847.39672  0.021998876  0.021596914         1184 
 3211000   0.74512494   -6.9744594     847.7936  0.022002325  0.021590638         1103 
 3212000   0.73672429      -6.9921    848.10321  0.022003508  0.021584356         1249 
 3213000   0.73579077   -6.9951453    847.41808   0.02197889  0.021578032         1471 
 3214000   0.74976466   -6.9811917     845.6288  0.021925659  0.021571699         1449 
 3215000   0.72961711   -7.0141435    847.28413  0.021961745  0.021565338         1487 
 3216000   0.75139844   -6.9973767    845.99241  0.021921445  0.021558967         1558 
 3217000    0.7353807    -7.027355    845.78675  0.021909303  0.021552564         1673 
 3218000   0.73662244   -7.0448665    846.05354  0.021909404  0.021546133         1779 
 3219000   0.73955448   -7.0337671    843.43628  0.021834842  0.021539673         1876 
 3220000   0.72810923   -7.0789256    843.74725  0.021836109  0.021533203         1883 
 3221000   0.71768631   -7.0698296    841.80632  0.021779114  0.021526709         1925 
 3222000   0.74271466   -7.0458665    842.04083   0.02177842  0.021520206         2047 
 3223000   0.74135961   -7.0913404    840.93007  0.021742943   0.02151366         2166 
 3224000   0.74278301   -7.1168758    842.36936  0.021773402  0.021507105         2233 
 3225000   0.73573704   -7.1156233    842.02658  0.021757793  0.021500536         2336 
 3226000   0.74579627   -7.1189408    842.09226  0.021752745  0.021493951         2395 
 3227000   0.73723604   -7.1458208    839.83987  0.021687839  0.021487318         2507 
 3228000   0.74399452   -7.1563647    839.96357  0.021684313  0.021480658         2651 
 3229000   0.73794683   -7.1826826     838.9304  0.021650934  0.021473948         2765 
 3230000   0.72215968   -7.1873527    836.62568   0.02158477  0.021467188         2885 
 3231000    0.7440395   -7.2188125     838.1703  0.021617928  0.021460392         3107 
 3232000    0.7438411   -7.2345385    835.72317  0.021548143  0.021453535         3101 
 3233000   0.73212441   -7.2375231    836.69742   0.02156659  0.021446647         3332 
 3234000   0.72794567   -7.2891586    833.79293  0.021485079  0.021439711         3418 
 3235000   0.73356467   -7.2890398    833.87402  0.021480526  0.021432765         3483 
 3236000   0.73158601   -7.3096462    834.66609  0.021494285  0.021425786         3510 
 3237000   0.72632252   -7.3138357    834.68717  0.021488188  0.021418803         3569 
 3238000   0.73782975   -7.3361882    830.99313  0.021386482  0.021411785         3657 
 3239000   0.73560843   -7.3264229     830.6992  0.021372317  0.021404737         3672 
 3240000   0.74479212   -7.3312584    831.54929  0.021387585  0.021397679         3658 
 3241000    0.7423118   -7.3408556    831.35134  0.021375896  0.021390633         3656 
 3242000   0.72267488   -7.3194454     831.4451  0.021371713  0.021383585         3681 
 3243000   0.72288485   -7.3194752    831.62032  0.021369625  0.021376509         3695 
 3244000   0.73627045   -7.3413787    832.70253  0.021390838   0.02136944         3714 
 3245000   0.71162307   -7.3661703    831.13161  0.021343904  0.021362372         3734 
 3246000   0.73486166   -7.3439164    832.81193  0.021380467  0.021355308         3703 
 3247000   0.74458284   -7.3433252    832.10047  0.021355622   0.02134825         3690 
 3248000   0.74040945   -7.3524051    831.54389  0.021334767  0.021341183         3727 
 3249000   0.72637742   -7.3384904    831.57903  0.021329102  0.021334104         3713 
 3250000   0.74828358   -7.3408969    831.13134   0.02131106  0.021327043         3687 
 3251000   0.72515554   -7.3623192    831.86952  0.021323427  0.021319967         3772 
 3252000   0.73130787   -7.3418766    831.58479  0.021309573    0.0213129         3727 
 3253000   0.72813024   -7.3402566    831.69014  0.021305721   0.02130583         3733 
 3254000   0.72516133   -7.3453681    829.44217  0.021241604  0.021298761         3724 
 3255000   0.71473934   -7.3659277    830.33038  0.021257818   0.02129168         3721 
 3256000   0.72607803   -7.3562698    830.89295  0.021265688    0.0212846         3752 
 3257000   0.73748316   -7.3553759    830.32584  0.021244649  0.021277502         3782 
 3258000   0.73756505   -7.3440354    830.52424  0.021243202  0.021270394         3758 
 3259000   0.73495708   -7.3501777    831.09139  0.021251186  0.021263295         3771 
 3260000   0.72692537   -7.3750707    831.07303  0.021244198  0.021256195         3770 
 3261000   0.71746937   -7.3620709    832.21131  0.021266772  0.021249095         3774 
 3262000   0.72465086   -7.3759234    829.73176  0.021196908  0.021241997         3766 
 3263000   0.72914652   -7.3744275    831.49155  0.021235355  0.021234897         3748 
 3264000   0.73722142   -7.3496797    832.01839    0.0212423  0.021227792         3762 
 3265000   0.75099157   -7.3804859    830.25469  0.021190778  0.021220677         3759 
 3266000   0.74515865   -7.3724802    828.72128  0.021145164  0.021213574         3788 
 3267000   0.73842004    -7.376616    830.27694  0.021178373  0.021206465         3764 
 3268000   0.73770718    -7.368824    829.22106  0.021144968  0.021199359         3798 
 3269000   0.72985243   -7.3888654    829.01482  0.021133242  0.021192248         3765 
 3270000   0.70775681   -7.3771338    829.90207   0.02114939  0.021185135         3779 
 3271000   0.73432511   -7.3817068    830.96978  0.021170126  0.021178012         3801 
 3272000   0.72432535   -7.3579976     829.7012  0.021131347  0.021170891         3844 
 3273000   0.72442612    -7.398819    829.15929  0.021111093  0.021163729         3844 
 3274000   0.73171034   -7.4022396     827.8647  0.021071694  0.021156558         3864 
 3275000   0.72779119   -7.3786613    828.67491  0.021085876  0.021149396         3861 
 3276000   0.71382386   -7.3854024    828.02291  0.021062854  0.021142227         3860 
 3277000   0.73246229   -7.3766187    827.87622  0.021052696  0.021135054         3857 
 3278000   0.74278907   -7.4080542    829.22058   0.02108045   0.02112788         3866 
 3279000   0.73487684   -7.4004075    827.70382  0.021035474  0.021120705         3850 
 3280000   0.71933288    -7.409044    828.68065  0.021053878  0.021113529         3863 
 3281000   0.73647616   -7.4245507    829.59503  0.021070685  0.021106348         3865 
 3282000   0.71657193     -7.39892    827.52202   0.02101163  0.021099176         3874 
 3283000   0.74041595   -7.3893114     827.1349  0.020995403  0.021091993         3880 
 3284000   0.72807644   -7.3984273    828.60945  0.021026427  0.021084808         3864 
 3285000   0.72065623   -7.4111794    828.73392  0.021023184  0.021077625         3862 
 3286000   0.72213279   -7.4293603    828.13357  0.021001561  0.021070446         3865 
 3287000   0.72825238   -7.4119305    828.96876  0.021016346  0.021063271         3875 
 3288000   0.73077951   -7.4008685    826.73877  0.020953436  0.021056083         3876 
 3289000   0.71908613    -7.404544    827.89511  0.020976363  0.021048915         3863 
 3290000   0.73636988   -7.4439128    828.89394  0.020995287  0.021041746         3878 
 3291000   0.73141434   -7.4076132    828.38919  0.020976126  0.021034573         3889 
 3292000   0.71374684   -7.4035806    828.12737  0.020963127  0.021027406         3889 
 3293000   0.72039944   -7.4238708    828.00051  0.020953551   0.02102023         3880 
 3294000   0.72339039     -7.39635    827.93402  0.020945507   0.02101306         3856 
 3295000   0.73279291    -7.410699    826.11193  0.020893068  0.021005883         3869 
 3296000   0.73462049   -7.4107282    828.42596  0.020945236   0.02099871         3887 
 3297000   0.72574602   -7.4175891    829.36085  0.020962513  0.020991548         3854 
 3298000   0.71666736   -7.4046182    828.64541  0.020938079  0.020984386         3844 
 3299000   0.73363557    -7.409602    828.48604  0.020927706  0.020977238         3846 
 3300000   0.71494521    -7.417203    827.25249  0.020890215  0.020970068         3875 
 3301000   0.71202508   -7.4415204    827.46378   0.02088922  0.020962907         3871 
 3302000   0.72023129   -7.4206507    828.71246  0.020914407  0.020955739         3879 
 3303000   0.71356629   -7.3971701    828.34616  0.020898833  0.020948574         3875 
 3304000   0.71884248    -7.403638    829.91811  0.020932156   0.02094141         3861 
 3305000   0.71648085   -7.4085306    828.09372  0.020879821  0.020934248         3872 
 3306000     0.713306   -7.4047024    829.45153  0.020907732  0.020927096         3871 
 3307000   0.71733002   -7.4343138    827.79302  0.020859616  0.020919936         3876 
 3308000   0.73632633   -7.4133366    829.33385  0.020892126  0.020912779         3872 
 3309000   0.72199695   -7.4378781    828.20621  0.020857414  0.020905615         3871 
 3310000   0.73509462   -7.4251382    826.90917  0.020818458  0.020898451         3863 
 3311000   0.72219457   -7.4135897     828.2578  0.020846114  0.020891295         3875 
 3312000   0.72475219   -7.4202792    827.81119  0.020828583   0.02088414         3863 
 3313000   0.71885554   -7.4330052    828.70485  0.020844774  0.020876975         3858 
 3314000   0.72348701    -7.416141    827.99128  0.020820541  0.020869813         3860 
 3315000    0.7183528   -7.4301778    826.59906  0.020779262  0.020862658         3875 
 3316000   0.71080016   -7.4247317    827.69767  0.020800605  0.020855505         3863 
 3317000   0.71355422   -7.4218191    829.68619  0.020844292  0.020848348         3876 
 3318000   0.70133122    -7.434795    829.28706  0.020827985  0.020841194         3831 
 3319000   0.73942282   -7.4267232     828.3052  0.020797057  0.020834045         3871 
 3320000   0.73889886   -7.4202803    826.62267  0.020748561  0.020826899         3881 
 3321000    0.7099138   -7.4381718    828.82316   0.02079753  0.020819742         3874 
 3322000    0.7392586   -7.4217122    827.48534   0.02075771  0.020812596         3864 
 3323000   0.70599134      -7.4135    829.27981  0.020796464  0.020805436         3854 
 3324000   0.71961449   -7.4227529    827.68139  0.020750135  0.020798287         3889 
 3325000   0.72238342   -7.4254073    827.13658   0.02073024  0.020791129         3859 
 3326000   0.71967749   -7.4061939    827.02769  0.020721279  0.020783983         3842 
 3327000    0.7084426   -7.4102573    827.34048  0.020722885  0.020776828         3866 
 3328000   0.71614205   -7.4353866     827.0265  0.020708797  0.020769674         3886 
 3329000   0.71358061   -7.4348153    827.56545  0.020716067   0.02076252         3887 
 3330000   0.70257266    -7.438303    826.16949  0.020674912  0.020755374         3870 
 3331000    0.7150184     -7.43372    826.97177  0.020688776  0.020748232         3876 
 3332000   0.74228356   -7.4312904    827.84742  0.020704467  0.020741082         3878 
 3333000   0.72188448   -7.4408971    827.51174  0.020689863  0.020733936         3856 
 3334000   0.73994198   -7.4208336    827.05299   0.02067219   0.02072679         3895 
 3335000   0.72719664   -7.4492966    826.22529   0.02064531   0.02071965         3883 
 3336000   0.72870016   -7.4374362    827.42477  0.020669084  0.020712496         3877 
 3337000   0.72008768   -7.4201748    828.27275  0.020684066  0.020705351         3876 
 3338000   0.72412669   -7.4393276    827.67775  0.020663016  0.020698213         3875 
 3339000   0.71911859   -7.4402329    828.59806  0.020679796  0.020691071         3877 
 3340000   0.71774447   -7.4328208    826.62771  0.020624444  0.020683928         3877 
 3341000   0.71411125   -7.4501189    826.15605  0.020606506  0.020676778         3878 
 3342000    0.7115324   -7.4394515    826.68825  0.020613611  0.020669643         3896 
 3343000   0.72268534   -7.4394256    827.66558  0.020631807  0.020662502         3893 
 3344000   0.72201659   -7.4493869    826.80352  0.020604155  0.020655351         3897 
 3345000   0.71417302   -7.4314148    827.31553  0.020610751  0.020648207         3886 
 3346000   0.69451616    -7.419337    827.59954  0.020611664  0.020641066         3884 
 3347000   0.71689024   -7.4541561    826.85412  0.020586947  0.020633926         3885 
 3348000   0.70718291   -7.4667054    826.60292  0.020574545  0.020626797         3870 
 3349000   0.71023673   -7.4371694    827.72336  0.020596281  0.020619659         3871 
 3350000   0.71727934   -7.4289319    825.95013  0.020546023  0.020612525         3891 
 3351000   0.72000597   -7.4611712    826.99321  0.020565831  0.020605382         3880 
 3352000   0.69286542   -7.4509259    828.43304  0.020595491  0.020598245         3871 
 3353000   0.70159023   -7.4520911    825.38681   0.02051364  0.020591114         3900 
 3354000   0.72714035   -7.4502085      828.597  0.020587284  0.020583988         3889 
 3355000   0.71181594   -7.4425726    827.14161  0.020544998  0.020576852         3895 
 3356000   0.71049875   -7.4315409    828.60227  0.020575146  0.020569717         3889 
 3357000   0.70487754   -7.4625452    827.61173  0.020544428  0.020562588         3896 
 3358000   0.71081034   -7.4589648    827.47724  0.020534972  0.020555457         3908 
 3359000   0.70277541   -7.4604428    827.07028  0.020518762  0.020548327         3879 
 3360000   0.69848723    -7.461621    826.88866  0.020508151  0.020541188         3904 
 3361000   0.73350671   -7.4581255    826.83811  0.020500796  0.020534065         3898 
 3362000    0.6966803   -7.4480947     827.0363  0.020499611  0.020526937         3875 
 3363000   0.70934463   -7.4550417    827.44767  0.020503709  0.020519814         3891 
 3364000    0.7199417    -7.449048    828.36311  0.020520291  0.020512695         3889 
 3365000   0.70018355   -7.4568903    827.65301  0.020496607  0.020505573         3879 
 3366000   0.69238219   -7.4561801       827.63  0.020489949  0.020498452         3894 
 3367000   0.71745126   -7.4656487    827.52052  0.020481153  0.020491337         3884 
 3368000   0.72287046    -7.454067    827.17158  0.020466439  0.020484222         3876 
 3369000   0.72834801   -7.4587792    826.61314   0.02044655  0.020477106         3886 
 3370000   0.69392448   -7.4568189    826.04397  0.020426409  0.020469997         3878 
 3371000     0.719794   -7.4546937    827.32702  0.020452067  0.020462876         3867 
 3372000   0.71770778   -7.4654422    824.32966  0.020371927  0.020455761         3871 
 3373000   0.72006534   -7.4359508     825.3408  0.020390869  0.020448657         3875 
 3374000   0.72384837   -7.4741153    827.90183  0.020448079  0.020441552         3879 
 3375000   0.71715963   -7.4685626    824.78144  0.020364974   0.02043445         3876 
 3376000   0.70800104   -7.4285207    827.21757  0.020419075  0.020427345         3871 
 3377000   0.71588204   -7.4627208    826.24243  0.020388965  0.020420247         3870 
 3378000    0.7179829   -7.4678129     826.1723  0.020381199  0.020413136         3870 
 3379000    0.7077463   -7.4516054    825.86678  0.020367633  0.020406032         3889 
 3380000   0.70513264    -7.465303    826.15992  0.020368834  0.020398921         3876 
 3381000   0.70848847   -7.4629162     828.8009  0.020427903  0.020391823         3876 
 3382000   0.72501644   -7.4701496     826.5674  0.020366829  0.020384717         3889 
 3383000   0.71571211   -7.4464232    827.85981  0.020392645  0.020377618         3878 
 3384000   0.68706722   -7.4653219    828.02708  0.020390738  0.020370518         3887 
 3385000   0.71011997   -7.4407811    827.61907  0.020374669  0.020363417         3875 
 3386000   0.71339936   -7.4600939    825.01118  0.020304469  0.020356318         3873 
 3387000   0.70298974    -7.462437    825.77633    0.0203173  0.020349219         3898 
 3388000   0.71333178   -7.4632681    825.27228  0.020298905  0.020342124         3895 
 3389000   0.70874923   -7.4789459    824.88259  0.020283333  0.020335031         3893 
 3390000   0.71577542   -7.4532531    827.31683  0.020337189  0.020327921         3889 
 3391000   0.70692711   -7.4476758    824.92809  0.020272488  0.020320828         3884 
 3392000   0.70189741   -7.4691453    826.94945  0.020316172  0.020313743         3859 
 3393000   0.71126568   -7.4225552    828.44801  0.020346989  0.020306659         3874 
 3394000   0.70556048   -7.4318248    826.91767   0.02030342  0.020299581         3884 
 3395000    0.7047291    -7.441902    826.92545   0.02029763  0.020292506         3877 
 3396000   0.72389261   -7.4764388    825.28462  0.020251389  0.020285421         3885 
 3397000   0.71002024     -7.46178    826.99368  0.020287354  0.020278336         3891 
 3398000   0.71219421   -7.4442082    825.69945  0.020249643  0.020271248         3888 
 3399000   0.72082799   -7.4747561    826.60946  0.020265996  0.020264167         3874 
 3400000   0.71056817   -7.4669029    825.09434    0.0202229   0.02025709         3880 
 3401000   0.70526819   -7.4661609    825.49796  0.020226844  0.020250012         3890 
 3402000   0.71503634   -7.4628147    825.76855  0.020227527  0.020242945         3885 
 3403000   0.71489421   -7.4690895     824.7612  0.020196914   0.02023586         3890 
 3404000   0.69440844    -7.493487    826.69153  0.020238237  0.020228777         3871 
 3405000   0.69850327   -7.4843151    826.12138   0.02021834  0.020221696         3890 
 3406000    0.7173208    -7.450386    826.56255  0.020223198   0.02021462         3884 
 3407000   0.70791009   -7.4535827    825.24468  0.020185028  0.020207541         3898 
 3408000   0.71260657   -7.4575735    826.11153  0.020200302  0.020200471         3897 
 3409000   0.71418416   -7.4569632    826.84843   0.02021239  0.020193405         3890 
 3410000   0.72332511    -7.445679    827.13262  0.020213407  0.020186337         3899 
 3411000   0.71012483   -7.4415569    826.30109  0.020187166  0.020179274         3915 
 3412000    0.7010075   -7.4580429     826.0599  0.020175359  0.020172209         3879 
 3413000   0.70586031   -7.4849455    825.20467  0.020148566  0.020165133         3896 
 3414000    0.7128857   -7.4435038    825.67987  0.020154264  0.020158074         3882 
 3415000    0.7048002   -7.4777093    826.00388  0.020156268  0.020151013         3915 
 3416000   0.70313074   -7.4515281    824.51707  0.020114097  0.020143957         3894 
 3417000   0.70174425   -7.4556942    826.62124  0.020159527  0.020136895         3898 
 3418000   0.70616574   -7.4513878    825.85304    0.0201349  0.020129844         3907 
 3419000   0.68913948   -7.4808247    825.70298  0.020125353  0.020122783         3896 
 3420000   0.70989337   -7.4630962    826.54513  0.020139989  0.020115721         3888 
 3421000   0.68894096   -7.4659695    826.46873   0.02013224   0.02010868         3900 
 3422000   0.69725228   -7.4702815    826.37781  0.020124143  0.020101625         3880 
 3423000   0.70906503   -7.4833277    826.80911  0.020128764  0.020094583         3890 
 3424000   0.70317005   -7.4771379    825.24567  0.020084834  0.020087526         3885 
 3425000   0.71883875   -7.4760437    825.62725  0.020088254  0.020080481         3901 
 3426000   0.71404356   -7.4843308    824.53318  0.020055779  0.020073433         3900 
 3427000   0.69133889   -7.4689684    825.51376  0.020073771  0.020066388         3910 
 3428000   0.71662516   -7.4550516    828.26912  0.020134897  0.020059348         3900 
 3429000    0.6880102   -7.4786849    824.85057  0.020045946  0.020052305         3895 
 3430000   0.70362657   -7.4671217    826.16088  0.020071936  0.020045256         3899 
 3431000   0.70565916   -7.4683855    826.90388  0.020084132  0.020038222         3899 
 3432000    0.7139959   -7.4622134    824.16114  0.020011683   0.02003118         3893 
 3433000   0.71477264    -7.465127    824.86492  0.020022937  0.020024144         3901 
 3434000   0.71323289   -7.4717896     827.5823  0.020083049  0.020017115         3898 
 3435000   0.68483983     -7.45706    827.74594  0.020081173  0.020010084         3886 
 3436000   0.69734779   -7.4808298    825.63591  0.020024154  0.020003054         3896 
 3437000   0.71656177   -7.4591623    826.12372  0.020030155  0.019996024         3891 
 3438000   0.69445367   -7.4806987    823.90442  0.019970536  0.019989001         3894 
 3439000   0.68761424   -7.4910463    825.14445  0.019994777  0.019981973         3907 
 3440000   0.68587199   -7.4785367    825.85817  0.020006254  0.019974946         3903 
 3441000   0.68601053   -7.4809767    825.11395  0.019982417  0.019967925         3895 
 3442000   0.70127144   -7.4647126    826.16187  0.020001982  0.019960904         3886 
 3443000   0.70209562   -7.4624849    825.88529  0.019989478   0.01995388         3897 
 3444000   0.70188453   -7.4595818    825.50443  0.019974459  0.019946856         3893 
 3445000   0.70280738   -7.4809064    824.76105  0.019950679  0.019939844         3908 
 3446000   0.69047392     -7.45961    824.71108  0.019943681  0.019932832         3894 
 3447000   0.71202162     -7.47695    826.14893  0.019972656  0.019925823         3886 
 3448000   0.70973692    -7.475953    825.01977  0.019939573  0.019918813         3900 
 3449000   0.69638082   -7.4672376    825.88214  0.019954628  0.019911811         3908 
 3450000   0.69712062   -7.4798786    824.52977  0.019916178  0.019904802         3895 
 3451000   0.70265205   -7.4955969    824.22906  0.019903146  0.019897793         3894 
 3452000   0.69364679   -7.4655607    825.02203  0.019916522  0.019890785         3896 
 3453000   0.70034451   -7.4965258    825.72526  0.019927726  0.019883781         3904 
 3454000   0.69083033   -7.4775131    825.99207  0.019928394  0.019876778         3890 
 3455000   0.69704775   -7.4908601    827.32096  0.019954678  0.019869765         3898 
 3456000   0.68800068   -7.4708919    824.52664  0.019881526  0.019862756         3902 
 3457000   0.70211194   -7.4612528    826.08523  0.019913346  0.019855752         3895 
 3458000   0.69472034   -7.4734902    825.08386  0.019883455  0.019848754         3897 
 3459000   0.69653311   -7.4947257    826.60949  0.019914462  0.019841752         3906 
 3460000   0.69519839   -7.4817561    825.33415   0.01987799  0.019834761         3902 
 3461000   0.69424813   -7.4889267    825.08033  0.019866135   0.01982777         3887 
 3462000   0.68357626   -7.4850388     825.5828  0.019872492  0.019820787         3889 
 3463000    0.7071835   -7.5000879    825.07345  0.019854496  0.019813797         3899 
 3464000   0.70198564   -7.4982157    824.61762  0.019837799  0.019806812         3877 
 3465000   0.69190158   -7.4786151    824.59935  0.019831634  0.019799816         3913 
 3466000    0.7070204   -7.4914948    825.56362  0.019849096  0.019792839         3890 
 3467000   0.69436884   -7.4869845    824.41041  0.019815653  0.019785855         3889 
 3468000   0.69910415    -7.473997    826.23912  0.019853881  0.019778882         3907 
 3469000   0.70142764   -7.4891205    826.38793  0.019851733  0.019771907         3898 
 3470000   0.70436888   -7.4872535    825.25759  0.019818866   0.01976493         3902 
 3471000   0.70186329   -7.4435912    825.76547   0.01982535  0.019757968         3884 
 3472000   0.70984855   -7.4688491    825.78902  0.019820205  0.019751002         3885 
 3473000   0.69609371   -7.4787996    825.18336  0.019799965  0.019744029         3900 
 3474000   0.68642731   -7.4997065    826.25801  0.019820044  0.019737058         3878 
 3475000   0.70422144   -7.4879513    825.75975  0.019802392  0.019730093         3887 
 3476000   0.69557136   -7.4915077    827.18357   0.01983083  0.019723124         3894 
 3477000   0.69113666   -7.4953472    825.54802  0.019785927  0.019716169         3892 
 3478000   0.70797479   -7.5053281    825.16055  0.019770954   0.01970922         3902 
 3479000   0.69128499   -7.4856128     826.1133  0.019788093  0.019702275         3896 
 3480000   0.69643491   -7.4909301     825.0454  0.019756834  0.019695324         3883 
 3481000   0.69133632   -7.5041249    824.43435   0.01973653  0.019688377         3896 
 3482000   0.70161893   -7.4859378    824.84643  0.019740724  0.019681427         3885 
 3483000   0.68827457   -7.4878164    824.80073  0.019733963  0.019674486         3892 
 3484000   0.69237995   -7.4789153    825.46682  0.019744231  0.019667542         3884 
 3485000   0.69259492   -7.4705692    825.36833  0.019736211  0.019660595         3906 
 3486000   0.69254968   -7.4752824    824.60714  0.019712353  0.019653652         3892 
 3487000   0.69813493   -7.4880847    825.01022  0.019716333  0.019646717         3892 
 3488000   0.69984321    -7.475936    825.99796  0.019734278  0.019639779         3899 
 3489000   0.70312827   -7.4845219    824.86697  0.019701609  0.019632846         3900 
 3490000   0.67500315   -7.5100795    826.23746  0.019728688  0.019625909         3904 
 3491000   0.68444415   -7.4794222    825.59123  0.019707611  0.019618974         3896 
 3492000   0.68280738   -7.4984688    827.11417  0.019738311  0.019612045         3893 
 3493000   0.71041403   -7.4728156    823.79064   0.01965337  0.019605113         3905 
 3494000   0.69642337    -7.481815     824.7964  0.019671732   0.01959818         3897 
 3495000   0.69674347   -7.4852426    824.28382  0.019653882  0.019591257         3900 
 3496000   0.68948524   -7.4662557    825.61419  0.019679972  0.019584343         3902 
 3497000   0.69772095   -7.4777135    823.57701  0.019625799  0.019577418         3888 
 3498000   0.69324109   -7.4858397     825.2089  0.019659065  0.019570498         3890 
 3499000   0.68783876   -7.4864706    823.19643  0.019605517  0.019563576         3894 
 3500000    0.6893955   -7.4869814    824.88567  0.019640135  0.019556653         3888 
 3501000    0.6734043   -7.4693306    824.07969  0.019615341  0.019549739         3895 
 3502000   0.68799997   -7.4835183    825.60803  0.019646108  0.019542825         3889 
 3503000   0.67736271   -7.4919777    823.60182  0.019592773  0.019535919         3906 
 3504000   0.68819237   -7.4752361    824.13532   0.01959987  0.019529015         3879 
 3505000   0.67315437   -7.5025022    825.03197  0.019615596  0.019522104         3894 
 3506000   0.68655627   -7.5001355    825.23183  0.019614752  0.019515195         3894 
 3507000   0.68603157   -7.4763648    826.04141  0.019628396  0.019508296         3897 
 3508000   0.69340033   -7.4842485    825.00012  0.019598064  0.019501398         3894 
 3509000   0.70178861   -7.4845289     824.4742   0.01957999  0.019494496         3886 
 3510000   0.67198315   -7.4679974    824.16852  0.019567154  0.019487601         3891 
 3511000   0.69007472    -7.505593    824.48172  0.019569014  0.019480704         3893 
 3512000   0.69258725   -7.5034011    824.39778  0.019561451  0.019473817         3888 
 3513000   0.69021878   -7.4791664    826.43594   0.01960423  0.019466927         3892 
 3514000   0.69251226   -7.4778513    825.12447  0.019567551  0.019460038         3903 
 3515000   0.68345469   -7.4962926     822.9705  0.019510917  0.019453147         3898 
 3516000   0.70704264   -7.5010373    823.79041  0.019524801   0.01944625         3895 
 3517000   0.69096512   -7.4847076     823.9871   0.01952391  0.019439369         3893 
 3518000   0.68658476   -7.4996462    824.17291  0.019522762  0.019432498         3898 
 3519000   0.68435239   -7.5003884    825.02303  0.019537346  0.019425616         3903 
 3520000   0.67937513   -7.4991587    824.28568  0.019514339  0.019418743         3899 
 3521000   0.68450408   -7.4853702    825.02793  0.019526364  0.019411868         3906 
 3522000   0.70761628   -7.5118058    823.46616  0.019483867  0.019404989         3903 
 3523000   0.67550251   -7.5106446      825.592  0.019528622  0.019398116         3901 
 3524000   0.69446452   -7.4918249    824.72496  0.019502577   0.01939125         3903 
 3525000   0.69401707   -7.4914725    824.95158  0.019502401  0.019384374         3893 
 3526000   0.68416059   -7.5047066    824.23338  0.019479896  0.019377514         3897 
 3527000   0.69111617   -7.4985009    824.77251  0.019487111  0.019370656         3894 
 3528000   0.68746107   -7.5035915    826.66163   0.01952621  0.019363788         3908 
 3529000   0.67886168   -7.4944335    825.83951  0.019501264  0.019356917         3909 
 3530000   0.68048533   -7.4959831    824.80863  0.019471403  0.019350062         3901 
 3531000   0.69606677   -7.5016728     824.7605  0.019464753  0.019343202         3897 
 3532000   0.68082474   -7.4795467    823.37949  0.019426658  0.019336345         3909 
 3533000   0.68467459   -7.4874658    824.69015  0.019452075  0.019329491         3909 
 3534000   0.68719565   -7.4829187    822.35824  0.019391583  0.019322642         3914 
 3535000   0.69512739   -7.5138449    825.43632  0.019458659  0.019315791         3894 
 3536000   0.70123875   -7.4859353    826.34722  0.019474623  0.019308947         3907 
 3537000   0.68447051   -7.5140392    826.73955  0.019478361  0.019302103         3897 
 3538000   0.69242169   -7.5025481    824.63932  0.019423387  0.019295253         3906 
 3539000   0.67930847    -7.485797    827.09944  0.019475827  0.019288408         3876 
 3540000   0.69990894   -7.5060384    823.70612  0.019390445  0.019281562         3885 
 3541000   0.69006554   -7.5218915    826.07864  0.019440804  0.019274733         3894 
 3542000   0.69211056   -7.4926365    825.09054  0.019412068  0.019267896         3890 
 3543000   0.68880122   -7.5049176     824.2836  0.019387609  0.019261056         3891 
 3544000   0.68450584   -7.5143444    825.84016   0.01941874  0.019254228         3894 
 3545000   0.68150478   -7.5149693    823.56476  0.019359773  0.019247396         3887 
 3546000   0.68747102   -7.4951522    825.30483  0.019395207  0.019240568         3892 
 3547000    0.6798692   -7.4910034    823.59574  0.019349585  0.019233736         3905 
 3548000   0.68426666   -7.5027945    824.52326  0.019365916   0.01922691         3891 
 3549000   0.68191025   -7.4927491    825.33869  0.019379607  0.019220074         3897 
 3550000   0.67719845   -7.4966534    823.56568  0.019332528  0.019213246         3906 
 3551000   0.67133829   -7.5093144    823.87383  0.019334315   0.01920643         3911 
 3552000   0.67762683   -7.4907618    823.88968  0.019329244  0.019199606         3895 
 3553000    0.6726288   -7.4962245    822.87334  0.019299966  0.019192798         3906 
 3554000   0.68701166   -7.5432509    824.16319  0.019324779  0.019185982         3912 
 3555000   0.66490361   -7.5263174    824.95012   0.01933779   0.01917916         3910 
 3556000   0.67922733   -7.5012725    824.38531  0.019319116  0.019172349         3890 
 3557000   0.69060622   -7.4908061    825.03633  0.019328936  0.019165545         3908 
 3558000    0.6743325   -7.5204904    823.29853  0.019282802  0.019158741         3899 
 3559000   0.68614744   -7.5034689    823.26266  0.019276544  0.019151936         3900 
 3560000   0.67964903   -7.5034429    825.32034  0.019319296  0.019145132         3904 
 3561000   0.68383069   -7.5178303    825.68829  0.019322482  0.019138332         3903 
 3562000    0.6799083   -7.4945197    825.70137  0.019317363  0.019131536         3897 
 3563000   0.67650442   -7.5006188    824.82019  0.019291332  0.019124734         3902 
 3564000    0.6694228   -7.5082255    824.26123  0.019272849  0.019117934         3902 
 3565000   0.68222803   -7.5113559    826.59021  0.019321884  0.019111142         3900 
 3566000   0.68968384    -7.492231    824.15992  0.019259673  0.019104352         3896 
 3567000    0.6840506   -7.5000506    825.12763  0.019276881  0.019097563         3909 
 3568000   0.69065084   -7.5215275    823.44617  0.019232207  0.019090767         3896 
 3569000    0.6700821   -7.5056456    823.15528  0.019220026  0.019083991         3902 
 3570000   0.68014939     -7.51362    825.11876  0.019260475  0.019077212         3897 
 3571000   0.66294463   -7.5029962    824.57274   0.01924234  0.019070437         3898 
 3572000   0.66774372   -7.5180456    823.26724  0.019206496  0.019063656         3892 
 3573000   0.68272592   -7.5162142    825.00238  0.019241589  0.019056874         3880 
 3574000    0.6887825    -7.497677    824.46193  0.019223604    0.0190501         3906 
 3575000   0.67928761   -7.5232013    824.21982  0.019212583  0.019043325         3875 
 3576000   0.68336494   -7.4997628    823.62997  0.019193465  0.019036559         3911 
 3577000   0.67727994   -7.5055507    824.67503  0.019212446  0.019029793         3887 
 3578000   0.68099318   -7.5109864    825.44728  0.019225062  0.019023025         3906 
 3579000   0.69865402   -7.5023898    824.65785   0.01920131  0.019016261         3899 
 3580000    0.6711543   -7.5121932    824.87923  0.019201099  0.019009498         3891 
 3581000   0.67871675   -7.5310004    824.92951  0.019196908  0.019002743         3890 
 3582000    0.6755128    -7.490228    823.62136  0.019161115  0.018995985         3884 
 3583000    0.6730406   -7.5066461    824.42796  0.019174527  0.018989227         3910 
 3584000   0.67606283   -7.5229834    823.94195  0.019157876  0.018982476         3903 
 3585000   0.67364242    -7.525578    825.07861  0.019178954   0.01897572         3909 
 3586000   0.68082276   -7.5108932    825.29614  0.019178661  0.018968969         3908 
 3587000   0.66938753    -7.485749    824.52518  0.019155403  0.018962224         3894 
 3588000   0.68660133   -7.5080059    823.29612  0.019121519  0.018955479         3906 
 3589000   0.67752586    -7.508201    823.42194  0.019119113  0.018948734         3894 
 3590000   0.66723791   -7.5031744    824.75976  0.019144841  0.018941993         3897 
 3591000   0.67955844   -7.4958005    822.25924  0.019081482  0.018935253         3903 
 3592000   0.67903088   -7.5191479    824.16588  0.019120404  0.018928509         3900 
 3593000   0.67558756   -7.5134594    824.97506   0.01913385  0.018921783         3906 
 3594000   0.67152601   -7.5205578    825.62201  0.019143526  0.018915052         3898 
 3595000   0.68338516   -7.5050521    825.01965  0.019124238  0.018908327         3893 
 3596000   0.67789702   -7.5010026    823.26055  0.019078155  0.018901597         3899 
 3597000   0.68472647    -7.510672    823.51316  0.019078704  0.018894867         3909 
 3598000   0.66483788   -7.5103813    824.02364  0.019085224  0.018888142         3881 
 3599000   0.68331564   -7.5120432    825.06778  0.019104098  0.018881418         3892 
 3600000    0.6729356   -7.5011907    823.50611  0.019062641  0.018874705         3899 
 3601000   0.66067164   -7.5231747    824.88438  0.019089243  0.018867989         3893 
 3602000   0.66704713   -7.5145537    823.75367  0.019057784  0.018861278         3885 
 3603000   0.66297877   -7.5219912    823.72058   0.01905173  0.018854562         3898 
 3604000   0.67069251   -7.5007181    822.94257  0.019028454  0.018847848         3905 
 3605000   0.67248413   -7.5232203    824.91561  0.019068784   0.01884114         3906 
 3606000    0.6655009   -7.5196013    823.40842  0.019028666  0.018834431         3903 
 3607000   0.67823039   -7.5155583    823.24352  0.019019581  0.018827719         3897 
 3608000   0.68503282   -7.5123739     824.8082  0.019050448  0.018821016         3906 
 3609000   0.67098379   -7.5229638      824.602  0.019040408  0.018814317         3895 
 3610000   0.66826502   -7.5095463    824.39944  0.019030458  0.018807619         3909 
 3611000    0.6690655   -7.5136431    823.63927  0.019007645  0.018800914         3883 
 3612000   0.68028934   -7.5189453     823.5001  0.018999172  0.018794211         3902 
 3613000   0.68685316   -7.5440869    823.77819  0.019000327  0.018787517         3909 
 3614000   0.68372634   -7.5246699    824.70877  0.019016528  0.018780827         3887 
 3615000   0.67816909   -7.4994611    823.37587  0.018980541  0.018774136         3889 
 3616000   0.67509656   -7.5080887    824.24743  0.018995378  0.018767446         3886 
 3617000   0.67191412   -7.5232717    823.06015  0.018962772  0.018760764         3891 
 3618000   0.66306507   -7.5246588    824.10425  0.018981579  0.018754076         3892 
 3619000   0.67463181    -7.529048     825.2533  0.019002793  0.018747397         3898 
 3620000   0.68041698    -7.498066    823.73999  0.018962707   0.01874072         3900 
 3621000   0.68339348   -7.5230889    823.27493  0.018946767   0.01873404         3897 
 3622000   0.69757028   -7.5242302    823.20843  0.018940006  0.018727361         3906 
 3623000   0.68872695   -7.5404833    823.37968  0.018938717  0.018720686         3899 
 3624000   0.67413576   -7.5313859    824.27084  0.018953984  0.018714014         3903 
 3625000   0.66988462   -7.4854568    822.99042   0.01891932  0.018707339         3897 
 3626000   0.66515113   -7.5174239    824.82821  0.018956339  0.018700671         3898 
 3627000   0.65578761   -7.4991277     824.4463  0.018942338  0.018694008         3899 
 3628000    0.6798695   -7.5365248    824.00168  0.018926904  0.018687352         3886 
 3629000   0.66070036   -7.4943626    823.72444  0.018915322  0.018680691         3900 
 3630000    0.6740546    -7.535821    823.51696  0.018905348   0.01867403         3897 
 3631000   0.66472845   -7.5216284    823.58906  0.018901796  0.018667382         3888 
 3632000   0.67379391   -7.5014444    823.69016  0.018898911  0.018660729         3892 
 3633000   0.67588722   -7.5156369    825.30804   0.01893082  0.018654077         3903 
 3634000   0.66338699    -7.507594    823.38575   0.01888153  0.018647439         3881 
 3635000   0.68189921   -7.5353345    823.57844  0.018880753  0.018640798         3888 
 3636000   0.66079815   -7.5494576    824.78093   0.01890312  0.018634151         3893 
 3637000    0.6665421   -7.5174551    824.21535  0.018884963  0.018627507         3916 
 3638000    0.6749521   -7.5289196    823.22486  0.018857084  0.018620869         3902 
 3639000   0.66416069   -7.5241194    824.22531  0.018874812  0.018614233         3890 
 3640000   0.67953214   -7.5294144    823.76595  0.018859111  0.018607589         3901 
 3641000   0.69500127   -7.5261727    825.18655  0.018886445  0.018600963         3905 
 3642000   0.67797014    -7.535212    822.62236  0.018822587  0.018594337         3888 
 3643000   0.66650776   -7.4995743     824.6407   0.01886359  0.018587709         3896 
 3644000   0.66631951   -7.5258084    823.79306  0.018839029  0.018581081         3880 
 3645000   0.66214678   -7.5163742    823.03715  0.018816579  0.018574449         3895 
 3646000   0.67402511   -7.5170633    822.23673  0.018793123  0.018567823         3900 
 3647000   0.65436529   -7.5291786    823.76492  0.018822889  0.018561206         3899 
 3648000   0.68054997   -7.5346967    821.67875  0.018770074  0.018554583         3882 
 3649000   0.67767648   -7.5149953    823.46497  0.018805722  0.018547962         3899 
 3650000   0.67397037   -7.5241543    822.28664  0.018773668  0.018541348         3906 
 3651000   0.67059051   -7.5252667    823.73884  0.018801672  0.018534731         3902 
 3652000   0.67121819   -7.5385654    822.37363  0.018765371  0.018528119         3886 
 3653000   0.67190303   -7.5050921    823.67088  0.018789827  0.018521512         3879 
 3654000   0.68335362   -7.5529153    822.92695  0.018767719  0.018514904         3888 
 3655000   0.65452155   -7.5104291    823.61486  0.018778269  0.018508304         3892 
 3656000   0.69776841   -7.5143344    825.20218  0.018809313  0.018501706         3888 
 3657000   0.65217458   -7.5391936    823.88429  0.018774138  0.018495103         3904 
 3658000   0.67377958   -7.5252864    823.34097  0.018756629  0.018488504         3900 
 3659000   0.67927499   -7.5419726     823.3584  0.018751899  0.018481909         3876 
 3660000   0.67497767   -7.5242435    824.49931  0.018772753  0.018475315         3897 
 3661000   0.64590188   -7.5337217    824.14016   0.01875945  0.018468721         3907 
 3662000   0.66742842   -7.5435415    824.15012  0.018754554  0.018462126         3896 
 3663000    0.6604499   -7.5332857    824.54348  0.018758383  0.018455534         3883 
 3664000   0.65793255   -7.5350502    824.17731  0.018744935  0.018448942         3892 
 3665000   0.65881467   -7.5140576    821.89155  0.018687848   0.01844236         3907 
 3666000   0.66766737    -7.542785    823.72159   0.01872435  0.018435777         3898 
 3667000   0.65845893   -7.5400296    823.61732  0.018716874  0.018429189         3885 
 3668000   0.66622149   -7.5332248    823.71061  0.018713891  0.018422605         3904 
 3669000   0.66287203   -7.5121668    822.96566   0.01869187  0.018416023         3896 
 3670000   0.66336873   -7.5223333    824.65091  0.018725043  0.018409451         3890 
 3671000   0.66270891   -7.5342419    822.97557  0.018681912  0.018402874         3917 
 3672000   0.65345517   -7.5266623    823.21252  0.018682201  0.018396305         3892 
 3673000   0.67049681   -7.5267276    822.14244  0.018652837   0.01838974         3907 
 3674000    0.6609147   -7.5238705    822.82244  0.018663184  0.018383171         3899 
 3675000   0.66752129   -7.5097664    820.74483  0.018610994  0.018376608         3882 
 3676000   0.66548129    -7.540544    822.70383  0.018650341  0.018370049         3895 
 3677000   0.66047918   -7.5319638    821.83966  0.018625684  0.018363491         3917 
 3678000   0.66322314   -7.5306248    821.97474   0.01862368  0.018356932         3890 
 3679000   0.67306258   -7.5554148    822.25113  0.018624878  0.018350374         3893 
 3680000    0.6715362    -7.512657    822.84133  0.018633182  0.018343824         3901 
 3681000   0.67125901   -7.5182988    822.71566  0.018625275  0.018337273         3899 
 3682000   0.67385552   -7.5389617    823.87968  0.018646562  0.018330715         3916 
 3683000   0.66787548   -7.5264017    822.60983  0.018612767  0.018324162         3901 
 3684000   0.67117871   -7.5219233    824.45696  0.018649497  0.018317611         3896 
 3685000   0.65901425   -7.5331338     822.8197  0.018607411  0.018311074         3897 
 3686000    0.6561357   -7.5369027     823.0344  0.018607217  0.018304538         3886 
 3687000   0.66233811    -7.503778    821.91004  0.018576757     0.018298         3896 
 3688000   0.66327729   -7.5431534    823.52382  0.018608185  0.018291462         3893 
 3689000   0.66539399   -7.5243251    822.53676  0.018580843  0.018284925         3911 
 3690000   0.65874313   -7.5426295    821.91918   0.01856186  0.018278391         3905 
 3691000   0.66907814   -7.5428157     823.1406  0.018584408   0.01827186         3905 
 3692000   0.67175584   -7.5629755    822.30025  0.018560407  0.018265332         3911 
 3693000   0.66668337   -7.5129442    823.35512  0.018579184  0.018258797         3886 
 3694000   0.65645829   -7.5328272    822.09374  0.018545699  0.018252278         3886 
 3695000   0.67941151    -7.528728    823.41975  0.018570585   0.01824575         3887 
 3696000    0.6609538   -7.5393904    823.91911   0.01857682   0.01823923         3893 
 3697000   0.66249876   -7.5331347    824.86672  0.018593155  0.018232708         3895 
 3698000    0.6525986   -7.5561566    822.50741   0.01853496  0.018226186         3875 
 3699000   0.65253461   -7.5640367    823.65488  0.018555801  0.018219672         3891 
 3700000   0.64642604   -7.5264432     823.4498  0.018546167  0.018213159         3894 
 3701000   0.66251426   -7.5384807    824.25598  0.018559308  0.018206649         3889 
 3702000   0.66214642   -7.5322666    822.69936  0.018519255  0.018200145         3884 
 3703000   0.65069037   -7.5245959    823.66427  0.018535968  0.018193642         3887 
 3704000   0.65999009   -7.5323765    823.70355  0.018531847   0.01818714         3890 
 3705000   0.65805925   -7.5427978    823.61906  0.018524945   0.01818064         3891 
 3706000   0.65648071   -7.5279208    824.57669   0.01854148  0.018174143         3885 
 3707000   0.65563236   -7.5392445    824.32186  0.018530749  0.018167651         3887 
 3708000   0.66307805   -7.5363521    823.58711  0.018509239  0.018161156         3885 
 3709000    0.6507215    -7.530826    823.46418  0.018501487  0.018154665         3891 
 3710000   0.65795901   -7.5421786    824.31716   0.01851566  0.018148172         3899 
 3711000    0.6623388   -7.5380476       822.09  0.018460657  0.018141688         3900 
 3712000   0.65721207   -7.5302094    821.85945  0.018450509   0.01813521         3910 
 3713000   0.66538712   -7.5468533    824.47746  0.018504297  0.018128722         3888 
 3714000   0.64242402   -7.5377527    823.07689  0.018467889  0.018122242         3890 
 3715000   0.65882328   -7.5386581      822.424  0.018448273  0.018115761         3897 
 3716000   0.67174577   -7.5585536    822.76684  0.018450997  0.018109278         3895 
 3717000   0.66197229   -7.5385694    822.85656  0.018448044  0.018102804         3889 
 3718000    0.6647702   -7.5422641    822.75959  0.018440909  0.018096329         3892 
 3719000   0.66296941   -7.5510776     822.1657  0.018422643  0.018089854         3896 
 3720000   0.66096405   -7.5560315    823.54587  0.018448608  0.018083383         3902 
 3721000   0.65981271   -7.5503807    822.81583  0.018427301  0.018076917         3905 
 3722000   0.65293698   -7.5517174    823.08741   0.01842843  0.018070454         3880 
 3723000   0.65402891   -7.5392834     822.6654  0.018414034  0.018063981         3893 
 3724000   0.65668734    -7.550104    821.96539  0.018393425  0.018057519         3884 
 3725000   0.64647293   -7.5621636    822.74093  0.018405837  0.018051058         3889 
 3726000   0.64905571   -7.5628338    823.96388  0.018428249  0.018044605         3885 
 3727000   0.65071784   -7.5391679     822.5744  0.018392237  0.018038146         3895 
 3728000    0.6444234    -7.531009    823.15926  0.018400377  0.018031694         3891 
 3729000   0.65787435   -7.5471567    823.58152  0.018404879   0.01802524         3898 
 3730000   0.65807201   -7.5492388     823.8501  0.018405945   0.01801879         3897 
 3731000   0.65844532   -7.5344676    823.40122  0.018390986  0.018012343         3908 
 3732000   0.65503924   -7.5521039    823.26264  0.018382964  0.018005908         3896 
 3733000   0.64728358   -7.5202478    821.37375  0.018335873  0.017999469         3875 
 3734000   0.66372961   -7.5521962    823.38472  0.018375842  0.017993036         3890 
 3735000   0.66299426   -7.5225431    821.45275  0.018327817  0.017986604         3886 
 3736000    0.6564139    -7.544299    822.25176  0.018340733  0.017980176         3877 
 3737000   0.65163727   -7.5466789    822.56915  0.018342903  0.017973753         3891 
 3738000   0.66526582   -7.5479631    820.97831  0.018302531  0.017967327         3890 
 3739000   0.66847675   -7.5389104    823.23397  0.018347909  0.017960902         3891 
 3740000   0.64917832   -7.5289808    824.03107  0.018360764   0.01795448         3911 
 3741000   0.66280964   -7.5427311    823.29793  0.018339524  0.017948063         3902 
 3742000   0.65601702   -7.5442539    822.27598  0.018311865  0.017941636         3902 
 3743000   0.66642168    -7.558609    822.79375    0.0183185  0.017935209         3903 
 3744000   0.65421375   -7.5441815    822.08417  0.018297814  0.017928793         3902 
 3745000   0.66444763   -7.5580777    822.97002   0.01831264   0.01792238         3896 
 3746000   0.64593129   -7.5609444     823.3126  0.018315372  0.017915966         3886 
 3747000   0.65576378   -7.5259382    822.31368  0.018288268  0.017909553         3896 
 3748000   0.66415189   -7.5601815    822.82217  0.018294694  0.017903143         3897 
 3749000   0.64903597   -7.5386342     821.2986  0.018255948  0.017896735         3888 
 3750000   0.64241903   -7.5510245    823.05135   0.01829003  0.017890331         3892 
 3751000   0.64519791    -7.561384    821.93078  0.018260259  0.017883925         3901 
 3752000   0.64513885   -7.5536739    823.40192  0.018288067  0.017877523         3903 
 3753000   0.64776751   -7.5350335    822.42655  0.018261536   0.01787112         3891 
 3754000   0.63541416   -7.5606581    822.02088  0.018247666  0.017864724         3884 
 3755000   0.65544154   -7.5592384    822.35678  0.018250262  0.017858324         3897 
 3756000   0.65752219   -7.5699983    821.25466   0.01822095  0.017851928         3899 
 3757000   0.64639169   -7.5327268    821.46617  0.018220792  0.017845532         3901 
 3758000   0.65481901   -7.5709996     822.1203  0.018230448  0.017839142         3902 
 3759000   0.66034381   -7.5484715     822.6709  0.018237805  0.017832759         3901 
 3760000   0.65633103   -7.5485966    822.83451  0.018236581  0.017826374         3903 
 3761000   0.63959726    -7.559231    822.02555  0.018213807  0.017819995         3895 
 3762000    0.6545011   -7.5531204    820.58815  0.018177125  0.017813616         3900 
 3763000   0.64885446   -7.5533539    822.54531  0.018215637  0.017807239         3895 
 3764000   0.65240555   -7.5417769    821.30818  0.018183408   0.01780086         3892 
 3765000   0.65026428   -7.5404181    822.60586  0.018207301  0.017794486         3894 
 3766000   0.65459539   -7.5426871    822.96643  0.018210445  0.017788112         3895 
 3767000   0.65419508   -7.5586435    822.26232  0.018190035  0.017781743         3903 
 3768000   0.64283652    -7.553812    823.28084  0.018207733  0.017775383         3904 
 3769000    0.6604295   -7.5470933    822.93166  0.018195181  0.017769022         3906 
 3770000     0.644988   -7.5566583    821.65473  0.018162129  0.017762656         3893 
 3771000   0.65115832   -7.5611427    822.40473  0.018173887  0.017756298         3893 
 3772000   0.65958185    -7.562844    820.99264  0.018137872  0.017749946         3903 
 3773000   0.65789473   -7.5565291    823.35175   0.01818517  0.017743591         3899 
 3774000   0.65360399   -7.5559761    822.33739  0.018157953  0.017737239         3874 
 3775000   0.63589899   -7.5732767    822.37569  0.018153989  0.017730896         3894 
 3776000   0.64654971   -7.5500778    821.50071  0.018129871  0.017724548         3902 
 3777000   0.63618432   -7.5666552    820.17323  0.018095782  0.017718204         3903 
 3778000   0.65263854   -7.5629159    822.70754  0.018146893  0.017711856         3904 
 3779000   0.64551491   -7.5629365    821.91455  0.018124604  0.017705518         3882 
 3780000   0.64785057   -7.5670936    823.09189  0.018145765  0.017699176         3897 
 3781000   0.64591461   -7.5466146    822.44919  0.018126801  0.017692836         3895 
 3782000   0.64437234   -7.5434114    822.07285  0.018113715  0.017686506         3913 
 3783000   0.64971804   -7.5688669    821.53816  0.018097149  0.017680176         3895 
 3784000   0.64913058   -7.5452076    821.45604  0.018090558  0.017673846         3896 
 3785000   0.64841449   -7.5696598    823.22702  0.018124769  0.017667519         3892 
 3786000   0.65398324   -7.5603988    822.22036  0.018097824   0.01766119         3914 
 3787000   0.65375036   -7.5642765    822.18899  0.018092355  0.017654863         3906 
 3788000    0.6437105   -7.5679446    821.74461  0.018077803  0.017648543         3897 
 3789000   0.63018868   -7.5803452    820.78273  0.018051877   0.01764222         3890 
 3790000   0.64204895   -7.5657548    822.10484  0.018076184  0.017635906         3885 
 3791000    0.6454497   -7.5372502    822.18046  0.018073078  0.017629595         3902 
 3792000   0.65045959    -7.565687    821.71494  0.018058082  0.017623283         3894 
 3793000   0.63906647   -7.5476128    821.72649  0.018053574  0.017616972         3898 
 3794000   0.64267329   -7.5623085    822.59192  0.018067825  0.017610669         3896 
 3795000   0.63730363   -7.5490365    821.17678  0.018031989  0.017604358         3894 
 3796000   0.66189067   -7.5492288    820.58603   0.01801427  0.017598054         3893 
 3797000   0.63812353    -7.574178    820.76261  0.018013401   0.01759176         3910 
 3798000   0.64001239   -7.5680733    821.06744  0.018015347  0.017585461         3905 
 3799000   0.63639189   -7.5760716    823.25093  0.018058501  0.017579162         3896 
 3800000   0.63040912     -7.56927    821.28974   0.01801074  0.017572867         3905 
 3801000   0.64053428   -7.5672937    822.06786  0.018023061  0.017566575         3896 
 3802000   0.63900425   -7.5436359    821.15955  0.017998412   0.01756028         3902 
 3803000   0.65195835   -7.5544779    821.14896  0.017993447   0.01755399         3919 
 3804000   0.65813316    -7.563727    820.78621  0.017980771  0.017547709         3912 
 3805000    0.6426051   -7.5687157    821.81817  0.017998646  0.017541426         3908 
 3806000   0.63606665   -7.5806274    821.51125  0.017987197  0.017535148         3889 
 3807000   0.65086949   -7.5713805    820.64683   0.01796355  0.017528866         3897 
 3808000    0.6485052   -7.5695874    820.93714  0.017965186  0.017522595         3904 
 3809000   0.63565665   -7.5789103     821.2932  0.017968259  0.017516324         3912 
 3810000   0.63184173   -7.5741999    821.84703  0.017975657  0.017510056         3915 
 3811000     0.624704   -7.5432855     821.9326  0.017972811  0.017503787         3917 
 3812000    0.6508869   -7.5679089    822.72262  0.017985367  0.017497518         3891 
 3813000   0.63847679    -7.575021    822.22953  0.017969873  0.017491252         3910 
 3814000   0.64780757   -7.5863648    822.40409  0.017968976  0.017484988         3900 
 3815000   0.63530464   -7.5788171    822.05464  0.017956632  0.017478726         3907 
 3816000   0.63175139   -7.5473089    822.01669  0.017951098  0.017472475         3894 
 3817000   0.64159324   -7.5853723    820.61246  0.017915738  0.017466221         3908 
 3818000   0.65951198   -7.5672457    819.52152  0.017887234  0.017459973         3903 
 3819000   0.63473821   -7.5679809     821.6102  0.017928127  0.017453717         3910 
 3820000   0.64317398   -7.5710452    821.59425  0.017923086  0.017447474         3899 
 3821000   0.64168047   -7.5703262    820.58827  0.017896455  0.017441229         3910 
 3822000   0.63638444   -7.5546289    820.73844  0.017895047  0.017434986         3916 
 3823000   0.64386623   -7.5670902    821.03628  0.017896859  0.017428743         3910 
 3824000    0.6482352    -7.559759    822.02157   0.01791365  0.017422501         3902 
 3825000   0.63282614   -7.5671774     824.7364  0.017968113  0.017416266         3895 
 3826000   0.64367508   -7.5819558     821.5998  0.017895099  0.017410037         3902 
 3827000   0.64777654   -7.5571853    823.24719  0.017926295  0.017403807         3893 
 3828000   0.64275649   -7.5669078    820.63461  0.017864738  0.017397574         3918 
 3829000   0.64425716   -7.5969145    822.29208  0.017896145  0.017391352         3911 
 3830000   0.63595045   -7.5613941    823.34037  0.017914281   0.01738513         3902 
 3831000   0.63837673   -7.5683021    821.25844  0.017864318  0.017378909         3899 
 3832000   0.64469344   -7.5446795    823.29464  0.017903937  0.017372693         3891 
 3833000   0.63448893   -7.5856076      820.724  0.017843378  0.017366471         3895 
 3834000    0.6433549   -7.5732539    821.30866  0.017851432  0.017360256         3908 
 3835000   0.64111584   -7.5632757    823.29591  0.017889959  0.017354041         3904 
 3836000   0.64404968   -7.5734531    820.42025  0.017822824  0.017347837         3904 
 3837000   0.65233532   -7.5571066    820.65412  0.017823259   0.01734163         3894 
 3838000   0.64488832   -7.5662687    821.04864  0.017827181  0.017335425         3890 
 3839000   0.64612558   -7.5664691    822.07013  0.017844711  0.017329221         3900 
 3840000    0.6368029   -7.5895453    821.02328  0.017817345  0.017323017         3912 
 3841000   0.62298683   -7.5578783    822.76056  0.017850398   0.01731682         3894 
 3842000   0.63167879   -7.5670708     822.5019  0.017840142  0.017310619         3901 
 3843000   0.63871386   -7.5806065    821.40739  0.017811766  0.017304425         3901 
 3844000   0.64730607   -7.5581655    822.09107  0.017821953  0.017298228         3904 
 3845000   0.64771053   -7.5959911    820.92378   0.01779202  0.017292041         3892 
 3846000   0.63856863   -7.5720231    821.18765  0.017793111  0.017285849         3907 
 3847000   0.65863653   -7.5777011    822.01572  0.017806423   0.01727966         3911 
 3848000    0.6281547   -7.5625609     820.1765  0.017761965  0.017273474         3907 
 3849000   0.63273031   -7.5952258    821.46237   0.01778519  0.017267291         3904 
 3850000   0.63756091   -7.5880905    821.70483  0.017785819  0.017261113         3908 
 3851000   0.62778177   -7.5695326    820.72715  0.017760044  0.017254936         3913 
 3852000   0.63503663   -7.5691928    821.79971  0.017778637  0.017248755         3908 
 3853000    0.6336165   -7.5731333    820.57909  0.017747623  0.017242579         3900 
 3854000    0.6358773   -7.5444869    821.99812  0.017773701  0.017236405         3916 
 3855000   0.64223751   -7.5768666    820.80126  0.017743218   0.01723023         3901 
 3856000   0.62878289   -7.5737718    823.09442  0.017788175  0.017224063         3913 
 3857000   0.62297219   -7.5708745    821.24848   0.01774368  0.017217899         3902 
 3858000   0.64136155   -7.5647865    821.77961  0.017750553  0.017211738         3896 
 3859000   0.61940648   -7.5927247    821.10155  0.017731311  0.017205574         3894 
 3860000   0.62706157   -7.5738228    819.91775   0.01770116  0.017199415         3911 
 3861000   0.62991145   -7.5700432    821.89791  0.017739314  0.017193255         3902 
 3862000   0.63504045   -7.5808413    820.18796  0.017697824    0.0171871         3912 
 3863000   0.61696109   -7.5712447    821.38676  0.017719103  0.017180947         3901 
 3864000   0.63723024   -7.5612674    820.08581  0.017686461  0.017174797         3898 
 3865000   0.63717121   -7.5824424     821.5035  0.017712451  0.017168649         3907 
 3866000   0.62547194   -7.5669194     821.2657  0.017702744  0.017162503         3908 
 3867000   0.63092584   -7.5772262    820.36106  0.017678671  0.017156364         3908 
 3868000   0.63455253   -7.5653221    820.31979  0.017673212  0.017150223         3913 
 3869000   0.62627608   -7.5557515    821.91139  0.017702925  0.017144085         3906 
 3870000   0.62323732   -7.5764463    821.52579  0.017690047   0.01713794         3908 
 3871000   0.63675651   -7.5851833    821.37809  0.017682298    0.0171318         3911 
 3872000   0.63253796   -7.5698944    819.40031  0.017635165  0.017125666         3890 
 3873000   0.62210499   -7.5730532    821.32789  0.017672086  0.017119539         3893 
 3874000    0.6415909   -7.5663493    821.36972  0.017668425  0.017113407         3901 
 3875000   0.64548993   -7.5806165    820.84955  0.017652679  0.017107282         3905 
 3876000   0.60966148   -7.5677039    821.35595  0.017659012  0.017101158         3909 
 3877000   0.63929987   -7.5715844    820.29801  0.017631717  0.017095039         3890 
 3878000   0.63248428   -7.5703336    820.10867  0.017623102  0.017088927         3905 
 3879000   0.62558188   -7.5700491    820.27133  0.017622053  0.017082808         3903 
 3880000   0.64046817   -7.5807453    820.51381  0.017622719  0.017076692         3909 
 3881000   0.62941637   -7.5832322    820.66525   0.01762143  0.017070579         3898 
 3882000   0.63425005   -7.5888179    822.53686  0.017657068  0.017064471         3899 
 3883000   0.63724388   -7.5826959    822.02812  0.017641603  0.017058362         3916 
 3884000   0.63142671   -7.6047897    821.75116  0.017631118  0.017052252         3898 
 3885000    0.6256481   -7.5972155    820.18905  0.017593073  0.017046148         3908 
 3886000   0.62843542   -7.5775237    821.97537  0.017626852  0.017040049         3905 
 3887000   0.64071581    -7.578771    821.05288   0.01760254  0.017033949         3914 
 3888000   0.62310965   -7.6002844    821.11585  0.017599362  0.017027851         3911 
 3889000   0.63336388   -7.5750986    821.76693  0.017608788  0.017021754         3915 
 3890000   0.64428869   -7.5867515    821.00595   0.01758796  0.017015663         3909 
 3891000   0.64671705   -7.5922971    820.39973  0.017570456  0.017009572         3909 
 3892000   0.63110731   -7.5790943    820.22735  0.017562251  0.017003487         3903 
 3893000   0.64700596   -7.6115121    821.04082  0.017575152  0.016997404         3910 
 3894000   0.63577856   -7.5791486    821.64479  0.017583564  0.016991318         3891 
 3895000   0.62288265   -7.5785904    820.66765  0.017558144  0.016985237         3897 
 3896000    0.6217745   -7.5836762    820.57787  0.017551717  0.016979157         3905 
 3897000   0.62031415   -7.5901153    821.62828  0.017569675  0.016973089         3919 
 3898000   0.63567684   -7.5611419    820.44168    0.0175398  0.016967014         3907 
 3899000   0.63201585   -7.5840228    821.73416  0.017562925  0.016960941         3915 
 3900000   0.61404058    -7.584974    820.87531  0.017540071  0.016954873         3916 
 3901000   0.63196352   -7.5857771    820.61888  0.017530096  0.016948805         3907 
 3902000   0.62425402   -7.5764998    822.16473  0.017558618  0.016942746         3897 
 3903000   0.61459926   -7.5884665    821.40367   0.01753787  0.016936685         3901 
 3904000   0.62840226   -7.5842144    821.09051  0.017526693  0.016930631         3912 
 3905000   0.62922494   -7.5802267    821.60787  0.017533245   0.01692458         3903 
 3906000   0.62022295   -7.5905321    821.10271  0.017517979  0.016918531         3906 
 3907000   0.62294454   -7.5617591    820.11487  0.017492425  0.016912476         3903 
 3908000   0.62763267   -7.6002316    820.02421  0.017486016  0.016906417         3912 
 3909000   0.62198012   -7.6090028    820.15241  0.017484276  0.016900373         3898 
 3910000   0.63717341   -7.5699064    821.58056  0.017510242  0.016894322         3901 
 3911000   0.63110138   -7.5727309    820.98069  0.017492983  0.016888289         3894 
 3912000   0.62488447   -7.5614005    820.10782  0.017469918   0.01688225         3915 
 3913000   0.62817982   -7.6109715    820.57982  0.017475505   0.01687621         3905 
 3914000   0.62321254   -7.5765926    821.05058  0.017481063  0.016870178         3902 
 3915000   0.62839485    -7.565434    820.39648  0.017462675  0.016864147         3898 
 3916000   0.62801066   -7.6048295     820.4848  0.017460095   0.01685812         3902 
 3917000   0.64257726    -7.582002    820.18603  0.017449281   0.01685209         3911 
 3918000   0.62195292   -7.6045193    820.48653  0.017451219  0.016846069         3900 
 3919000   0.63144953   -7.5883178    820.99048  0.017457482  0.016840044         3917 
 3920000   0.60871683   -7.5833962    819.60846  0.017423649  0.016834018         3904 
 3921000   0.62320882   -7.5877713    821.95394  0.017469054  0.016827993         3899 
 3922000   0.62955887   -7.5813332    821.60504  0.017457187  0.016821982         3903 
 3923000    0.6175154   -7.5961222    820.89598  0.017437675   0.01681597         3902 
 3924000   0.62630386   -7.5788069     822.0135  0.017456964   0.01680996         3908 
 3925000   0.61633916   -7.5894061     819.8101  0.017405735  0.016803953         3914 
 3926000   0.62606854   -7.5992608    820.80195  0.017422354  0.016797943         3914 
 3927000   0.63325185   -7.5983307    821.79788  0.017439052  0.016791937         3904 
 3928000   0.64035275   -7.5782137    821.04934  0.017418732  0.016785934         3914 
 3929000       0.6141   -7.6003149    818.83452  0.017367322  0.016779932         3910 
 3930000   0.61591175    -7.581522    820.60189  0.017400379  0.016773933         3891 
 3931000    0.6214876   -7.6092975    820.51045  0.017394015  0.016767936         3907 
 3932000   0.62230214    -7.603176    819.34086  0.017364803  0.016761943         3909 
 3933000   0.62999935   -7.5839587     820.3112  0.017380947  0.016755951         3895 
 3934000   0.61164993   -7.5952419    820.84585  0.017387855  0.016749964         3910 
 3935000    0.6227407   -7.6030241     820.8042  0.017382554  0.016743978         3898 
 3936000   0.63065414   -7.5734096    820.95387  0.017381307  0.016737997         3897 
 3937000    0.6196838   -7.6000823    821.56649  0.017389859  0.016732016         3904 
 3938000   0.62332682   -7.6046257    820.77472  0.017368688  0.016726031         3908 
 3939000   0.61527726   -7.5805354    819.95131  0.017346859  0.016720055         3912 
 3940000   0.62227169   -7.5878091    820.44291  0.017352853  0.016714077         3887 
 3941000    0.6361567   -7.5990832    821.25416  0.017365604  0.016708105         3917 
 3942000   0.59803027   -7.6097739    820.45071  0.017344214  0.016702132         3908 
 3943000   0.60726513   -7.5698306    819.88911  0.017327946  0.016696163         3898 
 3944000    0.6189757   -7.6209647    819.59557  0.017317351  0.016690194         3901 
 3945000   0.61893883   -7.5970735    820.37898   0.01732951  0.016684231         3907 
 3946000   0.63462062   -7.5980659    819.93133  0.017315664  0.016678265         3907 
 3947000   0.61402342   -7.5852489    820.20915  0.017317143  0.016672304         3914 
 3948000   0.62456096   -7.5975014    819.92559  0.017306771  0.016666338         3907 
 3949000   0.62331146   -7.5967299    819.33853      0.01729  0.016660379         3903 
 3950000   0.61671475   -7.6065336    821.50639  0.017331359  0.016654429         3905 
 3951000   0.61237796   -7.6025832    819.32313  0.017280923   0.01664848         3897 
 3952000   0.60837491   -7.6012151    821.36909  0.017319692  0.016642531         3905 
 3953000   0.61027999   -7.6064802    819.72797  0.017280715  0.016636582         3902 
 3954000   0.61257656   -7.6076041    819.61748  0.017274015   0.01663064         3902 
 3955000   0.61087874   -7.6214345     819.5441  0.017268102  0.016624695         3898 
 3956000    0.6214746   -7.5966363    821.02892  0.017295014  0.016618751         3893 
 3957000   0.60810445   -7.5947918    820.99105  0.017289846  0.016612814         3898 
 3958000   0.61856376     -7.60833    819.76811  0.017259729  0.016606881         3908 
 3959000   0.63995007   -7.5962752    820.87528  0.017278675  0.016600941         3897 
 3960000   0.61546457   -7.6014532    819.47108  0.017244762   0.01659501         3911 
 3961000   0.61697237   -7.6142738    819.86085  0.017248608  0.016589088         3913 
 3962000   0.62035499   -7.5900488    820.15165  0.017250371   0.01658316         3900 
 3963000   0.62457968   -7.5812968     821.8337  0.017281388  0.016577242         3909 
 3964000   0.61334394   -7.6110187    820.71699  0.017253553  0.016571321         3909 
 3965000   0.61828077   -7.5881871    820.09863  0.017236205  0.016565401         3889 
 3966000   0.62167256   -7.5964808    820.52266  0.017240769  0.016559482         3909 
 3967000   0.62020502   -7.6058907     818.9419  0.017203216  0.016553557         3905 
 3968000   0.63209948   -7.5840078    821.31733  0.017248768  0.016547651         3897 
 3969000    0.6176296   -7.5939717    820.71728  0.017231823  0.016541744         3917 
 3970000   0.61255958   -7.5978541    821.39577  0.017241725  0.016535836         3906 
 3971000   0.62766798   -7.6153056    820.42955  0.017217106   0.01652993         3914 
 3972000   0.61834021   -7.6130472    821.24443  0.017229868  0.016524024         3904 
 3973000   0.61638017   -7.5676679    819.72659  0.017193695  0.016518132         3895 
 3974000     0.612791   -7.5966486    821.65386  0.017229782  0.016512232         3908 
 3975000   0.62111737   -7.6033081    819.93051  0.017189319  0.016506335         3916 
 3976000   0.62095439   -7.6025652     820.3941  0.017194712  0.016500442         3911 
 3977000   0.60923899   -7.6071921    819.42544  0.017170091  0.016494548         3909 
 3978000     0.617211   -7.6067769    820.63025  0.017191014  0.016488658         3903 
 3979000   0.60979334   -7.6124524    819.47517  0.017162502  0.016482772         3897 
 3980000   0.59753083   -7.6018387    819.73253  0.017163579   0.01647688         3908 
 3981000   0.60402668   -7.5927866    819.49827  0.017154364     0.016471         3906 
 3982000   0.61229064   -7.6001877    821.01008  0.017181694  0.016465127         3900 
 3983000   0.61697152   -7.5984722    819.92773  0.017154735   0.01645925         3893 
 3984000   0.62131732   -7.5975399    819.71203  0.017145918  0.016453372         3902 
 3985000   0.60871072   -7.6026866    818.57791  0.017117899  0.016447496         3906 
 3986000   0.62097952   -7.6089387    819.69585  0.017136976  0.016441624         3917 
 3987000   0.61370194   -7.6080204    819.22004  0.017122733  0.016435756         3906 
 3988000   0.61773435   -7.5871657    819.83392  0.017131267  0.016429891         3901 
 3989000    0.6190122   -7.5929768    820.20843  0.017134796  0.016424027         3905 
 3990000   0.59493017   -7.6048731    819.00583  0.017105385   0.01641816         3912 
 3991000   0.61027189   -7.5868685    819.63905  0.017114321  0.016412302         3905 
 3992000   0.60340098   -7.6164825    818.15996  0.017079158  0.016406442         3909 
 3993000   0.61849916   -7.5976427    818.70301  0.017086214  0.016400589         3909 
 3994000   0.61071025   -7.6187023    819.80961  0.017105024  0.016394738         3903 
 3995000    0.6197405   -7.5982104     820.5198  0.017115557  0.016388888         3900 
 3996000   0.61527306   -7.6213249    819.43338  0.017088617  0.016383034         3898 
 3997000   0.61360766    -7.609978    820.86397  0.017114168  0.016377188         3910 
 3998000   0.60234117   -7.6109115    820.27538  0.017097619  0.016371348         3903 
 3999000   0.61013472   -7.5951724    819.30022  0.017073023  0.016365509         3912 
 4000000   0.61807243   -7.6128581     818.8459   0.01705929   0.01635967         3906 
 4001000   0.62116117   -7.6168624    818.96499  0.017057506  0.016353834         3898 
 4002000   0.61192449   -7.6029698    817.88487  0.017030753  0.016348005         3911 
 4003000   0.63381565   -7.5909888    820.29294  0.017076629  0.016342176         3921 
 4004000   0.60178141    -7.585462    818.47123   0.01703445  0.016336349         3903 
 4005000   0.61582388   -7.5963943    819.96576  0.017061293  0.016330525         3902 
 4006000   0.62286194   -7.6086143    819.08105  0.017038631  0.016324697         3911 
 4007000    0.6046775   -7.6115615    820.77124  0.017069529  0.016318875         3897 
 4008000   0.59905176   -7.6026091    819.63788  0.017041706  0.016313056         3905 
 4009000   0.61457949   -7.6011381    819.45961  0.017033749  0.016307235         3904 
 4010000   0.60798743   -7.6236793     821.5078  0.017072066  0.016301419         3912 
 4011000   0.61616508    -7.615794    819.22703  0.017020424  0.016295612         3897 
 4012000   0.60049393   -7.5925514    819.78446   0.01702776  0.016289797         3901 
 4013000   0.60736259    -7.616773    820.51205  0.017038626  0.016283987         3901 
 4014000   0.61060491   -7.5985603    820.23514  0.017028632  0.016278176         3904 
 4015000   0.59688688   -7.6120335    818.02777  0.016978576  0.016272371         3897 
 4016000   0.60446607   -7.6266311    820.33866    0.0170223  0.016266564         3913 
 4017000   0.60640737   -7.5897212    820.71231  0.017025813  0.016260768         3907 
 4018000   0.60730872   -7.6089273    820.94074  0.017026314  0.016254968         3903 
 4019000   0.59309582   -7.5934031    820.58416  0.017014684  0.016249174         3913 
 4020000   0.61393644    -7.614071    819.64881  0.016991061  0.016243383         3904 
 4021000   0.60815391   -7.6335553     818.9231  0.016971796  0.016237587         3918 
 4022000   0.61353205    -7.608074    820.16311  0.016993268  0.016231795         3909 
 4023000   0.60344267   -7.6266539    819.56682  0.016976693  0.016226005         3915 
 4024000   0.62095814   -7.6183118    819.77782  0.016976844  0.016220219         3902 
 4025000   0.60356104   -7.6188002    818.33026  0.016942655  0.016214434         3916 
 4026000   0.60448884   -7.6188527    820.69771   0.01698745  0.016208654         3901 
 4027000   0.60587276   -7.5986854    820.19364  0.016972801  0.016202875         3894 
 4028000   0.60672797   -7.6204947    820.62356  0.016977482    0.0161971         3907 
 4029000   0.59552121   -7.6169612    819.51752  0.016950391  0.016191326         3908 
 4030000   0.60750374   -7.6071907     819.5506  0.016946869  0.016185558         3897 
 4031000   0.61236486     -7.60559    819.73943  0.016946569  0.016179785         3890 
 4032000   0.61520303   -7.6331163     819.5069   0.01693756  0.016174016         3909 
 4033000   0.59573298   -7.6139706     818.6696  0.016916059  0.016168253         3913 
 4034000   0.60658049   -7.6097701    819.10088  0.016920775  0.016162492         3912 
 4035000   0.59641656   -7.6276507    819.06333  0.016915806  0.016156731         3910 
 4036000   0.59953104   -7.6243862    819.76871  0.016926179  0.016150973         3896 
 4037000   0.59445872   -7.6057684    819.70464  0.016920664  0.016145212         3904 
 4038000   0.60088406   -7.6087691     819.9871  0.016922303   0.01613946         3915 
 4039000   0.60867358   -7.6173652    820.12526  0.016920964  0.016133708         3902 
 4040000   0.58879504   -7.6192161    819.32456  0.016900259   0.01612796         3898 
 4041000   0.59324443   -7.6082905    820.07623  0.016911578  0.016122216         3912 
 4042000   0.61339081   -7.6104702    819.16722  0.016888653   0.01611647         3912 
 4043000   0.60813343   -7.6123726    819.16543  0.016884439  0.016110726         3906 
 4044000    0.5832038   -7.6273066    821.05487  0.016919199  0.016104989         3906 
 4045000   0.60622996   -7.6026472     818.5101   0.01686259  0.016099251         3901 
 4046000   0.59156148   -7.6279225    819.88292  0.016886697  0.016093518         3905 
 4047000   0.60683962   -7.6352775    819.62609  0.016877236  0.016087787         3919 
 4048000   0.59799519   -7.6288012    817.81001   0.01683568  0.016082055         3901 
 4049000   0.60064809   -7.6237912     820.4659  0.016886184  0.016076327         3903 
 4050000   0.60489255   -7.6258587    818.39012  0.016839303  0.016070606         3912 
 4051000   0.60565298   -7.5923774     819.1237  0.016850237  0.016064882         3905 
 4052000   0.60434319    -7.630995     819.7658  0.016859283  0.016059161         3904 
 4053000   0.59943105    -7.621989    818.87664  0.016836842  0.016053441         3914 
 4054000   0.60702707   -7.6269633     819.4657  0.016844797  0.016047725         3902 
 4055000   0.60480716    -7.621595     819.5737  0.016842863  0.016042015         3907 
 4056000    0.6079865   -7.6429408    819.90235  0.016845462  0.016036304         3906 
 4057000    0.6073586   -7.6336234    819.38952  0.016830776  0.016030594         3912 
 4058000   0.59566565   -7.6229405    817.36053  0.016784963  0.016024886         3911 
 4059000    0.5995403   -7.6224874    819.18809  0.016818348  0.016019184         3906 
 4060000   0.59367503   -7.6258604    819.96455  0.016830143  0.016013477         3900 
 4061000   0.60168406   -7.6216375    818.18257  0.016789431  0.016007776         3902 
 4062000   0.59772312   -7.6250466    819.54073  0.016813161  0.016002074         3911 
 4063000   0.59983718   -7.6264492    820.00975  0.016818643  0.015996379         3916 
 4064000   0.60552913   -7.6173579    819.74479  0.016809071  0.015990684         3916 
 4065000   0.61086729   -7.6147382    821.44939  0.016839881     0.015985         3904 
 4066000   0.60108879   -7.6285394    818.79951  0.016781429  0.015979312         3901 
 4067000   0.60409913   -7.6171749    819.81649  0.016798141  0.015973628         3913 
 4068000    0.6093222   -7.6347844    818.99636  0.016777212  0.015967942         3906 
 4069000   0.60144532    -7.619701    817.67702  0.016746068   0.01596226         3911 
 4070000   0.59059892   -7.6226378     819.7886  0.016785188  0.015956576         3907 
 4071000   0.59925841   -7.6146212    819.54357  0.016776049  0.015950901         3910 
 4072000   0.59388613   -7.6238752    817.85541  0.016737381  0.015945225         3917 
 4073000   0.58857843   -7.6223812    818.68952  0.016750338  0.015939549         3902 
 4074000   0.60896869   -7.6171159    818.22316  0.016736687  0.015933879         3907 
 4075000   0.60819919   -7.6332588    819.51438  0.016758985  0.015928209         3907 
 4076000   0.60847256   -7.6421589    820.25792  0.016770075  0.015922547         3889 
 4077000   0.59689192   -7.6436239    819.84614  0.016757545  0.015916884         3911 
 4078000   0.58563177   -7.6237603    819.26685  0.016741598  0.015911223         3902 
 4079000   0.60299155   -7.6367238    820.49199  0.016762523  0.015905564         3909 
 4080000   0.60116493   -7.6202325     819.2854  0.016733771  0.015899907         3899 
 4081000   0.59634656   -7.6427005      819.247  0.016728886  0.015894258         3905 
 4082000   0.59687975   -7.6071085    818.86183  0.016716924  0.015888602         3911 
 4083000   0.59693726   -7.6148307    818.59032  0.016707289  0.015882958         3908 
 4084000   0.59568822   -7.6322525    819.29844  0.016717647  0.015877309         3894 
 4085000   0.59020949   -7.6049831    819.25481  0.016712664  0.015871665         3907 
 4086000   0.60426054   -7.6267454    819.01464  0.016703676  0.015866018         3909 
 4087000   0.59419816   -7.6307299    818.05685   0.01668006  0.015860377         3913 
 4088000   0.59190157   -7.6341912    819.87737  0.016713091  0.015854734         3911 
 4089000   0.59916141   -7.6051333    818.58485  0.016682662  0.015849098         3915 
 4090000   0.59445663   -7.6212645    820.22239  0.016711948  0.015843464         3897 
 4091000   0.59599459   -7.6288573    818.31818  0.016669074   0.01583783         3902 
 4092000   0.59935245   -7.6227257    819.27426  0.016684471  0.015832201         3907 
 4093000    0.6017298   -7.6246994     818.5658   0.01666597  0.015826576         3910 
 4094000   0.60253205   -7.6259752    818.36107  0.016657732  0.015820947         3902 
 4095000   0.59418084   -7.6089911    819.26561  0.016672072  0.015815328         3912 
 4096000   0.58726462   -7.6146488    819.38755  0.016670482  0.015809706         3916 
 4097000   0.60755454   -7.6157217    819.96806  0.016678221  0.015804092         3898 
 4098000   0.59716409   -7.6242947     818.3957  0.016642177  0.015798481         3903 
 4099000   0.60148146   -7.6406889    818.39412  0.016638085  0.015792867         3902 
 4100000   0.59821022   -7.6248035    819.43908  0.016655266  0.015787252         3900 
 4101000     0.585018   -7.6021265    817.17521  0.016605202  0.015781646         3908 
 4102000    0.6057604   -7.6129259    818.14198  0.016620794  0.015776041         3911 
 4103000   0.60533319   -7.6362824    818.25465  0.016619032  0.015770438         3899 
 4104000   0.59096454   -7.6512931    817.68123  0.016603339  0.015764839         3902 
 4105000   0.59566943   -7.6268141    819.57097  0.016637657  0.015759238         3900 
 4106000   0.60541012   -7.6424105    818.78173  0.016617587  0.015753639         3908 
 4107000   0.59652973   -7.6214561    818.52691   0.01660837   0.01574804         3905 
 4108000   0.58092998   -7.6255409    821.38614  0.016662328  0.015742441         3910 
 4109000   0.59923435   -7.6368494    819.16859    0.0166133  0.015736855         3905 
 4110000    0.5945926   -7.6338919     818.8975  0.016603761  0.015731266         3909 
 4111000   0.59009949     -7.61062    817.78083  0.016577087  0.015725677         3907 
 4112000   0.58894576   -7.6265661    818.06772  0.016578869  0.015720093         3911 
 4113000   0.59355786   -7.6334404    817.95839  0.016572623  0.015714513         3915 
 4114000   0.59841968   -7.6444643    819.50437   0.01659991  0.015708934         3913 
 4115000   0.59263446   -7.6478474    817.80955  0.016561554  0.015703359         3918 
 4116000   0.59179367   -7.6281801    818.12418  0.016563901   0.01569778         3908 
 4117000   0.58332556   -7.6306294      817.869  0.016554712  0.015692212         3899 
 4118000   0.59289689   -7.6332928    819.06209  0.016574836  0.015686637         3909 
 4119000   0.59624641    -7.634696     818.7874  0.016565254  0.015681073         3901 
 4120000   0.59491323   -7.6419644    819.63441  0.016578366  0.015675512         3919 
 4121000   0.57406177   -7.6333926    817.03641  0.016521807  0.015669948         3897 
 4122000   0.59075346   -7.6350034    816.81279  0.016513278  0.015664386         3914 
 4123000   0.58405559   -7.6412729    819.65617  0.016566743  0.015658832         3901 
 4124000   0.58283201   -7.6406813     818.7023  0.016543451  0.015653277         3925 
 4125000   0.60716465   -7.6192229    817.48169  0.016514782  0.015647725         3908 
 4126000   0.59327989   -7.6192472    818.46353  0.016530609  0.015642174         3909 
 4127000   0.58791085   -7.6308904    818.85657   0.01653454  0.015636626         3895 
 4128000   0.59073432   -7.6481974    817.69669   0.01650712   0.01563108         3915 
 4129000   0.59714027   -7.6490272    819.14095  0.016532271  0.015625532         3901 
 4130000   0.59594192   -7.6362007    818.85244  0.016522446  0.015619987         3907 
 4131000   0.60610769   -7.6401761    819.67465  0.016535033   0.01561445         3911 
 4132000   0.60337667   -7.6277965    818.68923  0.016511157  0.015608917         3899 
 4133000   0.57497917    -7.633725    817.84126  0.016490065  0.015603382         3909 
 4134000   0.59392537   -7.6233083     817.6895  0.016483017   0.01559785         3910 
 4135000   0.58495967   -7.6427772    818.02546  0.016485801  0.015592319         3920 
 4136000   0.59281698   -7.6303911    817.57111  0.016472661  0.015586793         3909 
 4137000   0.58113833   -7.6161692    818.79379  0.016493308  0.015581265         3915 
 4138000   0.58980446   -7.6314204    819.09608   0.01649541   0.01557574         3897 
 4139000   0.57450513   -7.6420879    817.08179  0.016450869  0.015570214         3913 
 4140000   0.57893917   -7.6360654    817.09364  0.016447135   0.01556469         3903 
 4141000   0.59485843   -7.6253162    818.73396  0.016476172  0.015559174         3905 
 4142000   0.59140153   -7.6415588    818.54733   0.01646844  0.015553661         3912 
 4143000   0.58602595    -7.636749    817.76149  0.016448658  0.015548148         3909 
 4144000   0.59184462   -7.6529789    818.72847  0.016464134  0.015542639         3890 
 4145000    0.6010207   -7.6403545    818.95038  0.016464624   0.01553713         3905 
 4146000   0.58024273   -7.6430783    817.65786  0.016434673  0.015531625         3909 
 4147000   0.59314323   -7.6443213    818.35253   0.01644467  0.015526123         3893 
 4148000   0.58776676   -7.6434991    817.81389  0.016429884  0.015520619         3905 
 4149000   0.58724525   -7.6404353    818.68738  0.016443468  0.015515118         3904 
 4150000   0.57876592   -7.6492012    818.94245  0.016444627  0.015509625         3914 
 4151000   0.58041236    -7.623298    818.76726  0.016437149  0.015504128         3905 
 4152000   0.58648479   -7.6403516    819.21134  0.016442103  0.015498633         3913 
 4153000   0.59421913   -7.6331831    818.05576  0.016414956  0.015493145         3920 
 4154000   0.57124995   -7.6370451    818.17744  0.016413446   0.01548766         3897 
 4155000   0.57950214   -7.6366133    817.99945  0.016405926  0.015482176         3913 
 4156000    0.6014805   -7.6210593    818.50992  0.016412214  0.015476695         3903 
 4157000    0.5944073    -7.625919    818.74156  0.016412909   0.01547122         3901 
 4158000   0.58010673    -7.622266    817.46532  0.016383384  0.015465745         3900 
 4159000   0.58116497   -7.6351287     817.9381  0.016388918  0.015460274         3895 
 4160000   0.59172654   -7.6238686    819.03556  0.016406962    0.0154548         3908 
 4161000   0.57703817   -7.6539397    818.13577  0.016384999  0.015449328         3911 
 4162000   0.57976944   -7.6318196      819.281  0.016403993   0.01544386         3902 
 4163000   0.59872895   -7.6497232    817.90614  0.016372531  0.015438394         3918 
 4164000   0.56730079   -7.6276558    818.60653  0.016382616  0.015432926         3908 
 4165000   0.57527915   -7.6524681    818.41945  0.016374939   0.01542746         3898 
 4166000   0.58312075   -7.6313794    818.24273  0.016367473  0.015422001         3911 
 4167000   0.58507007   -7.6242538    818.13439  0.016361379  0.015416541         3902 
 4168000    0.5818193   -7.6536858    818.47638  0.016364291  0.015411084         3906 
 4169000   0.58725577   -7.6307538    817.53475  0.016341544   0.01540563         3904 
 4170000   0.57935664    -7.629545    818.04942   0.01634791   0.01540018         3906 
 4171000   0.58912798   -7.6268488    818.20803   0.01634716  0.015394735         3903 
 4172000   0.58870666   -7.6321339    818.76663  0.016354399  0.015389286         3906 
 4173000   0.58779929   -7.6559808     819.1932  0.016358998  0.015383841         3903 
 4174000   0.56745662   -7.6569723    818.74782  0.016346187  0.015378399         3910 
 4175000   0.57798988   -7.6486663    817.75399  0.016322435  0.015372955         3915 
 4176000   0.58512358   -7.6580703     817.3392  0.016310249  0.015367514         3909 
 4177000   0.58770288   -7.6559705    816.34421  0.016286494  0.015362082         3909 
 4178000   0.59306863    -7.640171    818.87256  0.016333025  0.015356649         3900 
 4179000   0.58813429    -7.634521    818.31333  0.016317965  0.015351222         3902 
 4180000   0.57937158   -7.6522477    819.01613  0.016328073  0.015345794         3906 
 4181000   0.56332368   -7.6524672    818.04612  0.016304834   0.01534037         3908 
 4182000   0.57656214    -7.641521     817.5891  0.016291828  0.015334943         3903 
 4183000   0.58071969     -7.65449    817.90669   0.01629426  0.015329519         3898 
 4184000   0.58037844   -7.6405624    817.89635   0.01629016  0.015324101         3899 
 4185000   0.58598975   -7.6513846    818.83733  0.016305005  0.015318684         3914 
 4186000   0.58733543   -7.6360264    817.38451  0.016272187  0.015313267         3905 
 4187000   0.58084613   -7.6517357    818.54973  0.016291492  0.015307855         3905 
 4188000   0.58481095   -7.6496501    817.61012  0.016268906  0.015302446         3911 
 4189000   0.58436037   -7.6408819    816.55535  0.016244039  0.015297038         3902 
 4190000   0.57605559   -7.6548236    817.07893  0.016250575  0.015291631         3898 
 4191000   0.58944235   -7.6573392    816.96198  0.016244372  0.015286223         3893 
 4192000   0.58387171   -7.6404102    817.48298  0.016250854  0.015280822         3896 
 4193000   0.58213999   -7.6460018    818.93707  0.016275878  0.015275419         3909 
 4194000   0.58811595   -7.6521557    818.44121  0.016262144  0.015270023         3906 
 4195000   0.58223518   -7.6415997    818.05183  0.016250533  0.015264625         3885 
 4196000   0.58633574   -7.6405005    817.52999  0.016236296  0.015259229         3905 
 4197000   0.57898004   -7.6480189    817.96518  0.016241069   0.01525384         3913 
 4198000   0.57668788   -7.6585573     818.5357  0.016248525  0.015248452         3924 
 4199000   0.57832574   -7.6431731    818.18421   0.01623768  0.015243064         3915 
 4200000   0.57897957   -7.6514018    817.67437  0.016223698  0.015237675         3899 
 4201000    0.5683384   -7.6435161    816.52302  0.016196997  0.015232293         3909 
 4202000   0.57757062   -7.6402642    816.46461  0.016191984  0.015226917         3910 
 4203000   0.56390237   -7.6292103    818.88149  0.016236051  0.015221542         3900 
 4204000   0.57503521   -7.6480947    818.10148  0.016216728  0.015216165         3910 
 4205000   0.58301546   -7.6436476     817.8776  0.016208434  0.015210789         3913 
 4206000   0.56493642   -7.6453192    817.14195  0.016190005  0.015205414         3908 
 4207000   0.58536569   -7.6561719    817.95267  0.016202216   0.01520005         3900 
 4208000   0.57354169   -7.6203066    818.74511  0.016214059  0.015194684         3902 
 4209000   0.58134417   -7.6407257     818.3698  0.016202776  0.015189325         3908 
 4210000   0.59319731     -7.62819     818.0763  0.016193117  0.015183966         3902 
 4211000   0.58441576   -7.6340707    818.32692  0.016194232  0.015178606         3909 
 4212000   0.58514526   -7.6487412    819.30036  0.016209646  0.015173252         3898 
 4213000   0.57193282   -7.6504869    818.33192  0.016186643  0.015167899         3903 
 4214000   0.59094033   -7.6679504    817.63358  0.016168992  0.015162541         3903 
 4215000   0.57424097   -7.6437596    818.45825   0.01618146  0.015157192         3907 
 4216000   0.59177821   -7.6367054     818.7281  0.016182956  0.015151844         3904 
 4217000   0.57856206   -7.6606544     818.8379  0.016181288  0.015146499         3911 
 4218000   0.58285786   -7.6614806    815.98036  0.016120996  0.015141158         3906 
 4219000   0.57121373   -7.6550839    816.28955  0.016123283  0.015135814         3903 
 4220000   0.58428517   -7.6479397    817.13838  0.016136224  0.015130472         3908 
 4221000     0.568231    -7.644295    816.14099   0.01611271  0.015125136         3906 
 4222000   0.56563452     -7.63924    818.06782  0.016146925  0.015119801         3913 
 4223000   0.57656012   -7.6455638    819.82492  0.016177775  0.015114469         3910 
 4224000   0.57858804   -7.6468996    817.44569  0.016127006  0.015109137         3905 
 4225000   0.57765181    -7.664941      817.754   0.01612927  0.015103809         3907 
 4226000   0.58146582   -7.6779045    818.39312  0.016138057  0.015098479         3902 
 4227000    0.5857361   -7.6374915     817.2115  0.016110943  0.015093156         3903 
 4228000   0.58695189   -7.6611948    816.97997   0.01610257  0.015087834         3909 
 4229000   0.57907075   -7.6385934    818.22313  0.016123259  0.015082517         3912 
 4230000   0.57329175   -7.6606254    817.63378  0.016107837  0.015077198         3897 
 4231000   0.56993144   -7.6674158    817.82308  0.016107758  0.015071882         3912 
 4232000   0.57435814   -7.6503469    817.26666  0.016092995  0.015066563         3906 
 4233000   0.57667817   -7.6715743    816.58694  0.016075812  0.015061252         3911 
 4234000   0.57114312   -7.6578773    818.46179  0.016108916  0.015055946         3908 
 4235000   0.58358186   -7.6420011    816.69316   0.01607031  0.015050638         3905 
 4236000   0.57640505    -7.649728    817.58921  0.016084144  0.015045335         3904 
 4237000   0.57562486   -7.6688151    816.40863  0.016057128  0.015040029         3908 
 4238000   0.57395301   -7.6596532    818.50451  0.016094551  0.015034728         3908 
 4239000   0.57902047   -7.6500371     817.1039  0.016063221  0.015029428         3904 
 4240000   0.57318478   -7.6640801    817.60149  0.016069212  0.015024131         3904 
 4241000   0.56976046   -7.6519133    817.42632  0.016061981  0.015018834         3902 
 4242000   0.56687883   -7.6502696     817.1562  0.016052888  0.015013541         3905 
 4243000   0.57747779   -7.6447231    818.35577  0.016072664  0.015008253         3904 
 4244000   0.57414954   -7.6655526    818.12196  0.016064286  0.015002965         3916 
 4245000   0.57428461   -7.6593327     817.6892  0.016052006  0.014997682         3907 
 4246000   0.57234999    -7.661365     817.6355  0.016047172  0.014992394         3907 
 4247000   0.57391675   -7.6785947     816.4211  0.016019565   0.01498711         3906 
 4248000   0.57393141   -7.6571635    817.61044  0.016039125  0.014981831         3913 
 4249000   0.56870652   -7.6565672     816.6826  0.016017153  0.014976554         3905 
 4250000   0.56194153   -7.6659649    817.08987   0.01602137  0.014971276         3904 
 4251000    0.5846613   -7.6805688     817.4502  0.016024665  0.014966002         3912 
 4252000   0.56769535   -7.6735624     817.3744  0.016019411  0.014960734         3905 
 4253000   0.57646387   -7.6624929    816.59402  0.016000353   0.01495547         3909 
 4254000   0.56846122   -7.6649924    817.62913  0.016016869  0.014950208         3908 
 4255000   0.56559579   -7.6691381    817.25917  0.016005859  0.014944945         3908 
 4256000   0.58527676   -7.6546555    816.95761  0.015996194  0.014939686         3912 
 4257000   0.57102834   -7.6700881    817.15958   0.01599639  0.014934428         3907 
 4258000   0.57005291   -7.6721447    818.63237  0.016021457  0.014929169         3911 
 4259000    0.5650414   -7.6730267    818.49442  0.016014996  0.014923916         3892 
 4260000   0.58054107   -7.6571691    816.91532  0.015980347  0.014918661         3899 
 4261000   0.57371279   -7.6562211    818.16102  0.016000959   0.01491341         3908 
 4262000   0.57627837   -7.6888295    818.17839  0.015997544  0.014908163         3904 
 4263000   0.56430037   -7.6492525    815.97389  0.015950698  0.014902922         3905 
 4264000   0.57746133   -7.6661329    817.79775  0.015982601  0.014897679         3911 
 4265000    0.5606565   -7.6655213    816.31324  0.015949848  0.014892436         3908 
 4266000   0.57731015   -7.6696012    817.47532   0.01596881  0.014887197         3912 
 4267000   0.56459882   -7.6732467    817.17744   0.01595925  0.014881959         3908 
 4268000   0.56551373   -7.6685996    817.37064  0.015959283  0.014876724         3904 
 4269000   0.56667291   -7.6755447    815.91921  0.015927212  0.014871492         3905 
 4270000   0.56774468   -7.6790492    817.21786  0.015948826  0.014866263         3907 
 4271000   0.57816842   -7.6640075    818.13374  0.015962962  0.014861034         3905 
 4272000   0.56909693   -7.6679362    817.28385  0.015942647  0.014855808         3881 
 4273000   0.56330474   -7.6667917    817.03908  0.015934142  0.014850584         3902 
 4274000    0.5642155   -7.6740678    816.79128  0.015925583  0.014845363         3909 
 4275000   0.57586958   -7.6700223    815.45319  0.015895774  0.014840145         3906 
 4276000   0.56424812    -7.649899    817.52459  0.015932425  0.014834931         3905 
 4277000   0.57924219   -7.6644291     817.2845  0.015924022  0.014829718         3907 
 4278000   0.58757514   -7.6609059    816.89811  0.015912773  0.014824506         3918 
 4279000   0.55742259   -7.6658051    816.99104  0.015910864    0.0148193         3916 
 4280000   0.55781299   -7.6484905     818.4776   0.01593609  0.014814095         3906 
 4281000   0.57624203   -7.6502854      815.345  0.015871389  0.014808888         3911 
 4282000    0.5716382   -7.6507176    817.36505  0.015906995  0.014803683         3924 
 4283000   0.56800627   -7.6775909    816.37266  0.015883973  0.014798485         3913 
 4284000   0.56646666   -7.6470522    816.33755  0.015879582  0.014793283         3916 
 4285000   0.56644328   -7.6727146    817.79481  0.015904216   0.01478809         3910 
 4286000   0.56392107   -7.6509343    816.92395  0.015883574  0.014782896         3897 
 4287000   0.57878842   -7.6718392    818.06653  0.015902079  0.014777703         3906 
 4288000   0.56791492   -7.6578896    817.23497  0.015882209  0.014772516         3899 
 4289000   0.57639915   -7.6786432    817.59701  0.015885541  0.014767327         3905 
 4290000   0.57245621    -7.683773    816.30833  0.015856805  0.014762143         3917 
 4291000   0.56844465   -7.6585948    815.04352  0.015828547  0.014756962         3903 
 4292000   0.56196945   -7.6469781    816.22313  0.015847762  0.014751779         3910 
 4293000   0.55958618   -7.6504058    819.04268  0.015898802    0.0147466         3898 
 4294000   0.55544156   -7.6730751    817.54686   0.01586607  0.014741428         3909 
 4295000   0.56271126   -7.6519127    818.19288   0.01587491  0.014736256         3924 
 4296000   0.55751022   -7.6621179    818.02946  0.015868045  0.014731084         3909 
 4297000   0.56632058   -7.6745304    818.53267  0.015874111  0.014725916         3909 
 4298000   0.57017711   -7.6766603    816.15352  0.015824289  0.014720745         3904 
 4299000   0.55941047   -7.6560309    816.29868  0.015823422  0.014715579         3900 
 4300000    0.5658237   -7.6479415    817.46096  0.015842267  0.014710415         3894 
 4301000   0.56140133   -7.6761567    817.25162  0.015834527  0.014705254         3909 
 4302000   0.56412814   -7.6708613    817.31711  0.015832115  0.014700097         3911 
 4303000   0.56992199   -7.6890441    815.93717  0.015801711  0.014694939         3905 
 4304000   0.56137176   -7.6832771    817.82606  0.015834612  0.014689786         3923 
 4305000   0.56148869   -7.6541795     816.1747  0.015798968   0.01468463         3925 
 4306000    0.5689378   -7.6571234     816.5455  0.015802475  0.014679478         3914 
 4307000   0.56506042   -7.6833346    817.72903  0.015821706   0.01467433         3905 
 4308000   0.56137832   -7.6712406    816.36924  0.015791729  0.014669183         3915 
 4309000   0.56651141   -7.6902455    818.33649   0.01582611  0.014664037         3906 
 4310000   0.55480913   -7.6787407    817.10485  0.015798624  0.014658896         3900 
 4311000   0.56564459   -7.6555532    816.11188  0.015775765  0.014653755         3893 
 4312000   0.56502667   -7.6713373    815.86162   0.01576727  0.014648615         3913 
 4313000   0.55472967   -7.6729396    817.02356  0.015786065  0.014643481         3914 
 4314000   0.55957414   -7.6817507    816.08454  0.015764266  0.014638347         3919 
 4315000   0.55970172   -7.6704438    816.19789  0.015762802  0.014633215         3914 
 4316000   0.56201615   -7.6828216    817.00888  0.015774808  0.014628089         3911 
 4317000   0.57420642   -7.6612169    817.42532  0.015779193  0.014622966         3899 
 4318000   0.55823715   -7.6827158    817.66473  0.015780159  0.014617839         3906 
 4319000   0.55649744   -7.6733296    816.50305  0.015754091  0.014612716         3913 
 4320000   0.56290108    -7.668214    817.33405  0.015766475  0.014607597         3909 
 4321000   0.56341821   -7.6778561    817.10307  0.015758371  0.014602479         3909 
 4322000   0.56208713   -7.6521583    815.70499  0.015727769  0.014597364         3903 
 4323000   0.56605844   -7.6741339    816.05577  0.015730892  0.014592252         3900 
 4324000   0.55840812   -7.6777902    817.87395  0.015762295  0.014587143         3893 
 4325000   0.56886843   -7.6727105    817.31683  0.015747916  0.014582036         3911 
 4326000   0.56386112   -7.6985326    816.75871  0.015733524  0.014576931         3911 
 4327000   0.56372304   -7.6726219    814.99868  0.015695992  0.014571828         3905 
 4328000   0.55769372   -7.6820933    818.54011  0.015760554  0.014566725         3919 
 4329000   0.56210303   -7.6689155    817.27649  0.015732588  0.014561625         3911 
 4330000   0.54997337   -7.6729702    816.69023  0.015717672  0.014556524         3909 
 4331000   0.56116319   -7.6707483    816.43045  0.015709044  0.014551429         3910 
 4332000    0.5690018   -7.6738344    816.75787  0.015711716  0.014546332         3912 
 4333000   0.55293913   -7.6842044    816.09985  0.015695435  0.014541236         3918 
 4334000   0.55227682   -7.6602813    816.13688  0.015692526  0.014536145         3899 
 4335000   0.55279113   -7.6549823    816.12988  0.015688771  0.014531053         3921 
 4336000    0.5614521   -7.6868452    816.89204  0.015699801  0.014525967         3906 
 4337000   0.55407961    -7.687959    816.59189  0.015690414   0.01452088         3920 
 4338000   0.57019091   -7.6819178    815.84733  0.015672494  0.014515797         3920 
 4339000    0.5463277   -7.6917533    816.64448  0.015684192  0.014510715         3905 
 4340000   0.56113465    -7.687532    816.51917  0.015678172  0.014505637         3901 
 4341000   0.56505559   -7.6900413    816.94082  0.015682654   0.01450056         3912 
 4342000   0.56433549   -7.6845888    816.15924  0.015664042  0.014495482         3916 
 4343000   0.55390483   -7.6815666    816.82358  0.015673183  0.014490408         3906 
 4344000   0.55734168   -7.6754583    815.61348  0.015646361  0.014485338         3901 
 4345000   0.55069037   -7.6730406    815.28296   0.01563642  0.014480266         3915 
 4346000   0.56394169   -7.6830064     818.3247  0.015691147  0.014475202         3897 
 4347000   0.54846342   -7.6957016     816.3831  0.015650316  0.014470136         3923 
 4348000   0.55611378   -7.6907596     815.8558  0.015636611  0.014465075         3902 
 4349000   0.55721814   -7.6826007    817.33185  0.015661299  0.014460017         3897 
 4350000   0.55652458   -7.6722416    814.81456  0.015609474  0.014454957         3908 
 4351000   0.56111296   -7.6828205    817.10957  0.015649842  0.014449907         3914 
 4352000   0.55537634   -7.6470593    816.17546   0.01562836  0.014444857         3914 
 4353000   0.55055747   -7.6780651    817.54149  0.015650921  0.014439806         3903 
 4354000   0.56505267    -7.689123    817.00704  0.015637097  0.014434757         3915 
 4355000   0.54746247   -7.6769446    816.34944  0.015620923  0.014429712         3918 
 4356000   0.56447941   -7.6944782    816.95955  0.015629009   0.01442467         3906 
 4357000   0.53818219   -7.6717113    816.41218  0.015614953  0.014419625         3913 
 4358000   0.56187224   -7.6890347    816.59017  0.015614773  0.014414583         3893 
 4359000   0.57051707   -7.6769341    816.66609  0.015612642  0.014409546         3907 
 4360000    0.5444541   -7.6844876    816.15208  0.015599237  0.014404508         3905 
 4361000   0.55805503   -7.6770023    815.90629  0.015590963  0.014399474         3903 
 4362000   0.55346299   -7.6960237     818.0655  0.015628639  0.014394447         3908 
 4363000   0.55413678   -7.6836998    816.44565  0.015594118  0.014389422         3922 
 4364000   0.55976659   -7.7063986    816.75868  0.015596522  0.014384397         3907 
 4365000   0.56257584   -7.6870545    815.46844  0.015568317  0.014379367         3916 
 4366000   0.54608059   -7.6819009    816.49022  0.015584254  0.014374349         3909 
 4367000    0.5392498   -7.6700983    815.42639  0.015560384  0.014369329         3907 
 4368000   0.54497843   -7.6813898    815.78943  0.015563748  0.014364308         3899 
 4369000   0.53399503    -7.681807    816.60317  0.015575707  0.014359292         3911 
 4370000    0.5483505   -7.6766585    816.42493  0.015568744  0.014354276         3898 
 4371000   0.55644561   -7.6944412    817.05027  0.015577104  0.014349271         3908 
 4372000   0.54668699   -7.6890135     815.0438  0.015535297  0.014344261         3904 
 4373000   0.54150257   -7.6884563    816.46936   0.01555891  0.014339256         3910 
 4374000   0.54905734   -7.6858477    816.53367  0.015556578  0.014334251         3919 
 4375000   0.55331139   -7.7006884    816.67714  0.015555755  0.014329244         3918 
 4376000   0.55807325     -7.68189    817.93913  0.015576233  0.014324247         3910 
 4377000   0.54911521   -7.6981965    816.43671  0.015544069  0.014319251         3912 
 4378000   0.55510189   -7.6979578    816.69711  0.015545476  0.014314255         3912 
 4379000   0.55541836   -7.6855746     815.5371   0.01551985   0.01430926         3899 
 4380000   0.54749037   -7.6907409     815.9116  0.015523432  0.014304269         3902 
 4381000   0.54683832   -7.6806849    816.41028  0.015529375  0.014299279         3917 
 4382000   0.54602156   -7.6753543    816.73052  0.015531921  0.014294289         3904 
 4383000   0.54995358   -7.6808097    815.73467  0.015509443  0.014289305         3911 
 4384000   0.55260218   -7.6912968    816.79409  0.015526043  0.014284321         3904 
 4385000   0.55532781   -7.6739869    815.23037  0.015492785  0.014279336         3911 
 4386000    0.5544499   -7.6898902    816.70793  0.015517327  0.014274358         3918 
 4387000    0.5616624   -7.6882695    815.57935  0.015492352  0.014269378         3920 
 4388000   0.56210518   -7.6716163    816.08994  0.015498518    0.0142644         3899 
 4389000   0.54008666   -7.6862881    816.62955  0.015505232  0.014259426         3897 
 4390000   0.55719706    -7.677749    815.14741  0.015473565  0.014254452         3907 
 4391000   0.54718654   -7.6949396    814.75826  0.015462656  0.014249483         3913 
 4392000   0.55963102   -7.6959638    814.32258  0.015450869  0.014244519         3904 
 4393000   0.55427997   -7.6875545    817.45435   0.01550676   0.01423955         3900 
 4394000   0.54075907   -7.6979288    816.04538  0.015476509  0.014234587         3913 
 4395000   0.54124619   -7.6725505     815.4496  0.015461691  0.014229623         3911 
 4396000    0.5514281   -7.6914851    816.23128  0.015472992  0.014224669         3897 
 4397000   0.54714212   -7.6841567     816.5503  0.015475519  0.014219709         3913 
 4398000   0.55420365   -7.6974332    816.05688  0.015462651  0.014214753         3915 
 4399000   0.54442597   -7.6995104    816.72664  0.015471824  0.014209798         3900 
 4400000   0.55301081   -7.6893759    815.94844  0.015453569  0.014204848         3908 
 4401000   0.54044043   -7.7040966    815.59875  0.015443436  0.014199898         3910 
 4402000   0.53631604   -7.7013155    815.37692  0.015435728  0.014194949         3918 
 4403000   0.54202435    -7.688862     814.6147  0.015417797  0.014190006         3916 
 4404000   0.54860952   -7.7002222    816.46676  0.015449341  0.014185065         3914 
 4405000   0.54412739   -7.6947858    816.53292  0.015447085  0.014180127         3904 
 4406000   0.54320137   -7.6911159    816.16829  0.015436683  0.014175189         3912 
 4407000   0.55262329   -7.7002447    815.97889  0.015429599  0.014170252         3922 
 4408000    0.5379789   -7.6987845    815.68716  0.015420583  0.014165316         3918 
 4409000   0.54270702   -7.6886008    817.55616  0.015452411  0.014160381         3917 
 4410000   0.53584992   -7.6843497    816.68216  0.015432392  0.014155452         3908 
 4411000   0.53586772   -7.6950556    816.59178  0.015427185  0.014150523         3912 
 4412000   0.54233951   -7.6953042    815.28334  0.015398975  0.014145597         3905 
 4413000   0.55202379   -7.6944722    815.56616  0.015400826  0.014140671         3903 
 4414000   0.54334062   -7.6855546     815.5291  0.015396638  0.014135751         3896 
 4415000   0.55941794   -7.6970791    815.63731  0.015395193  0.014130831         3898 
 4416000   0.53904545   -7.6983998    814.12764  0.015363218  0.014125912         3915 
 4417000   0.53926153    -7.692888    815.14769  0.015378984  0.014120997         3899 
 4418000   0.54636037   -7.6878184    816.27494  0.015396766  0.014116083         3901 
 4419000   0.54002596   -7.6935313    816.49258  0.015397386  0.014111171         3913 
 4420000   0.54177487   -7.6834557    815.51338  0.015375441  0.014106262         3908 
 4421000   0.54128498   -7.6975094    817.05063  0.015400939  0.014101354         3912 
 4422000    0.5322803   -7.6867731    815.91606  0.015376075  0.014096448         3902 
 4423000   0.55155781   -7.6933607    816.63966  0.015386232  0.014091547         3916 
 4424000   0.54723329   -7.6932503    816.62209  0.015382423  0.014086647         3914 
 4425000   0.52351459   -7.6962819    816.30305  0.015372939  0.014081745         3910 
 4426000   0.53440825   -7.7006841    815.41684   0.01535278  0.014076845         3912 
 4427000   0.54818105   -7.7182121    815.84277   0.01535733   0.01407195         3915 
 4428000   0.54656394   -7.6983353    815.78432  0.015352761  0.014067056         3898 
 4429000   0.54398599   -7.6986699    815.01351  0.015334792  0.014062168         3908 
 4430000    0.5383675   -7.6898082    815.98804  0.015349662  0.014057281         3906 
 4431000   0.54244795   -7.7080258     816.2535   0.01535119  0.014052394         3914 
 4432000   0.54215967   -7.6984811    816.37199  0.015349955  0.014047508         3918 
 4433000   0.54990616    -7.700594    815.71079  0.015334063  0.014042627         3896 
 4434000   0.54301329   -7.6820478    815.74514   0.01533125  0.014037747         3917 
 4435000   0.53994648   -7.7082173    815.03272  0.015314407  0.014032868         3923 
 4436000   0.53005013   -7.6932621    815.73909  0.015324224  0.014027996         3900 
 4437000    0.5472889   -7.7044942    814.84611  0.015303999  0.014023122         3908 
 4438000   0.53576591   -7.7081983    814.86071  0.015300825  0.014018251         3916 
 4439000   0.54072422   -7.6972283    814.99211  0.015299844  0.014013383         3919 
 4440000   0.54554449   -7.7040067    815.38687  0.015303808  0.014008511         3907 
 4441000   0.54423375   -7.6884701    815.13719  0.015295677  0.014003648         3906 
 4442000   0.54379708   -7.7075024    816.55608  0.015318852  0.013998783         3894 
 4443000   0.54050389   -7.6887361     814.8866  0.015284091   0.01399392         3916 
 4444000   0.54389412   -7.7064189    815.89613  0.015299582  0.013989063         3908 
 4445000   0.54093875   -7.6925351     816.6888  0.015311001  0.013984209         3922 
 4446000   0.53232866    -7.711057    816.57229  0.015305374  0.013979354         3913 
 4447000   0.53619567   -7.6828541    815.53024  0.015282405  0.013974502         3904 
 4448000   0.53879128   -7.7105822    814.88931  0.015266961   0.01396965         3914 
 4449000   0.54568767    -7.721392    815.40082   0.01527311  0.013964802         3923 
 4450000   0.56059762   -7.7086503    814.72761  0.015257071  0.013959959         3907 
 4451000   0.55153183   -7.7018936    815.51689  0.015268421  0.013955113         3923 
 4452000   0.52436896   -7.7015894    814.59657  0.015247764  0.013950268         3910 
 4453000   0.53579884   -7.6924251    817.65792   0.01530163  0.013945427         3908 
 4454000   0.54175617   -7.6991538    815.76893  0.015262852  0.013940586         3908 
 4455000   0.54110824   -7.6940695    815.94471  0.015262714  0.013935749         3917 
 4456000   0.53610903   -7.6964955    814.86916  0.015239175  0.013930911         3921 
 4457000    0.5396737    -7.705153    815.08046  0.015239706   0.01392608         3919 
 4458000   0.53262354   -7.7189493    815.96757  0.015252871   0.01392125         3918 
 4459000   0.52191533   -7.6989739    815.24449  0.015235936  0.013916425         3919 
 4460000   0.53863211    -7.704631     815.8838  0.015244466  0.013911597         3910 
 4461000    0.5405689   -7.7083197    814.66772  0.015218332  0.013906769         3910 
 4462000   0.53231073   -7.7093995    815.91998  0.015238308  0.013901949         3908 
 4463000   0.52377038   -7.7178748     815.5507  0.015227999   0.01389713         3909 
 4464000   0.52986947   -7.6868847    815.61939   0.01522587  0.013892311         3908 
 4465000   0.53300546   -7.7104568    815.00707  0.015211032  0.013887499         3908 
 4466000   0.54447258   -7.7090927    814.61172  0.015200249  0.013882685         3910 
 4467000   0.53749344   -7.7202742    816.04059  0.015223502  0.013877877         3915 
 4468000   0.53571055    -7.690176    815.54622  0.015210874  0.013873067         3922 
 4469000   0.53782164   -7.7024041    815.35995  0.015203997   0.01386826         3911 
 4470000   0.53214839   -7.7033833    814.68626  0.015188036  0.013863452         3906 
 4471000   0.54079557   -7.6896949     815.3696  0.015197376   0.01385865         3921 
 4472000   0.53223833   -7.6961636    815.10768  0.015189097  0.013853851         3905 
 4473000   0.52884037   -7.6985535    815.47656  0.015192573  0.013849055         3905 
 4474000   0.54196031   -7.7078975    816.78662  0.015213579  0.013844258         3905 
 4475000   0.53057651   -7.7053144    816.34453  0.015201947  0.013839464         3903 
 4476000   0.53315721   -7.7149769    814.29145  0.015160326   0.01383467         3916 
 4477000   0.54068157   -7.7082959     815.0155  0.015170417  0.013829878         3931 
 4478000   0.53069519   -7.6991214    815.85407  0.015182635  0.013825087         3909 
 4479000   0.53487371   -7.7016146    814.21121  0.015148679  0.013820299         3918 
 4480000   0.55158365   -7.7025606    814.67559  0.015153936  0.013815516         3914 
 4481000   0.54064819   -7.7166414    815.08631  0.015158192  0.013810735         3903 
 4482000   0.53582757   -7.7046868    813.54048  0.015126069  0.013805952         3910 
 4483000   0.53070586    -7.720584    815.22875  0.015154077  0.013801174         3910 
 4484000   0.53059086   -7.7193862    815.86578  0.015162537  0.013796402         3909 
 4485000   0.54020425   -7.7064171     814.9937  0.015142952  0.013791629         3918 
 4486000   0.53971402   -7.6957304    814.19821    0.0151248  0.013786857         3910 
 4487000   0.52875399   -7.7081944    815.97829  0.015154489  0.013782085         3916 
 4488000     0.529208   -7.7011313    814.79202  0.015129085  0.013777314         3918 
 4489000   0.53913516   -7.7023412    816.00657  0.015148262   0.01377255         3922 
 4490000   0.53493732   -7.7265176    814.89473  0.015124253   0.01376778         3918 
 4491000    0.5280049   -7.7091519    815.69179  0.015135675  0.013763016         3921 
 4492000   0.52805642   -7.7071601    816.16313   0.01514105  0.013758255         3914 
 4493000   0.52438076   -7.7067305    815.67326  0.015128594  0.013753495         3913 
 4494000   0.53291575   -7.7003384    814.11685  0.015096367  0.013748743         3901 
 4495000   0.52367217   -7.7140802    815.39665  0.015116734  0.013743991         3906 
 4496000   0.52569772   -7.7093451      815.616  0.015117438   0.01373924         3910 
 4497000   0.53461137   -7.7187902    816.22334  0.015125331  0.013734489         3909 
 4498000   0.54142363   -7.7134034    815.43418  0.015107347  0.013729743         3910 
 4499000   0.53229684   -7.6946619    816.04297  0.015115266  0.013724999         3902 
 4500000   0.53261356   -7.7157988    816.37532  0.015118062  0.013720255         3914 
 4501000   0.53199747   -7.7031329    815.44921  0.015097556  0.013715511         3896 
 4502000   0.52379401   -7.7151661    815.24859  0.015090489   0.01371077         3917 
 4503000   0.52397298   -7.7087652    814.33344  0.015070202  0.013706035         3895 
 4504000   0.52838186    -7.704193    814.54998  0.015070863  0.013701298         3920 
 4505000   0.53879062   -7.7022763    813.26381  0.015043726  0.013696565         3918 
 4506000   0.53394098   -7.7078927     813.8552  0.015051324  0.013691833         3908 
 4507000   0.53201378   -7.7165061    815.30863  0.015074858  0.013687105         3923 
 4508000   0.53458556   -7.6954343    815.50465  0.015075138  0.013682379         3930 
 4509000   0.53346038   -7.7012491    814.76832  0.015058186  0.013677658         3899 
 4510000   0.52782257    -7.716857    814.93327  0.015057895  0.013672937         3906 
 4511000   0.52399019   -7.7077932    815.92559  0.015072888  0.013668217         3913 
 4512000   0.53145057   -7.7075785    814.67616  0.015046472  0.013663494         3916 
 4513000   0.51402342   -7.7098906    816.08545   0.01506916  0.013658773         3908 
 4514000   0.54525018    -7.712431    815.44702  0.015054036  0.013654058         3909 
 4515000    0.5267415   -7.7079351    814.87782  0.015040196  0.013649342         3908 
 4516000   0.53286831   -7.7196884    814.90415  0.015037351  0.013644634         3906 
 4517000   0.53398683   -7.7356225    815.04182  0.015036562  0.013639926         3915 
 4518000   0.53373033   -7.7227687    815.05991  0.015033568  0.013635219         3914 
 4519000   0.53087387   -7.7254195    813.82745  0.015007514  0.013630513         3913 
 4520000   0.51861758   -7.7061404    815.66655    0.0150381   0.01362581         3898 
 4521000   0.51751259   -7.7130065    813.63246   0.01499728  0.013621109         3921 
 4522000   0.53183757   -7.7161096    815.78687  0.015033666  0.013616405         3906 
 4523000   0.51646732   -7.7259831    815.32795  0.015021887  0.013611706         3912 
 4524000   0.52669602   -7.7096891    815.58476  0.015023297  0.013607009         3923 
 4525000   0.53612855   -7.7192339    814.87854  0.015006971  0.013602314         3923 
 4526000   0.52962419   -7.7300971    814.81227  0.015002435  0.013597623         3917 
 4527000   0.52859938   -7.7001997    813.08274  0.014967284  0.013592931         3920 
 4528000   0.51358408   -7.7185617    815.33316  0.015005395  0.013588244         3923 
 4529000   0.52199367   -7.7208816    814.78247   0.01499195  0.013583559         3911 
 4530000   0.53274241   -7.7109044    813.86875  0.014971831  0.013578874         3915 
 4531000   0.52891179   -7.7212623    813.85104  0.014968201  0.013574192         3918 
 4532000   0.53088668   -7.7164749     815.7208  0.014999279  0.013569513         3909 
 4533000   0.52924727   -7.7119431    814.86752  0.014980284  0.013564835         3917 
 4534000   0.53070271   -7.7128041    815.17753  0.014982678  0.013560161         3910 
 4535000   0.54442407   -7.7386718    815.07234  0.014977441  0.013555487         3923 
 4536000   0.53179781   -7.7029348    813.46063  0.014944529  0.013550812         3910 
 4537000   0.53044168   -7.7214821    814.33137  0.014957229  0.013546139         3912 
 4538000   0.52387682   -7.7249964    814.09834  0.014949654  0.013541475         3909 
 4539000   0.52163806   -7.7129773    815.23603  0.014967247  0.013536809         3916 
 4540000   0.52316424   -7.7408709    814.47051  0.014949899  0.013532143         3920 
 4541000   0.52571023   -7.7081561    814.39806  0.014945278  0.013527483         3914 
 4542000    0.5407307   -7.7267735    814.93489  0.014951836  0.013522822         3910 
 4543000   0.51533199   -7.7141777    814.52748  0.014941072  0.013518162         3927 
 4544000   0.51899191   -7.7379849    814.06667  0.014929333  0.013513504         3927 
 4545000    0.5346606   -7.7390823    814.46736  0.014933395  0.013508851         3926 
 4546000   0.51814611   -7.7463864    816.44773  0.014966412  0.013504196         3911 
 4547000   0.52587376   -7.7288761     815.3999  0.014943917  0.013499546         3907 
 4548000    0.5141403   -7.7053768    815.63991  0.014945029  0.013494901         3908 
 4549000   0.51777068   -7.7323096    815.42631  0.014937831  0.013490254         3918 
 4550000   0.51960114   -7.7350748    813.38192  0.014897105  0.013485607         3913 
 4551000   0.52418899   -7.7111687    813.72202  0.014900059  0.013480964         3912 
 4552000   0.51491721   -7.7337349    814.72164  0.014915086  0.013476323         3918 
 4553000    0.5334685   -7.7272326    815.86986  0.014932826  0.013471682         3901 
 4554000   0.53027094   -7.7138705    814.39562  0.014902569  0.013467046         3908 
 4555000   0.52588478   -7.7157281    814.35967   0.01489864  0.013462411         3917 
 4556000   0.51583772   -7.7057418     814.2667   0.01489367  0.013457781         3902 
 4557000    0.5230714   -7.7086587    813.64306  0.014878997  0.013453151         3902 
 4558000   0.53584028   -7.7232048    814.86637  0.014898098  0.013448521         3904 
 4559000   0.52917779   -7.7219069     814.2141  0.014882907  0.013443892         3906 
 4560000   0.53027381   -7.7328067    814.60865  0.014886854  0.013439267         3907 
 4561000   0.52085493   -7.7161415    815.43971  0.014898774  0.013434643         3913 
 4562000   0.52425799   -7.7206461    815.29436  0.014892853  0.013430019         3899 
 4563000    0.5249797    -7.732915    814.32148  0.014871822  0.013425402         3907 
 4564000   0.52376336   -7.7117762    813.18463  0.014847806  0.013420779         3902 
 4565000   0.51576884   -7.7011493    815.17413  0.014880871  0.013416165         3909 
 4566000   0.51994325   -7.7295728    814.09279  0.014857877  0.013411552         3906 
 4567000   0.52400731   -7.7294582    813.79405  0.014849173   0.01340694         3909 
 4568000    0.5181997   -7.7083803    813.32977  0.014837452  0.013402332         3907 
 4569000   0.52317729    -7.735181    814.78014  0.014860658  0.013397722         3903 
 4570000   0.52168359   -7.7183594    813.55348  0.014835038  0.013393114         3888 
 4571000   0.51748393   -7.7194558    813.70673  0.014834586  0.013388511         3915 
 4572000   0.51924835   -7.7310418    812.54748  0.014810212  0.013383909         3899 
 4573000    0.5312195   -7.7174053    814.69052  0.014846026   0.01337931         3906 
 4574000   0.51360657   -7.7180657    814.74588  0.014843789  0.013374717         3904 
 4575000   0.51779458   -7.7286193    815.30615   0.01485075  0.013370122         3910 
 4576000   0.52088864   -7.7350644    814.03104  0.014824283   0.01336553         3904 
 4577000   0.51294379    -7.721932    814.38226  0.014827439  0.013360935         3905 
 4578000   0.52482303   -7.7263984    815.40654  0.014842845  0.013356349         3910 
 4579000   0.51357201    -7.728895    813.88783  0.014811965  0.013351763         3912 
 4580000   0.52421275   -7.7181713    814.25759  0.014815458  0.013347178         3902 
 4581000     0.531748   -7.7302451    814.25518   0.01481218  0.013342595         3891 
 4582000   0.51468194   -7.7268019    813.28384  0.014791282  0.013338014         3901 
 4583000    0.5262643   -7.7310315    814.86619  0.014816827  0.013333435         3901 
 4584000   0.52276771   -7.7342166    813.96984  0.014797299  0.013328859         3912 
 4585000   0.51117998   -7.7260464    814.12075  0.014796815  0.013324279         3907 
 4586000    0.5256137   -7.7199585     814.9189  0.014808092  0.013319705         3907 
 4587000   0.51631189   -7.7435054    815.47864  0.014815032  0.013315136         3910 
 4588000   0.51850647   -7.7526739    814.59351  0.014795726  0.013310567         3911 
 4589000   0.52625397    -7.715749    813.22223  0.014767601  0.013305998         3915 
 4590000    0.5094032   -7.7396095    814.34216  0.014784716  0.013301429         3920 
 4591000   0.51805978   -7.7343694    813.85939  0.014772733  0.013296866         3904 
 4592000   0.52104961   -7.7407378    814.65886  0.014784024  0.013292307         3916 
 4593000   0.51717602   -7.7259196    813.81749   0.01476554  0.013287747         3911 
 4594000   0.52155942   -7.7282173    814.28368  0.014770782  0.013283186         3914 
 4595000   0.52337108   -7.7208303    813.17495   0.01474746   0.01327863         3923 
 4596000   0.52068861   -7.7307965    815.12815  0.014779666  0.013274076         3910 
 4597000   0.52386377   -7.7215214    814.55641  0.014766087  0.013269523         3914 
 4598000   0.52220208   -7.7224665    814.52424  0.014762292  0.013264973         3927 
 4599000   0.51773601   -7.7255879    813.59243  0.014742198  0.013260422         3912 
 4600000   0.51735656   -7.7455429    815.82523  0.014779443  0.013255871         3913 
 4601000   0.51838322    -7.731623     814.0109  0.014743369  0.013251326         3910 
 4602000   0.50229377   -7.7208415     812.5676   0.01471403  0.013246782         3899 
 4603000   0.52003978   -7.7290444    813.82072   0.01473352   0.01324224         3915 
 4604000   0.51756398   -7.7390326    813.17938  0.014718712  0.013237699         3907 
 4605000   0.51110834   -7.7442402    813.22901  0.014716414  0.013233163         3910 
 4606000    0.5105243   -7.7466179    814.23118   0.01473135  0.013228627         3920 
 4607000   0.51041026   -7.7410587    815.12493  0.014744319  0.013224091         3909 
 4608000   0.50993315   -7.7215649     813.4386  0.014710623  0.013219559         3915 
 4609000   0.51994099   -7.7267841    813.90925  0.014715941  0.013215028         3914 
 4610000   0.50534758    -7.751945    814.50957    0.0147236    0.0132105         3917 
 4611000   0.50885797   -7.7316584    814.26089  0.014715913  0.013205972         3914 
 4612000   0.52143885   -7.7348055    813.95976  0.014707281  0.013201446         3912 
 4613000   0.52621774    -7.721535    814.39509  0.014711957  0.013196925         3913 
 4614000   0.50858683   -7.7342564    813.58228  0.014694088  0.013192406         3918 
 4615000   0.51585826   -7.7334521    813.24158  0.014684752  0.013187887         3914 
 4616000   0.52764042    -7.733391    815.03665  0.014713978   0.01318337         3912 
 4617000   0.50831884   -7.7421945    812.71853   0.01466895  0.013178855         3913 
 4618000   0.51347169   -7.7409133    813.17254  0.014673967  0.013174342         3912 
 4619000   0.51147101   -7.7509137    813.79745  0.014682064   0.01316983         3908 
 4620000   0.50303013   -7.7407307     813.0491  0.014665388   0.01316532         3909 
 4621000    0.5066264   -7.7340976    814.34721  0.014685624  0.013160807         3922 
 4622000   0.51765366   -7.7249024    814.10462  0.014678073  0.013156303         3919 
 4623000    0.5128884   -7.7266215    813.17529  0.014658146  0.013151798         3903 
 4624000    0.5069714    -7.756819     814.0965  0.014671578  0.013147298         3908 
 4625000   0.51314513   -7.7362265    814.45155  0.014674803    0.0131428         3912 
 4626000   0.51821864   -7.7379105    814.64037  0.014675032  0.013138305         3915 
 4627000   0.50928353   -7.7491442    812.31645  0.014630006  0.013133807         3905 
 4628000    0.5041697   -7.7304168     814.6073  0.014668095   0.01312931         3914 
 4629000   0.50906902   -7.7414438    813.31703  0.014641698  0.013124819         3910 
 4630000   0.51189594   -7.7391395    812.56417  0.014624985  0.013120332         3928 
 4631000   0.50156072    -7.758151    814.72669  0.014660741  0.013115842         3919 
 4632000   0.50422331   -7.7472301    813.76419   0.01464026  0.013111356         3920 
 4633000   0.51016675   -7.7525864     813.5465  0.014633184   0.01310687         3915 
 4634000   0.50874902   -7.7180941    814.10814  0.014640126  0.013102389         3908 
 4635000   0.50763859   -7.7419422    813.35408   0.01462341  0.013097913         3905 
 4636000   0.50881677   -7.7348159    813.38641  0.014620837  0.013093435         3919 
 4637000   0.50899544   -7.7472734    813.57248  0.014621028  0.013088958         3913 
 4638000    0.5205715   -7.7374571    814.15421  0.014628328  0.013084484         3916 
 4639000   0.50947059   -7.7448985    813.59972  0.014615214  0.013080013         3906 
 4640000    0.5171625   -7.7407044    812.72542  0.014596362   0.01307554         3906 
 4641000   0.51359152   -7.7523856     813.9834  0.014615805  0.013071072         3915 
 4642000   0.50255894   -7.7358955    814.54244  0.014622692  0.013066602         3897 
 4643000   0.50226409   -7.7417827    813.53328   0.01460143  0.013062136         3906 
 4644000   0.50651873   -7.7512262    813.39643   0.01459583  0.013057671         3908 
 4645000   0.50790093   -7.7463512     813.3702  0.014592218  0.013053208         3913 
 4646000   0.50453562   -7.7519481    813.93124   0.01459914  0.013048751         3905 
 4647000   0.50548615    -7.730364    814.45455  0.014605383  0.013044293         3916 
 4648000   0.50016877   -7.7350187     813.0857  0.014577698  0.013039837         3923 
 4649000   0.51131327   -7.7348486    814.20074   0.01459455  0.013035385         3905 
 4650000   0.49985282   -7.7458649    813.39575  0.014576985  0.013030937         3925 
 4651000    0.5113338   -7.7499753    813.61665  0.014577809  0.013026489         3916 
 4652000   0.50186703   -7.7375063    813.61454  0.014574637  0.013022043         3912 
 4653000   0.50146654   -7.7278572     812.9587  0.014559759  0.013017599         3917 
 4654000   0.49405907   -7.7405989    813.49813  0.014566289  0.013013152         3921 
 4655000   0.51471678   -7.7685651    813.30845  0.014559764  0.013008709         3912 
 4656000   0.50270219    -7.741855    813.30789  0.014556628  0.013004269         3908 
 4657000   0.50147617   -7.7568341    813.50119  0.014556961  0.012999831         3914 
 4658000    0.5112092   -7.7449586    814.09047  0.014564378  0.012995394         3913 
 4659000   0.50167658   -7.7343468    815.36656  0.014584077   0.01299096         3914 
 4660000   0.50515768    -7.730648    813.08583  0.014540162  0.012986528         3920 
 4661000   0.51127087   -7.7400327    813.76464  0.014549178    0.0129821         3922 
 4662000   0.50813235    -7.735902    813.05643  0.014533398   0.01297767         3915 
 4663000   0.50702582   -7.7399184    812.45864  0.014519598  0.012973247         3921 
 4664000   0.51058295   -7.7454946    813.93397  0.014542845  0.012968823         3913 
 4665000   0.49882203   -7.7569823    813.21209  0.014526833  0.012964399         3907 
 4666000   0.49281365   -7.7476996    813.42403  0.014527504   0.01295998         3921 
 4667000   0.50106137    -7.751926     813.5448  0.014526548  0.012955558         3903 
 4668000   0.49773744   -7.7487387    813.68563   0.01452595  0.012951143         3904 
 4669000   0.50130205   -7.7390238    813.42193  0.014518133  0.012946727         3904 
 4670000    0.5085482   -7.7355904    813.23048  0.014511607   0.01294231         3907 
 4671000   0.49443024   -7.7400912     812.9261   0.01450307  0.012937899         3910 
 4672000    0.4934268   -7.7494907    813.27881  0.014506257  0.012933488         3909 
 4673000   0.51174065   -7.7284369    814.98797  0.014533632   0.01292908         3893 
 4674000   0.50140216   -7.7545816    813.26723  0.014499844  0.012924676         3903 
 4675000   0.49398494   -7.7580083    814.34777  0.014516003  0.012920275         3918 
 4676000   0.50285202    -7.753574    813.06599  0.014490056  0.012915872         3909 
 4677000   0.50870724   -7.7695551    814.03034   0.01450414  0.012911472         3894 
 4678000   0.50557917   -7.7424217    813.81557  0.014497213  0.012907074         3903 
 4679000   0.50019381   -7.7447352    813.66523  0.014491437  0.012902676         3916 
 4680000   0.50050705   -7.7509136    812.84931  0.014473813  0.012898279         3918 
 4681000   0.50047961   -7.7519968    814.68352  0.014503374  0.012893888         3913 
 4682000   0.51042781   -7.7445835    812.84614  0.014467573  0.012889499         3914 
 4683000   0.49025416   -7.7392579    812.40611  0.014456654   0.01288511         3910 
 4684000   0.49580282   -7.7333759    813.71295  0.014476817  0.012880723         3904 
 4685000   0.50304984   -7.7675767     813.8715  0.014476547  0.012876338         3912 
 4686000   0.49944304   -7.7665648    812.32823  0.014446013  0.012871953         3919 
 4687000   0.49738803   -7.7571743    812.84506   0.01445212   0.01286757         3905 
 4688000   0.50111554   -7.7491277    813.39184  0.014458757  0.012863192         3906 
 4689000   0.50858018   -7.7580344    813.83397  0.014463531  0.012858815         3911 
 4690000   0.50826967   -7.7647931    814.44742  0.014471347  0.012854439         3921 
 4691000   0.51171051    -7.732013    814.01275   0.01446054  0.012850067         3922 
 4692000   0.50720766   -7.7571557    813.79314  0.014453558  0.012845694         3914 
 4693000   0.49822739   -7.7626967    813.56136  0.014446363  0.012841322         3917 
 4694000   0.50568793   -7.7540295    812.60915   0.01442638  0.012836954         3918 
 4695000   0.49886876   -7.7555573    813.75288  0.014443608  0.012832588         3908 
 4696000   0.49641036    -7.751827    812.46995  0.014417766  0.012828224         3915 
 4697000    0.4885842    -7.748874    813.42829  0.014431699  0.012823864         3912 
 4698000   0.49055903   -7.7519785    812.89586  0.014419183  0.012819501         3920 
 4699000   0.50546023   -7.7491726    813.86277  0.014433262  0.012815141         3914 
 4700000    0.5048042   -7.7366074    813.51141  0.014423961  0.012810785         3916 
 4701000   0.49974108   -7.7422063    813.12191  0.014413988  0.012806433         3914 
 4702000   0.50354428   -7.7458964    813.07519  0.014410095   0.01280208         3897 
 4703000   0.50165534   -7.7603112     814.3607  0.014429809  0.012797727         3915 
 4704000   0.49954999   -7.7414787    811.98911  0.014384728  0.012793378         3923 
 4705000   0.49527314   -7.7606332    813.06321  0.014400694  0.012789031         3917 
 4706000   0.49565897   -7.7385063    813.15504  0.014399261  0.012784684         3916 
 4707000   0.49807671   -7.7478446    811.85154  0.014373124  0.012780343         3924 
 4708000   0.50509642   -7.7577895    813.37619  0.014397058     0.012776         3915 
 4709000   0.50139229   -7.7679899    813.35945  0.014393704  0.012771657         3926 
 4710000   0.50119344   -7.7359199    813.39757  0.014391323   0.01276732         3919 
 4711000    0.4987767   -7.7467614    812.89782  0.014379428  0.012762981         3920 
 4712000   0.49192484   -7.7572083    814.47425  0.014404256  0.012758648         3910 
 4713000   0.49284551   -7.7524637    812.28595  0.014362507  0.012754317         3918 
 4714000   0.49960622   -7.7483752    814.23618  0.014393936   0.01274999         3917 
 4715000   0.49395128   -7.7354747    813.14939  0.014371675  0.012745662         3900 
 4716000   0.49629076   -7.7766225    812.81656  0.014362747  0.012741336         3908 
 4717000   0.49920237   -7.7601055    813.09626  0.014364643  0.012737011         3920 
 4718000   0.49263035   -7.7309901    813.20779  0.014363568  0.012732688         3917 
 4719000   0.49512478   -7.7461627    813.04064  0.014357573  0.012728367         3912 
 4720000    0.5006601   -7.7563886    813.51428  0.014362893  0.012724049         3919 
 4721000   0.50545238   -7.7698177    813.38776  0.014357618  0.012719729         3916 
 4722000   0.48778699   -7.7573504    812.70639  0.014342552  0.012715412         3906 
 4723000   0.48341337   -7.7622882    811.74632  0.014322576  0.012711095         3912 
 4724000   0.49928017   -7.7452121    813.68836  0.014353803  0.012706784         3918 
 4725000   0.48524142    -7.765126    811.75996  0.014316754  0.012702475         3918 
 4726000    0.4936587   -7.7508653    812.76605  0.014331465  0.012698165         3913 
 4727000   0.48739948   -7.7804768    812.62026  0.014325863  0.012693857         3915 
 4728000   0.50202797   -7.7458938    813.77437  0.014343175  0.012689551         3916 
 4729000   0.48298147   -7.7442472    812.84443  0.014323755  0.012685249         3908 
 4730000    0.4935204   -7.7582601    811.97867  0.014305473  0.012680948         3910 
 4731000   0.48586359   -7.7629908     813.3091  0.014325884   0.01267665         3918 
 4732000   0.49841327   -7.7553715    813.14231   0.01431992   0.01267235         3905 
 4733000   0.49212701    -7.769936    811.92043   0.01429538  0.012668054         3916 
 4734000   0.49747895   -7.7479955    812.69011  0.014305909  0.012663759         3908 
 4735000   0.49367214   -7.7598483    813.02507  0.014308783  0.012659467         3909 
 4736000    0.4941467   -7.7462768    812.78039  0.014301457  0.012655176         3911 
 4737000   0.49098189   -7.7602382    812.32128  0.014290361  0.012650889         3915 
 4738000   0.49930647   -7.7629369    812.03074  0.014282235    0.0126466         3914 
 4739000   0.49209022   -7.7808507    812.26324  0.014283309  0.012642319         3914 
 4740000   0.48896185   -7.7670977    813.39441  0.014300183  0.012638036         3915 
 4741000   0.48422137   -7.7536843    813.12743  0.014292474  0.012633755         3923 
 4742000   0.48830621   -7.7602746     814.6214  0.014315714  0.012629475         3912 
 4743000   0.49290786   -7.7633411    812.64153   0.01427791    0.0126252         3910 
 4744000   0.49185638   -7.7663057    811.91552  0.014262147  0.012620925         3913 
 4745000   0.49709353   -7.7595377    813.08138  0.014279617  0.012616647         3914 
 4746000    0.4905164   -7.7636381     812.1851  0.014260871  0.012612373         3915 
 4747000   0.49340403   -7.7604833    813.30133  0.014277462  0.012608105         3921 
 4748000   0.50698523   -7.7575064    812.63484  0.014262757  0.012603836         3900 
 4749000   0.49179037   -7.7916761    812.94531  0.014265202  0.012599567         3921 
 4750000   0.49323137   -7.7777259    813.04078  0.014263873  0.012595302         3915 
 4751000   0.49598151   -7.7594527    812.36753  0.014249062  0.012591041         3914 
 4752000   0.48758375   -7.7727782    812.39272  0.014246505   0.01258678         3913 
 4753000   0.48441828   -7.7572175    813.77327  0.014267713  0.012582519         3906 
 4754000   0.49382398   -7.7553514    812.62837  0.014244643  0.012578262         3909 
 4755000   0.48976586   -7.7471709    811.76661  0.014226544  0.012574006         3918 
 4756000    0.5003278   -7.7411216    812.57925  0.014237792  0.012569756         3920 
 4757000   0.48302571   -7.7647966    812.68451  0.014236643  0.012565506         3923 
 4758000   0.49900666    -7.759281    812.11364  0.014223652  0.012561256         3922 
 4759000   0.49370579   -7.7694869    812.14916  0.014221285  0.012557011         3910 
 4760000   0.50071767   -7.7567916    812.65497  0.014227153  0.012552768         3914 
 4761000   0.49334584   -7.7687837    812.13132  0.014214999  0.012548528         3912 
 4762000   0.48866006   -7.7592442    813.20459  0.014230796  0.012544286         3909 
 4763000   0.48733861   -7.7497864    813.21854  0.014228052  0.012540044         3905 
 4764000   0.48765956   -7.7632549    812.57861  0.014213872  0.012535804         3907 
 4765000   0.48362888     -7.77556    812.96823  0.014217702  0.012531567         3921 
 4766000   0.48257189   -7.7512737    813.93165  0.014231565  0.012527332         3910 
 4767000   0.48336833   -7.7639521    811.93144  0.014193613  0.012523101         3919 
 4768000    0.4781835   -7.7506016    811.38017  0.014181001   0.01251887         3919 
 4769000   0.47669577   -7.7676997    812.70586  0.014201193  0.012514642         3916 
 4770000   0.48172898   -7.7739239    811.62006  0.014179246  0.012510416         3922 
 4771000   0.48338049   -7.7726088       813.01  0.014200552  0.012506191         3914 
 4772000   0.48745545   -7.7506431    811.98649  0.014179703  0.012501966         3918 
 4773000   0.48497761   -7.7657867    811.95527  0.014176187  0.012497743         3917 
 4774000   0.48803432   -7.7666552    812.96039  0.014190762  0.012493524         3905 
 4775000   0.49098384   -7.7614205    811.64494  0.014164833  0.012489305         3907 
 4776000   0.48822127   -7.7797901    812.33735  0.014173949  0.012485089         3921 
 4777000   0.47972183   -7.7636045    812.37121  0.014171572   0.01248087         3924 
 4778000   0.48985126   -7.7581924    812.30815  0.014167506  0.012476659         3911 
 4779000   0.49228283   -7.7810747    812.44643  0.014166953  0.012472448         3908 
 4780000   0.49470343   -7.7718888    811.79393  0.014152614  0.012468235         3917 
 4781000   0.49229808   -7.7785446    812.43703  0.014160863  0.012464029         3912 
 4782000   0.48776436   -7.7766553    813.29792  0.014172904  0.012459824         3908 
 4783000   0.48692113   -7.7673174    811.85335  0.014144772  0.012455618         3902 
 4784000   0.48159567   -7.7719227    812.58902   0.01415463  0.012451418         3917 
 4785000   0.47722694   -7.7633653    813.14799  0.014161407  0.012447218         3917 
 4786000   0.48997688   -7.7582654    812.90923  0.014154291   0.01244302         3912 
 4787000   0.48611061   -7.7583547    811.90785  0.014133902  0.012438824         3916 
 4788000   0.49362172   -7.7635973    811.39201  0.014121972  0.012434632         3917 
 4789000   0.49561618   -7.7917843    813.38989  0.014153788   0.01243044         3904 
 4790000   0.47385887   -7.7704038    812.78366  0.014140286   0.01242625         3916 
 4791000   0.47573397   -7.7720221    810.87994  0.014104222  0.012422061         3914 
 4792000   0.48126376   -7.7735657    812.51854  0.014129774  0.012417871         3912 
 4793000   0.48807122   -7.7772516    810.90088  0.014098701  0.012413687         3919 
 4794000   0.48584889   -7.7640658    811.90347  0.014113188  0.012409501         3910 
 4795000   0.48309911   -7.7695096    812.88835  0.014127361  0.012405321         3901 
 4796000   0.48104939   -7.7829183    812.98156  0.014126035  0.012401144         3915 
 4797000   0.48033919   -7.7553498    812.33266  0.014111818  0.012396964         3920 
 4798000   0.48138004    -7.773058    811.80747  0.014099755  0.012392787         3909 
 4799000   0.46635984   -7.7595014    812.47772  0.014108455  0.012388613         3911 
 4800000   0.48325727   -7.7771447    812.14266  0.014099699   0.01238444         3919 
 4801000   0.48130135   -7.7724163    813.39824  0.014118556   0.01238027         3911 
 4802000   0.48540465   -7.7721068    811.33936  0.014079886  0.012376099         3914 
 4803000   0.47644039   -7.7769451    812.75296  0.014101481  0.012371933         3915 
 4804000   0.48005515   -7.7783343    813.49518  0.014111421  0.012367768         3911 
 4805000   0.49095043   -7.7778759    812.52824  0.014091714  0.012363605         3920 
 4806000   0.48783474   -7.7789633     811.3569  0.014068472  0.012359437         3909 
 4807000   0.48965439     -7.76741    812.80592  0.014090665  0.012355276         3919 
 4808000   0.48902717   -7.7708991    811.86622  0.014071447  0.012351117         3911 
 4809000   0.49084951   -7.7709042    811.09632   0.01405518   0.01234696         3914 
 4810000     0.480904   -7.7673324    811.37365  0.014057063  0.012342805         3907 
 4811000   0.47783709   -7.7866391    813.25404  0.014086712  0.012338652         3927 
 4812000   0.48109407   -7.7807582     811.4127  0.014051896    0.0123345         3918 
 4813000   0.48333647   -7.7791009    812.93801  0.014075386  0.012330351         3903 
 4814000    0.4823518   -7.7758387    811.85896  0.014053783  0.012326203         3903 
 4815000   0.48245565   -7.7756889    811.24358  0.014040214  0.012322057         3904 
 4816000   0.48439765   -7.7671405    812.66494  0.014061893  0.012317912         3899 
 4817000   0.48325749   -7.7589577    813.17439  0.014067788   0.01231377         3909 
 4818000   0.49127874   -7.7761219     812.2882   0.01404954  0.012309632         3904 
 4819000    0.4791508   -7.7722686    812.61128  0.014052211  0.012305491         3916 
 4820000   0.48398634    -7.775059    812.24211  0.014042913  0.012301352         3918 
 4821000   0.48680573   -7.7689649     811.5958  0.014028829  0.012297214         3909 
 4822000   0.48021535   -7.7830544    812.55066  0.014042421  0.012293079         3916 
 4823000    0.4713261   -7.7735591    812.12625  0.014032177  0.012288945         3913 
 4824000   0.48760749   -7.7512515    811.29816  0.014014963  0.012284815         3912 
 4825000   0.47906333   -7.7775735     812.0059  0.014024282  0.012280685         3917 
 4826000     0.484585   -7.7694123    811.20307  0.014007513  0.012276559         3908 
 4827000    0.4746961   -7.7867847    812.23042  0.014022347  0.012272434         3912 
 4828000   0.48057755   -7.7773711    812.22088  0.014019278  0.012268311         3900 
 4829000   0.47252372   -7.7746555    812.07324  0.014013827  0.012264189         3907 
 4830000   0.47718645   -7.7829667     812.0444  0.014010428  0.012260071         3924 
 4831000   0.47659952   -7.7862668    812.77242  0.014020086  0.012255952         3911 
 4832000   0.48535605   -7.7777735    810.79917  0.013983153  0.012251835         3921 
 4833000   0.47931683   -7.7831466    811.79882  0.013997497  0.012247719         3925 
 4834000   0.47610162   -7.7633384    812.14133  0.014000506  0.012243605         3919 
 4835000   0.47562325   -7.7691639     811.7907  0.013991567  0.012239492         3905 
 4836000   0.48481668   -7.7799264    812.06795  0.013993451   0.01223538         3919 
 4837000   0.47170724   -7.7878858     812.6144  0.013999972  0.012231274         3925 
 4838000   0.47855015   -7.7837213    812.35728   0.01399265  0.012227167         3898 
 4839000   0.47516777   -7.7893533    811.27326   0.01397109   0.01222306         3908 
 4840000   0.48647554   -7.7773132    811.57151  0.013973339  0.012218956         3918 
 4841000    0.4766394    -7.774676    812.16791  0.013980719  0.012214852         3929 
 4842000   0.48130378   -7.7884111    811.17859  0.013960805  0.012210755         3906 
 4843000   0.47288221   -7.7890638    811.07705  0.013956175  0.012206659         3917 
 4844000   0.47691352    -7.782676    812.46268  0.013977131  0.012202563         3917 
 4845000   0.47986101    -7.799284    811.21073  0.013952713  0.012198467         3912 
 4846000   0.47010403   -7.7858819      813.098  0.013982288  0.012194378         3915 
 4847000   0.47630137   -7.7669239    812.15079  0.013963118  0.012190287         3906 
 4848000   0.47376028   -7.7803566    813.04944  0.013975685  0.012186197         3926 
 4849000   0.47396783   -7.7743965    811.51008  0.013946348   0.01218211         3905 
 4850000   0.46525553   -7.7820847    813.20314  0.013972563  0.012178025         3922 
 4851000   0.47823685   -7.7822391    811.99711  0.013948964  0.012173944         3912 
 4852000   0.47825836   -7.7804176    811.46837  0.013937008  0.012169861         3901 
 4853000   0.47334502   -7.7855284    812.24204  0.013947422   0.01216578         3921 
 4854000   0.45966285   -7.7699949    812.14277  0.013942844  0.012161699         3910 
 4855000   0.46589673   -7.7700032    811.97938  0.013937168  0.012157621         3915 
 4856000   0.48340829   -7.7868553    812.38272  0.013941219  0.012153547         3913 
 4857000   0.48165977   -7.7823437    811.76582  0.013927764  0.012149474         3914 
 4858000   0.48135206   -7.7759676    811.13479  0.013914073  0.012145404         3903 
 4859000   0.48134767   -7.7998985    811.94599  0.013925122  0.012141338         3915 
 4860000   0.47075855   -7.7757726    812.16938  0.013926087  0.012137271         3919 
 4861000   0.46821662   -7.7788227     812.0024  0.013920359  0.012133204         3921 
 4862000   0.47170701   -7.7792656    810.79755  0.013896845  0.012129143         3926 
 4863000   0.46984934   -7.7809934    810.97498  0.013897028  0.012125079         3899 
 4864000   0.47048092   -7.7981392    811.75682  0.013907566  0.012121019         3916 
 4865000   0.47269715   -7.7849527    811.86499   0.01390656   0.01211696         3926 
 4866000   0.46020305   -7.7799228    812.12295   0.01390812  0.012112902         3914 
 4867000    0.4707035   -7.7780353     811.2044  0.013889535  0.012108847         3918 
 4868000    0.4799517   -7.7933823    812.17653  0.013903323  0.012104795         3925 
 4869000   0.46363199   -7.7845026      811.838  0.013894674  0.012100744         3909 
 4870000   0.46195637   -7.7708073    810.24769  0.013864608  0.012096696         3903 
 4871000   0.46676036   -7.7845606    811.84305  0.013889055  0.012092648         3918 
 4872000    0.4743663   -7.7785486    812.09881  0.013890579  0.012088601         3910 
 4873000   0.46855341   -7.7881865    812.26962  0.013890649  0.012084558         3918 
 4874000   0.47727128     -7.79814    810.95642  0.013865347  0.012080519         3923 
 4875000   0.46496121   -7.8072152    812.49901  0.013888872  0.012076477         3917 
 4876000   0.46400296   -7.7865124    811.68839   0.01387217  0.012072438         3927 
 4877000   0.46295041   -7.7917421    810.69133  0.013852288    0.0120684         3919 
 4878000   0.47401789   -7.7819118    812.57106  0.013881561  0.012064363         3917 
 4879000   0.46920016   -7.7904769    811.04737  0.013852691   0.01206033         3913 
 4880000    0.4717597   -7.8005103    811.26823  0.013853624  0.012056295         3916 
 4881000   0.45270825   -7.7822061    811.53183  0.013855286  0.012052263         3925 
 4882000   0.48117804   -7.7703371      812.156  0.013863102  0.012048232         3895 
 4883000   0.46595785   -7.7690666    811.00587  0.013840635  0.012044205         3912 
 4884000   0.47089152   -7.7970709    811.60113  0.013847958  0.012040178         3914 
 4885000   0.46981387    -7.793148    810.89487  0.013833075  0.012036155         3913 
 4886000   0.46217165   -7.7795783    810.35652  0.013821062  0.012032132         3916 
 4887000   0.47158846   -7.7882733    811.53035   0.01383825  0.012028112         3915 
 4888000   0.47407204    -7.797603    812.75575   0.01385631  0.012024091         3921 
 4889000   0.46938607   -7.7760884    811.40889  0.013830519  0.012020075         3908 
 4890000   0.46439974   -7.7767983    810.48265  0.013811906   0.01201606         3913 
 4891000   0.46849822   -7.7970279    812.40845  0.013841894  0.012012046         3911 
 4892000   0.46993601    -7.785347    811.53564  0.013824197  0.012008034         3907 
 4893000    0.4731764   -7.7848755    811.45887  0.013820064  0.012004023         3915 
 4894000   0.47876645   -7.7974926    811.23326  0.013813398  0.012000018         3907 
 4895000   0.47808771     -7.79434    812.07475  0.013824902   0.01199601         3916 
 4896000   0.46838026    -7.783115     812.5267  0.013829771  0.011992007         3915 
 4897000   0.47025965   -7.7981489    812.96737  0.013834446  0.011988003         3922 
 4898000   0.46600433   -7.7917302    811.26137  0.013802596  0.011984001         3906 
 4899000   0.46998146   -7.7918463    810.60809  0.013788666  0.011980002         3918 
 4900000   0.46139655   -7.7863303    810.82361  0.013789517  0.011976003         3919 
 4901000   0.46384696   -7.7825539    812.13757  0.013809045  0.011972005         3926 
 4902000   0.46628971   -7.7906097    810.65067  0.013780951  0.011968015         3922 
 4903000   0.47010459   -7.7908151    811.43417  0.013791457   0.01196402         3915 
 4904000   0.46423899   -7.8216833    812.51069  0.013806938   0.01196003         3900 
 4905000   0.46150111   -7.7884139    810.89649  0.013776699  0.011956042         3915 
 4906000   0.46665562   -7.8070816    810.87476  0.013773522  0.011952053         3914 
 4907000   0.46486291    -7.800643    811.22159  0.013776605  0.011948067         3919 
 4908000   0.46305333   -7.7848238    810.98309  0.013769748  0.011944082         3914 
 4909000   0.46078215   -7.7884617     812.1054  0.013785995    0.0119401         3913 
 4910000   0.46300439   -7.8055047    811.26553  0.013768933  0.011936119         3914 
 4911000   0.47112423   -7.7964147    811.49861  0.013770084   0.01193214         3916 
 4912000   0.46333487   -7.8084441    812.31614  0.013781151  0.011928162         3909 
 4913000   0.47096625   -7.7741625    811.17329  0.013758961  0.011924186         3909 
 4914000    0.4697269   -7.7846508    809.37039  0.013725587  0.011920211         3922 
 4915000   0.47092224   -7.8103551     812.0077  0.013767509  0.011916241         3916 
 4916000   0.47179364   -7.8024475    811.14493  0.013750084  0.011912271         3914 
 4917000   0.46627259   -7.7849654    811.79978  0.013758386  0.011908302         3918 
 4918000   0.46203378   -7.7759703      812.028  0.013759455  0.011904335         3921 
 4919000   0.47523636   -7.8019539    811.29408  0.013744224  0.011900371         3915 
 4920000   0.46105227   -7.8045344    810.97431  0.013736015  0.011896404         3921 
 4921000   0.46587141   -7.7918473    810.46414  0.013724584   0.01189244         3911 
 4922000   0.45210236   -7.7924661    811.39129  0.013737493   0.01188848         3920 
 4923000   0.45447253   -7.7909422    810.52535  0.013720045  0.011884521         3913 
 4924000   0.46864501   -7.8167379    811.86157  0.013739872  0.011880563         3907 
 4925000   0.45585575   -7.8085656    811.45721   0.01373024  0.011876608         3912 
 4926000   0.46749732   -7.7948101    810.75461  0.013715567  0.011872654         3916 
 4927000   0.46512832   -7.7873769    811.40601  0.013723801  0.011868701         3915 
 4928000   0.46084727   -7.7988336    811.30283  0.013719271  0.011864753         3922 
 4929000   0.45934413    -7.800527    811.42083  0.013718483  0.011860806         3910 
 4930000   0.47179279   -7.7883044    811.06982  0.013709767  0.011856859         3918 
 4931000   0.46162317   -7.7977352    810.83372  0.013702997  0.011852914         3904 
 4932000   0.46283465   -7.7857256    811.25136  0.013707275   0.01184897         3923 
 4933000   0.45858568   -7.7895235    810.40659  0.013690225  0.011845027         3924 
 4934000    0.4596278   -7.7985001    812.10979  0.013716217  0.011841086         3909 
 4935000   0.45794459   -7.8005398    811.30405  0.013699832  0.011837149         3912 
 4936000    0.4587979   -7.7915115    810.80899  0.013688698  0.011833213         3919 
 4937000   0.46971203    -7.792075    810.23769  0.013676283  0.011829279         3915 
 4938000   0.46714806   -7.7945908    811.27607  0.013691037  0.011825347         3916 
 4939000   0.45517507    -7.823712    811.20936  0.013687139  0.011821415         3913 
 4940000   0.46042352   -7.7993186    810.66136  0.013675124  0.011817483         3920 
 4941000   0.45547553   -7.8099306    811.36323  0.013684194  0.011813555         3920 
 4942000   0.46562799   -7.8021033    810.44296  0.013665907  0.011809628         3928 
 4943000    0.4608905   -7.8185703    810.68897   0.01366729  0.011805703         3910 
 4944000   0.46503239   -7.7985284    809.55141  0.013645351  0.011801777         3919 
 4945000   0.46944355   -7.8041259    810.95614  0.013666265  0.011797857         3927 
 4946000   0.46359292   -7.8079517    812.01754  0.013681385  0.011793936         3922 
 4947000   0.47306892   -7.7981562    811.80296  0.013675004  0.011790018         3905 
 4948000   0.47390348   -7.8239879    811.66625  0.013669938  0.011786101         3909 
 4949000    0.4599963   -7.7973118    810.79702   0.01365254  0.011782184         3906 
 4950000   0.46014348   -7.8118768    810.39539   0.01364302  0.011778269         3926 
 4951000   0.46155928    -7.803278    811.01951  0.013650769  0.011774356         3912 
 4952000    0.4673119   -7.8042748    810.16788  0.013633681  0.011770442         3921 
 4953000   0.46613595   -7.8186735    811.62145  0.013655385  0.011766535         3927 
 4954000   0.46622903   -7.8127235    810.47376  0.013633323  0.011762627         3916 
 4955000    0.4525062   -7.8303493    810.94499  0.013638496   0.01175872         3922 
 4956000   0.45274167    -7.819427    811.87142  0.013651322  0.011754814         3899 
 4957000   0.45720637   -7.7961668    811.22452  0.013637693  0.011750913         3915 
 4958000   0.46036201   -7.8109997    811.97416  0.013647542  0.011747011         3920 
 4959000   0.45762029   -7.8090686     810.9326  0.013627287  0.011743113         3925 
 4960000   0.46071912   -7.8094613    810.46389  0.013616665  0.011739215         3917 
 4961000   0.46123043   -7.7960941    810.15448  0.013608723  0.011735321         3923 
 4962000    0.4528796   -7.7983498    810.90921  0.013618655  0.011731427         3915 
 4963000   0.46015339   -7.8127825     810.2703  0.013605183  0.011727533         3918 
 4964000   0.45000956   -7.7932056    809.99511  0.013597823  0.011723644         3916 
 4965000   0.45668147   -7.8261734    811.23271  0.013615856  0.011719757         3922 
 4966000   0.45585917   -7.8061959    811.51832  0.013617907  0.011715868         3912 
 4967000   0.46146917   -7.8038054    810.94465  0.013605541  0.011711982         3921 
 4968000   0.45166709    -7.803592    810.52143  0.013595703  0.011708098         3904 
 4969000    0.4615809   -7.8189292    809.95842  0.013583525  0.011704217         3902 
 4970000    0.4601195   -7.8146171    810.72631  0.013593667  0.011700338         3918 
 4971000   0.45185437   -7.8105425    810.36308  0.013584843  0.011696459         3919 
 4972000   0.43914853   -7.8050211    810.26452  0.013580459  0.011692582         3918 
 4973000    0.4648038   -7.7831282    810.70679   0.01358514  0.011688707         3915 
 4974000   0.45661616   -7.8115987    811.59337  0.013597262  0.011684834         3920 
 4975000   0.45793667   -7.8002415    811.01548  0.013584849  0.011680961         3925 
 4976000   0.46262608   -7.8197343    812.61523   0.01360891  0.011677092         3912 
 4977000   0.45948631   -7.8092005    810.55777  0.013571726  0.011673222         3922 
 4978000   0.45814593   -7.8155446    809.31735  0.013548235  0.011669353         3913 
 4979000   0.45194703   -7.8112654    811.48755  0.013581836  0.011665485         3926 
 4980000   0.46285949   -7.8119778    810.53603  0.013563187  0.011661619         3907 
 4981000   0.44210103   -7.8061102    811.39733  0.013574873  0.011657757         3912 
 4982000   0.44310198   -7.8051742    810.85439  0.013563067  0.011653897         3908 
 4983000   0.45421973   -7.8213614    811.17088  0.013565638  0.011650037         3912 
 4984000   0.44969781   -7.8173812    810.94812  0.013559191   0.01164618         3913 
 4985000   0.45572374   -7.8065416     811.6233  0.013567758  0.011642324         3913 
 4986000   0.46047749   -7.8150252    810.56665  0.013547377  0.011638469         3911 
 4987000   0.44655376   -7.8089458    811.73533  0.013564189  0.011634617         3919 
 4988000   0.44729781   -7.8006178    809.73708  0.013528085  0.011630765         3915 
 4989000   0.46576899   -7.8074915    811.06583  0.013547569  0.011626917         3916 
 4990000   0.44560272   -7.8153217    810.33558  0.013532658  0.011623071         3916 
 4991000   0.45667487   -7.8110325    810.16856  0.013527158  0.011619226         3908 
 4992000   0.45734777   -7.8095352    810.79745  0.013534947  0.011615381         3900 
 4993000   0.45423668   -7.8107838    809.75363  0.013514815   0.01161154         3906 
 4994000   0.45850508   -7.8110342    809.99445  0.013516127    0.0116077         3920 
 4995000   0.46196532   -7.8234009    811.11281  0.013532079  0.011603862         3916 
 4996000   0.44493334   -7.8260898    811.19824  0.013530795  0.011600026         3918 
 4997000   0.45885528   -7.8122692    810.70109  0.013519797   0.01159619         3908 
 4998000   0.45186039   -7.7854494    809.95503  0.013504652  0.011592355         3924 
 4999000    0.4525154   -7.8234062     810.7793  0.013515692  0.011588521         3919 
 5000000   0.45749355   -7.8229617    810.44703   0.01350745   0.01158469         3919 
 5001000   0.45295184   -7.8172433    810.53524  0.013506219  0.011580861         3928 
 5002000   0.44617373   -7.8120462    810.11537  0.013496524  0.011577035         3920 
 5003000   0.43324559   -7.8196483    811.12445  0.013510634  0.011573209         3912 
 5004000   0.45764083   -7.8196965    810.80358  0.013502591  0.011569386         3907 
 5005000   0.45928399   -7.8124914    810.40973  0.013493335  0.011565564         3922 
 5006000   0.46175092    -7.799522    809.45951  0.013474822  0.011561744         3917 
 5007000   0.45605053   -7.8041838    810.63462  0.013491689  0.011557923         3905 
 5008000   0.44217024   -7.8124452    810.92079  0.013493756  0.011554103         3916 
 5009000   0.45512592     -7.81434    809.03401  0.013459673  0.011550286         3916 
 5010000   0.45035644   -7.8151726    810.28137  0.013477734  0.011546472         3921 
 5011000   0.44601193    -7.805641    809.64272  0.013464424  0.011542661         3916 
 5012000   0.44639328   -7.8076193    810.11343  0.013469564  0.011538849         3920 
Loop time of 10660.7 on 48 procs for 5000000 steps with 4000 atoms

Performance: 81045.440 tau/day, 469.013 timesteps/s
99.4% CPU use with 48 MPI tasks x no OpenMP threads

MPI task timing breakdown:
Section |  min time  |  avg time  |  max time  |%varavg| %total
---------------------------------------------------------------
Pair    | 686.83     | 727.19     | 767.62     |  69.7 |  6.82
Neigh   | 66.096     | 67.824     | 69.283     |   9.7 |  0.64
Comm    | 563.01     | 607.12     | 665.83     |  88.3 |  5.69
Output  | 14.958     | 14.962     | 15.047     |   0.3 |  0.14
Modify  | 9084.1     | 9127.7     | 9164.4     |  23.1 | 85.62
Other   |            | 115.9      |            |       |  1.09

Nlocal:        83.3333 ave          91 max          76 min
Histogram: 2 1 9 3 8 9 6 2 6 2
Nghost:        1764.04 ave        1791 max        1743 min
Histogram: 1 6 8 6 6 10 7 3 0 1
Neighs:        10589.5 ave       11603 max        9681 min
Histogram: 3 4 3 11 7 5 6 3 2 4
FullNghs:      21179.1 ave       22982 max       19263 min
Histogram: 2 3 6 3 8 10 3 6 4 3

Total # of neighbors = 1016599
Ave neighs/atom = 254.14975
Neighbor list builds = 269880
Dangerous builds = 2

#clear
#
#next RN
#
#jump SELF
Total wall time: 2:57:43
