
units lj                  # Use reduced LJ style units
atom_style atomic         # Uncharged point particles
atom_modify map hash      # Needed for indexing of clusters etc
                          # Used to be able to find where atoms are in relation to each other.

lattice fcc 1.0 spacing 1 1 1
Lattice spacing in x,y,z = 1.5874011 1.5874011 1.5874011
region box block 0 10 0 10 0 10 units lattice
create_box 2 box
Created orthogonal box = (0.0000000 0.0000000 0.0000000) to (15.874011 15.874011 15.874011)
  3 by 4 by 4 MPI processor grid
create_atoms 1 box
Created 4000 atoms
  using lattice units in orthogonal box = (0.0000000 0.0000000 0.0000000) to (15.874011 15.874011 15.874011)
  create_atoms CPU = 0.016 seconds
set type 1 type/fraction 2 0.85 78393
Setting atom values ...
  3394 settings made for type/fraction
mass 1 1.0
mass 2 1.0
pair_style lj/cut  3.5
pair_modify tail  yes
pair_coeff 1  1  1.0  1.0   # Intearaction between 1 and 1 set with epsilon = 1 and sigma = 1
pair_coeff 1  2  1.5  0.8
pair_coeff 2  2  0.5  0.88

write_data data.0
System init for write_data ...
Neighbor list info ...
  update every 1 steps, delay 10 steps, check yes
  max neighbors/atom: 2000, page size: 100000
  master list distance cutoff = 3.8
  ghost atom cutoff = 3.8
  binsize = 1.9, bins = 9 9 9
  1 neighbor lists, perpetual/occasional/extra = 1 0 0
  (1) pair lj/cut, perpetual
      attributes: half, newton on
      pair build: half/bin/atomonly/newton
      stencil: half/bin/3d
      bin: standard
WARNING: Not all mixed pair coeffs generated from mixing. Use write_data with 'pair ij' option to store all pair coeffs. (../write_data.cpp:312)


#############################
#   M E L T   S Y S T E M   #
#############################

velocity all create 2.4 8172548 mom yes dist gaussian # Assign velocities
                                                    # Temperature 2.4, random number seed, zero linear momentum
                                                                                # Gaussian distribution

timestep 0.002   # simulation timestep
thermo 1000       # output thermodynamic data every 1000 steps bf 100

# Define a fix  in this case with index 1 applied to all
# particles in the simulation. This fix is for simulations
# in the anisotropic NPT ensemble. Note that we use the MTK
# correction.
fix 1 all npt temp 2.4 2.4 0.1 iso 5.68 5.68 0.5 mtk yes tchain 5 pchain 5 # Use NPT ensemble
                                                                         # Set temperature and pressure and damping
                                                                         # Numbers of thermostats in chain and in barostat
run 10000          # run for 10000 steps
Per MPI rank memory allocation (min/avg/max) = 3.642 | 3.644 | 3.648 Mbytes
Step Temp E_pair E_mol TotEng Press Volume 
       0          2.4   -3.4381692            0   0.16093083   -2.9520202         4000 
    1000    2.3861925    -2.662823            0   0.91557091    5.5411016    3892.2399 
    2000    2.3666072   -2.6319672            0   0.91705612    5.3531531    3936.8351 
    3000      2.43222   -2.6066203            0    1.0407976    5.5370797    3944.8127 
    4000    2.4309204   -2.5966282            0    1.0488408    5.9248481    3900.4372 
    5000     2.376772   -2.6728747            0   0.89139198    5.6966185    3866.6973 
    6000    2.3877454   -2.6617717            0    0.9189511    5.7267161    3892.7608 
    7000    2.3781293   -2.6535154            0   0.91278669    5.9231919    3839.3693 
    8000    2.4443258   -2.6360938            0    1.0294783    5.7088542    3891.0713 
    9000    2.4322317   -2.6121164            0    1.0353191    5.6233008    3923.5239 
   10000    2.3981888   -2.5664938            0      1.02989     5.933034    3906.9519 
Loop time of 2.53751 on 48 procs for 10000 steps with 4000 atoms

Performance: 680981.433 tau/day, 3940.865 timesteps/s
99.6% CPU use with 48 MPI tasks x no OpenMP threads

MPI task timing breakdown:
Section |  min time  |  avg time  |  max time  |%varavg| %total
---------------------------------------------------------------
Pair    | 1.1193     | 1.1847     | 1.3664     |   3.9 | 46.69
Neigh   | 0.21107    | 0.21795    | 0.24701    |   1.1 |  8.59
Comm    | 0.70226    | 0.87372    | 0.97793    |   5.1 | 34.43
Output  | 0.0002383  | 0.00024402 | 0.00031335 |   0.0 |  0.01
Modify  | 0.20316    | 0.24577    | 0.29147    |   6.1 |  9.69
Other   |            | 0.01508    |            |       |  0.59

Nlocal:        83.3333 ave          94 max          72 min
Histogram: 1 4 5 5 4 8 12 7 0 2
Nghost:        1670.96 ave        1697 max        1650 min
Histogram: 5 2 9 3 7 11 4 3 2 2
Neighs:        9779.46 ave       11016 max        8020 min
Histogram: 1 1 5 5 5 7 4 10 7 3

Total # of neighbors = 469414
Ave neighs/atom = 117.35350
Neighbor list builds = 910
Dangerous builds = 239

# Equilibrate just above the melting temperature to avoid step fn in T

fix 1 all npt temp 1.25 1.25 0.1 iso 5.68 5.68 0.5 mtk yes tchain 5 pchain 5
run 2000
Per MPI rank memory allocation (min/avg/max) = 3.643 | 3.645 | 3.649 Mbytes
Step Temp E_pair E_mol TotEng Press Volume 
   10000    2.3981888   -2.5664938            0      1.02989     5.933034    3906.9519 
   11000     1.261011   -3.8820593            0   -1.9910157    5.8875244    3001.1447 
   12000    1.2666866   -3.9097336            0   -2.0101787    5.5444606    3015.0185 
Loop time of 0.61873 on 48 procs for 2000 steps with 4000 atoms

Performance: 558563.613 tau/day, 3232.428 timesteps/s
99.7% CPU use with 48 MPI tasks x no OpenMP threads

MPI task timing breakdown:
Section |  min time  |  avg time  |  max time  |%varavg| %total
---------------------------------------------------------------
Pair    | 0.27958    | 0.30161    | 0.32447    |   1.8 | 48.75
Neigh   | 0.040488   | 0.042549   | 0.045224   |   0.5 |  6.88
Comm    | 0.20055    | 0.226      | 0.24973    |   2.4 | 36.53
Output  | 5.1428e-05 | 5.2961e-05 | 7.5964e-05 |   0.0 |  0.01
Modify  | 0.03915    | 0.043819   | 0.04877    |   1.2 |  7.08
Other   |            | 0.004701   |            |       |  0.76

Nlocal:        83.3333 ave          92 max          77 min
Histogram: 3 2 8 5 13 8 7 1 0 1
Nghost:        1986.10 ave        2007 max        1953 min
Histogram: 1 0 3 3 5 11 5 12 3 5
Neighs:        12685.0 ave       14518 max       10799 min
Histogram: 1 0 9 1 13 10 7 3 2 2

Total # of neighbors = 608879
Ave neighs/atom = 152.21975
Neighbor list builds = 144
Dangerous builds = 12

#############################
# L I N E A R  Q U E N C H  #
#############################

# Define solid atoms. This closely follows ten Wolde  Ruiz-Montero and Frenkel  Faraday Discuss  1996  104  93-110
# Compute components of the per-atom q6 vector
compute q6 all orientorder/atom degrees 1 6 components 6 nnn NULL cutoff 1.3 # compute the Q6 parameter.
                                                                             # Use all neighbours within 1.3 unit cell.

# get number of connections
compute coord_number all coord/atom orientorder q6 0.5

# An atom is solid if it has 8 or more connections (of a possible 14)
variable is_solid atom c_coord_number>=8
group solid dynamic all var is_solid    # Must be dynamic to update
dynamic group solid defined

# do clustering
compute cluster solid cluster/atom 1.3 # Create a cluster where all atoms within are solid and max 1.3 units from another member

# define chunks one chunk per cluster
compute clus_chunks solid chunk/atom c_cluster nchunk every compress yes  # Says which atoms are in which chunk

# count the size of each chunk
compute size_chunks solid property/chunk clus_chunks count


# Find the maximum entry in the vector of chunk sizes
variable max_n equal max(c_size_chunks)


# Thermo style which includes this variable
# thermo_style custom step temp pe vol v_max_n

thermo ${N}  # Print the thermo information every 100 steps
thermo 1000  

# Reset the npt fix at a lower temperature (below freezing)
fix 1  all npt temp  ${temp} ${temp}  0.1  iso  5.68  5.68  0.5  mtk yes tchain  5  pchain  5
fix 1  all npt temp  0.45 ${temp}  0.1  iso  5.68  5.68  0.5  mtk yes tchain  5  pchain  5
fix 1  all npt temp  0.45 0.45  0.1  iso  5.68  5.68  0.5  mtk yes tchain  5  pchain  5

dump dmp2 all dcd ${N} traj.dcd
dump dmp2 all dcd 1000 traj.dcd


compute msd all msd com yes
variable twopoint equal c_msd[4]/6/(step*dt+1.0e-6)
fix 9 all vector 10 c_msd[4]
variable fit equal slope(f_9)/6/(10*dt)
thermo_style custom step temp pe c_msd[4] v_twopoint v_fit v_max_n

fix 1 all npt temp 1.25 ${temp} 0.1 iso 5.68 5.68 0.5 mtk yes tchain 5 pchain 5
fix 1 all npt temp 1.25 0.45 0.1 iso 5.68 5.68 0.5 mtk yes tchain 5 pchain 5
run 5000000 # 5000000  # Run for this many steps
Neighbor list info ...
  update every 1 steps, delay 10 steps, check yes
  max neighbors/atom: 2000, page size: 100000
  master list distance cutoff = 3.8
  ghost atom cutoff = 3.8
  binsize = 1.9, bins = 8 8 8
  4 neighbor lists, perpetual/occasional/extra = 1 3 0
  (1) pair lj/cut, perpetual
      attributes: half, newton on
      pair build: half/bin/atomonly/newton
      stencil: half/bin/3d
      bin: standard
  (2) compute orientorder/atom, occasional
      attributes: full, newton on
      pair build: full/bin/atomonly
      stencil: full/bin/3d
      bin: standard
  (3) compute coord/atom, occasional
      attributes: full, newton on
      pair build: full/bin/atomonly
      stencil: full/bin/3d
      bin: standard
  (4) compute cluster/atom, occasional
      attributes: full, newton on
      pair build: full/bin/atomonly
      stencil: full/bin/3d
      bin: standard
Per MPI rank memory allocation (min/avg/max) = 9.829 | 9.834 | 9.839 Mbytes
Step Temp PotEng c_msd[4] v_twopoint v_fit v_max_n 
   12000    1.2666866   -3.9097336 3.2374852e-30 2.2482535e-32 8.3333333e+20            2 
   13000    1.2722265   -3.9072468   0.91133319 0.0058418792  0.077723995            4 
   14000    1.2257247   -3.9316752    1.8825558  0.011205689  0.080011793            1 
   15000    1.2697065   -3.8989566    2.8736928   0.01596496    0.0800887            4 
   16000    1.2616814   -3.9167367      3.88819  0.020250989  0.081352798            2 
   17000     1.252534   -3.9235815    4.9292027  0.024162758  0.082791591            1 
   18000    1.2810246   -3.9510942    5.9607271  0.027595958  0.083564771            1 
   19000     1.231896   -3.9191227    6.9469963  0.030469281  0.083851961            2 
   20000    1.2351587   -3.9234129    7.8692281   0.03278845  0.083766219            2 
   21000    1.2777444    -3.897991    8.8213131   0.03500521  0.083279021            3 
   22000    1.2521857   -3.8915778    9.7495528  0.036930124   0.08282547            1 
   23000     1.234039    -3.911198    10.677839  0.038687823  0.082403539            1 
   24000    1.2627966   -3.9013169     11.61613  0.040333785  0.081887406            1 
   25000    1.2265976   -3.9045082     12.45303  0.041510099  0.081286008            1 
   26000    1.2440266   -3.9415654    13.475739  0.043191471  0.080776164            2 
   27000    1.2502952   -3.8944359    14.486502  0.044711426   0.08058427            2 
   28000    1.2216181   -3.9305939    15.437512  0.045944976  0.080401107            5 
   29000    1.2526143   -3.9245946    16.316903  0.046887652  0.080235202            1 
   30000    1.2159079   -3.8955472    17.381792  0.048282755  0.080087357            3 
   31000    1.2464386   -3.9310691    18.230509  0.049006745  0.079941107            1 
   32000    1.2788249   -3.9149678    19.185887  0.049963247  0.079830726            1 
   33000    1.2720815   -3.9108132    20.079963  0.050706977  0.079828437            1 
   34000    1.2322142   -3.9006891    20.994758   0.05145774  0.079761873            2 
   35000    1.2622712   -3.9167085    21.817906  0.051947394  0.079524855            2 
   36000     1.221846   -3.9055376    22.861292  0.052919657  0.079313027            2 
   37000    1.2276507   -3.8892048    23.869208  0.053759478  0.079223017            2 
   38000    1.2487163   -3.8866441    24.837329  0.054467827  0.079161049            2 
   39000      1.23967   -3.9288793    25.798166  0.055124286  0.079101999            2 
   40000    1.2247441   -3.9356117    26.514045  0.055237593  0.079018559            2 
   41000    1.2405694   -3.9289284    27.445306  0.055783141   0.07890385            1 
   42000    1.2438151   -3.9383121     28.30756  0.056165793   0.07882591            4 
   43000    1.2458634   -3.9450863    29.383679  0.056945113  0.078692161            2 
   44000    1.2588634   -3.9360344    30.376935  0.057532073  0.078629494            3 
   45000    1.2437455   -3.9117464    31.224099  0.057822406  0.078585027            2 
   46000     1.226461   -3.9443701    32.451624  0.058789173  0.078549438            2 
   47000    1.2532164   -3.9148882    33.185065  0.058838767  0.078584774            4 
   48000     1.238878   -3.8862831    34.434195  0.059781588  0.078619972            2 
   49000    1.2626679    -3.902507    35.528626  0.060422833   0.07872976            4 
   50000    1.2550428   -3.9305273    36.557508   0.06092918  0.078829425            2 
   51000    1.2483219   -3.9041972    37.364482  0.061053075  0.078930928            2 
   52000    1.2504232    -3.922201    38.542331  0.061766555  0.079020078            4 
   53000     1.240946   -3.9185932     39.48626  0.062085314  0.079129874            1 
   54000    1.2446256   -3.9293609    40.067465  0.061832508  0.079204403            3 
   55000    1.2212338   -3.9124969    41.024261   0.06215797  0.079228128            2 
   56000    1.2203203   -3.8826672    41.718003  0.062080362  0.079184769            3 
   57000    1.2373594   -3.9325182    42.790445  0.062559129  0.079131897            2 
   58000    1.2680169   -3.9149827    44.007829  0.063229639   0.07911253            2 
   59000    1.2219516   -3.9304897    45.003942  0.063564889  0.079126998            2 
   60000    1.2111066   -3.8990539    45.766275   0.06356427  0.079133832            3 
   61000    1.2127922   -3.9353532    46.580018  0.063633904  0.079103865            1 
   62000    1.2602561   -3.9325889    47.972746  0.064479497  0.079140208            3 
   63000    1.2664158   -3.9272325    48.920127  0.064709162  0.079174686            1 
   64000    1.2498052   -3.9444717      49.4146  0.064341926   0.07920315            1 
   65000    1.2286215   -3.9432162    50.574274  0.064838812  0.079205342            1 
   66000    1.2528634   -3.9496697    51.355325  0.064842581  0.079195474            2 
   67000    1.2489575   -3.9297931     52.39917  0.065173096  0.079187269            2 
   68000    1.2622647   -3.9281229    53.219541  0.065220026  0.079164918            1 
   69000    1.2429729   -3.9518472    53.980914   0.06519434  0.079138296            2 
   70000    1.2200769   -3.9259273    54.997447  0.065473151  0.079120959            5 
   71000    1.2525635   -3.9471519    55.887133  0.065595226  0.079090317            3 
   72000    1.2347869   -3.9174775    56.843322  0.065790881  0.079041377            2 
   73000    1.2168906   -3.9236177    57.519492   0.06566152  0.078987643            2 
   74000    1.2386632   -3.9578938    58.322673  0.065678685  0.078934776            1 
   75000    1.2339415   -3.9633656    59.321255  0.065912505  0.078868503            1 
   76000    1.2599694   -3.9422465    60.252219  0.066066029  0.078816905            3 
   77000     1.247543   -3.9590805     61.01269  0.066031049  0.078754037            3 
   78000    1.2340673   -3.9234454    61.765606  0.065988895  0.078678987            1 
   79000    1.2422188   -3.9251003     62.80057  0.066245326  0.078608562            1 
   80000    1.2372552   -3.9484152    63.697819  0.066351895  0.078528608            3 
   81000    1.2035485    -3.906275     64.80832  0.066675226  0.078467407            3 
   82000    1.2172709   -3.9306106    65.895473  0.066966943  0.078432455            3 
   83000    1.2245962   -3.9192474    66.676883  0.066944661   0.07837156            2 
   84000    1.1948462   -3.9434695    67.442588  0.066907329  0.078318765            3 
   85000    1.2217276   -3.9655667    68.658416  0.067312172  0.078293635            1 
   86000    1.2569843   -3.9093903    69.709837  0.067548291  0.078279388            1 
   87000    1.2164241   -3.9312132    70.649912  0.067672329  0.078266078            1 
   88000    1.2264528   -3.9156202    71.944535  0.068129294  0.078261378            5 
   89000     1.186381   -3.9275472    72.475685  0.067861128  0.078263647            2 
   90000    1.2488176   -3.9214052    73.562312  0.068113251  0.078263028            1 
   91000    1.2565265   -3.9619552    74.844813  0.068539206  0.078270633            3 
   92000    1.2185046   -3.9163233    76.011999  0.068851448  0.078299186            2 
   93000    1.2231071   -3.9196596    76.613772  0.068650333  0.078322824            1 
   94000    1.2394203    -3.942691    77.399567  0.068616637  0.078338006            2 
   95000    1.2259405   -3.9198119    78.407716  0.068778697  0.078335945            2 
   96000    1.2273597   -3.8991975    79.407722  0.068930313  0.078343145            1 
   97000    1.2411432   -3.9341177    79.760434  0.068522709  0.078327302            2 
   98000    1.2131964   -3.9744413    80.565564  0.068508132  0.078311566            2 
   99000    1.2553389   -3.9222478    81.732289  0.068798222  0.078285461            1 
  100000    1.2257515   -3.9198852    82.853446  0.069044538  0.078282708            2 
  101000    1.2325628   -3.9452914    83.638463  0.069008633  0.078269129            2 
  102000    1.2299796   -3.9261876     84.18859  0.068781528  0.078232767            2 
  103000     1.215025   -3.9017656    85.256201  0.068977509  0.078182656            1 
  104000    1.2666411   -3.9299628    85.993603  0.068905131  0.078129602            2 
  105000     1.246687   -3.9598341    87.153843  0.069169716  0.078093885            3 
  106000    1.2229082   -3.9721179     88.26681  0.069392146  0.078076782            1 
  107000    1.2123302   -3.9458822    89.034913  0.069341832  0.078057342            1 
  108000    1.2491068   -3.9311737    89.816103  0.069302549   0.07802562            4 
  109000    1.2507226   -3.9248857     90.31576  0.069048746  0.077999731            1 
  110000    1.2518843   -3.9501432    91.593729  0.069389188  0.077983373            1 
  111000    1.2491758   -3.9135589    92.989127  0.069811656  0.077977767            2 
  112000    1.2220337   -3.9524462    93.744607  0.069750452  0.077968023            2 
  113000    1.2187186   -3.9567831    95.131085  0.070155667  0.077975429            2 
  114000    1.2291088   -3.9059056    96.727373  0.070707143  0.077994416            2 
  115000    1.2135061   -3.9601841    97.312952  0.070516631  0.078025068            1 
  116000    1.2045009   -3.9504434    97.693463  0.070182085  0.078039996            1 
  117000    1.2281111    -3.935201    99.108924  0.070590402  0.078048332            2 
  118000    1.2085284   -3.9063973    99.918056  0.070563599  0.078046499            3 
  119000    1.2337649   -3.9583231    100.08114  0.070084829  0.078031725            3 
  120000    1.1987652   -3.9587774    101.45987  0.070458244  0.078022318            1 
  121000    1.2464986    -3.928544     102.3417  0.070483267  0.078015911            2 
  122000    1.2265823   -3.9421811    102.81167   0.07022655  0.077995924            2 
  123000     1.239271    -3.927168    104.06322  0.070503535  0.077987837            2 
  124000    1.2312577   -3.9476517    104.75109  0.070397236  0.077976076            1 
  125000    1.2072315   -3.9384614    105.78642  0.070524279  0.077968633            1 
  126000    1.2350043   -3.9506802    107.37975  0.071018351  0.077972915            1 
  127000    1.2326532   -3.9211872    108.25096  0.071030815   0.07797464            2 
  128000    1.2273248   -3.9589648    108.79914  0.070832771   0.07797413            2 
  129000    1.2440782   -3.9404314    109.43075  0.070691701   0.07797926            2 
  130000     1.231429      -3.9589    111.14224  0.071245028  0.077981471            4 
  131000    1.2092149   -3.9427087    112.06203  0.071286276  0.077991144            1 
  132000    1.2215697   -3.9635857    112.97311  0.071321411  0.077998019            2 
  133000    1.2568244   -3.9641477    113.92828  0.071383635  0.078004929            3 
  134000    1.2399908   -3.9322437     114.7492  0.071361444  0.078010247            1 
  135000     1.194032   -3.9678124    116.07602  0.071651864  0.078017672            4 
  136000    1.2016664   -3.9148636    117.61288  0.072066714   0.07803242            1 
  137000    1.2409955   -3.9475755    118.35263  0.071990654   0.07804765            3 
  138000    1.2715257   -3.9462208     119.2501  0.072010927  0.078068896            1 
  139000    1.2201929   -3.9526102    120.19075  0.072056803  0.078083985            1 
  140000    1.2036524   -3.9506205    121.04582  0.072051085  0.078104949            3 
  141000    1.2027895   -3.9538296    121.82184  0.071998722  0.078119702            1 
  142000     1.220925   -3.9750071    122.80796    0.0720704  0.078136875            2 
  143000    1.2153147   -3.9224365    123.70744  0.072090584  0.078158642            2 
  144000    1.2549941   -3.9632396    124.64091  0.072130156  0.078173001            4 
  145000    1.2278578   -3.9046965    125.27618  0.071997802  0.078178031            1 
  146000    1.2196388   -3.9559854    126.24393   0.07205704   0.07818065            2 
  147000    1.2062415   -3.9251535    127.44527  0.072247882  0.078187383            2 
  148000    1.2249804   -3.9398828    128.08135  0.072117876  0.078196119            5 
  149000    1.2386839   -3.9463611    129.15637  0.072235105  0.078209045            1 
  150000    1.2267696   -3.9461161    129.53169   0.07196205  0.078219982            2 
  151000    1.2149061   -3.9725245     130.0305  0.071760761  0.078213146            2 
  152000    1.2351938   -3.9281918     131.7162   0.07221283    0.0782036            1 
  153000    1.2396442   -3.9588347    131.94425  0.071865059  0.078188555            2 
  154000    1.2149419   -3.9541127    132.76114  0.071840444  0.078174612            2 
  155000    1.2172286   -3.9625845    133.21884  0.071623031  0.078149775            3 
  156000    1.2295264   -4.0105178    134.05204  0.071608997  0.078125243            2 
  157000    1.2425607   -3.9886094    134.67351  0.071482752  0.078096434            1 
  158000    1.2178332   -3.9434311    136.03203  0.071746849  0.078073647            1 
  159000     1.208727   -3.9387813    137.01259  0.071809534  0.078050622            2 
  160000    1.2310976   -3.9732018    137.93156  0.071839352  0.078025136            3 
  161000    1.2417953   -3.9451048    139.77868  0.072349212  0.078006097            1 
  162000    1.2306444   -3.9530855    140.35745  0.072200334  0.077988568            1 
  163000    1.2219006   -3.9329636    141.48556  0.072334133  0.077975663            4 
  164000    1.2123756      -3.9484    142.08525  0.072197792  0.077963865            4 
  165000    1.2127505   -3.9492613    142.90328  0.072173374  0.077961335            1 
  166000    1.2089502   -3.9626767    144.39191  0.072485899   0.07794789            2 
  167000    1.2263451   -3.9361793    145.67344  0.072691335  0.077947187            6 
  168000    1.2305981   -3.9627408    146.64384      0.07274  0.077944305            4 
  169000    1.2636078   -3.9642997    146.71961  0.072346946  0.077942344            2 
  170000    1.2295279   -3.9481875    148.28778  0.072690087  0.077939454            2 
  171000    1.2251516   -3.9430455    149.22272  0.072720626  0.077937818            1 
  172000    1.2060071   -3.9380315     149.9076  0.072629651  0.077938316            1 
  173000    1.2073201   -3.9444697    150.65456  0.072569635  0.077932718            1 
  174000    1.2395341   -3.9335196     152.2403   0.07291202  0.077930562            1 
  175000    1.2167065   -3.9402032    152.69003  0.072709538  0.077930432            2 
  176000    1.2553597   -3.9837829    153.74105  0.072794056  0.077929337            1 
  177000    1.1941932   -3.9357678    154.34572  0.072667475  0.077925617            1 
  178000    1.2314391   -3.9632874     154.9143  0.072525422  0.077913415            2 
  179000    1.2287476   -3.9852163    155.70515  0.072488433  0.077904474            3 
  180000    1.2402334    -3.936187    157.40159  0.072871106  0.077897936            2 
  181000    1.2301283   -3.9510949    158.70867   0.07307029  0.077895893            1 
  182000    1.2368283   -3.9455064     159.7271   0.07313512  0.077894003            4 
  183000    1.2347553   -3.9532798    160.49413  0.073084757  0.077893795            1 
  184000    1.2269108   -3.9524817    161.31915  0.073061208  0.077893919            3 
  185000    1.2059248   -3.9565016    162.70196   0.07328917  0.077896016            2 
  186000    1.2162085   -3.9644765    163.39047  0.073203614   0.07790655            1 
  187000    1.2357262   -3.9729643    165.19197   0.07361496  0.077908474            2 
  188000    1.2122712   -3.9682279    164.61513  0.072967699  0.077914593            2 
  189000    1.2315924   -3.9524693    166.56565  0.073441642  0.077918807            3 
  190000    1.2106007   -3.9447326    167.83065  0.073609933  0.077925559            3 
  191000    1.2199897   -3.9932442    167.38474  0.073029992  0.077932328            1 
  192000    1.2416952   -3.9872527     168.9772  0.073340799  0.077936532            1 
  193000    1.2317418   -3.9280083    170.68291  0.073697282  0.077942505            1 
  194000    1.2376118   -3.9289131    171.00987   0.07345785  0.077946854            2 
  195000    1.2246445   -3.9647889    171.81732  0.073426206  0.077946423            3 
  196000    1.2276768   -3.9349188    173.03984  0.073571361  0.077947039            2 
  197000    1.2219678   -3.9759511    173.88387  0.073554935  0.077943889            3 
  198000    1.2400561   -3.9717842    174.56541   0.07347029  0.077947336            2 
  199000    1.2627993   -3.9115742    175.88256  0.073652663  0.077946328            1 
  200000    1.2184027   -3.9840284     176.3892  0.073495499  0.077942397            5 
  201000    1.2045566   -3.9597081    177.16185  0.073450188  0.077932454            1 
  202000    1.2174569   -3.9490083    177.89863  0.073390524  0.077926474            3 
  203000    1.1950606   -3.9755811    178.32857  0.073205489  0.077918639            2 
  204000    1.2090999    -3.959629    179.31079   0.07324787   0.07790187            3 
  205000    1.2165829   -3.9629229    179.23801  0.072860981  0.077887169            2 
  206000     1.231399   -3.9841101     180.3435  0.072954489  0.077867302            2 
  207000    1.2172598   -3.9897029     181.4958  0.073065942  0.077847262            3 
  208000    1.1902759   -3.9553224    182.86828  0.073264533  0.077830534            1 
  209000    1.2281399   -3.9739237     183.7707  0.073273804   0.07781263            2 
  210000    1.2136839   -3.9372887    184.70834  0.073296959  0.077802932            1 
  211000     1.238572   -3.9722541    185.27528  0.073173492  0.077791507            2 
  212000    1.2124639   -3.9838915    186.14587  0.073170546  0.077783848            3 
  213000    1.2277287   -3.9421665    187.47517  0.073347094  0.077776199            2 
  214000    1.2155763   -4.0061717    188.59906  0.073442003   0.07777101            2 
  215000    1.2361828   -3.9576138    189.35187  0.073392198  0.077764652            3 
  216000    1.1946245   -3.9591521    190.86917  0.073637797  0.077764345            2 
  217000      1.21023   -3.9548037    191.74843  0.073636111  0.077761107            2 
  218000    1.2457637   -3.9456407    193.93659  0.074134782  0.077763803            3 
  219000    1.1977863    -4.003334    193.58781   0.07366355  0.077768455            2 
  220000    1.1969752   -3.9516507    195.15753  0.073923305   0.07777469            2 
  221000    1.2258008   -3.9623147    196.91836  0.074252774  0.077785625            3 
  222000    1.2021468   -3.9775558    196.86672  0.073898919  0.077791663            1 
  223000    1.2345203   -3.9189994    198.33307  0.074115499   0.07779326            4 
  224000    1.2354401   -3.9979372    198.67774  0.073912851  0.077792699            4 
  225000    1.2305271   -3.9949321    199.48541  0.073883484  0.077792542            2 
  226000    1.2360303   -3.9992277    200.14835  0.073801012  0.077793853            2 
  227000    1.2307261   -3.9806202    202.51139  0.074343389  0.077798118            1 
  228000    1.2090637   -3.9737648    202.98015   0.07418865  0.077807141            1 
  229000    1.2172925   -3.9805879    204.05324  0.074255183  0.077813727            2 
  230000    1.2147796   -3.9558789    205.56386   0.07447966  0.077821866            2 
  231000    1.2166574   -3.9541343    206.77954  0.074595795  0.077830197            1 
  232000    1.2250073   -3.9614658    206.83402   0.07429383  0.077842026            1 
  233000    1.2092464   -3.9571861    209.36807  0.074881283  0.077857732            2 
  234000    1.2329237   -3.9958615    209.83328  0.074726951  0.077872312            4 
  235000    1.2046592   -3.9479791    211.09112  0.074855006  0.077894203            3 
  236000    1.2071749   -3.9683364    211.79702  0.074787085  0.077913317            2 
  237000    1.1918403   -3.9540213    212.81792  0.074830493  0.077932317            2 
  238000    1.2302924    -3.941332    213.78812  0.074855782   0.07795105            5 
  239000    1.2016414   -3.9504347    214.51155  0.074794821  0.077968856            1 
  240000    1.2030476   -3.9421108    214.65343  0.074532442   0.07798107            2 
  241000    1.2159561    -3.953217    216.20048  0.074758119  0.077991167            1 
  242000    1.2094907    -4.011955    216.82172  0.074663127  0.078000186            3 
  243000     1.195234   -3.9596564    217.57908  0.074615596  0.078006609            4 
  244000    1.2096126   -3.9722769     218.9274  0.074770288  0.078009314            1 
  245000    1.2122371   -3.9608158    218.23865  0.074230833  0.078011513            2 
  246000    1.2193388   -3.9590887    219.42788  0.074331938  0.078012246            3 
  247000    1.2255541   -4.0029691     220.5961  0.074425134  0.078012814            2 
  248000     1.218717   -3.9615093    221.47601  0.074420701  0.078014219            1 
  249000    1.2089797   -3.9719681    221.86418  0.074251734  0.078015232            3 
  250000    1.2281939   -3.9669488    222.85188  0.074283958  0.078017024            4 
  251000    1.2053661   -3.9861198      224.202  0.074436256  0.078017632            1 
  252000     1.203035   -3.9605705    225.35338   0.07452162  0.078016844            2 
  253000     1.201288   -4.0095617     224.8465   0.07406011  0.078014294            4 
  254000    1.2089603   -3.9853222    226.01617  0.074152288  0.078011866            1 
  255000    1.1966679   -3.9975247    227.68431  0.074406637  0.078012796            3 
  256000    1.1974716   -4.0060697    229.15206  0.074593768  0.078011791            5 
  257000    1.2143773   -3.9688794    229.89372  0.074544007  0.078013159            2 
  258000    1.2225283   -3.9813371    231.71538  0.074843468  0.078014254            3 
  259000    1.1888348   -3.9241054    231.74211  0.074563097  0.078011995            4 
  260000    1.2333095    -3.960518    232.69397  0.074581401  0.078007876            2 
  261000    1.1988423   -3.9747909    232.45168  0.074218289  0.078004341            2 
  262000    1.2284649   -3.9970423    232.42928  0.073927887   0.07799701            2 
  263000    1.2329349    -3.954362    234.93938  0.074442136  0.077989673            3 
  264000    1.1985271   -3.9897898    235.98666   0.07449074  0.077986003            7 
  265000    1.2174886   -3.9770247    236.49892   0.07437073  0.077980694            2 
  266000    1.2036234   -3.9975067    237.30052  0.074342269  0.077973268            2 
  267000     1.207027   -3.9811649    238.63613   0.07448069  0.077966915            3 
  268000    1.2159463    -3.970306    238.47053  0.074151283  0.077960317            2 
  269000    1.2134342   -3.9634272    239.46846  0.074184777  0.077956065            1 
  270000    1.2106786   -3.9604159    242.35274  0.074800229  0.077949889            5 
  271000    1.2190395   -3.9511426    241.97052  0.074406678  0.077942627            4 
  272000    1.2086434   -3.9894805    242.42303  0.074271763  0.077935873            4 
  273000    1.2042957   -3.9726805    243.68518  0.074384976  0.077926121            2 
  274000    1.2057588   -3.9525334    245.60373  0.074696999   0.07791909            2 
  275000    1.2153069   -3.9900736    247.00676  0.074850535  0.077913615            2 
  276000    1.1951303   -3.9745522    246.00863  0.074277969  0.077905264            1 
  277000     1.179096   -3.9656767     247.1089  0.074340823  0.077896616            3 
  278000      1.19423    -4.013011    246.45795  0.073878281  0.077887579            3 
  279000    1.2136113   -3.9612229    248.66643  0.074273127  0.077874907            5 
  280000    1.1926571   -3.9919115    248.44871  0.073943069  0.077861969            3 
  281000    1.2186186    -4.003888    250.25464  0.074215493  0.077845371            2 
  282000    1.2429634   -3.9888053    250.94934  0.074157605  0.077832458            2 
  283000    1.1970589   -3.9609461    251.44374  0.074041149  0.077817917            2 
  284000    1.2139752   -3.9652518    252.95525  0.074223958  0.077799894            2 
  285000    1.2047392   -3.9923076    252.07283  0.073705504   0.07778192            2 
  286000    1.2298305   -3.9941958    253.35889   0.07382252  0.077764231            1 
  287000    1.1847363   -3.9508607    254.28517  0.073834254  0.077745692            1 
  288000    1.2054341   -3.9526181    255.57054  0.073949808   0.07772547            2 
  289000    1.1797083   -3.9803853    256.17643  0.073868635  0.077706794            1 
  290000    1.2080961   -3.9950609    257.05359  0.073865973  0.077688508            5 
  291000    1.2231238   -3.9832651    257.95196  0.073869403  0.077672392            3 
  292000    1.2087493   -4.0012982    258.57605  0.073794535  0.077654405            1 
  293000    1.2133124   -3.9772791    260.43266  0.074070721   0.07763704            2 
  294000    1.2208905   -4.0156673    260.73459  0.073904362  0.077618533            2 
  295000    1.1920579   -4.0039019    260.47952  0.073581786  0.077596136            3 
  296000    1.2000591   -3.9772808    261.75977  0.073693629  0.077572212            2 
  297000    1.2120043   -3.9950727    262.73388  0.073718822  0.077551326            2 
  298000    1.2458157   -3.9939553    262.52187  0.073412155  0.077529238            5 
  299000    1.2001706   -4.0019583    263.03388  0.073309332  0.077507724            2 
  300000    1.2002654   -3.9559147    266.27776  0.073966043   0.07748552            1 
  301000    1.2138242   -3.9523239    266.94164   0.07390411  0.077466516            2 
  302000    1.1877544   -4.0067434    267.44374  0.073797941  0.077446729            2 
  303000    1.2125501   -4.0011934    268.32988  0.073798097  0.077427413            3 
  304000    1.2132799   -3.9820688    269.55042  0.073889918   0.07741075            2 
  305000     1.207316   -3.9910755    270.06776  0.073789006  0.077390593            1 
  306000    1.1819973   -3.9809489     271.4333  0.073919743  0.077373678            3 
  307000     1.224662   -3.9554647    271.82785  0.073786061   0.07735767            2 
  308000    1.1923152   -3.9688147     273.4118  0.073975055  0.077339234            2 
  309000    1.2057208   -3.9596927    274.70272  0.074083797  0.077322802            2 
  310000    1.2110009   -3.9815532    275.23731  0.073988525  0.077306524            2 
  311000    1.2139891   -3.9521221    275.08592  0.073710053  0.077288682            1 
  312000    1.1932913   -3.9725349    275.76842  0.073656096  0.077268103            7 
  313000    1.1850647   -3.9851922    276.84161  0.073706499  0.077246767            3 
  314000    1.2289618   -3.9641509    275.99769  0.073247793   0.07722464            1 
  315000    1.1795947   -3.9761951    278.79599  0.073755553  0.077198805            4 
  316000    1.2049821   -3.9708369    277.65798  0.073222042  0.077175422            2 
  317000     1.200005   -4.0064539    278.48688  0.073208959  0.077149491            2 
  318000    1.1848095   -3.9832703    280.61661  0.073536847  0.077124562            2 
  319000    1.2084821   -3.9882896    280.40865  0.073251998  0.077100308            3 
  320000    1.1997162   -3.9729134    282.50489  0.073568983  0.077076594            1 
  321000     1.211836   -3.9620133    282.50378  0.073339507  0.077050905            2 
  322000    1.1979208   -3.9987232    283.75905  0.073436606  0.077025839            2 
  323000    1.1891775    -4.016255    284.31623     0.073353  0.076999517            2 
  324000    1.2032829   -3.9939976    285.15476  0.073342274  0.076973626            1 
  325000    1.1908317   -4.0056122    285.85533  0.073296237  0.076950185            1 
  326000    1.1677518   -4.0078416    287.57532  0.073511073  0.076926333            2 
  327000    1.2071033   -3.9909824    287.64659  0.073304431  0.076902237            3 
  328000     1.201857   -3.9888469     289.3206   0.07350625  0.076880156            2 
  329000    1.1747502   -4.0115683    289.49137  0.073326082   0.07685907            2 
  330000    1.2001134    -3.976223    290.96404  0.073475769  0.076836962            2 
  331000    1.1970888   -4.0186727    291.36016  0.073353513  0.076817183            3 
  332000    1.2017737   -4.0341675    292.35311  0.073381805   0.07679944            1 
  333000    1.1997168   -3.9953939    294.03265  0.073581745  0.076781516            2 
  334000     1.192932   -3.9571787    295.66485  0.073768674   0.07676431            3 
  335000    1.1797022   -3.9941915    294.81891  0.073338036  0.076745541            2 
  336000    1.1748866   -3.9410304    297.02152  0.073666051  0.076725932            2 
  337000    1.2106998   -4.0489554    294.66477  0.072864682  0.076704834            2 
  338000    1.1968243   -3.9886715    298.36563  0.073561546  0.076684238            1 
  339000    1.2118769   -4.0161728    296.23534  0.072820879  0.076665414            1 
  340000    1.1802189   -4.0114411    298.84085  0.073245306  0.076643899            4 
  341000     1.176324   -4.0043584    300.79067  0.073507006  0.076623132            2 
  342000    1.2028397   -4.0136475    300.06574  0.073115435  0.076605304            1 
  343000    1.1755797    -4.007887    301.78615   0.07332025  0.076584836            2 
  344000    1.1825541   -4.0035254     302.9416  0.073387015  0.076567126            3 
  345000    1.2271281   -3.9805557    305.15209  0.073708235  0.076552745            2 
  346000    1.1966298   -3.9792453    306.30946  0.073773954  0.076540818            1 
  347000    1.1838469   -4.0111022    307.19718  0.073774538  0.076526504            3 
  348000    1.1995746   -3.9752434    307.14813  0.073550798  0.076511312            5 
  349000    1.1764774   -4.0000022    308.40287  0.073639655  0.076494118            2 
  350000    1.1915548    -3.976416    309.07469  0.073589213   0.07647932            2 
  351000    1.1972352   -3.9928867      310.006  0.073600666  0.076464547            7 
  352000    1.2141659    -3.983368    311.62115  0.073773947  0.076450686            3 
  353000    1.2185453   -3.9769956     311.6377  0.073568861  0.076435519            1 
  354000    1.1973219   -4.0020801    312.38212  0.073536281  0.076420388            1 
  355000    1.1911781   -3.9743729    313.90504  0.073686629   0.07640223            1 
  356000    1.1609411   -4.0019153    312.73733  0.073206305   0.07638211            4 
  357000     1.182335   -3.9748744    314.16034  0.073333412  0.076363382            2 
  358000    1.1974844   -4.0057893    316.18469  0.073599788  0.076346284            1 
  359000    1.1966883   -3.9774291    317.20404  0.073631393  0.076330844            2 
  360000    1.1921577   -3.9803396    317.52343  0.073500795   0.07631561            3 
  361000    1.1666277   -4.0233117    318.07094  0.073423578       0.0763            2 
  362000    1.2033339   -3.9880426     320.1723  0.073704489  0.076283354            2 
  363000     1.204118   -4.0176781    319.53675  0.073355543  0.076268873            3 
  364000    1.2146771   -4.0302162    319.97972  0.073255431  0.076254363            4 
  365000    1.1884776   -4.0143396    322.01171  0.073518656  0.076241081            2 
  366000    1.1707936   -3.9982693    322.79416  0.073495937  0.076227547            3 
  367000    1.2061018   -3.9985638    324.81675  0.073754939  0.076215599            2 
  368000     1.166025   -3.9760459    326.50251  0.073936256  0.076204374            2 
  369000    1.1814615   -4.0088998     325.3177  0.073468314  0.076192954            2 
  370000    1.1983394   -4.0383529     324.7259  0.073136463  0.076178176            2 
  371000    1.1885575    -3.983507    327.93563  0.073660294  0.076164993            3 
  372000     1.191451   -3.9685532    328.32222  0.073548884  0.076154761            1 
  373000    1.1975798   -4.0023581     328.9971  0.073502479  0.076142373            1 
  374000    1.1601618   -3.9715749    331.25442  0.073808917  0.076131041            4 
  375000    1.1846955   -4.0535364    331.35359  0.073634131  0.076119094            2 
  376000    1.1892179   -4.0045401    330.59048  0.073269167   0.07610426            2 
  377000    1.1908215   -4.0488099    330.72954  0.073105557  0.076088282            3 
  378000    1.1959069   -4.0202971    332.40118  0.073280683  0.076072322            2 
  379000    1.1871322   -3.9792247    332.65169  0.073142411  0.076056744            1 
  380000    1.1788113   -3.9981826    334.59162  0.073375354  0.076039665            5 
  381000     1.220096   -4.0023091    336.59772  0.073621548   0.07602235            2 
  382000    1.1874788   -4.0254431    335.05581  0.073092454  0.076005952            4 
  383000      1.19988   -4.0158931    337.31518  0.073393207  0.075990578            1 
  384000    1.1845611   -4.0126931    337.34454   0.07320845  0.075973286            1 
  385000    1.1781364    -3.968279    338.06473  0.073174185  0.075954019            1 
  386000    1.1880815   -4.0123627    337.14422  0.072785885  0.075934916            6 
  387000    1.2069647   -4.0296414    338.29669  0.072845971  0.075914685            2 
  388000    1.1775129   -4.0007828    338.61333   0.07272623  0.075894597            2 
  389000    1.2242869    -4.005516    339.42062  0.072712216  0.075872055            1 
  390000    1.1822188   -3.9977486    340.58819  0.072775255  0.075851241            2 
  391000    1.1788032   -3.9938334    341.60142  0.072805077  0.075829727            2 
  392000    1.2097383   -4.0028193    343.12282  0.072942776  0.075809198            1 
  393000    1.1914466   -4.0210298    342.92136  0.072714452  0.075790751            2 
  394000    1.1795526   -4.0261448    344.01107  0.072760379  0.075773089            3 
  395000    1.1900228   -4.0088942     346.4246  0.073085359  0.075754395            2 
  396000     1.170173   -4.0251636    346.35673  0.072886517  0.075735874            3 
  397000    1.1995848   -3.9943482    348.91007   0.07323889  0.075717789            2 
  398000    1.1950235   -4.0236136    348.10502  0.072886311  0.075698557            1 
  399000    1.2215964   -4.0449068    346.96381  0.072465291  0.075677492            2 
  400000    1.1821553   -3.9882934    350.29755  0.072978657  0.075659299            2 
  401000    1.1854011   -4.0008973    350.23995  0.072784694  0.075642576            2 
  402000    1.1614328   -3.9960724    353.79977  0.073341577  0.075625785            2 
  403000    1.1759331   -3.9910895    354.70169   0.07334609  0.075609326            1 
  404000    1.2225133   -4.0218535    352.41132  0.072692103  0.075593027            2 
  405000    1.2078423   -4.0069491    353.97688  0.072834749  0.075577744            2 
  406000    1.1772665   -3.9737148    356.14144  0.073099639  0.075563391            8 
  407000     1.167239   -4.0163386    357.06763  0.073109671  0.075548719            2 
  408000    1.1736815   -4.0255923    359.33943  0.073394491   0.07553459            1 
  409000    1.1932152   -4.0117086    358.22884   0.07298876  0.075518913            1 
  410000    1.1679437   -4.0044803    360.48412   0.07326913   0.07550375            1 
  411000    1.1823886   -4.0240337    361.28216  0.073252668  0.075488041            1 
  412000    1.2004915   -4.0005765    361.92721  0.073205342  0.075474495            2 
  413000    1.1735941   -4.0374807    361.23333  0.072888082  0.075459567            2 
  414000    1.1822981   -4.0321402    362.05006  0.072876422  0.075441393            2 
  415000    1.1709602   -4.0424319    362.76341  0.072844057  0.075421787            2 
  416000    1.1795045   -3.9968031    364.98623  0.073114228  0.075403289            2 
  417000    1.1820589   -4.0165288    363.71503  0.072684857  0.075384193            2 
  418000    1.1924725   -4.0019506    363.96341  0.072560489  0.075366364            2 
  419000    1.1848807   -3.9592567    366.19696  0.072831535  0.075348667            1 
  420000    1.1821633   -3.9871314    366.26241  0.072671112   0.07532946            3 
  421000    1.1842165   -3.9811055    367.87459  0.072817615  0.075311787            3 
  422000    1.2123398   -4.0247615    367.33252  0.072538018  0.075292615            2 
  423000    1.1710432   -4.0249979    367.02673  0.072306291  0.075273579            3 
  424000    1.1913603   -4.0086305    370.52419   0.07282315  0.075254555            3 
  425000    1.1749865   -4.0178424    371.03355  0.072751675  0.075237099            2 
  426000    1.1922357   -4.0481699    371.69072  0.072709452  0.075218521            2 
  427000     1.179201   -4.0426666     371.0437  0.072412901  0.075200455            2 
  428000    1.1869103   -4.0514072    371.67604  0.072366829  0.075181922            2 
  429000    1.1794678   -4.0398011    374.31987  0.072711707  0.075165774            4 
  430000    1.1656352   -4.0186229    375.60981  0.072792599  0.075150725            1 
  431000    1.1830988   -4.0216371    376.20618  0.072739015  0.075135452            2 
  432000    1.1608642   -3.9824319    379.46455  0.073199179   0.07512195            5 
  433000    1.1698904   -4.0371872    378.20109  0.072786969  0.075107765            2 
  434000    1.1672213   -4.0421993    378.55228  0.072686689  0.075092139            2 
  435000    1.2082337   -3.9891084    380.78677  0.072947657  0.075077909            2 
  436000     1.184961   -4.0236545    380.98831  0.072818867  0.075063178            2 
  437000    1.1908122   -4.0033911    382.65434  0.072969935  0.075048868            2 
  438000     1.170067   -4.0117868    384.76071  0.073204092  0.075035154            2 
  439000    1.1886715   -3.9822681    384.28573  0.072947177  0.075022385            2 
  440000    1.1981367   -4.0164896      383.791   0.07268769  0.075009337            1 
  441000    1.1810336   -4.0211433    385.46082  0.072838401  0.074995245            4 
  442000    1.1684259   -4.0675744    385.73609  0.072725506  0.074980161            1 
  443000    1.1681628    -4.026255    386.88519    0.0727775   0.07496573            2 
  444000    1.1710604   -4.0248095    388.60843  0.072937018  0.074950018            3 
  445000    1.1869699   -4.0248133    389.39056   0.07291958  0.074933936            2 
  446000    1.1680429   -4.0159427    389.59305  0.072793918  0.074918242            1 
  447000    1.1608711   -4.0216612    390.02541  0.072711671  0.074903575            3 
  448000    1.1818459   -4.0002477     389.1222  0.072381361  0.074889939            1 
  449000    1.1735712   -4.0451907    390.51099  0.072477913  0.074874306            3 
  450000    1.1862011   -4.0129351    391.51437  0.072502662   0.07485758            2 
  451000    1.1820699   -3.9800181    392.49097  0.072522352  0.074842512            2 
  452000    1.1961222   -4.0343218    393.51487  0.072550677  0.074827273            2 
  453000    1.1663303   -4.0464839    395.41264  0.072739633   0.07481178            2 
  454000    1.1722488   -4.0136041    396.52075  0.072782809  0.074797963            3 
  455000    1.1938543   -4.0608766    396.15939  0.072556665  0.074784638            2 
  456000    1.1705021   -4.0225578    399.14156  0.072942537  0.074769673            2 
  457000    1.1729579   -3.9938683    398.27403  0.072624731  0.074755153            3 
  458000    1.1954811   -4.0491204    399.16233   0.07262779  0.074739274            3 
  459000    1.1914763   -4.0078788    402.19428  0.073020022  0.074724344            2 
  460000    1.1880971   -4.0249258    402.39875  0.072898325  0.074714359            2 
  461000    1.2157598   -4.0035672    401.07178  0.072500322  0.074702975            1 
  462000    1.2083102   -4.0275694     403.0242  0.072695562  0.074691402            2 
  463000    1.1997188   -4.0485194    405.20041   0.07293024  0.074680515            1 
  464000    1.1953304   -4.0076389    405.43237  0.072814722  0.074669099            1 
  465000    1.1866217   -4.0058069    405.63482  0.072694412  0.074655207            4 
  466000    1.1724816    -4.024696    405.84712   0.07257638  0.074642186            3 
  467000    1.1746586   -4.0281068    407.91471   0.07278992   0.07462969            3 
  468000    1.1495155   -4.0341064    408.54523  0.072746657  0.074617769            1 
  469000    1.1676448   -4.0415783    410.24899  0.072894276  0.074605327            3 
  470000    1.1738647   -4.0011892    413.41454   0.07330045  0.074594852            4 
  471000    1.1806943   -4.0189312    410.95892  0.072710354  0.074582885            2 
  472000    1.1581101   -3.9947133    413.19602  0.072951274  0.074572546            1 
  473000    1.1642337   -4.0089683    414.74898  0.073070644  0.074561939            2 
  474000    1.1783926   -4.0266434    415.31058  0.073015222  0.074552305            1 
  475000    1.1984608    -4.036774    415.39779  0.072876805  0.074541283            2 
  476000    1.1720224   -4.0384662    416.25352  0.072873516  0.074529397            3 
  477000    1.1731625   -4.0264343    415.88698  0.072656704   0.07451764            1 
  478000    1.1746535   -4.0052112    416.27719  0.072572732  0.074506227            1 
  479000    1.1636018   -4.0551087    417.55573  0.072643655  0.074494783            4 
  480000    1.1607939   -4.0592292    417.09862  0.072412955  0.074482356            2 
  481000    1.1906659   -4.0571965    417.36396  0.072308379  0.074469304            2 
  482000    1.1717594    -4.020008    421.81541  0.072927975  0.074456336            5 
  483000    1.1494677   -4.0128793    421.03009  0.072641493  0.074442232            6 
  484000    1.1777105   -4.0118781    422.15709  0.072685449  0.074430027            2 
  485000    1.1789597   -4.0162014    421.40378  0.072406148  0.074416681            2 
  486000    1.1841749   -4.0198168    424.53027  0.072793256   0.07440399            2 
  487000    1.1472457   -4.0513969    424.74882   0.07268118  0.074394631            5 
  488000     1.169172   -3.9874076    426.54832  0.072839536  0.074383668            1 
  489000     1.177825   -4.0314414    427.93111  0.072926228  0.074372167            2 
  490000     1.157587   -4.0277563    426.35971  0.072510155  0.074360841            3 
  491000    1.1460266   -4.0561383    427.01963  0.072474478  0.074350827            2 
  492000    1.1449392    -4.017233    430.80148   0.07296773  0.074340928            2 
  493000    1.1693465   -4.0265986    429.90968  0.072668979  0.074331315            2 
  494000    1.1611511   -4.0484953    430.13251  0.072559465  0.074319971            2 
  495000    1.2010671   -3.9868814    432.32722   0.07278236  0.074309422            3 
  496000    1.1588218   -4.0406646    431.65755  0.072523111  0.074299396            2 
  497000    1.1709995   -4.0335045    434.23955  0.072810119  0.074287417            2 
  498000    1.1900505   -4.0430868    434.44572  0.072698414  0.074277695            2 
  499000     1.156569   -4.0023857    435.57643  0.072741555  0.074269073            2 
  500000    1.1592799   -4.0260323    437.85871  0.072976452  0.074258338            2 
  501000    1.1912929   -4.0483625    435.10671  0.072373039  0.074247857            3 
  502000    1.1717459   -4.0110665    437.84467  0.072683378  0.074238218            2 
  503000    1.1852446   -4.0227904    438.25057  0.072606125  0.074228647            2 
  504000    1.1779767   -4.0380502    440.24239  0.072791401   0.07421915            1 
  505000    1.1968534   -4.0520841    438.22671  0.072314638    0.0742104            6 
  506000    1.1798539   -4.0741438    439.68018  0.072411096  0.074196123            1 
  507000    1.1786195   -4.0015864    441.16045   0.07251158  0.074183181            3 
  508000    1.1758327   -4.0153801    441.27683  0.072387932  0.074170608            4 
  509000    1.1771192   -4.0467199    441.93482  0.072353441  0.074157066            2 
  510000    1.1720427   -4.0393836     443.4086  0.072452385  0.074144644            3 
  511000    1.1563203   -4.0112146    444.12397  0.072427262  0.074132382            2 
  512000    1.1519317   -4.0502281    444.59398  0.072362302  0.074120564            2 
  513000    1.1666691   -4.0500224    446.54148  0.072537602  0.074107959            2 
  514000    1.1865224   -4.0546398    446.04968  0.072316745  0.074096324            3 
  515000    1.1728998   -4.0481891     445.1767  0.072035064  0.074084459            2 
  516000    1.1596354   -4.0687601    447.16834   0.07221711   0.07407245            5 
  517000    1.1521204   -4.0211622    449.65149  0.072477674  0.074060029            2 
  518000    1.1864669    -4.017429    449.50648  0.072314428  0.074048501            3 
  519000    1.1638524   -4.0346585    453.17463  0.072764071  0.074037645            2 
  520000    1.1821801   -4.0446524     449.9467  0.072106842  0.074026987            4 
  521000    1.1756886   -4.0424748    454.66488  0.072723109  0.074016088            1 
  522000    1.1690205   -4.0719728    453.90757  0.072462895  0.074005798            1 
  523000     1.178257   -4.0685653    451.60051  0.071956741  0.073993757            2 
  524000    1.1736068   -4.0431686    455.25776  0.072401043  0.073982581            2 
  525000    1.1863879   -4.0267292     456.1944  0.072411809  0.073968902            2 
  526000    1.1664421   -4.0501039    455.52574   0.07216821  0.073955161            4 
  527000    1.1730715    -4.027867    455.36289  0.072005517  0.073939623            4 
  528000    1.1541066   -3.9998411    456.57446  0.072060363  0.073925328            1 
  529000    1.1682035   -4.0547727    457.34525  0.072045566  0.073910937            2 
  530000    1.1510777   -4.0443164    456.91156   0.07184144  0.073896647            2 
  531000    1.1727026   -4.0197055     460.5456  0.072276459  0.073880991            4 
  532000     1.157115   -4.0416294    459.53283  0.071981959  0.073865664            1 
  533000     1.186105    -4.053488     460.0175  0.071922685  0.073849896            1 
  534000    1.1553934   -4.0579989    461.17646  0.071968861  0.073834683            2 
  535000    1.1763838   -4.0532133    461.43748  0.071874997  0.073819507            4 
  536000    1.1180553   -4.0254919    464.54732  0.072224396  0.073805325            2 
  537000    1.1866023   -4.0607081    463.41466  0.071914131  0.073792106            2 
  538000    1.1417374   -4.0639762    464.22595  0.071906127  0.073779261            2 
  539000    1.1451585   -4.0368162    465.76918  0.072011314   0.07376599            2 
  540000    1.1486705   -3.9987883      468.717   0.07233287  0.073754018            1 
  541000    1.1645756   -4.0382889    465.63619  0.071724613    0.0737415            4 
  542000    1.1633058   -4.0697242    468.58761  0.072046066   0.07372949            3 
  543000    1.1487236   -4.0479347    469.67651  0.072080495  0.073716821            3 
  544000    1.1614244   -4.0678094    468.57974  0.071779985  0.073702963            3 
  545000    1.1884686   -4.0442452    472.97535   0.07232039  0.073689432            1 
  546000    1.1509059   -4.0337904    472.41158   0.07210189  0.073675907            1 
  547000     1.165444   -4.0456413    470.64115  0.071700358  0.073661791            2 
  548000    1.1679387   -4.0565494    473.10889  0.071944782  0.073647609            6 
  549000    1.1597823   -4.0541812    474.21194  0.071981168  0.073633223            1 
  550000     1.178106    -4.014258    474.23851  0.071854319  0.073618971            2 
  551000    1.1684142   -4.0532371    473.69017  0.071640982  0.073604242            2 
  552000    1.1517461   -4.0640633    476.07139   0.07187068  0.073590484            2 
  553000    1.1784193   -4.0640298    478.16806   0.07205667   0.07357682            1 
  554000    1.1808488   -4.0283392    478.50399  0.071977135  0.073564075            2 
  555000    1.1852134   -4.0382538    480.39676  0.072131645  0.073550113            2 
  556000    1.1622874   -4.0347565    480.16045  0.071966494  0.073537869            1 
  557000     1.171227   -4.0574308    481.15959  0.071986772  0.073524651            1 
  558000    1.1715628   -4.0409277    482.22143  0.072016343  0.073511358            2 
  559000    1.1778495   -4.0337224    483.10244  0.072018849  0.073499658            1 
  560000    1.1647703   -4.0639332    481.99481  0.071725418  0.073486868            2 
  561000    1.1475075   -4.0787226    481.55789  0.071532663  0.073472764            3 
  562000    1.1604304    -4.051574    482.97651  0.071615734  0.073458145            2 
  563000    1.1555642   -4.0288251    485.44127  0.071853356  0.073443318            2 
  564000    1.1511381   -4.0283752    487.68549  0.072057549  0.073429335            2 
  565000    1.1612447   -4.0158049    486.68881   0.07178301   0.07341554            2 
  566000    1.1390073   -4.0619953    485.52027  0.071484139  0.073401926            3 
  567000    1.1601077   -4.0463938    488.71647  0.071827817  0.073388451            4 
  568000      1.14457   -4.0466051    489.70766  0.071846781  0.073375517            3 
  569000     1.142807   -4.0457441    489.71765  0.071721975  0.073361144            2 
  570000    1.1381428   -4.0377878    489.22919  0.071524736  0.073347653            3 
  571000    1.1620566   -4.0416632     489.2095  0.071396599  0.073333048            3 
  572000    1.1617047   -4.0606277     490.3521  0.071438243  0.073318491            2 
  573000    1.1597696   -4.0497166    493.29862  0.071742092  0.073303927            1 
  574000    1.1610543   -4.0342338    493.54909  0.071653469  0.073288097            2 
  575000    1.1667146   -4.0481528    493.78497  0.071563039  0.073273895            2 
  576000    1.1675272   -4.0343834     494.9607  0.071608897  0.073259034            3 
  577000    1.1669678    -4.075075    495.66578  0.071586624  0.073244468            3 
  578000     1.145994   -4.0673915    495.41092  0.071426027  0.073229724            4 
  579000    1.1467178   -4.0720528    497.09892  0.071545613  0.073215606            3 
  580000    1.1622732    -4.050007    498.84618  0.071673301  0.073201629            1 
  581000    1.1500233   -4.0464551    498.70271  0.071529362  0.073188108            2 
  582000    1.1501371    -4.069994    499.61551  0.071537157  0.073175531            2 
  583000    1.1547728   -4.0425639     502.1775  0.071780661  0.073161183            2 
  584000    1.1621126   -4.0436872    501.67871  0.071586574  0.073146751            2 
  585000    1.1510723   -4.0819306    502.10713  0.071525232  0.073131797            2 
  586000    1.1861296    -4.021798    504.15147  0.071693895  0.073117834            3 
  587000    1.1920407   -4.0572751    501.68178   0.07122115  0.073103556            2 
  588000    1.1611852   -4.0556732    503.73978  0.071391692  0.073090067            1 
  589000    1.1615458   -4.0607583    503.82107  0.071281985  0.073076527            3 
  590000    1.1552886   -4.0748815    503.61241  0.071131696  0.073061628            2 
  591000    1.1815975   -4.0492841    506.06922  0.071357757  0.073046188            1 
  592000    1.1525919   -4.0652035     505.5367  0.071162261  0.073031149            2 
  593000    1.1593322   -4.0243462    507.45262  0.071311497  0.073015275            4 
  594000     1.172895   -4.0562304    509.82962  0.071524918  0.072999424            5 
  595000    1.1622352   -4.0922895     508.9523  0.071281834  0.072982447            2 
  596000    1.1663144   -4.0599522     509.1661  0.071192129   0.07296654            1 
  597000    1.1493737    -4.064425    508.57973  0.070991029  0.072950227            2 
  598000    1.1723792   -4.0497161     512.3425   0.07139667  0.072934879            2 
  599000    1.1674888   -4.0437839    513.06596  0.071378124  0.072918904            3 
  600000    1.1819593   -4.0594435    511.22876  0.071003995  0.072903425            2 
  601000    1.1606458   -4.0418469    513.57548  0.071211242  0.072888223            1 
  602000    1.1859364   -4.0942176    511.83499   0.07085202  0.072871719            2 
  603000    1.1362648   -4.0980698    512.32903  0.070802795  0.072855225            4 
  604000    1.1672099   -4.0584191    515.23812  0.071086937  0.072839659            3 
  605000    1.1386482   -4.0288172    514.39018  0.070852642  0.072822833            3 
  606000    1.1311833   -4.0371364    516.71653  0.071055628  0.072806646            4 
  607000    1.1573246   -4.0264532    516.31071  0.070882854  0.072790416            2 
  608000    1.1577173   -4.0317111     519.2885   0.07117441  0.072774654            2 
  609000      1.14037   -4.0468085    520.90584  0.071278851  0.072760293            2 
  610000    1.1605163   -4.0504836    520.28028  0.071076542  0.072744385            3 
  611000    1.1358012   -4.0620091    521.26623  0.071094684  0.072728252            1 
  612000    1.1790025   -4.0541608    522.03337  0.071082975  0.072711582            3 
  613000    1.1671037   -4.0738949    521.70466   0.07092233  0.072694859            2 
  614000    1.1369184   -4.0786711    521.77221   0.07081599  0.072677276            1 
  615000    1.1577849   -4.0795334    523.61958  0.070951162  0.072660446            2 
  616000      1.13514   -4.1072513    522.76729  0.070720683  0.072642828            3 
  617000    1.1300914   -4.0618182    522.95315  0.070631165  0.072625435            2 
  618000    1.1720883   -4.0556284    526.96505  0.071057855  0.072607912            2 
  619000     1.172055   -4.0679139    526.15184  0.070833581  0.072591091            1 
  620000    1.1352119   -4.0699842    526.45181  0.070759652  0.072575021            2 
  621000    1.1601503   -4.0636011    526.46191  0.070647063  0.072559238            2 
  622000    1.1618993   -4.0693382    527.88796  0.070724539  0.072542473            3 
  623000    1.1495878     -4.06865    529.58889  0.070838536  0.072526635            3 
  624000    1.1608784   -4.1005999    529.14135  0.070665244  0.072509589            2 
  625000    1.1649612   -4.0626647    531.99243  0.070932324  0.072493118            1 
  626000    1.1476886   -4.0778245    529.00775  0.070421691  0.072476875            2 
  627000    1.1515781   -4.0546378    530.86303  0.070555958  0.072458254            2 
  628000    1.1740585   -4.0323362    533.58303  0.070804543  0.072442187            1 
  629000    1.1299797   -4.0700074     534.7037  0.070840448  0.072426019            2 
  630000    1.1524413   -4.0725542    533.84388   0.07061427  0.072409272            1 
  631000    1.1570969   -4.1041994    535.43848  0.070712952  0.072393188            2 
  632000    1.1434947   -4.0856768     537.3348  0.070851107  0.072377646            2 
  633000    1.1362747   -4.0627348    539.16551  0.070980189  0.072362803            4 
  634000    1.1424581   -4.0888379    539.52361  0.070915301  0.072348691            1 
  635000    1.1482999   -4.0689991    540.95368  0.070991296  0.072334102            1 
  636000    1.1484735   -4.0142258    543.78043  0.071250057  0.072321828            1 
  637000    1.1565797   -4.0912593    540.33949  0.070688054  0.072309169            2 
  638000    1.1438783   -4.0605245    542.30709  0.070834259  0.072296807            2 
  639000    1.1354438   -4.0867364    542.49557  0.070747988  0.072282648            4 
  640000    1.1322264   -4.0890623    541.63052  0.070524808  0.072268304            3 
  641000     1.154493   -4.0489526    544.98233  0.070850536  0.072254693            2 
  642000    1.1636984   -4.0901419    544.20617   0.07063943  0.072241468            2 
  643000    1.1251827   -4.0855706    547.78185  0.070992982  0.072226929            2 
  644000    1.1426897   -4.0651401    546.10672  0.070665983  0.072212151            3 
  645000    1.1406134   -4.0948804    545.87937   0.07052705  0.072198197            4 
  646000    1.1710826   -4.0739537    548.61507  0.070770778  0.072184801            2 
  647000    1.1281247   -4.0621893    547.65611  0.070537881  0.072170047            2 
  648000    1.1356924   -4.0931782    549.40323  0.070653707  0.072154994            3 
  649000    1.1597047   -4.0811931    549.61912  0.070572563  0.072140724            3 
  650000    1.1390225   -4.0691472    552.15054  0.070788531  0.072126497            4 
  651000    1.1521778   -4.0426373    552.69521  0.070749515  0.072111657            4 
  652000    1.1404879   -4.0710368    550.48779  0.070358869   0.07209705            4 
  653000    1.1398964   -4.0486156    552.84964  0.070552532  0.072082921            2 
  654000    1.1586731   -4.0642016    553.59706   0.07053989  0.072067599            2 
  655000      1.10942   -4.0470025    555.66703  0.070695551  0.072052616            2 
  656000    1.1348603    -4.107075    553.94116  0.070368542   0.07203671            2 
  657000    1.1457838   -4.0549307     556.4031  0.070573706  0.072021811            3 
  658000    1.1391472   -4.0681201    558.62398  0.070747718  0.072008383            2 
  659000    1.1374312   -4.0473593    558.28175  0.070597085  0.071993772            6 
  660000    1.1524796   -4.0469347      559.602  0.070656818   0.07198003            3 
  661000    1.1839647   -4.0803062    558.49259  0.070410059   0.07196682            2 
  662000    1.1514143    -4.075903    562.16193  0.070765601   0.07195382            1 
  663000    1.1489705   -4.0587897    561.77517  0.070610253  0.071939771            1 
  664000    1.1252927   -4.0553505    562.18588  0.070555457  0.071925139            1 
  665000    1.1607003   -4.1199254    562.39718  0.070475837   0.07191136            3 
  666000     1.171594   -4.0825238    564.65354  0.070652344  0.071898575            4 
  667000     1.142636   -4.0579518    564.53768  0.070531944  0.071885423            1 
  668000     1.147366   -4.0339356    565.23344  0.070513153  0.071873257            1 
  669000    1.1469009   -4.0390072    566.63829  0.070582746  0.071859424            2 
  670000    1.1358818   -4.0462318    567.03332  0.070526532  0.071847601            1 
  671000    1.1409248   -4.0931664    567.58952  0.070490502  0.071835796            2 
  672000    1.1401009   -4.0549294     571.2469  0.070839149  0.071824329            4 
  673000    1.1673402   -4.0706723    572.78171  0.070923937  0.071812863            4 
  674000    1.1387039   -4.0824592    571.38535  0.070646062  0.071801284            2 
  675000    1.1697644   -4.0878387    570.70852  0.070457841  0.071789311            3 
  676000    1.1618537   -4.0635888    573.70981  0.070723596  0.071775863            2 
  677000    1.1263927   -4.0979241    574.54597  0.070722054  0.071762591            2 
  678000    1.1569711   -4.0819176    573.36663  0.070472792  0.071748199            3 
  679000     1.116773   -4.1039973    571.31515  0.070117226   0.07173374            3 
  680000    1.1530036   -4.0441794    575.63827  0.070543906  0.071718736            4 
  681000     1.138438   -4.0996335    574.41117  0.070290157  0.071704137            1 
  682000    1.1581661   -4.0638286    573.76732  0.070108421  0.071689366            4 
  683000    1.1388864   -4.0785373    574.88344  0.070141952   0.07167421            1 
  684000    1.1358366   -4.0635667    576.52412  0.070239293  0.071658871            1 
  685000    1.1352328   -4.0623506    578.37607  0.070362052   0.07164385            1 
  686000    1.1464313   -4.0601298    578.25605  0.070244904  0.071628822            5 
  687000    1.1586353   -4.0578004    579.88914   0.07034075  0.071613292            4 
  688000    1.1079016   -4.0798022    579.33357  0.070171218  0.071598413            3 
  689000    1.1368637   -4.0879663    578.68411  0.069990821  0.071582514            2 
  690000    1.1351978   -4.0981048    579.82945  0.070027711  0.071567157            2 
  691000     1.149141   -4.0789167    578.97541  0.069823373     0.071551            1 
  692000    1.1516642   -4.0798198    580.47814  0.069903437  0.071535425            3 
  693000    1.1387549   -4.1091274      582.113  0.069999158  0.071519277            1 
  694000    1.1196994   -4.0942866    583.43781  0.070057374  0.071503122            2 
  695000    1.1484938   -4.0588129    583.75988  0.069995189  0.071486549            3 
  696000    1.1150414   -4.0801589    584.53596  0.069987543  0.071470626            2 
  697000    1.1483519   -4.0978894    583.80861  0.069800168  0.071454122            5 
  698000    1.1394599   -4.0515761    586.77016  0.070053745  0.071437592            2 
  699000    1.1240803   -4.0680801    586.28558  0.069895754   0.07142152            1 
  700000    1.1441029   -4.0773845    587.61464  0.069954124  0.071405688            2 
  701000    1.1423656   -4.1033147    586.40588  0.069710637  0.071389187            3 
  702000    1.1422728   -4.1093041    586.47308  0.069619311  0.071371391            2 
  703000    1.1250013   -4.0622957     588.3385  0.069741405  0.071353457            2 
  704000    1.1206313   -4.0974518    588.47968  0.069659053  0.071335739            1 
  705000    1.1443241    -4.066467    591.21662  0.069883761  0.071318704            3 
  706000    1.1568823    -4.098681    593.35121  0.070036734  0.071301694            6 
  707000    1.1502067   -4.0958154    591.91712  0.069768637  0.071285862            3 
  708000    1.1528916   -4.0856024     591.5392  0.069625612  0.071269469            3 
  709000    1.1361384   -4.0305881    595.33119  0.069973107  0.071252367       -1e+20 
  710000    1.1252022   -4.1091495    593.51511  0.069661398  0.071235882            3 
  711000    1.1362783   -4.1009505    595.36063  0.069779727  0.071219776            3 
  712000    1.1461136   -4.0903633    595.94433  0.069750039    0.0712036            3 
  713000    1.1439444   -4.0877871    597.30958  0.069811778  0.071187522            4 
  714000    1.1294071   -4.0436775    599.83754   0.07000905  0.071171586            3 
  715000    1.1707636   -4.0753934    600.13418  0.069945709  0.071156502            1 
  716000    1.1365273   -4.0938341    600.09991   0.06984403  0.071141443            3 
  717000    1.1253287   -4.0787856    598.87746  0.069604539  0.071126408            3 
  718000    1.1375238   -4.1032141    601.89188   0.06985746  0.071112154            2 
  719000    1.1365732   -4.1049757     600.0121  0.069542432  0.071097024            2 
  720000     1.124475   -4.0670311    604.33058  0.069945669  0.071081819            2 
  721000    1.1293669   -4.0845708    604.41807  0.069858769  0.071067181            1 
  722000    1.1663114   -4.1220007    603.86716  0.069698426  0.071052082            4 
  723000    1.1346865   -4.0831409    603.48012  0.069557414  0.071036928            2 
  724000    1.1321001   -4.0928416    602.47914  0.069346125  0.071022027            4 
  725000    1.1269797   -4.0591703     607.8221  0.069864609  0.071007353            2 
  726000    1.1264682   -4.0961248     606.6446  0.069633219  0.070992522            3 
  727000    1.1301045    -4.084341    610.15567  0.069939898    0.0709787            3 
  728000    1.1540424   -4.0962055    609.79894  0.069802992  0.070964645            1 
  729000    1.1402988   -4.0536984    610.72603  0.069813217  0.070950061            1 
  730000    1.1397544   -4.1415678    607.43068  0.069341402  0.070936047            3 
  731000    1.1339453   -4.0524007     613.1653  0.069900285  0.070922892            3 
  732000    1.1605873   -4.0574995    613.01353  0.069787515  0.070909944            2 
  733000    1.1315078   -4.0697434    614.09911  0.069815724  0.070896469            1 
  734000    1.1363156   -4.0655808    614.48953  0.069764933  0.070882047            2 
  735000    1.1334353    -4.115748    612.83296  0.069482195  0.070867919            3 
  736000    1.1333243   -4.0775481    617.57532  0.069924742  0.070853523            4 
  737000    1.1334616    -4.061038    617.56372  0.069828552  0.070839876            2 
  738000    1.1227634   -4.0935699    615.75517  0.069529716  0.070826905            2 
  739000    1.1585877   -4.0550738    619.06127  0.069808443  0.070813473            2 
  740000    1.1424608   -4.0701443    619.02559  0.069710089  0.070799756            4 
  741000    1.1490992   -4.0722467    619.00883  0.069614129  0.070785768            2 
  742000    1.1371234   -4.0944512    621.39938  0.069788789  0.070772102            1 
  743000    1.1198685   -4.0601842    622.66519  0.069836832  0.070758709            6 
  744000    1.1606717   -4.0915948    621.04619  0.069561625  0.070744437            3 
  745000    1.1094716   -4.1005292     622.0638   0.06958208  0.070730603            3 
  746000    1.1435759   -4.0931654    623.29632  0.069626488  0.070716839            2 
  747000    1.1192573   -4.0947713    623.78593  0.069587899  0.070703036            2 
  748000    1.1340963   -4.1003002    622.05275  0.069301777  0.070688527            3 
  749000    1.1343857   -4.0964461     622.9367  0.069307599  0.070674255            3 
  750000    1.1348648   -4.1241328    624.98622  0.069442913  0.070660461            3 
  751000    1.1268875   -4.0967426    625.92964  0.069455131  0.070646476            2 
  752000    1.1339905   -4.0580315    628.12347  0.069605881   0.07063241            1 
  753000    1.1252089   -4.1091939    627.46322  0.069440375    0.0706188            2 
  754000    1.1286571   -4.1248096    626.25218  0.069214432  0.070603727            4 
  755000     1.147112    -4.125416    626.80244  0.069183492  0.070588122            2 
  756000    1.1783444   -4.1181153    629.75861  0.069417837  0.070574099            1 
  757000    1.1115278   -4.0850333    631.25623  0.069490998  0.070560471            1 
  758000     1.147678   -4.1132092    629.43642  0.069199254  0.070546249            3 
  759000    1.1272355   -4.0705304    631.31834  0.069314706  0.070531189            2 
  760000    1.1279943    -4.082993    630.59242  0.069143905  0.070516518            1 
  761000    1.1513345   -4.0969708    635.12231  0.069549092  0.070502089            3 
  762000    1.1166177   -4.0803519     634.4352  0.069382677   0.07048763            2 
  763000    1.1424595   -4.1192289     634.3809  0.069285813     0.070473            3 
  764000    1.1471633   -4.1081594    634.26648  0.069182644  0.070458712            3 
  765000     1.117529   -4.0800436    638.86313  0.069592933  0.070444557            1 
  766000    1.1336092   -4.1096097    637.41106   0.06934411  0.070430261            3 
  767000    1.1173299   -4.1077607    638.81526  0.069406264  0.070415368            3 
  768000    1.1242137   -4.0911027    635.82329  0.068991242  0.070400478            2 
  769000    1.1503581   -4.1095259     641.1999  0.069484168  0.070385955            4 
  770000    1.1324322   -4.0786095    642.12397  0.069493936  0.070372105            3 
  771000    1.1311288   -4.1235003    641.36122   0.06932136  0.070359287            2 
  772000    1.1099382   -4.1020782    641.17044  0.069210972  0.070346914            1 
  773000    1.1323591   -4.1084768    641.38178  0.069144219  0.070334518            3 
  774000    1.1552763   -4.1067779    644.05523  0.069342725  0.070322593            1 
  775000     1.138806   -4.0880203    647.32407  0.069604739  0.070310567            4 
  776000    1.1430959   -4.1166176    643.81199  0.069137886  0.070297172            1 
  777000    1.1283659   -4.0807325    644.21702  0.069092345  0.070284297            1 
  778000    1.1401767    -4.080936    646.51721  0.069249915  0.070271273            2 
  779000    1.1541721   -4.1082858    647.69701  0.069287229  0.070259102            4 
  780000    1.1263443   -4.1053519     649.1549  0.069354156  0.070246632            2 
  781000    1.1437485   -4.1240569    646.56462  0.068988969  0.070233526            5 
  782000    1.1389234   -4.1064894    649.45946  0.069209235  0.070221534            2 
  783000    1.1274775   -4.1172757    653.65386  0.069567247  0.070209334            1 
  784000    1.1237995   -4.0975904     653.7984  0.069493878  0.070197603            4 
  785000    1.1377586   -4.0935485    649.28158  0.068925858  0.070185217            2 
  786000    1.1153267   -4.1054792    654.48954  0.069390324  0.070171289            2 
  787000    1.1507574   -4.1246004    652.74605  0.069117541  0.070158127            2 
  788000    1.1217037   -4.1135666     651.9579  0.068946479  0.070144339            1 
  789000    1.1290188   -4.1048597    652.99766  0.068968912  0.070130255            1 
  790000    1.1147069   -4.1166174    653.60187  0.068945345  0.070117003            3 
  791000    1.1198225   -4.1233859     658.0053  0.069322092  0.070104074            2 
  792000    1.1140199    -4.101623    652.59041  0.068664815  0.070090415            2 
  793000    1.1151102   -4.0935301    656.32901  0.068971102  0.070076001            3 
  794000    1.1377942   -4.1027499     656.0334  0.068853212  0.070062069            2 
  795000    1.1518262   -4.1072367    657.18557  0.068887376     0.070048            3 
  796000    1.1004082   -4.1057051    657.87501  0.068873012  0.070034436            3 
  797000    1.1185721   -4.1001087    659.76331  0.068984035  0.070021022            5 
  798000    1.1119773   -4.1225416    659.98962  0.068921222  0.070007097            2 
  799000    1.1238972   -4.0922819    659.37954  0.068771333  0.069993346            2 
  800000     1.132464   -4.1030336    663.77816  0.069143558  0.069979475            2 
  801000    1.1186537   -4.1302945    660.36522  0.068702166  0.069964434            2 
  802000    1.0997017   -4.1234455    660.48312  0.068628753  0.069949945            1 
  803000    1.1599877    -4.114054    661.78895  0.068678803  0.069935733            2 
  804000    1.1215716   -4.1149544    664.55311  0.068879883  0.069921881            3 
  805000    1.1065093   -4.1207528    666.18277   0.06896302  0.069908111            3 
  806000    1.1450398   -4.1111601    666.20571  0.068879829  0.069894464            2 
  807000    1.1144299   -4.0877706    667.12947  0.068889866  0.069880867            1 
  808000    1.1430143   -4.0757679    667.87626  0.068881627  0.069867231            2 
  809000    1.1221423   -4.0899763    665.96388  0.068599493  0.069853542            6 
  810000    1.1110743   -4.1093881    667.73041  0.068696544  0.069840246            3 
  811000     1.121636   -4.1379847    670.25199   0.06887094  0.069826765            3 
  812000    1.1600116   -4.1474726    665.56257  0.068304861  0.069813152            2 
  813000    1.1346982   -4.1202267    670.22023  0.068698261  0.069799492            3 
  814000    1.1401043   -4.0713891    672.26026  0.068822713  0.069786122            5 
  815000    1.1100151   -4.1186177    671.38795  0.068649075  0.069772665            2 
  816000    1.1443722   -4.0789068    675.06328  0.068940286  0.069759433            2 
  817000    1.1108914   -4.1409319    671.14799  0.068456548    0.0697452            5 
  818000    1.1171693   -4.1425345    676.35494  0.068903314   0.06973082            2 
  819000    1.1107321   -4.1273718    671.96876  0.068372889  0.069716655            2 
  820000    1.1366319   -4.1317392    674.03917  0.068499916  0.069703267            1 
  821000    1.1112172   -4.1534774    674.71885   0.06848547  0.069688565            3 
  822000    1.1252442   -4.1279014     674.1456  0.068344039  0.069674013            4 
  823000    1.1294859   -4.1139907    678.02716  0.068654026  0.069660047            2 
  824000    1.1207131   -4.0980807    676.77194  0.068443764  0.069645587            2 
  825000    1.1271297    -4.132463    673.82789  0.068063423  0.069630627            2 
  826000    1.1160921   -4.1299908    676.58035  0.068258711  0.069615267            3 
  827000    1.1383028   -4.0679973    679.24695  0.068444876  0.069600539            1 
  828000    1.1364338   -4.1212926    681.84487  0.068623678  0.069585837            2 
  829000    1.1231493   -4.1503328    680.71485  0.068427307  0.069570955            2 
  830000    1.1425014   -4.1020071    681.03834  0.068377343  0.069556491            2 
  831000    1.1429776   -4.0761008    681.32422  0.068323729    0.0695424            4 
  832000    1.1302764   -4.1187702    682.25851  0.068335187   0.06952796            3 
  833000    1.0968234   -4.1076566    682.49154  0.068276464  0.069513376            2 
  834000    1.1507551   -4.1042673     684.4359  0.068388878  0.069499371            2 
  835000    1.1211404   -4.1246536    684.25756  0.068289178  0.069485459            3 
  836000     1.131513   -4.0979785    686.97949  0.068478817  0.069471807            1 
  837000    1.1053521   -4.1259296     687.7151  0.068470241  0.069458488            2 
  838000    1.1105022   -4.1011044    690.31891  0.068647465  0.069444111            1 
  839000    1.1197308    -4.141115    686.62042  0.068198294  0.069430277            1 
  840000    1.1402309    -4.126153    687.81574  0.068235688   0.06941639            2 
  841000    1.1080497   -4.1176048    689.33206  0.068304802  0.069400999            1 
  842000    1.1222602    -4.132138    686.91651  0.067984611  0.069385747            2 
  843000    1.0827151   -4.1098126     689.6961  0.068178736  0.069370992            3 
  844000    1.1212888   -4.1328929     686.8635  0.067818276  0.069355836            1 
  845000    1.1064802   -4.1229546    691.32217  0.068177729   0.06934089            3 
  846000    1.1063744   -4.1353516    692.64995  0.068227931  0.069325361            3 
  847000    1.1222138    -4.170652    689.41187  0.067828795  0.069309504            4 
  848000     1.125626   -4.1302253    692.51752  0.068054002  0.069294274            3 
  849000    1.0973019   -4.1446093    691.10968  0.067835658  0.069278475            2 
  850000     1.128498   -4.1002194    695.05239  0.068142391  0.069262389            5 
  851000    1.1093845   -4.1216232    693.00291  0.067861625  0.069247635            3 
  852000    1.1050684   -4.1371432    695.48649  0.068024891  0.069232526            3 
  853000    1.0907635   -4.1097471     698.8709  0.068275781  0.069217845            4 
  854000    1.1279488    -4.124589    697.97057   0.06810798  0.069203334            1 
  855000    1.1190899   -4.1061366     699.2515  0.068153168   0.06918823            1 
  856000    1.1086184   -4.1443191    697.10672   0.06786475  0.069173791            3 
  857000    1.0973384   -4.1164991     699.9221  0.068059325  0.069158568            2 
  858000    1.0979989   -4.1192401    699.69261  0.067957713  0.069143515            4 
  859000    1.1114422   -4.1099878    703.30352  0.068228902  0.069128829            4 
  860000    1.1054122   -4.1380739    701.50345   0.06797514   0.06911423            2 
  861000    1.0900445   -4.1161292    704.79103  0.068214385  0.069100223            6 
  862000    1.1037231    -4.133608    700.94517  0.067763454  0.069085052            1 
  863000    1.0982435   -4.1344886    704.87353  0.068064265  0.069069894            3 
  864000    1.0945448   -4.0920675    703.54007  0.067856874  0.069055785            1 
  865000    1.1132594   -4.1445281    702.70832  0.067698297  0.069041328            4 
  866000    1.1172401   -4.1297652    706.51407  0.067986342  0.069026553            3 
  867000    1.1186586   -4.1358754    706.51703  0.067908211  0.069012338            1 
  868000    1.1209255   -4.0981772    711.17811  0.068277468  0.068998234            3 
  869000    1.1183508   -4.1361081    705.81804   0.06768489  0.068983283            2 
  870000      1.12418   -4.1197264    710.76222  0.068080673  0.068968739            2 
  871000    1.1270554   -4.1654084    707.61291  0.067701197  0.068953626            3 
  872000    1.0928862   -4.1083039    710.28664  0.067879075   0.06893837            2 
  873000     1.121671   -4.1201453    709.79408  0.067754303  0.068923972            2 
  874000    1.0766308   -4.1297911    710.90724  0.067782917  0.068908303            7 
  875000    1.1091718    -4.153634    710.24007  0.067641912  0.068892731            3 
  876000    1.1173304   -4.1256627    710.60147  0.067599074  0.068876834            2 
  877000    1.1154996   -4.1438676    712.86172  0.067736766   0.06886138            3 
  878000    1.1005374   -4.1308663    712.46899  0.067622341  0.068846239            2 
  879000    1.1156568   -4.1036794    713.17123  0.067611986  0.068831398            4 
  880000    1.0934175   -4.0976515    715.71179  0.067775738  0.068816279            5 
  881000    1.1115306   -4.1255851    714.82909  0.067615313  0.068800615            3 
  882000    1.1154501   -4.0873901    718.37299  0.067873487  0.068785669            5 
  883000    1.0915298    -4.167959    716.76606  0.067644966   0.06877045            2 
  884000    1.1281345   -4.1311094    717.99235  0.067684045  0.068755012            1 
  885000    1.1072842   -4.1229369    720.10971  0.067806941  0.068739809            5 
  886000    1.1018301   -4.1237963    719.78159  0.067699548  0.068724846            3 
  887000    1.1072898   -4.1274853    719.00689  0.067550441  0.068709634            4 
  888000    1.1062304   -4.1111484    721.86427  0.067742518  0.068694668            1 
  889000    1.1136345   -4.1484928    720.10044  0.067500978  0.068680271            2 
  890000    1.1119606   -4.1527748    721.23578  0.067531441  0.068665044            3 
  891000    1.1428336   -4.1320122    722.39567  0.067564129  0.068650092            2 
  892000     1.107215   -4.1395737    720.52065  0.067313214  0.068635499            3 
  893000    1.0958951   -4.1199941     722.4448  0.067417395  0.068620564            2 
  894000    1.0946172   -4.1312949    722.75744  0.067371126  0.068606107            2 
  895000    1.1103199    -4.112281    724.98471  0.067503232   0.06859119            3 
  896000    1.1116905   -4.1506338    724.91579  0.067421484  0.068576623            4 
  897000    1.1117788   -4.1312482    728.63318  0.067691674  0.068561978            4 
  898000    1.0833445   -4.1251538    730.66506   0.06780485  0.068547279            4 
  899000    1.1147946   -4.1354809    731.10132  0.067769866  0.068532708            2 
  900000    1.1238948   -4.1202368    729.51442  0.067547631  0.068518932            3 
  901000    1.0993562   -4.1298676    731.17255  0.067626022  0.068504258            2 
  902000    1.1004672   -4.1347665    730.34987  0.067475044  0.068490318            1 
  903000     1.134379   -4.1088241    733.76373  0.067715368  0.068476471            2 
  904000    1.1069352   -4.1444597    731.40408  0.067422942  0.068462568            4 
  905000    1.1035349   -4.1658908     731.8476  0.067389282  0.068448165            3 
  906000    1.1090953   -4.1333408    731.21515  0.067256729  0.068433297            3 
  907000    1.0868422   -4.1193148    734.11824  0.067449305  0.068419273            3 
  908000     1.095902   -4.1172896    734.28349  0.067390188  0.068404726            1 
  909000    1.1249211   -4.1544904    735.04622  0.067385975  0.068389929            5 
  910000    1.1095141    -4.103357    737.76908  0.067561271  0.068376328            5 
  911000    1.1156417   -4.1380832    737.34267  0.067448104  0.068362089            3 
  912000    1.1018726   -4.1272206    742.01181  0.067800787  0.068348292            2 
  913000    1.0939531    -4.145185    739.36675    0.0674851  0.068334502            2 
  914000    1.0882759   -4.1211486    741.82042  0.067634977   0.06832119            1 
  915000    1.0960702   -4.1218161    740.08911   0.06740338  0.068308114            5 
  916000     1.091739   -4.1391757    742.00761  0.067504332  0.068295323            2 
  917000    1.0768584   -4.1318176    739.24531   0.06717969  0.068281907            3 
  918000    1.1013008   -4.1241486    745.47947  0.067672428  0.068268304            2 
  919000    1.0797218   -4.0902308     743.5325  0.067422243  0.068254516            4 
  920000    1.1123217   -4.1790204    742.34927  0.067241782  0.068241156            2 
  921000     1.128189   -4.1368802    742.99579   0.06722727  0.068227209            4 
  922000    1.1117878   -4.1254584    746.70691  0.067489778  0.068214334            1 
  923000    1.1039318   -4.1180159    749.07277  0.067630261  0.068201235            2 
  924000    1.0921806   -4.1367582     748.9544  0.067546392  0.068188432            1 
  925000    1.0924734   -4.1512533    746.80425  0.067279662  0.068175033            1 
  926000    1.1186618    -4.138108    746.87433  0.067213312  0.068161797            3 
  927000    1.1038622   -4.1540928    749.44739  0.067372113   0.06814833            2 
  928000    1.1025881   -4.1298808    751.57583  0.067490645  0.068135877            2 
  929000    1.1013133   -4.1246526    749.11544  0.067197295  0.068122996            2 
  930000    1.1002895   -4.1569445    751.18641   0.06731061  0.068109924            2 
  931000    1.1114266   -4.1309338    753.47981  0.067443592  0.068097015            2 
  932000    1.0868598   -4.1583406     751.8801  0.067228192  0.068083841            3 
  933000    1.0969343   -4.1258588    753.50151  0.067300956  0.068070734            3 
  934000    1.1355373   -4.1200078    751.92404  0.067088155  0.068057986            3 
  935000    1.0999582   -4.1530997    753.63286  0.067168704  0.068045644            2 
  936000    1.1040342    -4.146953    755.12229  0.067229549  0.068032319            2 
  937000    1.1220464   -4.1280422    756.77736  0.067304995  0.068018791            4 
  938000    1.1152892    -4.179543    753.09243  0.066905866  0.068005614            2 
  939000    1.1194549   -4.1478311    760.41157  0.067484165  0.067992791            3 
  940000    1.0859221   -4.1392112    755.25886  0.066955572  0.067979915            2 
  941000    1.0852903   -4.1336627    761.18833  0.067409523  0.067966551            2 
  942000    1.1062738   -4.1996828    757.79496  0.067037771  0.067952729            2 
  943000    1.1128594   -4.1299479    760.45798  0.067202013  0.067939612            2 
  944000    1.0884919   -4.1846158    760.30276  0.067117122   0.06792596            2 
  945000    1.1054537   -4.1248569    760.55911  0.067068705  0.067913264            3 
  946000    1.1061521   -4.1255861    764.68177  0.067360973   0.06790051            2 
  947000    1.1033986   -4.1497742     765.7711    0.0673857  0.067888035            1 
  948000    1.0912148   -4.1476603    762.98354   0.06706958  0.067874849            3 
  949000     1.075782   -4.1328963    766.24522   0.06728532  0.067862159            1 
  950000    1.1031896   -4.1313748     767.3742  0.067313527  0.067849694            1 
  951000    1.0827225   -4.1524643    766.84729  0.067196573  0.067836638            4 
  952000    1.0909849   -4.1631061    766.42246  0.067088801  0.067823595            4 
  953000    1.1180999   -4.1527254    768.88962   0.06723414  0.067810742            1 
  954000    1.0834811   -4.1699781    764.48496   0.06677891  0.067797248            1 
  955000     1.086844   -4.1516265     769.4962  0.067146265  0.067784469            3 
  956000    1.0944245   -4.1555305    768.11207  0.066955375  0.067771534            3 
  957000    1.1166078   -4.1741895    769.12741  0.066973825  0.067759168            2 
  958000    1.0970315    -4.156075    771.07242  0.067073105  0.067746838            3 
  959000    1.0811337    -4.122822    771.56295  0.067045789  0.067734485            2 
  960000    1.1175412    -4.152544    770.16019  0.066854183  0.067721802            2 
  961000     1.079685   -4.1297484      773.513  0.067075356  0.067708805            3 
  962000    1.0573856   -4.1714319    773.32574  0.066989409  0.067695615            4 
  963000    1.0963289   -4.1238242    774.38555  0.067011556  0.067682729            2 
  964000    1.0911938   -4.1562596    773.76056  0.066888015  0.067670368            2 
  965000    1.0963199   -4.1776104    771.68134  0.066639148  0.067657284            2 
  966000    1.0937784   -4.1817923    773.44626  0.066722417  0.067644001            2 
  967000    1.0876989   -4.2000129    775.99824   0.06687334  0.067631298            2 
  968000    1.0942076   -4.1828147    776.54413  0.066851251  0.067617873            2 
  969000    1.0770533   -4.1510805    776.40781  0.066770538   0.06760459            2 
  970000    1.1095305   -4.1663417    777.71555  0.066814051  0.067591567            4 
  971000    1.1032211    -4.167465    779.51569  0.066899733  0.067578526            2 
  972000    1.1161072   -4.1531287    779.14737  0.066799329  0.067565355            2 
  973000    1.1029579   -4.1892507    780.56621  0.066852194  0.067552675            3 
  974000    1.0825155   -4.1700331    780.86292  0.066808943  0.067540108            2 
  975000    1.1092048   -4.1721018    777.01188  0.066411272  0.067526637            2 
  976000    1.0880867   -4.1637904    782.84727  0.066841467  0.067513387            3 
  977000    1.1174136   -4.1526512    785.89527  0.067033033  0.067500614            4 
  978000    1.0862954   -4.1734143    781.62454  0.066600591  0.067487947            4 
  979000    1.0995858   -4.1624524    783.89015  0.066725413  0.067474739            2 
  980000    1.0771072   -4.1273445    786.86662  0.066910427  0.067461906            2 
  981000    1.0815265   -4.1687547    784.73361  0.066661027  0.067449325            3 
  982000    1.1014273   -4.1513283    786.30663  0.066726632  0.067436501            2 
  983000    1.0804842   -4.1673288    785.62852  0.066601265  0.067423388            3 
  984000     1.072265   -4.1262718    789.77349  0.066884612  0.067409877            3 
  985000    1.0831926    -4.117283    791.68222  0.066978191  0.067397635            1 
  986000    1.0712269   -4.1602001    790.94267  0.066847758    0.0673851            2 
  987000    1.1098702    -4.140831    793.32398  0.066981086  0.067372924            2 
  988000    1.0837526   -4.1391275    793.19348  0.066902284  0.067361249            1 
  989000    1.0975528   -4.1435793    791.15537  0.066662906  0.067349011            3 
  990000    1.0986252   -4.1379463    791.88601  0.066657071  0.067336031            3 
  991000    1.0888159   -4.1343956    794.52002  0.066811303   0.06732339            2 
  992000    1.0826106   -4.1511001     793.0651  0.066621732  0.067310044            3 
  993000    1.0931562    -4.168103    792.90323  0.066541056  0.067296713            2 
  994000    1.0995712   -4.1254466    795.58494  0.066698939  0.067282689            2 
  995000    1.0555304   -4.1800004    793.22607  0.066434344  0.067268865            4 
  996000    1.0814297      -4.1646    793.91681  0.066425436   0.06725492            4 
  997000    1.1119816    -4.172476    791.46263   0.06615368  0.067240915            2 
  998000    1.1136993   -4.1509268    793.04224  0.066219292  0.067226872            2 
  999000    1.0974476    -4.160854    793.68467  0.066206596  0.067212839            3 
 1000000    1.0710512   -4.1268301     797.9623  0.066496859  0.067198765            4 
 1001000    1.0973551   -4.2125489    795.13423  0.066194991  0.067184739            3 
 1002000    1.1006773   -4.1652156     798.3434  0.066395825  0.067170546            2 
 1003000    1.0826069   -4.1594009     797.5378  0.066262695  0.067156027            2 
 1004000    1.1047998   -4.1401054    796.63119  0.066121447   0.06714097            6 
 1005000    1.1110986   -4.1542142     799.4771  0.066291633  0.067126373            2 
 1006000    1.1050073   -4.1530064    798.18698  0.066118868  0.067111868            3 
 1007000    1.1019858   -4.1755235    800.38287  0.066234928  0.067096921            3 
 1008000    1.0977567   -4.1823862    795.31625  0.065750351  0.067081625            4 
 1009000    1.0791162   -4.1843315    798.47543  0.065946104  0.067066517            3 
 1010000     1.099067   -4.1474011    799.09794  0.065932173  0.067051455            2 
 1011000     1.074977   -4.1937046    800.23098  0.065960351  0.067037166            2 
 1012000    1.0920041   -4.1360884    802.70506  0.066098901  0.067022326            3 
 1013000    1.0660746   -4.2055904    799.03441  0.065731689  0.067007133            3 
 1014000     1.108767   -4.1416275    807.12897  0.066332098  0.066991868            3 
 1015000    1.0883297    -4.184765    802.95858   0.06592435   0.06697654            2 
 1016000    1.1040681   -4.1694438     801.4553  0.065736163  0.066961419            4 
 1017000    1.1122807   -4.1322745    805.56171  0.066008006  0.066945957            2 
 1018000    1.0884766   -4.1646074    809.51852   0.06626707   0.06693146            5 
 1019000    1.0975321   -4.1796334    804.64473  0.065803462  0.066916166            1 
 1020000    1.0916757   -4.1587282    804.13693  0.065697462  0.066901179            2 
 1021000    1.1002594   -4.1537189    809.57938  0.066077324  0.066885898            3 
 1022000    1.0905025   -4.1501883    810.24126  0.066066639  0.066870807            2 
 1023000    1.0695486   -4.1417464     808.2514  0.065839964  0.066855965            2 
 1024000    1.0768347   -4.1747829    811.07442  0.066005405  0.066841276            5 
 1025000    1.0737677   -4.2046162    808.57099  0.065737479  0.066825629            5 
 1026000    1.0719158   -4.1907654    809.04296  0.065711741  0.066810059            2 
 1027000    1.0751269   -4.1686413    808.36345   0.06559262  0.066794611            2 
 1028000    1.0796435   -4.1734994    808.03601  0.065502271   0.06677979            2 
 1029000    1.0796672   -4.1489625    810.00527  0.065598094  0.066764042            4 
 1030000    1.0720351   -4.1200131    814.41951  0.065891546  0.066749367            3 
 1031000    1.0855085    -4.195523    812.26858  0.065653781  0.066734081            3 
 1032000    1.1032512   -4.1711973    814.00199  0.065730135  0.066718808            2 
 1033000    1.0807543   -4.1816688    810.07716  0.065349884  0.066702847            3 
 1034000    1.1122445   -4.1745046     813.5171  0.065563919  0.066687462            2 
 1035000    1.0934608   -4.1588349    815.54621  0.065663946  0.066672686            3 
 1036000    1.0949863   -4.1893417    814.71214  0.065533474   0.06665859            5 
 1037000    1.0671279   -4.1841793     820.1701   0.06590888  0.066643623            4 
 1038000     1.082888   -4.1507401    818.48533  0.065710126  0.066629099            4 
 1039000    1.0901241   -4.1372284    820.06741  0.065773774  0.066614689            6 
 1040000    1.0775622   -4.1444429    820.28128  0.065727667  0.066600551            3 
 1041000    1.0693712   -4.1766393    820.23268  0.065660637  0.066586057            4 
 1042000    1.0709114    -4.176208    820.03973  0.065582192  0.066571786            3 
 1043000    1.0961177   -4.1724078    824.66421  0.065888799  0.066557814            2 
 1044000    1.0861452   -4.1728898    822.78919  0.065676021  0.066543845            3 
 1045000    1.0811848   -4.1778541    821.32997  0.065496808  0.066528688            9 
 1046000    1.1135067   -4.1879411    821.37706  0.065437943  0.066514328            3 
 1047000    1.0817953    -4.135039    826.67662  0.065797248  0.066499486            3 
 1048000      1.09736   -4.1433103    825.43024  0.065635356  0.066485441            1 
 1049000    1.0842966   -4.1600121    824.84771  0.065526511  0.066470952            2 
 1050000    1.0652451   -4.1564699    826.60059  0.065603221  0.066456695            2 
 1051000    1.0576579   -4.1476557    827.12959  0.065582746  0.066442533            1 
 1052000    1.0943561   -4.1368413    826.76056  0.065491172  0.066428015            1 
 1053000    1.0861061   -4.1865567    828.24886   0.06554676  0.066413721            2 
 1054000    1.1032209   -4.1566717    828.45842   0.06550114  0.066399206            4 
 1055000     1.066644   -4.1538479    825.72539  0.065223174  0.066384608            1 
 1056000    1.0881639   -4.1764394    829.74178   0.06547836  0.066369683            3 
 1057000    1.0672679   -4.2049083    826.57001  0.065166352  0.066355019            4 
 1058000     1.096121    -4.199242    828.59057  0.065263907  0.066340001            2 
 1059000    1.0775001   -4.1970959    827.33657  0.065103601  0.066325064            3 
 1060000    1.0802486   -4.1485752    832.38989  0.065439457   0.06630988            3 
 1061000    1.0569068   -4.1806052    833.20753  0.065441999  0.066294638            3 
 1062000    1.0836178   -4.1989469    832.77211  0.065346211  0.066279465            3 
 1063000    1.0757265   -4.1739666    830.08131  0.065073793  0.066264217            3 
 1064000    1.0940511   -4.1680116    835.06815  0.065403207   0.06624955            3 
 1065000    1.0623453   -4.1687533    834.17864  0.065272194  0.066234846            2 
 1066000    1.0795496   -4.1379874    836.88841  0.065422796  0.066220795            2 
 1067000     1.082436   -4.1546133    838.76276  0.065507869  0.066206833            2 
 1068000    1.0682538   -4.1780057    840.14077  0.065554055  0.066192465            3 
 1069000    1.0684217   -4.1704886    840.21818  0.065498767  0.066178192            3 
 1070000    1.0845808   -4.1731699    842.13435  0.065586788  0.066164397            2 
 1071000    1.0886932   -4.1861159    842.37374  0.065544175  0.066151484            4 
 1072000    1.0883824   -4.1761776    842.31453   0.06547843  0.066138146            5 
 1073000    1.0740424   -4.1512949    841.23068   0.06533323  0.066124303            3 
 1074000    1.0993901   -4.1433014    846.41737  0.065674843  0.066110808            3 
 1075000    1.1146365   -4.1807066      845.452  0.065538915  0.066097539            3 
 1076000    1.0645157   -4.2086236    843.60677  0.065335097  0.066083664            2 
 1077000    1.0770215   -4.1531315    848.32463  0.065639479  0.066070635            2 
 1078000    1.0851589   -4.1909834    846.36422  0.065427042  0.066056824            2 
 1079000    1.0655162   -4.1609073    844.12254  0.065193276   0.06604334            1 
 1080000    1.0886356   -4.1653508    847.64872  0.065404994  0.066029622            2 
 1081000    1.0709334   -4.1788795    851.14125  0.065613726  0.066016138            3 
 1082000    1.0621721   -4.1651594    846.93974  0.065229493  0.066003014            2 
 1083000     1.076811    -4.154091      849.294  0.065350416  0.065988942            3 
 1084000    1.0775449   -4.1837476    844.96422  0.064957274   0.06597449            4 
 1085000    1.1039346   -4.1728111    847.48681  0.065091153  0.065959229            1 
 1086000    1.0689035   -4.2048012    844.00901   0.06476435  0.065944361            5 
 1087000     1.084835   -4.1843493    848.17184  0.065023907  0.065929871            2 
 1088000    1.0958183    -4.166852    848.90208  0.065020074  0.065915626            2 
 1089000    1.0765664   -4.1796191    853.07754  0.065279885  0.065901236            4 
 1090000    1.0726226   -4.2069868    852.46826  0.065173414  0.065887282            2 
 1091000     1.077851    -4.185825    851.40523   0.06503248  0.065872976            2 
 1092000    1.0677122   -4.1872871    851.30778   0.06496549  0.065857956            7 
 1093000    1.0668931   -4.1727651    852.71859  0.065013616  0.065843514            3 
 1094000    1.0723475   -4.2043528     851.7458  0.064880088  0.065828453            2 
 1095000    1.0783274   -4.1879508    853.46829  0.064951924  0.065813435            3 
 1096000    1.1040061   -4.1588007    852.81414  0.064842924  0.065798601            3 
 1097000    1.0798401   -4.1752739    855.59486  0.064995051  0.065783377            2 
 1098000    1.0839087   -4.1956609    854.86889   0.06488076  0.065767987            4 
 1099000    1.0859028   -4.1764949    858.89966  0.065127363  0.065752732            2 
 1100000    1.0576493   -4.1763745    852.43579  0.064578469  0.065737957            7 
 1101000    1.1031621   -4.1703432    857.81667  0.064927087  0.065722757            3 
 1102000    1.0574298   -4.1716279      858.867  0.064947595  0.065708477            3 
 1103000    1.0906072   -4.1893248    859.59283   0.06494355  0.065694155            2 
 1104000     1.081051    -4.177287    858.42955  0.064796916  0.065679701            3 
 1105000    1.0835763   -4.1554406    863.80318  0.065143528  0.065664757            1 
 1106000    1.0788901   -4.1948235    859.61605  0.064769141  0.065650646            2 
 1107000    1.0741705   -4.2091072    863.91259   0.06503407  0.065636409            2 
 1108000    1.0672414   -4.1892255    864.09702  0.064989246  0.065622831            2 
 1109000     1.094558   -4.1929802    864.32698  0.064947925  0.065608796            3 
 1110000    1.0543574   -4.2111383    861.49665  0.064676925  0.065594618            4 
 1111000    1.0690663   -4.1936616      864.871  0.064871812  0.065579744            3 
 1112000    1.0702323   -4.2000947    863.86904  0.064738387  0.065565741            2 
 1113000    1.0760384   -4.2007194    865.84429  0.064828114  0.065551266            3 
 1114000    1.0602195   -4.1720369     870.7105  0.065133939  0.065537445            3 
 1115000    1.0619587   -4.1980781    867.24291  0.064816361  0.065523687            3 
 1116000    1.0655412   -4.1811418    866.60823  0.064710889  0.065509364            2 
 1117000    1.0697776    -4.162802    869.69307  0.064883099  0.065495281            1 
 1118000    1.0715389   -4.1621335     869.3507  0.064799545  0.065481101            4 
 1119000    1.0828538   -4.1597505     868.9563  0.064712266  0.065467131            3 
 1120000    1.0662173   -4.1814686    867.69141  0.064560373   0.06545247            1 
 1121000    1.0452481   -4.2068887    865.59607  0.064347017  0.065438047            2 
 1122000     1.038986    -4.211801    869.45772   0.06457648  0.065422955            3 
 1123000     1.072646   -4.1695079    867.86948  0.064401119  0.065408471            2 
 1124000    1.0703265    -4.211001    873.30725  0.064746979  0.065393606            1 
 1125000     1.054734    -4.209377     873.2447  0.064684792  0.065378921            3 
 1126000    1.0558103    -4.212175    869.99615  0.064386926  0.065364213            4 
 1127000    1.0729333   -4.1925674    874.52399  0.064664595  0.065349834            1 
 1128000     1.063745   -4.1209105    878.19519  0.064878486  0.065335745            3 
 1129000    1.0697615   -4.1823063    870.68029  0.064266333  0.065321598            3 
 1130000    1.0516839   -4.1982608     875.1799   0.06454129   0.06530747            4 
 1131000    1.0809896    -4.206878    877.48713  0.064654224  0.065293416            3 
 1132000     1.085642   -4.1861069    877.41945  0.064592127  0.065279502            3 
 1133000    1.0590527   -4.2082186    877.55164   0.06454484  0.065265496            2 
 1134000    1.0570396    -4.207807    881.51079  0.064778864  0.065251898            3 
 1135000    1.0878295   -4.1682399    883.29252  0.064852608  0.065238778            1 
 1136000    1.0464436   -4.2142504    878.69956  0.064458595  0.065225168            2 
 1137000    1.0837307   -4.2200252     880.8045  0.064556179  0.065211078            3 
 1138000     1.050084   -4.1987592    884.90502  0.064799723  0.065197605            3 
 1139000    1.0649167   -4.1826223    881.19498  0.064471392  0.065183684            2 
 1140000    1.0726447   -4.1945719    884.37731  0.064647465  0.065169741            3 
 1141000    1.0699229   -4.1887393     880.4672  0.064305229  0.065155922            7 
 1142000    1.0580924   -4.1960301    883.24315  0.064451485  0.065141737            4 
 1143000    1.0601597   -4.1967867    883.59557  0.064420791  0.065128101            5 
 1144000     1.062969   -4.1763691    884.83911  0.064455064  0.065113937            3 
 1145000    1.0866255   -4.1832754     887.7404  0.064609927  0.065099494            3 
 1146000    1.0892774   -4.2436762     877.4795   0.06380741  0.065084846            2 
 1147000    1.1022747   -4.1685784    886.18333  0.064384142  0.065070024            2 
 1148000    1.0619877   -4.2164714    886.06066  0.064319154  0.065055366            2 
 1149000    1.0524862   -4.2317043    884.64267  0.064160333  0.065040233            5 
 1150000    1.0503648    -4.200789    887.63459  0.064321347  0.065025949            3 
 1151000    1.0525359   -4.1870987    889.24889  0.064382341  0.065011588            3 
 1152000    1.0684765   -4.1812211    887.81867  0.064222994    0.0649972            2 
 1153000    1.0746305   -4.2083983    886.27376  0.064055635  0.064983065            2 
 1154000    1.0434158   -4.1708427    889.30735   0.06421919  0.064968594            2 
 1155000    1.0605458   -4.1649178     888.5205  0.064106818  0.064953795            4 
 1156000    1.0543417   -4.2225501    887.59771  0.063984841  0.064938495            7 
 1157000    1.0524264   -4.1983057    886.05876  0.063818695  0.064923199            3 
 1158000    1.0563498   -4.2296828    888.01789  0.063904569  0.064908083            2 
 1159000    1.0596201   -4.2109407    888.31746  0.063870971  0.064892899            4 
 1160000    1.0671684    -4.182174    888.17502  0.063805677  0.064877587            2 
 1161000    1.0648203   -4.1801845    889.40105   0.06383872  0.064862402            2 
 1162000    1.0697734   -4.2006848    892.16141  0.063981742  0.064847282            2 
 1163000    1.0727827   -4.2003146    891.63479  0.063888993  0.064831969            1 
 1164000    1.0705501   -4.1825044     894.0418  0.064006429  0.064816294            3 
 1165000     1.046157     -4.17834    895.14212  0.064030195   0.06480118            4 
 1166000    1.0730297   -4.1883666    895.40477  0.063994051  0.064786274            2 
 1167000    1.0793448    -4.199532    892.95775  0.063764478  0.064771107            2 
 1168000     1.063235   -4.2203886    895.57116  0.063896344  0.064755407            1 
 1169000    1.0449614    -4.200298    895.92668  0.063867029  0.064739859            3 
 1170000    1.0563811   -4.1859451    896.26373  0.063836448  0.064724383            4 
 1171000    1.0586659   -4.2072724    893.39692  0.063577919  0.064708632            2 
 1172000     1.066895   -4.2674854    892.21929  0.063439938  0.064692506            6 
 1173000    1.0574264   -4.1944965    892.16942  0.063382312  0.064676605            1 
 1174000    1.0629101   -4.2029239    892.36829  0.063342439  0.064660353            4 
 1175000    1.0732082   -4.2078937    896.68156  0.063594437  0.064643878            1 
 1176000    1.0711246   -4.1983951    899.01152  0.063705465  0.064627624            3 
 1177000    1.0641613   -4.1981149    897.10588  0.063516417  0.064610963            3 
 1178000    1.0578015    -4.198685    896.85744  0.063444923  0.064594911            4 
 1179000    1.0719104   -4.2358593     896.1835  0.063343476  0.064578957            3 
 1180000    1.0460375   -4.1812351    898.93489  0.063484102  0.064562915            3 
 1181000    1.0705884   -4.1964416    903.45398  0.063749222  0.064546715            1 
 1182000     1.059028   -4.2166849    899.33022  0.063404556  0.064530821            2 
 1183000    1.0612171   -4.2238561    897.36757  0.063212706   0.06451443            3 
 1184000    1.0561923   -4.2179548     901.3312  0.063438288  0.064497745            4 
 1185000    1.0660518   -4.2100662    903.13842  0.063511844   0.06448193            3 
 1186000    1.0889575   -4.2202825    900.74822  0.063290347  0.064465927            4 
 1187000    1.0801151   -4.2113948    904.32069  0.063487833  0.064449765            3 
 1188000    1.0516943   -4.1998251    904.63854  0.063456687  0.064433554            6 
 1189000    1.0944569   -4.2132854    903.76273  0.063341935  0.064417841            3 
 1190000    1.0640173   -4.2138838    904.76306  0.063358758  0.064402273            2 
 1191000    1.0433361   -4.1833924    911.50521  0.063777303  0.064386988            3 
 1192000    1.0349335   -4.2558866    904.09674  0.063205868  0.064371563            3 
 1193000    1.0694636   -4.2243417     910.0542  0.063569028  0.064355634            1 
 1194000    1.0829466   -4.1963021    911.18001  0.063594362   0.06433994            6 
 1195000     1.078069   -4.1978853    912.29681  0.063619024  0.064324833            4 
 1196000    1.0631047   -4.2069992    909.21654  0.063351208  0.064309714            2 
 1197000    1.0619305   -4.1796191    914.04952  0.063634748  0.064294416            6 
 1198000    1.0283815   -4.2107536    911.50256  0.063404463  0.064279314            5 
 1199000    1.0700819   -4.2356156    910.65675  0.063292796   0.06426362            8 
 1200000    1.0616051    -4.215491    912.73787  0.063384574  0.064249029            4 
 1201000    1.0766868   -4.2253045    915.09597  0.063495418  0.064233954            2 
 1202000    1.0450604   -4.2266894    916.25946  0.063523257  0.064219468            2 
 1203000    1.0452073   -4.2120577     916.1217   0.06346091  0.064205054            4 
 1204000    1.0426667    -4.193678    914.88248  0.063322431  0.064190469            5 
 1205000    1.0726033   -4.2358788    918.47261  0.063518161  0.064176301            4 
 1206000    1.0575507   -4.1963397    923.61533  0.063820849  0.064162206            2 
 1207000    1.0746187   -4.1819715     922.1333  0.063665652  0.064148303            2 
 1208000    1.0592158   -4.2075177    918.62625  0.063371016  0.064134207            2 
 1209000    1.0746098   -4.1784963    921.00808  0.063482774  0.064119857            4 
 1210000    1.0459356   -4.2188124    919.51747  0.063327649  0.064105167            2 
 1211000    1.0342051   -4.2198917    920.66036  0.063354002  0.064090678            4 
 1212000    1.0765723    -4.212045    919.17086  0.063199317  0.064075836            3 
 1213000    1.0574212   -4.2030143    921.66729   0.06331872   0.06406105            1 
 1214000    1.0763875   -4.2345571    921.76378  0.063273186  0.064046358            2 
 1215000    1.0511503   -4.2060197     919.4448  0.063062058  0.064031365            3 
 1216000    1.0642909   -4.2204388    924.63405   0.06336582  0.064016996            3 
 1217000    1.0490789   -4.2268598    927.69569  0.063523397  0.064002214            1 
 1218000     1.088706   -4.2508342    924.49905  0.063252535  0.063987743            4 
 1219000    1.0542886   -4.2226802     925.5136  0.063270003  0.063973495            2 
 1220000     1.047768   -4.2291588    924.99872  0.063182973  0.063959368            2 
 1221000    1.0486151   -4.2122395     930.0368  0.063475075  0.063945284            2 
 1222000    1.0652531   -4.2147824    929.25137   0.06336957   0.06393088            4 
 1223000    1.0394451   -4.1837017    934.37265  0.063666711  0.063916507            4 
 1224000    1.0475188   -4.2624543    929.80042  0.063303406  0.063902354            3 
 1225000    1.0563502   -4.1967912    928.55732  0.063167164  0.063888444            2 
 1226000    1.0618727   -4.2320888    928.72918  0.063127324  0.063874418            5 
 1227000    1.0523212    -4.209244    932.63925  0.063341433  0.063860131            3 
 1228000    1.0345969   -4.2275259    930.46598  0.063142371  0.063846376            3 
 1229000    1.0446189    -4.204404    934.46367   0.06336206  0.063832451            3 
 1230000    1.0603402   -4.1986371    933.09761  0.063217995  0.063818792            3 
 1231000    1.0485213   -4.2546136    930.46917  0.062988706  0.063804329            1 
 1232000    1.0566328   -4.1826095    934.52857  0.063212159   0.06379023            4 
 1233000    1.0623238    -4.236362    934.60845  0.063166291  0.063776376            1 
 1234000    1.0719902   -4.2365059    934.93626  0.063137241  0.063762476            2 
 1235000    1.0469602   -4.2034166    935.31582  0.063111728   0.06374808            2 
 1236000    1.0865205   -4.2158763    934.40525  0.062999275  0.063733843            3 
 1237000    1.0526128   -4.2194135    934.12623  0.062929549  0.063719611            3 
 1238000    1.0507905   -4.2027088    935.63235  0.062980099  0.063705398            2 
 1239000    1.0443271   -4.2405099     935.9617  0.062951419   0.06369119            2 
 1240000    1.0460161   -4.2715624    933.40569  0.062728877  0.063676262            2 
 1241000    1.0529745   -4.2330902     938.6508   0.06303054  0.063661067            2 
 1242000    1.0553988   -4.2025052    938.14738  0.062946013  0.063646564            3 
 1243000     1.050505   -4.2388975    937.00866   0.06281903  0.063632171            2 
 1244000    1.0582415   -4.2344529    938.25792  0.062852218  0.063617628            3 
 1245000    1.0644355   -4.2247342    941.35183  0.063008824  0.063603203            6 
 1246000    1.0345669   -4.2187607    936.34207  0.062623199  0.063588827            5 
 1247000    1.0680436    -4.230447    940.90524  0.062877923  0.063574406            2 
 1248000    1.0701067   -4.2442754    943.06431  0.062971709  0.063560312            3 
 1249000    1.0353348   -4.2112252    941.71344  0.062831161  0.063545789            4 
 1250000    1.0437305   -4.2361759    944.91215  0.062994144  0.063531651            4 
 1251000    1.0513287   -4.2382884    943.85863   0.06287361  0.063517573            4 
 1252000    1.0598736   -4.2148956    942.12944  0.062708296  0.063503738            3 
 1253000    1.0450347   -4.2232549    945.82526  0.062904048  0.063489401            3 
 1254000    1.0570116    -4.252358    947.78906  0.062984387  0.063475093            3 
 1255000    1.0395304   -4.2034324      946.389  0.062841235  0.063461274            3 
 1256000    1.0334293     -4.24032    944.68694  0.062678273  0.063447113            1 
 1257000    1.0336397   -4.2570611    945.80013   0.06270221  0.063432789            4 
 1258000    1.0685709    -4.226567    947.64201  0.062774378  0.063418756            5 
 1259000    1.0669456   -4.2465448    949.80579  0.062867738  0.063404598            1 
 1260000    1.0343446   -4.2211548    952.98222  0.063027924  0.063390944            4 
 1261000    1.0493389   -4.2328971    950.77558  0.062832116  0.063377413            3 
 1262000    1.0456445   -4.2242026    953.54873  0.062965447  0.063363909            5 
 1263000    1.0340579   -4.2224052    955.75795  0.063061359  0.063350293            3 
 1264000    1.0755406   -4.2627973    952.98112  0.062828396  0.063337001            1 
 1265000    1.0449956   -4.2290244    952.46416  0.062744675  0.063323578            2 
 1266000    1.0596948    -4.252351    952.04031  0.062667214  0.063309834            2 
 1267000    1.0412951   -4.2094711    958.49342  0.063042187  0.063296223            7 
 1268000    1.0383969   -4.2306973    953.13554  0.062640348  0.063282859            7 
 1269000    1.0350666    -4.228524    957.89965  0.062903838  0.063269356            1 
 1270000    1.0309512   -4.2303191    954.56763  0.062635671  0.063256398            2 
 1271000    1.0417496   -4.2484358    955.66044  0.062658041  0.063242994            7 
 1272000    1.0542221   -4.2632483    954.93538   0.06256128  0.063229445            2 
 1273000    1.0498069   -4.2119623    954.74474  0.062499656  0.063216279            3 
 1274000     1.021319   -4.2503763     954.2587  0.062418805  0.063202195            2 
 1275000    1.0503212   -4.2311429    959.35168  0.062702724  0.063188355            4 
 1276000    1.0408962   -4.2426875    960.39905  0.062721986  0.063174542            3 
 1277000    1.0384008   -4.2403931    955.22219  0.062335042  0.063161037            1 
 1278000    1.0533449   -4.2107385    961.33551  0.062684893  0.063147129            5 
 1279000    1.0655037   -4.2471968    959.26014  0.062500661  0.063133076            3 
 1280000    1.0667442   -4.2170158    964.72725  0.062807763  0.063119592            3 
 1281000    1.0290915   -4.2555512    962.67933  0.062625509  0.063105808           10 
 1282000    1.0475473   -4.2339154    964.57524  0.062699899  0.063092069            3 
 1283000    1.0259102   -4.2458169    962.79952  0.062535693  0.063078366            1 
 1284000    1.0575736    -4.237941    965.95116  0.062691534  0.063064767            3 
 1285000    1.0454125   -4.2512109    965.63081  0.062621972  0.063051128            7 
 1286000    1.0700112   -4.2331812    966.30074  0.062616689  0.063037918            3 
 1287000    1.0685774   -4.2356317    968.37526  0.062702361  0.063024654            4 
 1288000    1.0496939   -4.2290893    968.39694  0.062655081  0.063011564            4 
 1289000    1.0482275   -4.2194911    971.09563  0.062780944  0.062998403            5 
 1290000    1.0471378   -4.2619958     964.2177  0.062287965  0.062984871            2 
 1291000    1.0454172   -4.2391808    965.68659  0.062334534  0.062971567            4 
 1292000    1.0509165   -4.2309767    971.43824  0.062657265  0.062958421            8 
 1293000    1.0664655   -4.2177747    975.59604  0.062876775  0.062945756            3 
 1294000    1.0494615   -4.2460878    968.00732  0.062339472  0.062932347            2 
 1295000     1.042983   -4.2252823    971.55676   0.06251974  0.062918879            3 
 1296000    1.0289074   -4.2257105    974.06704  0.062632911  0.062905747            5 
 1297000    1.0249508     -4.24255    974.88764  0.062637345  0.062892366            3 
 1298000     1.066671   -4.2208772    973.95039  0.062528915  0.062878945            3 
 1299000    1.0274477   -4.2245776    971.66752  0.062334329  0.062865473            2 
 1300000    1.0466371   -4.1979069    977.42455   0.06265542  0.062852123            4 
 1301000    1.0604543   -4.2639771    975.30849   0.06247172  0.062838835            3 
 1302000    1.0494555   -4.2419326    977.80581  0.062583577  0.062825907            3 
 1303000    1.0524884   -4.2509635    979.00294  0.062612109  0.062813183            5 
 1304000    1.0270396   -4.2324523    980.57727  0.062664703  0.062800127            3 
 1305000    1.0388697   -4.2368412    976.13319  0.062332898  0.062786698            3 
 1306000     1.065784   -4.2487733    976.31636  0.062296858  0.062773561            3 
 1307000    1.0259138   -4.2377381    981.94839  0.062608288  0.062760331            3 
 1308000    1.0503956   -4.2264492    978.72947  0.062355344  0.062747218            2 
 1309000    1.0244027   -4.2692011    975.06892   0.06207467  0.062733643            3 
 1310000    1.0301328   -4.2372263    983.05854  0.062535531  0.062720349            6 
 1311000      1.02714    -4.238438    982.97841  0.062482737  0.062707151            4 
 1312000    1.0585507   -4.2261726    981.72424  0.062355452  0.062694334            3 
 1313000    1.0491634   -4.2304254    981.38848  0.062286651  0.062680919            2 
 1314000     1.052825   -4.2562204    980.37236  0.062174807  0.062667693            3 
 1315000    1.0279755   -4.2081942    982.33098  0.062251646  0.062654513            6 
 1316000    1.0417581   -4.2812116    976.05193  0.061806733  0.062641187            3 
 1317000    1.0498219   -4.2402761    983.85398  0.062253479  0.062627994            3 
 1318000    1.0486775   -4.2621123    983.68219  0.062195384  0.062614764            3 
 1319000    1.0324912   -4.2679537     982.6074  0.062080326  0.062601418            3 
 1320000    1.0473856    -4.251998    982.84298  0.062048168   0.06258815            3 
 1321000    1.0560975   -4.2539321    986.77958  0.062249532  0.062575379            5 
 1322000    1.0324722   -4.2460423    986.06319  0.062157287  0.062562465            2 
 1323000    1.0238433   -4.2261229      990.089  0.062363882  0.062549944            2 
 1324000     1.023319   -4.2567793    989.02804  0.062250002  0.062537038            6 
 1325000    1.0280641   -4.2487708    989.17999  0.062212578  0.062524158            2 
 1326000    1.0163997   -4.2251617     991.7766  0.062328846  0.062511105            3 
 1327000    1.0448031   -4.2806585    990.31285  0.062189955  0.062498566            3 
 1328000    1.0409785   -4.2017302    994.69175  0.062417906  0.062485881            3 
 1329000    1.0439521   -4.2640281    991.03037  0.062141358  0.062472871            4 
 1330000    1.0396732   -4.2418071    990.21812  0.062043742  0.062459745            3 
 1331000    1.0600803   -4.2752611    988.39796  0.061883168  0.062446925            2 
 1332000    1.0248281     -4.22312    995.00278  0.062249924   0.06243451            2 
 1333000    1.0283643   -4.2501739    993.51303  0.062110092  0.062422137            2 
 1334000    1.0431621    -4.249506    994.26517  0.062110518  0.062409438            2 
 1335000    1.0325498   -4.2331968    997.21962  0.062248416  0.062396893            3 
 1336000    1.0387636   -4.2427039    999.21347   0.06232619  0.062385227            2 
 1337000     1.043932   -4.2713194    998.55317  0.062238417  0.062373288            3 
 1338000    1.0246886   -4.2372391    1002.6025  0.062444102  0.062361665            2 
 1339000    1.0160366    -4.278293    995.71546  0.061968849   0.06234946            2 
 1340000    1.0382751   -4.2682277    993.82425  0.061804991  0.062337396            4 
 1341000    1.0350954   -4.2151094    1003.7973  0.062378656  0.062325873            2 
 1342000    1.0379382   -4.2416865    1003.9706  0.062342932  0.062314138            2 
 1343000    1.0372731   -4.2229583    1010.0436  0.062673343  0.062302652            2 
 1344000    1.0253352   -4.2396315    1005.1901  0.062325777  0.062291185            1 
 1345000    1.0399835    -4.233688    1002.8202  0.062132605  0.062279514            4 
 1346000    1.0466911   -4.2572525    1005.3195  0.062241177  0.062267752            3 
 1347000    1.0694856   -4.2776088    1004.8883  0.062168291  0.062255673            2 
 1348000    1.0558252   -4.2406013    1002.3234  0.061963612   0.06224358            6 
 1349000    1.0428457    -4.245429    1005.4156  0.062108701  0.062231631            2 
 1350000    1.0378566   -4.2749831     1004.533  0.062008212  0.062219617            3 
 1351000    1.0419602   -4.2508686    1007.9506   0.06217312  0.062207884            3 
 1352000    1.0240994   -4.2588593    1007.2547  0.062084242  0.062196044            3 
 1353000    1.0322501   -4.2440051    1007.6229  0.062061034  0.062184314            7 
 1354000    1.0097561    -4.260152    1007.2001  0.061989173    0.0621725            2 
 1355000    1.0118352    -4.238043    1008.2265  0.062006549  0.062161096            4 
 1356000    1.0362969   -4.2540319    1011.7762  0.062178968  0.062149533            3 
 1357000    1.0580311   -4.2245056     1011.313  0.062104702  0.062138147            2 
 1358000    1.0338583   -4.2399625    1009.9065  0.061972661   0.06212696            3 
 1359000    1.0157892   -4.2404505    1009.0525  0.061874695  0.062115469            4 
 1360000    1.0266054   -4.2697772     1008.834   0.06181581  0.062103874            3 
 1361000    1.0435666   -4.2742962    1011.8874  0.061957348  0.062091673            2 
 1362000    1.0424615    -4.218763    1019.2216  0.062360595  0.062080057            4 
 1363000    1.0322156   -4.2598767    1014.8809  0.062049456  0.062068397            4 
 1364000    1.0412666    -4.249437     1014.628  0.061988517  0.062056912            2 
 1365000    1.0330345   -4.2686894    1012.5425  0.061815784  0.062045391            4 
 1366000    1.0593052   -4.2515208    1017.5253  0.062074504  0.062034002            2 
 1367000    1.0393047    -4.254768    1020.8634  0.062232589  0.062022875            6 
 1368000    1.0377021   -4.2336677    1020.0034  0.062134713  0.062011709            7 
 1369000     1.055373   -4.2320867    1016.5552  0.061879423   0.06200038            2 
 1370000    1.0208665   -4.2432905     1018.633  0.061960646  0.061989208            3 
 1371000    1.0284374   -4.2709964    1020.0401  0.062000981  0.061977866            4 
 1372000    1.0317991   -4.2547445    1019.4275  0.061918579  0.061966387            1 
 1373000    1.0239135   -4.2669671    1018.8727   0.06183981   0.06195482            6 
 1374000    1.0146103   -4.2471641    1019.9479  0.061860011  0.061942935            3 
 1375000    1.0302063   -4.2395265    1021.2159  0.061891874  0.061930652            1 
 1376000     1.046248   -4.2656302    1025.4869  0.062105556  0.061919059            1 
 1377000     1.037126   -4.2549175    1023.4868  0.061939407  0.061907003            2 
 1378000    1.0208314   -4.2511591    1026.2263  0.062060131  0.061895333            3 
 1379000     1.020325    -4.252482    1025.3322  0.061961093  0.061883817            3 
 1380000    1.0355358    -4.232399    1023.7847  0.061822747  0.061872155            4 
 1381000    1.0313917   -4.2659107    1026.1254  0.061919223  0.061860651            4 
 1382000    1.0227234   -4.2460345    1027.5344  0.061959382   0.06184873            3 
 1383000    1.0438012   -4.2502816    1025.6951  0.061803755  0.061836995            7 
 1384000    1.0247274   -4.2714131    1026.3681  0.061799618  0.061825235            2 
 1385000    1.0449718   -4.2680328    1022.3775   0.06151489  0.061813405            3 
 1386000    1.0445363   -4.2630694    1025.2266  0.061641813  0.061801573            4 
 1387000   0.99624501   -4.2712447    1024.2998  0.061541682  0.061789407            3 
 1388000    1.0458097   -4.2651945    1025.5935  0.061575018  0.061777304            4 
 1389000    1.0358213   -4.2304417    1028.8141  0.061723909  0.061765474            5 
 1390000    1.0332435   -4.2437282    1026.3131  0.061529562  0.061753494            3 
 1391000    1.0323155   -4.2767461    1027.6729  0.061566794  0.061741631            4 
 1392000    1.0157175   -4.3034512    1023.7247  0.061286199  0.061729825            7 
 1393000    1.0084797   -4.2484954    1028.5268  0.061529478  0.061717797            2 
 1394000   0.98632763   -4.2597329    1032.7836  0.061739812  0.061706183            6 
 1395000    0.9914666   -4.2756672    1029.1416  0.061477993  0.061694135            4 
 1396000    1.0235762   -4.2487342    1032.1402  0.061612953  0.061682416            2 
 1397000    1.0216456     -4.25009    1030.9523  0.061497991   0.06167083            2 
 1398000    1.0351407   -4.2675163    1035.4188  0.061720242  0.061659249            3 
 1399000    1.0268549   -4.2943195    1033.2556  0.061547272  0.061647633            4 
 1400000    1.0236142   -4.2826275    1034.4803  0.061576206  0.061635743            2 
 1401000    1.0235715   -4.2878326    1032.2393  0.061398959  0.061623788            5 
 1402000    1.0357214   -4.2886998    1034.4687  0.061487678  0.061612239            3 
 1403000    1.0093531   -4.2468643    1037.2213   0.06160735  0.061600472            3 
 1404000    1.0390193   -4.2384519    1037.3446  0.061570783   0.06158852            4 
 1405000     1.045124   -4.2207045    1041.5685  0.061777491  0.061576903            4 
 1406000    1.0110448   -4.2802567    1037.3398  0.061482918  0.061565308            4 
 1407000    1.0323404   -4.2874193    1037.4052  0.061443096  0.061553511            5 
 1408000    1.0033196   -4.2569399    1040.5867  0.061587752  0.061541675            3 
 1409000    1.0158756    -4.219549    1042.2947  0.061645063   0.06153012            2 
 1410000    1.0317324   -4.2593647    1040.1664  0.061475556  0.061518731            2 
 1411000    1.0176556   -4.2523542    1047.1529  0.061844608  0.061507344            6 
 1412000     1.026166   -4.2571768    1039.5376  0.061351366   0.06149587            4 
 1413000     1.040002   -4.2979493    1046.0412   0.06169151  0.061484228            3 
 1414000    1.0273249   -4.2922914    1042.1639  0.061419369  0.061472466            2 
 1415000    1.0229626   -4.2554334    1044.1851  0.061494999  0.061461174            2 
 1416000    1.0475124   -4.2303378    1043.6625  0.061420814  0.061449697            4 
 1417000     1.030723   -4.2657413    1039.9274   0.06115781  0.061438534            2 
 1418000    1.0165384   -4.2908772    1045.2419  0.061427005   0.06142715            9 
 1419000    1.0080794   -4.2835801    1048.1845  0.061556523   0.06141562            3 
 1420000    1.0228826   -4.2814556    1042.9584  0.061206477  0.061404048            2 
 1421000    1.0536228   -4.2696453    1046.4409  0.061367635  0.061392564            2 
 1422000    1.0289036   -4.3255461    1041.0706  0.061009764  0.061380906            3 
 1423000    1.0092294   -4.2844858    1049.6998  0.061472232  0.061369598            2 
 1424000    1.0460158   -4.2706936    1049.3736  0.061409972  0.061358499            4 
 1425000       1.0137   -4.2618423     1048.026  0.061288069  0.061347484            3 
 1426000   0.99543998    -4.293117    1049.4485  0.061328219  0.061336486            2 
 1427000     1.018454   -4.2670878    1050.5773  0.061351164  0.061325629            4 
 1428000    1.0229312   -4.2863874    1048.5803  0.061191663  0.061314769            3 
 1429000    1.0346994   -4.2463329    1057.1311  0.061647484  0.061304045            2 
 1430000    1.0287161   -4.2697084    1056.1892  0.061549488  0.061293063            2 
 1431000    1.0047518    -4.222989    1059.9442  0.061725147  0.061282616            3 
 1432000    1.0260781   -4.2653032    1053.8517  0.061327496  0.061272179            2 
 1433000    1.0366901   -4.2694494    1055.8479  0.061400785  0.061261697            3 
 1434000    1.0189923   -4.2887513    1052.7051   0.06117533  0.061251056            4 
 1435000    1.0218548   -4.2674964    1058.3279   0.06145923  0.061240159            5 
 1436000    1.0127362   -4.2736406     1058.995  0.061455143  0.061229308            3 
 1437000    1.0359653   -4.2702381    1062.3045  0.061604298  0.061218376            2 
 1438000    1.0156427   -4.2859531    1061.6652  0.061524407  0.061207742            3 
 1439000    1.0294895   -4.2692976    1060.9229  0.061438665   0.06119709            3 
 1440000    1.0176453   -4.2825933    1061.6715  0.061439324  0.061186188            2 
 1441000    1.0358935   -4.3032659    1054.7194  0.060994645   0.06117543            3 
 1442000    1.0162156    -4.288665    1061.1749  0.061325411  0.061164672            6 
 1443000    1.0297195     -4.27676    1062.7002  0.061370998  0.061153992            5 
 1444000    1.0218168   -4.2685622    1063.4194  0.061370001  0.061143524            4 
 1445000    1.0268283   -4.2640685    1063.4257  0.061327898  0.061132993            2 
 1446000    1.0347197    -4.237943    1066.5807  0.061467307  0.061122192            5 
 1447000    1.0121065   -4.3030491    1061.5494  0.061135073  0.061111271            3 
 1448000    1.0036668   -4.2862436     1065.774   0.06133598    0.0611001            4 
 1449000      1.00625   -4.2701134    1064.4451  0.061217225  0.061089131            3 
 1450000     1.012085   -4.2581359    1066.6414   0.06130123  0.061078084            3 
 1451000    1.0335493   -4.3019774    1064.2768  0.061123179  0.061066866            4 
 1452000     1.027605   -4.2853457    1062.6434  0.060987338  0.061056188            2 
 1453000    1.0031546   -4.2762235    1067.9594  0.061250254  0.061045334            4 
 1454000    1.0295488   -4.2871833     1067.392   0.06117561  0.061034397            2 
 1455000    1.0162237   -4.2827898    1067.8493  0.061159755  0.061023401            2 
 1456000    1.0043405   -4.2758762    1068.2891  0.061142921  0.061012416            6 
 1457000    1.0276702   -4.2647705    1067.5926  0.061061117  0.061001498            3 
 1458000    1.0084953   -4.2996954    1069.2801  0.061115691  0.060991038            3 
 1459000     1.023578   -4.2616582    1070.7144   0.06115572  0.060980191            3 
 1460000    1.0085766   -4.2845599    1072.0278  0.061188804  0.060969777            3 
 1461000    1.0060571   -4.3036519    1069.6757  0.061012757  0.060959178            5 
 1462000    1.0324273   -4.2391763    1078.5535  0.061477057  0.060948831            3 
 1463000    1.0024197   -4.2810879    1072.0692  0.061065684  0.060938767            3 
 1464000    1.0202744   -4.2826819     1075.898  0.061241915  0.060928643            2 
 1465000    1.0192501   -4.3025794    1074.1182  0.061098874  0.060917866            4 
 1466000    1.0294226    -4.272451    1077.3549  0.061241183  0.060907925            4 
 1467000    1.0261011   -4.2912711    1079.5491  0.061324082  0.060897567            5 
 1468000    1.0325764   -4.2713899    1079.7908  0.061296026  0.060887535            6 
 1469000    1.0328829    -4.290052    1080.9115  0.061317873  0.060877638            4 
 1470000    1.0279316   -4.2524154    1079.3609  0.061188261  0.060867648            2 
 1471000    1.0091459   -4.2700581    1083.4614  0.061378963  0.060858052            3 
 1472000    1.0071526   -4.2847032    1080.8616  0.061190083  0.060847882            2 
 1473000    1.0396394   -4.2696892    1081.4164  0.061179926  0.060837654            3 
 1474000    1.0223872   -4.2429054    1089.6656  0.061604792  0.060827622            3 
 1475000    1.0006189   -4.3005807    1078.9397  0.060957044  0.060818104            3 
 1476000     1.013913   -4.2974434    1086.5227  0.061343874  0.060808699            3 
 1477000    1.0179927   -4.2599278    1084.9377  0.061212915  0.060799005            5 
 1478000    1.0237632   -4.3029064     1082.171  0.061015506  0.060789274            3 
 1479000    1.0087562   -4.2709334         1091  0.061471715  0.060779786            5 
 1480000    1.0272522   -4.2997389    1090.0183  0.061374907  0.060770543            7 
 1481000    1.0044482   -4.2855804    1087.5512  0.061194642  0.060761164            2 
 1482000    1.0091367   -4.2764218    1091.2312  0.061360276   0.06075181            3 
 1483000    1.0312905   -4.2908022    1087.7441  0.061122954  0.060742449            2 
 1484000    1.0098585   -4.3108655    1089.9499   0.06120563  0.060732715            6 
 1485000    1.0244207   -4.2427882    1090.7573  0.061209727  0.060723351            5 
 1486000    1.0124677   -4.2903089    1091.5999  0.061215787  0.060713696            2 
 1487000    1.0189406   -4.2993956    1091.0733   0.06114511  0.060703986            6 
 1488000    1.0337058   -4.3069075    1092.6162  0.061190423   0.06069397            3 
 1489000    1.0298117   -4.2860021    1092.1273  0.061121969  0.060683945            2 
 1490000    1.0044928   -4.2712943    1091.4522  0.061043189  0.060674054            1 
 1491000   0.99152243   -4.2770998    1089.9156  0.060916362  0.060664081            5 
 1492000    1.0241455   -4.2707548    1091.4438  0.060960892  0.060654013            4 
 1493000    1.0216167   -4.2860245    1093.0464  0.061009513  0.060644136            3 
 1494000   0.99888231   -4.3211198     1090.511  0.060827251  0.060634152            2 
 1495000    1.0195387   -4.2461512    1097.9392  0.061200624  0.060624433            6 
 1496000   0.99899623   -4.3257583    1092.5132  0.060857462  0.060614405            2 
 1497000    1.0334829   -4.2845772    1095.3614  0.060975363  0.060604558            3 
 1498000    1.0109282   -4.2606583     1099.562  0.061168334  0.060594851            4 
 1499000    1.0041131    -4.286796    1096.8455  0.060976511  0.060584703            3 
 1500000    1.0059665   -4.2702362    1099.2263  0.061068128  0.060574903            3 
 1501000    1.0047779    -4.294461    1098.7605  0.061001581  0.060564786            3 
 1502000    1.0425097   -4.3034435    1095.1137  0.060758641  0.060555227           10 
 1503000     1.007301   -4.3136064    1092.1536  0.060554093  0.060545253            4 
 1504000    1.0312342   -4.2933844    1096.6078  0.060760627  0.060535016            2 
 1505000    1.0258874   -4.2910994    1097.3834  0.060763201  0.060524705            4 
 1506000    1.0235391   -4.2658171    1099.4494  0.060837176  0.060514683            1 
 1507000    1.0038648   -4.2893833    1100.2823  0.060842863  0.060504518            4 
 1508000    1.0277151   -4.2807573    1100.8941  0.060836322  0.060494507            3 
 1509000    1.0145986   -4.3135611    1101.8919  0.060851111  0.060484532            3 
 1510000    1.0051898   -4.3053762     1100.306  0.060723292   0.06047475            3 
 1511000    1.0194285   -4.2985962    1104.9952  0.060941719  0.060464553            2 
 1512000    1.0017389   -4.3085772    1102.0013  0.060736401  0.060454718            2 
 1513000    1.0174123   -4.3285707    1101.7815  0.060684152  0.060444464            2 
 1514000    1.0176368   -4.3101669    1097.8786   0.06042925  0.060434299            4 
 1515000     1.023914   -4.2913009    1101.3055  0.060577863  0.060423839            2 
 1516000    1.0185612   -4.3035256    1103.7528  0.060672425  0.060413543            6 
 1517000    1.0169433   -4.3125836    1102.1695  0.060545458  0.060403062            2 
 1518000   0.98942459   -4.3136239    1105.2612  0.060675295  0.060392855            5 
 1519000     1.020113   -4.3076749    1106.1596  0.060684641   0.06038251            4 
 1520000    1.0219993   -4.2798379    1108.3221  0.060763275   0.06037207            1 
 1521000    1.0205378   -4.3204453    1101.1262  0.060329071  0.060361788            3 
 1522000    1.0004739   -4.2808028    1107.1635  0.060619988  0.060351498            3 
 1523000    1.0203586   -4.2908831    1106.6836  0.060553928  0.060341068            3 
 1524000    1.0028641   -4.3291558    1103.2803  0.060328101   0.06033018            4 
 1525000    1.0188836   -4.3351524    1103.3173  0.060290561   0.06031958            3 
 1526000    1.0268213   -4.2996385    1110.7772  0.060658431  0.060308892            4 
 1527000    1.0324461   -4.3053069     1108.252  0.060480899  0.060298027            9 
 1528000   0.97809319   -4.3219794    1106.0489  0.060321168  0.060287226            3 
 1529000   0.99746896   -4.3214872    1106.7985  0.060322567  0.060276451            5 
 1530000   0.98641052   -4.3065363      1109.89  0.060451526  0.060265624            5 
 1531000    1.0071391   -4.3281361     1106.765  0.060241946  0.060254873            4 
 1532000   0.99192263   -4.3229844    1110.6035  0.060411417  0.060244153            5 
 1533000     1.027329   -4.3072334    1115.4189  0.060633775  0.060233669            3 
 1534000    1.0260432   -4.3048138    1111.1241  0.060360937  0.060223407            7 
 1535000   0.99355547   -4.3103151    1112.4362  0.060392843  0.060213077            6 
 1536000    1.0031543   -4.2794527    1114.4392  0.060462194  0.060202548            3 
 1537000    1.0248193   -4.2694952    1116.3505  0.060526483  0.060192303            5 
 1538000    1.0164791   -4.2982599    1113.7603  0.060346789  0.060181656            3 
 1539000   0.99127887   -4.2543561    1117.3981  0.060504555  0.060171076            3 
 1540000    1.0250854   -4.2970797     1114.101  0.060286852  0.060160486            4 
 1541000    1.0211712   -4.2757236    1119.1367  0.060520049  0.060150063            2 
 1542000   0.98791502   -4.3015243    1117.9053  0.060414251  0.060139733            3 
 1543000    1.0379603   -4.3126258     1120.369  0.060508154   0.06012942            3 
 1544000    1.0018658   -4.2926671    1116.6508  0.060268287  0.060119019           11 
 1545000    1.0092989   -4.3093716    1121.9262   0.06051382  0.060108541           11 
 1546000    1.0051842   -4.2749064    1122.8427  0.060524079  0.060098761            1 
 1547000      1.00099   -4.3000635    1122.6278  0.060473378   0.06008853            5 
 1548000    1.0361912    -4.291417    1119.6247  0.060272649   0.06007812            4 
 1549000   0.99604638   -4.3165544    1120.8216  0.060298128  0.060068084            3 
 1550000     1.012824   -4.2869753    1125.8919  0.060531822  0.060057819            1 
 1551000    1.0126799   -4.3057697     1124.635  0.060425265  0.060047492            2 
 1552000    1.0219023   -4.3091285    1124.3072  0.060368731  0.060037035            4 
 1553000    1.0207776   -4.3099917    1125.2354  0.060379663  0.060026836            3 
 1554000    0.9898996   -4.3120149    1126.0583  0.060384937  0.060016351            3 
 1555000    1.0112757   -4.3091695    1121.2021  0.060085858  0.060005923            3 
 1556000    1.0209154   -4.3082113    1123.0878  0.060148234  0.059995928            2 
 1557000    1.0123539    -4.288044    1126.7282   0.06030444  0.059985964            2 
 1558000   0.96937559   -4.3229794    1130.2765  0.060455527  0.059975715            3 
 1559000    1.0135695   -4.2805251    1124.4713  0.060106444  0.059965472            3 
 1560000    1.0122555   -4.2984773     1127.529  0.060231251  0.059954745            3 
 1561000   0.97963676    -4.324113    1122.7403  0.059937022  0.059943919            2 
 1562000    1.0246045   -4.3126645    1124.3633  0.059985238  0.059932892            7 
 1563000    1.0032624   -4.3258896    1125.6834   0.06001724  0.059922131            3 
 1564000    1.0009375   -4.3054101    1122.6916  0.059819459  0.059911178            3 
 1565000   0.99520106   -4.3135996    1130.1026  0.060175858  0.059900599            5 
 1566000    1.0260676   -4.3282264    1127.0871  0.059976961  0.059889816            4 
 1567000    1.0187386   -4.3194835    1129.7609  0.060080882  0.059879112            3 
 1568000    1.0070859   -4.3328265    1130.8427  0.060100057    0.0598685            7 
 1569000    0.9718285   -4.2792794    1132.1664  0.060132057  0.059857852            2 
 1570000   0.98988503   -4.3310137    1130.1368   0.05998603  0.059847091            4 
 1571000   0.97943371   -4.3406382    1131.7698  0.060034466  0.059836635            4 
 1572000   0.99198539    -4.324098    1132.7009  0.060045636  0.059825881            4 
 1573000    1.0113741   -4.3100287     1132.745  0.060009803  0.059815073            6 
 1574000   0.98263914    -4.278649    1134.7232  0.060076411  0.059804532            3 
 1575000    1.0016797   -4.2938852    1134.8334  0.060044095  0.059794052            4 
 1576000   0.99524646   -4.3211965    1131.5675  0.059833309  0.059783423            7 
 1577000    1.0098628   -4.3016306    1130.2996  0.059728365  0.059772743            4 
 1578000   0.98967428   -4.3151551    1133.8634  0.059878717  0.059762214            2 
 1579000     1.009187    -4.321848     1136.033  0.059955297  0.059751381            5 
 1580000   0.99012404    -4.324797    1136.3148  0.059932213  0.059740813            3 
 1581000    1.0286385   -4.3117624    1137.1501  0.059938333   0.05973051            2 
 1582000    1.0168692   -4.3382116     1136.541  0.059868362  0.059720037            3 
 1583000   0.99653476   -4.3397729    1135.9134  0.059797507   0.05970987            3 
 1584000   0.99362879   -4.2911378    1140.1565  0.059982979  0.059699325            6 
 1585000    1.0194098   -4.3061289    1140.6663  0.059971942   0.05968889            1 
 1586000   0.99716986   -4.3239731    1139.3305  0.059863942  0.059678599            3 
 1587000    1.0013789   -4.3474723    1139.4922   0.05983471  0.059667697            4 
 1588000   0.99482085   -4.3496401    1137.1248  0.059672795   0.05965685            3 
 1589000    1.0085576   -4.3055451    1139.6966  0.059770116  0.059646239            3 
 1590000   0.96559656   -4.3099404    1140.2468  0.059761362  0.059635679            4 
 1591000     1.007187   -4.2808222    1142.2094  0.059826598   0.05962487            1 
 1592000    1.0010255   -4.3458748    1140.2796  0.059688002  0.059614191            3 
 1593000   0.99635951   -4.3096145     1142.458  0.059764488  0.059603266            3 
 1594000    0.9976585   -4.3406672    1140.1205  0.059604794  0.059592571            2 
 1595000    1.0080488   -4.3217167    1142.5769  0.059695765  0.059581834            4 
 1596000    0.9985096   -4.3176522    1149.7403  0.060032388  0.059571313            8 
 1597000    1.0079498   -4.3085047    1145.6485  0.059781284  0.059560649            6 
 1598000    1.0090988    -4.339266    1140.9292  0.059497769  0.059549843            1 
 1599000    1.0059303   -4.3206101    1149.8017  0.059922959  0.059539394            5 
 1600000   0.99469922   -4.2979244    1147.1783  0.059748871  0.059529308            3 
 1601000    1.0229081   -4.2905418     1144.489  0.059571571  0.059518869            2 
 1602000     0.990225   -4.2817546     1146.948    0.0596623  0.059508324            4 
 1603000   0.98641165   -4.3460581    1147.3187  0.059644349  0.059497468            4 
 1604000    1.0013971   -4.3464825    1144.9595  0.059484598  0.059487125            4 
 1605000   0.99279273   -4.3002892    1149.0291  0.059658831  0.059476494            2 
 1606000   0.97114148     -4.34682    1147.8933  0.059562747   0.05946575            8 
 1607000   0.98162341   -4.3260447    1152.1517  0.059746509  0.059455063            2 
 1608000    1.0115177   -4.3276514    1152.4564  0.059725144  0.059444248            4 
 1609000     1.005153   -4.3188224     1150.053  0.059563548  0.059433896            2 
 1610000     1.006172   -4.3339342    1148.3438  0.059438084  0.059423282            3 
 1611000   0.99020636   -4.3291796    1153.4464  0.059665135  0.059412422            2 
 1612000    1.0097583   -4.3273712    1151.2806  0.059516158  0.059401753            5 
 1613000   0.98269279   -4.3414025    1151.3903  0.059484928  0.059391193            4 
 1614000   0.99192953   -4.3392312    1150.8664  0.059421024  0.059380914            3 
 1615000   0.98579537   -4.3239182     1152.183  0.059452165   0.05937025            4 
 1616000   0.98733691   -4.3846978      1152.93  0.059453899   0.05935959            2 
 1617000   0.98543794   -4.3186077    1160.9257  0.059829193  0.059348888            2 
 1618000   0.98952648    -4.302378     1161.524  0.059823035  0.059338421            3 
 1619000   0.98636513   -4.3207621    1160.0216   0.05970875  0.059328068            2 
 1620000   0.99139768   -4.3690417    1153.4785  0.059335313  0.059317483            5 
 1621000   0.99451156   -4.3265842    1157.3976  0.059500183  0.059306762            3 
 1622000   0.98482537   -4.3402801    1153.1396   0.05924474  0.059296488            3 
 1623000   0.98939988    -4.316339    1161.1666  0.059620385  0.059285928            4 
 1624000   0.99398654   -4.3418395    1154.0264  0.059217284  0.059275245            5 
 1625000   0.97480004   -4.3372575    1162.8129  0.059631431  0.059264748            4 
 1626000    1.0026187   -4.3143124    1163.3786   0.05962375  0.059254097            5 
 1627000   0.99621062   -4.3222085    1165.4842  0.059694949  0.059243787            4 
 1628000   0.99397444   -4.3050246    1161.2048  0.059439232  0.059233465            2 
 1629000   0.98948721   -4.3615116    1162.4371   0.05946578  0.059222715            3 
 1630000    1.0076484    -4.324452     1163.702  0.059493967  0.059212235            5 
 1631000    1.0072422   -4.3222333    1162.3718  0.059389526  0.059201671            3 
 1632000   0.96766439   -4.3225212    1163.2021  0.059395531  0.059191406            3 
 1633000   0.98828762    -4.314039    1164.0255  0.059401178  0.059180786            3 
 1634000    1.0002533   -4.3697265    1158.7961  0.059098129  0.059170324            2 
 1635000   0.99692581   -4.3597315     1162.333  0.059242251  0.059159599            2 
 1636000   0.99641137   -4.3336229    1163.4921   0.05926508  0.059148989            2 
 1637000   0.99154674   -4.3181132    1165.3309  0.059322483  0.059138397            4 
 1638000   0.96164587   -4.3381178    1168.3596  0.059440355  0.059127801            4 
 1639000    1.0080131   -4.3070017    1167.8419  0.059377765  0.059117388            4 
 1640000    0.9954582   -4.3067208    1172.6336   0.05958504  0.059107007            3 
 1641000     1.005669   -4.3332903    1169.0893  0.059368741  0.059096633            5 
 1642000   0.99012814   -4.3137156    1165.6185  0.059156441  0.059085901            2 
 1643000    0.9843955   -4.3689499    1170.2078  0.059353205  0.059075041            2 
 1644000   0.96956988   -4.3412435    1166.9217  0.059150535  0.059064313            3 
 1645000   0.98360163   -4.3273297    1169.7793  0.059259336  0.059053462            2 
 1646000   0.99609317   -4.3152876    1169.2154  0.059194786  0.059042638            2 
 1647000   0.99600917   -4.3094736    1166.0676  0.058999575  0.059031618            3 
 1648000   0.98839497   -4.3346242    1165.8656  0.058953562  0.059020574            2 
 1649000   0.99144551   -4.2973852    1171.1608  0.059185407   0.05900948            3 
 1650000    1.0009615   -4.3596175    1164.5166  0.058813969  0.058998489            4 
 1651000   0.96880123   -4.3397877    1164.1792  0.058761317  0.058987308            5 
 1652000   0.98640235   -4.3165392     1170.525  0.059045855  0.058976039            4 
 1653000   0.98203404   -4.3545371    1168.7321  0.058919749  0.058964947            2 
 1654000   0.98301084   -4.3196809     1168.603  0.058877619  0.058953812            1 
 1655000    1.0033685   -4.3235097    1170.4036   0.05893271  0.058942439            2 
 1656000   0.99419672   -4.3510916     1169.208  0.058836956  0.058931295            3 
 1657000   0.97748203   -4.3507892    1174.3328  0.059059182  0.058919857            3 
 1658000   0.99875731    -4.374904    1169.7775  0.058794608  0.058908373            3 
 1659000   0.96941727   -4.3388552    1167.8572   0.05866271  0.058896845            4 
 1660000   0.99109424   -4.3312977     1170.481  0.058759084  0.058885235            2 
 1661000   0.99400842   -4.3328728    1169.5952  0.058679271  0.058873684            3 
 1662000    0.9788495   -4.3237082    1173.6682  0.058848187  0.058862118            2 
 1663000   0.98936011   -4.3454672    1173.6053  0.058809646  0.058850546            6 
 1664000    1.0009674   -4.3202056    1177.8094  0.058984848  0.058838955            2 
 1665000   0.96653375   -4.3190014    1176.6454  0.058891161  0.058827475            2 
 1666000    0.9898421   -4.3516651    1172.1218  0.058629544  0.058815787            3 
 1667000   0.99453445   -4.3407504    1174.9813  0.058737319   0.05880436            2 
 1668000   0.96908828   -4.3495421    1177.2175  0.058813822   0.05879314            2 
 1669000   0.98587194   -4.3232406    1172.4143  0.058538762  0.058781797            2 
 1670000   0.98640292   -4.3481655    1173.1595  0.058540894   0.05877031            3 
 1671000   0.98752635   -4.3474203    1175.5094  0.058623053  0.058758396            3 
 1672000   0.98186132   -4.3419763     1179.421  0.058782944  0.058746946            4 
 1673000   0.95725695   -4.3669771    1176.7476  0.058614646  0.058735518            6 
 1674000   0.99226327   -4.3477359    1179.4665  0.058714981  0.058723801            8 
 1675000   0.99812342   -4.3546889    1177.7883  0.058596432  0.058712178            3 
 1676000    0.9971924   -4.3514008    1179.6518  0.058654125  0.058700732            4 
 1677000   0.99513065   -4.3196384    1180.2836  0.058650546   0.05868915            3 
 1678000   0.99310392   -4.3249929     1182.811  0.058741109  0.058677777            4 
 1679000   0.98632425   -4.3629053    1177.7471  0.058454791  0.058666192           15 
 1680000   0.96372501    -4.332485    1182.2876  0.058645218  0.058654869            3 
 1681000   0.95658986   -4.3439069    1185.2153  0.058755469  0.058643725            3 
 1682000    0.9811583   -4.3469241    1182.4624  0.058584147  0.058632395            2 
 1683000   0.98863596   -4.3691184    1180.3365  0.058444072  0.058620918            3 
 1684000   0.95697483   -4.3535776    1181.0423  0.058444293  0.058609652            7 
 1685000   0.96133675   -4.3385868    1183.9329  0.058552567  0.058598176            3 
 1686000   0.98957592   -4.3364763    1183.3407  0.058488567  0.058587046            3 
 1687000   0.99647021   -4.3512195    1185.9147  0.058581045  0.058575529            5 
 1688000   0.98711305   -4.3465619    1185.7851  0.058539946  0.058564512           10 
 1689000   0.97093617   -4.3481641    1185.4767  0.058490069  0.058552903            5 
 1690000   0.98528477   -4.3677599    1184.5238   0.05840847  0.058541271            3 
 1691000   0.97551509   -4.3246723    1185.6238  0.058428139   0.05852998            2 
 1692000   0.98520812   -4.3389645    1187.6167   0.05849176  0.058518627            2 
 1693000   0.99872451   -4.3648191    1183.6161  0.058260291  0.058507302            3 
 1694000   0.99423956   -4.3150893    1190.4411  0.058561645  0.058496042            3 
 1695000   0.97764699   -4.3518769    1187.8108  0.058397779  0.058484822            4 
 1696000    0.9569613   -4.3571214    1192.0488  0.058571579  0.058473342            2 
 1697000    1.0061256   -4.3244378     1190.975  0.058484336  0.058462138            2 
 1698000   0.96799316   -4.3471372    1193.9925  0.058597982  0.058450856            2 
 1699000   0.96036562    -4.350827    1195.1841  0.058621939  0.058439345            4 
 1700000    1.0104571   -4.3670023    1185.3877  0.058107241  0.058427802            3 
 1701000   0.98655256   -4.3606771    1190.8314   0.05833977  0.058416245            4 
 1702000   0.99518146   -4.3513801    1188.9978  0.058215718   0.05840459            3 
 1703000   0.97876979   -4.3605124    1192.4834  0.058352093  0.058393064            7 
 1704000   0.98601196   -4.3344478    1194.0079  0.058392403  0.058381316            4 
 1705000   0.98309839   -4.3574045    1193.7959  0.058347794  0.058369653            4 
 1706000   0.97261185   -4.3348624    1189.0172  0.058080166  0.058358216            2 
 1707000   0.96352062   -4.3702329    1189.7276  0.058080826  0.058346481            4 
 1708000   0.95806184    -4.333786    1195.1151  0.058309673  0.058334459            7 
 1709000   0.98859821   -4.3458804    1200.5902   0.05854253  0.058322748            3 
 1710000   0.96557392   -4.3487815    1188.9335  0.057940227  0.058311201            2 
 1711000   0.96132522   -4.3327884    1191.1782  0.058015691  0.058299403            2 
 1712000   0.99678546    -4.354132    1193.9666  0.058117531  0.058287494            3 
 1713000   0.95834864   -4.3393962     1193.213  0.058046947  0.058275345            3 
 1714000   0.99081782    -4.345166     1192.046  0.057956341  0.058263488            2 
 1715000   0.99306754   -4.3386573    1198.5464  0.058238407  0.058251464            2 
 1716000   0.96343689    -4.310639    1197.5129  0.058154277  0.058239698            4 
 1717000   0.96998374   -4.3421772    1195.7649   0.05803557  0.058227535            2 
 1718000   0.94962375   -4.3587547    1195.1033  0.057969696  0.058215115            2 
 1719000   0.97850424   -4.3481431    1194.2255  0.057893424  0.058202633            2 
 1720000   0.98470157   -4.3303575    1200.7314  0.058174971  0.058190395            4 
 1721000   0.97855564   -4.3474802    1196.1657  0.057920091  0.058178454            5 
 1722000   0.96803961   -4.3721389    1195.2388  0.057841597  0.058166275            3 
 1723000    0.9812241    -4.354374    1198.9139  0.057985776  0.058154247            4 
 1724000   0.95802851   -4.3750154    1199.0158  0.057957066  0.058142136            3 
 1725000   0.95744541   -4.3568413    1198.1295  0.057880651  0.058129652            3 
 1726000    0.9938404   -4.3739696    1196.7596  0.057780975  0.058117039            3 
 1727000   0.96909068   -4.3433042    1199.4861   0.05787908  0.058104713            2 
 1728000   0.97974022   -4.3436628    1197.9618  0.057772075   0.05809244            3 
 1729000    1.0060712   -4.3741939     1197.679  0.057725033  0.058080351            6 
 1730000   0.96749408   -4.3434112    1197.3242  0.057674578  0.058068224            4 
 1731000    0.9709052   -4.3480747    1199.5758  0.057749654  0.058056034            2 
 1732000   0.98062536   -4.3809368    1199.3888  0.057707313  0.058043762            4 
 1733000     0.980383    -4.408847    1197.7565  0.057595523  0.058031337            5 
 1734000   0.97258211   -4.3493409    1197.9581  0.057571999  0.058018803            2 
 1735000   0.96620208   -4.3468594     1205.015  0.057877761  0.058006482            4 
 1736000   0.94990969   -4.3419462    1204.0822  0.057799644  0.057994198            4 
 1737000   0.93830948   -4.3673238    1208.9816  0.058001421  0.057981998            3 
 1738000   0.97254381   -4.3492142    1204.0558  0.057731865  0.057969813            8 
 1739000   0.94861042   -4.3597271    1198.6055  0.057437489  0.057957525            8 
 1740000   0.96890569   -4.3484069    1204.7911  0.057700723  0.057945001            5 
 1741000    0.9597931   -4.3382903     1203.462  0.057603961  0.057932715            2 
 1742000   0.98068018   -4.3190184    1210.0608  0.057886565  0.057920622            3 
 1743000   0.96080197   -4.3558665    1205.6518  0.057642559  0.057908149            1 
 1744000   0.96666685   -4.3553279    1210.8857  0.057859601  0.057895771            2 
 1745000   0.95402072   -4.3500321    1208.9125   0.05773221  0.057883385            3 
 1746000   0.96388162   -4.3705894    1210.0294  0.057752453  0.057870943            3 
 1747000   0.99967489   -4.3308324      1211.63  0.057795743  0.057858686            5 
 1748000   0.95936875    -4.345663    1207.4622  0.057563987  0.057846671            2 
 1749000   0.95646464   -4.3360331    1212.3715  0.057764986  0.057834552            2 
 1750000   0.98574753   -4.3391194    1211.3576  0.057683693  0.057822368            3 
 1751000   0.98592303   -4.3794075     1206.018  0.057396631  0.057809928            3 
 1752000   0.98500776   -4.3587606    1209.7021  0.057539101  0.057797587            4 
 1753000    0.9440418   -4.4021321    1210.0123  0.057521025  0.057785334            5 
 1754000   0.96070071    -4.330628    1214.3751  0.057695511  0.057773111            4 
 1755000   0.99134349   -4.3570711    1210.6592  0.057486193  0.057760885            6 
 1756000   0.97140317    -4.373115    1210.4551   0.05744377  0.057749023            2 
 1757000   0.96076932   -4.3888049    1210.6833    0.0574219  0.057736866            4 
 1758000   0.96364123   -4.3662129    1208.9797  0.057308481  0.057724476            4 
 1759000   0.97765036    -4.332058    1215.4317  0.057581568  0.057712294            4 
 1760000   0.96752467   -4.3715693    1217.6879  0.057655675  0.057699983            4 
 1761000   0.96621097   -4.3516725    1216.7755   0.05757976  0.057687821            2 
 1762000   0.96956105   -4.3581871    1213.7151  0.057402341  0.057675819            6 
 1763000   0.96007935   -4.3830011    1211.5892  0.057269297  0.057663468            2 
 1764000   0.96062353   -4.3737257    1214.8801  0.057392297   0.05765126            5 
 1765000   0.98689147   -4.3829169    1213.8266  0.057310037   0.05763902            4 
 1766000   0.95273309   -4.3864772    1220.6248  0.057598377   0.05762687            2 
 1767000   0.97212403   -4.3510253    1219.0212  0.057490153  0.057614633            4 
 1768000   0.96349777   -4.3670181    1214.1239  0.057226807   0.05760211            2 
 1769000   0.97870326   -4.3872107    1214.9182  0.057231873  0.057589953            2 
 1770000   0.99507321   -4.3758903    1219.4083  0.057410939  0.057577719            1 
 1771000    0.9496337   -4.3742054    1213.8866  0.057118701  0.057565326            2 
 1772000    0.9674982   -4.4043731    1215.6911  0.057171328  0.057552939            3 
 1773000   0.95589904   -4.3724332    1220.1609  0.057349167  0.057540454            6 
 1774000   0.96118911   -4.3393003    1222.8709  0.057444142  0.057528595            3 
 1775000   0.95501065   -4.3530455    1223.2271  0.057428501  0.057516275            2 
 1776000   0.96278057   -4.3712598    1224.9703  0.057477961  0.057504164            2 
 1777000   0.99815093   -4.3844873    1216.6459  0.057055237  0.057492086            6 
 1778000     0.962382   -4.3832412    1220.3696  0.057197678  0.057479964            2 
 1779000   0.96121294   -4.3732147    1222.6925  0.057274336  0.057467627            5 
 1780000   0.95871555   -4.3611655    1222.6224  0.057238875  0.057455663            3 
 1781000   0.96982195   -4.3586608    1227.3372  0.057427346  0.057443749            8 
 1782000   0.98971665   -4.3483494    1226.5992  0.057360606  0.057431716            2 
 1783000   0.97685526   -4.3912575    1224.3385  0.057222774  0.057419934            5 
 1784000   0.96134851    -4.353309    1226.8365  0.057307386  0.057407953            2 
 1785000   0.95379659    -4.365455    1226.7551  0.057271481  0.057396127            2 
 1786000   0.97016978   -4.3654715    1227.1114  0.057256038  0.057384158            3 
 1787000   0.96043644   -4.3814796    1231.1295  0.057411375  0.057372225            3 
 1788000    0.9598057   -4.3834381    1228.4796  0.057255759  0.057360553            3 
 1789000   0.95251145   -4.3976426    1225.7301  0.057095681  0.057348562            2 
 1790000   0.96649211   -4.3441575    1227.7595  0.057158264  0.057336815           10 
 1791000   0.95663783   -4.3546577    1226.5613  0.057070597  0.057325184            3 
 1792000   0.95131686   -4.3627836    1230.0401  0.057200524  0.057313545            5 
 1793000   0.96314642   -4.3322403    1229.5444  0.057145586  0.057301583            2 
 1794000   0.96758856    -4.358744    1230.9215  0.057177698  0.057289702            2 
 1795000    0.9651934   -4.3620085    1228.2061  0.057019781  0.057277774            2 
 1796000   0.97478598   -4.3811235    1227.9928  0.056978134  0.057265679            4 
 1797000   0.97434301    -4.363164    1234.5991  0.057252787  0.057253764            2 
 1798000   0.98030103   -4.3623013    1235.8851  0.057280548  0.057242112            3 
 1799000     0.950912   -4.3992068    1236.3377  0.057269672  0.057230275            3 
 1800000   0.97285893   -4.3706207     1236.992  0.057268149  0.057218656            4 
 1801000   0.98435404   -4.3940193    1236.9725  0.057235448  0.057206937            3 
 1802000   0.96487026   -4.3622464    1237.0768   0.05720851   0.05719548            2 
 1803000   0.99249948   -4.3568676    1238.7073  0.057252142  0.057184177            4 
 1804000   0.96216673   -4.3571136    1239.4145   0.05725307  0.057172652            3 
 1805000   0.97169619   -4.3924879    1235.6154  0.057045957  0.057161215            2 
 1806000   0.96145672   -4.3965033    1236.1129  0.057037323  0.057149494            3 
 1807000   0.95741154   -4.3752063    1238.1075  0.057097746  0.057137903            2 
 1808000   0.97633998   -4.3885213    1237.7448  0.057049449  0.057126384            4 
 1809000   0.98025595   -4.3784133    1238.1255  0.057035447  0.057114771            7 
 1810000   0.96411363   -4.3830325    1242.2032  0.057191676  0.057103312            4 
 1811000    0.9650305   -4.3869273    1235.8426   0.05686741  0.057091906            3 
 1812000   0.98412143   -4.3918082    1239.0692  0.056984421  0.057080727            3 
 1813000    0.9545284   -4.3871246    1239.4634  0.056971109  0.057069386            5 
 1814000   0.96833176   -4.3783743      1245.38  0.057211503  0.057057964            4 
 1815000   0.98412431   -4.3884993    1241.5792  0.057005474    0.0570465            5 
 1816000   0.93137991   -4.3762448    1244.5238  0.057109204  0.057035041            3 
 1817000   0.96746657    -4.400593    1241.6726  0.056947008  0.057023842            4 
 1818000   0.94744649   -4.3693059    1245.2385  0.057079141  0.057012584            5 
 1819000   0.96972761   -4.3892244     1241.926  0.056896006  0.057001273            3 
 1820000     0.962123   -4.3733381    1246.3976  0.057069488  0.056990179            6 
 1821000   0.96684537   -4.3753096    1242.4946  0.056859538  0.056978774            2 
 1822000   0.94611939   -4.3879726    1245.0961  0.056947314  0.056967419            6 
 1823000   0.94061087   -4.3883833    1246.5899  0.056984361  0.056956439            3 
 1824000   0.98518638   -4.3635117    1249.3958  0.057081313   0.05694527            4 
 1825000   0.95355656   -4.3642296     1248.836  0.057024476  0.056934476            2 
 1826000   0.93687501   -4.3470076    1250.5179  0.057070001   0.05692353            2 
 1827000   0.96290155   -4.3489919    1252.3376  0.057121768  0.056912618            2 
 1828000   0.96324384   -4.3854985    1249.2749  0.056950899  0.056901752            4 
 1829000   0.97988723   -4.4001889    1248.9795  0.056906302  0.056890786            3 
 1830000   0.96477775   -4.3827418    1251.6833  0.056998327  0.056879751            4 
 1831000   0.97025757   -4.3906501    1255.5874  0.057144886  0.056868787            3 
 1832000   0.96905114   -4.3668449    1254.9618  0.057085234  0.056857778            3 
 1833000   0.96157382   -4.3804363    1251.9376  0.056916601   0.05684663            3 
 1834000   0.95577731   -4.3705999    1253.0569  0.056936426  0.056835409            4 
 1835000   0.94970812    -4.378014    1252.0213  0.056858367  0.056824207            3 
 1836000   0.96551992   -4.3805398    1256.9233  0.057049895  0.056813056            3 
 1837000   0.94707264   -4.3915594    1254.4202  0.056905291  0.056802102            4 
 1838000   0.96685904   -4.3750932    1255.6487  0.056930027  0.056790986            7 
 1839000   0.94996209   -4.3612447      1254.07  0.056827535  0.056780053            3 
 1840000   0.95230446   -4.4023787    1252.2416  0.056713839  0.056768939            3 
 1841000   0.96378022   -4.3892526    1255.8053  0.056844344  0.056758034            4 
 1842000   0.96844808   -4.4425905    1255.4098  0.056795595  0.056747053            5 
 1843000   0.97253545   -4.3871614    1260.4895  0.056994461   0.05673615            2 
 1844000   0.97671156   -4.3793851     1263.019  0.057077866  0.056725455            4 
 1845000   0.93496399   -4.3995567    1258.9663   0.05686388  0.056714747            3 
 1846000   0.94708016   -4.3811985    1262.7891  0.057005647  0.056704078            4 
 1847000   0.95091575   -4.3621815    1263.9605  0.057027635  0.056693501            4 
 1848000   0.94985026   -4.3951046    1261.8335  0.056900862  0.056682785            3 
 1849000   0.95300992   -4.3765056    1264.5912  0.056994373   0.05667188            5 
 1850000   0.96099757   -4.3535469    1266.4244  0.057046145  0.056661076            5 
 1851000   0.94854952   -4.3989674    1261.1821  0.056779314  0.056650268            3 
 1852000   0.94520493   -4.3803267    1266.2761  0.056977866  0.056639599            5 
 1853000   0.96694175   -4.3962492    1261.6185  0.056737653  0.056628799            5 
 1854000   0.95772678   -4.3808988    1264.1679  0.056821644  0.056618205            3 
 1855000   0.95607058   -4.3915754    1264.5226  0.056806946  0.056607576            2 
 1856000   0.96373861   -4.3946311      1263.95  0.056750626  0.056597067            5 
 1857000   0.92401999   -4.3820277    1261.3793  0.056604705  0.056586053            2 
 1858000   0.92300711   -4.4059988    1263.3559  0.056662894  0.056575154            3 
 1859000   0.97035415    -4.372719    1267.6453  0.056824696  0.056564393            3 
 1860000   0.95488226   -4.3720303    1268.3364   0.05682511  0.056553689            3 
 1861000   0.96091226   -4.3970764    1268.0954  0.056783783  0.056542945            5 
 1862000   0.96560958   -4.3625655    1270.9185  0.056879634  0.056532248            1 
 1863000   0.92954983   -4.3753429    1269.8549  0.056801528  0.056521688            4 
 1864000   0.95166252   -4.4281369     1266.693  0.056629696  0.056511126            9 
 1865000   0.95550597   -4.4154778    1264.3168  0.056493153  0.056500403            3 
 1866000   0.93273983   -4.3489503    1272.9954  0.056850456  0.056489823            3 
 1867000   0.95425202   -4.3778629    1272.0708  0.056778737   0.05647924            2 
 1868000   0.95702609    -4.389902    1271.9942  0.056744922  0.056468581            7 
 1869000   0.94161459   -4.3846277    1272.5763  0.056740516  0.056457897            5 
 1870000   0.95949614   -4.3631387    1272.9792  0.056728127   0.05644769            3 
 1871000   0.95937198   -4.3855592    1276.1719  0.056840008  0.056437432            5 
 1872000   0.93676457   -4.4086785    1276.1524  0.056808777  0.056427113            3 
 1873000    0.9524635   -4.3877697    1272.8797  0.056632839  0.056416732            3 
 1874000   0.94840443   -4.4041906    1274.5922   0.05667877   0.05640634            4 
 1875000   0.95843187   -4.3918442    1277.1192  0.056760855  0.056396099           11 
 1876000   0.94865578   -4.3951225    1277.5223  0.056748502  0.056385928            5 
 1877000    0.9570915   -4.3783824    1273.8899     0.056557  0.056375585            5 
 1878000   0.95966284   -4.4051322    1281.1106  0.056847293  0.056365286            4 
 1879000    0.9236067   -4.3759303    1282.1547  0.056863343  0.056355069            2 
 1880000   0.95893387   -4.4060402    1277.8868  0.056643918  0.056344686            4 
 1881000   0.94807915   -4.4027387    1276.2354  0.056540644  0.056334427            6 
 1882000   0.94356785   -4.3825117    1276.5602  0.056524984  0.056324046            8 
 1883000   0.94922719   -4.4074113    1277.0631  0.056517219  0.056313737            4 
 1884000   0.94751646   -4.4173065     1279.655  0.056601869  0.056303281            2 
 1885000   0.95446993   -4.4057359    1284.8509  0.056801543   0.05629292            6 
 1886000   0.95385299   -4.3933849    1278.9469  0.056510557  0.056282796            4 
 1887000   0.94603348   -4.3926607    1285.2522  0.056759062  0.056272534            6 
 1888000   0.95841352   -4.4023602    1281.2855  0.056553916  0.056262419            3 
 1889000   0.95285803   -4.3731618    1283.3533  0.056615196  0.056252025            2 
 1890000   0.93128056    -4.387839    1288.3323  0.056804775  0.056242012            5 
 1891000   0.94844728   -4.3857655     1285.976  0.056670899  0.056231846            3 
 1892000   0.93822204   -4.3915254    1284.4019  0.056571613  0.056221883            4 
 1893000   0.96039045   -4.4296303    1281.7983  0.056427112  0.056211684            2 
 1894000   0.94288695   -4.3888381    1286.3542  0.056597772   0.05620163            5 
 1895000   0.96062872   -4.3716739     1290.792  0.056763059  0.056191393            3 
 1896000   0.94846599   -4.3951784    1287.5054  0.056588671   0.05618125            8 
 1897000   0.93954083   -4.3873173     1287.325  0.056550915  0.056171028            3 
 1898000   0.94602487   -4.4299307    1287.4364  0.056526011  0.056160685            3 
 1899000   0.94261359   -4.4337329    1285.2542  0.056400482  0.056150282            1 
 1900000   0.97524722   -4.4205922    1281.7016  0.056214982  0.056139812            3 
 1901000   0.96396935   -4.4009572    1286.2283  0.056383847  0.056129594            3 
 1902000   0.94997238   -4.3740242    1293.5677  0.056675767  0.056119421            7 
 1903000   0.94366983   -4.4281052    1284.4163  0.056245239  0.056109126            5 
 1904000    0.9573034   -4.3907246    1291.3136  0.056517576  0.056098849            4 
 1905000   0.96618969   -4.4114364    1289.1854  0.056394812  0.056088428            2 
 1906000   0.94143663   -4.3981465    1290.6231  0.056428084  0.056078149            2 
 1907000   0.95971395   -4.4072432    1288.2287  0.056293859  0.056068018            5 
 1908000   0.94573344     -4.37517    1296.5176  0.056626381  0.056058061            3 
 1909000   0.94184147   -4.3769288    1293.5411  0.056466786  0.056048023            8 
 1910000   0.94374416   -4.4031461     1296.381  0.056561125   0.05603833            3 
 1911000   0.94679626   -4.4149735    1294.9381  0.056468608  0.056028293            2 
 1912000   0.94819169   -4.3871717    1299.3032  0.056629325  0.056018123            3 
 1913000   0.93078708   -4.4029953    1296.2738  0.056467757  0.056008064            5 
 1914000   0.95267412   -4.4379233    1293.3163  0.056309489  0.055998017            4 
 1915000   0.95483407   -4.4215806    1298.5315  0.056507029  0.055988188            5 
 1916000   0.94192371   -4.3768205    1291.4091  0.056167757  0.055978116            3 
 1917000   0.94100614   -4.4017571    1303.5613  0.056666725  0.055968298            2 
 1918000   0.93548808   -4.3850357    1300.8589  0.056519765  0.055958354            3 
 1919000   0.96376896   -4.3985808    1299.9284  0.056449904   0.05594848            5 
 1920000   0.93653279   -4.4137631    1299.0638  0.056382979  0.055938479            5 
 1921000   0.96337122   -4.4179024    1298.1989  0.056316105  0.055928353            5 
 1922000    0.9577593   -4.4170956    1297.8138  0.056270109  0.055918263            3 
 1923000   0.95659118   -4.3870829    1301.2014   0.05638765  0.055908411            5 
 1924000   0.94915903   -4.3887849     1306.462  0.056586191  0.055898759            4 
 1925000   0.94913042   -4.4160265    1303.5122  0.056429101  0.055889128            5 
 1926000   0.93066181   -4.4201068    1299.8064  0.056239459  0.055879277            5 
 1927000   0.94311695    -4.408049    1302.7238  0.056336436  0.055869273            5 
 1928000     0.932509   -4.4108816    1299.6429  0.056174055  0.055859425            2 
 1929000   0.93180488   -4.4107795    1300.1445  0.056166602  0.055849487            3 
 1930000   0.94784846   -4.4245319    1304.0616  0.056306632  0.055839628            4 
 1931000   0.94342265   -4.4364342    1302.6032  0.056214535  0.055829713            2 
 1932000   0.96006074   -4.4115558    1307.3306  0.056389344  0.055819729            5 
 1933000   0.95313253    -4.433425     1304.351  0.056231721  0.055809818            3 
 1934000   0.95015318   -4.4351369    1302.6397   0.05612891  0.055799636            4 
 1935000   0.95808132   -4.4200966    1304.3648  0.056174193  0.055789652            2 
 1936000   0.96762536   -4.4001384     1307.589  0.056283964  0.055779763            3 
 1937000   0.94782754   -4.4199058    1306.9601  0.056227847   0.05577011            4 
 1938000   0.95248893    -4.416347     1306.753  0.056189929  0.055760362            3 
 1939000   0.93245672   -4.4213516    1307.5038  0.056193218  0.055750598            4 
 1940000   0.92903909   -4.3997025    1307.3519   0.05615773  0.055740793            2 
 1941000   0.93484845   -4.3914426     1309.703  0.056229737  0.055730901            4 
 1942000   0.92228507   -4.4093683    1310.1562  0.056220227  0.055721173            2 
 1943000   0.93353959   -4.3961482    1306.8524  0.056049598  0.055711485            4 
 1944000   0.94559409   -4.4051333    1307.4972  0.056048405  0.055701492            3 
 1945000   0.93471252   -4.4179784    1305.2853   0.05592482  0.055691554            3 
 1946000   0.93637036   -4.4310514    1307.6931  0.055999191  0.055681347            3 
 1947000   0.94268174   -4.4273029    1303.6755  0.055798471  0.055671177            3 
 1948000   0.94687354   -4.4490398    1308.9804  0.055996768   0.05566106            7 
 1949000   0.93665759   -4.4206317    1310.7819  0.056045061  0.055651025            7 
 1950000   0.93818721   -4.4175856    1315.6322  0.056223597  0.055641063            4 
 1951000   0.90402124   -4.4254257    1311.4138    0.0560146  0.055631047            4 
 1952000    0.9235866   -4.4467081    1312.8001  0.056045086  0.055621182            4 
 1953000   0.91435889   -4.4295924    1312.0172  0.055982982  0.055611048            6 
 1954000   0.96117155   -4.4146991    1313.5384  0.056019206  0.055600902            2 
 1955000   0.93023911   -4.4336621    1317.3703   0.05615389  0.055591054            3 
 1956000   0.94177657   -4.3925422    1318.8072  0.056186402  0.055580902            2 
 1957000   0.91289609   -4.4414692    1316.3036  0.056051083  0.055570885            3 
 1958000   0.92758324   -4.4324432    1315.0129  0.055967524   0.05556089            4 
 1959000   0.93866861   -4.3854391    1321.5012  0.056214958  0.055551037            7 
 1960000    0.9397624   -4.4440381    1316.4831   0.05597292  0.055541165            4 
 1961000   0.93845907   -4.4072186    1322.3068  0.056191856  0.055531268            5 
 1962000   0.93355648   -4.4236503    1321.9573  0.056148375  0.055521337            2 
 1963000   0.94489885    -4.420237    1323.9717  0.056205284  0.055511665            4 
 1964000   0.92084013   -4.4217784    1323.9225  0.056174582  0.055502212            8 
 1965000   0.92859218   -4.4087372    1324.9604  0.056190006  0.055492683            2 
 1966000   0.92049352   -4.4139572     1320.622  0.055977534  0.055482971            2 
 1967000   0.94540092   -4.4259802    1321.4197  0.055982873  0.055473083            7 
 1968000   0.93102063   -4.4465456    1319.6635  0.055880061  0.055463379            5 
 1969000    0.9455496   -4.4131653     1322.668   0.05597884  0.055453372            7 
 1970000   0.91397324   -4.3995894    1322.9932  0.055964179  0.055443463            4 
 1971000   0.94622658   -4.4202217    1323.9271  0.055975269  0.055433507            3 
 1972000   0.91215242   -4.4033118    1320.9355  0.055820464  0.055423516            3 
 1973000   0.93323307   -4.4142521    1321.4005  0.055811813   0.05541341            2 
 1974000   0.93965719   -4.4302704     1320.509  0.055745904  0.055403502            5 
 1975000   0.95163868   -4.4064394     1321.992  0.055780253  0.055393421            2 
 1976000    0.9345698   -4.4188383    1325.0973  0.055882985  0.055383598            3 
 1977000   0.92380711    -4.422441    1331.7155  0.056133683  0.055373658            5 
 1978000   0.92275487   -4.4135752    1326.1641  0.055871425  0.055364009            3 
 1979000   0.94546374   -4.4107762     1327.139  0.055884243  0.055354351            6 
 1980000   0.95161055   -4.4225429    1328.3354  0.055906373  0.055344602            3 
 1981000   0.90426144   -4.4412963    1325.9251  0.055776759  0.055334779            4 
 1982000    0.9500683   -4.4248389    1327.3559  0.055808777  0.055324816            3 
 1983000   0.94029216   -4.4213791    1322.3486  0.055570206  0.055314822            2 
 1984000    0.9358508   -4.4407759    1329.0094  0.055821968  0.055304927            5 
 1985000    0.9193633   -4.4647743    1324.5054  0.055604762  0.055295012            5 
 1986000    0.9437459   -4.4039069     1327.448  0.055700233  0.055284959            4 
 1987000   0.92785667    -4.450103    1324.7628  0.055559587  0.055275002            2 
 1988000    0.9155125     -4.42856    1328.8747  0.055704004  0.055265029            4 
 1989000   0.92766412   -4.4330419    1328.7344  0.055670117  0.055255184            3 
 1990000   0.91614775   -4.4377164    1330.5753  0.055719235  0.055245179            2 
 1991000    0.9370726   -4.4292998    1329.6149  0.055651051  0.055235606            4 
 1992000   0.93143845   -4.4176592    1329.8306  0.055632136  0.055225631            2 
 1993000   0.93872711    -4.419925    1334.3317  0.055792429  0.055215903            5 
 1994000   0.93647612   -4.4241703    1331.5744  0.055649214  0.055206086            1 
 1995000   0.92538874   -4.3927564    1334.8946  0.055760006  0.055196449            2 
 1996000   0.94219774   -4.4137556    1336.4418  0.055796667  0.055186696            5 
 1997000   0.95542471   -4.4269925    1336.4506  0.055769095  0.055176978            3 
 1998000   0.92981849   -4.4176232     1332.958  0.055595513  0.055167173            3 
 1999000    0.9101518   -4.4270143    1333.3578  0.055584369  0.055157264            5 
 2000000   0.92752054   -4.4293694    1335.4347  0.055643113  0.055147446            4 
 2001000   0.94963281   -4.4043752    1333.4747  0.055533681  0.055137506            3 
 2002000   0.93506326   -4.4476288    1330.2618  0.055372204  0.055127535            4 
 2003000   0.94661021   -4.4349552    1336.4728  0.055602963  0.055117552            2 
 2004000   0.92805738   -4.4550976    1330.4901  0.055326434  0.055107408            3 
 2005000    0.9013644   -4.4415936    1332.2196  0.055370724  0.055097439            6 
 2006000   0.93144408   -4.4624315     1336.825  0.055534437  0.055087322            2 
 2007000   0.93956887   -4.4192623    1335.4139  0.055448176  0.055077417            4 
 2008000   0.93686457   -4.4536773    1336.7636  0.055476579  0.055067293            5 
 2009000   0.93637259   -4.4529109    1335.2745  0.055387196  0.055057397            3 
 2010000    0.9219407   -4.4434291    1335.7795  0.055380577  0.055047205            6 
 2011000   0.92075953   -4.4205114    1338.2284  0.055454515  0.055037262            3 
 2012000   0.94220115   -4.3913114    1343.5012  0.055645344  0.055027499            3 
 2013000   0.92990771   -4.4206022    1344.1853   0.05564602  0.055017527            5 
 2014000   0.93140636   -4.4393746    1339.9863  0.055444652  0.055007679            4 
 2015000   0.92172871   -4.4358828    1336.2976  0.055264581  0.054997701            3 
 2016000   0.93638005   -4.4335874    1341.9332  0.055470121  0.054987767            3 
 2017000   0.92875162    -4.436885    1336.3006  0.055209907  0.054977678            3 
 2018000   0.94400398   -4.4228329    1337.6353  0.055237667  0.054967494            3 
 2019000   0.90917563   -4.4381115    1336.2958  0.055155019  0.054957449            2 
 2020000   0.91487637   -4.4654771    1333.1763  0.054999023  0.054947099            5 
 2021000     0.925084   -4.4438416    1338.4485  0.055189202  0.054936877            8 
 2022000   0.91132656   -4.4571873    1334.5251  0.055000209   0.05492631            3 
 2023000     0.932706   -4.4157383    1339.1242  0.055162473  0.054915915            4 
 2024000   0.93315847   -4.4567565     1338.009  0.055089303  0.054905349            3 
 2025000   0.91423939   -4.4561672    1339.0876  0.055106485  0.054894918            4 
 2026000   0.91602418   -4.4585421    1342.5085  0.055219993   0.05488444            6 
 2027000   0.94115337   -4.4572931    1343.7626  0.055244311  0.054874125            2 
 2028000   0.90924954   -4.4495394    1343.7035  0.055214643  0.054863872            3 
 2029000    0.9432459    -4.455887     1343.993  0.055199318   0.05485355            5 
 2030000   0.93192067   -4.4293071    1342.7333  0.055120416  0.054843122            5 
 2031000   0.95009789   -4.4217662    1344.2066  0.055153724  0.054832639            5 
 2032000   0.91300951   -4.4300414    1342.8474  0.055070842  0.054822096            6 
 2033000   0.92079696   -4.4439487    1343.2555  0.055060481  0.054811664            4 
 2034000   0.92574411   -4.4205684    1342.2195  0.054990965  0.054801087            5 
 2035000    0.9387341   -4.4251634    1342.6929  0.054983329  0.054790598            4 
 2036000   0.94647344    -4.450172    1344.0971  0.055013797   0.05478004            5 
 2037000    0.9304801   -4.4316598    1342.6522  0.054927681  0.054769442            2 
 2038000   0.91666823   -4.4185931     1344.891  0.054992271  0.054758973            6 
 2039000   0.91169706   -4.4460566    1346.8795  0.055046573   0.05474852            3 
 2040000   0.93143144   -4.4187237    1346.1318  0.054989044  0.054738029            4 
 2041000   0.92743876   -4.4470459    1346.6713  0.054984128  0.054727372            5 
 2042000   0.91387575   -4.4413937     1349.073  0.055055217  0.054717017            3 
 2043000   0.92765063   -4.4330075    1347.2553  0.054954123  0.054706691            7 
 2044000   0.93282928   -4.4587521    1346.9203  0.054913579  0.054696273            4 
 2045000   0.94152806   -4.4542871    1346.8539  0.054884021  0.054685938            2 
 2046000   0.90569663   -4.4495284    1347.7166  0.054892337  0.054675634            3 
 2047000   0.91862079   -4.4403638     1348.493  0.054897125  0.054665353            6 
 2048000   0.90886576   -4.4301421    1349.0096   0.05489134  0.054655097            8 
 2049000   0.94855703   -4.4309902    1352.6425  0.055012303  0.054644791            5 
 2050000   0.93919537   -4.4368083    1351.4873  0.054938509  0.054634297            5 
 2051000   0.92673161   -4.4438045    1348.5776  0.054793499  0.054623896            6 
 2052000   0.91861356    -4.440198    1354.7584  0.055017805  0.054613484            2 
 2053000   0.92722036   -4.4398945    1351.3951  0.054854486  0.054603055            2 
 2054000   0.93265357   -4.4436554    1352.2901  0.054864089  0.054592538            3 
 2055000   0.94220023   -4.4606701    1351.5983  0.054809341  0.054582149            3 
 2056000   0.93473534   -4.4433023    1348.6567  0.054663454  0.054571701            3 
 2057000   0.93086769   -4.4335462    1353.5361  0.054834551  0.054561305            4 
 2058000   0.91870885   -4.4676986    1353.1554  0.054792494  0.054550855            4 
 2059000   0.93397012   -4.4558653     1352.293   0.05473098  0.054540252            3 
 2060000   0.91208467   -4.4514615    1355.7528   0.05484437  0.054529538            4 
 2061000   0.91836331   -4.4207269    1357.6931   0.05489621  0.054519217            3 
 2062000   0.94046196   -4.4454858    1358.2178  0.054890793  0.054509169            5 
 2063000   0.92155663   -4.4536941    1356.3766  0.054789813  0.054498813            2 
 2064000   0.92025252   -4.4403047    1359.1386  0.054874782  0.054488521            4 
 2065000   0.93287366   -4.4447196    1358.6066   0.05482674  0.054478205            5 
 2066000   0.91773472    -4.474987    1354.8455  0.054648496  0.054468081            2 
 2067000   0.91654436   -4.4871969    1354.7807  0.054619443  0.054457907            3 
 2068000   0.90772614   -4.4435162    1359.8249  0.054796295  0.054447571            5 
 2069000   0.88897351   -4.4197897    1362.8626  0.054892164  0.054437344            8 
 2070000   0.92866398     -4.46644    1358.3091  0.054682331  0.054427278            3 
 2071000   0.91363866   -4.4381674    1362.1268  0.054809546  0.054417277            4 
 2072000   0.93752305   -4.4525572    1362.9738  0.054817158  0.054407375            5 
 2073000   0.90890618   -4.4531877    1363.0797   0.05479497  0.054397289            5 
 2074000   0.91582419   -4.4435522    1364.7575  0.054835966  0.054387257            2 
 2075000   0.93068898    -4.424648     1364.736  0.054808675  0.054377238            6 
 2076000   0.92737917   -4.4618849    1365.0758  0.054795914  0.054367267            2 
 2077000   0.90858676   -4.4728426    1361.1865  0.054613484  0.054357147            3 
 2078000   0.92584195    -4.428841    1369.8026  0.054932733  0.054347217            2 
 2079000   0.90704639   -4.4585327    1362.3922  0.054609274  0.054337184            4 
 2080000     0.929813   -4.4761685    1365.8495  0.054721533  0.054326843            5 
 2081000   0.91408885   -4.4346921    1361.1665  0.054507708  0.054316926            3 
 2082000    0.9169875    -4.432933    1367.8582  0.054749368  0.054306648            6 
 2083000   0.93958701   -4.4629518    1366.4079  0.054665064  0.054296508            3 
 2084000    0.8916536   -4.4599776    1363.9361  0.054539989  0.054286346            3 
 2085000   0.90974037   -4.4389564    1368.1077  0.054680563   0.05427612            5 
 2086000   0.91902692   -4.4469846    1369.1942  0.054697755  0.054266017            4 
 2087000   0.92317753   -4.4500781    1370.8847  0.054739047  0.054255757            2 
 2088000     0.922909   -4.4449446    1371.9993  0.054757316  0.054245677            5 
 2089000    0.9273998   -4.4549425    1371.5775  0.054714276  0.054235609            2 
 2090000     0.922685   -4.4551506    1370.6943  0.054652882  0.054225331            7 
 2091000   0.90298598   -4.4339319    1367.4986  0.054499386  0.054215192            5 
 2092000   0.90577174   -4.4310724    1372.1993  0.054660582  0.054204993            2 
 2093000   0.91697243   -4.4840226    1373.0536  0.054668484  0.054194762            7 
 2094000   0.91223403   -4.4719389    1374.9766  0.054718903  0.054184894            5 
 2095000   0.91494121   -4.4712958    1370.1762  0.054501837  0.054174932            3 
 2096000   0.92853083    -4.430497     1378.631  0.054811984  0.054164926            2 
 2097000   0.90504187   -4.4803677    1367.5477  0.054345403   0.05415496            7 
 2098000   0.92054926   -4.4545709    1371.1339  0.054461945  0.054144956            4 
 2099000   0.91961152   -4.4615091     1371.397  0.054446443  0.054134958            8 
 2100000   0.90755106   -4.4791091    1373.3041  0.054496194  0.054125026            5 
 2101000   0.91852028   -4.4463919     1374.221  0.054506623  0.054115313            5 
 2102000   0.93029822   -4.4357851    1379.2755  0.054681076  0.054105497            3 
 2103000   0.91841619   -4.4531708    1374.5187  0.054466582  0.054095672            6 
 2104000   0.92965359   -4.4355591    1375.2648  0.054470248  0.054085866            5 
 2105000   0.92062472   -4.4518366    1379.0517  0.054594287  0.054075943            5 
 2106000   0.88915483   -4.4473448    1382.2847  0.054696292  0.054066158            7 
 2107000   0.91807364   -4.4452952    1378.7455  0.054530355  0.054056331            4 
 2108000   0.92203438   -4.4463368    1379.9881  0.054553611  0.054046652            3 
 2109000   0.92070906   -4.4654064    1381.6126  0.054591933  0.054037053            6 
 2110000   0.91781059   -4.4218594    1381.4195  0.054558432  0.054027537            4 
 2111000   0.90368535   -4.4535148    1380.2279  0.054485546  0.054017633            2 
 2112000   0.94101546   -4.4704118    1384.2905  0.054620047  0.054007911            5 
 2113000   0.89898558   -4.4583014    1381.4588   0.05448252   0.05399808            2 
 2114000   0.90872842    -4.458835     1380.599  0.054422857  0.053988285            5 
 2115000   0.90784971   -4.4146522    1387.8881  0.054684321  0.053978456            2 
 2116000   0.92140737   -4.4415675     1384.457  0.054523353   0.05396865            4 
 2117000   0.91981524   -4.4716883    1374.6815  0.054112797  0.053958755            6 
 2118000   0.89731725   -4.4704413     1381.675  0.054362408  0.053948703            3 
 2119000   0.92509732   -4.4685103    1383.5467  0.054410361  0.053938874            5 
 2120000   0.91782946   -4.4989638    1380.6202  0.054269661  0.053929011            2 
 2121000   0.91083415   -4.4832731    1383.2179  0.054346137  0.053918975            7 
 2122000   0.92212312   -4.4743896    1383.7663  0.054342062   0.05390916            4 
 2123000   0.90233155   -4.4653306    1383.6633  0.054312425  0.053899077            3 
 2124000   0.91649103   -4.4598576    1388.9561  0.054494511  0.053889012            3 
 2125000   0.92832287   -4.4549834    1387.0321  0.054393417  0.053878951            7 
 2126000   0.89370135   -4.4738197    1383.9521  0.054247104  0.053868979            3 
 2127000   0.91108175   -4.4602823     1384.831  0.054256032  0.053859007            3 
 2128000   0.91323353   -4.4948148    1381.2166  0.054088995  0.053848894            4 
 2129000   0.92217103   -4.4670905    1389.1378  0.054373643  0.053838845            4 
 2130000   0.90788376   -4.5046007    1386.5154  0.054245517  0.053828955            5 
 2131000   0.91948432   -4.4503606     1387.208  0.054247145   0.05381898            6 
 2132000   0.90006691   -4.4664964    1389.5576  0.054313538  0.053809154            6 
 2133000   0.91402814    -4.488362    1389.5194  0.054286583  0.053799323            3 
 2134000   0.88795114   -4.4683446    1388.5172  0.054222009  0.053789444            5 
 2135000   0.90334618   -4.4488215    1389.3219  0.054228021   0.05377968            2 
 2136000   0.90377218   -4.4748898    1389.8133  0.054221803  0.053769898            7 
 2137000   0.90975726   -4.4721372    1388.8387  0.054158425  0.053760167            3 
 2138000   0.90245564   -4.4469538    1388.5851  0.054123211  0.053750306            3 
 2139000   0.89637969   -4.4453737     1391.785  0.054222573  0.053740527            3 
 2140000    0.9020517   -4.4672945    1388.9079  0.054085197  0.053730747            4 
 2141000   0.90085519   -4.4751434    1389.0615  0.054065914  0.053720803            6 
 2142000   0.90906849    -4.484572    1388.8935  0.054034139  0.053710958            3 
 2143000   0.90807021   -4.4722781    1392.9846  0.054168014  0.053701123            4 
 2144000   0.91262145   -4.4548546    1392.8989  0.054139416  0.053691229            3 
 2145000    0.9090567   -4.4842484    1395.1727  0.054202513  0.053681468            4 
 2146000   0.92758098    -4.451733    1398.2813  0.054297969  0.053671645            6 
 2147000   0.90786143   -4.4774192    1394.5488  0.054127806  0.053661967            3 
 2148000   0.92908253   -4.4791095    1393.9497  0.054079366  0.053652112            3 
 2149000   0.92467502    -4.442901    1397.6278  0.054196827  0.053642278            4 
 2150000   0.90701258   -4.5163817    1389.1809   0.05384422  0.053632387            8 
 2151000   0.91033702   -4.4973788    1392.2635  0.053938615  0.053622213            3 
 2152000   0.90678507   -4.4377081    1394.0827  0.053983995  0.053612072            2 
 2153000   0.90788506   -4.4449119    1397.4012  0.054087365  0.053602102            2 
 2154000   0.89957013   -4.4699512    1390.9626  0.053813163  0.053592117            8 
 2155000   0.90325768   -4.4869524    1396.6127  0.054006677  0.053582213            3 
 2156000   0.90905367   -4.4873526    1392.8532  0.053836317  0.053572236            3 
 2157000   0.92073318   -4.4522134    1396.1371  0.053938227  0.053562119            3 
 2158000   0.87687357   -4.4721611    1392.7645  0.053782996  0.053551899            3 
 2159000   0.91229844   -4.4711838    1394.2036  0.053813633  0.053541557            7 
 2160000   0.91035762   -4.4828258    1390.9503  0.053663206  0.053531271            7 
 2161000   0.89919037   -4.4824748    1393.4605  0.053735173  0.053520916            3 
 2162000   0.89439223   -4.4591145    1397.6684  0.053872509  0.053510668            4 
 2163000   0.91588086   -4.4597036    1392.4424  0.053646262  0.053500414            3 
 2164000   0.90500311    -4.497516    1391.1654  0.053572298  0.053490014            2 
 2165000   0.90070766   -4.4378023    1395.4387  0.053712035  0.053479732            3 
 2166000   0.90691595   -4.4629293    1401.3926  0.053916304  0.053469432            4 
 2167000   0.90106895   -4.4800987    1394.8628  0.053640315  0.053459141            3 
 2168000   0.92241119   -4.5104738    1392.7397  0.053533968  0.053448649            3 
 2169000   0.91454996   -4.4739672    1395.9549  0.053632813  0.053438153            3 
 2170000    0.9185795    -4.507479     1390.563  0.053401035  0.053427755            6 
 2171000   0.89792357    -4.448383    1401.1539  0.053782971  0.053417232            4 
 2172000   0.89311074   -4.4985701    1392.9763  0.053444455  0.053406979            5 
 2173000    0.8885989   -4.4701176    1397.4725   0.05359229  0.053396583            9 
 2174000   0.90997007   -4.4834244    1402.3473  0.053754495   0.05338633            3 
 2175000   0.90002693   -4.5058065    1398.2774  0.053573846   0.05337611            3 
 2176000   0.91875763    -4.506735    1405.0919  0.053810199   0.05336572            6 
 2177000   0.91006379   -4.4542886     1403.833  0.053737291   0.05335549            1 
 2178000   0.91084631    -4.481617    1398.7124  0.053516697  0.053345094            3 
 2179000   0.89332007   -4.4728673    1405.1258  0.053737408   0.05333473            3 
 2180000   0.91822278    -4.486723    1401.2788  0.053565702  0.053324387            4 
 2181000   0.92887515   -4.4848479    1401.2839  0.053541338  0.053313922            2 
 2182000   0.89601586   -4.4914814    1401.9463  0.053542096  0.053303398            3 
 2183000   0.89804601   -4.4808541    1400.9569  0.053479801  0.053292665            4 
 2184000   0.92371842   -4.4997039    1398.7964  0.053372878  0.053281974            5 
 2185000   0.90914098   -4.4591637    1399.5492  0.053377164  0.053271553            3 
 2186000   0.90118496   -4.4971335    1399.9376  0.053367549  0.053261002            7 
 2187000   0.91937234    -4.507351    1402.3099  0.053433545  0.053250521            5 
 2188000   0.89895848   -4.4898155    1403.9461  0.053471438  0.053240152            2 
 2189000   0.89816293   -4.4843546    1402.0564  0.053375072  0.053229723            6 
 2190000   0.90833942   -4.4792587     1405.752  0.053491324  0.053219295            2 
 2191000   0.90349134    -4.496931    1407.5193  0.053534129   0.05320883            6 
 2192000   0.89841643   -4.4915851    1401.4786  0.053280055   0.05319855            5 
 2193000   0.90675064   -4.5007017    1408.9167  0.053538405  0.053188081            3 
 2194000   0.90144609   -4.4780623    1406.0288  0.053404314  0.053177585            3 
 2195000   0.89701159   -4.4536429     1408.999  0.053492747  0.053167248            4 
 2196000   0.90507696   -4.5173513     1408.075  0.053433327  0.053157144            2 
 2197000   0.91780196   -4.5034739    1405.2607  0.053302257  0.053146942            5 
 2198000   0.89583859   -4.5049884    1406.2337  0.053314896  0.053136734            5 
 2199000   0.91446015   -4.4845967    1409.3284  0.053407927  0.053126581            4 
 2200000   0.89974074    -4.475243    1414.9331   0.05359595  0.053116357            6 
 2201000    0.9177558   -4.4710422    1412.4383  0.053477143  0.053106045            2 
 2202000   0.93548288   -4.4838388    1410.9616  0.053396973    0.0530958            7 
 2203000   0.90187174   -4.4765393    1416.6457  0.053587749   0.05308569            4 
 2204000   0.89339728   -4.5146956    1408.7136  0.053263519  0.053075677            6 
 2205000   0.89354179   -4.4724781    1414.0209  0.053439944  0.053065463            6 
 2206000   0.89641057   -4.4836051    1413.4341  0.053393553  0.053055424            7 
 2207000    0.8956882   -4.5030863    1412.4296   0.05333143  0.053045208            4 
 2208000   0.89192195   -4.4814532    1417.8977  0.053513652  0.053035134            6 
 2209000   0.90671632   -4.4882106    1417.2489  0.053464949  0.053024874            3 
 2210000   0.91430638   -4.4833627    1410.1012  0.053171238  0.053014652            3 
 2211000   0.89003237   -4.4900071    1415.2379  0.053340793  0.053004744            6 
 2212000   0.90614337   -4.4994463    1417.6997  0.053409423  0.052994693            4 
 2213000   0.88836078   -4.4908835    1420.2216  0.053480254  0.052984639            3 
 2214000   0.89545199   -4.4763858    1414.8854  0.053255247  0.052974584            2 
 2215000   0.88264107   -4.5126079    1418.2109  0.053356318  0.052964535            4 
 2216000   0.89388264   -4.5068252    1421.1353  0.053442213  0.052954321            3 
 2217000   0.92388878   -4.4963654    1420.7619   0.05340407  0.052944226            5 
 2218000   0.89800889   -4.4905772    1415.0796  0.053166502  0.052934202            3 
 2219000   0.89987311   -4.5170993    1418.8939  0.053285784  0.052924128            7 
 2220000   0.88697671   -4.5083701    1421.7868  0.053370375  0.052914154            4 
 2221000   0.89129542   -4.5159894    1416.5184  0.053148671  0.052904017            4 
 2222000   0.89799219   -4.5098502     1416.206  0.053113034  0.052894006            2 
 2223000   0.90457006    -4.502495    1417.2265  0.053127399  0.052883784            4 
 2224000   0.90644676    -4.500647     1418.741  0.053160261  0.052873777            3 
 2225000   0.90570918   -4.5100543    1420.0843  0.053186679  0.052863721            9 
 2226000   0.89587318   -4.5081306    1422.7605  0.053262973  0.052853692            3 
 2227000   0.92782217   -4.4938915    1422.1009  0.053214373  0.052843737            7 
 2228000   0.87823578   -4.5157201    1422.5294  0.053206515  0.052833594            4 
 2229000   0.88957773   -4.5207493    1421.9018  0.053159181  0.052823492            8 
 2230000   0.89915235   -4.5037669    1420.0775  0.053067173  0.052813415            3 
 2231000   0.88642305   -4.5086713    1428.3088  0.053350845  0.052803576            2 
 2232000   0.90051833   -4.4860496    1421.2143  0.053062062  0.052793635            4 
 2233000   0.88122142   -4.4831943    1427.0941  0.053257729  0.052783582            3 
 2234000   0.88468754   -4.5135594    1427.5255  0.053249982  0.052773427           15 
 2235000   0.89609854   -4.4730987    1427.5771   0.05322808  0.052763362            4 
 2236000   0.89685974   -4.5029712    1423.4243  0.053049505  0.052753385            4 
 2237000   0.90616391    -4.495392    1428.9814  0.053232805  0.052743569            1 
 2238000   0.91898575   -4.5265746    1421.3515  0.052924916  0.052733712            4 
 2239000   0.90639791   -4.5170218    1422.7141   0.05295199  0.052723602            3 
 2240000   0.89702897   -4.5210786    1429.5621  0.053183116  0.052713521            3 
 2241000    0.8997064   -4.5093051    1424.3381  0.052965123  0.052703496            3 
 2242000   0.88287989   -4.5102979     1427.515  0.053059581  0.052693402            6 
 2243000   0.88155121   -4.5034383    1428.9673  0.053089882  0.052683424            3 
 2244000   0.89345759   -4.4839951    1429.4443   0.05308394  0.052673473            4 
 2245000   0.90823427   -4.5084102    1430.8578   0.05311276  0.052663501            4 
 2246000    0.8933881   -4.5066133     1431.192  0.053101514   0.05265372            3 
 2247000   0.87796482   -4.5026192    1426.5319  0.052905056  0.052643542            6 
 2248000   0.88293354   -4.5014544    1431.6655  0.053071823  0.052633623            5 
 2249000   0.88460729   -4.4657586    1432.7249  0.053087479  0.052623882            3 
 2250000   0.87299826   -4.4918727    1432.0759  0.053039849  0.052613882            7 
 2251000   0.88738072   -4.4987967    1432.1623  0.053019483  0.052604081            2 
 2252000   0.89086974   -4.4977836    1437.6314  0.053198321  0.052594183            1 
 2253000   0.91471407    -4.511317    1428.7331   0.05284558  0.052584081            4 
 2254000   0.87381218   -4.4867015    1435.8918  0.053086801  0.052574113            5 
 2255000   0.89176783    -4.501521    1434.5125  0.053012287  0.052564026            4 
 2256000   0.88225791   -4.4790789    1429.3088  0.052796571  0.052554095            3 
 2257000   0.90347089   -4.5210053    1431.1593  0.052841503  0.052544085            4 
 2258000    0.8761069   -4.5128629    1431.0853   0.05281537  0.052534077            4 
 2259000   0.88350966   -4.5153054    1433.9587   0.05289799  0.052523949            8 
 2260000   0.89574346   -4.5054122    1427.6597   0.05264232  0.052513726            3 
 2261000   0.90750637   -4.4879112    1434.2961  0.052863635  0.052503518            5 
 2262000   0.90471064   -4.5304043    1429.9604  0.052680535  0.052493304            9 
 2263000   0.90531559   -4.5017819    1432.0999  0.052736038  0.052482988            9 
 2264000   0.89109081   -4.5297051    1430.2129   0.05264329  0.052472766            3 
 2265000   0.89734835   -4.5075085    1431.8871  0.052681645  0.052462557            2 
 2266000   0.88345602   -4.5010076    1440.8149  0.052986721  0.052452368            3 
 2267000   0.88762661   -4.4837371    1438.1968  0.052867108  0.052442155            3 
 2268000   0.88956882   -4.4971982    1438.7662  0.052864719  0.052432141            4 
 2269000   0.87944994   -4.5070766    1437.8936  0.052809374  0.052422083            5 
 2270000   0.89795751   -4.5360284    1437.1225  0.052757802  0.052411986            3 
 2271000   0.87700737   -4.4944405    1436.7216  0.052719858   0.05240176            4 
 2272000   0.88972501   -4.5034728     1438.733  0.052770432  0.052391686            5 
 2273000   0.89541519   -4.4702985    1441.1684  0.052836501  0.052381654            3 
 2274000   0.87929691    -4.534128     1431.886    0.0524731  0.052371537            6 
 2275000   0.90046304   -4.5120287    1435.6241  0.052586965   0.05236137            3 
 2276000   0.90235775   -4.5267646    1440.4567  0.052740799   0.05235124            7 
 2277000   0.88384838   -4.5088207    1442.7295  0.052800817  0.052341264            5 
 2278000   0.88417534   -4.5040574    1443.2461  0.052796536  0.052331221            4 
 2279000   0.87312971   -4.5146698    1437.3663   0.05255837  0.052321033            4 
 2280000   0.88699136   -4.5199784    1439.6795  0.052619865   0.05231101            2 
 2281000   0.90220702   -4.5178865    1442.7077  0.052707427  0.052300905            3 
 2282000   0.87446586   -4.5358765    1441.5895  0.052643497  0.052290704           11 
 2283000   0.87848937   -4.5141972    1444.3852  0.052722485  0.052280354            3 
 2284000   0.90115997   -4.5348263    1437.8234  0.052459989  0.052270145            5 
 2285000   0.88649773   -4.5022003    1443.1503  0.052631301  0.052259841            6 
 2286000   0.88239874   -4.5129522    1443.2622  0.052612356  0.052249729            3 
 2287000    0.8755073   -4.4967696     1449.423   0.05281384  0.052239527            2 
 2288000   0.89201772   -4.5046528    1445.0362  0.052630981  0.052229353            6 
 2289000   0.89588487    -4.531302    1439.3926  0.052402528  0.052219042            4 
 2290000   0.87465131   -4.5159075    1442.0504  0.052476362  0.052208945            5 
 2291000   0.87505792   -4.5268846    1442.7372  0.052478436  0.052198776            4 
 2292000   0.88122376   -4.5097849    1445.0081  0.052538106  0.052188467            4 
 2293000   0.88247885   -4.5250985    1441.2798  0.052379698  0.052178195           10 
 2294000   0.87966007   -4.4780747     1447.856  0.052595757  0.052168003            4 
 2295000   0.87657326   -4.5159932    1446.2027  0.052512806  0.052157989            4 
 2296000   0.88166692    -4.516221    1446.5012   0.05250077  0.052147927            5 
 2297000   0.88907171   -4.5024353    1448.9737  0.052567613  0.052138005            5 
 2298000   0.88763353   -4.5422158    1445.0528  0.052402555  0.052127856            2 
 2299000   0.87507203   -4.5122528    1447.8976  0.052482877  0.052117908            4 
 2300000   0.88367852   -4.5221157    1445.6116  0.052377233  0.052107982            3 
 2301000   0.90693874   -4.5445946    1450.9991  0.052549584  0.052098002            7 
 2302000   0.88064338   -4.5418733    1446.2861  0.052356143  0.052088028            5 
 2303000   0.88815668   -4.5192538    1451.4677  0.052520905  0.052077995            3 
 2304000    0.9012842   -4.4979134    1451.6795  0.052505771  0.052067999            3 
 2305000    0.8958477   -4.5042255    1447.8613  0.052344949  0.052057862            3 
 2306000   0.87769979    -4.515098    1451.2273  0.052443887  0.052047706           11 
 2307000   0.88096156    -4.545473     1448.381  0.052318343  0.052037512            3 
 2308000   0.86997479   -4.5244468    1451.0505  0.052392061  0.052027275            6 
 2309000   0.88115138   -4.5104315    1456.6526  0.052571555  0.052017213            3 
 2310000   0.88501936   -4.5138301    1448.9681  0.052271576  0.052007022            4 
 2311000    0.8634056   -4.5431472    1452.3263  0.052370052  0.051996749            3 
 2312000   0.88688751   -4.5077564    1447.1127  0.052159484  0.051986501            2 
 2313000   0.86882142   -4.5247762    1451.9909  0.052312686  0.051976301            5 
 2314000   0.89102511   -4.5440277    1446.2258  0.052082464  0.051966081            4 
 2315000   0.89530873   -4.5153577    1455.5555  0.052395808   0.05195613            6 
 2316000   0.85825742   -4.5254939    1451.9513  0.052243499  0.051946022            4 
 2317000   0.88499737   -4.5316825    1453.3504   0.05227127  0.051935879            6 
 2318000   0.88595605   -4.5344696     1455.409  0.052322727  0.051925686           11 
 2319000   0.86882468   -4.5499772    1453.7199  0.052239466  0.051915676            8 
 2320000   0.89046153   -4.5352536    1450.8742  0.052114733  0.051905408            8 
 2321000   0.88583958   -4.5017083    1457.8117  0.052341366  0.051895417            3 
 2322000    0.8580423   -4.5334367    1453.5112  0.052164484  0.051885307            5 
 2323000   0.89114936   -4.5225683    1455.3709  0.052208741  0.051874984            4 
 2324000   0.86441746   -4.5327926    1455.7385  0.052199458   0.05186487            3 
 2325000   0.88476227   -4.5459721     1452.606  0.052064729  0.051854603            2 
 2326000   0.87492384   -4.5218124    1457.6563  0.052223285  0.051844441            6 
 2327000   0.87822709   -4.5095914    1457.5432  0.052196792  0.051834423            4 
 2328000   0.89065221   -4.5298525    1454.2559  0.052056697  0.051824276            3 
 2329000   0.89540573   -4.5018013    1461.1126  0.052279683  0.051814349            3 
 2330000   0.86486118   -4.5717333     1454.652  0.052026182  0.051804205            3 
 2331000    0.8973861   -4.5397802    1460.9274  0.052228205  0.051794108            3 
 2332000   0.88791385   -4.5367195    1454.5273  0.051977105  0.051783984            5 
 2333000    0.8921018   -4.5438313    1463.3495  0.052269948  0.051773798            8 
 2334000   0.89091018    -4.569083    1456.3606  0.051998021  0.051763776            5 
 2335000   0.89497179   -4.5349113    1457.9693  0.052033166  0.051753846            6 
 2336000   0.88929348   -4.5152471    1462.5947  0.052175897  0.051743957            6 
 2337000   0.85766869    -4.512265    1464.3415  0.052215856  0.051734105            4 
 2338000   0.87378734   -4.5351873    1459.2724  0.052012845  0.051724167            2 
 2339000   0.88383152   -4.5182296    1471.7967   0.05243682  0.051714292            3 
 2340000   0.84323608   -4.5092456    1465.9015  0.052204468  0.051704371            2 
 2341000    0.8830174   -4.5568503    1463.8711  0.052109893  0.051694418            3 
 2342000   0.89268379   -4.5246216    1463.2018  0.052063826  0.051684339            6 
 2343000   0.87547211   -4.5216026     1470.458  0.052299688  0.051674307            2 
 2344000   0.89206414   -4.5247935    1464.3657  0.052060784  0.051664299            4 
 2345000   0.86689403   -4.5233919    1466.5699  0.052116913  0.051654283            7 
 2346000   0.86506009   -4.5457589     1464.615  0.052025254   0.05164413            3 
 2347000   0.88932491   -4.5230151    1464.0052  0.051981436  0.051633988            7 
 2348000   0.90984375   -4.5453956    1466.2335  0.052038385  0.051623888            4 
 2349000   0.86648282   -4.5369296     1470.527  0.052168547  0.051613935            5 
 2350000    0.8704752   -4.5588742    1463.9927  0.051914634  0.051603853            6 
 2351000   0.87692831   -4.5288877    1467.4586  0.052015404  0.051593774            4 
 2352000   0.87750114   -4.5218021    1467.6606  0.052000445  0.051583759            3 
 2353000    0.8843533   -4.5364658    1463.2684  0.051822795  0.051573801            2 
 2354000   0.84978333   -4.5567302    1466.7847  0.051925257  0.051563817            5 
 2355000    0.8737797   -4.5235486    1464.5169  0.051822961  0.051553908            3 
 2356000   0.88299444   -4.5325931    1470.2108  0.052002362  0.051543814            4 
 2357000   0.86431667   -4.5592692     1465.193   0.05180289  0.051533862            3 
 2358000   0.88711923   -4.5304154    1471.1789  0.051992468  0.051523781            6 
 2359000   0.86614671   -4.5530894    1467.1274  0.051827307  0.051513664            2 
 2360000    0.8884106   -4.5373504     1469.471    0.0518881  0.051503671            2 
 2361000   0.88215998   -4.5510072    1470.4286  0.051899923  0.051493705            2 
 2362000   0.87155273   -4.5388288    1466.5566  0.051741344  0.051483641            4 
 2363000   0.89285877   -4.5155627    1476.1996  0.052059513  0.051473742            6 
 2364000   0.87184552   -4.5241797    1469.9435   0.05181696  0.051463638            4 
 2365000   0.85153151   -4.5463227    1467.6128  0.051712925  0.051453499            7 
 2366000   0.87432851    -4.530281    1464.7249  0.051589352  0.051443451            7 
 2367000   0.86548993   -4.5401821    1469.9214  0.051750506  0.051433572            4 
 2368000   0.87613587   -4.5383899    1471.7774   0.05179397   0.05142359            4 
 2369000    0.8775797   -4.5248967    1476.3376  0.051932518  0.051413587            3 
 2370000   0.86570618   -4.5177278    1473.7442  0.051819417  0.051403655            3 
 2371000   0.86804841   -4.5403912    1470.5921  0.051686774  0.051393778            6 
 2372000   0.87463047   -4.5471979    1473.5903  0.051770317  0.051383764            3 
 2373000   0.85410442    -4.555244    1469.0311  0.051588394  0.051373771            3 
 2374000   0.87452935   -4.5249771    1473.6735  0.051729623  0.051363824            3 
 2375000   0.85439349   -4.5422714    1473.3242  0.051695585  0.051353956            8 
 2376000   0.88685671   -4.5632185    1476.4942  0.051785008  0.051344214            3 
 2377000   0.87216097   -4.5413733    1478.5025  0.051833632  0.051334355            5 
 2378000   0.86938073   -4.5437177    1473.7063  0.051643758  0.051324655            2 
 2379000   0.86576374    -4.559151    1480.3035  0.051853141  0.051314849            2 
 2380000   0.87420008   -4.5168894    1481.9075  0.051887516  0.051305127            3 
 2381000   0.87006381   -4.5298589    1479.8897  0.051795103  0.051295673            3 
 2382000     0.863741   -4.5211474    1485.3219  0.051963404  0.051286002            5 
 2383000   0.86527724   -4.5693305    1479.7748  0.051747614  0.051276542           11 
 2384000   0.86125024   -4.5603956    1481.1541  0.051774121   0.05126693            4 
 2385000   0.87324315   -4.5414057    1480.4182  0.051726702  0.051257122            7 
 2386000   0.88014778   -4.5485483    1484.3472  0.051842247  0.051247173            3 
 2387000   0.86949074   -4.5288042    1483.2465  0.051782101  0.051237447            3 
 2388000   0.85330638   -4.5385854    1485.2434  0.051830103  0.051227639            5 
 2389000   0.84327231   -4.5230376    1480.5628  0.051645136  0.051217808            6 
 2390000   0.86065277   -4.5645025    1486.3703  0.051826021  0.051208101            5 
 2391000   0.87398808   -4.5615656    1475.7292  0.051433473  0.051198231            4 
 2392000   0.86971208   -4.5688739     1479.457  0.051541839  0.051188448            7 
 2393000   0.86104201   -4.5421451    1480.8439    0.0515686  0.051178738            3 
 2394000   0.86596263   -4.5379325     1484.138  0.051661724  0.051169018            6 
 2395000   0.86967631   -4.5404831    1482.3373  0.051577499  0.051159297            3 
 2396000   0.90449431   -4.5610283    1482.4061  0.051558364  0.051149635            5 
 2397000   0.84840938    -4.566503    1483.2548   0.05156636  0.051139987            4 
 2398000   0.87917811   -4.5550218    1484.6899  0.051594728  0.051130148            6 
 2399000   0.86743914   -4.5368199    1486.6492   0.05164128  0.051120358            5 
 2400000   0.86385662   -4.5533207    1487.0039  0.051632079   0.05111059            9 
 2401000   0.85525157   -4.5954496    1482.4277  0.051451745  0.051100955            4 
 2402000    0.8713893   -4.5574165    1487.7191    0.0516139  0.051091273            6 
 2403000   0.85605657   -4.5884121    1485.5079   0.05151574  0.051081508            2 
 2404000   0.85790726    -4.531405    1491.3091  0.051695405  0.051071921            4 
 2405000   0.87379866    -4.536942    1492.1099  0.051701659  0.051062398            4 
 2406000   0.88761863   -4.5400907    1491.7514  0.051667755  0.051052894            4 
 2407000   0.86853411   -4.5162934    1494.8867  0.051754836  0.051043416            8 
 2408000   0.86319317   -4.5430842    1495.2185  0.051744825  0.051033835           20 
 2409000   0.85216995   -4.5763995    1486.5888  0.051424823  0.051024486            4 
 2410000   0.87952016   -4.5287067    1496.9138  0.051760503  0.051014903            2 
 2411000     0.874366    -4.544364    1492.4323   0.05158414  0.051005569            3 
 2412000   0.85646798   -4.5534276     1492.984  0.051581814  0.050995999            4 
 2413000    0.8601404   -4.5505306    1494.9366   0.05162787  0.050986438            3 
 2414000   0.86599676   -4.5573483    1490.3059  0.051446629  0.050976964            4 
 2415000   0.85629059   -4.5449868    1491.6991  0.051473398  0.050967462            6 
 2416000   0.86143324   -4.5429102    1494.3097  0.051542138   0.05095795           10 
 2417000   0.86702682   -4.5818879    1491.4214  0.051421231  0.050948488            3 
 2418000   0.87121441   -4.5443499    1495.6202  0.051544673  0.050939067            3 
 2419000   0.85728669   -4.5773617    1498.5789  0.051625288   0.05092961            4 
 2420000   0.83894374    -4.548114    1496.6735  0.051538342  0.050919931            3 
 2421000   0.86718711   -4.5603659    1496.0082  0.051494156  0.050910546            2 
 2422000   0.85122899   -4.5853283    1492.6405  0.051357022  0.050900999            3 
 2423000   0.87345692    -4.571886    1495.3193  0.051427957  0.050891471            6 
 2424000   0.86402536    -4.566694    1492.8907   0.05132325  0.050882028           11 
 2425000   0.87383821   -4.5476516    1496.9697  0.051442259   0.05087251            4 
 2426000   0.85449096   -4.5382951    1500.2405  0.051533405  0.050863018            7 
 2427000   0.86695623   -4.5572547     1496.122  0.051370758  0.050853544            5 
 2428000   0.85198676   -4.5643601    1494.9691  0.051310031  0.050843885            6 
 2429000   0.84811626   -4.5572458    1500.6103  0.051482444  0.050834368            4 
 2430000   0.86367381   -4.5582845    1496.4184  0.051317503  0.050824806            5 
 2431000   0.84861706   -4.5565262     1500.252  0.051427807  0.050815251            3 
 2432000   0.85551806   -4.5675002    1502.3139  0.051477314  0.050805642            4 
 2433000    0.8741607   -4.5754141    1496.6336  0.051261598  0.050796029            6 
 2434000   0.88975598   -4.5324337    1499.7606  0.051347597  0.050786377            6 
 2435000   0.86616924   -4.5665504    1500.7776  0.051361315  0.050776814            6 
 2436000   0.86762329   -4.5597374    1494.6162  0.051129453  0.050767188            8 
 2437000   0.87346646   -4.5388382    1496.4069  0.051169707  0.050757766            5 
 2438000   0.85655331   -4.6009169    1505.8349  0.051470976  0.050748409            2 
 2439000   0.85167848   -4.5640598    1498.6701  0.051205074  0.050738818            3 
 2440000   0.84515579   -4.5876641    1500.4982  0.051246524  0.050729216            7 
 2441000   0.87549713   -4.5526956    1501.0374  0.051243936  0.050719676            5 
 2442000   0.85571713   -4.5666292    1501.8593  0.051251001  0.050710142            6 
 2443000   0.87784115   -4.5659601    1500.0572   0.05116855  0.050700728            4 
 2444000    0.8646666   -4.5570353     1505.848  0.051345061  0.050691332            4 
 2445000   0.86413424   -4.5515385    1507.8907  0.051393683  0.050682072            7 
 2446000   0.86898742   -4.5894075    1500.1319  0.051108337  0.050672573            2 
 2447000   0.86262829   -4.5858914    1506.3266  0.051298415  0.050663146            5 
 2448000   0.85274598   -4.5544443    1504.3153  0.051208991  0.050653878            2 
 2449000   0.84756723   -4.5769973    1505.8685  0.051240932  0.050644485            6 
 2450000   0.85523145   -4.5611512    1503.9251  0.051153916  0.050635051            3 
 2451000    0.8581449   -4.5421997    1510.2248  0.051347234  0.050625601            4 
 2452000   0.84984794   -4.5531688    1506.8241  0.051210717  0.050616168            5 
 2453000   0.86317896   -4.5670133    1509.7255  0.051288406  0.050606655            3 
 2454000   0.87196555   -4.5753717    1509.4067  0.051256679  0.050597267            5 
 2455000   0.88334719   -4.5381929    1508.4863  0.051204558    0.0505879            2 
 2456000   0.86641485   -4.5342137    1509.2784  0.051210586  0.050578397            3 
 2457000   0.84281029   -4.5578128    1508.9376  0.051178184  0.050569123            4 
 2458000    0.8534124   -4.5641281     1508.487  0.051142087  0.050559647            4 
 2459000      0.86273   -4.5546585    1508.6911  0.051128208  0.050550087            4 
 2460000   0.86742353   -4.5280002    1507.9508  0.051082343  0.050540452            5 
 2461000   0.85974183   -4.5322256    1509.9983  0.051130919  0.050530996            3 
 2462000   0.86015411   -4.5980759    1506.3932  0.050988126  0.050521552            3 
 2463000    0.8775446   -4.5660484    1512.5178  0.051174646   0.05051193            4 
 2464000   0.86649697   -4.5708319    1510.4776  0.051084874  0.050502439            7 
 2465000   0.86155001   -4.5490226    1512.8042  0.051142807  0.050493031            6 
 2466000   0.86192114   -4.5576109    1515.9611  0.051228748   0.05048365            6 
 2467000   0.87575025   -4.5749605    1509.0944  0.050976031  0.050474347            7 
 2468000   0.84028504    -4.539783    1512.8993  0.051083851  0.050464904            7 
 2469000    0.8188623   -4.5551862    1509.9441  0.050963417  0.050455289            4 
 2470000   0.86272834    -4.601335    1511.4683  0.050994207   0.05044573            9 
 2471000   0.83980999   -4.5777818    1507.8018  0.050849921  0.050436231            2 
 2472000   0.83673812   -4.5672083    1513.0921  0.051007691  0.050426689            5 
 2473000   0.86326566   -4.5755131    1510.6906  0.050906141  0.050417194            3 
 2474000   0.86244565   -4.5594936    1517.7324  0.051122756  0.050407871            4 
 2475000   0.84108237   -4.5392762    1515.0714  0.051012505  0.050398369            4 
 2476000   0.86298991   -4.5692734    1512.8612  0.050917514  0.050388692            5 
 2477000   0.85245121    -4.590361    1514.6468  0.050957033  0.050379167            2 
 2478000   0.84400487   -4.5670687     1513.791  0.050907689  0.050369602            4 
 2479000   0.85786782   -4.6051143    1508.9247   0.05072357  0.050360103            2 
 2480000   0.83222104   -4.5857011    1514.8043  0.050900681   0.05035065            6 
 2481000   0.85726153   -4.5822907    1519.1637  0.051026593  0.050341125            7 
 2482000   0.84956016   -4.5774894    1515.0179  0.050866838  0.050331684            6 
 2483000   0.84695229   -4.5543946    1516.4702  0.050895094  0.050322167            3 
 2484000   0.86730611   -4.5658991    1516.1994  0.050865518  0.050312747            3 
 2485000   0.84162298   -4.5645383    1521.2788  0.051015386  0.050303311            3 
 2486000   0.84356756    -4.554838    1518.0757  0.050887492  0.050293791            6 
 2487000   0.84723523   -4.5381894    1515.3403  0.050775377  0.050284439            4 
 2488000   0.85195028   -4.5679432    1518.5539  0.050862603   0.05027498            7 
 2489000   0.86145211   -4.5887145    1516.8055  0.050783633  0.050265579            6 
 2490000   0.86056678   -4.5695227    1521.8781  0.050933003  0.050256054            6 
 2491000   0.83760601   -4.5698185    1520.3962   0.05086298  0.050246693            5 
 2492000   0.85802477   -4.5870982    1517.0633  0.050731116   0.05023722            4 
 2493000   0.85169329   -4.5785821    1519.8059  0.050802442   0.05022793            5 
 2494000   0.86109607   -4.5865018    1520.8336  0.050816411  0.050218678            2 
 2495000   0.86539828   -4.5800139    1522.2265  0.050842568  0.050209372            5 
 2496000   0.84180274   -4.5595677    1524.7488  0.050906409  0.050200071            5 
 2497000   0.84175128   -4.5489813    1523.4882  0.050843952  0.050190837            8 
 2498000   0.86549192   -4.5722145    1521.0007  0.050740616  0.050181608            7 
 2499000   0.84154004   -4.5865927    1524.8077  0.050847263  0.050172322            5 
 2500000   0.86705772   -4.5679964    1522.0154  0.050733847  0.050163054            4 
 2501000   0.85779446   -4.5829295    1522.0481   0.05071465  0.050153774           16 
 2502000   0.85588828   -4.5813217    1523.6567  0.050747959  0.050144487            7 
 2503000   0.84861091   -4.6049855    1517.6415  0.050527416  0.050134947            6 
 2504000   0.86600657    -4.556639      1526.98  0.050818026  0.050125649            5 
 2505000   0.85093359   -4.5966013    1522.9249  0.050662838  0.050116426            4 
 2506000   0.86051848   -4.5860314    1527.0379  0.050779394  0.050107044            9 
 2507000   0.86368797   -4.5969005    1521.8884  0.050587968  0.050097642            5 
 2508000   0.85793794   -4.5682063    1528.5878  0.050790397  0.050088201            4 
 2509000    0.8629644   -4.5457408    1526.9974  0.050717331  0.050078935            6 
 2510000   0.86575603   -4.5998847    1523.2142   0.05057152  0.050069633            3 
 2511000   0.85291374   -4.5760185    1530.3839  0.050789323  0.050060321            3 
 2512000   0.82319851   -4.5797826    1528.0581  0.050691949  0.050050993            4 
 2513000    0.8495798   -4.5924302    1532.2437  0.050810575  0.050041622            4 
 2514000   0.85667005   -4.5803241    1527.4333   0.05063091  0.050032428            7 
 2515000   0.84722459   -4.6216078    1524.9159  0.050527365  0.050023092            4 
 2516000   0.86134777   -4.5586507     1534.649  0.050829658  0.050013733            4 
 2517000   0.85079136   -4.6034425    1529.0384  0.050623706  0.050004426            4 
 2518000   0.84787625   -4.5658826    1533.4322  0.050749013   0.04999512            6 
 2519000   0.84684733   -4.6042053    1531.5079  0.050665208  0.049985873            3 
 2520000   0.84570927   -4.5780591    1524.1755  0.050402631   0.04997654            5 
 2521000   0.86402596   -4.5859689    1532.6494  0.050662747  0.049967227            4 
 2522000   0.84865509   -4.5659132    1528.1277   0.05049325  0.049958014            5 
 2523000   0.85810186   -4.5692989    1534.2756  0.050676298  0.049948701            4 
 2524000   0.86371667   -4.5860144    1525.8286  0.050377332  0.049939255            5 
 2525000    0.8539353   -4.5765928    1529.8944  0.050491565  0.049929907            4 
 2526000    0.8372692   -4.5948151      1531.05  0.050509698  0.049920379            4 
 2527000   0.84932738   -4.5835768    1528.7025  0.050412297  0.049910976            6 
 2528000   0.85123732   -4.5625607    1537.3212  0.050676465  0.049901587            4 
 2529000   0.86270441   -4.5884559    1531.4569  0.050463189   0.04989227            3 
 2530000   0.86443173   -4.5886398    1534.5515  0.050545175  0.049882991            4 
 2531000   0.83501893   -4.6210973    1531.1914  0.050414572  0.049873599            6 
 2532000   0.84489713   -4.5807831    1533.1664  0.050459662  0.049864352            6 
 2533000   0.86106063   -4.5938296    1533.6074   0.05045425  0.049854946            5 
 2534000   0.85875577   -4.5993007    1533.7013  0.050437427  0.049845606            4 
 2535000    0.8412145    -4.580873     1539.278  0.050600856  0.049836346            7 
 2536000   0.85596544     -4.57529    1534.0564  0.050409319  0.049827022            4 
 2537000   0.82636847   -4.5848261    1538.7802  0.050544615  0.049817749            5 
 2538000   0.85995963   -4.5826009    1534.1121  0.050371425  0.049808367            3 
 2539000   0.85071019   -4.5757685    1538.9546  0.050510522   0.04979915            3 
 2540000   0.86045254   -4.5854129    1537.1245  0.050430595  0.049789891            7 
 2541000   0.86030148   -4.5917126    1539.2788  0.050481397  0.049780699            3 
 2542000   0.83517051    -4.606928    1538.6441  0.050440732  0.049771437            4 
 2543000   0.83585996   -4.5933176    1538.0621  0.050401824  0.049762126            5 
 2544000   0.84613033   -4.5880729    1535.5559  0.050299918  0.049752941            5 
 2545000   0.86797647   -4.5982409    1537.6692  0.050349351  0.049743796            7 
 2546000   0.86046322   -4.5986951    1534.5264  0.050226707  0.049734682            7 
 2547000   0.83313932   -4.5891972    1542.3784  0.050463893  0.049725519            5 
 2548000   0.84288907   -4.6114843    1538.4694  0.050316243  0.049716356            4 
 2549000   0.84245474   -4.5735586    1546.4344    0.0505569  0.049707109            3 
 2550000   0.85580063   -4.5729391    1540.3443  0.050338049  0.049697924            6 
 2551000   0.84359114   -4.6107555    1535.6012  0.050163373    0.0496887            7 
 2552000   0.84800071   -4.6200448    1538.4536   0.05023686   0.04967954            7 
 2553000    0.8450084    -4.596756    1547.4614   0.05051121   0.04967022            4 
 2554000   0.85224174   -4.5647841    1547.7571  0.050501079  0.049661253            3 
 2555000   0.85449044   -4.6226043    1542.2731  0.050302448  0.049652118            9 
 2556000   0.84655968   -4.6012613    1546.4045  0.050417465  0.049643049            9 
 2557000   0.85696014   -4.5724667    1546.0173  0.050385129  0.049633953            5 
 2558000   0.85937396   -4.6151495    1546.0683  0.050367092  0.049624849            3 
 2559000   0.84216008    -4.593105    1544.4088  0.050293369   0.04961573            3 
 2560000   0.84559485   -4.5665065    1545.7926   0.05031877  0.049606658            2 
 2561000   0.83688627   -4.5777423    1546.9573  0.050337019  0.049597626            5 
 2562000   0.83575611   -4.6252273    1542.5285  0.050173317  0.049588618            6 
 2563000   0.83885704   -4.5978787    1544.7355  0.050225502  0.049579634            3 
 2564000   0.84151368   -4.5807266    1548.8397  0.050339304  0.049570562            6 
 2565000   0.84678131   -4.5889534    1546.9162  0.050257187  0.049561453            4 
 2566000   0.83454098   -4.6045101    1545.6318  0.050195888  0.049552466            1 
 2567000   0.81963547   -4.6252794    1551.0838  0.050353323  0.049543417            4 
 2568000   0.84378852   -4.6019876    1545.0057  0.050136478  0.049534353            5 
 2569000   0.84153859   -4.6054203    1549.5126  0.050263156  0.049525378           12 
 2570000   0.84147244   -4.6044112    1551.2721  0.050300651   0.04951634            3 
 2571000   0.81850099   -4.5928242    1551.4385   0.05028648   0.04950726            3 
 2572000   0.84613951   -4.6269683    1550.0336  0.050221409  0.049498115            3 
 2573000   0.85240185   -4.6213657    1548.9997  0.050168405  0.049488949            5 
 2574000   0.83864736   -4.5983326    1550.1972  0.050187683  0.049479734            4 
 2575000   0.83260835   -4.6081596    1550.0284  0.050162731  0.049470575            6 
 2576000    0.8231667   -4.6003637    1549.4995  0.050126147  0.049461397            2 
 2577000   0.81463875   -4.6293267    1546.3348   0.05000436  0.049452231            3 
 2578000   0.81950841   -4.5936488    1552.2375  0.050175765  0.049442966            4 
 2579000    0.8502598   -4.5762158    1551.0988  0.050119518  0.049433859            4 
 2580000   0.83672492   -4.5944549    1549.5108    0.0500488  0.049424758            2 
 2581000   0.84656613   -4.6176157    1546.4679  0.049931162  0.049415652           12 
 2582000   0.83137216   -4.5994788     1548.146  0.049965982  0.049406639            5 
 2583000   0.83842449   -4.6147852    1552.1084  0.050074475  0.049397494            5 
 2584000   0.83935851   -4.5826301    1552.6621  0.050072953  0.049388295            3 
 2585000   0.84559347   -4.5944926    1549.9034  0.049964649   0.04937925            5 
 2586000   0.84245587   -4.6029851      1554.53  0.050094418  0.049370077            3 
 2587000   0.82683255   -4.5832301    1558.4271   0.05020059  0.049360966            5 
 2588000   0.85365242   -4.6123607    1552.0088  0.049974524  0.049351924            3 
 2589000   0.83035084   -4.6127902    1554.5453  0.050036865  0.049342673            4 
 2590000    0.8539782   -4.6032048    1551.1274  0.049907574  0.049333344            5 
 2591000    0.8525682   -4.5760998    1558.8729  0.050137429  0.049324081            9 
 2592000   0.84360203   -4.6033797    1556.1068  0.050029154   0.04931484            4 
 2593000   0.82726619    -4.620897    1558.2784  0.050079651    0.0493057            3 
 2594000   0.83099838   -4.6027725    1556.5218  0.050003914  0.049296451            6 
 2595000   0.84484342   -4.6163438    1556.9673  0.049998951  0.049287162            4 
 2596000   0.83105642   -4.5850677    1559.7158  0.050067918  0.049277861            3 
 2597000   0.81175752   -4.5862503    1554.6994  0.049887671  0.049268709            5 
 2598000   0.84579108   -4.6026808    1553.4146  0.049827258  0.049259482            7 
 2599000   0.82982567   -4.5915747    1560.6381  0.050039698  0.049250264            5 
 2600000   0.82144482   -4.6090842     1557.346  0.049914936  0.049241094            6 
 2601000   0.82562724   -4.6024539    1560.9646  0.050011681   0.04923198            2 
 2602000   0.82567384   -4.6021762    1558.9007  0.049926363  0.049223019            2 
 2603000   0.82413207   -4.5951965    1556.4506  0.049828743  0.049213804            6 
 2604000    0.8292422   -4.6008098    1560.4873   0.04993879  0.049204589            6 
 2605000   0.82797252   -4.5811949    1559.5354  0.049889167  0.049195491            4 
 2606000   0.81673561   -4.6171738    1555.9811  0.049756366  0.049186381            3 
 2607000   0.84756728   -4.6184055    1557.2498  0.049777835  0.049177234            4 
 2608000   0.83949071   -4.6134386    1556.4447  0.049733025  0.049168089            4 
 2609000   0.85400472   -4.5903245    1564.2923  0.049964619  0.049159027            4 
 2610000   0.85572386   -4.5992046    1562.2848  0.049881378  0.049149779            6 
 2611000   0.83142767   -4.6310578    1559.9447  0.049787587    0.0491406            4 
 2612000   0.82076647   -4.6042999      1564.75  0.049921834  0.049131515            3 
 2613000   0.81838097   -4.6091385    1559.9405  0.049749347  0.049122253            2 
 2614000     0.837577   -4.6060439    1560.6913  0.049754251  0.049113069            7 
 2615000   0.84075845   -4.6121207    1562.8451  0.049803858  0.049103835            4 
 2616000   0.83092962   -4.6191875    1560.5623  0.049712103  0.049094512            5 
 2617000    0.8528261   -4.6207815     1566.227  0.049873486   0.04908535            8 
 2618000   0.83362745   -4.6351497    1560.6701  0.049677555  0.049076167            8 
 2619000   0.81888021   -4.6012548    1559.3363  0.049616147  0.049066858            6 
 2620000   0.84690491   -4.6238243    1559.5785  0.049604914  0.049057696            3 
 2621000   0.82759066   -4.6305255    1560.7436  0.049623033  0.049048484            5 
 2622000   0.82359096   -4.6536827    1561.0988  0.049615394  0.049039172            9 
 2623000   0.83583696   -4.6160536    1564.9872  0.049720014  0.049029987            3 
 2624000   0.83656408   -4.6078933    1561.7263  0.049597507  0.049020822            4 
 2625000   0.82638354   -4.6039404    1566.6181  0.049733909  0.049011557            5 
 2626000    0.8355754   -4.6352984    1561.2917  0.049545943   0.04900232            9 
 2627000   0.84173352   -4.6252867    1566.2133  0.049683203  0.048993207            6 
 2628000   0.83267794   -4.6101103    1570.1755  0.049789937    0.0489841            4 
 2629000   0.83116541   -4.6270269    1568.9137  0.049731003  0.048974934            3 
 2630000   0.83558103   -4.6169665    1565.6369  0.049608268  0.048965745            4 
 2631000   0.84564152   -4.6127193    1573.6917  0.049844536  0.048956707            6 
 2632000   0.83688001   -4.6147303    1567.3733  0.049625547  0.048947696            9 
 2633000   0.83593464   -4.6198411    1570.0671  0.049691958  0.048938547            4 
 2634000   0.84459377   -4.6114888    1569.4458  0.049653437  0.048929533            5 
 2635000   0.81704841   -4.6661043    1565.4969  0.049509706  0.048920416            6 
 2636000   0.84622747    -4.606685    1569.9089  0.049630403  0.048911319            4 
 2637000   0.81882806   -4.6030768    1567.9625  0.049550073  0.048902295            8 
 2638000   0.82701468   -4.6016266     1570.667  0.049616723  0.048893244            3 
 2639000   0.83841852   -4.6401297     1567.467  0.049496873  0.048884238            4 
 2640000   0.83338522    -4.588097    1575.7943  0.049740982  0.048875234            6 
 2641000   0.82729812   -4.6092799    1567.3666  0.049456222  0.048866302            3 
 2642000   0.83497267   -4.6080487    1572.9048  0.049612187  0.048857244            7 
 2643000   0.82957107   -4.6393923    1571.7312  0.049556412  0.048848307            5 
 2644000   0.82715144   -4.6141202    1574.6682  0.049630237    0.0488393            3 
 2645000   0.82113218   -4.6217669    1573.9803    0.0495898  0.048830278            7 
 2646000   0.82238043   -4.6119026    1575.4026  0.049615855   0.04882125            3 
 2647000   0.82806843   -4.6040126    1571.8579  0.049485514  0.048812217            6 
 2648000    0.8155178   -4.6355381     1574.344  0.049545064  0.048803318            3 
 2649000    0.8358382     -4.62392    1570.4286  0.049403189  0.048794232            6 
 2650000   0.81105662   -4.6249987    1572.1615  0.049439042  0.048785183            5 
 2651000   0.84264132   -4.5957762    1574.0265  0.049479017  0.048776053            4 
 2652000   0.81813314   -4.6190798     1576.376  0.049534187  0.048767065            7 
 2653000   0.82270414   -4.6329662    1573.0605  0.049411373   0.04875803            2 
 2654000   0.82820471   -4.6268687    1569.1407  0.049269678    0.0487489            5 
 2655000   0.82099937   -4.6397798    1569.9637  0.049276952  0.048739716           10 
 2656000   0.83369358   -4.6231931    1571.7964    0.0493159   0.04873055            7 
 2657000   0.84379241   -4.6256773    1573.2932  0.049344285  0.048721383           10 
 2658000   0.83258997   -4.6500889    1571.9589  0.049283887  0.048712151            9 
 2659000   0.83752363    -4.658016    1569.9449  0.049202235  0.048702859            5 
 2660000   0.83782078   -4.6215743    1574.8102   0.04933616  0.048693685            5 
 2661000   0.81118387    -4.610821    1571.2693   0.04920673  0.048684488            6 
 2662000    0.8348415   -4.6328467    1578.6892  0.049420523  0.048675321            6 
 2663000   0.82959699   -4.6358919    1572.3665  0.049204108  0.048666057            5 
 2664000   0.82992486   -4.6545681    1573.0406  0.049206726  0.048656825            6 
 2665000   0.82234855   -4.6616059    1575.5362  0.049266296  0.048647432            3 
 2666000    0.8001831   -4.6307778    1577.6785  0.049314782  0.048637959            3 
 2667000   0.83643555   -4.6229195    1578.8327  0.049332356   0.04862864            3 
 2668000   0.83780984   -4.6324208    1573.1971  0.049137839    0.0486192            4 
 2669000   0.81585849   -4.6282681    1573.3431  0.049123988  0.048609781            3 
 2670000   0.84336364   -4.6075059    1572.8361  0.049089766  0.048600407            3 
 2671000   0.81291567   -4.6321497    1574.1146  0.049111274  0.048590967            3 
 2672000   0.80793403   -4.6568506    1572.1864  0.049032761  0.048581611            4 
 2673000   0.83257475   -4.6486755    1571.2195  0.048984273  0.048572063            7 
 2674000   0.80640621   -4.6265827    1577.9823  0.049176712  0.048562555            3 
 2675000   0.82182854    -4.623209    1572.7886  0.048996529  0.048552968            7 
 2676000   0.82780421    -4.631019    1574.7823  0.049040304  0.048543355            6 
 2677000   0.81205105   -4.6010006    1574.7552  0.049021142   0.04853386            8 
 2678000   0.83731134   -4.6298473    1571.1828  0.048891673   0.04852428            4 
 2679000   0.80891961   -4.6362517    1576.8815  0.049050688  0.048514712            6 
 2680000   0.79133281   -4.6595377    1573.4264  0.048924951  0.048505014           19 
 2681000   0.83036225   -4.6287374    1576.2675  0.048995011  0.048495332            4 
 2682000   0.82568255   -4.6263129    1576.6171  0.048987606  0.048485728            3 
 2683000   0.81143668   -4.6402018    1571.0611  0.048796778  0.048476061            3 
 2684000   0.82407252   -4.6403621    1575.3024  0.048910284  0.048466434            5 
 2685000   0.83051771   -4.6362447    1577.6786  0.048965815  0.048456721            6 
 2686000   0.80277895   -4.6389773    1575.6838  0.048885697  0.048447046            4 
 2687000   0.80449908   -4.6426983    1575.6297  0.048865827  0.048437273            3 
 2688000   0.78938951   -4.6288917    1575.7221  0.048850511  0.048427661            6 
 2689000   0.81027552   -4.6283104    1571.6288  0.048705492  0.048418036            3 
 2690000   0.81199715   -4.6448703    1574.2096  0.048767337  0.048408327            7 
 2691000    0.8230851     -4.61869    1578.3791  0.048878332  0.048398732            4 
 2692000   0.81125419   -4.6439577    1576.9358  0.048815496  0.048389026           15 
 2693000   0.82891144   -4.6335123     1577.047  0.048800811  0.048379375            4 
 2694000   0.81463543   -4.6559646    1572.7706  0.048650414  0.048369497            7 
 2695000   0.81861265   -4.6511382      1576.05  0.048733767  0.048359688            5 
 2696000   0.81767788   -4.6370393    1577.8368  0.048770919  0.048349778            4 
 2697000   0.83896732   -4.6317979    1576.7586  0.048719522  0.048339956            5 
 2698000   0.81725627   -4.6293986    1575.2963  0.048656296  0.048330105            4 
 2699000   0.81834613   -4.6306241    1578.9839  0.048752127  0.048320344            7 
 2700000   0.81399381   -4.6473432    1573.2866  0.048558229  0.048310603            5 
 2701000   0.84104532   -4.6385389    1578.4111  0.048698355  0.048300725            6 
 2702000    0.8253343    -4.630066    1577.6419  0.048656611  0.048290928            5 
 2703000   0.81333445   -4.6403419    1574.4593   0.04854049  0.048281107            4 
 2704000   0.81694518   -4.6438639    1574.4255  0.048521497  0.048271255            9 
 2705000    0.8180524   -4.6333546    1578.1538  0.048618417  0.048261277           10 
 2706000   0.83656996   -4.6538158    1579.6696  0.048647129  0.048251191            5 
 2707000   0.82134965   -4.6349551    1579.3468  0.048619222  0.048241156            4 
 2708000   0.82604296   -4.6166222    1579.0235  0.048591318  0.048231187            3 
 2709000   0.81877342   -4.6521968    1577.0128  0.048511529  0.048221313            2 
 2710000   0.81816993   -4.6306121    1574.8864   0.04842824  0.048211359            6 
 2711000   0.83256838    -4.621242     1576.533  0.048460993  0.048201544            3 
 2712000   0.82492152    -4.664598    1579.7856  0.048543067  0.048191647            5 
 2713000   0.80033595   -4.6567745    1578.8442  0.048496258  0.048181829            3 
 2714000   0.81877599   -4.6366256    1578.1624  0.048457457  0.048171975            3 
 2715000   0.83137002   -4.6349477    1578.0456  0.048436021   0.04816211            4 
 2716000   0.82682851   -4.6305915    1583.5188   0.04858612  0.048152247            6 
 2717000   0.79671796   -4.6699616    1582.9642  0.048551227  0.048142401            3 
 2718000   0.80781258   -4.6224981    1574.0578  0.048260297  0.048132462           13 
 2719000   0.80963877   -4.6280445    1580.0422  0.048425958  0.048122547            7 
 2720000   0.79694896   -4.6542722    1582.0927  0.048470978  0.048112705            5 
 2721000   0.82301217   -4.6501456    1581.7269  0.048441962  0.048102778            2 
 2722000   0.81994712   -4.6322375    1577.2867  0.048288229  0.048092822            5 
 2723000   0.80591591   -4.6499758    1579.5368  0.048339356  0.048082797            6 
 2724000   0.79268965   -4.6547509    1581.1714  0.048371617  0.048072748            7 
 2725000   0.81839064   -4.6524762    1574.3953  0.048146644  0.048062766            2 
 2726000   0.80443394   -4.6222341    1582.1389  0.048365705   0.04805277            4 
 2727000   0.82380012   -4.6291842    1580.3109  0.048292106  0.048042776            4 
 2728000   0.81143496    -4.643519    1578.4931  0.048218876  0.048032692            2 
 2729000   0.81349554   -4.6336922    1582.1801  0.048313794  0.048022743            6 
 2730000   0.83599205   -4.6582216    1581.2537  0.048267817  0.048012695            4 
 2731000   0.80636741   -4.6443007    1580.2466  0.048219411  0.048002631            5 
 2732000   0.82903404    -4.631111    1585.9177  0.048374748  0.047992713            3 
 2733000   0.80101965    -4.673097     1579.573  0.048163587  0.047982731            6 
 2734000   0.80268356    -4.665737    1585.3692  0.048322642  0.047972585            8 
 2735000   0.82718504   -4.6728707    1580.1312  0.048145376  0.047962574           10 
 2736000   0.81781771   -4.6694878    1579.5579  0.048110318  0.047952492            5 
 2737000   0.80590458   -4.6730036    1579.9524  0.048104749  0.047942375            7 
 2738000   0.83427553   -4.6573072    1581.9302  0.048147377  0.047932415            5 
 2739000   0.80506432   -4.6776954    1577.2609  0.047987734  0.047922324            6 
 2740000   0.79637593   -4.6589334    1578.1024  0.047995817  0.047912278           10 
 2741000   0.82566678   -4.6539766    1586.2691  0.048226592  0.047902311            7 
 2742000   0.81563074   -4.6281155    1581.0501  0.048050392  0.047892238            5 
 2743000    0.8152511    -4.693581    1578.0158   0.04794069  0.047882065            7 
 2744000   0.82448821   -4.6512361    1584.4125  0.048117482  0.047871958            4 
 2745000   0.80322149   -4.6285954    1585.7984  0.048142028  0.047861855            5 
 2746000   0.79040987   -4.6882784    1579.7079  0.047939666  0.047851684            3 
 2747000   0.82071287   -4.6633299    1588.8843  0.048200591   0.04784155            4 
 2748000   0.82235746   -4.6321271      1588.62  0.048175036  0.047831532            6 
 2749000   0.80081997   -4.6566783    1581.8352  0.047951837  0.047821486            3 
 2750000   0.81114048   -4.6858229    1583.9072  0.047997186  0.047811369            6 
 2751000   0.81704685   -4.6574766    1589.8135  0.048158654  0.047801149            5 
 2752000   0.79780574   -4.6314397    1581.2045  0.047880465  0.047791211           10 
 2753000   0.81292873   -4.6693387    1585.7413  0.048000404  0.047781102            9 
 2754000   0.81268971   -4.6517776    1589.5326  0.048097694  0.047771075            3 
 2755000   0.81785168    -4.667325    1588.1911  0.048039659   0.04776106            4 
 2756000   0.81309517   -4.6375388    1590.9394  0.048105329  0.047751088            5 
 2757000   0.81769295   -4.6707621    1586.7698  0.047961849  0.047741119            7 
 2758000   0.80208008   -4.6626015    1594.1113  0.048166281  0.047731152            4 
 2759000   0.83567767   -4.6550311    1589.2917  0.048003254  0.047721199            3 
 2760000   0.80896197   -4.6615843    1587.8431  0.047942122  0.047711253            4 
 2761000   0.81478381   -4.6774032     1590.264  0.047997828  0.047701303            4 
 2762000   0.81473004   -4.6547276    1591.3499  0.048013213  0.047691451            8 
 2763000   0.80172505   -4.6479144    1589.6653  0.047945026  0.047681526            5 
 2764000   0.81554129    -4.667441    1591.1584  0.047972696   0.04767161            4 
 2765000   0.80619934   -4.6567808    1598.4395  0.048174789  0.047661836            4 
 2766000   0.82045563   -4.6377782    1597.4934  0.048128869  0.047652036            6 
 2767000   0.79980443   -4.6949088    1596.7032  0.048087678  0.047642295            6 
 2768000   0.81619708   -4.6668514    1593.7318  0.047980848  0.047632409            4 
 2769000    0.8200185   -4.6723566    1594.4821  0.047986099  0.047622598            6 
 2770000   0.81494383   -4.6496773    1590.6619  0.047853848  0.047612704            3 
 2771000    0.8026762   -4.6520354    1595.1586  0.047971811  0.047602816            5 
 2772000   0.80349887   -4.6557527    1595.1364  0.047953837     0.047593            5 
 2773000   0.81137062   -4.6524853    1595.8192  0.047957062  0.047583101            7 
 2774000    0.8003359   -4.6791162    1594.1155  0.047888593  0.047573291            5 
 2775000   0.79220566   -4.6513422     1593.141  0.047842071  0.047563461            6 
 2776000   0.81253318   -4.6525375    1600.5841  0.048048274  0.047553584            5 
 2777000   0.80479953   -4.6681784     1587.214  0.047629756  0.047543788            9 
 2778000   0.80253826   -4.6631541     1594.324  0.047825894  0.047533855            3 
 2779000   0.81689779   -4.6253996    1599.8464  0.047974285  0.047524009            4 
 2780000   0.78984784   -4.6673565    1595.0737  0.047813961  0.047514233            3 
 2781000   0.80391532   -4.6780935    1596.6049   0.04784265  0.047504428            3 
 2782000    0.8013236   -4.6713694    1596.2034  0.047813425   0.04749461            3 
 2783000   0.80609198   -4.6780492    1593.5126  0.047715674  0.047484766           14 
 2784000   0.80895814   -4.6599971    1597.4443  0.047816221  0.047474993            6 
 2785000    0.8054938    -4.643994    1600.4565  0.047889183  0.047465134            2 
 2786000   0.80183455   -4.6355317    1598.2767  0.047806793  0.047455394            5 
 2787000   0.79269319   -4.6552268     1600.263   0.04784903  0.047445577            4 
 2788000   0.82322156   -4.6763462     1596.641  0.047723609  0.047435663            6 
 2789000   0.81649223   -4.6582805    1594.8679  0.047653516  0.047425764            6 
 2790000   0.78693161    -4.687426    1598.0092  0.047730264  0.047415866            4 
 2791000   0.78815419   -4.6532148    1594.0043  0.047593582  0.047405947            6 
 2792000   0.80231172   -4.6652843    1603.3508  0.047855505  0.047395959            9 
 2793000   0.81584777   -4.6403431    1600.1582  0.047743113   0.04738598            3 
 2794000   0.80407703   -4.6546888     1601.595  0.047768878  0.047376089            7 
 2795000   0.80731743   -4.6559215    1600.8648  0.047730018  0.047366185            4 
 2796000   0.80465905   -4.6604062    1601.3145  0.047726351  0.047356214            8 
 2797000   0.80580334   -4.6852482      1601.22  0.047706473  0.047346132            3 
 2798000    0.8240823   -4.6718443    1598.5903  0.047611099   0.04733616            4 
 2799000   0.80119084   -4.6765241    1595.9683  0.047516025  0.047326196           10 
 2800000   0.81304494   -4.6646294    1600.0087  0.047619307  0.047316268            6 
 2801000   0.81024623   -4.6714604    1601.3798  0.047643098  0.047306247            5 
 2802000   0.81992676   -4.6584673    1606.1623   0.04776833  0.047296367            3 
 2803000   0.78936764   -4.6716433    1601.6435  0.047616944  0.047286379            6 
 2804000   0.79443173   -4.6595912    1603.6162  0.047658588  0.047276505            6 
 2805000   0.81335184   -4.6488515    1603.1873  0.047628855  0.047266723           13 
 2806000   0.78836177   -4.6831946    1601.3383  0.047556969  0.047256823            7 
 2807000   0.80730546   -4.6942678    1602.6546  0.047579105  0.047246762            9 
 2808000   0.80106128   -4.6651338    1603.0245  0.047573138  0.047236782            7 
 2809000   0.81411034   -4.6623135    1603.4542   0.04756895  0.047226932            7 
 2810000   0.79812964   -4.6774385    1607.1298  0.047661026  0.047217144            5 
 2811000   0.80675364   -4.6711806    1603.8087  0.047545615  0.047207305            6 
 2812000   0.82041085   -4.6635418    1607.5834   0.04764057  0.047197437            3 
 2813000   0.80036477   -4.7158085    1594.5431  0.047237325  0.047187556            7 
 2814000   0.79074733   -4.6684851    1603.4573  0.047484521  0.047177571            4 
 2815000   0.79550671   -4.6617729    1610.6281  0.047679933  0.047167653            6 
 2816000   0.81235683   -4.6906113    1602.9005   0.04743432  0.047157755            7 
 2817000    0.7865873   -4.6734591    1611.3473  0.047667355  0.047147883            7 
 2818000   0.79613095   -4.6590806    1604.9764  0.047462041  0.047137966            4 
 2819000   0.78890907   -4.7033338    1606.6799  0.047495564  0.047128032            5 
 2820000   0.78592244    -4.659192    1605.6748  0.047449019   0.04711823            3 
 2821000    0.7989569   -4.6600582    1609.6934  0.047550909  0.047108646            6 
 2822000   0.80484447   -4.6886437    1605.4568  0.047408954  0.047098867            5 
 2823000   0.79283138   -4.6913569    1606.3562  0.047418708  0.047089119            2 
 2824000    0.8012474    -4.670825    1605.0701  0.047363967    0.0470793            4 
 2825000   0.79939088    -4.681845    1606.4593  0.047388179  0.047069378            7 
 2826000   0.79098373   -4.6878671    1603.8481  0.047294411  0.047059451            8 
 2827000   0.78279688   -4.6656884    1612.1057  0.047521097  0.047049577           12 
 2828000   0.79149848   -4.6982076    1603.4843  0.047250246  0.047039731            8 
 2829000   0.82126572   -4.6783136    1608.0043  0.047366686  0.047029947            3 
 2830000   0.78504548   -4.6778808    1611.8205  0.047462325  0.047020316            5 
 2831000   0.80824226   -4.6686337    1610.4095  0.047404023  0.047010572            3 
 2832000   0.80245463   -4.6719126     1611.161  0.047409398  0.047000737            6 
 2833000   0.80690196   -4.6907252    1607.4064   0.04728222  0.046990948            4 
 2834000   0.79199567   -4.6927567    1608.7531  0.047305137  0.046981096            7 
 2835000   0.78087045   -4.6931082     1609.432  0.047308407  0.046971179            9 
 2836000   0.80834804   -4.6852544     1608.812  0.047273508  0.046961285            4 
 2837000   0.80223953   -4.6670358    1611.1549  0.047325665  0.046951456            6 
 2838000   0.81938065    -4.659235    1610.2681  0.047282948   0.04694163            2 
 2839000   0.78502114   -4.6879223     1612.084  0.047319597  0.046931674           14 
 2840000   0.79945955   -4.6892412     1616.063   0.04741969   0.04692184            6 
 2841000   0.79616418   -4.6814192    1608.3478  0.047176693   0.04691198            6 
 2842000   0.79955758   -4.6826006    1610.9137  0.047235331  0.046902151            9 
 2843000   0.78613838   -4.6490781    1612.8774  0.047276276  0.046892283            2 
 2844000   0.81465942   -4.6913339    1611.2343  0.047211507  0.046882422            5 
 2845000   0.77574791   -4.6955094    1612.0998  0.047220262   0.04687251            8 
 2846000   0.80601915   -4.6672071    1611.6967  0.047191869  0.046862656            3 
 2847000   0.79532427   -4.6911909    1610.3125  0.047134776  0.046852775            7 
 2848000   0.78400647   -4.6745166    1611.9001  0.047164679  0.046842984            9 
 2849000   0.80294901    -4.694161    1611.0554  0.047123419  0.046833199            7 
 2850000   0.82101684   -4.6940094    1606.5384  0.046974808  0.046823387            4 
 2851000   0.79087968   -4.6727445    1616.7139  0.047255757  0.046813555           14 
 2852000   0.79610128    -4.674778    1611.6485   0.04709118  0.046803789            6 
 2853000   0.81243162   -4.6832046    1613.5246  0.047129471  0.046793905            4 
 2854000   0.78828099   -4.6704524    1616.2697  0.047193111  0.046784092            6 
 2855000   0.79653955   -4.6963432    1614.6019  0.047127903  0.046774296            5 
 2856000    0.7950492   -4.6804626    1612.7392  0.047057048  0.046764579            7 
 2857000   0.80643043   -4.7102739    1619.5479  0.047239175  0.046754849            3 
 2858000   0.79259799   -4.6952161    1614.3931  0.047072343  0.046745024            6 
 2859000   0.79262718     -4.69116    1617.9473  0.047159476  0.046735346           14 
 2860000   0.80042694   -4.6972213    1614.8076  0.047051503  0.046725472            4 
 2861000   0.78388671   -4.6534958    1623.4741   0.04728749   0.04671565            3 
 2862000   0.79446357    -4.674692    1615.9918  0.047053103  0.046705992            3 
 2863000   0.78645157   -4.7099009    1617.9361  0.047093262  0.046696309            4 
 2864000    0.7878774    -4.689254    1623.9312  0.047251258  0.046686583            7 
 2865000   0.80409497   -4.6905248    1612.7601  0.046909833   0.04667679            5 
 2866000   0.77560171   -4.6989746     1617.695  0.047036957  0.046667056            3 
 2867000   0.77758824   -4.6918325     1615.447  0.046955209  0.046657317            5 
 2868000   0.78112895   -4.7153518     1618.269  0.047020835  0.046647545            5 
 2869000   0.78305367   -4.6951482    1618.1866  0.047002052  0.046637755            3 
 2870000    0.8027296   -4.6994731    1614.6386  0.046882655  0.046628053            3 
 2871000   0.79967157   -4.6590378    1619.1668  0.046997758  0.046618457            9 
 2872000   0.79059443    -4.670261    1619.3306  0.046986149  0.046608766            3 
 2873000   0.76813356   -4.7062175    1625.3083  0.047143179  0.046598996            7 
 2874000   0.78361137   -4.7238855    1619.5111  0.046958685   0.04658916            6 
 2875000    0.8043817   -4.6938368    1621.7256  0.047006539  0.046579497            6 
 2876000   0.80206535   -4.6787345    1622.6893  0.047018117  0.046569806            2 
 2877000    0.7893004   -4.7118865    1622.5964  0.046999084  0.046560132            3 
 2878000   0.78759055   -4.7087361    1620.2187  0.046913908   0.04655045            3 
 2879000   0.78222372   -4.6901972    1624.9988  0.047035974  0.046540869            3 
 2880000   0.80802603   -4.6845198    1622.6651  0.046952116  0.046531302            5 
 2881000   0.79353336   -4.6836551    1624.0095  0.046974704  0.046521767            4 
 2882000   0.79269795   -4.6996552    1623.7613  0.046951228  0.046512158            4 
 2883000   0.78407613   -4.6860994    1623.3172  0.046922106   0.04650252            3 
 2884000   0.78706935   -4.6956887    1622.9606  0.046895533  0.046492802           11 
 2885000   0.76966067   -4.6949389    1621.3861  0.046833799  0.046483074            8 
 2886000   0.78436333    -4.697403    1625.3354  0.046931606   0.04647333            4 
 2887000   0.78415985   -4.6853963    1626.9324  0.046961446  0.046463612            6 
 2888000   0.77626542   -4.6886898    1625.6316  0.046907653  0.046453883            7 
 2889000   0.80706455   -4.6886515    1623.5756  0.046832111  0.046444111            6 
 2890000   0.80072134   -4.6828004    1620.6177  0.046730615   0.04643442            5 
 2891000   0.76698373   -4.6877638     1622.782  0.046776836  0.046424775            4 
 2892000   0.78362794   -4.7057454    1627.5051   0.04689676  0.046415081            9 
 2893000   0.79047936   -4.7170512     1624.191  0.046785085  0.046405375           10 
 2894000   0.79181249   -4.6946841    1624.5492  0.046779232  0.046395713            4 
 2895000   0.80563437   -4.7030129    1625.5225  0.046791092  0.046386019            5 
 2896000   0.77774884   -4.7098661    1622.8738  0.046698718  0.046376356            6 
 2897000     0.790695    -4.692451    1624.8388  0.046739121  0.046366586            7 
 2898000   0.78566149    -4.687728    1626.6589  0.046775331  0.046356831            5 
 2899000   0.77868042   -4.6964056    1625.9883  0.046739918   0.04634722            7 
 2900000    0.8039367   -4.6869946    1627.5504   0.04676869  0.046337644            5 
 2901000   0.79891662   -4.6875709    1625.8812   0.04670462  0.046327937            8 
 2902000    0.7803761   -4.7098721    1625.6096  0.046680727  0.046318079            4 
 2903000   0.79080505   -4.7263633    1625.8367  0.046671164  0.046308353            7 
 2904000   0.80878741   -4.6716663    1625.6259  0.046649046  0.046298733            5 
 2905000   0.79224834    -4.696393    1625.8251    0.0466387  0.046289075            4 
 2906000   0.80003527   -4.7146625    1628.9263  0.046711583  0.046279397            7 
 2907000   0.77976614   -4.6821479    1626.1701  0.046616504  0.046269686            6 
 2908000     0.771023   -4.7167911    1625.0639  0.046568772  0.046259827            5 
 2909000    0.7883542   -4.7104182    1617.5686   0.04633805  0.046250078            4 
 2910000   0.78263193   -4.7103975    1632.9869  0.046763658  0.046240394            8 
 2911000   0.77729359    -4.694698    1630.4597  0.046675247  0.046230847            5 
 2912000   0.77590611   -4.7311288    1625.9054  0.046528887  0.046221136            4 
 2913000    0.7734814   -4.6930939    1631.3568  0.046668864  0.046211489            7 
 2914000   0.77519877   -4.6891279    1628.6893  0.046576564  0.046201773            2 
 2915000   0.78700893   -4.6989061    1632.6143  0.046672793   0.04619217            3 
 2916000   0.79513241   -4.6930796    1632.7192  0.046659785  0.046182705            4 
 2917000   0.76146588   -4.6866788    1631.7345  0.046615659  0.046173042            6 
 2918000   0.78554223   -4.7236017    1635.0882  0.046695458  0.046163447            3 
 2919000   0.79508851   -4.6893398    1633.8803  0.046644977  0.046153836            7 
 2920000   0.77975192   -4.7135651    1636.4262  0.046701662  0.046144357            6 
 2921000   0.78110893    -4.721868    1634.8653  0.046641143  0.046134743            9 
 2922000   0.78603492   -4.7186887    1635.0048  0.046629158  0.046125183            5 
 2923000   0.80178453   -4.7168894    1635.0117  0.046613401  0.046115654            7 
 2924000   0.76936341   -4.7294943    1636.2483  0.046632702  0.046106125            7 
 2925000   0.78022033   -4.7251401    1637.7543  0.046659668   0.04609662            4 
 2926000   0.79655584   -4.6970088     1638.762   0.04667242  0.046087144            6 
 2927000   0.78941706   -4.7373445    1637.5593  0.046622233  0.046077597            4 
 2928000   0.79539927   -4.6934583    1641.5624  0.046720241  0.046068059            4 
 2929000   0.78586005   -4.7130376    1632.5121  0.046446799   0.04605848            2 
 2930000   0.77593822    -4.713436    1637.2055  0.046564435  0.046048858            6 
 2931000   0.79445721   -4.7015087    1641.6503  0.046674921  0.046039347            5 
 2932000   0.77675282   -4.7118526    1638.1601  0.046559802  0.046029741            4 
 2933000   0.77188282   -4.7033393     1636.475  0.046496052  0.046020222            3 
 2934000   0.79265617   -4.7053663    1637.1231  0.046498611  0.046010638            6 
 2935000   0.78653259   -4.7113875    1641.4766  0.046606376  0.046001151            5 
 2936000   0.78567209   -4.7017621    1637.7279  0.046484101   0.04599166            7 
 2937000   0.78126634     -4.69286    1640.7851  0.046555019  0.045982257            6 
 2938000   0.79458864   -4.7142557    1640.6307  0.046534793  0.045972696            5 
 2939000   0.78111049   -4.7069378    1636.9223  0.046413812  0.045963187            5 
 2940000   0.78945584   -4.7130405    1634.2569  0.046322475  0.045953649            5 
 2941000   0.77674803   -4.6940631    1640.3999  0.046480785  0.045944045            4 
 2942000   0.78414852   -4.7144474    1637.0164  0.046369149  0.045934476            7 
 2943000   0.78938069   -4.7074252    1637.2136  0.046358975  0.045924847            9 
 2944000   0.77875202    -4.735465    1640.1346  0.046425913  0.045915268           15 
 2945000   0.77995706   -4.7024822    1640.5169  0.046420965  0.045905636            3 
 2946000   0.78693663   -4.7065902    1641.0181  0.046419384  0.045896172            6 
 2947000   0.77131357   -4.6936811    1640.9464  0.046401605  0.045886606            5 
 2948000   0.76956836   -4.7234806    1640.5438  0.046374486  0.045877013            7 
 2949000   0.79436179   -4.7372992      1639.07  0.046317112  0.045867439            3 
 2950000   0.78312552   -4.7117067    1640.9159  0.046353557  0.045857879            7 
 2951000   0.78239006   -4.7262696    1644.9954  0.046453049  0.045848221            5 
 2952000   0.77769013   -4.7219029    1639.7208  0.046288414  0.045838643            7 
 2953000   0.78478045   -4.7272106    1639.7662   0.04627402  0.045829185            9 
 2954000   0.76823034   -4.7195273    1644.6401  0.046395849  0.045819671            6 
 2955000    0.7872331   -4.7191196    1640.8524  0.046273332  0.045810161            6 
 2956000   0.77261066   -4.7360012    1640.4236  0.046245591  0.045800577            6 
 2957000   0.78182446   -4.7181589    1642.5578  0.046290096  0.045790956           11 
 2958000   0.78079519   -4.7221718    1643.5835  0.046303345  0.045781459           16 
 2959000   0.77015648   -4.7246014    1641.5182  0.046229533   0.04577188            3 
 2960000   0.77752899   -4.6826291    1638.7982  0.046137338  0.045762331           13 
 2961000   0.78715559   -4.7170945    1644.3352  0.046277586  0.045752808            4 
 2962000   0.76853678   -4.7081153    1643.9826  0.046252042  0.045743235            5 
 2963000   0.79075918   -4.7032146    1641.4144  0.046164204  0.045733608            9 
 2964000   0.75804273   -4.7125279    1641.8495  0.046160861  0.045724031            6 
 2965000   0.78329085   -4.7088339    1644.2275  0.046212127  0.045714473            6 
 2966000    0.7926215   -4.7149219    1640.0552  0.046079323   0.04570486            6 
 2967000   0.78835379   -4.7265599    1641.3141  0.046099149  0.045695291            9 
 2968000   0.77613885   -4.6985475    1647.4795  0.046256724  0.045685639            8 
 2969000   0.77457854     -4.71767    1644.4981  0.046157462  0.045676055            2 
 2970000   0.76616894   -4.7324572    1646.3505  0.046193898  0.045666512            3 
 2971000   0.76577664   -4.7455755    1639.4634  0.045985172  0.045656943           12 
 2972000   0.77332448    -4.701686    1646.3393  0.046162497  0.045647386            6 
 2973000   0.79587182   -4.7097273    1646.7357  0.046158081  0.045637947            4 
 2974000   0.77804086   -4.7308985    1643.2655  0.046045322  0.045628425           12 
 2975000   0.76606525   -4.7018569     1645.787  0.046100476  0.045618859            5 
 2976000   0.78984376   -4.7406804    1644.0082  0.046035177  0.045609274            9 
 2977000   0.78643975   -4.7429201    1642.5504  0.045978905  0.045599687            8 
 2978000   0.79316298   -4.7320022    1642.5916  0.045964619  0.045590093            6 
 2979000   0.76939668   -4.7266257    1645.1189  0.046019888  0.045580472           14 
 2980000   0.77583449   -4.7139155    1643.6476    0.0459633  0.045570808            4 
 2981000   0.78984101   -4.7193802    1646.8909  0.046038547  0.045561256            3 
 2982000   0.78719919   -4.7448107    1644.8979  0.045967413  0.045551723            4 
 2983000   0.79062029   -4.7144907    1646.8175  0.046005629  0.045542081            3 
 2984000   0.76583705   -4.7145144    1649.8187  0.046074024  0.045532502            7 
 2985000   0.77376965   -4.7065849    1650.4041  0.046074933  0.045523009            4 
 2986000   0.77510513   -4.7379999    1646.7066  0.045956312  0.045513411            5 
 2987000   0.76003235      -4.7438    1646.8165  0.045943994  0.045503891            7 
 2988000   0.76507494   -4.7213617    1645.8254  0.045900976  0.045494282            7 
 2989000   0.76903405   -4.7081112    1648.8922  0.045971121  0.045484784            7 
 2990000   0.78391104   -4.7064704     1646.688  0.045894314  0.045475162            6 
 2991000   0.77752934   -4.7169898     1647.268  0.045895129  0.045465518            3 
 2992000   0.75935755   -4.7289609    1652.0325  0.046012492  0.045456014            5 
 2993000     0.766832     -4.73465    1644.1749  0.045778341  0.045446428            6 
 2994000   0.77651645   -4.7339854    1648.2816  0.045877353  0.045436766            5 
 2995000   0.75825789   -4.7124806    1651.1438  0.045941675  0.045427169            7 
 2996000   0.78327399   -4.7039562    1651.0796  0.045924555  0.045417627            7 
 2997000   0.76062364   -4.7325836    1648.6333   0.04584121   0.04540813            7 
 2998000   0.76762145   -4.7082202    1653.6667   0.04596583  0.045398652            2 
 2999000   0.78834966   -4.7212883    1648.5333  0.045807861  0.045389145            3 
 3000000   0.76657908   -4.7651379    1647.6934  0.045769261  0.045379591           10 
 3001000   0.77601374   -4.7242936    1648.8696  0.045786672  0.045370052            5 
 3002000   0.76527165   -4.7272868    1654.3798  0.045924379  0.045360608            4 
 3003000   0.78571285   -4.7473546    1649.1737  0.045764616  0.045351042            4 
 3004000   0.75137484    -4.751604    1651.1701  0.045804762  0.045341512            5 
 3005000   0.77572778    -4.743897    1652.4544  0.045825135  0.045332006           10 
 3006000   0.78110536   -4.7078169    1653.4725  0.045838115  0.045322431            6 
 3007000   0.75475399   -4.7445121    1652.2862  0.045789994  0.045312817           11 
 3008000   0.77095855   -4.7305857    1656.4005  0.045888754  0.045303143            6 
 3009000   0.77088738   -4.7566109    1650.0993  0.045698996  0.045293557            4 
 3010000   0.77234928   -4.7484135      1650.48  0.045694351  0.045283902            5 
 3011000   0.75815555   -4.7181643    1652.9522  0.045747598  0.045274242            6 
 3012000    0.7741614   -4.7328507    1653.8251   0.04575656  0.045264585            4 
 3013000   0.76198812   -4.7323354    1647.6344  0.045570151  0.045254859            2 
 3014000   0.76695235   -4.7512356    1646.5781  0.045525828   0.04524514            9 
 3015000   0.76930557    -4.774729    1650.9926  0.045632742  0.045235434           15 
 3016000    0.7788373   -4.7504275    1649.8516  0.045586084  0.045225787            9 
 3017000   0.76525071   -4.7338118     1653.021  0.045658519  0.045216147            5 
 3018000   0.75435943   -4.7413858    1643.8563  0.045390334  0.045206449            3 
 3019000   0.77330278   -4.7690261    1644.6846  0.045398163  0.045196632            5 
 3020000   0.75679424   -4.7307619    1649.4982  0.045515955  0.045186939            6 
 3021000    0.7606873   -4.7316354    1650.1407  0.045518612   0.04517726            7 
 3022000   0.75310774   -4.7525339    1649.0798  0.045474294  0.045167541            7 
 3023000   0.76143924   -4.7378283    1653.2081  0.045573053  0.045157953            7 
 3024000   0.77159008   -4.7245919    1654.1409   0.04558369  0.045148427            7 
 3025000   0.77050582     -4.74364    1651.2788  0.045489774  0.045138797            5 
 3026000   0.76744235   -4.7285175    1650.8567  0.045463117  0.045129119            4 
 3027000   0.77777022   -4.7518305    1656.5275  0.045604215  0.045119461            7 
 3028000   0.76505224   -4.7428496    1648.5001  0.045368232  0.045109718            4 
 3029000   0.74986681   -4.7041204    1657.7768  0.045608474  0.045100044            5 
 3030000   0.77937222   -4.7071663     1653.422  0.045473652  0.045090384            3 
 3031000   0.75193115    -4.713544     1656.999  0.045556995  0.045080734            5 
 3032000   0.77171175   -4.7245292    1654.2479  0.045466356  0.045071122            2 
 3033000    0.7494289   -4.7398687    1657.1673  0.045531577  0.045061315            4 
 3034000   0.74938815   -4.7133093    1660.9749  0.045621151  0.045051563            3 
 3035000    0.7863219   -4.7675618    1652.5615   0.04537511   0.04504184            7 
 3036000   0.76173493    -4.733816    1649.8252  0.045285056  0.045032159            7 
 3037000   0.76956573   -4.7379319    1653.6931  0.045376278   0.04502246            6 
 3038000    0.7764474   -4.7753978    1654.4019  0.045380784  0.045012767           15 
 3039000   0.76916788   -4.7580193    1654.2414  0.045361452  0.045003026            6 
 3040000   0.74675968   -4.7495867    1656.5883  0.045410863  0.044993325            4 
 3041000   0.75595398   -4.7423964     1659.172  0.045466732  0.044983556            5 
 3042000   0.74940567    -4.728323    1652.1809   0.04526027  0.044973835            5 
 3043000   0.75893881   -4.7331921    1658.1937  0.045410057  0.044964188            5 
 3044000   0.76062902   -4.7281293    1661.3239  0.045480833  0.044954585            8 
 3045000   0.75754375   -4.7587726    1654.3255  0.045274371  0.044944989            8 
 3046000   0.76472585    -4.748636    1656.4475  0.045317561  0.044935418            8 
 3047000   0.76318398   -4.7501785    1654.1438  0.045239684  0.044925819            3 
 3048000   0.76829364   -4.7428863    1657.9335  0.045328453  0.044916212            6 
 3049000   0.76175017   -4.7782054    1654.3813  0.045216499  0.044906569            5 
 3050000   0.75200449   -4.7542511    1662.8588    0.0454333  0.044896896            4 
 3051000    0.7533557   -4.7508926    1658.4366  0.045297623  0.044887158            7 
 3052000   0.76965478   -4.7682069     1655.364  0.045198886  0.044877487            4 
 3053000   0.76948794   -4.7618527    1661.5608  0.045353227  0.044867797            8 
 3054000   0.75390389   -4.7357643    1661.4736  0.045335996  0.044858112            8 
 3055000   0.75532238   -4.7563293    1660.3703   0.04529106  0.044848449            2 
 3056000   0.76565851   -4.7598452    1659.8538  0.045262156  0.044838731            2 
 3057000   0.76386975   -4.7356723    1659.2856  0.045231862  0.044829027            3 
 3058000   0.75935851   -4.7553617    1661.9594  0.045289933   0.04481937           12 
 3059000   0.74267491   -4.7519634    1657.4727  0.045152902  0.044809687            5 
 3060000   0.75854882   -4.7455496    1661.2081  0.045239871  0.044799986            7 
 3061000   0.78096126   -4.7659293    1662.8222  0.045269034  0.044790312            8 
 3062000   0.76168444   -4.7441915    1659.0363  0.045151218  0.044780605            4 
 3063000   0.77453218   -4.7660614    1659.3513  0.045145045  0.044770945            3 
 3064000   0.76384492   -4.7461539    1659.4706  0.045133556  0.044761211            9 
 3065000   0.77695518   -4.7652348    1657.4232  0.045063164  0.044751501            7 
 3066000   0.74395031   -4.7605784    1657.9163  0.045061869  0.044741718            6 
 3067000   0.75644489   -4.7430462    1664.6417  0.045229913  0.044731996            9 
 3068000   0.75241481   -4.7281779    1662.7158   0.04516286  0.044722305            7 
 3069000   0.75556599   -4.7607669    1658.3213  0.045028818  0.044712582            4 
 3070000   0.76559324   -4.7610217    1659.6226  0.045049472  0.044702713            7 
 3071000   0.78286219   -4.7392855    1664.2534  0.045160465  0.044692929            5 
 3072000    0.7597805   -4.7584618    1656.1135  0.044924953  0.044683153            4 
 3073000   0.74838951   -4.7630048    1654.9371  0.044878432  0.044673198            5 
 3074000   0.76021895   -4.7632693     1657.974  0.044946161  0.044663276            7 
 3075000   0.75083555   -4.7597823    1662.0777  0.045042757   0.04465341            5 
 3076000   0.75274773   -4.7399024    1657.3596  0.044900293   0.04464364            3 
 3077000    0.7608899   -4.7680592    1656.9548  0.044874738  0.044633823            3 
 3078000    0.7666918   -4.7380784    1660.7782  0.044963673  0.044624067            9 
 3079000    0.7692294   -4.7723334    1658.1052  0.044876724  0.044614237            4 
 3080000   0.75836214   -4.7535542     1663.575  0.045010146  0.044604531            5 
 3081000   0.78675158   -4.7612596    1667.9235  0.045113154  0.044594897            5 
 3082000   0.74487564   -4.7584922    1660.4217  0.044895676  0.044585177            4 
 3083000   0.75732124   -4.7508825    1659.9277  0.044867761  0.044575368           11 
 3084000    0.7684451   -4.7286254    1661.7085  0.044901332  0.044565589            4 
 3085000   0.76336758   -4.7432182     1661.191  0.044872799  0.044555857            7 
 3086000   0.76048498   -4.7537406    1660.6978   0.04484494   0.04454616            6 
 3087000    0.7576353   -4.7926548    1662.9374   0.04489087  0.044536337            4 
 3088000   0.77223623   -4.7685877    1662.2202   0.04485698   0.04452666            5 
 3089000   0.77204298    -4.758823     1665.072  0.044919392  0.044516907            6 
 3090000   0.75035186   -4.7770369    1663.9976  0.044875879  0.044507265            6 
 3091000   0.75842945   -4.7615543    1663.6668  0.044852442   0.04449765           15 
 3092000   0.74525089   -4.7415032    1665.9023  0.044898186  0.044487994            7 
 3093000   0.75162322   -4.7497809      1668.12   0.04494342  0.044478339            4 
 3094000   0.74703547   -4.7646082    1658.6841   0.04467475   0.04446865            4 
 3095000   0.75793403   -4.7956395    1665.0155   0.04483079  0.044458966           12 
 3096000   0.74862759   -4.7521022    1667.6587  0.044887454    0.0444493            4 
 3097000   0.74774199   -4.7472607    1667.9273  0.044880189  0.044439674            7 
 3098000   0.76286079   -4.7600496    1666.3057  0.044822081  0.044429977            5 
 3099000   0.75479691   -4.7848603    1667.5227  0.044840344  0.044420152            6 
 3100000   0.75107788   -4.7733607    1664.4731  0.044743901   0.04441044            6 
 3101000   0.76146891   -4.7735648    1666.5614   0.04478559  0.044400762           10 
 3102000    0.7432101   -4.7528469     1666.808  0.044777777  0.044391049            8 
 3103000   0.74850291   -4.7668815    1660.3586  0.044590143  0.044381265            4 
 3104000   0.75940782   -4.7748701    1670.5709  0.044849949  0.044371508            2 
 3105000   0.76024266    -4.769553    1664.7951  0.044680491  0.044361776            5 
 3106000   0.76244371   -4.7706605    1665.9781  0.044697844  0.044351916            7 
 3107000    0.7681954   -4.7891865    1662.7124  0.044595871  0.044342165            9 
 3108000   0.75160036   -4.7905844     1665.181   0.04464771  0.044332231            7 
 3109000   0.74763609   -4.7881855    1661.7979   0.04454267  0.044322335            7 
 3110000   0.73888866   -4.7805871    1661.4668  0.044519474  0.044312421            7 
 3111000   0.76708458   -4.7740795     1670.525  0.044747805  0.044302501            7 
 3112000   0.75301344   -4.7409862    1670.8502  0.044742133  0.044292738            5 
 3113000   0.75984596   -4.7737514    1658.0819   0.04438596  0.044282967            7 
 3114000   0.77071932   -4.7760123    1668.1408  0.044640889  0.044273022            4 
 3115000   0.77781002   -4.7902124    1662.6542   0.04447978  0.044263139            3 
 3116000   0.75834781   -4.7628522    1669.1584  0.044639453  0.044253281            5 
 3117000    0.7628412   -4.7567449     1667.689  0.044585846  0.044243469            6 
 3118000     0.760361   -4.7423329    1672.7102  0.044705746  0.044233735            5 
 3119000   0.73811463   -4.7789754    1666.1233  0.044515424  0.044223897            5 
 3120000   0.75887982   -4.7700834    1664.8078  0.044466021  0.044214042            4 
 3121000   0.75481802   -4.7523635    1665.2071  0.044462433  0.044204142            5 
 3122000   0.75008322   -4.7759455    1669.0777  0.044551508    0.0441944           15 
 3123000   0.76325269   -4.7555663    1673.5908  0.044657669  0.044184736            7 
 3124000   0.75039328    -4.783392    1666.8891  0.044464605  0.044174991           10 
 3125000   0.76212235   -4.7527239    1668.4145  0.044491054  0.044165269            6 
 3126000   0.74716217    -4.764686    1669.2095  0.044498015  0.044155511           11 
 3127000   0.75670261   -4.7515099    1672.5724  0.044573403  0.044145756           10 
 3128000   0.74720458   -4.7755432    1669.6742  0.044481942  0.044135929            9 
 3129000   0.75807952   -4.7667139    1671.1428   0.04450684  0.044126184            6 
 3130000   0.74647556   -4.7491009    1675.6319  0.044612137  0.044116469            8 
 3131000   0.74176229   -4.7369728    1674.2366  0.044560753  0.044106696            5 
 3132000   0.74213819   -4.7893995    1670.3386   0.04444281  0.044096936            7 
 3133000   0.74928833    -4.785595    1669.8491  0.044415607  0.044087117            6 
 3134000   0.76402792   -4.7676199    1671.5306  0.044446145  0.044077264           15 
 3135000   0.75942166   -4.7921719    1668.3169  0.044346541  0.044067459            4 
 3136000     0.753837   -4.7493524     1672.731  0.044449697  0.044057691           13 
 3137000   0.75712753   -4.7578093    1669.6216  0.044352928  0.044047965            8 
 3138000    0.7396429   -4.7750222    1668.2279  0.044301781  0.044038174            7 
 3139000   0.74900368   -4.7927394     1665.595  0.044217772  0.044028346            5 
 3140000   0.74926957   -4.7771916    1671.1531  0.044351197   0.04401857            5 
 3141000   0.74197979   -4.7749385     1673.854  0.044408734   0.04400876           14 
 3142000   0.75017128   -4.7883695    1665.7296  0.044179122  0.043999012            8 
 3143000   0.74003638   -4.7643862    1672.8261  0.044353222  0.043989269            3 
 3144000   0.75519406   -4.7848489    1667.7647   0.04420496  0.043979534            8 
 3145000   0.74352383   -4.7761702    1673.1564  0.044333767  0.043969806            8 
 3146000   0.74754067   -4.7664797     1671.809  0.044283985  0.043960187            3 
 3147000   0.75143674   -4.7794877    1671.9158   0.04427274   0.04395048            5 
 3148000   0.74168449   -4.7909491    1671.5912  0.044250084  0.043940764           12 
 3149000    0.7488958    -4.781786    1676.8623  0.044375524  0.043931037            4 
 3150000   0.74357136   -4.7654197    1677.3705   0.04437488  0.043921268            5 
 3151000   0.76798967   -4.7739617     1676.534  0.044338677  0.043911572            6 
 3152000   0.74534502   -4.8084075    1676.2551  0.044317235  0.043901893            5 
 3153000    0.7484543   -4.7975313     1673.075  0.044219129  0.043892252            6 
 3154000   0.73327711    -4.758338    1679.8205  0.044383337  0.043882594            6 
 3155000   0.73973075   -4.7949393    1678.6933  0.044339495   0.04387302            2 
 3156000   0.75015843   -4.7748176    1676.0405  0.044255399  0.043863442            9 
 3157000   0.75745975   -4.7788703    1674.8913  0.044211047  0.043853696            7 
 3158000    0.7396453   -4.7632767       1678.5  0.044292275  0.043844132            8 
 3159000   0.73919926   -4.7671316    1682.5565  0.044385261  0.043834517            8 
 3160000   0.74321788   -4.8081323    1676.7985   0.04421937  0.043824877           15 
 3161000   0.73713001   -4.7890955    1680.0619  0.044291413  0.043815267            5 
 3162000   0.75335813   -4.7786319    1677.6826  0.044214701  0.043805603            7 
 3163000    0.7587314   -4.7714066     1683.054  0.044342237  0.043795974            7 
 3164000    0.7497347   -4.7602637    1679.3259  0.044230032  0.043786352            6 
 3165000   0.73747884   -4.7585335    1680.5849  0.044249208  0.043776605            6 
 3166000   0.75838934   -4.8066178    1680.4878  0.044232675  0.043766952            9 
 3167000   0.72628206   -4.8051769    1677.8138  0.044148347  0.043757207           11 
 3168000   0.73860607   -4.7743546     1677.723  0.044132023  0.043747537            3 
 3169000   0.72826403   -4.7723314    1678.1311   0.04412883  0.043737839           15 
 3170000   0.74260595   -4.7981401    1678.2374  0.044117702  0.043728152            6 
 3171000   0.72915306   -4.7706014    1685.4496  0.044293324  0.043718486           10 
 3172000   0.74150183   -4.7696178    1676.3863  0.044041254  0.043708835            5 
 3173000   0.72951937   -4.8046405    1676.0682  0.044019021  0.043699205            5 
 3174000   0.73901018   -4.7806464    1675.4973  0.043990163  0.043689505           11 
 3175000   0.73660558   -4.7712475    1681.9935   0.04414681   0.04367988            7 
 3176000   0.73854434   -4.7671574    1683.5451  0.044173623  0.043670218            5 
 3177000   0.73172374    -4.792179     1676.411  0.043972589  0.043660544            7 
 3178000   0.75060578   -4.7683774    1680.0969  0.044055404  0.043650844            4 
 3179000   0.74780864   -4.7977094     1679.252  0.044019398  0.043641091            6 
 3180000   0.74651995   -4.8238509    1677.4299  0.043957807  0.043631266            6 
 3181000   0.75484529   -4.7696904    1679.2736  0.043992288  0.043621423            8 
 3182000    0.7416135   -4.7836455    1682.0061  0.044050024  0.043611649            3 
 3183000   0.74348392   -4.7799728    1675.8162  0.043874127  0.043601908            6 
 3184000   0.74515017   -4.7564994    1676.7697  0.043885304  0.043592108            6 
 3185000   0.74934168    -4.787859    1677.9947  0.043903576  0.043582336           11 
 3186000   0.74862314   -4.7981561    1676.0381  0.043838619  0.043572635            8 
 3187000   0.73689966    -4.789738    1677.6743  0.043867648   0.04356286            8 
 3188000   0.73605953   -4.8036007    1674.7131  0.043776483   0.04355314            7 
 3189000   0.75261564   -4.7828296    1678.3057  0.043856635   0.04354344           11 
 3190000   0.74666422   -4.8158681    1683.7107  0.043984082  0.043533755            9 
 3191000   0.74710356   -4.8090337    1684.0723  0.043979743  0.043524029            6 
 3192000   0.75126851   -4.8044091    1682.8446  0.043933912  0.043514267            6 
 3193000   0.75028943   -4.7929265    1689.7667  0.044100811  0.043504487            6 
 3194000   0.75232926   -4.7819141    1682.6998  0.043902625  0.043494758            4 
 3195000   0.72042397   -4.7884738    1686.4259  0.043986069  0.043485145            4 
 3196000   0.73418594   -4.8092117     1683.168  0.043887359  0.043475491            7 
 3197000   0.72951874   -4.7824315    1685.5486  0.043935683  0.043465783            6 
 3198000    0.7428091   -4.7894466    1682.9785  0.043854973  0.043456203            5 
 3199000   0.76340623   -4.7823868    1681.1517  0.043793679  0.043446533            6 
 3200000   0.74227798   -4.8130844    1684.2116  0.043859677   0.04343694            6 
 3201000   0.72137277   -4.8094064    1683.9292  0.043838623  0.043427322           11 
 3202000   0.74855169   -4.7964882    1684.2851  0.043834194   0.04341766            8 
 3203000   0.73758646   -4.7747418      1686.45  0.043876834  0.043408085           10 
 3204000   0.73650627   -4.7967503    1688.0607  0.043905034  0.043398535            6 
 3205000   0.74740109   -4.7714752    1687.5008  0.043876777  0.043389001            4 
 3206000   0.74116089   -4.8074579    1685.3332  0.043806748  0.043379375            6 
 3207000   0.74604738   -4.8096337    1682.4241  0.043717496  0.043369717            7 
 3208000   0.73019193   -4.7950711    1681.1782  0.043671503  0.043360006            7 
 3209000   0.74134249    -4.804197    1685.0828  0.043759291  0.043350356            8 
 3210000   0.73859135   -4.7910602    1688.7422  0.043840659    0.0433407            4 
 3211000   0.72576663   -4.8047818    1678.8543  0.043570391  0.043330984            4 
 3212000   0.73649925     -4.80825    1683.7254  0.043683202  0.043321221            5 
 3213000   0.74645557   -4.7970943    1684.3219   0.04368508  0.043311503            9 
 3214000   0.74050969   -4.8050881    1684.3508  0.043672236  0.043301799           12 
 3215000   0.72223822   -4.7847925    1682.0595  0.043599262  0.043292016            6 
 3216000   0.72629102   -4.7885122    1685.8866  0.043684874  0.043282397           12 
 3217000   0.73631251   -4.7904575    1684.9452  0.043646907  0.043272753            6 
 3218000   0.74758726   -4.8078422    1686.3569  0.043669901  0.043263075           14 
 3219000   0.72666546   -4.7801551    1692.7501  0.043821842  0.043253445            8 
 3220000   0.73421473   -4.7836566    1685.6281  0.043623915  0.043243763           12 
 3221000   0.74757607    -4.814311    1686.7968  0.043640608  0.043234043            6 
 3222000   0.73110849   -4.7987143    1682.3083  0.043510974  0.043224231            6 
 3223000   0.75960667   -4.8272971    1686.6898  0.043610762  0.043214476            7 
 3224000   0.71602924   -4.7854667    1684.0198   0.04352822  0.043204679            3 
 3225000   0.73288149    -4.802669    1684.4598  0.043526092  0.043194902            3 
 3226000   0.72137364   -4.8084504    1683.9096  0.043498389  0.043185091            5 
 3227000   0.73391922   -4.7781406    1685.3205  0.043521342   0.04317529            7 
 3228000   0.73878292   -4.7724306    1688.7843   0.04359728  0.043165619            8 
 3229000   0.73247616   -4.8013861    1688.6408  0.043580077  0.043155866            4 
 3230000   0.73893413   -4.7983891    1687.1293  0.043527587  0.043146074            6 
 3231000   0.73429131   -4.8106185    1684.5201  0.043446819  0.043136308           18 
 3232000    0.7358604   -4.8104747    1685.1525  0.043449682  0.043126597            5 
 3233000   0.72992348   -4.8303759    1677.2638  0.043232906  0.043116755            6 
 3234000   0.73894451   -4.8029784    1686.6166   0.04346054  0.043106908           12 
 3235000   0.72402028   -4.7648188    1686.4372  0.043442483  0.043097092            5 
 3236000   0.72214331   -4.7891753    1684.1654  0.043370555  0.043087319            8 
 3237000   0.73235144   -4.8038286    1685.4631  0.043390564  0.043077456           10 
 3238000   0.73274374   -4.8130453    1684.9579  0.043364162  0.043067684            7 
 3239000   0.74537489   -4.8053303    1683.4454  0.043311862  0.043057874            7 
 3240000   0.72355193   -4.8273725    1682.2279  0.043267177  0.043048103            7 
 3241000    0.7335442   -4.8069045    1684.4075   0.04330987  0.043038336            5 
 3242000   0.74403189   -4.8087105    1689.1561  0.043418572  0.043028598            4 
 3243000   0.73478585   -4.7863729    1690.9862  0.043452209  0.043018865            6 
 3244000   0.71665335   -4.7909468    1690.5811  0.043428408  0.043009186            5 
 3245000   0.73709459   -4.8302369     1688.612  0.043364459  0.042999484           10 
 3246000   0.73056457     -4.82205    1686.7918   0.04330437  0.042989731           13 
 3247000   0.73986078   -4.8346296    1687.1216  0.043299497  0.042979984            3 
 3248000   0.73196782    -4.836606    1685.9643  0.043256474  0.042970218           10 
 3249000   0.73939709   -4.8181923    1684.7901  0.043213041  0.042960424           14 
 3250000   0.71765056   -4.7898427    1691.0661   0.04336067  0.042950571            9 
 3251000   0.71105116   -4.8191811    1683.8857  0.043163275  0.042940862            7 
 3252000   0.72626579   -4.8060107    1690.5701  0.043321293  0.042931187            6 
 3253000   0.73717069    -4.849622    1685.1871  0.043170077  0.042921427           17 
 3254000   0.72904687   -4.8247639    1688.8321  0.043250157  0.042911654            4 
 3255000    0.7283323   -4.8144067    1689.7952  0.043261525  0.042901898           10 
 3256000   0.73912306   -4.8208343    1689.0017  0.043227931  0.042892194            3 
 3257000   0.73682855   -4.8421223    1689.3013  0.043222323  0.042882448            6 
 3258000   0.74649891   -4.8113318    1688.0274  0.043176473  0.042872673            9 
 3259000   0.73185401   -4.8095339    1691.2226  0.043244926   0.04286295            8 
 3260000   0.72645038   -4.8361416    1682.0757  0.042997844  0.042853183            4 
 3261000   0.73269708   -4.8270201    1686.4921  0.043097519  0.042843301           13 
 3262000   0.73534703   -4.8373327    1690.5898  0.043188988  0.042833511            7 
 3263000   0.73021863    -4.796692    1692.4942  0.043224389  0.042823721            7 
 3264000   0.72940186   -4.8446336    1688.0935  0.043098793  0.042813926           12 
 3265000   0.72798245   -4.8102715    1688.7957  0.043103516  0.042804154            6 
 3266000   0.71814484   -4.8208392     1694.098  0.043225607  0.042794452            7 
 3267000   0.72714653   -4.8179553    1691.5126   0.04314643  0.042784644            9 
 3268000   0.70702489   -4.8226949     1689.161   0.04307326  0.042774852            5 
 3269000   0.73031063   -4.8150077    1690.0347  0.043082358  0.042765064            8 
 3270000   0.72558457   -4.8201944    1688.1359  0.043020792  0.042755243            5 
 3271000   0.71899047   -4.8087359    1690.6137  0.043070765  0.042745457            4 
 3272000   0.73325992   -4.8248312    1687.4685    0.0429775  0.042735742            7 
 3273000   0.72475777   -4.8059691     1690.564  0.043043182  0.042725957            6 
 3274000   0.73049656   -4.8012109    1692.8943  0.043089347  0.042716176            8 
 3275000   0.71492973   -4.8172999    1693.7525  0.043098027  0.042706527            7 
 3276000   0.73251061   -4.8305496    1687.9956   0.04293843  0.042696744            7 
 3277000    0.7288796     -4.85428    1690.6699  0.042993335  0.042686992            5 
 3278000   0.74070992   -4.7997235    1688.8393  0.042933682  0.042677226            3 
 3279000   0.72205221   -4.8048263    1696.8438  0.043124017  0.042667528            6 
 3280000   0.72771917   -4.8120268    1692.5446   0.04300164  0.042657903           13 
 3281000   0.73158555   -4.8341977    1691.1377  0.042952802   0.04264815            4 
 3282000   0.73190305   -4.8029814     1693.902  0.043009903  0.042638471            9 
 3283000   0.70979183   -4.8210715    1691.0891  0.042925401  0.042628774            7 
 3284000   0.71925661   -4.7971163     1690.131  0.042888018  0.042619038            9 
 3285000   0.72245927   -4.8146346    1694.5657   0.04298746  0.042609347            7 
 3286000   0.72015958   -4.8423083    1689.0113  0.042833517  0.042599618            7 
 3287000   0.72744318   -4.8386343    1696.6841  0.043015011  0.042589803            6 
 3288000   0.72993502   -4.8278986    1697.7015  0.043027715    0.0425801            2 
 3289000   0.73752525   -4.8176619     1693.777  0.042915196   0.04257035            3 
 3290000   0.72491028   -4.8215461    1697.6628  0.043000576  0.042560647            4 
 3291000   0.72098779   -4.8139465    1693.8254  0.042890343  0.042550926            8 
 3292000   0.73268123   -4.8172504    1698.5141  0.042996004  0.042541207            7 
 3293000   0.72026121   -4.8292343    1692.6605  0.042834813  0.042531564            8 
 3294000     0.747865   -4.8352398    1693.8797  0.042852654    0.0425219           10 
 3295000   0.71889987   -4.8191018    1695.1675  0.042872218  0.042512248            7 
 3296000   0.73191239   -4.8437587    1696.2273  0.042886005  0.042502553            7 
 3297000   0.72797185   -4.8214522    1694.6112   0.04283215  0.042492737           15 
 3298000   0.72190373   -4.8367226    1693.2524  0.042784829     0.042483            6 
 3299000   0.71509372   -4.7931984    1692.5669  0.042754544  0.042473266            5 
 3300000   0.72060762   -4.8643117     1688.923  0.042649569  0.042463467            7 
 3301000   0.73239576   -4.8168355    1693.4391   0.04275066  0.042453603            5 
 3302000   0.71617054   -4.8546666    1691.0033   0.04267624  0.042443816            5 
 3303000   0.71848772   -4.8200429    1696.0736  0.042791241  0.042433965            8 
 3304000   0.72338803    -4.836491    1695.4287  0.042762023  0.042424094            8 
 3305000   0.71569111   -4.8091105    1695.4284  0.042749076  0.042414308           14 
 3306000   0.72289979   -4.8307125    1695.0581  0.042726812  0.042404543            5 
 3307000   0.72420064   -4.8374925    1693.5287  0.042675352  0.042394784            7 
 3308000   0.72227085   -4.8153591    1692.4786  0.042635999  0.042385009            5 
 3309000   0.72791199   -4.8259502    1696.5759  0.042726301  0.042375188            2 
 3310000   0.72059647   -4.8464625    1700.1325  0.042802934  0.042365433            5 
 3311000   0.73442582   -4.8288338    1701.7441  0.042830567  0.042355703            6 
 3312000   0.72928532   -4.8166665    1695.3258  0.042656144  0.042345922            7 
 3313000   0.71319015   -4.8389892    1693.7202  0.042602883  0.042336183            8 
 3314000   0.71228825   -4.8070838    1700.8614  0.042769599  0.042326448           13 
 3315000   0.71892123   -4.8316803    1694.9913  0.042609133  0.042316676           11 
 3316000   0.72487681   -4.8207489    1702.1629   0.04277651  0.042306931            4 
 3317000    0.7124287   -4.8344847    1701.0426  0.042735468  0.042297271           11 
 3318000   0.73948629   -4.8297068    1702.7323  0.042765026  0.042287632            6 
 3319000    0.6982905   -4.8309917    1697.4228  0.042618832   0.04227803            5 
 3320000   0.73070502   -4.8300921    1698.4139   0.04263087  0.042268455            7 
 3321000   0.72189713   -4.8364372    1700.4698  0.042669624  0.042258794           12 
 3322000   0.72259524   -4.8197837    1699.3371  0.042628364  0.042249102           10 
 3323000   0.72146402   -4.8544455     1700.054  0.042633514  0.042239391           13 
 3324000   0.73017915   -4.8184606    1699.8391  0.042615301   0.04222965            6 
 3325000   0.72969645   -4.8453343    1699.8348  0.042602376  0.042219974           12 
 3326000   0.71957813   -4.8467102    1699.2173  0.042574095  0.042210272           12 
 3327000   0.73647534     -4.80392    1697.8296   0.04252654  0.042200638            4 
 3328000   0.72508348   -4.8238004     1703.766  0.042662409  0.042190996            8 
 3329000   0.72264001   -4.8449871    1701.2433  0.042586445  0.042181344            5 
 3330000    0.7233979   -4.8286607    1701.9973  0.042592525  0.042171597            6 
 3331000   0.72629069   -4.8438225    1700.4206  0.042540292  0.042161878            7 
 3332000   0.71557277   -4.8488015    1702.2239  0.042572627  0.042152228            7 
 3333000   0.71217473   -4.8228458    1703.8368  0.042600181  0.042142552            5 
 3334000   0.70404537   -4.8150164    1700.6371  0.042507426  0.042132903            3 
 3335000   0.69813022   -4.8444807    1705.2968  0.042611115  0.042123236            3 
 3336000   0.72161313   -4.8343988    1702.5395  0.042529464  0.042113555            5 
 3337000    0.7136108   -4.8370295    1705.3997  0.042588145  0.042103858            5 
 3338000   0.71823727   -4.8522783    1702.9653  0.042514613  0.042094155           14 
 3339000   0.72201961   -4.8380269    1699.6468  0.042419057  0.042084467            4 
 3340000   0.71156072   -4.8627464    1697.9559   0.04236417  0.042074719           13 
 3341000   0.71390845   -4.8406537    1702.8813  0.042474342  0.042065032            6 
 3342000   0.70176115   -4.8624622    1699.5576  0.042378755  0.042055342            7 
 3343000   0.74387793   -4.8410044    1701.5978  0.042416935  0.042045635           11 
 3344000   0.71801399   -4.8434226    1702.3871  0.042423922  0.042035895            5 
 3345000   0.70786067    -4.869858    1700.5223   0.04236478  0.042026188            5 
 3346000   0.72416187   -4.8523431    1702.8557  0.042410234  0.042016549            8 
 3347000   0.71117198   -4.8567883    1702.7461  0.042394834  0.042006795            6 
 3348000   0.72804194   -4.8507351    1699.8565  0.042310247  0.041997091           10 
 3349000   0.72566527   -4.8546306      1702.27  0.042357668  0.041987338            8 
 3350000   0.71248096   -4.8472871    1696.4238  0.042199597  0.041977611            9 
 3351000   0.71722179   -4.8109203    1703.7549  0.042369316  0.041967876            7 
 3352000   0.71217563   -4.8423279    1701.9004   0.04231057  0.041958235            3 
 3353000   0.69866205   -4.8493435    1703.8315  0.042345945  0.041948594            5 
 3354000   0.69115872   -4.8431408    1705.4112   0.04237257  0.041938967            5 
 3355000   0.72622596   -4.8449549    1698.6932  0.042193074  0.041929214           10 
 3356000   0.71595807   -4.8294607     1700.676  0.042229738  0.041919441           16 
 3357000   0.70326941   -4.8710025    1704.9448  0.042323125  0.041909611            8 
 3358000   0.68738521   -4.8460079    1701.4617  0.042224084  0.041899845           10 
 3359000   0.72157124   -4.8168482    1704.8755  0.042296207  0.041890171            6 
 3360000   0.70534381   -4.8582673    1700.8684  0.042184236  0.041880483           14 
 3361000   0.71390607   -4.8472609    1705.0692  0.042275841  0.041870795            8 
 3362000   0.72765652   -4.8324543    1706.0988  0.042288785  0.041861148           11 
 3363000   0.73168491   -4.8432391    1700.9642  0.042148978  0.041851497            5 
 3364000    0.7164819   -4.8673577    1703.3884  0.042196502  0.041841787            7 
 3365000   0.71448952   -4.8416262    1700.2607  0.042106506  0.041832097            5 
 3366000   0.70957932   -4.8586721    1703.4123  0.042172023  0.041822381            7 
 3367000   0.72409808   -4.8602554    1703.8409  0.042170106  0.041812645            9 
 3368000   0.71585859   -4.8344392    1706.2622  0.042217493  0.041802939            3 
 3369000   0.71422874   -4.8663366    1704.6841  0.042165928  0.041793223            7 
 3370000   0.70533514   -4.8490557    1700.3235  0.042045585  0.041783515            7 
 3371000   0.71371232   -4.8229278    1707.2136  0.042203441   0.04177379            5 
 3372000   0.71574683   -4.8687617     1706.038  0.042161873  0.041764021           14 
 3373000   0.71072778   -4.8205673    1702.8169  0.042069791  0.041754356            7 
 3374000   0.71078817   -4.8362181    1710.4292  0.042245337  0.041744633            8 
 3375000   0.71142165   -4.8314007    1705.8442   0.04211961  0.041734937            7 
 3376000   0.70316569   -4.8676609    1701.8319  0.042008093  0.041725203           17 
 3377000   0.72258194    -4.850031     1704.517  0.042061914  0.041715469            6 
 3378000   0.71899829   -4.8490442    1702.4444  0.041998332  0.041705671            4 
 3379000   0.72083455   -4.8645902    1701.1019  0.041952794  0.041695889            8 
 3380000    0.7170517   -4.8589023    1702.1004  0.041965001  0.041686079            8 
 3381000   0.71393447   -4.8611213    1704.1433  0.042002939  0.041676293           10 
 3382000   0.71191466   -4.8647566    1701.4703  0.041924659  0.041666421            8 
 3383000   0.70044318   -4.8567889    1702.4303  0.041935913  0.041656569            4 
 3384000   0.72206915    -4.829207    1702.7214  0.041930689  0.041646749           10 
 3385000   0.71167595   -4.8758826    1702.3668  0.041909571   0.04163692            8 
 3386000   0.70851716   -4.8735937    1705.5014  0.041974342  0.041627057            3 
 3387000   0.71497858   -4.8544307    1705.4086  0.041959664  0.041617244            9 
 3388000   0.69377024   -4.8640309    1708.0055  0.042011155  0.041607401            7 
 3389000   0.71094389   -4.8484298    1702.9301  0.041873958  0.041597565            7 
 3390000   0.73152023   -4.8419333     1698.019   0.04174088  0.041587756           12 
 3391000   0.71318233   -4.8499777     1707.992  0.041973655   0.04157797            4 
 3392000   0.69841648   -4.8430357    1705.4917  0.041899854  0.041568212            4 
 3393000   0.71494705   -4.8649287     1700.326  0.041760634  0.041558446           14 
 3394000   0.70619385   -4.8813259    1702.0257  0.041790064  0.041548643            7 
 3395000   0.70347086   -4.8661079    1703.5671  0.041815589   0.04153881            5 
 3396000   0.70371733    -4.840751    1701.9039  0.041762464  0.041528969            7 
 3397000   0.71589218   -4.8684742     1702.289  0.041759616  0.041519108           11 
 3398000   0.69765824   -4.8754714    1701.4362  0.041726413  0.041509189           11 
 3399000   0.69391022   -4.8428021     1709.453  0.041910683  0.041499381            4 
 3400000   0.70380605   -4.8526072    1708.9344  0.041885648  0.041489646            9 
 3401000   0.70416413   -4.8605396    1704.6249  0.041767738  0.041479862            8 
 3402000   0.71082312   -4.8484831    1710.2386   0.04189297  0.041470109            9 
 3403000    0.7083594   -4.8338916    1703.6205  0.041718593  0.041460404            5 
 3404000   0.72154939   -4.8722203    1698.6502  0.041584661  0.041450587            4 
 3405000   0.71035762   -4.8487553    1703.9414  0.041701943  0.041440761            5 
 3406000   0.70917195   -4.8770934    1707.6895  0.041781404  0.041430987            5 
 3407000    0.6991385   -4.8700334     1704.742  0.041697044  0.041421146            8 
 3408000   0.69147425   -4.8832059    1709.4262  0.041799349  0.041411279           14 
 3409000   0.72390066   -4.8691579    1707.4377  0.041738478  0.041401493           15 
 3410000   0.70934371   -4.9014581    1707.1291  0.041718698   0.04139177           11 
 3411000     0.705232   -4.8519293    1706.2981  0.041686166  0.041381944           10 
 3412000   0.71210861    -4.859075    1706.3536  0.041675304  0.041372224           11 
 3413000   0.72105237   -4.8730186    1709.8557  0.041748601  0.041362411           16 
 3414000   0.72483196   -4.8479249    1706.4666  0.041653647  0.041352663           10 
 3415000   0.71270938   -4.8720558     1708.442  0.041689654  0.041342929            7 
 3416000   0.70248666   -4.8786887    1710.0962  0.041717802  0.041333165            4 
 3417000   0.68770859   -4.8564233    1708.6315  0.041669873  0.041323442            5 
 3418000   0.70831792    -4.855379    1709.9478  0.041689774  0.041313757           16 
 3419000   0.71753696   -4.8901706    1706.0179  0.041581795  0.041304039            6 
 3420000   0.70240122   -4.8703391     1707.763  0.041612159  0.041294283            6 
 3421000   0.70802392   -4.8531772    1709.7185  0.041647629  0.041284619           13 
 3422000   0.70638973   -4.8493466    1713.4897  0.041727297  0.041274996           10 
 3423000   0.72037105   -4.8939835    1703.3235   0.04146761  0.041265337            8 
 3424000   0.69594011   -4.8726776    1709.5705  0.041607538  0.041255621           10 
 3425000   0.70453597   -4.8760344    1705.6216  0.041499309  0.041245885            6 
 3426000   0.70748817   -4.8625109    1713.4548  0.041677729  0.041236152           15 
 3427000   0.68239225   -4.8625609    1713.6601  0.041670559  0.041226521            5 
 3428000   0.69048922   -4.8858914    1711.8006    0.0416132  0.041216891           12 
 3429000   0.71317791   -4.8835842    1707.0803  0.041486349   0.04120719            5 
 3430000   0.70284046   -4.8653601    1711.7889  0.041588651  0.041197437            5 
 3431000   0.71310475   -4.8743763    1706.1273  0.041439019  0.041187668            7 
 3432000   0.69473748   -4.8541164    1707.0184  0.041448582  0.041177983            5 
 3433000   0.70319872   -4.8608131    1710.8937  0.041530577  0.041168265            8 
 3434000    0.7000422   -4.8695163    1713.1764  0.041573879  0.041158574           11 
 3435000   0.69722153   -4.8592219    1712.6513  0.041549036  0.041148857            6 
 3436000   0.70481764   -4.8943804    1711.7718  0.041515615  0.041139089            4 
 3437000   0.70353008   -4.8689745    1712.2171  0.041514332   0.04112928            4 
 3438000   0.70022687   -4.8845163    1708.8128   0.04141974  0.041119498           10 
 3439000   0.70595237   -4.8595427    1712.4194  0.041495091  0.041109803            6 
 3440000    0.6950444   -4.8431557    1713.8202  0.041516962  0.041100091            3 
 3441000   0.71752641   -4.8745793    1706.8973   0.04133724  0.041090353            6 
 3442000   0.69459213   -4.8657435    1714.4891  0.041509034  0.041080594            6 
 3443000   0.70918158   -4.8678299    1712.3991  0.041446391  0.041070952            7 
 3444000   0.70190392   -4.9001199     1709.416  0.041362176  0.041061225            6 
 3445000   0.70220782   -4.8757587    1707.8072  0.041311253  0.041051439            9 
 3446000   0.70922212   -4.8938688    1707.4113  0.041289691  0.041041668           11 
 3447000   0.69398281   -4.8976457    1711.4119  0.041374429  0.041031861           11 
 3448000   0.69333615   -4.8673524    1709.7426  0.041322086  0.041022118           13 
 3449000   0.70201662   -4.8710482    1713.1902  0.041393403  0.041012434            9 
 3450000   0.69870248   -4.8620281    1713.0993  0.041379211  0.041002703           10 
 3451000   0.68628403   -4.8646376    1717.3727  0.041470412  0.040993032            7 
 3452000   0.70003148   -4.8588611    1715.4184  0.041411221   0.04098333            9 
 3453000   0.70751562   -4.8811424    1709.8504  0.041264852  0.040973623           10 
 3454000   0.71173525   -4.8822066    1711.2523  0.041286729  0.040963891            4 
 3455000   0.69595054   -4.8789536    1713.8212  0.041336739  0.040954122            8 
 3456000   0.70187062   -4.8549679     1710.921  0.041254847  0.040944337           13 
 3457000   0.70193523   -4.8898685    1708.9001  0.041194199  0.040934546           15 
 3458000   0.69485039   -4.8718739    1711.9752  0.041256392   0.04092472            6 
 3459000   0.69456512   -4.9023592    1712.1446  0.041248545  0.040914999            8 
 3460000   0.70397467   -4.9121678    1705.6779  0.041080873  0.040905198            9 
 3461000    0.7019617   -4.8768341    1714.3365  0.041277486  0.040895455           14 
 3462000   0.69611412   -4.8791389    1713.1243  0.041236384  0.040885714           11 
 3463000   0.69869448     -4.85714    1710.4618  0.041160404  0.040876065           13 
 3464000   0.71461354   -4.8968045    1710.6618  0.041153334  0.040866402            4 
 3465000   0.70418467   -4.8934009    1713.8035  0.041217016  0.040856658           14 
 3466000   0.68746361   -4.8863296    1718.1689  0.041310082  0.040846942            5 
 3467000   0.68616366   -4.8860782    1715.6614  0.041237895  0.040837231           18 
 3468000    0.6960945   -4.8646179    1712.4396  0.041148587  0.040827522           12 
 3469000   0.70965075   -4.8789124    1718.6434  0.041285754  0.040817867            7 
 3470000   0.69984254   -4.8940951    1713.9938  0.041162194  0.040808088           10 
 3471000   0.70023362     -4.88429    1711.5551  0.041091788  0.040798348            6 
 3472000    0.6970079   -4.9106679    1712.8636  0.041111358  0.040788585           11 
 3473000   0.72176779   -4.8983055    1714.0233  0.041127347   0.04077886           10 
 3474000   0.69509187   -4.8758427    1710.7892   0.04103793  0.040769104            3 
 3475000   0.70688604   -4.9187084    1711.9469  0.041053884  0.040759324           12 
 3476000   0.68420305   -4.8955904     1713.185  0.041071753  0.040749545            6 
 3477000   0.68913738   -4.8694645     1713.195  0.041060182    0.0407398            7 
 3478000    0.6955993   -4.8531018    1712.0762  0.041021569  0.040730044           10 
 3479000   0.69848694   -4.8702821    1713.4423  0.041042501  0.040720308           10 
 3480000   0.70122764   -4.8896415    1715.0059  0.041068149   0.04071059            9 
 3481000    0.7046249   -4.8916275    1713.7068  0.041025253  0.040700811            4 
 3482000   0.71264687   -4.8744754    1716.0938  0.041070597  0.040691051            6 
 3483000   0.70234046   -4.8948924    1713.4222  0.040994885  0.040681305            6 
 3484000   0.69963856   -4.8698443    1711.4744  0.040936529  0.040671522            6 
 3485000   0.68047258   -4.8579784     1714.265  0.040991512  0.040661765           10 
 3486000   0.67479081   -4.8798094    1712.4168   0.04093557  0.040652057            9 
 3487000   0.67806398   -4.8842534    1715.0829  0.040987547  0.040642326            9 
 3488000   0.68621818     -4.89145     1711.374  0.040887186   0.04063252            7 
 3489000    0.6933507   -4.8604187    1714.3177  0.040945774  0.040622769           12 
 3490000   0.69574555   -4.8496315    1712.0595  0.040880122  0.040613081            8 
 3491000   0.70461974   -4.9035421    1710.1556  0.040822965  0.040603376            5 
 3492000   0.70138827   -4.9154925    1711.9164  0.040853293  0.040593646           13 
 3493000   0.69510099    -4.886858     1715.041  0.040916141  0.040583869            9 
 3494000   0.70170635   -4.9162618     1715.835  0.040923368  0.040574083            3 
 3495000   0.69065381   -4.8855634    1711.7848  0.040815088  0.040564261           10 
 3496000   0.68819023   -4.8966867    1712.7893  0.040827358  0.040554533           10 
 3497000   0.69222319   -4.8732893     1717.656  0.040931655   0.04054484            4 
 3498000   0.68203697   -4.8980973    1714.4119  0.040842671  0.040535071           14 
 3499000   0.68625564    -4.918013    1715.6946  0.040861547  0.040525327           15 
 3500000   0.67548451   -4.8992546    1713.9686  0.040808775  0.040515594            6 
 3501000   0.69375303   -4.9066037    1710.4372  0.040713063  0.040505826           11 
 3502000   0.69159467   -4.8905231    1719.2758  0.040911759  0.040496154            5 
 3503000   0.68939983    -4.889806    1716.1721  0.040826247  0.040486418            6 
 3504000   0.69670008    -4.903784    1716.9668  0.040833495  0.040476727           10 
 3505000   0.70050835   -4.8866883    1716.2514  0.040804835  0.040467062            8 
 3506000   0.69471831    -4.893607    1715.5324  0.040776108  0.040457339           11 
 3507000   0.68824716   -4.9159643    1716.0791  0.040777471  0.040447621           17 
 3508000   0.70090416   -4.8977058     1721.489  0.040894359  0.040437927           15 
 3509000    0.6825159   -4.8858313    1718.5729  0.040813455  0.040428276            7 
 3510000   0.69559289   -4.8944355    1716.5424  0.040753619  0.040418629           10 
 3511000   0.70330959    -4.873019    1719.4362  0.040810694  0.040409051           12 
 3512000   0.68280655   -4.8903471    1719.5816  0.040802524  0.040399427            6 
 3513000   0.67936533   -4.9341686    1719.5701  0.040790636  0.040389723            6 
 3514000   0.69430431   -4.8868238    1723.5345  0.040873045  0.040380093            9 
 3515000   0.68608659   -4.9000757    1720.9041  0.040799053  0.040370441            6 
 3516000   0.69117379   -4.8863026     1719.773  0.040760642  0.040360802            8 
 3517000    0.6955231   -4.9181951    1713.8878  0.040609605  0.040351117           17 
 3518000   0.68585671   -4.8986486    1719.9746  0.040742245  0.040341429            6 
 3519000    0.6929359   -4.9001184    1720.1283  0.040734307  0.040331773           13 
 3520000   0.68621173   -4.8922097    1721.6681  0.040759187  0.040322164            7 
 3521000   0.68538567    -4.931455      1718.08   0.04066269  0.040312528            9 
 3522000   0.69677869   -4.9005174    1717.6041  0.040639886  0.040302852            4 
 3523000   0.67415803   -4.8935232    1721.9329  0.040730744  0.040293229            5 
 3524000    0.6987932   -4.8973552    1717.4377  0.040612885  0.040283576            6 
 3525000   0.68781507   -4.8872248    1722.8237  0.040728694  0.040273991           18 
 3526000   0.68567734   -4.9022718    1720.6543   0.04066587  0.040264422            6 
 3527000   0.69460367   -4.9139721    1721.0497  0.040663683  0.040254881            7 
 3528000   0.68360404   -4.9049907    1726.0549  0.040770382  0.040245272            9 
 3529000   0.66966219   -4.8889545     1727.249  0.040787027  0.040235757            7 
 3530000   0.68047172   -4.9293276    1727.1756  0.040773739  0.040226192            8 
 3531000   0.69191034   -4.9243291    1725.3566  0.040719262  0.040216631            6 
 3532000   0.70396763   -4.9059702    1721.8062  0.040623967  0.040207089            5 
 3533000   0.67864146   -4.8807086    1725.6326  0.040702721  0.040197548           15 
 3534000   0.68713734   -4.8777342    1722.8154  0.040624775   0.04018812            5 
 3535000   0.69523109    -4.897823    1722.2575   0.04060013  0.040178554            8 
 3536000   0.68107214   -4.8915649     1724.804  0.040648662  0.040169009            6 
 3537000   0.69155546   -4.8782128    1726.3058  0.040672553  0.040159425            9 
 3538000    0.6919128   -4.8753955    1726.3792  0.040662784  0.040149888            9 
 3539000   0.69511381   -4.8751134    1724.9484  0.040617605  0.040140324            8 
 3540000   0.68419768   -4.9301012    1718.3686  0.040451238  0.040130713           25 
 3541000   0.70902064   -4.9320438    1720.8898  0.040499147  0.040121036            7 
 3542000   0.67285658   -4.9011409    1719.5604  0.040456437  0.040111396            9 
 3543000   0.67651249    -4.912148    1723.0217  0.040526429  0.040101754            6 
 3544000   0.69434656   -4.9437094    1725.4206  0.040571403  0.040092224           12 
 3545000   0.69750796   -4.8990862    1723.8034  0.040521942  0.040082632           11 
 3546000   0.67236668   -4.9172439    1726.6472  0.040577345  0.040073067           13 
 3547000   0.67759885   -4.9178309    1727.2473  0.040580003  0.040063553           11 
 3548000   0.68189632   -4.8948608    1725.4733    0.0405269  0.040054017           10 
 3549000   0.68824954   -4.8936842    1727.0847  0.040553317  0.040044552            5 
 3550000   0.69235961   -4.9265195    1723.0383  0.040446907  0.040034973            7 
 3551000   0.69234727    -4.910944    1724.0603  0.040459502  0.040025435           12 
 3552000   0.69157326   -4.9197345     1722.331  0.040407541  0.040015911            6 
 3553000   0.68355538   -4.9131279    1722.3882  0.040397509  0.040006367            9 
 3554000   0.67372006    -4.878481    1729.4291  0.040551235  0.039996885            6 
 3555000   0.68190714   -4.8914227    1729.8228  0.040549058  0.039987427           13 
 3556000   0.68037644   -4.9198598    1722.2096  0.040359242  0.039977901            5 
 3557000   0.68105723   -4.9059322    1731.2006  0.040558536  0.039968443            4 
 3558000   0.68092111   -4.9013337    1726.2126  0.040430313   0.03995894           15 
 3559000   0.67723628   -4.8884012    1729.3952  0.040493472  0.039949471           10 
 3560000   0.69022661   -4.8783656    1727.7361  0.040443261  0.039939979            5 
 3561000   0.68035063   -4.9047458    1728.2041  0.040442855  0.039930555            9 
 3562000   0.67571123   -4.9043655    1727.4129  0.040412992  0.039921099           11 
 3563000   0.67534942   -4.8894588     1727.327  0.040399639  0.039911565           13 
 3564000   0.67654748   -4.9294759    1725.7794  0.040352118  0.039902055           10 
 3565000   0.66213337   -4.8957977    1728.9891  0.040415828  0.039892565            5 
 3566000   0.67911979   -4.9257992    1725.5296   0.04032365  0.039883078            7 
 3567000   0.69640449   -4.8934636    1726.5487  0.040336153  0.039873572            8 
 3568000   0.68054546   -4.9171772    1722.2715  0.040224952  0.039864128           10 
 3569000   0.68606085    -4.907439    1725.4781  0.040288552  0.039854608            7 
 3570000    0.6833811   -4.9323726    1731.3525   0.04041439  0.039845067            6 
 3571000   0.67459423   -4.9276893    1721.7896  0.040179912  0.039835503           13 
 3572000   0.68528035   -4.9463645    1719.7705  0.040121559   0.03982591            8 
 3573000   0.65888133   -4.9534218    1724.3422  0.040216956  0.039816259            9 
 3574000   0.68791438   -4.9265574    1725.6302  0.040235736   0.03980664           11 
 3575000   0.68767865   -4.9269348    1721.3001  0.040123546    0.0397971            9 
 3576000   0.67795293   -4.9242678    1723.9625  0.040174368   0.03978752            8 
 3577000   0.67382526   -4.9580787    1723.1528  0.040144274   0.03977796           11 
 3578000   0.67235196   -4.9038759    1725.8687  0.040196307  0.039768436            7 
 3579000   0.69638866   -4.9085589    1732.4798  0.040339011  0.039758916           10 
 3580000   0.69493955   -4.9310454    1727.2074  0.040205013  0.039749381           10 
 3581000   0.69095992   -4.9221674    1730.2585  0.040264789  0.039739801           10 
 3582000   0.68406463   -4.9239447    1731.5679  0.040284011  0.039730289            6 
 3583000   0.67373037   -4.9136972    1729.3977  0.040222292  0.039720823            7 
 3584000     0.680528   -4.9108471    1726.3883  0.040141098  0.039711335            5 
 3585000   0.67924301   -4.9338994    1725.8867   0.04011824  0.039701771            8 
 3586000   0.68960475   -4.9195378    1732.2982  0.040256048  0.039692247            6 
 3587000   0.69002557    -4.928321    1728.4389  0.040155164  0.039682763           18 
 3588000   0.67435554   -4.9288615     1724.626  0.040055416  0.039673296            8 
 3589000   0.67114358   -4.9300889    1729.2178  0.040150874  0.039663808           14 
 3590000   0.67078393   -4.9317583      1731.76    0.0401987  0.039654294            6 
 3591000   0.68187888   -4.8953081    1733.8882  0.040236893  0.039644812            7 
 3592000    0.6689231   -4.9431577    1724.2199   0.04000139  0.039635354            5 
 3593000   0.67027336   -4.9249888    1730.3202  0.040131741  0.039625848            6 
 3594000   0.66443981   -4.8973531      1729.07  0.040091587  0.039616376           12 
 3595000   0.67948581   -4.9284052    1725.6728  0.040001687  0.039607006            6 
 3596000   0.66949331    -4.933452    1729.6174  0.040081976  0.039597573            9 
 3597000   0.66770197   -4.9154089    1727.7183  0.040026836  0.039588111           23 
 3598000   0.67990011   -4.9194612    1732.5446  0.040127493  0.039578664           11 
 3599000   0.67691743   -4.9122453    1732.9276   0.04012521  0.039569225           10 
 3600000   0.68334422   -4.9472313    1730.6465  0.040061261  0.039559761           12 
 3601000   0.65987441    -4.916647    1729.4229   0.04002182  0.039550359            9 
 3602000   0.68125164   -4.9230308    1732.5316   0.04008263  0.039540893            7 
 3603000    0.6704626   -4.9199431     1726.754  0.039937877   0.03953138           16 
 3604000   0.65079979    -4.930016    1731.3754  0.040033653  0.039521847           10 
 3605000   0.67647525   -4.9323455    1724.4651  0.039862808  0.039512384           17 
 3606000   0.67281587    -4.925695    1734.4666  0.040082886  0.039502908           15 
 3607000   0.68213269   -4.9179832     1729.192  0.039949913  0.039493456           15 
 3608000    0.6599884   -4.9148139    1736.2109  0.040100954  0.039484023            5 
 3609000   0.66655677   -4.8980363    1736.6209  0.040099309  0.039474655           13 
 3610000   0.65855297   -4.9208248    1729.3568  0.039920518  0.039465216           15 
 3611000   0.67796364   -4.9150825     1729.717  0.039917773  0.039455809            4 
 3612000   0.65683043   -4.9269627    1731.8517  0.039955973  0.039446427            7 
 3613000   0.66487605   -4.9464191    1732.7988  0.039966759  0.039437035            5 
 3614000   0.67122191   -4.9366872     1735.095  0.040008648   0.03942759            6 
 3615000   0.68196126    -4.953549    1729.7414  0.039874167  0.039418237           11 
 3616000   0.69387653   -4.9374096    1732.9979  0.039938188  0.039408826            6 
 3617000   0.67369042    -4.944322    1732.6122  0.039918262  0.039399397           15 
 3618000    0.6672987   -4.9508217    1728.3425  0.039808885  0.039389956            7 
 3619000   0.68277922   -4.9279413    1732.1602  0.039885792  0.039380527           12 
 3620000   0.67496892   -4.9389271    1726.1421  0.039736237  0.039371096            7 
 3621000   0.66781385   -4.9202157    1733.9203   0.03990427  0.039361687            8 
 3622000    0.6714143   -4.9233037    1731.7542  0.039843415  0.039352189           11 
 3623000   0.68052856   -4.9421614    1730.1472  0.039795455  0.039342702           11 
 3624000   0.66313505   -4.9645217    1728.2636  0.039741161  0.039333215            5 
 3625000   0.66767977     -4.92773    1730.4467  0.039780383  0.039323772            6 
 3626000   0.66472752    -4.934034    1732.7713  0.039822838  0.039314315            7 
 3627000   0.66681635   -4.9287137    1738.1537  0.039935524  0.039304917            8 
 3628000   0.66721677    -4.948637    1725.9504  0.039644212  0.039295447            7 
 3629000   0.66184157   -4.9226207    1733.8536   0.03981477  0.039285994            5 
 3630000   0.67397023    -4.925081    1732.8652   0.03978111  0.039276511           10 
 3631000   0.67261543   -4.9526014    1725.7379  0.039606579   0.03926704            9 
 3632000    0.6928402   -4.9212328    1733.1957  0.039766789  0.039257597            6 
 3633000   0.65823764   -4.9561627     1729.976  0.039681988   0.03924809            5 
 3634000   0.65516826   -4.9553125    1732.6625  0.039732674   0.03923859           12 
 3635000   0.68471932   -4.9477082     1733.482  0.039740532  0.039229132            8 
 3636000   0.64952717   -4.9113202    1737.4109  0.039819648  0.039219722            7 
 3637000   0.67531991   -4.9430175    1735.9388  0.039774969  0.039210288            9 
 3638000   0.65820226   -4.9209254    1729.2295  0.039610351  0.039200815           11 
 3639000   0.67882891   -4.9246422    1735.2442  0.039737204  0.039191398           13 
 3640000   0.66446491   -4.9357269    1736.7865  0.039761596  0.039181974            5 
 3641000   0.66986577   -4.9345098    1732.7124  0.039657429   0.03917257            6 
 3642000   0.66999923   -4.9360573    1731.9385  0.039628834  0.039163134            5 
 3643000   0.66490339   -4.9488863    1733.0418  0.039643191  0.039153706            5 
 3644000   0.67407792   -4.9545328    1733.0389  0.039632247  0.039144294           13 
 3645000   0.66092041   -4.9589108    1733.4512    0.0396308  0.039134846            7 
 3646000   0.67604576   -4.9447896    1732.0398  0.039587672  0.039125372            5 
 3647000    0.6719266   -4.9306491    1733.0414  0.039599703  0.039115911            7 
 3648000   0.69872683   -4.9417561    1734.2572   0.03961662  0.039106494           12 
 3649000   0.66701371   -4.9250688    1737.0781  0.039670186   0.03909716           13 
 3650000   0.66319014   -4.9264098    1733.7709  0.039583811  0.039087766           10 
 3651000   0.66008709   -4.9096171    1737.1589  0.039650298  0.039078376            6 
 3652000   0.66750039   -4.9413466    1733.9498  0.039566214  0.039068941           18 
 3653000   0.66557825   -4.9510012    1734.0341  0.039557306  0.039059512           12 
 3654000   0.65835352    -4.947146    1728.7345  0.039425619  0.039050056            8 
 3655000   0.65810549   -4.9232258    1732.9831  0.039511698  0.039040558            6 
 3656000   0.67075885   -4.9447007    1733.2317  0.039506558  0.039031154           16 
 3657000   0.66736882   -4.9614263    1731.3828  0.039453624  0.039021696            6 
 3658000   0.66013891   -4.9460937    1735.5042  0.039536727    0.0390122            9 
 3659000   0.66463641   -4.9542925    1735.3134  0.039521577  0.039002799            5 
 3660000   0.66529862   -4.9402981    1730.4682  0.039400459  0.038993336            6 
 3661000   0.67628202   -4.9277615    1733.3185  0.039454577  0.038983894            5 
 3662000   0.67000471   -4.9483526    1735.8988  0.039502521  0.038974464            9 
 3663000   0.66723001   -4.9365436    1736.2215  0.039499079  0.038965044            7 
 3664000   0.66386206   -4.9629118    1730.7754  0.039364434   0.03895562           12 
 3665000   0.66308642    -4.948374    1735.0444  0.039450758  0.038946173           16 
 3666000   0.65961684    -4.971461    1730.4228  0.039334944   0.03893673           12 
 3667000   0.65474005   -4.9331794    1736.3814  0.039459626  0.038927269            7 
 3668000   0.68303682   -4.9488057    1735.3564  0.039425581  0.038917797            9 
 3669000   0.66393218   -4.9219899    1739.7371  0.039514334  0.038908435            6 
 3670000   0.67760034   -4.9493787    1735.6668  0.039411145  0.038899059            8 
 3671000   0.67118264      -4.9469    1733.6832   0.03935538  0.038889664            6 
 3672000   0.65657768   -4.9510879    1732.7715  0.039323973  0.038880232           10 
 3673000   0.68296316   -4.9542565    1734.5943  0.039354621  0.038870811           10 
 3674000    0.6531268   -4.9479173    1734.9775  0.039352603  0.038861358            8 
 3675000   0.68527305   -4.9393804    1734.9356  0.039340942   0.03885196           15 
 3676000   0.65694287   -4.9480052    1739.1087  0.039424845  0.038842494            6 
 3677000   0.64775347   -4.9465931    1733.6593   0.03929062  0.038833078            6 
 3678000   0.67090879   -4.9444176    1735.4698  0.039320959  0.038823674           10 
 3679000   0.66528596   -4.9676069    1738.3476  0.039375456  0.038814241           13 
 3680000   0.67353691   -4.9555892    1729.2309  0.039158309  0.038804749            7 
 3681000   0.65568423   -4.9634938    1736.6991  0.039316742  0.038795278            9 
 3682000   0.65674558   -4.9276432     1739.337  0.039365766  0.038785873            7 
 3683000   0.67763857   -4.9466165    1733.9373    0.0392329  0.038776477            7 
 3684000   0.66985949   -4.9776223    1736.5135  0.039280527  0.038767052           12 
 3685000   0.66179348   -4.9497314    1738.7461  0.039320355  0.038757666           10 
 3686000   0.68192302    -4.946023    1739.1943  0.039319821  0.038748288            9 
 3687000   0.66537738   -4.9416827    1737.9291  0.039280561  0.038738902            7 
 3688000   0.66208464   -4.9623812    1736.3945  0.039235234  0.038729463            6 
 3689000   0.65699879   -4.9453782    1734.7681  0.039187859  0.038720061           10 
 3690000   0.66356248   -4.9581786    1734.4339  0.039169691   0.03871064           13 
 3691000   0.66173339   -4.9648387    1733.1957  0.039131122  0.038701165            6 
 3692000    0.6461174   -4.9559752    1734.7634   0.03915591  0.038691737            8 
 3693000   0.65372162   -4.9515552    1740.4611  0.039273876   0.03868228            5 
 3694000   0.64997119   -4.9577509     1740.047  0.039253903  0.038672865            7 
 3695000   0.68085608   -4.9755985     1731.501  0.039050541  0.038663373           10 
 3696000   0.65931662   -4.9589518    1732.7525  0.039068192   0.03865384            8 
 3697000    0.6557875   -4.9639261    1734.8537  0.039104988  0.038644348            6 
 3698000   0.67701447   -4.9343145    1740.1716  0.039214251  0.038634932           10 
 3699000    0.6492072   -4.9523402    1737.2664    0.0391382   0.03862549           10 
 3700000   0.66851886    -4.974157      1732.01  0.039009235  0.038616002            7 
 3701000   0.65991736   -4.9618673    1730.4517  0.038963606  0.038606515           21 
 3702000   0.65167395    -4.993679    1731.7099  0.038981403   0.03859695           15 
 3703000   0.66101522   -4.9583617    1738.2608  0.039118302  0.038587468            5 
 3704000   0.66495693   -4.9601305    1736.5746  0.039069803  0.038578014            8 
 3705000   0.67284057   -4.9718345    1737.4188  0.039078246   0.03856858            7 
 3706000   0.65516462   -4.9711189    1739.8967  0.039123419  0.038559111           10 
 3707000   0.66507174   -4.9732758    1737.0695   0.03904931  0.038549632           11 
 3708000    0.6613864   -4.9707924    1735.9994  0.039014729  0.038540176           10 
 3709000   0.66216709   -4.9489442    1733.7281  0.038953179  0.038530753            7 
 3710000    0.6590913   -4.9659309    1735.9301  0.038992141  0.038521335           11 
 3711000   0.66608112   -4.9652319    1736.3313  0.038990642  0.038511877            6 
 3712000   0.65562299   -4.9554555    1737.8123  0.039013388  0.038502433           13 
 3713000   0.65663797   -4.9786463    1738.6342  0.039021325  0.038493021           13 
 3714000   0.65080963   -4.9854494    1737.9073  0.038994509  0.038483557           10 
 3715000   0.65749301   -4.9676152    1739.4297  0.039018162  0.038474063            8 
 3716000   0.66705914   -4.9538502    1740.7959  0.039038301  0.038464642           16 
 3717000   0.65102137   -4.9627611     1735.313  0.038904874  0.038455225           10 
 3718000   0.65813999   -4.9678919    1731.4149  0.038807039  0.038445801           14 
 3719000   0.64824669   -4.9544087    1744.1149   0.03908118  0.038436423           13 
 3720000   0.66014355   -4.9580133    1744.1697  0.039071902  0.038427049            8 
 3721000   0.64861685   -4.9637603    1734.1505  0.038837018   0.03841764            5 
 3722000   0.65773555   -4.9656605    1736.4046   0.03887705  0.038408189           12 
 3723000   0.66135315   -4.9642532    1738.3485   0.03891012   0.03839875            8 
 3724000   0.64939753   -4.9890011    1733.3427  0.038787653  0.038389307            8 
 3725000   0.65143011   -4.9682825    1736.6778  0.038851852  0.038379815           13 
 3726000   0.64297672   -4.9856562    1735.6704  0.038818895  0.038370391           12 
 3727000   0.65283642   -4.9773417    1736.1732   0.03881972  0.038360927           13 
 3728000   0.64276695   -4.9697776    1738.2098  0.038854833  0.038351513            5 
 3729000   0.64649324   -4.9524419    1739.2664  0.038868026  0.038342136           11 
 3730000   0.64255621   -4.9671554    1740.0493  0.038875096  0.038332701           13 
 3731000   0.66086216   -4.9745305     1738.601  0.038832329  0.038323279            9 
 3732000   0.64919534   -4.9491353    1737.4284  0.038795739  0.038313875           13 
 3733000   0.66168469   -4.9679092    1741.3014  0.038871805  0.038304449            6 
 3734000   0.65394162    -4.956241     1738.246  0.038793206  0.038295064            5 
 3735000   0.64306037   -4.9607594    1741.2101  0.038848954  0.038285684            9 
 3736000   0.63908539   -4.9640704    1740.5711  0.038824302  0.038276337            3 
 3737000   0.65134334   -4.9871277    1734.3815  0.038675887  0.038266849            5 
 3738000   0.66098993    -4.972359    1737.5302  0.038735737  0.038257398           12 
 3739000   0.66089098   -4.9829381    1741.0918  0.038804757  0.038247986           11 
 3740000   0.66114458   -4.9711101    1738.9264  0.038746133  0.038238604            7 
 3741000    0.6487408   -4.9800472    1739.5391  0.038749424   0.03822922           10 
 3742000   0.65784722   -4.9688518     1744.933  0.038859189  0.038219829            9 
 3743000   0.65531255   -4.9741113    1739.4041  0.038725712  0.038210447           15 
 3744000   0.64936433   -4.9691188    1737.9944  0.038683993  0.038201058            7 
 3745000   0.66066258    -4.961914    1742.9372  0.038783649  0.038191696           12 
 3746000   0.63972007   -4.9627746    1745.9546  0.038840422  0.038182393            6 
 3747000   0.66077767   -4.9735313    1738.2884  0.038659558  0.038173104            7 
 3748000   0.64356399   -4.9755244    1742.6682  0.038746625  0.038163792            5 
 3749000   0.65670367   -4.9802924    1743.1381  0.038746735  0.038154474            4 
 3750000   0.65864571   -4.9767606    1743.5025  0.038744499  0.038145176            6 
 3751000   0.64956509   -4.9937117     1739.545   0.03864625  0.038135863           13 
 3752000   0.64977976   -4.9623776    1741.9252  0.038688815  0.038126493            4 
 3753000   0.65705291   -4.9706526    1738.8231  0.038609625  0.038117128           20 
 3754000   0.65755365    -4.981391    1738.2917  0.038587544  0.038107789           18 
 3755000   0.65086799   -4.9602543    1743.3856  0.038690314  0.038098449            8 
 3756000    0.6475592   -4.9999966    1735.8079  0.038511891  0.038089086           13 
 3757000   0.63791734   -4.9851786    1742.0784  0.038640724  0.038079728           15 
 3758000   0.66046841   -4.9980556    1739.4206  0.038571506  0.038070367           10 
 3759000   0.64365031   -5.0020713    1736.7099  0.038501151  0.038060982           17 
 3760000     0.638362   -4.9862338    1743.2296  0.038635409  0.038051604           17 
 3761000   0.64970878   -4.9634495    1742.6317  0.038611886  0.038042259           18 
 3762000   0.65722634   -4.9727147    1743.9629  0.038631111  0.038032906           11 
 3763000   0.66483482    -4.994687    1744.1315   0.03862458  0.038023584            8 
 3764000   0.64516387    -4.956517    1741.0654  0.038546435  0.038014298            7 
 3765000   0.66969521   -4.9758807    1744.3488   0.03860887  0.038005009           14 
 3766000   0.65649424   -4.9717049    1747.0005  0.038657296  0.037995735            9 
 3767000    0.6602499   -4.9879666    1740.8459  0.038510881  0.037986371           13 
 3768000   0.65457338   -4.9739224    1740.5712  0.038494587  0.037977048           17 
 3769000   0.64599656   -4.9974364    1741.3088   0.03850068    0.0379677           30 
 3770000   0.65016072   -5.0077096    1739.6513  0.038453831  0.037958313            7 
 3771000     0.644289   -4.9777909    1745.9927  0.038583769  0.037948987           12 
 3772000   0.64777334    -4.991839    1746.4971  0.038584682  0.037939707           16 
 3773000    0.6473659    -4.998427    1746.6228  0.038577232  0.037930358            7 
 3774000   0.64015984   -4.9857987    1743.4154  0.038496188  0.037921039           10 
 3775000   0.65525144   -4.9851785    1743.4374  0.038486476  0.037911738           12 
 3776000   0.64324481   -5.0049963     1744.238  0.038493953  0.037902369           16 
 3777000    0.6484504   -4.9992709    1747.4441  0.038554499  0.037893011           15 
 3778000   0.65079557   -5.0113806     1736.585  0.038304769  0.037883636            6 
 3779000   0.64993742   -4.9745294    1746.8695  0.038521423  0.037874282           26 
 3780000   0.65821005   -4.9956834    1736.4877  0.038282357  0.037864898            8 
 3781000   0.62755581     -4.99313    1743.4723  0.038426172  0.037855508            5 
 3782000   0.64958585    -4.991326    1742.5236  0.038395109  0.037846177           18 
 3783000   0.64735533   -5.0053134    1738.7167  0.038301099   0.03783683           14 
 3784000    0.6474081    -4.980944    1741.3765  0.038349552  0.037827445           14 
 3785000   0.64128544   -5.0045776      1744.34  0.038404668  0.037818113            7 
 3786000   0.64956057   -4.9882552    1740.2303  0.038304066  0.037808759           10 
 3787000   0.65240404    -4.984637     1743.002  0.038354942   0.03779941           12 
 3788000   0.65153175   -4.9821833    1739.6729   0.03827158  0.037790087            8 
 3789000   0.64892262   -4.9867105    1744.0597  0.038357959   0.03778072           31 
 3790000   0.64416329   -4.9938873    1739.6233  0.038250293  0.037771337           14 
 3791000   0.64219446   -5.0057696    1744.7556  0.038353021  0.037761909           10 
 3792000   0.64445655   -4.9949896    1738.6993  0.038209813  0.037752556            9 
 3793000   0.64753053   -4.9881815    1743.6101   0.03830763  0.037743229            9 
 3794000    0.6564243   -4.9864615    1744.0952  0.038308187  0.037733866           30 
 3795000   0.64663998    -4.989602    1742.1011  0.038254305    0.0377245            8 
 3796000   0.64725924   -4.9933586    1745.6883  0.038322978  0.037715168            7 
 3797000   0.64477879   -4.9923682     1743.561  0.038266197  0.037705858           14 
 3798000   0.65569366   -4.9735246    1744.2165  0.038270504  0.037696579            6 
 3799000   0.63493057   -4.9886172    1740.9534  0.038188852  0.037687264            6 
 3800000   0.63876001   -4.9868334    1747.2829  0.038317608  0.037677977           10 
 3801000   0.64893272    -5.006317    1742.8327   0.03820996  0.037668674           14 
 3802000   0.63011073   -4.9985922    1740.8391  0.038156214  0.037659284           18 
 3803000   0.64891482   -4.9773289    1742.9703   0.03819288  0.037649905           15 
 3804000    0.6399386   -4.9929225    1740.7585  0.038134386  0.037640582            5 
 3805000   0.65507401   -5.0100532    1748.2223  0.038287829  0.037631271            8 
 3806000   0.65468759   -5.0067421    1745.3142  0.038214097  0.037621925           13 
 3807000   0.64620427   -4.9864825    1741.2095  0.038114208  0.037612523            8 
 3808000   0.63473225   -5.0136821    1741.4391  0.038109224  0.037603174           11 
 3809000   0.64687478   -5.0022888    1737.8694   0.03802112  0.037593847           11 
 3810000   0.62997904   -4.9794153    1742.5632  0.038113806  0.037584506           12 
 3811000   0.63689547    -5.001535    1742.3257  0.038098611  0.037575153            8 
 3812000   0.63227004    -5.019056    1742.0474  0.038082534  0.037565759           17 
 3813000   0.63040128   -5.0178827    1742.3873  0.038079975  0.037556363           11 
 3814000   0.63559422   -5.0018777    1741.6567  0.038054028  0.037546992            7 
 3815000   0.63862378   -5.0183522     1742.072  0.038053123  0.037537565            9 
 3816000   0.63231393   -4.9997537    1738.6162  0.037967684  0.037528156           17 
 3817000   0.64091664   -5.0096997     1749.418  0.038193564  0.037518831            5 
 3818000   0.64706491   -4.9930531     1743.036  0.038044263  0.037509473            6 
 3819000   0.65241206   -5.0070409    1744.3384  0.038062722  0.037500058            9 
 3820000   0.65006299   -5.0051409    1740.5036  0.037969102   0.03749066           25 
 3821000   0.63430751   -4.9968827    1741.9798  0.037991358  0.037481309           16 
 3822000   0.64466473   -4.9967734     1746.383  0.038077424  0.037471957           12 
 3823000   0.64046065   -5.0138027    1741.3118  0.037956922  0.037462577            5 
 3824000   0.63516841    -4.992144    1742.5987  0.037975041  0.037453175            8 
 3825000     0.639501   -4.9951432    1738.6886  0.037879926   0.03744378           10 
 3826000   0.62400297   -5.0010018    1743.2802  0.037970035  0.037434398            7 
 3827000   0.63977399   -4.9836999    1743.3787  0.037962257  0.037425048            8 
 3828000   0.63584721   -4.9822627     1745.804  0.038005138  0.037415705            6 
 3829000   0.62789373   -5.0006736    1745.7954  0.037995026  0.037406383           11 
 3830000   0.65141154   -5.0169924    1742.1564  0.037905927  0.037397023            7 
 3831000   0.64374499   -4.9960838    1742.9332  0.037912929  0.037387723            7 
 3832000   0.65093825   -4.9963365    1743.7379  0.037920534  0.037378442            3 
 3833000   0.64084718   -4.9978083    1743.0143   0.03789491  0.037369079            9 
 3834000   0.63404583   -5.0396433    1742.7409  0.037879084  0.037359626           12 
 3835000   0.64520748   -5.0088487    1743.2859   0.03788105  0.037350245            8 
 3836000   0.63864235    -5.019093    1739.9867  0.037799501  0.037340847           18 
 3837000   0.63869108   -4.9936728    1742.3884  0.037841812  0.037331488           14 
 3838000   0.63770189   -5.0233228    1740.3746  0.037788228  0.037322104           14 
 3839000   0.63413552   -5.0133431    1743.7747   0.03785219  0.037312739            9 
 3840000   0.64186842   -5.0222945    1738.8997  0.037736538  0.037303349           18 
 3841000   0.63290105   -5.0181457    1743.9918  0.037837191  0.037294023           15 
 3842000   0.63535772    -5.001409    1744.6096  0.037840743  0.037284689           15 
 3843000   0.63796624   -5.0082725    1747.2131  0.037887352  0.037275352            8 
 3844000   0.64468338   -4.9892795    1748.4989  0.037905369  0.037266031            9 
 3845000    0.6341037   -5.0050235    1746.2303  0.037846344  0.037256816            6 
 3846000   0.64091877   -5.0155289    1744.7131   0.03780363  0.037247562           14 
 3847000    0.6394136   -5.0069913    1739.9081  0.037689717    0.0372383            6 
 3848000   0.64014165   -5.0232706    1742.3639  0.037733107  0.037228982           12 
 3849000   0.63173486   -5.0193495    1741.7615  0.037710261   0.03721967            6 
 3850000   0.63486263    -4.985516    1744.1241  0.037751603  0.037210379           10 
 3851000   0.63343349   -5.0357707    1742.9645  0.037716708  0.037201063            8 
 3852000   0.64022584   -5.0198472    1746.4392  0.037782086  0.037191717            9 
 3853000   0.63087953   -5.0144856    1746.0763  0.037764433  0.037182398           13 
 3854000   0.64019662   -5.0246048    1741.6067  0.037657989  0.037173092           17 
 3855000   0.64983122   -4.9824823    1746.4023  0.037751888  0.037163811            8 
 3856000   0.62568616   -5.0163019    1747.1817  0.037758941   0.03715455           14 
 3857000   0.63983992   -4.9948001    1743.4672  0.037668897  0.037145207           12 
 3858000   0.62749617   -4.9930675    1742.5708   0.03763977  0.037135934            7 
 3859000   0.62983333   -5.0106551    1745.6857  0.037697281  0.037126661            5 
 3860000   0.63088389   -5.0115158     1745.259  0.037678303  0.037117393            8 
 3861000   0.63510024   -5.0336199    1745.0643  0.037664341  0.037108143           16 
 3862000   0.64991906   -5.0081555    1746.8443  0.037692997  0.037098876            7 
 3863000   0.64287875   -5.0052282    1751.1921  0.037777031  0.037089663            7 
 3864000   0.62859654    -4.998577    1748.9897  0.037719757  0.037080424           10 
 3865000    0.6401269   -5.0214977    1749.4585  0.037720106   0.03707123            8 
 3866000   0.63993282   -5.0384577    1742.0135  0.037549869  0.037061959           10 
 3867000   0.63516826   -5.0275597    1748.6091  0.037682292   0.03705269            9 
 3868000   0.62960187    -5.021858    1750.2663  0.037708254  0.037043417            7 
 3869000   0.63803613   -5.0173899    1749.8837  0.037690267  0.037034151            8 
 3870000   0.63007605   -5.0125134    1745.1518  0.037578636  0.037024918            6 
 3871000   0.63216958   -4.9956337    1747.5727  0.037621044  0.037015678            8 
 3872000   0.63244911   -4.9926785    1749.9625  0.037662761  0.037006483           30 
 3873000   0.63363661   -5.0311324     1741.948  0.037480591  0.036997229           11 
 3874000   0.64708439   -5.0186174    1744.4152  0.037523988  0.036987999            6 
 3875000    0.6251704   -5.0103123    1748.9317  0.037611434  0.036978762           13 
 3876000   0.63132773   -5.0198398    1748.9644  0.037602435  0.036969521           20 
 3877000   0.62254301   -4.9862677    1749.6504  0.037607479  0.036960341           13 
 3878000   0.62140839   -5.0126644    1746.3609  0.037527095  0.036951161            6 
 3879000   0.63321667   -5.0009559    1748.4862  0.037563079  0.036941986           16 
 3880000   0.63103934   -5.0242007    1745.7139  0.037493854  0.036932747           11 
 3881000   0.62210745   -5.0010749    1747.5682  0.037524009  0.036923494            9 
 3882000   0.60102159   -5.0332184    1745.2961  0.037465571  0.036914194            7 
 3883000   0.63163117    -5.017279    1748.9165  0.037533619  0.036904975            6 
 3884000   0.61486413   -4.9993337    1749.6033  0.037538691  0.036895768           10 
 3885000   0.62006457   -5.0265137    1748.8426  0.037512711  0.036886515           15 
 3886000   0.62663194   -5.0060105    1749.0497  0.037507499  0.036877297           11 
 3887000   0.62041021   -5.0205908     1748.262  0.037480963  0.036868053           26 
 3888000    0.6457364   -5.0128953    1741.1003  0.037317823  0.036858813            9 
 3889000   0.62652274   -5.0312483    1750.1207  0.037501516  0.036849594           12 
 3890000   0.62230604   -5.0241006    1745.2929   0.03738845  0.036840377            9 
 3891000   0.63859312   -5.0208851    1746.2369  0.037399059  0.036831084            5 
 3892000   0.65043814   -5.0255967    1748.6036  0.037440125  0.036821791           10 
 3893000   0.62473463   -5.0550651    1745.5342  0.037364804  0.036812521            9 
 3894000   0.62211326   -5.0244092    1747.7223  0.037402036  0.036803231            4 
 3895000   0.63120076   -5.0376034    1743.6053  0.037304351  0.036793958            9 
 3896000    0.6265902   -5.0259201    1747.5754  0.037379693  0.036784674            7 
 3897000   0.62846507   -5.0436504    1743.4122  0.037281074  0.036775407           15 
 3898000   0.62968852    -5.068814    1744.5137   0.03729506  0.036766104           15 
 3899000    0.6360729   -5.0212701    1748.4609  0.037369857  0.036756784            6 
 3900000   0.62644992   -5.0344082    1750.9811  0.037414126  0.036747499           10 
 3901000   0.62913678   -5.0250246    1749.6523   0.03737615   0.03673828            7 
 3902000   0.61829923   -5.0442496    1748.5689  0.037343432   0.03672909            7 
 3903000   0.63367822   -5.0269118    1748.4215  0.037330717  0.036719837           19 
 3904000   0.63477379   -5.0239303    1748.1818  0.037316038  0.036710571           10 
 3905000    0.6179742   -5.0236242    1752.9039  0.037407254  0.036701392           24 
 3906000   0.62871493   -5.0208665    1750.0258  0.037336273  0.036692241           10 
 3907000   0.61686867   -5.0310083    1746.2706  0.037246622  0.036683021           21 
 3908000   0.63561622   -5.0321649    1749.4537  0.037304967  0.036673798            9 
 3909000   0.62585101   -5.0592337    1740.6067   0.03710682   0.03666457           13 
 3910000   0.63424417   -5.0462517    1745.3311  0.037198019  0.036655365           11 
 3911000   0.60413477   -5.0171749    1751.5468   0.03732095  0.036646183            5 
 3912000   0.61327274   -5.0456175    1742.4101  0.037116781  0.036636945           12 
 3913000   0.63803916   -5.0451552    1750.0004   0.03726894   0.03662773           11 
 3914000   0.61624773   -5.0335113     1749.116  0.037240589   0.03661853           11 
 3915000   0.63932186   -5.0349734    1748.9569  0.037227691  0.036609327            8 
 3916000   0.62207372   -5.0291145    1753.9677  0.037324816  0.036600143            9 
 3917000   0.61985829   -5.0134466       1748.8  0.037205344  0.036590987           15 
 3918000   0.63954325   -5.0345014    1749.4047   0.03720871  0.036581784           20 
 3919000   0.62747876   -5.0381505    1753.1257  0.037278338  0.036572608            8 
 3920000   0.62475163   -5.0281566    1751.0528  0.037224762  0.036563412            5 
 3921000   0.61905947   -5.0478756    1748.8278  0.037167981  0.036554243           29 
 3922000   0.63618082   -5.0130129    1750.5503  0.037195102  0.036545041            7 
 3923000   0.62292943   -5.0395985    1748.4138  0.037140236  0.036535873           10 
 3924000    0.6223049   -5.0211062     1752.856  0.037225111  0.036526765            7 
 3925000   0.61516011    -5.038609    1749.4621  0.037143569  0.036517614           15 
 3926000   0.61654507   -5.0129141    1755.7461  0.037267492  0.036508505           16 
 3927000   0.62313529    -5.048915    1748.5878  0.037106098  0.036499388           24 
 3928000   0.62214942    -5.039341    1749.9934  0.037126472  0.036490191           15 
 3929000   0.62883038   -5.0298095    1750.7936  0.037133996  0.036481061            6 
 3930000   0.62740889   -5.0364655    1751.2738  0.037134729  0.036471936           13 
 3931000   0.62869475   -5.0246521    1753.0138  0.037162168  0.036462839           12 
 3932000      0.61972   -5.0637489    1753.1162  0.037154887  0.036453684            9 
 3933000   0.61706364   -5.0353605    1747.6801  0.037030258   0.03644453           21 
 3934000   0.62824289   -5.0562757    1748.2962  0.037033896  0.036435383           12 
 3935000   0.61680405   -5.0510476    1750.7788   0.03707706  0.036426279            8 
 3936000   0.63063225   -5.0455496    1746.5354    0.0369778  0.036417158            9 
 3937000   0.62030161   -5.0384488    1746.9655   0.03697751  0.036408055           18 
 3938000   0.61394437    -5.036514    1756.6796  0.037173683   0.03639895           24 
 3939000    0.6137557   -5.0512322    1749.9771  0.037022449  0.036389857           17 
 3940000   0.60982753   -5.0206414    1750.5396  0.037024949  0.036380754            9 
 3941000   0.60534801   -5.0482601    1756.1691  0.037134592   0.03637164           30 
 3942000   0.61941973   -5.0424247    1751.8415  0.037033686  0.036362494            9 
 3943000   0.62170006   -5.0239797    1750.5089  0.036996129  0.036353381           14 
 3944000   0.61446057   -5.0331294     1748.773  0.036950072  0.036344237           14 
 3945000   0.61889678   -5.0473265    1752.1731  0.037012529  0.036335145           12 
 3946000   0.63114295   -5.0341834    1753.9582  0.037040848  0.036326012            4 
 3947000   0.61766759   -5.0576291    1748.6793  0.036920008  0.036316883           11 
 3948000   0.62571144   -5.0553724    1751.2325   0.03696455  0.036307747            6 
 3949000   0.62023632   -5.0634715    1745.3656  0.036831384  0.036298591           11 
 3950000   0.63307756   -5.0425991    1750.2467  0.036925037   0.03628945            8 
 3951000   0.61957245   -5.0587705    1750.2969  0.036916748  0.036280309           22 
 3952000    0.6230748    -5.041726    1757.0721  0.037050273  0.036271169           25 
 3953000      0.62252   -5.0464181    1752.8315  0.036951502  0.036262032           18 
 3954000   0.62507012   -5.0467273    1753.9451  0.036965628  0.036252874           10 
 3955000   0.60506298   -5.0589659    1753.6822  0.036950743  0.036243771            7 
 3956000   0.62286062   -5.0390858    1753.2529  0.036932358  0.036234684           19 
 3957000   0.60962939   -5.0442951    1757.5115  0.037012709  0.036225583           14 
 3958000   0.61419011   -5.0422401    1751.3513  0.036873659  0.036216472           10 
 3959000   0.62600245   -5.0548004    1751.5697  0.036868942  0.036207349           17 
 3960000    0.6111844   -5.0600398    1752.8739  0.036887078  0.036198243           17 
 3961000   0.63371567   -5.0636511    1749.1269  0.036798934  0.036189056           22 
 3962000   0.61439305   -5.0715586    1750.2006  0.036812229   0.03617989            8 
 3963000   0.62951599   -5.0529476    1751.4118  0.036828409  0.036170785            9 
 3964000   0.62760364    -5.051305    1752.7735  0.036847744  0.036161668            9 
 3965000   0.61689123   -5.0575277    1750.6943  0.036794752   0.03615261           11 
 3966000   0.61658327   -5.0414169    1748.0988  0.036730939  0.036143535            8 
 3967000   0.61381533   -5.0385942    1749.3033  0.036746982  0.036134447           16 
 3968000    0.6111654   -5.0754426    1753.0399  0.036816193  0.036125352            9 
 3969000   0.60640956    -5.065483    1747.3242  0.036686912   0.03611621           19 
 3970000   0.62926916   -5.0372206    1752.6742   0.03678997  0.036107109           13 
 3971000   0.61636854   -5.0348339    1754.3989    0.0368169  0.036098053           10 
 3972000   0.62283051    -5.067527    1751.2367  0.036741286  0.036089016           27 
 3973000    0.6196461   -5.0536898    1752.7241  0.036763238   0.03607994            9 
 3974000   0.61486539    -5.057984     1752.472    0.0367487  0.036070893            8 
 3975000   0.61567175   -5.0810921    1751.8618  0.036726663  0.036061781           18 
 3976000   0.60944108    -5.046945    1750.9773  0.036698887  0.036052676           13 
 3977000   0.60691964    -5.054982    1750.0481   0.03667019  0.036043595           16 
 3978000    0.6195607   -5.0571059    1748.8682  0.036636253  0.036034485           10 
 3979000   0.62217706   -5.0387037    1755.2302  0.036760286  0.036025392           13 
 3980000   0.62400612   -5.0640017    1753.6869  0.036718738  0.036016279           10 
 3981000   0.61619765   -5.0513321    1754.3024  0.036722398  0.036007195           14 
 3982000   0.60495567   -5.0365494    1753.1383  0.036688814  0.035998105           19 
 3983000   0.61307497   -5.0621012    1751.1921  0.036638884  0.035989012            7 
 3984000   0.61062997   -5.0578964    1752.9891  0.036667276  0.035979928           18 
 3985000   0.61307427    -5.060016    1756.4662  0.036730787  0.035970848            8 
 3986000   0.63024034   -5.0429679    1753.4635  0.036658795   0.03596178            5 
 3987000   0.61255819   -5.0476418    1758.3262  0.036751238  0.035952738            8 
 3988000   0.60372212   -5.0651955    1755.3206  0.036679218  0.035943705           10 
 3989000   0.60703336    -5.070053    1752.4477  0.036610004  0.035934676           12 
 3990000   0.62409857   -5.0788463    1747.8362  0.036504515  0.035925588           13 
 3991000   0.61397271   -5.0701195    1752.1744  0.036585951  0.035916518            8 
 3992000   0.60555156   -5.0787464    1753.2615  0.036599481  0.035907431           12 
 3993000   0.61916875   -5.0615377    1756.9131  0.036666523  0.035898377           15 
 3994000   0.61634367   -5.0493268    1754.1278  0.036599228   0.03588935            8 
 3995000   0.61687859   -5.0598054    1755.5901   0.03662057  0.035880325            9 
 3996000   0.61242423    -5.061171    1757.7267  0.036655962  0.035871341           22 
 3997000   0.60960543   -5.0471912    1751.3456  0.036513751  0.035862308            5 
 3998000   0.62038891   -5.0778603    1756.4634  0.036611294  0.035853294           13 
 3999000   0.62155955    -5.085117    1755.9525  0.036591491  0.035844267           11 
 4000000   0.61070507   -5.0800556    1757.0257  0.036604702  0.035835247           12 
 4001000   0.61979374   -5.0820617    1753.2108  0.036516095  0.035826196            7 
 4002000   0.59741552   -5.0713942    1755.3476  0.036551466  0.035817157           11 
 4003000   0.62007613   -5.0791515    1755.9755  0.036555406  0.035808103           29 
 4004000   0.60388186   -5.0694905    1754.7909  0.036521623  0.035799053           12 
 4005000    0.6025579   -5.0789321    1750.0559   0.03641398  0.035790055           16 
 4006000   0.60736008   -5.0636715    1758.4504  0.036579513  0.035781076           26 
 4007000   0.60874808   -5.0356592    1753.1281  0.036459698  0.035772095           21 
 4008000   0.60182488   -5.0785332    1757.4935  0.036541366  0.035763092           13 
 4009000   0.61610859   -5.0626173    1753.7848  0.036455159  0.035754091           15 
 4010000   0.61089848   -5.0618449    1753.8057  0.036446502   0.03574513            8 
 4011000   0.60476178   -5.0641128    1755.6617  0.036475976  0.035736162           20 
 4012000   0.62816051   -5.0716815     1756.354  0.036481264  0.035727191           10 
 4013000   0.60811527   -5.0625299    1754.1996  0.036427436  0.035718179           12 
 4014000   0.62560848   -5.0692254    1760.5456  0.036550107  0.035709229           15 
 4015000   0.61903688   -5.0647886    1754.5959  0.036417515  0.035700266           41 
 4016000   0.60099564    -5.062976    1752.4905   0.03636476  0.035691303           11 
 4017000     0.605463   -5.0819684    1756.2684  0.036434079  0.035682317           10 
 4018000    0.6200547    -5.074676    1755.3006  0.036404941  0.035673314            6 
 4019000   0.60563547   -5.0550411    1757.3627  0.036438639  0.035664343           18 
 4020000   0.60496904   -5.0626983    1757.1643  0.036425463  0.035655369           16 
 4021000   0.61814936   -5.0582664    1757.3884  0.036421047  0.035646429            6 
 4022000   0.60690471   -5.0605146    1758.5625  0.036436319  0.035637537            9 
 4023000   0.61533907   -5.0787864    1753.1866  0.036315905  0.035628579           18 
 4024000   0.60509126    -5.062363    1755.3524   0.03635173  0.035619616            8 
 4025000   0.61681473   -5.0469148    1754.0004  0.036314708  0.035610657           16 
 4026000   0.60157488    -5.063603    1756.3314  0.036353937  0.035601703           22 
 4027000   0.60643744   -5.0857378     1756.775   0.03635409  0.035592757           19 
 4028000   0.61871536   -5.0692098    1755.5373  0.036319459  0.035583776           12 
 4029000   0.59548129   -5.0774933    1758.4783  0.036371272  0.035574807            8 
 4030000   0.61002016   -5.0743432    1753.4185   0.03625762  0.035565869           18 
 4031000   0.61187481   -5.0713127    1758.6495  0.036356766  0.035556936            7 
 4032000   0.59341847   -5.0712017    1757.0021    0.0363137  0.035548026           15 
 4033000   0.60998183    -5.046963    1755.7778  0.036279399  0.035539126            6 
 4034000   0.60886179   -5.0827322     1754.497  0.036243947  0.035530181            8 
 4035000   0.60615256   -5.0661875    1755.9976  0.036265956  0.035521244           24 
 4036000   0.59527856   -5.0873949    1759.6438  0.036332255  0.035512294           10 
 4037000   0.60679856   -5.0949313    1755.3746  0.036235129  0.035503354           35 
 4038000   0.61282357   -5.0678245     1757.813  0.036276478  0.035494395           12 
 4039000   0.61819843   -5.0787168    1754.2503   0.03619399   0.03548545           14 
 4040000   0.59274046   -5.0742671    1758.6046  0.036274847  0.035476486           13 
 4041000   0.60707723    -5.077019    1756.8158  0.036228983  0.035467544           11 
 4042000   0.61275752   -5.0860964    1756.3193  0.036209783  0.035458602           20 
 4043000   0.60434517   -5.0959663    1756.3866  0.036202214   0.03544965           20 
 4044000   0.61560967   -5.0971708     1752.286  0.036108763  0.035440671           12 
 4045000    0.6088874   -5.0612083    1753.1574  0.036117788  0.035431736           14 
 4046000   0.61772178   -5.0781294     1754.369  0.036133816  0.035422786            9 
 4047000   0.61073219    -5.098296    1755.3958   0.03614603  0.035413815            9 
 4048000   0.60125989   -5.0893185    1756.8212  0.036166445  0.035404899           11 
 4049000   0.59475731   -5.0737973    1758.6072   0.03619427  0.035395983           15 
 4050000   0.59384785   -5.0716405    1753.4356  0.036078921  0.035387101           20 
 4051000   0.62172602     -5.05907    1761.3857  0.036233558  0.035378194           10 
 4052000   0.61486212   -5.0922454    1756.9119  0.036132607  0.035369322           24 
 4053000   0.59881462   -5.0685992    1763.0021  0.036248912  0.035360447           25 
 4054000    0.6139909   -5.1031494    1753.9187  0.036053253   0.03535156           23 
 4055000   0.59606389    -5.088151    1754.1596  0.036049314  0.035342583           18 
 4056000   0.59717783   -5.0954071    1754.0493   0.03603816   0.03533366            4 
 4057000   0.61733054   -5.0798538    1761.0938  0.036173975  0.035324753            8 
 4058000   0.61659144   -5.0727183    1761.9371  0.036182379  0.035315835            7 
 4059000   0.59511367    -5.084464     1755.719  0.036045803  0.035306895            7 
 4060000   0.59401737   -5.0760153    1757.6388  0.036076331  0.035297987           12 
 4061000   0.59013892   -5.0718938    1756.7349  0.036048897  0.035289066           20 
 4062000   0.60709296   -5.0909664    1756.6201  0.036037668  0.035280121           36 
 4063000    0.6156812   -5.0883897    1754.8028  0.035991526  0.035271143           14 
 4064000   0.59237085   -5.0954991    1758.4759  0.036057987  0.035262205            9 
 4065000    0.6074509   -5.0840434    1757.7894  0.036035043  0.035253257            8 
 4066000   0.60128616   -5.0800058    1761.6117  0.036104519  0.035244341           18 
 4067000   0.59440733   -5.0882626    1756.2628  0.035986042  0.035235415           11 
 4068000   0.59767165   -5.0631494    1757.4571  0.036001661  0.035226497           18 
 4069000   0.59731739   -5.1049572    1755.8487  0.035959874  0.035217555           15 
 4070000   0.60469976   -5.0801323    1759.4962   0.03602572  0.035208609           16 
 4071000   0.60494892   -5.0810816    1758.2635  0.035991639  0.035199658            7 
 4072000   0.60748312   -5.0817076    1754.1179  0.035897959  0.035190685           18 
 4073000   0.60321268   -5.0834387    1752.2827  0.035851597  0.035181699           22 
 4074000    0.5984925   -5.1024393    1755.1916    0.0359023   0.03517274           19 
 4075000   0.61116636   -5.0803694    1761.1707  0.036015761  0.035163791            9 
 4076000   0.60503226   -5.0726812    1756.3322  0.035908001   0.03515484            6 
 4077000   0.60322357    -5.100564    1756.4098   0.03590078  0.035145844           10 
 4078000   0.60037994   -5.0881997    1759.9345  0.035964004  0.035136888           12 
 4079000   0.58280725   -5.0834016    1757.6224  0.035907952  0.035127939           16 
 4080000   0.60526783   -5.0730072    1762.0755  0.035990105  0.035119028           20 
 4081000   0.59428192   -5.0831181    1755.4781  0.035846567  0.035110078           21 
 4082000   0.60311062    -5.062956    1758.4253  0.035897952  0.035101167           25 
 4083000    0.6014792   -5.0699344     1753.707   0.03579286   0.03509221           10 
 4084000   0.59637229   -5.0944728    1751.8154  0.035745499   0.03508324           15 
 4085000   0.59131335    -5.065306    1756.4866   0.03583204  0.035074289            7 
 4086000   0.59075223   -5.0901464    1756.5168  0.035823887  0.035065369           20 
 4087000   0.59746163   -5.1004488    1756.3325  0.035811364  0.035056399           11 
 4088000   0.60373923   -5.0923625    1752.1187  0.035716706  0.035047401           17 
 4089000   0.60062651   -5.0991151    1757.8256  0.035824276  0.035038438            3 
 4090000    0.5848713   -5.1068243    1755.3679  0.035765442  0.035029455           19 
 4091000   0.60214597   -5.0936329    1750.4842  0.035657218  0.035020491            9 
 4092000   0.60255305   -5.0877725    1758.0728  0.035803048  0.035011556            5 
 4093000     0.592062   -5.1051906    1757.8653  0.035790075  0.035002618           22 
 4094000   0.59454952   -5.0822982    1759.6853  0.035818379  0.034993655           13 
 4095000   0.59493595    -5.108811    1754.8495  0.035711224  0.034984724           10 
 4096000   0.61197128   -5.0910113    1755.9481  0.035724855  0.034975759           29 
 4097000   0.60538564   -5.0996939    1758.5052  0.035768147  0.034966831           25 
 4098000   0.59663686   -5.0763405    1756.1758  0.035712051  0.034957919           11 
 4099000   0.58997292   -5.0896006    1756.9908  0.035719907  0.034949005           22 
 4100000   0.58773511   -5.0920994    1755.2155  0.035675111  0.034940081           18 
 4101000   0.59119358   -5.1246523    1754.5658  0.035653211  0.034931111           16 
 4102000    0.5971172   -5.0915377     1754.742  0.035648098  0.034922169           13 
 4103000   0.58786874   -5.0919189    1760.9098   0.03576468  0.034913273            9 
 4104000   0.59080686   -5.0886931    1758.9212  0.035715586   0.03490438            9 
 4105000   0.58924737    -5.085898    1758.0813  0.035689835  0.034895495           10 
 4106000   0.58568595   -5.0998408    1759.1874  0.035703593  0.034886635           15 
 4107000   0.61124992    -5.081276    1757.3931  0.035658492  0.034877771           13 
 4108000     0.592239   -5.0906317    1759.2086  0.035686639  0.034868917           14 
 4109000    0.5977243   -5.0940071    1765.9123   0.03581391  0.034860044           20 
 4110000   0.59520235    -5.090748    1763.3741  0.035753733  0.034851177           10 
 4111000   0.58922421   -5.0935565    1755.0792  0.035576891  0.034842298            9 
 4112000   0.58451505   -5.1093293    1759.4242  0.035656295  0.034833402           24 
 4113000   0.59751471   -5.1095727    1755.5396   0.03556892  0.034824552            8 
 4114000   0.59796535   -5.1064552    1758.8564  0.035627458   0.03481569            9 
 4115000   0.60582395   -5.1057048    1757.0287  0.035581788  0.034806819            9 
 4116000   0.58675747   -5.1257978    1759.9907  0.035633113  0.034797955           15 
 4117000   0.58790691   -5.0966376    1759.2418    0.0356093  0.034789088           34 
 4118000   0.58699649   -5.1243554    1758.1342  0.035578238  0.034780179           15 
 4119000   0.58947354    -5.110967    1753.7058  0.035480006   0.03477126           17 
 4120000   0.58598411   -5.0909596    1757.2035  0.035542142  0.034762368            9 
 4121000   0.58596606   -5.0666686    1764.7791  0.035686708  0.034753566           13 
 4122000    0.5950191   -5.1028524    1760.8299   0.03559821  0.034744773            9 
 4123000   0.58935341   -5.0988645    1758.3134  0.035538714   0.03473591           12 
 4124000    0.5982919   -5.1315195    1754.6809  0.035456695  0.034727006           25 
 4125000   0.59661171     -5.12287    1758.6787  0.035528862  0.034718153           13 
 4126000   0.59079564   -5.1014102    1759.9928  0.035546794  0.034709286           10 
 4127000   0.61302986    -5.108606    1763.2508  0.035603966  0.034700457           12 
 4128000   0.57166775   -5.0941012     1755.145  0.035431707  0.034691613           35 
 4129000   0.60222729   -5.1071595    1760.3392  0.035527958  0.034682758           32 
 4130000   0.58786146   -5.0949372    1758.5766  0.035483789  0.034673954           14 
 4131000   0.58798245   -5.1191173    1758.5213  0.035474084  0.034665091           26 
 4132000    0.5867088   -5.1073864    1760.7817  0.035511086  0.034656237           26 
 4133000    0.5845445   -5.0832724    1762.1027  0.035529129  0.034647422           12 
 4134000   0.59546153     -5.10412     1759.071  0.035459421  0.034638609           10 
 4135000   0.58255233   -5.1022295    1758.9998  0.035449412  0.034629777            8 
 4136000   0.59743468   -5.1138765    1760.0847    0.0354627   0.03462091           11 
 4137000   0.57883732   -5.1229986    1756.8635  0.035389241  0.034612086            8 
 4138000   0.58843689   -5.1171836    1761.6277  0.035476633  0.034603245            6 
 4139000   0.57635914   -5.1175647     1758.764  0.035410406   0.03459441           13 
 4140000   0.59059576   -5.1235151    1759.9855  0.035426438  0.034585587            7 
 4141000   0.58547585   -5.1234886    1759.0524  0.035399106  0.034576732            8 
 4142000   0.59366279   -5.1087552    1761.1415  0.035432592  0.034567887           24 
 4143000    0.5924775   -5.1167415    1761.4135  0.035429509  0.034559075           10 
 4144000   0.59068574   -5.1025841    1756.1962  0.035316043   0.03455031           21 
 4145000   0.58552136   -5.1130052    1759.4597  0.035373133  0.034541525           16 
 4146000   0.59609328   -5.1126735    1758.6145  0.035347614  0.034532698           40 
 4147000   0.58303443   -5.1201615    1761.3729  0.035394521  0.034523925            8 
 4148000   0.58849581   -5.1173077    1761.5637   0.03538982  0.034515144           19 
 4149000   0.60228599   -5.1240776    1758.6457  0.035322683  0.034506336           19 
 4150000   0.59057451    -5.113074    1757.1601  0.035284338  0.034497517           11 
 4151000   0.59497389   -5.1152629    1758.7589  0.035307937  0.034488733           11 
 4152000   0.58844801   -5.1237708    1761.6641   0.03535774  0.034479952            7 
 4153000   0.58849234     -5.13448    1757.3915  0.035263495  0.034471175           11 
 4154000    0.5850721    -5.124005    1759.6472  0.035300257  0.034462397           39 
 4155000   0.58659651    -5.136225    1753.3615  0.035165693  0.034453573           36 
 4156000   0.60420014   -5.1219184    1757.8351  0.035246934  0.034444728           12 
 4157000    0.5691848   -5.1233979      1757.66  0.035234945  0.034435937           34 
 4158000   0.57564499   -5.1236009     1760.589  0.035285173  0.034427137           10 
 4159000   0.58925917   -5.1072305    1761.0297  0.035285519  0.034418358           22 
 4160000   0.59149672   -5.1353416     1759.909  0.035254587  0.034409511           13 
 4161000   0.58070087   -5.1259451    1760.2396  0.035252735  0.034400666           15 
 4162000   0.59563534   -5.1036032    1759.9037   0.03523754  0.034391846           13 
 4163000   0.57765577   -5.1252549    1759.3792  0.035218575   0.03438304           14 
 4164000   0.57864441   -5.1412182    1753.1751  0.035085958  0.034374188           14 
 4165000   0.59200922   -5.1327356    1757.0389   0.03515484  0.034365323           10 
 4166000   0.57734295   -5.1111605    1758.5083  0.035175795  0.034356513            8 
 4167000   0.59021439   -5.1207786    1757.7584  0.035152355  0.034347694           13 
 4168000   0.59835408   -5.1354794    1754.6023  0.035080821  0.034338887            9 
 4169000    0.5854856   -5.1366865    1758.5637  0.035151588  0.034330064            7 
 4170000   0.58514583   -5.1341012    1753.8328  0.035048618  0.034321209           14 
 4171000   0.59246126   -5.1355242     1759.653  0.035156498  0.034312387           21 
 4172000   0.58896649   -5.1357298    1758.2091  0.035119229  0.034303574           11 
 4173000   0.57580513   -5.1162034    1766.1906  0.035270202  0.034294804           18 
 4174000   0.58309307   -5.1378304    1762.4103  0.035186278  0.034286022            8 
 4175000   0.59126212   -5.1410457    1752.9163  0.034988349  0.034277196           13 
 4176000   0.58449691   -5.1444435     1755.053   0.03502261  0.034268354           10 
 4177000   0.58085103   -5.1322159    1760.5016  0.035122927  0.034259531           17 
 4178000   0.57782471   -5.1272285    1759.4605  0.035093755  0.034250713           13 
 4179000   0.58839622   -5.1626797    1757.7502  0.035051252  0.034241918           17 
 4180000   0.57668177   -5.1414536      1762.25  0.035132575  0.034233133            8 
 4181000    0.5818773   -5.1246046    1755.9908  0.034999418   0.03422434            9 
 4182000   0.57895258   -5.1246809    1759.5805   0.03506258  0.034215566           17 
 4183000   0.58612278   -5.1216911    1760.9412  0.035081305  0.034206809           18 
 4184000   0.58301978   -5.1306413    1763.3117  0.035120135  0.034198072           18 
 4185000   0.57815497    -5.118438    1761.7282  0.035080212  0.034189352           58 
 4186000    0.5899907   -5.1293782     1759.254  0.035022576  0.034180638           10 
 4187000   0.59094539   -5.1031383    1761.0073  0.035049107  0.034171934            9 
 4188000   0.58401183   -5.1306685    1762.7243  0.035074903  0.034163238           15 
 4189000   0.57576987   -5.1107249    1764.2015  0.035095916  0.034154564           15 
 4190000   0.58151221   -5.1303824    1761.4968  0.035033746  0.034145862           15 
 4191000   0.59455528   -5.1288906    1761.7232   0.03502989  0.034137119            9 
 4192000   0.57179612   -5.1442852    1762.3571  0.035034134  0.034128384           16 
 4193000   0.57865942    -5.128815     1760.497  0.034988811  0.034119617           17 
 4194000     0.578338   -5.1384711    1759.3475  0.034957629  0.034110895           19 
 4195000   0.56126756   -5.1353312    1761.6029  0.034994098  0.034102121            9 
 4196000   0.57050656   -5.1396004    1759.0487  0.034935032  0.034093358           23 
 4197000   0.56826556   -5.1405683    1765.7617  0.035059996  0.034084606            7 
 4198000   0.58173771   -5.1104727    1761.1131  0.034959368  0.034075891           20 
 4199000   0.57955048   -5.1219101    1761.2166  0.034953095  0.034067197           21 
 4200000   0.58251475   -5.1189482    1757.0477  0.034862058  0.034058505           21 
 4201000   0.57456998   -5.1214869    1765.4949  0.035021323  0.034049808           19 
 4202000   0.58066982   -5.1218486    1763.8318  0.034980007  0.034041136           21 
 4203000   0.56952266    -5.141671    1757.3817  0.034843797  0.034032397            7 
 4204000   0.58881483   -5.1437021    1760.9407  0.034906055  0.034023663            7 
 4205000   0.58157686   -5.1543495    1762.0849   0.03492043  0.034014954           10 
 4206000   0.57946607   -5.1192953    1759.7761  0.034866383  0.034006215           17 
 4207000   0.58129117    -5.157353    1760.9128  0.034880612  0.033997487           24 
 4208000   0.57780593   -5.1578059    1758.6208  0.034826934  0.033988767            8 
 4209000   0.58506571   -5.1305521    1759.2341    0.0348308   0.03398005            7 
 4210000   0.59314939   -5.1408409    1758.7035  0.034812025  0.033971299            6 
 4211000   0.57688968   -5.1508984    1758.2184  0.034794157   0.03396257           14 
 4212000   0.57450569   -5.1561096    1759.4838  0.034810933  0.033953836           18 
 4213000   0.57147744   -5.1169933    1766.0132  0.034931823  0.033945163           12 
 4214000   0.58929435   -5.1415945     1761.408  0.034832462  0.033936468           17 
 4215000   0.56547778   -5.1460379    1758.3744  0.034764223  0.033927784           10 
 4216000   0.58788078   -5.1299716    1761.9129   0.03482592  0.033919093           13 
 4217000   0.56781732   -5.1345371    1759.5657  0.034771276  0.033910452            9 
 4218000   0.57625891   -5.1414784    1762.7187  0.034825325  0.033901773           17 
 4219000    0.5850555   -5.1378762    1766.0073  0.034882029  0.033893144            8 
 4220000   0.57850785    -5.130325    1761.2986  0.034780777  0.033884492            9 
 4221000   0.57751266   -5.1593998    1761.0054  0.034766749  0.033875814            8 
 4222000    0.5831754   -5.1657139     1758.991  0.034718754  0.033867102           13 
 4223000   0.57891936   -5.1259549    1764.9716  0.034828549  0.033858428           21 
 4224000   0.57383455   -5.1413802    1762.6801  0.034775096  0.033849715           36 
 4225000   0.57205632   -5.1609563    1762.8756  0.034770722  0.033840989           16 
 4226000   0.56987722   -5.1493527    1760.8239  0.034722036  0.033832281           29 
 4227000   0.58779846   -5.1348285    1765.6735   0.03480943  0.033823613           17 
 4228000   0.57070083    -5.122791    1760.9316  0.034707734  0.033814968           14 
 4229000   0.57013865   -5.1537339    1765.5442  0.034790419  0.033806308           15 
 4230000   0.58306706   -5.1424908    1761.6818  0.034706103  0.033797638           14 
 4231000   0.56918058   -5.1523907    1766.0817  0.034784561  0.033788961           12 
 4232000     0.582762    -5.150203    1761.3278  0.034682731  0.033780296           33 
 4233000   0.57043162   -5.1402349    1763.5006  0.034717312  0.033771653           45 
 4234000    0.5804438   -5.1427179    1764.4326  0.034727456  0.033762996           35 
 4235000   0.58183974   -5.1283597    1763.6715   0.03470428  0.033754336           15 
 4236000   0.56619925   -5.1693979    1763.4323  0.034691382   0.03374569           12 
 4237000   0.56583493     -5.13442    1762.0488  0.034655984  0.033737023           12 
 4238000   0.57037705   -5.1603428    1761.0885  0.034628923  0.033728355           18 
 4239000   0.57693335   -5.1454023    1765.6357  0.034710145  0.033719724           13 
 4240000   0.56270526   -5.1264971    1760.1749  0.034594633  0.033711094           18 
 4241000   0.57694287   -5.1511996    1764.7263  0.034675908  0.033702453           17 
 4242000   0.58095299   -5.1353936    1763.2879  0.034639476  0.033693803            7 
 4243000   0.56900762   -5.1374962    1765.8693  0.034682012  0.033685164           11 
 4244000   0.56909146   -5.1258391    1763.8213  0.034633626  0.033676542            7 
 4245000   0.56445159   -5.1430937    1765.0393  0.034649378  0.033667928           17 
 4246000   0.58067192   -5.1436315    1760.6834  0.034555727  0.033659325           17 
 4247000   0.56957471   -5.1421339     1764.999   0.03463227  0.033650697           19 
 4248000   0.57394128   -5.1562588    1759.6354    0.0345189   0.03364207           13 
 4249000   0.56994468   -5.1341976    1769.5084  0.034704409  0.033633451            8 
 4250000    0.5662052   -5.1354613    1765.8615  0.034624736  0.033624823            9 
 4251000   0.57130706   -5.1559358    1762.7506  0.034555607  0.033616174           10 
 4252000   0.58221102    -5.132195     1763.527  0.034562697  0.033607559           19 
 4253000   0.57187117   -5.1491548    1763.8806  0.034561499  0.033598923           15 
 4254000   0.56752279   -5.1130758    1765.1469   0.03457818  0.033590287           11 
 4255000    0.5707618   -5.1469146    1758.9579  0.034448843  0.033581657           21 
 4256000    0.5676198   -5.1721951    1755.8192  0.034379292  0.033572949           17 
 4257000   0.56678979   -5.1724503     1759.319  0.034439726  0.033564271           11 
 4258000   0.58220342   -5.1745327    1761.8735  0.034481632  0.033555568            7 
 4259000   0.56371837   -5.1522243    1758.3715  0.034405015  0.033546878           14 
 4260000   0.56713742   -5.1697266    1761.0775  0.034449873  0.033538207           15 
 4261000   0.57528351   -5.1615084     1760.018  0.034421067  0.033529522           11 
 4262000   0.57707863   -5.1657034    1762.8187  0.034467753   0.03352082           12 
 4263000   0.57411398     -5.14404    1760.7176  0.034418595  0.033512136            8 
 4264000   0.56149348   -5.1611195    1762.0244  0.034436061  0.033503449           12 
 4265000   0.56941712   -5.1550598    1761.6735  0.034421132   0.03349479            8 
 4266000   0.56488356   -5.1436005     1764.367  0.034465679  0.033486146           15 
 4267000    0.5768339    -5.160435    1759.1095  0.034354923  0.033477476           10 
 4268000   0.57986426   -5.1697536    1760.4398  0.034372848   0.03346881           11 
 4269000    0.5666312   -5.1459554    1758.7636  0.034332077  0.033460184           28 
 4270000   0.57694797   -5.1477515    1764.6048  0.034438032  0.033451554            8 
 4271000   0.56473067   -5.1795079    1763.2076  0.034402709  0.033442946            9 
 4272000   0.57063909   -5.1523774    1762.0154  0.034371399  0.033434317            5 
 4273000    0.5706821    -5.143939    1764.2011  0.034405981  0.033425697           12 
 4274000   0.56570864   -5.1544423    1760.1787  0.034319503  0.033417071            9 
 4275000   0.57430672    -5.141705     1760.744  0.034322496  0.033408446           17 
 4276000   0.57584558   -5.1583031    1757.8218  0.034257519  0.033399828           23 
 4277000   0.57447861   -5.1607972    1762.6739  0.034344048  0.033391208            7 
 4278000    0.5682923   -5.1511191    1767.0794  0.034421836  0.033382598           11 
 4279000   0.56842732   -5.1507964    1764.0261  0.034354328  0.033373966           15 
 4280000   0.58301456   -5.1286019    1759.2405  0.034253124  0.033365364           12 
 4281000   0.56034641   -5.1537245    1761.1676  0.034282636  0.033356739           10 
 4282000   0.56785412   -5.1525611    1763.0806   0.03431186  0.033348131           29 
 4283000   0.56701126   -5.1623013    1762.0693  0.034284172  0.033339493            7 
 4284000   0.57076121   -5.1286906    1763.8384  0.034310583  0.033330872            8 
 4285000   0.56462012    -5.148719    1764.1016  0.034307694  0.033322296            6 
 4286000    0.5678593   -5.1547653    1763.2483  0.034283099  0.033313728           10 
 4287000   0.56925334   -5.1708721    1762.1929  0.034254586  0.033305139           10 
 4288000   0.57303919   -5.1643539     1762.296    0.0342486  0.033296545           16 
 4289000    0.5700679   -5.1550532    1763.9363  0.034272486  0.033287949           16 
 4290000   0.57283092   -5.1643595    1762.2716  0.034232161  0.033279384           15 
 4291000   0.55400567   -5.1465148    1759.7629  0.034175463  0.033270797           37 
 4292000   0.55303952   -5.1556326    1769.3882  0.034354383  0.033262193           18 
 4293000   0.57172997   -5.1424155    1764.8196  0.034257698  0.033253603            8 
 4294000   0.56783035    -5.166469    1758.3448  0.034124064  0.033245002           21 
 4295000   0.55823194   -5.1522819    1762.0926  0.034188835  0.033236387           15 
 4296000   0.56870099   -5.1635244    1761.2352  0.034164247   0.03322779           30 
 4297000   0.56378499   -5.1789036     1758.221  0.034097839  0.033219161           19 
 4298000   0.55599474   -5.1770281    1761.5816  0.034155064  0.033210569           10 
 4299000   0.56155995   -5.1511535    1766.6212  0.034244809  0.033201977           17 
 4300000   0.56370617   -5.1812135    1759.8644  0.034105899  0.033193397           18 
 4301000   0.56381867    -5.161318    1765.9772  0.034216407  0.033184828           13 
 4302000   0.56651769   -5.1429317    1763.9614  0.034169406   0.03317627           33 
 4303000   0.56242758   -5.1733925    1761.5841  0.034115425  0.033167713           19 
 4304000   0.56554739    -5.181545    1761.4814   0.03410551  0.033159114           13 
 4305000   0.56788127   -5.1633324    1763.4138  0.034134994  0.033150527           28 
 4306000   0.55216364    -5.165566    1763.3247  0.034125343  0.033141975           10 
 4307000    0.5630029   -5.1625598    1765.5508  0.034160491  0.033133439           15 
 4308000   0.55890622   -5.1694665    1763.7625  0.034117969  0.033124886           23 
 4309000   0.56775551   -5.1854614    1762.3613  0.034082952   0.03311629           21 
 4310000   0.55296276   -5.1703414    1765.2363  0.034130632  0.033107737           40 
 4311000   0.55712945   -5.1836854    1764.4075  0.034106693  0.033099145           18 
 4312000   0.55617927   -5.1756824    1764.5125  0.034100813  0.033090567           15 
 4313000   0.55555203   -5.1905469    1756.6382  0.033940764  0.033081948           18 
 4314000   0.56193419   -5.1900388    1762.5805  0.034047685  0.033073397           20 
 4315000   0.55908111   -5.1467075    1763.9337  0.034065928  0.033064831           14 
 4316000   0.56041417   -5.1658578    1762.4983   0.03403032  0.033056307           42 
 4317000   0.57162451   -5.1727074    1764.3417  0.034058021  0.033047789           51 
 4318000   0.56339909   -5.1796202    1764.4184  0.034051614  0.033039255            8 
 4319000   0.57577072   -5.1711497    1762.8018  0.034012537  0.033030701           23 
 4320000   0.55382501    -5.171117    1764.1945  0.034031529  0.033022153           21 
 4321000   0.56660175   -5.1530369    1764.9386  0.034038004  0.033013639           15 
 4322000   0.55366638   -5.1665822    1765.3543  0.034038144  0.033005111           29 
 4323000   0.56476767   -5.1738717    1764.2198  0.034008402  0.032996613           14 
 4324000   0.55160998   -5.1655919    1767.6743  0.034067113  0.032988114           30 
 4325000   0.55554879   -5.1825101     1761.723  0.033944567  0.032979604           11 
 4326000   0.56202031   -5.1969848    1761.1981  0.033926608  0.032971061           44 
 4327000   0.56295648   -5.1836925    1759.6346  0.033888656  0.032962501           18 
 4328000    0.5630069   -5.1786831    1764.4237  0.033973037  0.032953935           14 
 4329000   0.56910033    -5.188886    1760.4966  0.033889594  0.032945405           11 
 4330000    0.5726609   -5.1783485    1765.4275  0.033976665  0.032936877           24 
 4331000   0.56239755   -5.1641053    1766.7697  0.033994646   0.03292837           17 
 4332000   0.54493816    -5.183856    1764.2133  0.033937621  0.032919862           21 
 4333000   0.55427703   -5.1774223    1760.9969  0.033867931   0.03291133           12 
 4334000   0.56024682   -5.1956265    1765.8263  0.033952974  0.032902803           21 
 4335000   0.56307507   -5.1788174    1764.6778  0.033923065  0.032894256           10 
 4336000   0.55123525   -5.1697399    1766.2672  0.033945787  0.032885719            9 
 4337000    0.5556083    -5.164735    1762.2104   0.03386001  0.032877244            7 
 4338000   0.55155964   -5.1712731    1761.6025  0.033840527  0.032868748            7 
 4339000   0.54807146   -5.1816495    1767.7647  0.033951077   0.03286023           44 
 4340000   0.54895911    -5.186672    1760.3946   0.03380174  0.032851706           39 
 4341000   0.55489182    -5.167913    1764.0421  0.033863974  0.032843193           32 
 4342000   0.56299777   -5.1876087    1762.1383  0.033819636  0.032834669            9 
 4343000    0.5645165   -5.1962352    1759.0424  0.033752444  0.032826149           18 
 4344000   0.55220782   -5.1926079    1763.5863  0.033831843  0.032817617            9 
 4345000   0.55079801   -5.1723993    1763.4624   0.03382168  0.032809067           17 
 4346000   0.55592208   -5.1904444    1767.5366   0.03389202  0.032800568           11 
 4347000   0.56190148   -5.1974984    1758.1792  0.033704838  0.032792057           10 
 4348000   0.54737175   -5.1851328    1763.0276  0.033790011  0.032783585           18 
 4349000   0.56014491   -5.1874142    1765.9463  0.033838168  0.032775114           17 
 4350000   0.56407284   -5.1706592    1767.1586  0.033853612  0.032766675           51 
 4351000   0.55794965    -5.180412    1762.8329  0.033762984  0.032758226           37 
 4352000   0.54808994   -5.1816572    1769.9049  0.033890642  0.032749747           21 
 4353000   0.55725367     -5.17029     1768.293  0.033851999  0.032741289           19 
 4354000   0.56125043     -5.18574     1763.673  0.033755798  0.032732844           18 
 4355000   0.55614867   -5.1958091    1764.8736  0.033771022  0.032724395           17 
 4356000   0.55579813   -5.1869435     1764.208  0.033750536  0.032715922           10 
 4357000   0.56089769   -5.1588347    1764.8669  0.033755393  0.032707493           29 
 4358000    0.5591384   -5.1815852    1765.2956  0.033755845  0.032699029           31 
 4359000   0.55535124   -5.2130467    1763.1701  0.033707465  0.032690583           23 
 4360000    0.5506782   -5.1901972    1768.9966  0.033811097  0.032682087           38 
 4361000   0.55783689   -5.1802628    1763.2599  0.033693723  0.032673634           27 
 4362000   0.54938217    -5.177335    1765.6177  0.033731043  0.032665154           15 
 4363000   0.54488156   -5.1827385    1765.7909   0.03372662   0.03265668           28 
 4364000   0.55572912   -5.1963876    1762.6167  0.033658277  0.032648187           16 
 4365000   0.54939888   -5.2041227    1765.9107  0.033713453  0.032639713           26 
 4366000   0.56726605   -5.1925212     1765.032   0.03368896  0.032631256           36 
 4367000   0.54356276   -5.2071698    1764.0083  0.033661711  0.032622775           29 
 4368000   0.54574833   -5.2078024    1760.5298   0.03358764  0.032614281           17 
 4369000   0.54928331   -5.1925174    1763.3364  0.033633486  0.032605822           13 
 4370000   0.54691989   -5.1883076    1766.5717  0.033687484  0.032597379           23 
 4371000    0.5515126   -5.2040389    1765.9715  0.033668334  0.032588907           21 
 4372000   0.54279154    -5.200917    1766.2828  0.033666567  0.032580448           67 
 4373000   0.55288562   -5.1798814    1769.0423  0.033711454  0.032572001           18 
 4374000   0.55567057   -5.1845497    1765.8673  0.033643258  0.032563507           30 
 4375000   0.55983015   -5.2028566    1761.8387  0.033558833   0.03255504           13 
 4376000   0.56088827   -5.1807282    1766.8367  0.033646343  0.032546587           25 
 4377000   0.56404067   -5.1938818    1767.0298  0.033642331  0.032538162           19 
 4378000    0.5496193    -5.195194    1767.0988   0.03363596   0.03252972           14 
 4379000   0.55093153   -5.1915591     1762.952  0.033549364  0.032521294           21 
 4380000   0.56465219   -5.2052987    1763.0334  0.033543253  0.032512848           11 
 4381000   0.54303716   -5.1976365    1767.7773  0.033625834  0.032504421           14 
 4382000   0.54725584   -5.2180992    1764.4106  0.033554134  0.032496039           17 
 4383000   0.55528893   -5.1965468    1766.5749  0.033587628  0.032487633           19 
 4384000    0.5513973   -5.2042892    1760.0282  0.033455523  0.032479219           23 
 4385000    0.5607588   -5.1981962    1763.9216  0.033521885  0.032470802           28 
 4386000   0.54067913   -5.2084012    1763.6017  0.033508165  0.032462367           31 
 4387000   0.55475694   -5.2158599    1761.4868  0.033460352  0.032453949           19 
 4388000   0.54313304    -5.205042    1765.2091  0.033523418  0.032445506           28 
 4389000   0.55325856   -5.2231516     1764.498  0.033502278   0.03243709           25 
 4390000    0.5365377   -5.2018831    1764.5572   0.03349577  0.032428669           20 
 4391000   0.53841654   -5.2133599    1763.3503  0.033465237  0.032420249           36 
 4392000   0.56831725      -5.2051      1766.84  0.033523832  0.032411828           28 
 4393000   0.55765559   -5.2016745      1768.62  0.033549966  0.032403417            8 
 4394000   0.54629109   -5.1876173    1765.0958  0.033475493  0.032395006            8 
 4395000   0.54425667   -5.1999519    1764.8263  0.033462767  0.032386595           16 
 4396000   0.54672719   -5.2006921    1763.6846  0.033433511  0.032378178           21 
 4397000    0.5602624   -5.1909032    1763.1609  0.033415982  0.032369762           11 
 4398000   0.54622801   -5.2103605    1763.7346  0.033419256  0.032361366           12 
 4399000   0.54264184   -5.2161053    1762.6433  0.033390984  0.032352935           14 
 4400000   0.54014789   -5.2100455    1762.1651  0.033374339  0.032344515           42 
 4401000   0.55009076   -5.2386058    1766.4426  0.033447751  0.032336101           21 
 4402000   0.55253788   -5.1850592    1768.0985    0.0334715  0.032327701           13 
 4403000   0.56857691   -5.2006386    1765.9844  0.033423885  0.032319307           27 
 4404000   0.54445341   -5.2064841    1762.1841  0.033344385  0.032310892           40 
 4405000   0.55029456   -5.2112814    1761.0667  0.033315677   0.03230246            9 
 4406000   0.55829884   -5.2185484    1766.5071  0.033411013  0.032294045           12 
 4407000    0.5328072   -5.2293268    1765.8592  0.033391181   0.03228565            9 
 4408000   0.54693462   -5.2295188    1762.1992  0.033314414  0.032277255            9 
 4409000   0.54128736   -5.2158816    1764.1081  0.033342937  0.032268844           25 
 4410000   0.55731855   -5.2131882    1763.6669  0.033327039  0.032260402           12 
 4411000   0.54825733   -5.2231424    1763.9454  0.033324745  0.032251987           17 
 4412000   0.54170351   -5.2101228      1760.24  0.033247204  0.032243537           22 
 4413000   0.53334611   -5.2109474    1764.0875  0.033312326   0.03223509           16 
 4414000   0.54907158   -5.2164956    1760.0827   0.03322917  0.032226688           15 
 4415000   0.55000372   -5.2221796    1758.8054  0.033197535  0.032218286           45 
 4416000    0.5411422   -5.2079351    1765.7989   0.03332199  0.032209894           68 
 4417000   0.54844962   -5.2401736     1767.059   0.03333822  0.032201509           58 
 4418000   0.53468744   -5.2315586    1763.0711  0.033255452  0.032193098           54 
 4419000   0.55775527   -5.2228259    1766.7551  0.033317401  0.032184694           37 
 4420000   0.53695122   -5.2320073    1761.3116  0.033207233  0.032176313           47 
 4421000   0.54563383   -5.2372956    1764.4353    0.0332586  0.032167925           26 
 4422000   0.53647632   -5.2004128    1765.2219  0.033265903  0.032159568           22 
 4423000    0.5433224   -5.2091708    1767.8888   0.03330863  0.032151214           20 
 4424000   0.54921497   -5.2143387    1765.4284  0.033254755  0.032142858            8 
 4425000   0.54954829   -5.2202916    1763.8876  0.033218222   0.03213449           59 
 4426000   0.54540786   -5.2170289    1768.8765  0.033304649  0.032126153           14 
 4427000   0.53132323   -5.2073294    1765.1285  0.033226574  0.032117833           38 
 4428000   0.53842785   -5.2219653    1764.9866    0.0332164   0.03210948           35 
 4429000   0.54663295   -5.2199744    1759.1752  0.033099555  0.032101135           52 
 4430000   0.54759168    -5.204907     1765.317  0.033207619  0.032092783           18 
 4431000   0.54682384   -5.2059268    1765.7122  0.033207556  0.032084468            9 
 4432000   0.53475687   -5.2133684    1765.1501  0.033189495  0.032076161           15 
 4433000   0.53974057   -5.2006656    1764.9368  0.033177999  0.032067846           17 
 4434000   0.53682424   -5.2006172     1766.876  0.033206961  0.032059537            9 
 4435000   0.54301738   -5.2216935    1764.5833  0.033156395  0.032051196           17 
 4436000   0.52932154   -5.2160972    1767.2777  0.033199536  0.032042866           29 
 4437000    0.5284933    -5.239104    1763.5302   0.03312167  0.032034531           10 
 4438000   0.54787245   -5.1995186    1764.1197  0.033125276  0.032026165           16 
 4439000   0.54115821    -5.222803    1765.4925  0.033143585  0.032017832           12 
 4440000   0.54947144   -5.2335931    1765.7061  0.033140129  0.032009501           11 
 4441000   0.54010012   -5.2045504    1768.1331  0.033178209  0.032001167           12 
 4442000   0.54435015   -5.2005317    1765.7809  0.033126611  0.031992851           11 
 4443000   0.53803304   -5.1897874    1766.5109  0.033132848  0.031984528           20 
 4444000   0.53654607   -5.2256262    1766.3913  0.033123148  0.031976184           36 
 4445000   0.53893586   -5.2178176    1765.0619  0.033090774   0.03196788           13 
 4446000   0.53826152    -5.227547    1766.9478   0.03311868  0.031959552           23 
 4447000   0.55672025   -5.2184971    1762.8273  0.033034017  0.031951257           30 
 4448000   0.54140155   -5.2197111     1766.555  0.033096429  0.031942949           24 
 4449000   0.53670172   -5.2272147    1771.3928  0.033179606  0.031934633           12 
 4450000   0.54296365    -5.215862    1769.7872  0.033142082   0.03192633           38 
 4451000   0.53863966   -5.2214616    1766.4332  0.033071841  0.031918018           45 
 4452000   0.52666537   -5.2259831    1764.5334  0.033028852   0.03190969           14 
 4453000   0.54369164   -5.2119974    1768.4639  0.033094991  0.031901366           25 
 4454000   0.53764091   -5.2273337    1762.6532  0.032978843  0.031893081           30 
 4455000   0.53930791   -5.2194204    1764.6405  0.033008614  0.031884776           39 
 4456000   0.54577736   -5.1973148    1766.5362  0.033036658  0.031876457           29 
 4457000   0.53245903   -5.2245063    1765.6562  0.033012793  0.031868169           22 
 4458000   0.53738891   -5.2472223    1763.0108  0.032955938  0.031859862           27 
 4459000   0.53641085   -5.2295227    1766.4358  0.033012555  0.031851545           13 
 4460000   0.55069825   -5.2431983     1762.666  0.032934716  0.031843217           17 
 4461000   0.53453174   -5.2327353    1765.0524  0.032971912  0.031834913           14 
 4462000   0.53553886   -5.2380309    1763.4192  0.032934021  0.031826582           14 
 4463000   0.55090166   -5.2343767    1768.0864  0.033013787  0.031818256           19 
 4464000   0.54240847   -5.2291501    1762.2645  0.032897709  0.031809918           32 
 4465000   0.53301149   -5.2177441    1764.7149  0.032936075  0.031801594           15 
 4466000   0.54619853   -5.2228795    1764.4471  0.032923703  0.031793307           23 
 4467000   0.52282596   -5.2462299    1764.4881  0.032917097  0.031784982           43 
 4468000   0.53272712   -5.2245687    1761.8859  0.032861196   0.03177668           31 
 4469000   0.54324929   -5.2239933    1762.8713  0.032872218  0.031768364           25 
 4470000    0.5420439   -5.2295572    1765.9947  0.032923093  0.031760091           15 
 4471000    0.5284346   -5.2350396    1763.8526  0.032875804  0.031751791           48 
 4472000   0.55072383   -5.2338084    1761.4682   0.03282402  0.031743492           22 
 4473000   0.53843211    -5.233491    1763.3078  0.032850954  0.031735196           38 
 4474000   0.53730698   -5.2256238    1762.9056   0.03283612  0.031726895           34 
 4475000   0.53595331   -5.2239323    1764.4562  0.032857658  0.031718601           20 
 4476000   0.54428992   -5.2334681    1766.4256  0.032886982  0.031710314           25 
 4477000   0.53436812   -5.2462323    1762.3019   0.03280288  0.031701999           23 
 4478000   0.53672161   -5.2472195    1762.7264  0.032803454  0.031693688           37 
 4479000   0.53056037   -5.2404988    1767.9156  0.032892677  0.031685384           34 
 4480000   0.53899938   -5.2380297    1764.0587  0.032813592  0.031677084           33 
 4481000   0.54083727   -5.2365445    1764.6818  0.032817856  0.031668767           55 
 4482000   0.52869321   -5.2459046    1760.5535  0.032733777  0.031660452           29 
 4483000    0.5323775   -5.2064588    1767.7731   0.03286068   0.03165216           20 
 4484000   0.53216373   -5.2210247    1766.9955  0.032838899  0.031643905           45 
 4485000    0.5321039   -5.2282217    1764.4575   0.03278442  0.031635641           16 
 4486000   0.52203266   -5.2214322    1763.5914  0.032761023  0.031627395           33 
 4487000   0.53185048   -5.2217221    1761.3644  0.032712361  0.031619144           17 
 4488000   0.52959012   -5.2447813    1765.9207  0.032789675  0.031610904            7 
 4489000   0.54031893   -5.2159688    1769.7723  0.032853871  0.031602655            9 
 4490000    0.5280217   -5.2235474    1767.0055  0.032795202  0.031594409           11 
 4491000   0.53423429   -5.2170369    1762.2069   0.03269886  0.031586141           17 
 4492000   0.53980163    -5.223007    1768.4451  0.032807308  0.031577911            9 
 4493000   0.54058811   -5.2307003    1762.2156  0.032684465  0.031569699           22 
 4494000   0.53651845   -5.2337286    1761.3991   0.03266205  0.031561457           29 
 4495000   0.53522441   -5.2447679    1767.2678  0.032763586  0.031553198           15 
 4496000     0.531974   -5.2301342     1764.719  0.032709057  0.031544929           14 
 4497000   0.52865836   -5.2378588    1765.7611  0.032721094  0.031536682           19 
 4498000   0.53363386   -5.2418064    1764.6692  0.032693589  0.031528445           24 
 4499000   0.52518048   -5.2250601    1763.7171  0.032668688  0.031520188           13 
 4500000    0.5394772   -5.2271159    1764.6092  0.032677948  0.031511933           24 
 4501000   0.51717786   -5.2269546    1766.3887  0.032703634  0.031503682           10 
 4502000   0.53835819   -5.2476085    1763.4928  0.032642766  0.031495419            9 
 4503000   0.52660325   -5.2523761    1758.9147  0.032550794  0.031487134           12 
 4504000   0.53300354   -5.2651233    1757.6726  0.032520586  0.031478841           19 
 4505000   0.53191264   -5.2370431    1763.8831  0.032628248   0.03147054           36 
 4506000   0.53770777   -5.2457585    1763.6402  0.032616515  0.031462235           32 
 4507000   0.53246936    -5.242703    1762.4198  0.032586712  0.031453972           29 
 4508000   0.54237305   -5.2528473    1763.6036  0.032601368  0.031445732           12 
 4509000   0.53342487   -5.2573189    1761.8589  0.032561893  0.031437481           24 
 4510000   0.52839893   -5.2338811    1763.5703  0.032586296   0.03142922           30 
 4511000   0.53775795   -5.2480558    1764.0207  0.032587392  0.031420959           19 
 4512000   0.52893364   -5.2606057    1758.6598  0.032481157   0.03141269            7 
 4513000   0.52266382   -5.2454189    1760.9168  0.032515636  0.031404431           12 
 4514000   0.52598881   -5.2464517      1766.75   0.03261612  0.031396171           12 
 4515000   0.53529831   -5.2454403    1761.3215  0.032508703  0.031387926           13 
 4516000   0.52274383   -5.2471286    1764.3719  0.032557793  0.031379674           13 
 4517000   0.52901121   -5.2591771    1764.8658  0.032559698  0.031371393           12 
 4518000   0.52730072   -5.2458454    1760.4624  0.032471271  0.031363125           16 
 4519000   0.52643322   -5.2474298     1762.742  0.032506123  0.031354879           11 
 4520000   0.53324542   -5.2487894    1765.7034  0.032553528  0.031346647           18 
 4521000   0.51995421      -5.2557    1762.6567   0.03249017  0.031338389           16 
 4522000   0.52892964   -5.2493257    1762.3961  0.032478183  0.031330136            7 
 4523000   0.52740621   -5.2591204    1766.4794  0.032546234   0.03132191           24 
 4524000   0.54184358   -5.2467943    1763.7767  0.032489255  0.031313704           15 
 4525000   0.53226829    -5.251409    1764.2654  0.032491075  0.031305485           40 
 4526000   0.53114561   -5.2489947    1763.7416  0.032474253  0.031297278           19 
 4527000   0.52521356   -5.2404634    1766.7408  0.032522289  0.031289068           56 
 4528000   0.52563591   -5.2199485    1764.3898  0.032471838  0.031280889           23 
 4529000   0.53712937    -5.252851    1765.3236  0.032481851  0.031272679           41 
 4530000   0.52176252   -5.2551565    1764.3562  0.032456883  0.031264467           31 
 4531000   0.54054541   -5.2621884    1762.7285  0.032419785  0.031256266           20 
 4532000   0.52986718   -5.2647874    1765.1638   0.03245741  0.031248072           15 
 4533000   0.51319585   -5.2546368     1763.092  0.032412163   0.03123986           15 
 4534000   0.52930028   -5.2649564    1762.1509  0.032387717  0.031231641           36 
 4535000   0.52134788   -5.2550171    1764.3016  0.032420096  0.031223401           60 
 4536000   0.52039548   -5.2411278    1760.4295  0.032341812   0.03121517           57 
 4537000   0.52964233   -5.2453214    1765.8913  0.032435003  0.031206963           38 
 4538000    0.5245074   -5.2611261    1763.5445   0.03238476  0.031198728           40 
 4539000   0.52508444   -5.2460911    1765.2535  0.032409002  0.031190541           28 
 4540000   0.53612373    -5.246586    1765.1766  0.032400452  0.031182368           45 
 4541000   0.51090147   -5.2432372    1764.7947  0.032386308  0.031174188           23 
 4542000    0.5303479    -5.257329    1763.8893  0.032362567  0.031166028           24 
 4543000   0.52390562   -5.2482121    1767.2282  0.032416689  0.031157862           20 
 4544000   0.52648124   -5.2407416    1766.0757   0.03238842  0.031149706           18 
 4545000   0.52134794   -5.2568628     1768.559  0.032426825  0.031141539           31 
 4546000   0.52094868   -5.2582837    1766.7252  0.032386075  0.031133353           20 
 4547000   0.52623629   -5.2520641     1762.202  0.032296056  0.031125155           15 
 4548000   0.50491966   -5.2591909    1765.1281   0.03234257  0.031116953           20 
 4549000   0.53020238   -5.2717039    1761.5293  0.032269534  0.031108746           47 
 4550000    0.5303201   -5.2645443    1764.3016  0.032313216  0.031100574           55 
 4551000    0.5243781   -5.2739766    1762.7015  0.032276817  0.031092386           84 
 4552000   0.51369141   -5.2751362    1762.3418  0.032263142  0.031084187           30 
 4553000   0.53154754   -5.2552101    1759.8743  0.032210891  0.031075976            7 
 4554000   0.53168294     -5.25826    1762.2583  0.032247444  0.031067778           20 
 4555000   0.52697198   -5.2528299    1765.3115  0.032296222  0.031059595           13 
 4556000   0.51242821   -5.2706341    1760.8535  0.032207592  0.031051407           20 
 4557000   0.51701912   -5.2842536    1758.6913  0.032160985  0.031043185           24 
 4558000   0.51721114   -5.2755741    1762.2065  0.032218196  0.031034973           33 
 4559000   0.51839978      -5.2567    1768.2197  0.032321045  0.031026792           26 
 4560000   0.53676516   -5.2516109    1760.9315  0.032180765  0.031018629           21 
 4561000   0.53154653   -5.2708181    1766.2102  0.032270156  0.031010468           38 
 4562000   0.51080473   -5.2559972    1760.8462    0.0321651  0.031002321           28 
 4563000   0.52071073     -5.25568    1763.8378  0.032212686  0.030994149           48 
 4564000   0.52249173   -5.2647679    1761.1851  0.032157192  0.030986002           46 
 4565000   0.51100742    -5.261087    1766.0751  0.032239415  0.030977869           49 
 4566000   0.52972972   -5.2658384    1765.8869  0.032228918  0.030969736           26 
 4567000   0.51982251   -5.2398842    1764.5419  0.032197319  0.030961614           25 
 4568000   0.53025238   -5.2676253    1763.1451   0.03216479  0.030953469           73 
 4569000   0.53049022   -5.2711327    1763.1068  0.032157051  0.030945323          111 
 4570000   0.50988687   -5.2627669    1764.0634  0.032167458  0.030937158           22 
 4571000   0.52719731   -5.2534856    1763.1763  0.032144249  0.030928999           27 
 4572000   0.52178835   -5.2548608     1764.227  0.032156369  0.030920891           28 
 4573000   0.51536358   -5.2660572    1762.7827  0.032123017  0.030912759           14 
 4574000   0.52887794   -5.2480894    1767.5268  0.032202428  0.030904637           18 
 4575000   0.51049371    -5.268234    1764.0045   0.03213123  0.030896499           22 
 4576000   0.52416351   -5.2634865    1765.3894  0.032149428  0.030888367           61 
 4577000   0.51355244   -5.2732802    1763.4919  0.032107857  0.030880245           36 
 4578000   0.52049303   -5.2666272    1765.5232  0.032137819  0.030872115           35 
 4579000   0.52170448   -5.2489822     1764.542  0.032112943  0.030864003           22 
 4580000   0.51630771   -5.2577006    1766.8748  0.032148376  0.030855881           15 
 4581000   0.51401857   -5.2530173    1765.6456  0.032118999  0.030847752           24 
 4582000   0.51549368    -5.264337    1766.5534  0.032128499  0.030839633           19 
 4583000   0.51537284   -5.2745709      1762.79  0.032053059  0.030831492           34 
 4584000   0.52132689    -5.277827    1762.3221  0.032037559  0.030823337           30 
 4585000    0.5168023   -5.2794112    1764.9046  0.032077509  0.030815201           28 
 4586000   0.51953463     -5.26227    1765.8869  0.032088366  0.030807073           22 
 4587000   0.51276271   -5.2739294    1761.4556  0.032000864  0.030798934           18 
 4588000    0.5148973   -5.2611897     1764.501  0.032049204    0.0307908           39 
 4589000   0.51968147   -5.2505112    1764.1836  0.032036457  0.030782702           32 
 4590000   0.51612504    -5.248238    1768.1951  0.032102308  0.030774604           12 
 4591000   0.51984982   -5.2483483    1763.3996  0.032008269  0.030766506           30 
 4592000   0.51201402   -5.2761459    1767.2691  0.032071521  0.030758414           41 
 4593000   0.51472522   -5.2484274    1762.1321  0.031971336  0.030750317           21 
 4594000   0.52394293   -5.2746952    1765.1131  0.032018449  0.030742209           14 
 4595000   0.52075291   -5.2723306    1761.8962  0.031953142  0.030734088           19 
 4596000   0.50936925   -5.2789423    1761.2514  0.031934497  0.030725968           37 
 4597000   0.51684284    -5.277944    1764.7932  0.031991756  0.030717865           10 
 4598000   0.51181821   -5.2797385    1758.1135  0.031863737  0.030709748           29 
 4599000   0.50933884     -5.25638    1758.8182  0.031869577  0.030701625           19 
 4600000   0.51988562   -5.2776142    1761.3377  0.031908291  0.030693514           36 
 4601000   0.52219869   -5.2698909    1763.8531  0.031946915   0.03068541           13 
 4602000     0.509814   -5.2742848    1763.1861  0.031927895  0.030677298           27 
 4603000   0.52628746   -5.2642623    1760.3723  0.031870018  0.030669188           23 
 4604000   0.50277625   -5.2680766    1763.9887  0.031928553  0.030661079           32 
 4605000   0.51628912   -5.2792378    1763.8638  0.031919359  0.030652953           11 
 4606000   0.51303723   -5.2769601    1760.5598  0.031852653  0.030644826           22 
 4607000   0.51147441   -5.2648412    1762.4504  0.031879937  0.030636685           52 
 4608000   0.52177664   -5.2853117    1759.2718  0.031815535  0.030628556           51 
 4609000   0.52368368   -5.2874427    1765.1519  0.031914947   0.03062043           43 
 4610000   0.50620527   -5.2834935    1759.9976  0.031814851  0.030612313           40 
 4611000   0.51056841   -5.2730234    1763.6613  0.031874166  0.030604177           41 
 4612000   0.51445732   -5.2877882    1755.7764  0.031724784  0.030596008           47 
 4613000   0.51158933   -5.3112539    1762.6381  0.031841862  0.030587864           40 
 4614000   0.51610392   -5.2905574    1759.0279  0.031769757  0.030579709           54 
 4615000   0.51263593   -5.2833535    1761.5836  0.031809022   0.03057157           25 
 4616000    0.5079566   -5.2883802    1759.0269  0.031755974  0.030563435           49 
 4617000   0.51470272   -5.3015369    1758.7091   0.03174336  0.030555293           38 
 4618000   0.52069929    -5.295323    1757.6537  0.031717441  0.030547147           18 
 4619000   0.51709164    -5.276275    1761.9573  0.031788217  0.030539005           28 
 4620000    0.5148636   -5.2898619    1761.7762  0.031778071  0.030530884           58 
 4621000   0.51293885   -5.2990555    1757.3007  0.031690484   0.03052274           68 
 4622000   0.51605947    -5.293203    1759.2586  0.031718928  0.030514597           76 
 4623000   0.52328344    -5.308462    1756.4019  0.031660572  0.030506435           52 
 4624000   0.51570213   -5.3034396    1764.4427  0.031798636  0.030498293          121 
 4625000   0.51224279   -5.2947061    1759.3384  0.031699791  0.030490153           29 
 4626000   0.50915841   -5.2793248    1760.9169  0.031721374  0.030482025           42 
 4627000   0.52010284   -5.3119291    1758.9792   0.03167962  0.030473923           59 
 4628000    0.5087166    -5.292351    1760.6643  0.031703118  0.030465803           64 
 4629000   0.51145467   -5.2817403    1760.2974  0.031689663  0.030457656           67 
 4630000   0.50334067    -5.300312    1762.4059  0.031720769  0.030449539           60 
 4631000   0.50795294   -5.2992201    1758.9681  0.031652057  0.030441443           70 
 4632000   0.51170963   -5.3003287    1757.9968  0.031627749  0.030433319           47 
 4633000   0.50871355   -5.2838526    1759.0667  0.031640166  0.030425208          112 
 4634000   0.52143085   -5.3115306    1759.2383  0.031636424  0.030417072           46 
 4635000   0.51430854   -5.2938144    1760.7986  0.031657651  0.030408927           24 
 4636000   0.51427999    -5.318489    1756.8503  0.031579851  0.030400772           35 
 4637000   0.52151802   -5.3183676    1758.9336   0.03161048  0.030392611           35 
 4638000    0.5019381   -5.3072329    1756.7653  0.031564707  0.030384443           19 
 4639000   0.51260911   -5.3017559    1764.9149  0.031704299  0.030376308           14 
 4640000   0.51039654   -5.2989952    1760.6772  0.031621358  0.030368205           19 
 4641000   0.50966744   -5.3053779    1757.5657  0.031558675  0.030360088           18 
 4642000   0.51576912   -5.2989741    1757.8475  0.031556935  0.030351971           14 
 4643000   0.51135156   -5.3127882    1757.5068  0.031544023  0.030343878           21 
 4644000   0.51624185   -5.2811936    1762.9672  0.031635215  0.030335774           51 
 4645000   0.50354228   -5.3014882     1762.415  0.031618496  0.030327691           16 
 4646000   0.51472616   -5.3006754    1760.9811  0.031585972  0.030319618           28 
 4647000    0.4968547    -5.294177    1763.3083  0.031620908  0.030311553           33 
 4648000   0.50788163   -5.2864773    1762.0298  0.031591182  0.030303477           48 
 4649000   0.52216623    -5.278041    1759.0871  0.031531639  0.030295418           36 
 4650000   0.50218998    -5.309168    1758.3685   0.03151198  0.030287342           30 
 4651000   0.50914616   -5.2922595    1760.1139  0.031536477   0.03027925           19 
 4652000   0.51915305   -5.2986148    1759.9604  0.031526948  0.030271145           37 
 4653000   0.50784058   -5.3106884    1760.7698  0.031534669  0.030263046           71 
 4654000   0.51539586   -5.2996627     1757.606  0.031471244  0.030254942           34 
 4655000   0.49422474   -5.3067998    1758.3362  0.031477555  0.030246836           20 
 4656000   0.50847109   -5.3021172     1757.558  0.031456865  0.030238723           44 
 4657000   0.50325912    -5.296807    1760.0238  0.031494234  0.030230632           22 
 4658000   0.51314659   -5.2962064     1758.314  0.031456884  0.030222543           28 
 4659000   0.52139182   -5.2959706     1756.498   0.03141765  0.030214444           43 
 4660000   0.50085158   -5.3106563    1760.8842  0.031489346  0.030206355           19 
 4661000   0.49656049    -5.301349    1758.0939  0.031432703  0.030198273           19 
 4662000   0.51031736   -5.2946046    1764.8633  0.031546964  0.030190213           40 
 4663000   0.51311139   -5.2955577    1760.5317  0.031462786  0.030182148           43 
 4664000   0.50027787    -5.308658    1760.1212  0.031448707   0.03017411           18 
 4665000   0.50102875   -5.3095223     1755.204  0.031354126  0.030166018           61 
 4666000    0.5131917   -5.3069258     1757.784  0.031393485   0.03015793           14 
 4667000   0.50062652   -5.2921966    1760.5662  0.031436437  0.030149877           15 
 4668000   0.51228182   -5.3065992    1760.6783  0.031431704  0.030141832           26 
 4669000   0.49587802   -5.3000998    1760.3307  0.031418767  0.030133779           28 
 4670000   0.50124797   -5.2980632    1757.4735  0.031361055  0.030125719           37 
 4671000   0.50520252   -5.3157319    1760.9263  0.031415941  0.030117666           64 
 4672000   0.50630983   -5.2935403    1761.0277  0.031411025  0.030109612          101 
 4673000   0.51908292   -5.2864402    1759.8743  0.031383734  0.030101563           29 
 4674000   0.50138016   -5.2941748    1760.4963  0.031388109  0.030093503           55 
 4675000   0.51143024   -5.2989074    1758.4384  0.031344714  0.030085448           44 
 4676000   0.50356234   -5.3111606    1757.5358  0.031321924  0.030077391           60 
 4677000    0.5155649   -5.3253695    1756.5224   0.03129717  0.030069303           70 
 4678000   0.50234995   -5.3118209     1757.784  0.031312954  0.030061227           17 
 4679000   0.51205807   -5.3088186    1759.8477  0.031343016  0.030053169           21 
 4680000   0.49813049   -5.3109029    1756.5287   0.03127722  0.030045097           31 
 4681000   0.48929328    -5.316137    1752.9285  0.031206446  0.030037007           71 
 4682000   0.49511782   -5.3277438    1756.7952  0.031268604  0.030028928           46 
 4683000   0.50631688   -5.3193306    1763.7466  0.031385626   0.03002087           23 
 4684000   0.49981504   -5.2968959    1759.3234  0.031300231  0.030012834           25 
 4685000   0.50390143    -5.320367    1756.3651   0.03124093  0.030004812           66 
 4686000   0.51650607   -5.3075801    1759.1995  0.031284669  0.029996749           84 
 4687000    0.4980551   -5.3090356    1758.4716  0.031265053  0.029988722           80 
 4688000   0.49395596    -5.299841    1760.1767  0.031288692  0.029980693           70 
 4689000   0.50364123   -5.3060139     1761.283  0.031301681  0.029972674           49 
 4690000   0.49212974    -5.293608     1760.899  0.031288185  0.029964656           29 
 4691000   0.50839481   -5.3008378    1756.7812  0.031208363  0.029956645           31 
 4692000   0.50826819   -5.3067436    1760.1522  0.031261583  0.029948638           15 
 4693000   0.49603397    -5.290491      1755.92  0.031179771  0.029940617           18 
 4694000   0.49019739   -5.3171916    1757.9799  0.031209698  0.029932606           56 
 4695000   0.49528001   -5.3082414    1756.5393  0.031177482  0.029924589           35 
 4696000   0.50409574   -5.2956646    1755.7717   0.03115722  0.029916559           71 
 4697000   0.49897218   -5.3185288    1757.7554  0.031185782  0.029908528           65 
 4698000   0.50318318   -5.3135091    1759.8733  0.031216711  0.029900519           59 
 4699000   0.49834106   -5.3018215     1762.978  0.031265127  0.029892517           83 
 4700000   0.50310636   -5.3115154    1760.1295  0.031207969  0.029884499           60 
 4701000   0.49232248   -5.2942571    1756.7651  0.031141691  0.029876487           95 
 4702000   0.50793561   -5.3136251    1758.8683  0.031172344  0.029868459           72 
 4703000   0.49552286   -5.3242806    1755.0191   0.03109751  0.029860423          133 
 4704000    0.4880045   -5.3380765    1755.2458  0.031094916  0.029852382          106 
 4705000   0.50431815   -5.3122834    1757.7411  0.031132503  0.029844351          141 
 4706000   0.49060969    -5.318684    1758.0846  0.031131969  0.029836293          136 
 4707000   0.49753624   -5.3100892    1755.6322  0.031081938   0.02982823          115 
 4708000   0.49824659    -5.320164    1754.2606  0.031051058  0.029820183          159 
 4709000   0.49835738   -5.3019294    1761.9377  0.031180323  0.029812181           80 
 4710000    0.4954818   -5.3017524    1757.3246  0.031092084  0.029804162           96 
 4711000   0.50106678   -5.3373408     1754.218  0.031030531  0.029796138          156 
 4712000   0.49213255    -5.311655    1759.0027  0.031108565  0.029788125          155 
 4713000   0.49507297   -5.3293071    1759.3636  0.031108345  0.029780104          116 
 4714000   0.49416486   -5.3158094    1754.5916  0.031017388  0.029772082          156 
 4715000   0.49239021   -5.3004443    1757.1164  0.031055434  0.029764066          193 
 4716000   0.49348142   -5.3104194     1756.708  0.031041631  0.029756076          162 
 4717000   0.49624299   -5.3294612    1753.3284  0.030975344  0.029748055          124 
 4718000   0.50173555   -5.3221505    1759.6717   0.03108082   0.02974003           98 
 4719000   0.49457185   -5.3338137    1755.1333  0.030994089  0.029732017          147 
 4720000   0.50055492   -5.3375388    1758.7538  0.031051445  0.029723983          159 
 4721000   0.50069788   -5.3311501    1755.3179  0.030984218  0.029715968          181 
 4722000   0.49342035   -5.3279483    1755.4564  0.030980099  0.029707953          116 
 4723000   0.49091119   -5.3402145    1756.3579  0.030989447  0.029699952          170 
 4724000   0.50476233   -5.3140779    1755.9236  0.030975225  0.029691921          133 
 4725000   0.49278247    -5.336575    1756.5199  0.030979188  0.029683902          146 
 4726000   0.49410535   -5.3158295    1758.9902   0.03101619  0.029675899          117 
 4727000   0.50527146    -5.320045    1754.7767  0.030935348  0.029667904           93 
 4728000   0.48810962   -5.3027057    1757.7102   0.03098051  0.029659902          140 
 4729000   0.49052531   -5.3239255    1757.2291  0.030965481  0.029651924          187 
 4730000   0.49489715   -5.3281341    1755.9353  0.030936139  0.029643919          205 
 4731000   0.48938327   -5.3299325    1750.7981  0.030839112  0.029635895          230 
 4732000    0.5088319   -5.3318398    1758.1347  0.030961798  0.029627916          179 
 4733000   0.49262523   -5.3084555    1758.5036  0.030961751  0.029619939          163 
 4734000   0.51033543   -5.3273522    1758.1984  0.030949839  0.029611965          206 
 4735000   0.50153208   -5.3067475    1757.1429  0.030924725  0.029603995          209 
 4736000   0.50364854   -5.3410251    1759.4539   0.03095886  0.029596004          195 
 4737000   0.49526737   -5.3429943    1756.6138  0.030902361   0.02958802          317 
 4738000   0.48325824   -5.3213317    1755.4859  0.030876001  0.029580037          264 
 4739000   0.49526376    -5.328522    1754.4922  0.030852011   0.02957206          279 
 4740000   0.49466317   -5.3470619    1758.5373   0.03091662  0.029564094          269 
 4741000   0.48707706   -5.3343018    1758.9618  0.030917559  0.029556131          264 
 4742000   0.48966784   -5.3231423    1758.1694  0.030897115  0.029548178          350 
 4743000   0.48692228   -5.3257544    1759.1144  0.030907204  0.029540231          256 
 4744000   0.50434366    -5.318195    1758.5087  0.030890048  0.029532263          368 
 4745000   0.48821891   -5.3406559    1761.2559  0.030931786  0.029524304          380 
 4746000   0.49826118   -5.3245704    1757.2146  0.030854309  0.029516331          372 
 4747000   0.48975164   -5.3338952    1753.8368  0.030788512  0.029508361          447 
 4748000    0.4878495   -5.3360331    1757.8932  0.030853223  0.029500388          393 
 4749000    0.4921319   -5.3434637    1756.0213  0.030813879  0.029492419          352 
 4750000   0.48778209   -5.3412024    1757.5059  0.030833437  0.029484466          327 
 4751000   0.49571566   -5.3409526     1755.057  0.030783993  0.029476503          357 
 4752000   0.49620436   -5.3214522    1758.6688  0.030840854   0.02946852          348 
 4753000   0.48973302   -5.3459925    1752.7443  0.030730491  0.029460543          381 
 4754000   0.49158403   -5.3494446    1752.1143  0.030712983  0.029452553          334 
 4755000   0.48976817   -5.3485476    1756.5622  0.030784476  0.029444574          282 
 4756000   0.50014445   -5.3459854    1751.5926  0.030690927   0.02943658          352 
 4757000    0.4958758   -5.3337653    1752.8348  0.030706236  0.029428597          274 
 4758000   0.48755584   -5.3310739    1756.8433  0.030769989  0.029420634          382 
 4759000   0.49241892   -5.3308581    1755.0302  0.030731775  0.029412694          424 
 4760000   0.48915843   -5.3337539    1758.1673   0.03078024   0.02940475          390 
 4761000   0.48337575   -5.3468456     1757.051  0.030754235  0.029396796          411 
 4762000   0.49134899   -5.3581131    1754.5851  0.030704624  0.029388829          381 
 4763000   0.49126623   -5.3686527     1758.833  0.030772499  0.029380855          448 
 4764000   0.48992187   -5.3568746    1754.1987  0.030684976  0.029372889          413 
 4765000   0.47978138   -5.3536445    1751.6073  0.030633217    0.0293649          452 
 4766000   0.49843964   -5.3485656    1754.9968  0.030686054  0.029356917          410 
 4767000    0.4918826   -5.3734141    1753.5992  0.030655185  0.029348944          408 
 4768000   0.48796314    -5.357571    1749.7218  0.030580988  0.029340948          414 
 4769000    0.4926131   -5.3602415    1755.3175  0.030672354  0.029332966          438 
 4770000   0.47566282   -5.3715936    1753.5875    0.0306357  0.029324986          466 
 4771000      0.49035   -5.3521251    1754.3056  0.030641822  0.029317006          372 
 4772000   0.49412025   -5.3413455    1754.8418  0.030644765  0.029309043          378 
 4773000   0.48135152   -5.3531856    1758.4263  0.030700926  0.029301068          401 
 4774000   0.48316753   -5.3435196    1753.8589  0.030614769  0.029293099          371 
 4775000   0.48910648   -5.3699293    1752.0379  0.030576578  0.029285129          372 
 4776000   0.48660892   -5.3622869    1758.2191  0.030678027   0.02927713          437 
 4777000   0.48741744   -5.3554201     1754.835   0.03061257  0.029269143          433 
 4778000   0.48357644   -5.3443676    1751.3955  0.030546175   0.02926118          387 
 4779000   0.48423206   -5.3798638    1755.0395  0.030603325  0.029253211          482 
 4780000   0.48488593     -5.35473    1751.0348  0.030527105  0.029245234          441 
 4781000   0.48073748   -5.3525343     1753.099  0.030556699  0.029237251          448 
 4782000   0.49358375   -5.3670929    1753.8783  0.030563891  0.029229279          522 
 4783000   0.48280095   -5.3656966     1753.161  0.030545002  0.029221312          474 
 4784000   0.48658424   -5.3580998    1750.9591  0.030500263  0.029213357          496 
 4785000   0.47767212   -5.3624602     1754.863  0.030561877  0.029205395          413 
 4786000   0.48959069   -5.3453137    1751.3822  0.030494885  0.029197441          422 
 4787000   0.47489549   -5.3575601    1753.3707   0.03052313  0.029189484          526 
 4788000   0.50081847   -5.3414422    1753.5896  0.030520565  0.029181548          387 
 4789000   0.47161261   -5.3351876    1754.4749  0.030529597  0.029173624          397 
 4790000    0.4843448   -5.3541323    1754.2523  0.030519352  0.029165717          378 
 4791000   0.48876746   -5.3498833    1754.3126  0.030514029  0.029157787          428 
 4792000   0.48061519   -5.3548863    1753.0978  0.030486536  0.029149861          452 
 4793000   0.48329423   -5.3378194    1751.9803  0.030460747  0.029141947          303 
 4794000   0.48105579   -5.3468195    1752.1802  0.030457868  0.029134032          411 
 4795000   0.48186649   -5.3481071     1750.078   0.03041498  0.029126117          342 
 4796000   0.48106703   -5.3457267    1751.1386  0.030427068  0.029118192          405 
 4797000   0.48654897   -5.3528588    1753.0116  0.030453263  0.029110272          481 
 4798000   0.48949231   -5.3682952    1755.8887  0.030496887  0.029102357          496 
 4799000   0.47853457   -5.3390391    1751.0927  0.030407249  0.029094432          520 
 4800000   0.48658928    -5.369482    1753.5375  0.030443359  0.029086483          617 
 4801000   0.47863359   -5.3545103    1749.2073  0.030361856  0.029078551          636 
 4802000   0.48102324   -5.3383806    1756.6337  0.030484412  0.029070617          555 
 4803000   0.49087472   -5.3660144    1752.3568  0.030403858  0.029062703          518 
 4804000   0.48625981    -5.349179    1754.2553  0.030430463  0.029054797          546 
 4805000   0.48414482   -5.3722568    1750.6117  0.030360939   0.02904687          622 
 4806000   0.48279313   -5.3457535    1750.1594  0.030346778  0.029038948          631 
 4807000   0.48352641   -5.3549323    1754.9294  0.030423157  0.029031041          623 
 4808000   0.47684731    -5.365666    1756.7914  0.030449103  0.029023149          576 
 4809000   0.48301417   -5.3615555    1752.8238  0.030374018   0.02901524          658 
 4810000   0.48665691   -5.3531089    1751.8174  0.030350268  0.029007332          533 
 4811000   0.49288281    -5.359585    1753.0033    0.0303645  0.028999416          578 
 4812000   0.48823825   -5.3728203    1752.8795  0.030356046  0.028991496          593 
 4813000   0.48543815    -5.375787    1752.7275  0.030347108  0.028983584          648 
 4814000   0.47248418   -5.3558045    1749.8587  0.030291141  0.028975662          671 
 4815000   0.48681949    -5.368163    1750.4887  0.030295755  0.028967737          708 
 4816000   0.47808693   -5.3712211    1753.5702  0.030342785  0.028959794          850 
 4817000   0.48144674   -5.3875809    1747.7484   0.03023577  0.028951845          819 
 4818000   0.47466458   -5.3854516     1751.122  0.030287844  0.028943906          858 
 4819000   0.48903041   -5.3679159    1748.6762  0.030239265   0.02893596          777 
 4820000   0.47177763   -5.3721503    1751.4223  0.030280468  0.028928018          838 
 4821000   0.49247795    -5.386971    1747.1374  0.030200121  0.028920076          839 
 4822000   0.47477843   -5.3555413    1753.1958  0.030298559   0.02891215          860 
 4823000   0.48388782   -5.3785701    1751.1089  0.030256218  0.028904227          888 
 4824000   0.49902735   -5.3760268    1754.1316  0.030302163  0.028896296          901 
 4825000   0.48652687   -5.3852069    1747.3778  0.030179237  0.028888364          852 
 4826000   0.47558311    -5.379236    1748.0236  0.030184134  0.028880439          936 
 4827000   0.47991416   -5.3759085    1750.1835  0.030215169  0.028872484          873 
 4828000   0.46955292   -5.3906371    1750.3279  0.030211403  0.028864538         1002 
 4829000   0.48486883   -5.4063765    1745.6155  0.030123827  0.028856579         1100 
 4830000   0.47324287   -5.4039107    1748.5993   0.03016907  0.028848626          986 
 4831000     0.482465   -5.4087046    1751.3268  0.030209874  0.028840662         1145 
 4832000   0.46801075    -5.402488     1744.245  0.030081488  0.028832695         1104 
 4833000   0.47411412   -5.3933268    1748.1768  0.030143058  0.028824708         1152 
 4834000   0.47394778   -5.4098336    1742.8684  0.030045311   0.02881672         1189 
 4835000   0.47869645   -5.4217288    1745.8641  0.030090729  0.028808733         1239 
 4836000   0.48336126   -5.4234163     1744.829   0.03006667   0.02880075         1323 
 4837000   0.47415208   -5.4006904    1742.4205  0.030018959  0.028792758         1377 
 4838000   0.47488618   -5.4102215    1745.3517  0.030063244  0.028784789         1379 
 4839000   0.46630127    -5.420298    1742.6844  0.030011097  0.028776799         1383 
 4840000   0.48066345   -5.4041947    1744.6357  0.030038493    0.0287688         1317 
 4841000   0.48324842   -5.4141858    1745.1607  0.030041326  0.028760808         1402 
 4842000   0.47730011   -5.4209006    1746.1457  0.030052073  0.028752797         1452 
 4843000   0.47783384   -5.3926642    1748.1019  0.030079529   0.02874481         1446 
 4844000   0.47796889   -5.4236881    1746.4548  0.030044984  0.028736796         1424 
 4845000   0.48347123   -5.4287869     1740.025  0.029928191  0.028728772         1537 
 4846000   0.47993957   -5.4366191    1742.0258  0.029956421  0.028720751         1595 
 4847000   0.46635356   -5.4404792    1740.8114  0.029929362  0.028712726         1720 
 4848000   0.46988054   -5.4200062    1743.4799  0.029969058  0.028704694         1737 
 4849000   0.47308385   -5.4373438    1736.3343  0.029840076  0.028696655         1817 
 4850000   0.47290697    -5.429026    1738.0174  0.029862841  0.028688614         1722 
 4851000   0.47536991   -5.4384895    1741.3584  0.029914079  0.028680566         1773 
 4852000   0.47612411    -5.440424    1740.7684  0.029897781  0.028672498         1922 
 4853000   0.48257902   -5.4386814    1736.5019  0.029818358  0.028664425         1837 
 4854000    0.4702849   -5.4448587    1741.6456  0.029900521  0.028656346         1872 
 4855000   0.47314293   -5.4329944    1740.8416  0.029880563  0.028648255         1936 
 4856000   0.48060054   -5.4650931    1734.0411  0.029757707   0.02864017         2009 
 4857000   0.46717401   -5.4399331    1738.8949  0.029834859  0.028632079         2023 
 4858000   0.47324706   -5.4487635    1739.6886  0.029842332  0.028623986         2140 
 4859000   0.46896524   -5.4549073    1740.6293  0.029852325  0.028615901         2148 
 4860000   0.47605057   -5.4561462    1735.0928  0.029751248  0.028607809         2171 
 4861000   0.46488539   -5.4453893    1739.5735  0.029821941  0.028599707         2188 
 4862000   0.47246805   -5.4752245    1733.9462  0.029719358  0.028591592         2313 
 4863000   0.46974939   -5.4749842    1735.3709   0.02973766  0.028583461         2300 
 4864000   0.47216055   -5.4659238    1740.2007  0.029814293  0.028575324         2207 
 4865000   0.47351485   -5.4589095    1735.9077   0.02973463  0.028567196         2285 
 4866000   0.47272781   -5.4742447    1735.4799  0.029721192  0.028559074         2323 
 4867000   0.46749096   -5.4792038    1733.1946  0.029675957  0.028550939         2396 
 4868000   0.47960626   -5.4695914    1734.2888  0.029688592  0.028542799         2396 
 4869000   0.46927404   -5.4714166    1737.2027  0.029732366  0.028534666         2387 
 4870000   0.46334113   -5.4745007    1735.6085  0.029698981  0.028526523         2440 
 4871000   0.47284806   -5.4709719    1736.4897  0.029707961  0.028518385         2452 
 4872000   0.47648705   -5.4951799    1733.8541  0.029656782  0.028510222         2490 
 4873000   0.46858666   -5.4709133    1729.4361  0.029575144  0.028502067         2579 
 4874000   0.47142541   -5.4863757    1731.0446  0.029596577  0.028493901         2608 
 4875000   0.47145971   -5.5021778    1732.8378   0.02962116  0.028485726         2632 
 4876000    0.4783651   -5.5021848    1733.3088  0.029623133  0.028477549         2618 
 4877000   0.46488349   -5.4988831    1729.6366  0.029554312  0.028469368         2688 
 4878000   0.47492953   -5.4842159    1732.4916  0.029597028  0.028461193         2659 
 4879000   0.46445615   -5.4901345      1731.78  0.029578807  0.028453011         2705 
 4880000   0.46159277   -5.4809135    1728.1039   0.02950997  0.028444823         2734 
 4881000   0.47467219   -5.4929457    1730.7716  0.029549471  0.028436638         2779 
 4882000    0.4753314   -5.5002693    1731.1002  0.029549027  0.028428462         2802 
 4883000   0.47249325   -5.5006655    1728.9553   0.02950637  0.028420273         2902 
 4884000   0.46304437   -5.5100703    1728.6469  0.029495067  0.028412066         2925 
 4885000   0.47295094   -5.5207236    1725.3497  0.029432783  0.028403854         2981 
 4886000   0.47687773   -5.5056856    1730.5798  0.029515961  0.028395645         2946 
 4887000   0.45452657   -5.5030734    1726.4328  0.029439206  0.028387418         3017 
 4888000   0.46771802   -5.5226449     1725.464  0.029416667  0.028379184         3129 
 4889000   0.47391421   -5.5263211    1729.8674  0.029485707  0.028370936         3094 
 4890000   0.47492635   -5.5365452     1723.939  0.029378647   0.02836267         3244 
 4891000   0.46914871    -5.544826    1725.6285  0.029401426  0.028354376         3207 
 4892000   0.47763632   -5.5535037    1725.1781  0.029387744  0.028346076         3217 
 4893000   0.47144646   -5.5425486    1724.0507  0.029362536  0.028337785         3200 
 4894000   0.46875004   -5.5452051    1723.0748  0.029339919  0.028329486         3331 
 4895000    0.4690267   -5.5594673    1725.1256  0.029368839   0.02832117         3453 
 4896000   0.47156848   -5.5554589    1718.2369   0.02924559  0.028312855         3451 
 4897000   0.46480848   -5.5619841    1721.1011  0.029288358  0.028304526         3547 
 4898000   0.46740992   -5.5805754    1722.9406  0.029313675   0.02829619         3618 
 4899000   0.47441831   -5.5633135    1715.5924  0.029182698  0.028287819         3628 
 4900000   0.47904865   -5.5712158    1719.6035  0.029244958  0.028279429         3648 
 4901000   0.46038534   -5.5716249    1716.9374  0.029193658  0.028271036         3670 
 4902000   0.46215089   -5.5818087    1716.1428  0.029174193   0.02826265         3694 
 4903000   0.47255166   -5.5794624    1714.8944  0.029147025  0.028254254         3709 
 4904000   0.46926115   -5.6053396    1715.5719  0.029152594  0.028245851         3713 
 4905000   0.45837751    -5.582644    1713.9781  0.029119574  0.028237429         3797 
 4906000   0.46920957   -5.5954034    1714.0529  0.029114909  0.028228997         3803 
 4907000    0.4652404   -5.6013093    1714.7013  0.029119987  0.028220559         3848 
 4908000   0.47309704   -5.6071159    1714.5625  0.029111698  0.028212093         3824 
 4909000   0.45465972   -5.6040956     1713.782  0.029092516   0.02820363         3799 
 4910000   0.45506991   -5.6200774    1711.5901  0.029049391   0.02819517         3828 
 4911000   0.46555701   -5.6025003    1712.5051  0.029059001  0.028186711         3825 
 4912000   0.46988192   -5.6022752    1712.8711  0.029059296  0.028178248         3851 
 4913000   0.46225601   -5.6168549    1712.1298  0.029040806  0.028169792         3863 
 4914000   0.46742325    -5.613873    1710.8187  0.029012662  0.028161342         3812 
 4915000   0.45762694   -5.6175262    1715.5015  0.029086156  0.028152871         3808 
 4916000   0.47055141   -5.6121189     1714.406   0.02906167  0.028144413         3810 
 4917000   0.47226132   -5.6067124    1713.6789  0.029043435  0.028135954         3844 
 4918000   0.46791551   -5.6289384    1709.9019  0.028973531  0.028127477         3858 
 4919000   0.47005425    -5.633139    1712.4363  0.029010577  0.028118994         3897 
 4920000   0.46106181   -5.6335533    1709.3997  0.028953247  0.028110508         3902 
 4921000   0.46119544   -5.6227066    1711.2851  0.028979291  0.028102008         3915 
 4922000   0.47355256   -5.6363728    1709.6641  0.028945959  0.028093506         3915 
 4923000   0.46728721   -5.6270445    1709.3665  0.028935041     0.028085         3908 
 4924000    0.4636864   -5.6353034    1707.1561  0.028891757  0.028076505         3906 
 4925000   0.45774428   -5.6329832    1710.0343  0.028934591  0.028068015         3917 
 4926000   0.45639242   -5.6370191    1705.4695  0.028851494  0.028059523         3909 
 4927000   0.46323417   -5.6339989    1708.8525  0.028902856  0.028051029         3923 
 4928000   0.45418699   -5.6259992    1709.9599  0.028915717  0.028042533         3906 
 4929000   0.45663127   -5.6374008    1709.1488  0.028896139  0.028034043         3922 
 4930000   0.47562922   -5.6523901    1711.8183  0.028935401  0.028025559         3923 
 4931000   0.45984838   -5.6392736    1708.2979  0.028870038  0.028017072         3926 
 4932000    0.4603396   -5.6483837    1709.1265  0.028878185  0.028008599         3916 
 4933000   0.45779707   -5.6459589    1708.4741   0.02886131  0.028000122         3916 
 4934000   0.45603894   -5.6411406     1710.291  0.028886147  0.027991633         3927 
 4935000   0.45867524   -5.6443747     1708.205   0.02884507   0.02798316         3934 
 4936000   0.46317669   -5.6373473    1707.5431  0.028828051  0.027974692         3937 
 4937000   0.46099187   -5.6515737      1709.58  0.028856592  0.027966215         3938 
 4938000   0.45867493   -5.6492535    1708.2415  0.028828161  0.027957745         3944 
 4939000   0.46513764   -5.6545492    1707.2869  0.028806218  0.027949272         3912 
 4940000   0.45818952    -5.640942    1704.8802  0.028759788  0.027940806         3926 
 4941000   0.45560305   -5.6420482    1707.8943  0.028804802  0.027932346         3900 
 4942000   0.47238147   -5.6517678    1708.8755  0.028815519  0.027923897         3912 
 4943000   0.45484251   -5.6406297    1704.8081  0.028741118  0.027915441         3926 
 4944000   0.46213224   -5.6317148    1708.1242  0.028791198  0.027906986         3900 
 4945000   0.45509802   -5.6483107    1712.4869  0.028858897  0.027898532         3917 
 4946000   0.45574894   -5.6549982    1706.7715  0.028756764  0.027890077         3899 
 4947000   0.46186577   -5.6432479    1709.4423  0.028795942   0.02788163         3917 
 4948000   0.46162266   -5.6511088    1705.4894  0.028723549  0.027873191         3930 
 4949000   0.46870087   -5.6475723    1710.3057  0.028798843  0.027864751         3894 
 4950000   0.46484202   -5.6400445    1707.8203  0.028751183  0.027856316         3929 
 4951000   0.45747243   -5.6500114    1710.7512  0.028794709  0.027847878         3921 
 4952000   0.46125315   -5.6454969    1711.0863  0.028794533  0.027839439         3904 
 4953000   0.45574571   -5.6487466    1705.1133  0.028688224  0.027831012         3891 
 4954000   0.45275704   -5.6567587    1705.6943  0.028692207  0.027822577         3911 
 4955000   0.45824968   -5.6591954     1705.276  0.028679381  0.027814139         3912 
 4956000    0.4601803    -5.641988    1706.7596   0.02869854  0.027805702         3903 
 4957000   0.45927371   -5.6589679    1709.4329  0.028737692  0.027797276         3915 
 4958000   0.45631354   -5.6525928    1705.9436  0.028673248  0.027788854         3904 
 4959000   0.46135998   -5.6440915    1707.3078  0.028690391  0.027780439         3907 
 4960000   0.45546342     -5.65084    1708.2425   0.02870031  0.027772016         3922 
 4961000   0.45726161   -5.6610757      1705.78  0.028653162  0.027763604         3892 
 4962000   0.45064145   -5.6540162    1708.7919  0.028697969   0.02775519         3915 
 4963000   0.45423543   -5.6586894    1707.7388  0.028674505  0.027746782         3927 
 4964000   0.46102679   -5.6633708    1706.7868  0.028652746  0.027738369         3917 
 4965000    0.4651573   -5.6552778    1705.3269  0.028622472  0.027729957         3911 
 4966000   0.45427597   -5.6559782    1704.2186   0.02859811  0.027721548         3910 
 4967000     0.458588   -5.6546338    1705.7735   0.02861844  0.027713141         3904 
 4968000   0.44512577    -5.660163      1705.89  0.028614634  0.027704743         3927 
 4969000   0.46312472   -5.6562114    1711.2796  0.028699263   0.02769635         3922 
 4970000   0.46033962   -5.6561725    1706.4102  0.028611842  0.027687956         3916 
 4971000   0.44909842   -5.6648104    1706.6328  0.028609817  0.027679562         3920 
 4972000    0.4553348   -5.6492749    1709.9729  0.028660045  0.027671175         3922 
 4973000   0.45887852   -5.6573559    1706.3681  0.028593875  0.027662786         3923 
 4974000   0.45626365   -5.6426483    1708.6763  0.028626798  0.027654404         3898 
 4975000   0.46076673   -5.6527548     1706.119  0.028578207   0.02764602         3890 
 4976000   0.46598471   -5.6715713    1705.9346  0.028569377  0.027637644         3912 
 4977000   0.45579974   -5.6615667    1706.0097  0.028564893  0.027629273         3924 
 4978000   0.46161815   -5.6591868    1708.1418  0.028594847  0.027620905         3932 
 4979000     0.460635   -5.6623571    1707.3264  0.028575458  0.027612535         3921 
 4980000   0.45603048   -5.6592625    1710.2019  0.028617836  0.027604168         3915 
 4981000    0.4660028   -5.6751671    1704.7578  0.028521011  0.027595805         3919 
 4982000   0.45612771   -5.6560259    1706.8697  0.028550611  0.027587448         3904 
 4983000   0.45421449   -5.6727134    1706.1052  0.028532095  0.027579092         3903 
 4984000   0.44871359   -5.6577532    1708.8227  0.028571807  0.027570729         3916 
 4985000   0.44830712    -5.660759    1706.2891  0.028523723  0.027562382         3924 
 4986000   0.45438013   -5.6752739    1708.2795  0.028551269  0.027554027         3917 
 4987000   0.45469297   -5.6614691    1706.8879   0.02852229  0.027545677         3920 
 4988000   0.45662018   -5.6632437    1710.2565  0.028572849  0.027537333         3909 
 4989000   0.46487149   -5.6689117    1708.1405  0.028531778  0.027528997         3917 
 4990000   0.45640918   -5.6541995     1706.711  0.028502188  0.027520657         3896 
 4991000   0.45867703   -5.6571063    1705.2166  0.028471525  0.027512316         3917 
 4992000   0.44683203    -5.659441    1707.8803  0.028510288  0.027503985         3912 
 4993000   0.45908787   -5.6580005    1703.4143  0.028430041  0.027495666         3888 
 4994000   0.45271068   -5.6639189    1704.2475  0.028438251  0.027487341         3916 
 4995000   0.45926515   -5.6508395    1704.9422  0.028444147  0.027479017         3904 
 4996000   0.44815421   -5.6719722    1707.0158  0.028473042  0.027470699         3907 
 4997000    0.4401512   -5.6579403    1707.3777  0.028473379  0.027462383         3926 
 4998000   0.44032669     -5.67204    1705.0183  0.028428343  0.027454065         3924 
 4999000   0.45286264   -5.6686481     1701.859   0.02836999  0.027445743         3927 
 5000000   0.45222313   -5.6585544    1707.1772  0.028452953  0.027437428         3921 
 5001000   0.45563973   -5.6714726    1704.4448  0.028401734  0.027429128         3915 
 5002000   0.44220983   -5.6611835    1707.0317  0.028439152  0.027420823         3908 
 5003000   0.45279691   -5.6547188    1707.5403  0.028441939  0.027412518         3891 
 5004000   0.45568274   -5.6709902    1707.4737  0.028435146  0.027404217         3908 
 5005000   0.45192393   -5.6670163    1707.1323  0.028423781  0.027395918         3916 
 5006000   0.45097361   -5.6754771    1706.7385  0.028411548  0.027387616         3928 
 5007000   0.44873622   -5.6554368    1703.3537  0.028349538  0.027379308         3939 
 5008000   0.43955941   -5.6560172    1703.7997    0.0283513  0.027371016         3929 
 5009000   0.45190875   -5.6758298    1705.2429  0.028369649  0.027362722         3924 
 5010000    0.4483616   -5.6719961    1701.8423  0.028307424  0.027354433         3923 
 5011000   0.44276134   -5.6571636    1703.2914  0.028325874  0.027346139         3963 
 5012000   0.44649003   -5.6616376    1705.4272  0.028355734  0.027337854         3933 
Loop time of 12599.7 on 48 procs for 5000000 steps with 4000 atoms

Performance: 68573.112 tau/day, 396.835 timesteps/s
99.4% CPU use with 48 MPI tasks x no OpenMP threads

MPI task timing breakdown:
Section |  min time  |  avg time  |  max time  |%varavg| %total
---------------------------------------------------------------
Pair    | 886.28     | 950.27     | 1017       |  99.5 |  7.54
Neigh   | 84.507     | 88.166     | 92.169     |  20.2 |  0.70
Comm    | 803.27     | 866.38     | 943.68     | 112.9 |  6.88
Output  | 58.927     | 58.931     | 59.012     |   0.2 |  0.47
Modify  | 10483      | 10520      | 10558      |  16.7 | 83.49
Other   |            | 116.2      |            |       |  0.92

Nlocal:        83.3333 ave          88 max          77 min
Histogram: 3 2 5 4 4 4 7 6 5 8
Nghost:        2364.02 ave        2403 max        2330 min
Histogram: 6 5 5 6 4 4 4 7 3 4
Neighs:        16293.3 ave       18660 max       13567 min
Histogram: 2 2 4 8 9 4 5 6 2 6
FullNghs:      32588.0 ave       34545 max       30024 min
Histogram: 2 4 4 3 6 3 10 7 3 6

Total # of neighbors = 1564226
Ave neighs/atom = 391.05650
Neighbor list builds = 269510
Dangerous builds = 0

#clear
#
#next RN
#
#jump SELF
Total wall time: 3:30:03
