
units lj                  # Use reduced LJ style units
atom_style atomic         # Uncharged point particles
atom_modify map hash      # Needed for indexing of clusters etc
                          # Used to be able to find where atoms are in relation to each other.

lattice fcc 1.0 spacing 1 1 1
Lattice spacing in x,y,z = 1.5874011 1.5874011 1.5874011
region box block 0 10 0 10 0 10 units lattice
create_box 2 box
Created orthogonal box = (0.0000000 0.0000000 0.0000000) to (15.874011 15.874011 15.874011)
  3 by 4 by 4 MPI processor grid
create_atoms 1 box
Created 4000 atoms
  using lattice units in orthogonal box = (0.0000000 0.0000000 0.0000000) to (15.874011 15.874011 15.874011)
  create_atoms CPU = 0.007 seconds
set type 1 type/fraction 2 0.72 78393
Setting atom values ...
  2894 settings made for type/fraction
mass 1 1.0
mass 2 1.0
pair_style lj/cut  3.5
pair_modify tail  yes
pair_coeff 1  1  1.0  1.0   # Intearaction between 1 and 1 set with epsilon = 1 and sigma = 1
pair_coeff 1  2  1.5  0.8
pair_coeff 2  2  0.5  0.88

write_data data.0
System init for write_data ...
Neighbor list info ...
  update every 1 steps, delay 10 steps, check yes
  max neighbors/atom: 2000, page size: 100000
  master list distance cutoff = 3.8
  ghost atom cutoff = 3.8
  binsize = 1.9, bins = 9 9 9
  1 neighbor lists, perpetual/occasional/extra = 1 0 0
  (1) pair lj/cut, perpetual
      attributes: half, newton on
      pair build: half/bin/atomonly/newton
      stencil: half/bin/3d
      bin: standard
WARNING: Not all mixed pair coeffs generated from mixing. Use write_data with 'pair ij' option to store all pair coeffs. (../write_data.cpp:312)


#############################
#   M E L T   S Y S T E M   #
#############################

velocity all create 2.4 5300450 mom yes dist gaussian # Assign velocities
                                                    # Temperature 2.4, random number seed, zero linear momentum
                                                                                # Gaussian distribution

timestep 0.002   # simulation timestep
thermo 1000       # output thermodynamic data every 1000 steps bf 100

# Define a fix  in this case with index 1 applied to all
# particles in the simulation. This fix is for simulations
# in the anisotropic NPT ensemble. Note that we use the MTK
# correction.
fix 1 all npt temp 2.4 2.4 0.1 iso 5.68 5.68 0.5 mtk yes tchain 5 pchain 5 # Use NPT ensemble
                                                                         # Set temperature and pressure and damping
                                                                         # Numbers of thermostats in chain and in barostat
run 10000          # run for 10000 steps
Per MPI rank memory allocation (min/avg/max) = 3.642 | 3.644 | 3.648 Mbytes
Step Temp E_pair E_mol TotEng Press Volume 
       0          2.4   -4.0785584            0  -0.47945841   -3.6688173         4000 
    1000    2.4033855   -3.6346871            0 -0.030510162    5.8377539    3678.4438 
    2000    2.3803985   -3.6178291            0 -0.048124043    5.6801954    3697.6067 
    3000    2.4175361   -3.6386411            0 -0.013243535    5.8490728    3678.7169 
    4000    2.4047806    -3.703322            0 -0.097052936    5.7900973    3648.2566 
    5000     2.432562   -3.6110543            0   0.03687645    5.7073492    3706.8557 
    6000    2.3997226   -3.6103859            0 -0.011701928    5.7416704    3697.6719 
    7000    2.3659966   -3.6451784            0 -0.097070745    5.6545812    3673.9368 
    8000    2.4257255   -3.6557781            0 -0.018099445    5.4435327    3694.3471 
    9000    2.3500107    -3.593966            0 -0.069831146    5.6426951    3715.6003 
   10000    2.4492161   -3.5926066            0   0.08029904    5.7408583    3715.1989 
Loop time of 2.59941 on 48 procs for 10000 steps with 4000 atoms

Performance: 664767.094 tau/day, 3847.032 timesteps/s
99.6% CPU use with 48 MPI tasks x no OpenMP threads

MPI task timing breakdown:
Section |  min time  |  avg time  |  max time  |%varavg| %total
---------------------------------------------------------------
Pair    | 1.1867     | 1.2494     | 1.2903     |   2.2 | 48.07
Neigh   | 0.21451    | 0.22331    | 0.23396    |   0.8 |  8.59
Comm    | 0.81718    | 0.87153    | 0.95845    |   3.2 | 33.53
Output  | 0.00025416 | 0.00025835 | 0.00032258 |   0.0 |  0.01
Modify  | 0.22118    | 0.23955    | 0.26376    |   2.6 |  9.22
Other   |            | 0.01531    |            |       |  0.59

Nlocal:        83.3333 ave          98 max          71 min
Histogram: 1 4 8 1 14 12 3 4 0 1
Nghost:        1720.65 ave        1748 max        1693 min
Histogram: 2 1 7 6 7 8 7 6 3 1
Neighs:        10258.0 ave       12204 max        8627 min
Histogram: 1 4 6 6 10 11 6 2 1 1

Total # of neighbors = 492384
Ave neighs/atom = 123.09600
Neighbor list builds = 909
Dangerous builds = 235

# Equilibrate just above the melting temperature to avoid step fn in T

fix 1 all npt temp 1.25 1.25 0.1 iso 5.68 5.68 0.5 mtk yes tchain 5 pchain 5
run 2000
Per MPI rank memory allocation (min/avg/max) = 3.644 | 3.646 | 3.649 Mbytes
Step Temp E_pair E_mol TotEng Press Volume 
   10000    2.4492161   -3.5926066            0   0.08029904    5.7408583    3715.1989 
   11000    1.2506575   -5.3759085            0   -3.5003913    5.3496252    2829.8885 
   12000    1.2512665   -5.3983111            0   -3.5218806    5.5697807    2811.1393 
Loop time of 0.645093 on 48 procs for 2000 steps with 4000 atoms

Performance: 535737.046 tau/day, 3100.330 timesteps/s
99.7% CPU use with 48 MPI tasks x no OpenMP threads

MPI task timing breakdown:
Section |  min time  |  avg time  |  max time  |%varavg| %total
---------------------------------------------------------------
Pair    | 0.29697    | 0.32013    | 0.33494    |   1.9 | 49.63
Neigh   | 0.041038   | 0.043129   | 0.044984   |   0.4 |  6.69
Comm    | 0.21513    | 0.23257    | 0.25848    |   2.5 | 36.05
Output  | 5.2416e-05 | 5.4075e-05 | 6.8917e-05 |   0.0 |  0.01
Modify  | 0.041164   | 0.044256   | 0.047979   |   0.9 |  6.86
Other   |            | 0.004958   |            |       |  0.77

Nlocal:        83.3333 ave          92 max          73 min
Histogram: 1 0 3 3 10 16 9 3 1 2
Nghost:        2083.12 ave        2108 max        2056 min
Histogram: 2 1 3 6 8 13 6 6 0 3
Neighs:        13599.8 ave       14879 max       11792 min
Histogram: 1 0 0 9 12 4 10 4 3 5

Total # of neighbors = 652790
Ave neighs/atom = 163.19750
Neighbor list builds = 142
Dangerous builds = 10

#############################
# L I N E A R  Q U E N C H  #
#############################

# Define solid atoms. This closely follows ten Wolde  Ruiz-Montero and Frenkel  Faraday Discuss  1996  104  93-110
# Compute components of the per-atom q6 vector
compute q6 all orientorder/atom degrees 1 6 components 6 nnn NULL cutoff 1.3 # compute the Q6 parameter.
                                                                             # Use all neighbours within 1.3 unit cell.

# get number of connections
compute coord_number all coord/atom orientorder q6 0.5

# An atom is solid if it has 8 or more connections (of a possible 14)
variable is_solid atom c_coord_number>=8
group solid dynamic all var is_solid    # Must be dynamic to update
dynamic group solid defined

# do clustering
compute cluster solid cluster/atom 1.3 # Create a cluster where all atoms within are solid and max 1.3 units from another member

# define chunks one chunk per cluster
compute clus_chunks solid chunk/atom c_cluster nchunk every compress yes  # Says which atoms are in which chunk

# count the size of each chunk
compute size_chunks solid property/chunk clus_chunks count


# Find the maximum entry in the vector of chunk sizes
variable max_n equal max(c_size_chunks)


# Thermo style which includes this variable
# thermo_style custom step temp pe vol v_max_n

thermo ${N}  # Print the thermo information every 100 steps
thermo 1000  

# Reset the npt fix at a lower temperature (below freezing)
fix 1  all npt temp  ${temp} ${temp}  0.1  iso  5.68  5.68  0.5  mtk yes tchain  5  pchain  5
fix 1  all npt temp  0.45 ${temp}  0.1  iso  5.68  5.68  0.5  mtk yes tchain  5  pchain  5
fix 1  all npt temp  0.45 0.45  0.1  iso  5.68  5.68  0.5  mtk yes tchain  5  pchain  5

dump dmp2 all dcd ${N} traj.dcd
dump dmp2 all dcd 1000 traj.dcd


compute msd all msd com yes
variable twopoint equal c_msd[4]/6/(step*dt+1.0e-6)
fix 9 all vector 10 c_msd[4]
variable fit equal slope(f_9)/6/(10*dt)
thermo_style custom step temp pe c_msd[4] v_twopoint v_fit v_max_n

fix 1 all npt temp 1.25 ${temp} 0.1 iso 5.68 5.68 0.5 mtk yes tchain 5 pchain 5
fix 1 all npt temp 1.25 0.45 0.1 iso 5.68 5.68 0.5 mtk yes tchain 5 pchain 5
run 2000000 # 5000000  # Run for this many steps
Neighbor list info ...
  update every 1 steps, delay 10 steps, check yes
  max neighbors/atom: 2000, page size: 100000
  master list distance cutoff = 3.8
  ghost atom cutoff = 3.8
  binsize = 1.9, bins = 8 8 8
  4 neighbor lists, perpetual/occasional/extra = 1 3 0
  (1) pair lj/cut, perpetual
      attributes: half, newton on
      pair build: half/bin/atomonly/newton
      stencil: half/bin/3d
      bin: standard
  (2) compute orientorder/atom, occasional
      attributes: full, newton on
      pair build: full/bin/atomonly
      stencil: full/bin/3d
      bin: standard
  (3) compute coord/atom, occasional
      attributes: full, newton on
      pair build: full/bin/atomonly
      stencil: full/bin/3d
      bin: standard
  (4) compute cluster/atom, occasional
      attributes: full, newton on
      pair build: full/bin/atomonly
      stencil: full/bin/3d
      bin: standard
Per MPI rank memory allocation (min/avg/max) = 9.840 | 9.848 | 9.852 Mbytes
Step Temp PotEng c_msd[4] v_twopoint v_fit v_max_n 
   12000    1.2512665   -5.3983111 8.2692344e-31 5.7425237e-33 8.3333333e+20            2 
   13000    1.2547005    -5.412767   0.64015541 0.0041035602  0.053976473            1 
   14000     1.239927    -5.436121      1.28812 0.0076673805  0.052931348            1 
   15000    1.2385545   -5.4089948    1.9509814  0.010838785  0.053843829            2 
   16000    1.2399942   -5.4337786    2.5925578  0.013502905   0.05380557            2 
   17000    1.2494715   -5.4075232    3.2442861  0.015903363  0.053910087            2 
   18000     1.243213   -5.4800206    3.8301211  0.017732042  0.053638815            3 
   19000    1.2454652   -5.4315814    4.5209989  0.019828942  0.053586802            3 
   20000      1.20949   -5.3975979     5.150909   0.02146212  0.053622592            1 
   21000    1.2707664   -5.3991072    5.8413377  0.023179911  0.053656233            3 
   22000    1.2158197   -5.3911213    6.4274985  0.024346585  0.053611283            1 
   23000    1.2482567   -5.4619706     7.002204  0.025370304  0.053468803            2 
   24000    1.2385813   -5.4754929    7.6300311  0.026493163  0.053265382            2 
   25000    1.2622807   -5.4096466    8.4668368  0.028222789  0.053345266            1 
   26000    1.2614025   -5.4558741    9.1046412  0.029181542  0.053639904            3 
   27000    1.2445362   -5.4206773    9.9046501  0.030569907  0.054015971            1 
   28000    1.2418516   -5.4005833    10.615088  0.031592522  0.054433183            3 
   29000    1.2437385   -5.4536504    11.187744  0.032148689   0.05474279            4 
   30000    1.2495504   -5.4437946    11.865414  0.032959482    0.0548808            1 
   31000    1.2432325   -5.4290041    12.561262  0.033766832  0.055034595            6 
   32000    1.2311049   -5.4665117    13.237589  0.034472887  0.055147755            2 
   33000    1.2427995   -5.4540118    13.879827  0.035050067  0.055191836            1 
   34000    1.2351072   -5.4244915    14.410533  0.035319932  0.055149965            2 
   35000    1.2510816    -5.475963    14.888346  0.035448442  0.054996246            4 
   36000    1.2412157    -5.500335    15.337866  0.035504319  0.054746421            4 
   37000     1.200639   -5.4324792    16.098925  0.036258839  0.054511806            3 
   38000    1.2516969   -5.4580526    16.659273  0.036533492  0.054330473            5 
   39000    1.2485143   -5.4275764    17.362664  0.037099709  0.054182487            2 
   40000    1.2448116   -5.4697429      17.7251  0.036927291  0.053989979            2 
   41000     1.235222   -5.4467854    18.376629  0.037350871  0.053735162            3 
   42000    1.2151336   -5.4666295    19.110625  0.037917906  0.053566287            1 
   43000    1.2163231   -5.4290443    19.754348  0.038283619  0.053448085            1 
   44000     1.256407   -5.4387224    20.360801  0.038562123   0.05331912            1 
   45000    1.2259704   -5.4623112    20.875983  0.038659227  0.053200996            2 
   46000      1.22224   -5.4680193    21.673702  0.039263953  0.053116376            2 
   47000    1.2426717   -5.4939965    22.284038  0.039510705  0.053061835            2 
   48000    1.2796245    -5.421873    23.016841  0.039959792  0.053039346            3 
   49000    1.2224929   -5.4686832    23.537634  0.040029989  0.052998368            3 
   50000    1.2054953   -5.4463606    24.332525  0.040554207  0.052957223            2 
   51000    1.2325636   -5.4015525    25.054466  0.040938669  0.052970995            2 
   52000     1.234713   -5.4897236    25.686025  0.041163501  0.053012445            1 
   53000    1.2155029    -5.444296     26.25319    0.0412786  0.053040455            3 
   54000    1.2215699   -5.4493329    26.948708  0.041587512  0.053077329            2 
   55000    1.2345121   -5.4604172    27.825247  0.042159465  0.053107825            2 
   56000    1.2112543   -5.4933643    28.351744  0.042190095  0.053157162            1 
   57000    1.2235004   -5.4723137    29.141338  0.042604296  0.053213732            2 
   58000    1.2367267   -5.4488491    29.794174   0.04280772  0.053292892            2 
   59000    1.2132898   -5.4434321    30.546195  0.043144343  0.053367852            1 
   60000    1.2384251   -5.4315767    31.066689  0.043148178  0.053427843            3 
   61000    1.2514976   -5.4778429    31.522405  0.043063395  0.053460799            1 
   62000    1.2218146   -5.4767018    32.373446  0.043512696  0.053493016            2 
   63000    1.2432248   -5.4782603    32.880059  0.043492141  0.053521734            2 
   64000    1.2037725   -5.4773817    33.688739  0.043865545  0.053571604            1 
   65000    1.2177008   -5.4709143    34.451634  0.044168761  0.053625683            3 
   66000     1.201556   -5.4967846    34.902437  0.044068733  0.053658374            2 
   67000    1.2311969   -5.4703059    35.474254  0.044122206  0.053685077            1 
   68000    1.2459546   -5.4284554    36.376287  0.044578783  0.053702287            4 
   69000    1.2470978   -5.4773579    36.908525  0.044575513  0.053744164            3 
   70000    1.2230883   -5.4769767    37.544627  0.044695984  0.053762691            2 
   71000    1.2074875   -5.4656131    38.261116  0.044907413  0.053761006            3 
   72000    1.2218928    -5.481717    38.667017  0.044753491  0.053779122            2 
   73000    1.2245375   -5.4718271    39.347671  0.044917432  0.053778549            2 
   74000     1.247883   -5.4644556    40.135974  0.045198168  0.053776853            8 
   75000    1.2261048   -5.4315287    40.837309  0.045374788  0.053789842            2 
   76000    1.2324609   -5.4823329    41.212354  0.045188984  0.053790671            2 
   77000     1.237546   -5.4386124    41.608544  0.045030892  0.053757621            2 
   78000     1.241922   -5.4506809    42.014523   0.04488731  0.053699235            3 
   79000    1.2309777   -5.4499805    42.571353  0.044906491  0.053628584            5 
   80000    1.2183657   -5.4882088    42.921487  0.044709882   0.05355204            4 
   81000    1.2099715   -5.4816026    43.730229  0.044989947  0.053479227            2 
   82000     1.243664   -5.4822364    44.124888  0.044842365  0.053401107            3 
   83000    1.2249057   -5.4530993    44.874805  0.045055025   0.05331281            4 
   84000    1.1991355   -5.4790783    45.384929  0.045024731  0.053234854            2 
   85000    1.1996948   -5.5113345    45.759521  0.044862276  0.053164722            4 
   86000    1.2518075   -5.5124354    46.406026  0.044967079  0.053090981            3 
   87000    1.2433659   -5.4975712    47.110633  0.045125127  0.053013101            2 
   88000    1.2300999   -5.4882407    47.799392  0.045264575  0.052937506            2 
   89000     1.227885   -5.5005632    48.130995  0.045066475  0.052859795            1 
   90000    1.1973803     -5.50253    48.297521  0.044719927  0.052766571            5 
   91000    1.2024111   -5.4926053    48.834824  0.044720535  0.052656193            2 
   92000    1.2191486   -5.5319314     49.34742   0.04469875  0.052549378            2 
   93000    1.2237709   -5.4655356    50.301475  0.045073006  0.052451081            6 
   94000    1.2450257    -5.476946    50.866613  0.045094515   0.05236202            3 
   95000    1.2181928   -5.5104072    51.417018  0.045102647  0.052283311            6 
   96000    1.2081406   -5.4603388    52.048169  0.045180702  0.052199971            3 
   97000    1.2193267   -5.4931655    52.217405  0.044860313  0.052117718            2 
   98000     1.214337   -5.5103159    52.932952  0.045011013  0.052025064            4 
   99000     1.232964   -5.5101374    53.522713  0.045052789  0.051935024            2 
  100000    1.1961844   -5.4993746    54.066928  0.045055773  0.051856542            3 
  101000    1.2407907   -5.4763529      54.7792   0.04519736  0.051783135            2 
  102000     1.210981   -5.4485617    55.400096  0.045261516  0.051707015            2 
  103000    1.1970665   -5.5046101    55.642051   0.04501784  0.051631094            3 
  104000    1.1837687   -5.4841623    55.903605  0.044794555  0.051549103            5 
  105000    1.2152187   -5.5053424    56.646225  0.044957321   0.05146524            2 
  106000    1.2110441   -5.5114153    57.369543  0.045101842  0.051387339            6 
  107000    1.2184799   -5.5157822     57.81647  0.045028403  0.051313376            2 
  108000     1.189327   -5.4807677    58.571158  0.045193795  0.051231487            2 
  109000    1.1866491   -5.5112335     59.17867  0.045243632  0.051160335            2 
  110000    1.2060153   -5.5512513    59.505401  0.045079849  0.051091798            3 
  111000    1.1880016   -5.4697408     60.50026  0.045420616  0.051030471            1 
  112000    1.2124285      -5.4881    60.968438  0.045363421  0.050972076            2 
  113000    1.2039261   -5.5419985    61.146147  0.045093028  0.050910523            1 
  114000    1.1981259   -5.4864591    61.903942   0.04525142  0.050842956            1 
  115000    1.2090077    -5.515735    62.293871  0.045140486  0.050779632            2 
  116000    1.2396377    -5.536321     63.08284  0.045318132  0.050720414            2 
  117000    1.1981636   -5.4950755    63.521063  0.045242922  0.050662587            2 
  118000    1.2243402   -5.4949193    64.111656  0.045276593  0.050599744            1 
  119000    1.2300973   -5.5093536    64.941967  0.045477567  0.050543595            4 
  120000    1.2044219   -5.5259002    65.248115  0.045311191  0.050496886            1 
  121000    1.1813496   -5.5426194    66.222655  0.045607889  0.050449659            2 
  122000    1.2019206   -5.5423601    66.496046  0.045420797  0.050406916            1 
  123000    1.1737091   -5.5056013    67.433336  0.045686542  0.050369141            2 
  124000    1.2213205   -5.5490462    67.757369  0.045535866  0.050332045            2 
  125000    1.2003304   -5.5337859    68.428051    0.0456187  0.050291567            6 
  126000    1.2361653   -5.4854227     69.34609  0.045863816  0.050262073            2 
  127000    1.2137832   -5.4865834    69.909606  0.045872445  0.050238304            3 
  128000    1.1836216   -5.4885833    70.612205  0.045971487  0.050211887            2 
  129000    1.2150147   -5.4902048    70.919753  0.045813794  0.050185107            2 
  130000    1.2420361   -5.5056503    71.091332  0.045571366  0.050152589            2 
  131000    1.1970246   -5.5944545    71.803395   0.04567646    0.0501199            5 
  132000    1.2117147   -5.5514942    72.456533  0.045742761  0.050089311            2 
  133000    1.2161866   -5.5066024    72.996504  0.045737158  0.050058165            3 
  134000     1.183949   -5.5104111    73.440186  0.045671757  0.050025127            1 
  135000    1.1806962   -5.5701285     73.79794  0.045554284  0.049984684            4 
  136000    1.2031533   -5.5157655    74.601107  0.045711463  0.049948066            2 
  137000    1.1948477   -5.5367944    75.300505  0.045803227  0.049912319            2 
  138000    1.1750092   -5.5404274    75.484889  0.045582662  0.049874454            4 
  139000    1.1617165    -5.503032    75.719481  0.045395372  0.049832504            2 
  140000    1.1850154   -5.5273147    76.747772  0.045683198  0.049792463            8 
  141000    1.2089641   -5.5204874    77.071569  0.045550572  0.049753499            2 
  142000    1.2015811   -5.5550277    77.903494  0.045718013  0.049711581            4 
  143000    1.1946426   -5.5520956    78.402279  0.045688974  0.049671924            6 
  144000    1.2114391   -5.5383262    79.189513  0.045827264  0.049638682            1 
  145000    1.2206062   -5.5177603    79.763121  0.045840874  0.049612241            4 
  146000    1.1949589   -5.5071172    80.501347  0.045948257  0.049590123            3 
  147000    1.1802666   -5.5139382    81.028833  0.045934713  0.049569972            1 
  148000    1.1924826    -5.559043    81.815237  0.046067138  0.049545857            4 
  149000    1.2004389    -5.537406    82.429678  0.046101609  0.049524541            2 
  150000    1.1859679   -5.5386699    83.071267  0.046150704  0.049504348            2 
  151000    1.1702651   -5.5414821    83.569828  0.046120214  0.049484033            2 
  152000    1.2066523   -5.5491083    84.241694  0.046185139  0.049471081            5 
  153000    1.2021526   -5.5360815    85.019852  0.046307109  0.049458319            2 
  154000    1.1757827   -5.5284989    84.955452  0.045971565  0.049439545            2 
  155000    1.1938798   -5.5524707    85.529869    0.0459838  0.049421534            4 
  156000    1.1871632   -5.5614068    85.915328   0.04589494  0.049398804            3 
  157000    1.1803883   -5.5468128    86.611953  0.045972374  0.049375653            2 
  158000    1.1930858   -5.5209396    87.254673  0.046020397  0.049348898            3 
  159000    1.1933654   -5.5396341    88.217973  0.046235835  0.049327069            1 
  160000    1.2097449   -5.5548463    88.372948  0.046027577  0.049311109            3 
  161000    1.1905275   -5.5734589    88.907598  0.046018425  0.049289141            2 
  162000    1.1851487   -5.5788734    89.393423  0.045984271  0.049266963            2 
  163000    1.1837833   -5.5033004    90.437026  0.046235698  0.049252442            3 
  164000    1.1628962   -5.5502971    90.425132   0.04594773   0.04923633            2 
  165000    1.2008054   -5.5580982     91.15899  0.046039894  0.049221248            3 
  166000    1.1806301   -5.5473334    91.792271  0.046080457  0.049206098            2 
  167000    1.1888119   -5.5406311    92.562991  0.046189117  0.049188527            3 
  168000    1.1953757   -5.5500745      93.0918  0.046176488  0.049168753            2 
  169000    1.1712569   -5.5495979    93.251355   0.04598193   0.04914567            6 
  170000    1.2066628   -5.5832468    93.686424  0.045924717  0.049125988            2 
  171000    1.1637031   -5.5394797     94.61978  0.046111004  0.049105868            3 
  172000    1.2105403   -5.5467032    94.804322  0.045932326  0.049087095            2 
  173000    1.1686332   -5.5766532    95.433859  0.045970067  0.049065443            4 
  174000    1.2028241   -5.5218409    96.451572  0.046193281  0.049045502            3 
  175000    1.1980603   -5.6011463    96.630141  0.046014353  0.049024559            2 
  176000     1.199007   -5.5533277    96.879811  0.045871123  0.049002694            2 
  177000    1.1666022   -5.5586375    97.917837  0.046100676   0.04897838            6 
  178000    1.2113266   -5.5563163    98.072038  0.045913875   0.04895852            3 
  179000    1.1649411   -5.5878504    99.311304  0.046234313  0.048942029            3 
  180000    1.1855804   -5.5566875    99.526097  0.046076897  0.048923384            2 
  181000    1.1930763   -5.5896923    99.586209  0.045850004   0.04890261            2 
  182000    1.1645057   -5.5406772     100.5372  0.046033518  0.048878461            3 
  183000    1.1707728   -5.5390596    101.25598  0.046109279  0.048858688            2 
  184000    1.1773905   -5.5245724    101.61117  0.046019554  0.048841461            2 
  185000    1.1829227   -5.5574178    102.31265  0.046086778   0.04881894            6 
  186000    1.1900627    -5.556762    102.40583   0.04588075  0.048797206            4 
  187000     1.192184   -5.5627415    103.22697  0.046001324    0.0487727            2 
  188000    1.2171154   -5.5787734    103.46217  0.045860891  0.048749266            5 
  189000     1.164278   -5.5531252    104.09214  0.045896006  0.048729161            2 
  190000     1.140718   -5.5969929    104.53954  0.045850673  0.048708923            2 
  191000    1.1719163   -5.5535517    105.78377  0.046153476  0.048691093            3 
  192000    1.2059095   -5.5472073    106.35551  0.046161247  0.048673816            2 
  193000      1.17373   -5.6140807    106.08592  0.045805665  0.048654342            2 
  194000    1.1696425   -5.5590144    107.50595   0.04617953  0.048637541            4 
  195000    1.1751616   -5.5882742    107.36817  0.045883833  0.048624907            4 
  196000    1.1673978   -5.5985144    108.49345  0.046128165  0.048612109            1 
  197000    1.1939642   -5.5680562    109.01729  0.046115607  0.048596119            2 
  198000    1.1674568   -5.5870485    109.27544  0.045991346  0.048577602            4 
  199000    1.1665593   -5.5639306    110.07584  0.046095412  0.048557723            4 
  200000    1.1679867   -5.5807192    110.09885   0.04587452  0.048538058            3 
  201000    1.1782124   -5.6044522    110.19377  0.045685642  0.048513778            4 
  202000    1.1525216   -5.5519407    111.30092  0.045916222  0.048484103            2 
  203000    1.1491577   -5.6009869     111.2303  0.045661043  0.048457029            2 
  204000    1.1908818   -5.5628536     112.1755  0.045823325   0.04842931            3 
  205000    1.1870213   -5.5421105    112.24501  0.045628052  0.048400989            3 
  206000    1.1843141   -5.6038741     112.0693  0.045335479  0.048370949            4 
  207000    1.1700384   -5.5877109    112.89968  0.045450757  0.048336369            3 
  208000    1.1551252   -5.5913471    113.73407  0.045566536  0.048305382            6 
  209000    1.1580208   -5.5668101    114.11467  0.045500266  0.048275229            2 
  210000    1.1960102   -5.5331357    114.69456  0.045513713  0.048245653            2 
  211000    1.1875418   -5.5671017    114.77123  0.045328289  0.048213452            3 
  212000    1.1629324   -5.5756458    115.62251  0.045449099  0.048176478            2 
  213000    1.1436862   -5.6030128    115.76192  0.045290266  0.048142234            2 
  214000    1.1832583   -5.5890695    116.70019     0.045444  0.048108368            3 
  215000    1.1569319   -5.5538257    116.58316  0.045187271  0.048072833            3 
  216000    1.1562992   -5.5645056    117.62328  0.045379351  0.048036951            2 
  217000    1.1642959   -5.5736205    117.72201  0.045208146  0.047998675            6 
  218000    1.1684926   -5.6074891    118.15773  0.045167326   0.04796167            5 
  219000    1.1517441   -5.5944313    118.72325  0.045176274  0.047924416            2 
  220000    1.1425802   -5.6035873    118.91014  0.045041721  0.047889064            2 
  221000    1.1408515   -5.5521029    119.64034   0.04511325  0.047851242            8 
  222000    1.1584699   -5.6133318    119.92905  0.045018411  0.047815375            1 
  223000    1.1889374   -5.5991518    120.84905  0.045160334  0.047779276            2 
  224000     1.157844   -5.6326512    120.50849  0.044832029   0.04774375            1 
  225000    1.1622371   -5.6110457    121.74856  0.045092059  0.047708094            3 
  226000     1.167977   -5.5859513    122.50852  0.045172757  0.047674311            5 
  227000    1.1771413   -5.5859823    122.42415  0.044942785  0.047638563            2 
  228000    1.1673128   -5.5939564    123.05226   0.04497524  0.047604538            3 
  229000    1.1592065   -5.6085292     124.0575  0.045144651  0.047571523            2 
  230000    1.1864449   -5.5717412    124.47456  0.045099479   0.04753824            4 
  231000    1.1769944   -5.5821026    124.74785   0.04500283  0.047506142            2 
  232000    1.1682444   -5.5846436    125.02379  0.044907972  0.047471212            2 
  233000    1.1494998    -5.614524    125.42055  0.044857136  0.047437724            3 
  234000    1.1762282   -5.6087596    126.40534  0.045016148  0.047403992            1 
  235000    1.1801619   -5.6555156     126.2741  0.044778049  0.047369589            3 
  236000     1.153077   -5.6501276    127.25867   0.04493597  0.047338907            4 
  237000    1.1732148   -5.5936731    127.93675  0.044984793  0.047308283            2 
  238000    1.1584845   -5.6335893    128.45839  0.044978429  0.047276334            1 
  239000    1.1787261   -5.5934109    128.78748  0.044904977  0.047245527            1 
  240000    1.1702497   -5.6365189     128.4418  0.044597847  0.047211525            3 
  241000    1.1706871   -5.6139277    128.77696  0.044528684  0.047174434            7 
  242000    1.1681139   -5.6264295    129.90617  0.044733529  0.047138337            2 
  243000      1.12558   -5.6597259    130.69191    0.0448189  0.047103882            3 
  244000    1.1303768   -5.6004855    131.21529  0.044813966  0.047070306            3 
  245000    1.1410682   -5.6082056    131.46045   0.04471444  0.047038845            6 
  246000    1.1577562   -5.5841827    132.28989  0.044813648  0.047007942            3 
  247000    1.1469974   -5.5932601     132.9873   0.04486751  0.046977452            2 
  248000    1.1714313   -5.5907103    133.95308  0.045011116  0.046948439            3 
  249000    1.1381335   -5.6125074    133.60438  0.044713648  0.046919625            1 
  250000    1.1466332   -5.6124638    134.62955  0.044876518  0.046892116            3 
  251000    1.1854953   -5.6262049    134.67961  0.044714345  0.046865712            2 
  252000    1.1755625   -5.6231137    135.07989  0.044669276  0.046837351            3 
  253000    1.1482704   -5.6725306     135.4214  0.044605204   0.04680999            5 
  254000    1.1619144   -5.5945443    136.91202  0.044918643  0.046780851            2 
  255000    1.1746647   -5.6123582    137.04969   0.04478748  0.046755921            3 
  256000    1.1572171   -5.6413869    137.34761  0.044709509  0.046728487            5 
  257000    1.1320774   -5.6142058     137.5844  0.044612322  0.046699634            3 
  258000    1.1448677   -5.6001802     138.5706  0.044757946  0.046672574            2 
  259000    1.1555542   -5.6112386    138.34633  0.044512975  0.046645029            2 
  260000    1.1772281   -5.6446438     139.0547  0.044568813  0.046616678            4 
  261000    1.1390151   -5.5922357    139.85692   0.04465419  0.046588803            2 
  262000    1.1452596   -5.6448261    139.95627  0.044515353  0.046560254            3 
  263000    1.1392931    -5.611755    141.00371  0.044677982  0.046530417            3 
  264000    1.1315269   -5.6217666    140.85727  0.044462523  0.046500741            2 
  265000    1.1159108   -5.6196697    142.34864  0.044763722  0.046472454            1 
  266000     1.120379   -5.6331455    142.43593  0.044622785  0.046446615            1 
  267000    1.1539507   -5.5868274    143.41238  0.044760417   0.04642212            4 
  268000    1.1731508   -5.6584645    143.02115  0.044471749  0.046399353            2 
  269000    1.1551175   -5.6204989    144.12459  0.044648261  0.046373036            3 
  270000      1.13761   -5.6406021    143.79846   0.04438224  0.046347107            3 
  271000    1.1593029   -5.6296323    144.67162  0.044486969  0.046320645            2 
  272000    1.1361137   -5.6426224    144.75167  0.044347937  0.046293445            3 
  273000    1.1457788   -5.6550844    145.51848  0.044419562    0.0462658            2 
  274000    1.1525772   -5.6260647    145.81494  0.044347609   0.04623738            2 
  275000    1.1507078   -5.6538279    146.03533  0.044253129  0.046209329            3 
  276000    1.1490346   -5.6251382    146.74018  0.044305611  0.046180866            3 
  277000    1.1235057   -5.6433462    146.89392  0.044191913   0.04615285            3 
  278000    1.1259866   -5.6543658     146.8325   0.04401454  0.046122375            2 
  279000    1.1332284   -5.6104973    147.13338  0.043946649  0.046091883            3 
  280000    1.1141761   -5.6473942    148.00069  0.044047826  0.046060534            3 
  281000    1.1185498   -5.6483301    149.04977  0.044202185  0.046029825            4 
  282000    1.1310444    -5.618057    148.78741  0.043967911   0.04599942            2 
  283000     1.142083   -5.6076082    149.46773  0.044012877   0.04596682            2 
  284000    1.1441446   -5.6745305    149.55339  0.043883036  0.045936283            5 
  285000    1.1355573   -5.6505988    149.63628  0.043753298  0.045905184            4 
  286000     1.136963   -5.6589905    150.79163  0.043936956  0.045872767            5 
  287000    1.1314536   -5.6737008    150.62323  0.043734969  0.045839263            2 
  288000    1.1408833   -5.6616122    152.00999  0.043984373  0.045806922            3 
  289000    1.1645809    -5.667331    152.03707  0.043839986  0.045774733            3 
  290000    1.1506209   -5.6369653     152.7407  0.043891006  0.045743044            3 
  291000    1.1636426   -5.6549157    153.38745  0.043925386  0.045713393            3 
  292000    1.1001286   -5.6452451    153.33031  0.043758649  0.045681617            3 
  293000    1.1612601   -5.6406704    153.73252  0.043723697   0.04565058            4 
  294000    1.1634543    -5.645084    154.65077  0.043835253   0.04561917            2 
  295000    1.1351477   -5.6878706    154.61679   0.04367706  0.045589249            6 
  296000    1.1470111   -5.6399289    156.31788  0.044008413  0.045559812            2 
  297000    1.1358431   -5.6489913    156.20565  0.043828746  0.045532411            4 
  298000    1.1575309   -5.6838221    157.05005  0.043917799  0.045505533            3 
  299000    1.1522629   -5.6610439    157.20137   0.04381309   0.04548004            2 
  300000    1.1722241   -5.6392589    157.98313  0.043884202  0.045453902            3 
  301000    1.1367305   -5.6823959    158.39215  0.043851647  0.045426817            4 
  302000    1.1460223   -5.6389267    158.76932  0.043810518  0.045401801            1 
  303000    1.1317225   -5.6936313    158.94496  0.043714236  0.045375667            7 
  304000    1.1364106   -5.6977764    159.06682  0.043603842  0.045348363            3 
  305000    1.1163137   -5.6398327    159.92513  0.043695392  0.045320628            5 
  306000    1.1255638   -5.6776451    160.26326  0.043644679    0.0452929            3 
  307000    1.1293009   -5.6865104    160.84522  0.043660483  0.045265778            3 
  308000    1.1026353   -5.6916442    160.78216  0.043501667  0.045238191            2 
  309000    1.0998897    -5.688729    161.51279  0.043557926  0.045210745            1 
  310000    1.0969134   -5.6902353    162.65104  0.043723399  0.045183432            3 
  311000    1.1243865   -5.6912875     163.4136  0.043787138  0.045157826            4 
  312000    1.1507923   -5.6845487    163.13222   0.04357164   0.04513277            2 
  313000    1.1502305   -5.6426925    164.42351  0.043776227  0.045108281            2 
  314000     1.136226   -5.6945933    163.34362  0.043350217  0.045082734            3 
  315000    1.1540882    -5.689201    165.00297  0.043651579  0.045056498            3 
  316000    1.1592186   -5.6823196    165.78661  0.043720098  0.045032364            4 
  317000    1.1101918   -5.6688396    165.82732  0.043592881  0.045008492            5 
  318000    1.1123377   -5.6642246    166.38253  0.043601293  0.044985124            3 
  319000    1.1191501   -5.7092637    166.92761  0.043607003  0.044961545            7 
  320000    1.1258915   -5.6956733    167.88934  0.043721182  0.044939002            2 
  321000    1.1047474   -5.6786803    168.69928  0.043795244  0.044920209            4 
  322000    1.1409695   -5.7211695    168.21633  0.043534246  0.044898623            2 
  323000    1.1438627   -5.7108819    169.29425  0.043677568  0.044877104            3 
  324000    1.1375793   -5.6334092    170.11421  0.043753654  0.044855977            2 
  325000     1.116375   -5.7044711    169.61862  0.043491954  0.044835142            4 
  326000    1.1043344   -5.7136434    170.04156  0.043466657  0.044811369            3 
  327000    1.1371432   -5.6756711    171.37397  0.043673284  0.044788862            2 
  328000    1.1111864   -5.6788134    171.26837  0.043513305   0.04476864            2 
  329000    1.1117471   -5.7125459    171.77795  0.043510119  0.044746923            2 
  330000    1.1157522   -5.6937446    171.92304  0.043414909  0.044724177            3 
  331000    1.1307374   -5.6989474    172.49203  0.043426997  0.044701682            7 
  332000    1.1330499    -5.702716    172.79177  0.043371429  0.044677983            3 
  333000    1.1227672   -5.7121526    172.92528  0.043274594   0.04465534            3 
  334000    1.1560083   -5.7356777    173.89368  0.043386648  0.044631673            2 
  335000    1.1035176   -5.6935016    175.09008  0.043554747  0.044607691            3 
  336000    1.1141178    -5.697597    174.48429  0.043274873  0.044585132            3 
  337000    1.1567386   -5.7102568    174.65267  0.043188098  0.044560675            2 
  338000     1.119021   -5.7004058    175.49107  0.043267028  0.044537069            2 
  339000    1.0936532    -5.694303    175.68257  0.043186473  0.044512639            6 
  340000    1.1150117   -5.6923659    176.34599  0.043222055  0.044488435            5 
  341000    1.1102621   -5.7115646    176.63309  0.043165466  0.044463872            2 
  342000    1.1420308   -5.7227395    177.34882  0.043213649  0.044440157            2 
  343000    1.1226567   -5.7270527    177.42482  0.043106127  0.044417719            4 
  344000    1.1005134    -5.682153    178.51572  0.043245087  0.044396005            3 
  345000    1.1229721   -5.7333299    178.67662  0.043158604  0.044374111            7 
  346000    1.1056739   -5.7176438    178.42295  0.042972772  0.044350498            2 
  347000    1.1388686   -5.7099062     179.6638  0.043146926   0.04432866            2 
  348000    1.1108702   -5.7189468    180.44696  0.043210479  0.044306819            1 
  349000     1.118031   -5.7091394    180.96454  0.043210253   0.04428576            3 
  350000    1.0990296   -5.7100653    180.95172  0.043083742   0.04426553            2 
  351000    1.1188451   -5.7143155    182.40407  0.043305809  0.044244276            3 
  352000    1.0961559   -5.6764493     182.4943  0.043204142  0.044221401            2 
  353000    1.1060832   -5.7203017    182.47662  0.043077578  0.044199438            4 
  354000    1.1281569   -5.7416948    183.32815  0.043156343  0.044177962            3 
  355000    1.0950387   -5.7149202    183.55318    0.0430876  0.044157887            8 
  356000    1.1131255   -5.6760462    184.97928  0.043300393   0.04413777            3 
  357000     1.121139   -5.7139186    184.26981  0.043013495  0.044117199            3 
  358000    1.1296702   -5.6786181    185.18423    0.0431062  0.044095114            1 
  359000    1.0964483    -5.687219    184.56031  0.042841297  0.044071377            3 
  360000    1.1098784   -5.7319317    184.45805  0.042698623  0.044045755            5 
  361000    1.1042714   -5.7361225    184.98805  0.042702689  0.044020884            4 
  362000    1.1061685   -5.7268009    185.91244  0.042797522  0.043995082            3 
  363000    1.0878211   -5.7525736    185.24113  0.042525513  0.043970024            3 
  364000    1.1084683    -5.714358    186.52571  0.042702772  0.043945886            2 
  365000    1.0886138    -5.704852    186.95485  0.042683755  0.043921505            5 
  366000    1.1196882   -5.7041056    187.70608  0.042738177   0.04389755            2 
  367000    1.1109785   -5.6959022    188.77017  0.042863346  0.043873571            3 
  368000    1.0824727   -5.7504074    187.87781  0.042544794  0.043850611            5 
  369000    1.1005316   -5.7180316    189.17349  0.042722107  0.043826834            5 
  370000    1.0877815   -5.7300096    190.31415  0.042863548   0.04380297            5 
  371000    1.1055499   -5.7301952    190.26675  0.042737365  0.043779877            4 
  372000    1.1362552   -5.7239043    190.27022  0.042623257  0.043757696            2 
  373000     1.110696   -5.6884553    190.64907  0.042593626  0.043735411            3 
  374000    1.1111636   -5.7082797     191.3289  0.042631217  0.043712507            3 
  375000     1.110241   -5.7296674    192.10458  0.042689906  0.043690326            3 
  376000    1.1119505   -5.7575995    191.52136   0.04244711  0.043667544            4 
  377000     1.101205   -5.7580833    191.95224  0.042429762  0.043645355            3 
  378000    1.1258591    -5.727881    193.00464  0.042549524  0.043623155            5 
  379000    1.0891178   -5.7429822    193.65852  0.042581029  0.043602004            3 
  380000    1.0848741   -5.7244836    194.43176  0.042638543  0.043580114            2 
  381000    1.0932042   -5.7299423    194.66094  0.042576758  0.043559128           12 
  382000    1.1042319   -5.7415318    195.43237   0.04263359  0.043537287            3 
  383000    1.1032431   -5.7297137    195.20545  0.042472901  0.043515596            1 
  384000    1.0846862   -5.7458077    195.58715  0.042445128    0.0434935            3 
  385000    1.1108325   -5.7183417    196.51708  0.042536165  0.043471026            2 
  386000    1.0879832   -5.7599921    196.84662  0.042497111  0.043448584            2 
  387000    1.1093328   -5.7412203    197.52928  0.042534297  0.043426213            5 
  388000    1.1039638   -5.7221922     197.7654  0.042475386  0.043404792            2 
  389000    1.1112668   -5.7309842    197.88906  0.042392687   0.04338234            2 
  390000    1.1135854   -5.7682045    198.26096  0.042363453  0.043359757            5 
  391000    1.0899216   -5.7999815    197.54045  0.042101545  0.043336466            2 
  392000    1.0995153   -5.7406749    198.50209  0.042198573  0.043312383            2 
  393000    1.1116935   -5.7412191    198.75599  0.042145037  0.043288742            3 
  394000    1.0855113   -5.7346578    199.47087   0.04218927   0.04326669            3 
  395000     1.082393   -5.7131659    200.13693   0.04222298  0.043243374            1 
  396000    1.0945423    -5.750829    200.68977  0.042232696  0.043220616            2 
  397000    1.1063669   -5.7797547    200.86577  0.042163261  0.043197685            2 
  398000    1.0944385   -5.7715451    199.99267  0.041874511  0.043173223            3 
  399000    1.0763998   -5.6989096    202.74127  0.042343623  0.043150205            5 
  400000    1.1020889   -5.7696847    201.87064  0.042056384  0.043127072            2 
  401000    1.1083334   -5.7856152    201.77682  0.041932007  0.043103168            3 
  402000    1.0966207   -5.7222364    202.70266  0.042019623  0.043080081            4 
  403000     1.082842   -5.7493493    203.76459  0.042134943  0.043057425            2 
  404000    1.0958914   -5.7709192    203.44164  0.041964034  0.043033871            4 
  405000    1.0718895   -5.7652823    204.52324  0.042082972  0.043010595            3 
  406000    1.0946866   -5.7500309    204.77778  0.042031563  0.042989062            3 
  407000    1.0981863   -5.7429455    206.18473  0.042216366  0.042966998            3 
  408000    1.1087861   -5.7918428     205.6134  0.041996202   0.04294573            6 
  409000    1.0807378   -5.7486195    206.30176  0.042033773  0.042924155            3 
  410000    1.0842597    -5.742943    207.00499  0.042074185   0.04290177            3 
  411000    1.1083463    -5.765212    207.32822  0.042037352  0.042880986            7 
  412000    1.1070505   -5.7566575    207.79078   0.04202888  0.042858792            4 
  413000    1.0868847   -5.7678867    207.76594  0.041922103  0.042837141            4 
  414000    1.1183592   -5.7636117    208.81132  0.042031264    0.0428157            8 
  415000    1.0735107   -5.7426298    209.85742  0.042140044  0.042795617            2 
  416000    1.0984322   -5.7855672    209.72507  0.042012233  0.042773877            5 
  417000    1.1239015   -5.7574723    209.83792  0.041934037   0.04275371            4 
  418000    1.0926046   -5.8099895    209.08225  0.041683065  0.042732739            7 
  419000    1.0950005   -5.8126823    209.55417   0.04167744    0.0427111            1 
  420000    1.0685271   -5.7919399    210.86136  0.041837571  0.042688336            2 
  421000       1.1059   -5.7664849    211.54997  0.041874498  0.042665922            1 
  422000     1.081303    -5.789843    211.64666  0.041794363  0.042644137            4 
  423000    1.1035912    -5.758767    212.52574  0.041868742  0.042623663            2 
  424000    1.0811477    -5.780621    212.25086  0.041715971  0.042604423            3 
  425000    1.0987485   -5.7757376    213.77539  0.041916743  0.042584357            4 
  426000    1.0800077   -5.8194696    213.94256  0.041851048  0.042564633            1 
  427000    1.0905728   -5.7874478    214.71248  0.041903294  0.042545371            3 
  428000    1.1025505   -5.7319333    215.47514  0.041953882  0.042526482            4 
  429000    1.0970308   -5.7731914     216.0139  0.041960742  0.042508038            1 
  430000    1.0917143    -5.758642    216.21638  0.041902399  0.042490233            3 
  431000    1.0873289    -5.792746    217.34881  0.042024132  0.042472862            3 
  432000    1.1099052   -5.7984965    216.46405  0.041756182  0.042454194            7 
  433000    1.0956562   -5.8281005    216.54986  0.041676263  0.042434485            7 
  434000    1.1033482   -5.7802756    217.92101  0.041843512  0.042414669           13 
  435000    1.0830159   -5.7529604    218.29916  0.041819761  0.042395514            3 
  436000    1.0649123   -5.8068162    217.56431  0.041583392  0.042376433            2 
  437000    1.0774398   -5.7724188     218.6924  0.041703356  0.042356506            6 
  438000    1.0870379   -5.7648125    219.00905  0.041668389  0.042337096            3 
  439000    1.0744026   -5.7924903    218.69879  0.041514578  0.042317557            3 
  440000    1.0715138   -5.7542941    220.48758  0.041759011  0.042298561            2 
  441000    1.0993283   -5.7857067    220.68483  0.041701593  0.042279576            4 
  442000    1.0698145   -5.7679649    220.94588  0.041656463  0.042260271            3 
  443000    1.0820405   -5.7888448    222.03959  0.041768171  0.042242706            2 
  444000    1.0873784   -5.8137765    222.25667  0.041714841  0.042224903            4 
  445000    1.0771699   -5.7857835     222.2031  0.041611068   0.04220781            4 
  446000    1.0844788   -5.7927133    223.32174  0.041726783  0.042191364            4 
  447000     1.050799   -5.8261353    223.70264  0.041704444  0.042175351            2 
  448000    1.0608072   -5.7869051    224.69563  0.041796061   0.04215951            3 
  449000     1.053732    -5.786688    224.54225  0.041674508  0.042142835            3 
  450000    1.0621534   -5.8150311    223.90804  0.041464452  0.042125642            7 
  451000    1.0899392   -5.7814992    225.22342  0.041615562  0.042107593            4 
  452000    1.0659213   -5.8017267     225.3532  0.041547418  0.042090069            7 
  453000    1.0905309   -5.7871229    225.76793  0.041531995  0.042072146            4 
  454000    1.0807626   -5.7953844    226.81037  0.041631859  0.042054896            4 
  455000    1.0470455   -5.8002183    226.43173  0.041471012  0.042037551            3 
  456000     1.077101   -5.8128208    227.33952  0.041545966  0.042020385            4 
  457000    1.0243902   -5.7810617    228.23831  0.041618948  0.042003731            4 
  458000    1.1090063   -5.8177105    228.13022   0.04150841  0.041986936            3 
  459000    1.0770986   -5.8064615    228.47157  0.041479951  0.041969714            3 
  460000    1.0761614    -5.809748    228.72856  0.041436334  0.041953423            7 
  461000    1.0587913   -5.8127162    229.02057  0.041399235  0.041935963            2 
  462000    1.0639478   -5.8287562    229.80811  0.041451679  0.041917896            2 
  463000    1.0566529   -5.7978263    229.46178  0.041299816  0.041899098            3 
  464000    1.0862827   -5.7782909    230.25482  0.041353237  0.041881028            2 
  465000    1.0602235   -5.8122267    230.23197  0.041260209  0.041862191            3 
  466000     1.056958   -5.8147838    230.99792  0.041308641   0.04184382            2 
  467000    1.0466684   -5.7822155    232.19384  0.041433591  0.041826586            8 
  468000    1.0481185   -5.8012544    231.67449  0.041252579  0.041809311            3 
  469000     1.081347   -5.8228474    232.11428  0.041242764  0.041791261            2 
  470000    1.0750259   -5.8161626    232.78661  0.041274222  0.041772304            6 
  471000    1.0634169   -5.8042425    233.11542  0.041244766  0.041753951            3 
  472000    1.0812348   -5.8410185    232.99431  0.041136001  0.041735938            2 
  473000    1.0945944   -5.8431194    233.38612  0.041118062  0.041716934            4 
  474000      1.07414   -5.8156997    234.39615  0.041208887  0.041697931            3 
  475000    1.0622328   -5.7919946    233.66133  0.040993215  0.041679549            4 
  476000     1.054964   -5.8516849    234.88639  0.041121567  0.041660937            2 
  477000    1.0409453   -5.7894063    235.81774  0.041198067  0.041642928            2 
  478000    1.0782261   -5.8085652    235.81307  0.041111065  0.041624509            3 
  479000    1.0622418   -5.8287953    235.60655  0.040989309  0.041605657            7 
  480000    1.0529255   -5.7960967    235.95732  0.040964812  0.041587222            4 
  481000    1.0712808   -5.8246202    235.71345  0.040837396  0.041568124            2 
  482000    1.0649764    -5.840494    236.17569  0.040832589  0.041548696           11 
  483000    1.0462816   -5.7929711    237.65345  0.041003011  0.041529475            2 
  484000    1.0459262   -5.8210308    238.37484    0.0410425  0.041510778            3 
  485000    1.0379161   -5.8142341    238.45356  0.040971401   0.04149198            3 
  486000    1.0595832   -5.8588156    238.29099  0.040859223  0.041472687            4 
  487000    1.0652669   -5.8216204    238.32133  0.040780516  0.041453163            5 
  488000    1.0906039   -5.8058468     239.0368  0.040819125  0.041433331            3 
  489000    1.0698557   -5.8282231    238.68199  0.040675186  0.041413317            2 
  490000    1.0589822   -5.8392116    239.78916   0.04078047  0.041393392            2 
  491000    1.0620304   -5.8196051    240.00642  0.040734287  0.041373304            4 
  492000    1.0770693   -5.8517272    240.33562  0.040707253  0.041353151            4 
  493000    1.0613561   -5.8129198    240.86016  0.040713347  0.041333618            4 
  494000    1.0546782   -5.8518947    240.85254  0.040629646  0.041313908            3 
  495000    1.0787051   -5.8373757    241.23421  0.040611819  0.041294351            1 
  496000    1.0489385   -5.8599606     241.5362  0.040580679  0.041274155            7 
  497000    1.0572985   -5.8356588    242.65756  0.040687049  0.041253953            4 
  498000    1.0385831   -5.8542509    241.56622  0.040422728  0.041233315            4 
  499000    1.0758603   -5.8461588    241.80022  0.040380799  0.041211621            4 
  500000    1.0501433   -5.8585273    242.00583  0.040334305  0.041189911            5 
  501000    1.0677867   -5.8399586    243.26279  0.040462873  0.041168335            2 
  502000    1.0520101   -5.8280592    243.31227  0.040390482  0.041146741            2 
  503000    1.0522819   -5.8694861    243.63386  0.040363462  0.041125228            4 
  504000    1.0396509   -5.8100176    244.33812  0.040399822  0.041103641            6 
  505000    1.0492561   -5.8657458    243.61046  0.040199746  0.041082037            5 
  506000    1.0450109   -5.8166862    244.30853  0.040235265  0.041059301            2 
  507000    1.0499967   -5.8524326    244.29928  0.040154386  0.041036233            2 
  508000    1.0589034   -5.8253393    245.76103   0.04031513  0.041014001            4 
  509000    1.0572546   -5.8584972    245.88777  0.040256675   0.04099181            5 
  510000    1.0327554   -5.8352488     246.4039  0.040262076  0.040969492            3 
  511000    1.0606156   -5.8798798    245.62796  0.040056746  0.040946084            2 
  512000     1.061264   -5.8784334    246.46903  0.040115402  0.040922649            4 
  513000    1.0478164   -5.8246806    246.87791  0.040103623  0.040899742            3 
  514000    1.0512468   -5.8676415     247.1178  0.040064494  0.040876737            5 
  515000    1.0729939   -5.8696041    247.99166  0.040128101  0.040853754            7 
  516000    1.0436938   -5.8478198    247.97387   0.04004746  0.040830677            3 
  517000    1.0504314   -5.8680308     247.6703  0.039921067  0.040808152            6 
  518000    1.0390026   -5.8728649    247.77124  0.039860238   0.04078528            4 
  519000     1.043392    -5.869656    249.49725  0.040060574  0.040762249            7 
  520000    1.0588342    -5.830783    249.72757  0.040020443   0.04073958            4 
  521000    1.0518729   -5.8507511    250.00076  0.039987325   0.04071755            3 
  522000    1.0338863   -5.8200905    249.99584  0.039909937  0.040695344            4 
  523000    1.0449548   -5.8383854    250.53221   0.03991909    0.0406723            3 
  524000    1.0528942   -5.8777544    249.93998  0.039748724  0.040649143            3 
  525000    1.0577534   -5.8414759    251.39017  0.039903201  0.040625686            2 
  526000     1.060743   -5.8961514    250.48168   0.03968341   0.04060306            5 
  527000    1.0476909    -5.846788    251.11293  0.039707926  0.040579405            3 
  528000    1.0434932   -5.8797047     251.3491  0.039669997  0.040555129            3 
  529000    1.0528904   -5.8392793    252.26747  0.039739677  0.040530793            2 
  530000    1.0196834   -5.8701562    251.83442  0.039596608  0.040507408            6 
  531000    1.0506449   -5.8768132    252.15505  0.039572356  0.040483456            4 
  532000    1.0322065      -5.8522    251.62224  0.039414511  0.040459017            2 
  533000    1.0340082   -5.8722116     253.3044  0.039603565  0.040435143            3 
  534000    1.0219112    -5.868646    252.52095  0.039407139  0.040411312            3 
  535000    1.0170318   -5.8827549    253.62858  0.039506009  0.040387156            7 
  536000    1.0067988   -5.8446801    253.68918  0.039441726  0.040362122            2 
  537000    1.0348709   -5.8515162    254.24147  0.039453984  0.040337593            4 
  538000    1.0403262   -5.8883292    253.85464  0.039320731  0.040312956            3 
  539000    1.0430719   -5.8693323    254.35952  0.039325838  0.040289173            4 
  540000    1.0148171   -5.8807066    255.61288  0.039446432  0.040264995            5 
  541000    1.0491943   -5.8680914    255.54586  0.039363194  0.040241733            4 
  542000    1.0571862   -5.8672081    255.57626  0.039295244  0.040217373            5 
  543000    1.0487999   -5.8598134     255.4818   0.03920838  0.040192115            2 
  544000    1.0470453   -5.8651638    256.14904  0.039238517  0.040167801            2 
  545000    1.0142837   -5.8981908    256.84825  0.039273432  0.040143563            4 
  546000    1.0190747   -5.8858013    257.39871  0.039285517  0.040118918            2 
  547000    1.0446028   -5.9043606    256.92014   0.03914079  0.040094761            2 
  548000    1.0494769   -5.9287072     257.5476   0.03916478  0.040069902            5 
  549000    1.0186902   -5.8804709    257.98339  0.039159591  0.040045083            5 
  550000    1.0325264   -5.9033766    258.65878  0.039190724  0.040020086            4 
  551000    1.0098085   -5.8864468     258.4194  0.039083393  0.039995673            3 
  552000    1.0553567    -5.884236    258.74399  0.039061593  0.039971496            3 
  553000    1.0389933   -5.8660847      259.858  0.039158831  0.039947501            4 
  554000    1.0293882   -5.8861228    259.65811  0.039058079  0.039923562            4 
  555000    1.0124049   -5.9199248     259.6344  0.038984144   0.03989864            2 
  556000   0.99606505   -5.8848751    261.08201  0.039130997  0.039874131            5 
  557000    1.0275834   -5.8965388    261.03495  0.039053703  0.039850865           11 
  558000    1.0276416   -5.9132159    261.16947  0.039003803  0.039827531            6 
  559000    1.0237477   -5.8613554    262.04541  0.039064611  0.039804034            7 
  560000    1.0438151   -5.8938034    261.48257  0.038911096  0.039779781            5 
  561000    1.0365662   -5.8850981    262.53753  0.038998445  0.039755849            6 
  562000     1.022511   -5.9227414    263.34672  0.039049039  0.039732662            2 
  563000    1.0162653   -5.8841205    263.57329  0.039013217  0.039709286            5 
  564000    1.0116753   -5.9359096    263.58744  0.038946135  0.039686305            2 
  565000     1.016488   -5.8914864    263.80811  0.038909751  0.039662909            2 
  566000    1.0306465   -5.9187991    263.42823  0.038785076  0.039640143            5 
  567000    1.0378316    -5.874352    265.24093  0.038983087  0.039617435            1 
  568000    1.0501593   -5.9313453    264.76788  0.038845053   0.03959497            3 
  569000    1.0245986   -5.9092331    265.21293  0.038841964  0.039571994            2 
  570000    1.0281264   -5.8882672    265.69262   0.03884395   0.03954886            5 
  571000    1.0189213   -5.9316557    266.40225  0.038879487  0.039526034            2 
  572000    1.0395209     -5.89157    266.20901  0.038783365  0.039503783            4 
  573000    1.0097067    -5.941492    265.78301  0.038653724  0.039480931            3 
  574000    1.0111422    -5.872438    267.61195  0.038851909  0.039457903            3 
  575000    1.0392326   -5.9275984    267.35396  0.038746951  0.039435166            4 
  576000    1.0423888   -5.8971212    267.38184  0.038683716  0.039412612            3 
  577000      1.02037   -5.8975601    268.02802  0.038709998  0.039390955            4 
  578000    1.0107091   -5.9001405    268.67731  0.038736637  0.039368835            5 
  579000    1.0110104    -5.898917    268.32953  0.038619679  0.039346298           16 
  580000     1.023286   -5.8783431    269.43654  0.038712147  0.039323776            4 
  581000    1.0297297   -5.9259718    268.74477  0.038546295  0.039301148            6 
  582000      1.02948   -5.9369497    268.65394  0.038467059  0.039278118            4 
  583000   0.99789467   -5.8843376    269.93297  0.038583901  0.039255213            6 
  584000    1.0228884   -5.9656868    269.45666  0.038449865  0.039232217            5 
  585000    1.0246782   -5.9275276    270.81646  0.038577843  0.039209844            6 
  586000    1.0316764   -5.8969145    271.08762  0.038550572  0.039187273            3 
  587000    1.0388277    -5.930736    271.17586  0.038497425   0.03916481            3 
  588000    1.0101389   -5.9509128    271.64278  0.038498126  0.039142267           13 
  589000    1.0176046   -5.9435111    270.91808  0.038330232  0.039120402            5 
  590000    1.0102944   -5.9295111       272.35  0.038467514   0.03909843            5 
  591000    1.0230273   -5.9017322    272.72842  0.038455784  0.039076181            4 
  592000    1.0355146   -5.9760748    272.04796   0.03829504  0.039054312            4 
  593000    1.0019777    -5.945089    272.86423   0.03834517  0.039032144            3 
  594000    1.0315247    -5.917492    272.12939  0.038177523  0.039009334            4 
  595000    1.0051733   -5.9483057    273.12691  0.038253069   0.03898665            3 
  596000    1.0060084   -5.9864269    273.00429   0.03817174  0.038963672            3 
  597000    1.0243521   -5.9318344    274.35698  0.038296619  0.038940613            4 
  598000    1.0053895   -5.9228356    274.77194  0.038290404  0.038918645            3 
  599000    1.0010488    -5.937835    275.37403  0.038310243  0.038896656            3 
  600000    1.0007553   -5.9394501    276.40448  0.038389512  0.038874849            3 
  601000    1.0478067   -5.9190787    277.02915  0.038412251  0.038853315            8 
  602000    1.0073764    -5.922765    277.51107  0.038415153   0.03883251            3 
  603000    1.0258855   -5.9381563    277.47823  0.038346908  0.038811242            3 
  604000     1.005598   -5.9547104    277.52945  0.038290487  0.038789749            2 
  605000    1.0205327   -5.9340501    278.65707  0.038382516   0.03876896            2 
  606000   0.98860505   -5.9547388    278.56939  0.038307122  0.038748336            8 
  607000    1.0126507   -5.9496931    278.32851  0.038210943  0.038727446            5 
  608000    1.0259561    -5.948788    278.63244  0.038189754  0.038706589            8 
  609000    1.0138197   -5.9831803    279.50469    0.0382464  0.038685489            3 
  610000    1.0224027   -5.9776212    278.34387  0.038025119  0.038663973            4 
  611000    1.0286654   -5.9174074    279.63759  0.038139333  0.038643039            3 
  612000    1.0054973   -5.9308441    280.62056  0.038210861  0.038621418            3 
  613000    1.0014964   -5.9655587    281.19968  0.038227253  0.038600588            4 
  614000    1.0170966   -5.9168178    281.36422  0.038187327  0.038579501            3 
  615000    1.0158115   -5.9270677    281.74069  0.038176245  0.038558844            7 
  616000    1.0311021   -5.9570798    281.67932  0.038105968  0.038538208            3 
  617000    1.0165103   -5.9494648    281.01154  0.037954017  0.038517675            4 
  618000    1.0039377   -5.9166255    281.62488  0.037975307  0.038496848            3 
  619000    1.0122961   -5.9488336    282.12686  0.037981537  0.038475984            5 
  620000   0.99380907   -5.8907027    283.96541  0.038167393   0.03845582            4 
  621000   0.98630876   -5.9138224    283.04947  0.037983021   0.03843544            3 
  622000    1.0149065   -5.9302011    283.18737   0.03794043  0.038414257            3 
  623000    1.0095542   -5.9331589    283.86501  0.037970173  0.038393308            5 
  624000    1.0127058   -5.9649604      283.839   0.03790585  0.038372222            4 
  625000    1.0064403   -5.9502991    284.25275  0.037900366  0.038351087            4 
  626000    1.0126733   -5.9439343    284.32216  0.037849063  0.038330356            3 
  627000     1.003035   -5.9425705    285.42379  0.037935113  0.038308727            5 
  628000    1.0152768   -5.9904793    284.45546  0.037746213   0.03828731            3 
  629000    1.0024933    -5.957483    284.93857  0.037750208  0.038265917            3 
  630000    1.0139162   -5.9762103    284.37238  0.037615395  0.038243589            4 
  631000    1.0075542   -6.0099556    285.05755  0.037646269  0.038221597            5 
  632000   0.97679742    -5.993321    284.63481  0.037530962  0.038199322            5 
  633000   0.99005345   -5.9754854    285.64348   0.03760446  0.038177392            5 
  634000   0.99270081   -5.9837299    286.12956  0.037609038   0.03815515            4 
  635000   0.99917935   -5.9459604    286.60403  0.037612078  0.038133181            3 
  636000   0.99510798   -5.9361472    287.59206  0.037682398  0.038111038            3 
  637000   0.97458015   -5.9173802    288.74756  0.037774406  0.038089182            4 
  638000    1.0044011   -5.9663609    287.52803  0.037555908  0.038067703            6 
  639000    1.0135342   -5.9745183    288.60825  0.037638009  0.038045603            2 
  640000    0.9881505   -5.9530904    288.38779  0.037550494  0.038023483            3 
  641000   0.99218341   -6.0217199    287.47166   0.03737281  0.038001241            4 
  642000   0.99987256   -5.9765347    289.05039  0.037519522  0.037979284            6 
  643000   0.98949803   -6.0136221    288.00679  0.037325919  0.037956825            5 
  644000   0.99350267   -5.9877396    289.16125  0.037417346  0.037934393            2 
  645000    1.0069245   -5.9436151    289.69487  0.037428278  0.037912412            4 
  646000    1.0020544   -5.9358361      290.637  0.037491873  0.037890511            2 
  647000    1.0167622   -5.9719272    289.87439  0.037335701  0.037868999            2 
  648000   0.99292402   -5.9711039     290.0194  0.037296734  0.037847174            5 
  649000    0.9943846   -5.9437709    291.50242  0.037429689  0.037826174            7 
  650000   0.99084834   -5.9435978    290.69004  0.037267953  0.037804813            6 
  651000    1.0098354   -6.0007477    291.45493  0.037308618  0.037783301            3 
  652000    1.0010563   -5.9955324    290.95588  0.037187612  0.037761058           11 
  653000   0.99805826   -6.0175129     290.0071  0.037009584  0.037738492            4 
  654000   0.98911333   -5.9565834    292.74495  0.037301854  0.037716485            7 
  655000    1.0116161   -5.9785461    293.22388  0.037305837  0.037694428            4 
  656000   0.99250202   -5.9975718    293.05334  0.037227304  0.037672434            6 
  657000    1.0028917   -6.0124042    293.03778  0.037168668  0.037650386            4 
  658000   0.99010708   -6.0256935    293.17353  0.037129373  0.037628224            5 
  659000   0.97524633   -5.9852405    293.46346  0.037109694  0.037605728            3 
  660000   0.98221629   -5.9833449     293.8826  0.037106388  0.037583407            4 
  661000   0.96832976   -5.9762552     295.2996  0.037228896  0.037561628            6 
  662000    1.0046241    -5.984795    293.80147  0.036984073  0.037540244            4 
  663000   0.99041512   -5.9658346    295.23577  0.037108568   0.03751843            7 
  664000    0.9930921     -6.00494    293.52883  0.036838457  0.037496027            5 
  665000    0.9905036   -6.0180158    293.25105  0.036748252  0.037473241            6 
  666000   0.98097964   -5.9775829    294.65798  0.036869116  0.037450005            3 
  667000   0.98436299   -5.9671134    296.21131   0.03700791  0.037427514            2 
  668000   0.99766668   -5.9705378    296.27719  0.036960727  0.037405286           12 
  669000    1.0037517   -5.9865236    295.00452  0.036746951  0.037382883            4 
  670000   0.99655757   -5.9570971    296.01278  0.036817509   0.03736014            5 
  671000   0.97261302   -6.0150455     296.0946  0.036772802  0.037337744            2 
  672000   0.97574981   -6.0212308    296.10379   0.03671922  0.037315749           11 
  673000    1.0020295   -5.9922253    296.63157  0.036730011  0.037292998            3 
  674000   0.97524954   -6.0111719    296.90669  0.036709531  0.037270442            2 
  675000   0.95864081   -5.9811195    297.68912  0.036751743  0.037248335            2 
  676000   0.97902833    -5.963126    298.36768  0.036781026  0.037226239           10 
  677000   0.98028703   -5.9759139    297.92322  0.036671987  0.037203678            3 
  678000   0.98695442   -5.9874495    298.93012  0.036741657  0.037181033            4 
  679000   0.97925062   -5.9839356    298.09492  0.036585041   0.03715813            5 
  680000   0.99002384   -5.9990704    298.56149  0.036588418  0.037135539            2 
  681000    0.9847957   -5.9946381    299.11784   0.03660277  0.037112176            6 
  682000   0.98885371    -6.015026    299.05267  0.036541138  0.037089312            2 
  683000   0.99781364   -5.9849197    300.07557  0.036612442  0.037066799            6 
  684000   0.96801278   -6.0355626    299.95625  0.036544378   0.03704448            6 
  685000   0.97312098   -6.0069686    300.85604  0.036600492  0.037022377            7 
  686000   0.98908274   -5.9848664     301.2049  0.036589516  0.037000737            5 
  687000   0.99013227   -6.0377734    301.02363  0.036514268   0.03697877            3 
  688000    0.9860545   -5.9938865    301.42125  0.036509357  0.036956987            6 
  689000   0.98200795   -6.0096666    301.96341  0.036521941  0.036935067            4 
  690000   0.97119044   -6.0094072    302.18444  0.036495705  0.036913755            3 
  691000   0.97102372   -6.0150043    302.45715  0.036475778  0.036891594            6 
  692000   0.96047521   -6.0420696    301.00845  0.036248609  0.036869749            4 
  693000    0.9776928   -6.0427012     302.3904  0.036362481  0.036847265            2 
  694000   0.98918474   -6.0220736    301.95289  0.036257551  0.036824791            4 
  695000   0.99093814   -6.0115539    302.07995  0.036220617  0.036802686            6 
  696000   0.94938081   -6.0147012    303.24096  0.036307586  0.036780272            5 
  697000   0.96146172     -5.97449    303.81835  0.036324527  0.036757978            5 
  698000   0.98895225   -6.0538583    301.68135  0.036017353  0.036735137            3 
  699000   0.98852228   -6.0433343    303.05674  0.036129798  0.036711877            4 
  700000   0.96394461   -6.0398765    303.09821   0.03608312  0.036688312            2 
  701000    1.0043688   -6.0541643    303.56059  0.036086613  0.036664962            2 
  702000    0.9670007   -6.0020057    304.13171  0.036103005  0.036641755            6 
  703000   0.98136122   -6.0463429     302.2107  0.035823934  0.036618243            3 
  704000   0.98001036   -5.9964391     304.2788   0.03601785  0.036595106            5 
  705000   0.97604476   -6.0565895    303.34799  0.035856736  0.036571476            5 
  706000   0.97205008   -6.0144295    305.47168  0.036056619  0.036547907            5 
  707000   0.95816158    -6.030809    304.56719  0.035899009  0.036524983            5 
  708000   0.99688151   -6.0165519    304.72661  0.035867068  0.036501418            4 
  709000   0.97720109   -6.0665577    304.41938  0.035780369  0.036477896            4 
  710000   0.98182628   -6.0346219    305.14674  0.035815345  0.036454285            6 
  711000   0.95421428   -6.0413174    306.28658  0.035898568  0.036430692            4 
  712000   0.96489662   -6.0201973     306.1732  0.035834878  0.036407532            5 
  713000    0.9502681    -6.036537    306.08218   0.03577398   0.03638457            5 
  714000   0.97941838   -6.0579351    305.68287  0.035677272  0.036361357            6 
  715000   0.96612217   -6.0690116    305.59186  0.035616767  0.036338129            3 
  716000   0.96989943   -6.0476478    307.87926  0.035833248  0.036314934            3 
  717000   0.93950124   -6.0493613    307.38328  0.035725625  0.036291555            5 
  718000   0.97564047   -6.0459364    308.67202  0.035825443  0.036268503            3 
  719000     0.986108    -6.056471    308.53223  0.035759415   0.03624529            8 
  720000   0.96988105   -6.0444014    308.27323  0.035679772  0.036222306            2 
  721000   0.96385014   -6.0195557    309.20679  0.035738187  0.036199235            5 
  722000   0.97937237   -6.0323208     308.8959  0.035652805   0.03617655            2 
  723000   0.95951832   -6.0703248    308.22471  0.035526131  0.036153298            5 
  724000   0.97709465   -6.0351545    308.93312  0.035558601  0.036129689            4 
  725000   0.95085453   -6.0457729    309.17219  0.035537034  0.036106158            7 
  726000   0.96188072   -6.0432964    309.29641  0.035502343   0.03608282            4 
  727000   0.96153896   -6.0430646    309.55533  0.035483188  0.036059587            4 
  728000   0.97665162   -6.0511016    309.67747  0.035448429  0.036036281           12 
  729000   0.96242581   -6.0524446    311.21709  0.035575799  0.036013165            5 
  730000   0.96856809   -6.0316848    310.71523  0.035469775  0.035990124            5 
  731000   0.95212952   -6.0531208    310.26893  0.035370375  0.035967179            6 
  732000   0.98272318   -6.0464148    311.17725  0.035425461  0.035943794            5 
  733000   0.94113203   -6.0497638    311.83829  0.035452284  0.035920924            4 
  734000   0.95914474   -6.0674911    311.90701  0.035411786   0.03589826            3 
  735000   0.94974314   -6.1107894    311.59962  0.035328755  0.035875681            4 
  736000   0.94291862   -6.0889317    311.36276  0.035253936  0.035852694            6 
  737000   0.96533881    -6.059373    311.99804  0.035277933  0.035829853            2 
  738000   0.95783455   -6.0887032    312.10157  0.035241821  0.035806996            9 
  739000   0.95918318   -6.0927992    312.00861   0.03518365  0.035784346            3 
  740000   0.96257654   -6.0529646    313.11948  0.035261203  0.035761889            6 
  741000   0.93515767   -6.0743349     313.4141  0.035246749   0.03573932            4 
  742000   0.95350824   -6.1022555    312.43334  0.035089099  0.035716273            5 
  743000   0.97086289     -6.07558    313.24701  0.035133133  0.035693208            2 
  744000   0.94943068   -6.0470202    314.33508  0.035207783  0.035670128            7 
  745000   0.94735624   -6.0848315    313.98412  0.035121266  0.035647365            5 
  746000   0.94041444   -6.0819008    314.74654  0.035159354  0.035624839            4 
  747000   0.95528038   -6.0368417    314.81043  0.035119414  0.035601912            6 
  748000   0.95616446   -6.0927443    314.02237  0.034984667  0.035579283            6 
  749000   0.94838994   -6.0179204    315.32487  0.035082874  0.035556461            2 
  750000    0.9545629   -6.0620655     316.0633  0.035118144  0.035533915            4 
  751000   0.93599852   -6.0532889    315.68967  0.035029923  0.035510956            7 
  752000   0.96940616   -6.0661448    315.77291  0.034992565  0.035488023            5 
  753000   0.94635006   -6.0676336    314.93614   0.03485349  0.035465233            6 
  754000   0.95025562   -6.0609081    315.55536  0.034875703   0.03544237            2 
  755000    0.9708324   -6.0779512    316.75638  0.034962072  0.035419338            3 
  756000   0.96725057   -6.0945346      316.812  0.034921957  0.035396431            6 
  757000   0.94629103   -6.0669785    316.75497  0.034869548  0.035373009            3 
  758000   0.95064064   -6.0942337    316.66794  0.034813977  0.035349733           12 
  759000    0.9446624    -6.108806    316.81114  0.034783832  0.035326165            1 
  760000   0.94539354     -6.10535    317.12015  0.034771947  0.035302667            5 
  761000   0.94651872   -6.0843433    316.44156  0.034651945  0.035278851            4 
  762000   0.96401562   -6.0889514     316.7279  0.034637784  0.035255068            6 
  763000   0.95831429   -6.1176646    317.71543  0.034700244  0.035231393            6 
  764000   0.94204523   -6.0842855     317.1099  0.034588776  0.035207958            6 
  765000   0.94828293   -6.1187487    316.06694   0.03442995  0.035183928            9 
  766000   0.93374116   -6.1088262    317.54887  0.034546222  0.035159967            4 
  767000   0.94855151   -6.0456462    319.45337  0.034708102  0.035136593            2 
  768000   0.93449916   -6.1277734    318.06618  0.034512389  0.035113249            4 
  769000   0.95561408   -6.0907378    319.22988  0.034593615   0.03508987            5 
  770000   0.95346734    -6.111033    318.93033  0.034516269  0.035066461            6 
  771000   0.95175898   -6.0966413    319.67001  0.034551449   0.03504341            3 
  772000   0.94159775   -6.0933163    319.93672  0.034535484   0.03502047            6 
  773000   0.93379718   -6.0967234    320.39128   0.03453981  0.034997532            4 
  774000   0.93911341   -6.0981787    320.78119  0.034537165  0.034974725           11 
  775000   0.92443758   -6.0712348    322.32261  0.034658346  0.034952347            4 
  776000   0.96260937   -6.1054994    322.55308  0.034638432  0.034930098           13 
  777000   0.93895471   -6.0702175    321.47268   0.03447798  0.034907633            3 
  778000   0.94797871   -6.0885203    321.57521  0.034444646  0.034885599            3 
  779000   0.95335937   -6.0992384    322.80169  0.034531631   0.03486324            8 
  780000   0.96608809    -6.125825    322.12576  0.034415145  0.034840875            3 
  781000   0.94434799   -6.0918652    323.61394   0.03452987  0.034818668            5 
  782000   0.94139477     -6.08495    323.34697  0.034457264  0.034796571            5 
  783000   0.92529867   -6.1089339    322.71751  0.034346266  0.034774686            3 
  784000   0.95675295   -6.1010396    323.34843  0.034369518  0.034752664            7 
  785000    0.9278704   -6.1238019     324.2722  0.034423801  0.034730663            5 
  786000   0.92999889   -6.0774779    324.96041   0.03445297   0.03470854            4 
  787000    0.9558691   -6.1211366    323.79291  0.034285569  0.034686869            5 
  788000   0.95487754   -6.1345777    325.32058  0.034403615  0.034665227            4 
  789000   0.93620813   -6.0898722    325.58462  0.034387899  0.034643937            5 
  790000    0.9294268   -6.1212471    325.57306   0.03434315  0.034622745            4 
  791000   0.94477397   -6.1001671    326.67459  0.034415781  0.034601934            4 
  792000   0.94975555    -6.103702    328.01109  0.034512951  0.034581797            8 
  793000   0.95179938   -6.0886812    327.25905    0.0343904   0.03456152            3 
  794000   0.93598775   -6.1201203    327.94336  0.034418908  0.034541542            4 
  795000   0.93815676   -6.1231763    328.71466  0.034456463  0.034521384            6 
  796000   0.93900495   -6.1261853     328.1441  0.034353444   0.03450128            3 
  797000   0.93313131   -6.1381537    328.11857  0.034307671  0.034481026            5 
  798000    0.9322118   -6.1385441    328.23727  0.034277075  0.034460408            6 
  799000   0.93286505    -6.109217    329.92822  0.034410536   0.03444009            3 
  800000    0.9211605   -6.1083769    329.96223  0.034371066  0.034420227            7 
  801000   0.92358186   -6.1210088    329.19359  0.034248189  0.034400025            5 
  802000    0.9275902   -6.0595178    330.03066  0.034292463  0.034379969            3 
  803000   0.93333005   -6.1385782    329.94012  0.034240361  0.034359636            7 
  804000   0.91834308   -6.1275396    329.87337  0.034190855  0.034339459            5 
  805000   0.92675507   -6.1542549    330.77337  0.034241549  0.034319084            5 
  806000   0.94412991   -6.1244251    330.72782  0.034194357  0.034299008            3 
  807000   0.92101459   -6.1480536    330.80443  0.034159895  0.034278807           17 
  808000   0.94313263   -6.1289581    331.12807  0.034150997  0.034258506            4 
  809000   0.92908858   -6.1285013    331.50279  0.034147383  0.034238434            4 
  810000   0.94143095   -6.1370622    331.48274  0.034103163  0.034218457            4 
  811000   0.92510595   -6.1651271    330.66179  0.033976756  0.034198438            4 
  812000   0.93062254   -6.1607954     331.7938  0.034051088  0.034178257            6 
  813000     0.926865   -6.1175679    332.70326  0.034102425  0.034158473            3 
  814000   0.94337476    -6.169177    331.72984  0.033960876  0.034138418            5 
  815000    0.9379173   -6.1402464    332.22914  0.033970259  0.034118104            4 
  816000    0.9307593   -6.1039844    333.28567  0.034036527  0.034098245            3 
  817000   0.91400951   -6.1490001    332.73024  0.033938213  0.034078557            3 
  818000   0.93464846   -6.1646537    332.61139  0.033884616  0.034058438            4 
  819000   0.93242854   -6.1311353    333.15207  0.033898257  0.034037912            9 
  820000      0.92093    -6.180507    333.01915   0.03384341  0.034017548            5 
  821000    0.9150953   -6.1044762    334.24333  0.033926444   0.03399745            4 
  822000    0.9353216     -6.11799    335.18904  0.033981046  0.033977507            3 
  823000    0.9213418   -6.1344184     335.3619   0.03395726  0.033957974            4 
  824000   0.93210317   -6.1355572    335.57413  0.033937513  0.033938109            8 
  825000   0.91138353   -6.1496999    335.11217  0.033849714  0.033918596            6 
  826000   0.92151335   -6.1758415    334.85953  0.033783245  0.033898652            9 
  827000   0.92355962   -6.1425053      335.775  0.033834643  0.033878645            3 
  828000   0.92167825   -6.1526487    336.43745  0.033860452  0.033858862            3 
  829000   0.92821684   -6.1669204    335.74347  0.033749846  0.033838879            6 
  830000   0.94667548   -6.1983253    335.39355  0.033674051  0.033818816            4 
  831000   0.92226606   -6.1882584    336.42301  0.033736764  0.033798736            3 
  832000   0.91184202     -6.16135    336.11765   0.03366563  0.033778702            6 
  833000   0.93112727   -6.1369562    336.65573  0.033679044  0.033758772            6 
  834000   0.92936467   -6.1641931    336.61595  0.033634687  0.033738568            7 
  835000   0.91797629   -6.1224037    337.62184  0.033694794  0.033718273            3 
  836000   0.89606477   -6.1863716    337.23316  0.033615745   0.03369808            5 
  837000   0.91945228   -6.1277708    339.43504  0.033794807   0.03367833            3 
  838000   0.91353188   -6.1498938    337.45855  0.033557931  0.033658724            3 
  839000   0.93960664   -6.1513131    338.11913  0.033583545  0.033638839            5 
  840000   0.91643563   -6.1949739     337.6089  0.033492947  0.033618879            4 
  841000   0.93292057   -6.1658126    338.54371   0.03354575   0.03359869            5 
  842000   0.92241512   -6.1403018    338.72514  0.033523866  0.033578575            7 
  843000   0.91935055   -6.2266288    337.05951  0.033319445  0.033558657            2 
  844000   0.93440705    -6.171235    339.07501   0.03347897  0.033538176            3 
  845000   0.93356798   -6.1891586    337.26878  0.033261221  0.033517824            6 
  846000   0.91845647   -6.1737043    339.33797  0.033425726  0.033497356            6 
  847000   0.91537613   -6.1572547    339.80472  0.033432184  0.033477482            2 
  848000   0.92639319   -6.1518836    339.86406  0.033398591  0.033457258            3 
  849000   0.92576258   -6.1598121    340.72446  0.033443705  0.033437182            3 
  850000   0.91604395   -6.1346319    340.04605  0.033337848  0.033417224            5 
  851000   0.92319556   -6.1503686    340.05153   0.03329921  0.033397269            8 
  852000   0.90276459   -6.1656082    340.55186  0.033309063  0.033377266            3 
  853000   0.91677877   -6.1701464    341.55256  0.033367777  0.033357532           14 
  854000   0.91540696   -6.1882634    340.81115  0.033256357  0.033337717            6 
  855000   0.88745584   -6.1932658    340.82732  0.033219037  0.033317836            8 
  856000   0.93160515   -6.1835097     341.6258  0.033257963  0.033297728            4 
  857000   0.91839653   -6.1882234    341.13256  0.033171194  0.033277921            3 
  858000    0.8914738   -6.1713173    342.24979  0.033241044  0.033258085            3 
  859000   0.92279191    -6.181017    342.90697  0.033266101  0.033238139            9 
  860000   0.91627094    -6.186006    342.35356  0.033173795  0.033218587            5 
  861000   0.92703849   -6.2064242    342.91627  0.033189728  0.033198996            4 
  862000   0.90923382   -6.1663755    344.71053  0.033324684  0.033179579            6 
  863000   0.91319506   -6.1567946    343.86468  0.033204391  0.033160125            5 
  864000   0.91446522   -6.1843266    342.61277  0.033045213  0.033140537            2 
  865000   0.90512723   -6.1754337    343.70794  0.033112518  0.033121053            2 
  866000   0.89483181   -6.2012014    343.93493  0.033096125   0.03310167            4 
  867000   0.92499471    -6.192303     344.8084  0.033141907  0.033082428            6 
  868000   0.91080679   -6.1767434    345.21669  0.033142924  0.033063141            4 
  869000   0.89403799   -6.2089726    344.20586   0.03300785  0.033043782            9 
  870000   0.90268726   -6.2113458    344.15165  0.032964718  0.033024119           10 
  871000   0.88993092   -6.1634459    345.69424  0.033074458  0.033004458            3 
  872000   0.93648671   -6.2003538    344.66213  0.032937895  0.032984789            6 
  873000   0.88475782   -6.1954769    345.04032  0.032936266  0.032965243            4 
  874000   0.87813244   -6.2217285     345.0043  0.032895147  0.032945556            6 
  875000   0.88309569   -6.2148364    346.03119  0.032955352  0.032925856            2 
  876000   0.88895842   -6.2285019    344.82598   0.03280308  0.032905844            8 
  877000   0.90510297   -6.2106453    345.30853  0.032811529  0.032885929            4 
  878000   0.90236767   -6.2026851    346.33136  0.032871238  0.032866271            7 
  879000   0.90655348    -6.215386    346.27973  0.032828947  0.032846457            5 
  880000   0.91835835   -6.2152736    345.40572  0.032708875  0.032826481            4 
  881000   0.92015456   -6.2279044    346.09816  0.032737246  0.032806388            3 
  882000   0.90429535   -6.2067663    345.87098  0.032678664  0.032786398           11 
  883000   0.92006293    -6.205533     346.6035  0.032710787  0.032766224            7 
  884000   0.91991811   -6.2325627    346.74869  0.032687471  0.032746221            8 
  885000   0.89542516   -6.2292451    346.94013  0.032668562  0.032726204            8 
  886000   0.87837154   -6.2005327      347.387  0.032673721  0.032706146            4 
  887000   0.91013668   -6.2094076    347.24647  0.032623682   0.03268626            7 
  888000   0.91857022    -6.200611     347.0936  0.032572597  0.032666299            6 
  889000   0.91952701   -6.1998994    347.44047  0.032568473  0.032646098            6 
  890000   0.91306513   -6.2203729    348.01854  0.032586006  0.032626028            6 
  891000   0.91570602   -6.2138609    348.58013  0.032601958  0.032606298            2 
  892000   0.87648233   -6.2331898    347.34928  0.032450418  0.032586156            3 
  893000   0.90997832   -6.2087512    348.38595   0.03251082  0.032566017            5 
  894000   0.88785801   -6.2082659    348.71088  0.032504743  0.032545686            9 
  895000   0.88637288   -6.2362393    348.65822  0.032463522  0.032525325            5 
  896000   0.87253538   -6.2701303    347.13091  0.032285241  0.032504939            5 
  897000   0.88504921   -6.2438702    348.20495   0.03234903  0.032484458            7 
  898000   0.91979831   -6.2321173    349.04274  0.032390751  0.032464268            4 
  899000    0.8883594    -6.243688    348.08661  0.032266092  0.032444078            6 
  900000   0.92811949   -6.2318946    349.66079  0.032375999  0.032423788            9 
  901000   0.90643087   -6.1996732    350.27319  0.032396707  0.032403835            5 
  902000   0.89304753   -6.2417919    349.91488  0.032327686  0.032383691            5 
  903000   0.90563507   -6.2275036    350.34612  0.032331683  0.032363383            5 
  904000   0.88720723   -6.2453047    350.37779  0.032298838  0.032343278            7 
  905000   0.86957478   -6.2099981    349.97618  0.032226167  0.032323223            8 
  906000   0.89083887   -6.2302747    350.69347  0.032256573  0.032303291            8 
  907000    0.9035675   -6.2240167    351.44893   0.03229042   0.03228347            4 
  908000   0.88563047   -6.2555366    349.74911  0.032098854  0.032263365           11 
  909000     0.864178   -6.2477058    351.21579  0.032198001  0.032243363           16 
  910000   0.90630119    -6.248721     350.8632  0.032130329  0.032223188            6 
  911000   0.88439995   -6.2204632    352.24113  0.032221106  0.032203231            3 
  912000   0.89154187   -6.2223176     352.0318  0.032166648  0.032183379           11 
  913000   0.87906463   -6.2501986    351.45474  0.032078746  0.032163336            6 
  914000   0.89736405   -6.2377438    351.41255  0.032039802  0.032143164            3 
  915000    0.8692837   -6.2286528    352.77218  0.032128614  0.032122983            7 
  916000   0.87144484   -6.2149032    352.34417  0.032054601  0.032103225            8 
  917000   0.90073325    -6.228539    352.27516  0.032013373  0.032083082            6 
  918000   0.88939241   -6.2607199    352.01433  0.031954823  0.032062793            7 
  919000   0.88199583   -6.2458421    351.52773  0.031875928   0.03204234            3 
  920000     0.877897   -6.2420264    352.84028   0.03196017  0.032021953            3 
  921000    0.8797387   -6.2435566    353.50599  0.031985703  0.032001642            8 
  922000   0.86232142   -6.2402311    353.06593  0.031911237  0.031981344            5 
  923000   0.87816345   -6.2328076     353.1135  0.031880959  0.031961042            5 
  924000   0.88478815   -6.2421925    353.14586  0.031849374   0.03194096            5 
  925000    0.8620422   -6.2375118    352.35779  0.031743945  0.031920785            6 
  926000   0.87536082   -6.2416761    353.68105  0.031828748  0.031900335            6 
  927000   0.88785267   -6.2922553    352.39253   0.03167858  0.031879771           12 
  928000   0.88208023   -6.2670336    352.41535  0.031646493  0.031859092            4 
  929000   0.87704883   -6.2199062    354.53372  0.031802451  0.031838408            6 
  930000   0.86726643   -6.2434795    353.37806  0.031664701  0.031818045            6 
  931000   0.89997048   -6.2479659    353.88024  0.031675639  0.031797353            6 
  932000   0.89001508   -6.2501112    353.43957  0.031602251  0.031776437            5 
  933000   0.88346862    -6.284365    353.20778  0.031547676  0.031755788            8 
  934000   0.87969241   -6.2672055    354.38172   0.03161864  0.031735197            3 
  935000   0.87899414   -6.2751565    354.15367  0.031564498  0.031714412            6 
  936000   0.88101609   -6.2793978    353.53884  0.031476036  0.031693619            7 
  937000    0.8877353   -6.2496974    354.29471  0.031509668  0.031672822            7 
  938000   0.87874115   -6.2772206     352.9094  0.031353003  0.031651779            5 
  939000   0.89967448   -6.2881545    353.46826  0.031369211  0.031630906            3 
  940000   0.87481762   -6.2798754    355.07878  0.031478615  0.031609945            6 
  941000   0.85845194   -6.2623908    354.79591  0.031420113  0.031588917            3 
  942000   0.86880084   -6.2519766    355.04338   0.03140865   0.03156813            5 
  943000   0.88299169   -6.2502367    355.81202  0.031443268  0.031547413            5 
  944000   0.89022509   -6.2228393    355.36784  0.031370749  0.031526478            6 
  945000   0.88846642   -6.2454711    355.25454  0.031327561  0.031505601           12 
  946000   0.87940161   -6.2601871    354.86992  0.031260563  0.031484491            9 
  947000   0.87063722    -6.283058    354.05922  0.031156214  0.031463365            6 
  948000   0.89528298   -6.2839716     354.3966  0.031153007  0.031441901            3 
  949000   0.87264841   -6.2600572    355.45049  0.031212723  0.031420747            4 
  950000   0.87869651   -6.2766356    355.62081  0.031194808  0.031399289            8 
  951000   0.85298037   -6.2613255    355.95709  0.031191473  0.031377972            4 
  952000    0.8621096   -6.2943246     355.8853  0.031152425   0.03135674            5 
  953000   0.87768565   -6.2707934    354.86497  0.031030515  0.031335455            4 
  954000   0.88471892   -6.2674377    355.96276  0.031093882  0.031314326            6 
  955000   0.88356826   -6.2660858    355.79016  0.031046262  0.031293389            3 
  956000   0.87483123   -6.2901929    356.56063  0.031080948  0.031272286            7 
  957000   0.86530936   -6.2900047    357.18675  0.031102991  0.031251075           11 
  958000   0.86285983   -6.3153883    356.28033  0.030991678  0.031229835           10 
  959000   0.85910855   -6.2402663    358.39677  0.031143272  0.031209038            6 
  960000   0.88009492   -6.2552849    358.27269   0.03110006  0.031188353            4 
  961000   0.85328544   -6.2496236    358.32296  0.031072057  0.031167631            6 
  962000   0.88260511   -6.2656233    357.67944  0.030984012  0.031146706            6 
  963000   0.86898008   -6.2874473    357.27583  0.030916912  0.031125917            5 
  964000   0.87404368   -6.2677424    358.88709  0.031024126  0.031104726            7 
  965000   0.87614238   -6.2930526    357.48667  0.030871042   0.03108397            8 
  966000   0.86921482     -6.28938    358.73723  0.030946966  0.031063221            9 
  967000   0.87753639    -6.270785     359.2101  0.030955713  0.031042515            3 
  968000   0.86273323    -6.299276    358.88376  0.030895641  0.031021819            5 
  969000   0.85901052   -6.3143851    359.48685  0.030915622  0.031001237            9 
  970000   0.86776025   -6.3016831    357.88879  0.030746459   0.03098064           11 
  971000   0.88816522   -6.3138961    358.98895  0.030809213  0.030959945            7 
  972000   0.85721618    -6.294817    359.52244  0.030823254  0.030939336           10 
  973000   0.85907658   -6.3360042    359.46455  0.030786618  0.030919034            6 
  974000   0.86997401   -6.3432244    359.45115  0.030753863  0.030898581            8 
  975000   0.87584578   -6.2994731    359.79924  0.030752072  0.030878442            7 
  976000    0.8710503   -6.3280905     359.9981  0.030737543  0.030857861           10 
  977000   0.86489164   -6.2852053    361.39815  0.030825499  0.030837449            3 
  978000   0.84605013    -6.316092    360.58655  0.030724825  0.030817102            4 
  979000   0.87848147    -6.322209     361.2805  0.030752511  0.030796951            8 
  980000   0.86193756   -6.3127232    360.21287  0.030630346  0.030776751            8 
  981000   0.86420136   -6.3007996    361.70497  0.030725873  0.030756516            4 
  982000     0.867177   -6.2960389    361.03795   0.03063798  0.030736219            3 
  983000   0.86017248   -6.3097669    361.42227  0.030639392  0.030715799           18 
  984000   0.87566964   -6.3386011    361.59404  0.030622801  0.030695529            7 
  985000   0.86244835   -6.3101657    360.02844  0.030459259  0.030675251           11 
  986000   0.85334198   -6.2956081    362.01794  0.030596513  0.030655069            5 
  987000   0.85960224   -6.3119521    362.39952   0.03059773  0.030634823            4 
  988000   0.85255082    -6.322911    363.17884  0.030632493  0.030614551            7 
  989000    0.8672349   -6.3051315    362.26421  0.030524453  0.030594313            7 
  990000   0.87049608    -6.329739    361.35912  0.030417434  0.030573797            6 
  991000   0.82803606   -6.2915168    363.15416  0.030537686  0.030553509            6 
  992000   0.85202863   -6.3124404    363.21993  0.030512427  0.030533162            8 
  993000   0.86129257   -6.3085772    362.79636  0.030446153  0.030512538            6 
  994000   0.84169749   -6.2924601    362.90426  0.030424569   0.03049218            8 
  995000   0.85663183    -6.293135    364.18817  0.030501522  0.030471903            5 
  996000   0.86071076   -6.3228685    363.90916  0.030447554   0.03045152            5 
  997000   0.84974067   -6.3135139    363.89952  0.030416209  0.030431087           12 
  998000   0.85558593   -6.3239986    362.56747  0.030274505  0.030410833            9 
  999000   0.84323544   -6.3150292    364.10539  0.030372488  0.030390494            6 
 1000000   0.86219155   -6.2859389    363.68697  0.030307247  0.030370263           12 
 1001000   0.86391788   -6.3256158    364.08717  0.030310287   0.03034983            5 
 1002000   0.84290163   -6.3183749    364.45349  0.030310503  0.030329419            5 
 1003000    0.8546711   -6.3214424     363.0595  0.030164465  0.030308906            5 
 1004000    0.8586902    -6.326946    364.94852  0.030291212  0.030288541            7 
 1005000   0.85548585   -6.3530616    364.87136  0.030254673  0.030268414            2 
 1006000   0.85967093    -6.323584    364.87104  0.030224573   0.03024826            7 
 1007000   0.85452278   -6.3221667     364.5536  0.030168288  0.030228054            4 
 1008000   0.85450524   -6.3599427    364.87189  0.030164674  0.030207831            5 
 1009000   0.88172325   -6.2970714    365.04732  0.030149266   0.03018769            7 
 1010000   0.85546316   -6.3273065     365.2753  0.030138226   0.03016767            6 
 1011000   0.85144468   -6.3554419    365.18959  0.030101351  0.030147434            6 
 1012000   0.84900985   -6.3778882    364.48597  0.030013667   0.03012696            7 
 1013000   0.84366179   -6.3431565    365.28496  0.030049767  0.030106653            6 
 1014000   0.84605475   -6.3604322    365.08177  0.030003433  0.030086381            6 
 1015000   0.86445229   -6.3334152    366.27189  0.030071584  0.030066244            5 
 1016000   0.84055539   -6.3204659    367.16424  0.030115177  0.030046314            5 
 1017000   0.84715512   -6.3361895    366.98612   0.03007097  0.030026283            4 
 1018000   0.83973046   -6.3154599    366.85305  0.030030538  0.030006219            8 
 1019000    0.8339223   -6.3414634    366.16279  0.029944618  0.029986061            4 
 1020000   0.85308449   -6.3566997    366.40379   0.02993495  0.029965765            4 
 1021000   0.85360396   -6.3308048     366.3301  0.029899617  0.029945494            3 
 1022000   0.83824129   -6.3536681    366.74759  0.029904402  0.029925422            8 
 1023000   0.83864853   -6.3240006    367.69599  0.029952427  0.029905331            5 
 1024000    0.8503778   -6.3000403    367.14517  0.029878351  0.029885563            5 
 1025000   0.84068336   -6.3181017    367.18366   0.02985233  0.029865671            7 
 1026000   0.86092282   -6.3593978    366.08776  0.029734223  0.029845609            7 
 1027000   0.84228324   -6.3669087    366.41498  0.029731822   0.02982506            9 
 1028000   0.84306332   -6.3166387    366.86107  0.029739062  0.029804591           10 
 1029000   0.85437925   -6.3707086     367.4816  0.029760415  0.029784535           11 
 1030000   0.84217289   -6.3437159    368.12178  0.029783316  0.029764419            6 
 1031000    0.8541442   -6.3796877    367.56375  0.029709323  0.029744347            8 
 1032000   0.84329678   -6.3443036    367.99329  0.029715221   0.02972436           14 
 1033000   0.83636284   -6.3707402    367.52101  0.029648355   0.02970411            6 
 1034000   0.84215674   -6.3701503      366.965  0.029574871  0.029683897           10 
 1035000   0.85634511   -6.3123516    368.74716  0.029689788  0.029663607            4 
 1036000   0.86135886   -6.3407274     367.9851  0.029599831  0.029643712            5 
 1037000   0.85481449   -6.3640656    368.01168  0.029573424  0.029623622            6 
 1038000   0.82378058   -6.3730629    368.78479     0.029607  0.029603442            3 
 1039000   0.82944923   -6.3476881    368.00034  0.029515587  0.029583351           12 
 1040000   0.84082879   -6.3654944    368.77245  0.029549074  0.029563247            7 
 1041000     0.850236   -6.3727111    368.59809  0.029506732  0.029542955            6 
 1042000   0.82834498   -6.3602967    368.26025  0.029451395  0.029522586           10 
 1043000   0.82839712   -6.3638621    368.49041  0.029441548  0.029502376            9 
 1044000   0.85431672   -6.3762221    369.10471  0.029462381  0.029482098            4 
 1045000   0.83046059   -6.3664743    367.66414   0.02931931  0.029461763            9 
 1046000   0.84531909   -6.3446565    369.55927  0.029442262  0.029441507            7 
 1047000   0.82625962   -6.3650153     368.9436  0.029365138   0.02942135           16 
 1048000   0.84048784   -6.3769368     369.2816  0.029363995  0.029401256            6 
 1049000   0.82754615   -6.3631791    370.46007  0.029429621   0.02938111            5 
 1050000     0.844246   -6.3685104    369.63553  0.029336153    0.0293609            4 
 1051000   0.84143086   -6.3857178    368.36421  0.029207438  0.029340571            5 
 1052000   0.83291633    -6.404367    368.79927  0.029214137      0.02932           13 
 1053000    0.8402779    -6.379083    369.77827   0.02926387  0.029299735            5 
 1054000   0.83518522   -6.3761433    369.53636   0.02921698  0.029279476           11 
 1055000   0.83672988   -6.3608792    370.24214  0.029245035  0.029259156            5 
 1056000   0.84896489   -6.3818365    370.46507  0.029234933  0.029238857           11 
 1057000   0.83286424   -6.3428759    370.11852  0.029179953  0.029218622           10 
 1058000   0.83005977   -6.3449648    370.26575  0.029163969  0.029198489            8 
 1059000    0.8358443   -6.3448372     370.3939  0.029146514   0.02917824            5 
 1060000   0.82019694   -6.3699595     370.8436  0.029154371  0.029157985           11 
 1061000   0.82637278   -6.3751923    370.11014  0.029069285  0.029137641            4 
 1062000   0.82035306   -6.3951068    369.78023  0.029016025  0.029117199           12 
 1063000   0.83794933    -6.372199    370.14621   0.02901742  0.029097095           10 
 1064000   0.84296457   -6.3761418    371.29377  0.029080026  0.029077018            7 
 1065000    0.8272394   -6.4006041    371.03216  0.029032251  0.029056811            6 
 1066000   0.82720441   -6.3806552    370.13035  0.028934518  0.029036586            3 
 1067000   0.82717976   -6.4216607    370.10386  0.028905331  0.029016216           22 
 1068000   0.81258533   -6.4001919    371.66202  0.028999845  0.028995924            4 
 1069000   0.81024552   -6.3863355    371.98847  0.028998165  0.028975708            6 
 1070000   0.81528603   -6.4083657    370.30681  0.028840094   0.02895521            4 
 1071000   0.82773863   -6.4018461    371.59895  0.028913706  0.028934869            8 
 1072000   0.83359973   -6.3854383    372.35585  0.028945573   0.02891458            6 
 1073000   0.83100641   -6.4005808    369.97759  0.028733892  0.028894313            9 
 1074000   0.82152798    -6.408607    371.88551  0.028855176  0.028873911            7 
 1075000   0.81363218   -6.4361014    370.61906   0.02873016   0.02885357            8 
 1076000   0.82116788   -6.4080179    371.90353  0.028802937  0.028833153            5 
 1077000   0.82331438   -6.4101794    371.29254  0.028728918  0.028812842            4 
 1078000   0.82948287   -6.4150941    371.98623  0.028755893  0.028792372            9 
 1079000   0.81556092   -6.4177127     371.2049  0.028668898   0.02877199           11 
 1080000   0.82929886   -6.3857802    372.11562  0.028712625  0.028751621            4 
 1081000   0.83866084   -6.4132734    371.88285   0.02866812  0.028731329            6 
 1082000   0.82327197   -6.3684457    372.46621  0.028686554   0.02871114            7 
 1083000     0.811715   -6.3855374    371.82377  0.028610631  0.028690954            9 
 1084000   0.82433466    -6.391375    373.75756    0.0287329  0.028670828            4 
 1085000   0.81716166   -6.4250737     372.8324  0.028635361  0.028650666           11 
 1086000   0.81359091   -6.4212148    372.53028   0.02858581  0.028630437            4 
 1087000   0.81225347   -6.4065631    372.05271    0.0285229  0.028610007            8 
 1088000   0.81014393    -6.410434    373.84403  0.028633887  0.028589745           10 
 1089000   0.81818287   -6.4265046    373.02866  0.028545199  0.028569648            6 
 1090000   0.81245802    -6.424854    373.03719  0.028519663  0.028549481            7 
 1091000   0.83126512   -6.4086514    374.28107  0.028588533  0.028529297            5 
 1092000   0.82888658   -6.3825955    372.86799  0.028454517  0.028509222            4 
 1093000   0.83146553   -6.3984889    374.06275  0.028519575  0.028489138           10 
 1094000    0.8252666   -6.4125059    373.57818  0.028456595  0.028469226            8 
 1095000   0.81108549   -6.4030241    373.84745    0.0284511  0.028449239            7 
 1096000   0.82600187   -6.4318148    374.04981  0.028440527   0.02842921            8 
 1097000   0.81940051   -6.3962162    373.37849  0.028363605   0.02840928            5 
 1098000   0.80584914   -6.4067424    374.80781  0.028446252  0.028389254            6 
 1099000    0.8106633   -6.4413126    374.63614  0.028407351  0.028369304            6 
 1100000    0.8158638   -6.4474899    373.92995  0.028328027  0.028349218            6 
 1101000   0.81839667   -6.4333374    374.19377  0.028322265  0.028329192            9 
 1102000   0.79919224   -6.4399099    374.55778  0.028324091  0.028309022            8 
 1103000   0.80672211    -6.463128    374.11112  0.028264666  0.028289122           13 
 1104000   0.81171373   -6.4507415      374.996  0.028305857  0.028269013           29 
 1105000   0.80974077   -6.4270454    375.45586  0.028314921  0.028249101            8 
 1106000   0.80406392   -6.4429859    374.73786  0.028235221  0.028229366           14 
 1107000    0.8048845   -6.4360786    374.75118  0.028210718  0.028209516            6 
 1108000   0.80326635   -6.3944112    375.51558  0.028242748  0.028189768            9 
 1109000   0.81027885   -6.3943415    376.05787   0.02825803  0.028170279            8 
 1110000   0.79638682   -6.4164242    377.03184  0.028305694   0.02815066            4 
 1111000   0.81386179   -6.4417108    376.78723  0.028261869  0.028131141            4 
 1112000    0.7800796   -6.4218282    376.37116  0.028205273   0.02811156            6 
 1113000   0.82201094   -6.4289035    376.05541   0.02815629   0.02809191            7 
 1114000   0.78923526   -6.4182544    376.32594  0.028151252  0.028072307            9 
 1115000   0.82755472   -6.4550974    376.03239  0.028104065  0.028052578            5 
 1116000   0.80616168   -6.4511442    376.63148  0.028123617  0.028032877           10 
 1117000   0.82152079   -6.4733691    376.20609  0.028066704  0.028013103            7 
 1118000   0.80743464   -6.4456561    375.83537  0.028013966  0.027993361            5 
 1119000   0.80879625   -6.4346641    377.20355  0.028090822  0.027973727            5 
 1120000   0.80581849   -6.4686274    376.20014  0.027991082  0.027954179           14 
 1121000   0.79639418   -6.4736281    377.51681  0.028063991  0.027934503            6 
 1122000   0.80587463   -6.4296219    377.30231  0.028023048  0.027914794            9 
 1123000   0.81436329   -6.4449777     377.2606  0.027994999  0.027895014           10 
 1124000   0.80491163   -6.4641997    376.99264  0.027950225    0.0278752            5 
 1125000    0.8123779   -6.4812201     377.0805  0.027931889  0.027855505            4 
 1126000    0.8023705   -6.4699916    376.74271  0.027882084  0.027835714            6 
 1127000   0.80893851   -6.4428949    377.36743  0.027903537  0.027816032            5 
 1128000   0.79089041    -6.472899    377.03307  0.027854098  0.027796252            6 
 1129000   0.79861264   -6.4611499    376.80179  0.027812355  0.027776421            5 
 1130000   0.79949968   -6.4632938    376.15128   0.02773977  0.027756492           16 
 1131000   0.78453736      -6.4398    376.83271  0.027765451  0.027736772            5 
 1132000   0.80553462   -6.4561048    378.18539  0.027840502  0.027717081            4 
 1133000   0.80175672    -6.444654    377.71871  0.027781605   0.02769739            4 
 1134000   0.80276981   -6.4370606    376.66521  0.027679689    0.0276774            5 
 1135000   0.78842562    -6.428826    377.82631  0.027740552  0.027657401           14 
 1136000   0.78550024   -6.4482554    377.45661  0.027689012  0.027637486           10 
 1137000   0.80308666    -6.463943    375.95142   0.02755434  0.027617398            7 
 1138000   0.79799441   -6.4798393    376.42682   0.02756494  0.027597345           18 
 1139000   0.80350599   -6.4723953     377.0136   0.02758367  0.027577196           17 
 1140000   0.80162749   -6.5002379    376.82739  0.027545862  0.027556972            6 
 1141000   0.80586668   -6.4771971    376.66203  0.027509643   0.02753684            8 
 1142000   0.79846851   -6.4928088    376.33671  0.027461815  0.027516583            7 
 1143000   0.80200728   -6.4798689    376.72333  0.027465976  0.027496388            5 
 1144000   0.78535715   -6.4716344    377.57939  0.027504326  0.027476332            6 
 1145000   0.78982246   -6.4667887    377.33118   0.02746224  0.027456275            5 
 1146000   0.79930407   -6.4839735    376.72144  0.027393939   0.02743608            8 
 1147000   0.78810051   -6.4871185    377.86718  0.027453297  0.027415803            7 
 1148000   0.80804435   -6.4918184    376.37888  0.027321347  0.027395523            7 
 1149000   0.81804083   -6.4975954    376.56909  0.027311364  0.027375179           13 
 1150000   0.79274245   -6.4907483    376.39226  0.027274802  0.027354991            7 
 1151000   0.79961651   -6.4959602    377.16516  0.027307063  0.027334864           10 
 1152000   0.78735085   -6.5040628    376.31137  0.027221598  0.027314623           18 
 1153000   0.79396253   -6.4815991    377.55619  0.027287958  0.027294238           23 
 1154000   0.78055972   -6.4996945     377.2276  0.027240584  0.027273834           15 
 1155000   0.79203533   -6.4583253    377.46519  0.027234141  0.027253539           18 
 1156000   0.79612106   -6.4876365    377.29483  0.027198301  0.027233232           21 
 1157000   0.78698591   -6.5164862    376.93374  0.027148786  0.027212888           16 
 1158000   0.80564678   -6.4859628    376.92077  0.027124408  0.027192543           12 
 1159000   0.77313344   -6.4604662    377.65882  0.027154071  0.027172199            8 
 1160000   0.80145738     -6.49276    376.42582  0.027042085  0.027151935            9 
 1161000   0.78071289   -6.5157559    377.45383   0.02709258    0.0271317            7 
 1162000   0.79629535   -6.5184816    376.35871  0.026990728  0.027111409           15 
 1163000   0.78413878   -6.5011373    378.60493   0.02712847  0.027091115            7 
 1164000   0.77743003   -6.4920712    377.79015  0.027046832  0.027070992            5 
 1165000   0.78821952   -6.4996057    376.50765  0.026931878  0.027050714           15 
 1166000    0.7763079   -6.4901119    377.37896  0.026971052   0.02703045            5 
 1167000    0.7926755   -6.4938271    378.78426   0.02704829  0.027010232            5 
 1168000   0.78178005   -6.4757872    378.18259  0.026982206  0.026990012            5 
 1169000   0.78068499   -6.4948433    378.51168  0.026982584  0.026969846            9 
 1170000   0.78815852   -6.5170025    378.48313  0.026957488  0.026949711            9 
 1171000   0.80055696   -6.4893577    378.60415  0.026943079    0.0269297            9 
 1172000   0.81010444   -6.4974309     378.5718   0.02691779  0.026909622            7 
 1173000   0.78625076   -6.5050969     378.7848  0.026909975  0.026889634           10 
 1174000   0.76971705   -6.5071186    378.28255  0.026851402  0.026869579           12 
 1175000   0.77504602    -6.497802    379.93486  0.026945735  0.026849704            7 
 1176000   0.80269843   -6.4700832    379.98892  0.026926652  0.026829707           11 
 1177000   0.78712135   -6.4952591    379.04462  0.026836917  0.026809859           15 
 1178000   0.79941225   -6.4923685    380.17049  0.026893781  0.026790062            8 
 1179000   0.77624874   -6.5322352    378.15476  0.026728496  0.026770176            8 
 1180000   0.77559185    -6.506275    379.86528  0.026826644  0.026750376            9 
 1181000   0.79715884   -6.4893001    379.16756  0.026754696  0.026730528           12 
 1182000   0.79146724    -6.531782    379.28798  0.026740551  0.026710653            7 
 1183000   0.78483315   -6.5289135     380.7673  0.026822154  0.026690836           10 
 1184000   0.76792154    -6.525281    378.77038  0.026658952  0.026670972           12 
 1185000   0.76813044   -6.5256698    378.89203  0.026645009  0.026651068           14 
 1186000   0.76020579   -6.5368947    379.20954  0.026644853  0.026631163           21 
 1187000   0.78454307   -6.5106646    379.11367  0.026615674  0.026611258           14 
 1188000   0.78036237    -6.524767     379.4005  0.026613391  0.026591304           21 
 1189000   0.79293274   -6.5376351     378.7699  0.026546811  0.026571229           14 
 1190000   0.78649949   -6.5541677    379.48059  0.026574271   0.02655116           11 
 1191000   0.79076788   -6.5339697    380.16878  0.026600111  0.026531153            6 
 1192000   0.78842676   -6.5433363    379.35041  0.026520582   0.02651122            9 
 1193000   0.77890428   -6.5293132    379.73537  0.026525242  0.026491327            4 
 1194000   0.78457456   -6.5119437    380.99152  0.026590698  0.026471496            5 
 1195000   0.77742503   -6.5161695    379.28341  0.026449331  0.026451731            7 
 1196000   0.74918421    -6.534156    380.27879  0.026496571  0.026431941            6 
 1197000   0.77250367   -6.5156037    380.65113  0.026500357  0.026412219            5 
 1198000   0.77017749   -6.5167519    380.88613  0.026494583  0.026392506           10 
 1199000   0.76730829   -6.5147787    381.94047  0.026545765  0.026372881            6 
 1200000    0.7662135   -6.5342094     380.3205  0.026411146  0.026353189            7 
 1201000   0.77745587   -6.5195852    380.21837  0.026382069  0.026333363           11 
 1202000   0.75449007   -6.5518136    380.62125  0.026388051  0.026313632            6 
 1203000   0.75697511   -6.5251505    381.07957  0.026397865  0.026293904            4 
 1204000   0.78254651   -6.5142276    381.46093  0.026402335  0.026274364            8 
 1205000   0.76121705   -6.5421958    382.23431  0.026433908  0.026254958            8 
 1206000    0.7483493   -6.5300855    381.32943  0.026349463  0.026235467            7 
 1207000   0.76895484   -6.5414311    382.00791  0.026374476  0.026215879            7 
 1208000   0.76733508   -6.5170092    381.09638  0.026289762  0.026196338            6 
 1209000   0.77921789   -6.5106417      381.374  0.026287152  0.026176916            8 
 1210000   0.78781947   -6.5546887    382.47058  0.026340949  0.026157481            6 
 1211000   0.75747412   -6.5226371    381.68595  0.026265204  0.026137953           22 
 1212000   0.76867267   -6.5069408    382.09572  0.026271708  0.026118615           10 
 1213000   0.77845494   -6.5426091    381.96571  0.026241118  0.026099176           13 
 1214000   0.78106879   -6.5390727    382.73874  0.026272566  0.026079756           17 
 1215000    0.7619636   -6.5286052    382.76534  0.026252767  0.026060515            5 
 1216000   0.76232746   -6.5467518     383.0543   0.02625098  0.026041165           12 
 1217000   0.78517355   -6.5922609    382.85672  0.026215881  0.026021824            8 
 1218000   0.78750885   -6.5544256     382.6128  0.026177668  0.026002456           14 
 1219000   0.76610741   -6.5554675    382.50402  0.026148757  0.025983123           12 
 1220000    0.7686988   -6.5459916    382.21272  0.026107426  0.025963706           11 
 1221000   0.76768957   -6.5448159    382.91394  0.026133902  0.025944204            6 
 1222000   0.76529543   -6.5242144    383.09159  0.026124631  0.025924836            7 
 1223000   0.78170429   -6.5560661    381.70721  0.026008941  0.025905421            5 
 1224000   0.75775698   -6.5569895    381.76006   0.02599129   0.02588591            5 
 1225000   0.77113464   -6.5618006    381.78802  0.025971974  0.025866379           15 
 1226000   0.75394791   -6.5884434    381.36556  0.025922074  0.025846753            8 
 1227000   0.77049557   -6.5384614    382.69184  0.025991024  0.025827148           12 
 1228000   0.76287632   -6.5379503    382.79937  0.025977156    0.0258076           10 
 1229000   0.77909245   -6.5926766    381.98481  0.025900787  0.025788184            9 
 1230000    0.7571455   -6.5950933    383.17497  0.025960364  0.025768866           10 
 1231000   0.75908799   -6.5689166    382.47961  0.025892202  0.025749679            7 
 1232000   0.76914062     -6.55843    382.47044  0.025870566   0.02573032            9 
 1233000   0.76098754   -6.5728677    382.89939  0.025878575  0.025710892            7 
 1234000   0.75506949   -6.5898045     382.3511  0.025820577  0.025691541            8 
 1235000   0.75416626    -6.566377    382.18299  0.025788326  0.025672069           16 
 1236000   0.74894471   -6.5713491    382.93661  0.025818272  0.025652596           10 
 1237000   0.74388149   -6.5273602    383.14889  0.025811701  0.025633286           16 
 1238000   0.75284653   -6.5655897    383.01222  0.025781652  0.025614004           22 
 1239000   0.77067857   -6.5480309    382.85286  0.025750125  0.025594628           13 
 1240000   0.74617952   -6.5779101    382.98269  0.025738084  0.025575146           14 
 1241000   0.74943564    -6.580863    382.59498   0.02569131  0.025555735            9 
 1242000   0.74227362   -6.5704784    382.79626  0.025684129  0.025536354            4 
 1243000   0.77060199   -6.5841654    383.33105   0.02569932  0.025517129           11 
 1244000   0.74465129   -6.5835087    383.21475   0.02567087  0.025497759            4 
 1245000    0.7526566   -6.5773116    383.07649  0.025640997  0.025478454           10 
 1246000   0.77022095   -6.5955395    383.41344  0.025642953  0.025459067           11 
 1247000   0.76143373   -6.5858664    383.16676  0.025605905  0.025439764            8 
 1248000   0.76359768   -6.5907949    384.06968  0.025645678  0.025420467            7 
 1249000   0.75563541   -6.5884657    383.27043  0.025571819  0.025401113           12 
 1250000   0.76018148   -6.5988729    383.66162  0.025577441    0.0253818            7 
 1251000   0.75523658    -6.578585    383.85658  0.025569983  0.025362437           12 
 1252000   0.74559661   -6.5740063    383.46815  0.025523705  0.025343179           14 
 1253000   0.76061811   -6.6071007    382.60831   0.02544615  0.025323823            5 
 1254000   0.74758538   -6.6027447    382.65553  0.025428996  0.025304396            7 
 1255000   0.75017831   -6.5770547    383.70118  0.025478166  0.025285087            6 
 1256000   0.77125253    -6.593415    383.74696  0.025460918   0.02526585           10 
 1257000   0.77219792   -6.5823788    383.82745  0.025445999   0.02524665           11 
 1258000   0.75321893   -6.5803485    384.60059  0.025476987  0.025227402            5 
 1259000   0.75651229   -6.6063614    383.61282   0.02539137  0.025208136            5 
 1260000    0.7699453   -6.5730529    385.06283  0.025467118  0.025188986            4 
 1261000   0.74748876   -6.6122903    383.47751  0.025342156  0.025169836           11 
 1262000   0.73719859   -6.5792462    384.01292   0.02535743  0.025150629           17 
 1263000   0.73062994   -6.5911425    382.75577  0.025254406  0.025131395           15 
 1264000   0.74700349    -6.618335    382.81071  0.025238048  0.025112065            5 
 1265000   0.75106909   -6.6382586     383.9698  0.025294453  0.025092778           22 
 1266000   0.75663151   -6.5719796    383.77674  0.025261765  0.025073501           15 
 1267000   0.75073523    -6.626624    383.97907  0.025255135   0.02505427           11 
 1268000   0.75315246   -6.6313664    384.01092  0.025237311  0.025035047           20 
 1269000   0.73492487   -6.5855275    384.83831  0.025271757  0.025015852           13 
 1270000   0.74544916   -6.6145171    383.86999   0.02518832  0.024996681           14 
 1271000   0.74772087   -6.6131042    384.05717  0.025180774  0.024977404           14 
 1272000   0.76464867   -6.6307836    383.30682   0.02511182  0.024958142           17 
 1273000   0.73645362   -6.6120788    383.14922  0.025081777    0.0249389           15 
 1274000   0.75484224   -6.6033651    384.73541  0.025165843  0.024919675            7 
 1275000   0.75933452   -6.6068189    383.61249  0.025072712  0.024900303           13 
 1276000   0.74511099   -6.6555825    382.94073  0.025009191  0.024881039           11 
 1277000   0.75333887   -6.6024678    383.99904  0.025058669  0.024861776            9 
 1278000   0.73280963   -6.6006665    384.71405  0.025085684  0.024842579            8 
 1279000   0.75973944    -6.619436    384.63753  0.025061085  0.024823477           14 
 1280000   0.72799311   -6.6082298    384.59512  0.025038745  0.024804402            7 
 1281000   0.75558291   -6.6327858     384.0367  0.024982872  0.024785282           39 
 1282000   0.73795682   -6.6182293    383.35053  0.024918781  0.024766041           11 
 1283000   0.73937846   -6.5994945    384.63894  0.024983044  0.024746797           10 
 1284000    0.7374331   -6.6129417    384.41754  0.024949217  0.024727681           12 
 1285000   0.75402766   -6.6202795    385.06124  0.024971546  0.024708664           10 
 1286000   0.74255476   -6.6137098    384.34322    0.0249056  0.024689683           21 
 1287000   0.73798164   -6.6015849    385.01406  0.024929685  0.024670737            8 
 1288000   0.73664984   -6.6283077    384.56708  0.024881411  0.024651731            9 
 1289000   0.72036947   -6.5998054    385.62528   0.02493052  0.024632735            8 
 1290000   0.74852411   -6.6231294    384.52779  0.024840297  0.024613868           22 
 1291000   0.73423227   -6.6322252     385.1832  0.024863362  0.024594947           13 
 1292000   0.73553275   -6.6172234    385.17821  0.024843796  0.024576016           31 
 1293000    0.7352994   -6.6146984    385.76211  0.024862214  0.024557136           13 
 1294000   0.74776493   -6.6097603    385.81606  0.024846475  0.024538178            9 
 1295000   0.75601886   -6.6197943    385.55278  0.024810346  0.024519336           18 
 1296000    0.7419353    -6.626038    385.09293  0.024761634   0.02450035           21 
 1297000   0.74479423   -6.6421897    385.63673  0.024777482   0.02448142           12 
 1298000   0.73665852   -6.6610178    384.62589  0.024693496  0.024462427           24 
 1299000    0.7303894   -6.6546746     385.7167  0.024744464  0.024443349           15 
 1300000   0.72368227   -6.6298954    385.12506  0.024687504  0.024424389            7 
 1301000   0.73465378    -6.644189    385.54038  0.024695131  0.024405426           19 
 1302000   0.73466224   -6.6565433    384.69732  0.024622204   0.02438649            7 
 1303000    0.7255518   -6.6213214     385.2822  0.024640713  0.024367511           13 
 1304000   0.72675006   -6.6476622    384.63019   0.02458015  0.024348563            9 
 1305000   0.72839993   -6.6383449    386.03372   0.02465094  0.024329738           19 
 1306000   0.73151263   -6.6180696    386.20126  0.024642755  0.024310975           11 
 1307000   0.73560482   -6.6364464    384.94842  0.024544021  0.024292245           11 
 1308000    0.7224305   -6.6659908    384.96926  0.024526584  0.024273499           12 
 1309000   0.72817047   -6.6224569    386.05132  0.024576733   0.02425474            9 
 1310000   0.71432517   -6.6359269    385.96402  0.024552419   0.02423604           16 
 1311000   0.73959952    -6.646731    384.99624  0.024472174  0.024217341           11 
 1312000    0.7456147   -6.6273551    385.99912  0.024517221    0.0241986           12 
 1313000   0.73276205   -6.6615904    384.61007  0.024410388  0.024179807           11 
 1314000   0.72237372   -6.6355155    385.53596   0.02445053  0.024161063           14 
 1315000   0.70621476   -6.6468832    385.92457  0.024456563  0.024142342           15 
 1316000   0.71915676   -6.6371036    386.30418  0.024462017  0.024123638           14 
 1317000   0.73271011    -6.635154    386.25613  0.024440403  0.024105062           11 
 1318000   0.71028359   -6.6282762    386.40282  0.024431134  0.024086577           10 
 1319000    0.7305345   -6.6513273    386.08117   0.02439229  0.024068031            9 
 1320000   0.71884221   -6.6575053    385.27443  0.024322881   0.02404937            6 
 1321000   0.72560957    -6.658586     386.0211  0.024351571  0.024030656            9 
 1322000   0.71687536   -6.6751622    384.61824   0.02424472  0.024011833           17 
 1323000   0.72254413   -6.6417545    386.35321  0.024335677  0.023993129           19 
 1324000   0.72304614   -6.6642363    385.09048   0.02423782  0.023974509           22 
 1325000   0.73073952   -6.6602622    386.09724  0.024282846  0.023956008            9 
 1326000   0.70122123   -6.6638173    387.05782    0.0243249  0.023937505           11 
 1327000    0.7243328   -6.6506086     386.7545  0.024287522  0.023919024           14 
 1328000   0.71025983   -6.6645745    387.09459  0.024290574   0.02390052           10 
 1329000   0.70773939   -6.6526983    385.90073  0.024197437  0.023882067           10 
 1330000   0.73593738   -6.6744907    387.10218  0.024254523  0.023863675            9 
 1331000   0.70502272   -6.6829406    386.82614  0.024219017  0.023845221           14 
 1332000   0.72646858   -6.6592224    386.56161  0.024184285  0.023826812           25 
 1333000    0.7213697   -6.6506635    387.55693  0.024228365  0.023808397           17 
 1334000    0.7462111   -6.6629184    387.81415  0.024226271  0.023789922           11 
 1335000   0.71366455   -6.6630669    387.00094  0.024157362   0.02377142           33 
 1336000   0.72151585   -6.6555364    387.64146  0.024179233  0.023753087           10 
 1337000   0.71317001   -6.7040972    385.86374  0.024050345  0.023734662           10 
 1338000   0.72424572   -6.6895389    386.26182  0.024057164  0.023716193           13 
 1339000   0.72090843   -6.6905998     387.1897  0.024096944  0.023697774            7 
 1340000    0.7067833   -6.6301875    388.08236  0.024134475  0.023679419            8 
 1341000    0.7223462   -6.7063116     386.5329   0.02402019  0.023661098           14 
 1342000   0.70139354   -6.6870488     386.8007  0.024018921  0.023642682           14 
 1343000   0.72661568    -6.686459    387.33611  0.024034259  0.023624431           13 
 1344000   0.71780074   -6.7010693    386.96274  0.023993225  0.023606151            9 
 1345000   0.71644386   -6.6975888    386.20603  0.023928502  0.023587816           18 
 1346000    0.7225243   -6.7059211    386.78102  0.023946324  0.023569363           11 
 1347000   0.70495311   -6.7374787    385.50783  0.023849779  0.023550938           13 
 1348000   0.71974328   -6.7197999    386.36969  0.023885367  0.023532433           16 
 1349000   0.70069246   -6.7143429    386.02012  0.023846066  0.023513964           13 
 1350000   0.69838549   -6.7166509     386.4313  0.023853784  0.023495486           29 
 1351000   0.71238059   -6.7125883    386.37679  0.023832765  0.023476973           12 
 1352000   0.71572339   -6.6882372    386.80208  0.023841351  0.023458529           10 
 1353000   0.72067311   -6.7047683    386.63066  0.023813172  0.023440073           18 
 1354000   0.71360842   -6.7149786    386.59742  0.023793539  0.023421684           44 
 1355000   0.68556215   -6.7200733    386.79413  0.023788077   0.02340326           46 
 1356000   0.71582006   -6.7220228    386.68129  0.023763599  0.023384903           26 
 1357000   0.71408113   -6.6920288    387.11694  0.023772841  0.023366544           33 
 1358000   0.72181934   -6.7125471    387.46872  0.023776922  0.023348184           12 
 1359000    0.7130984   -6.7269118     387.5632   0.02376522  0.023329891           37 
 1360000   0.71045609   -6.7146049    386.48015  0.023681382  0.023311604           11 
 1361000   0.70323378   -6.7074779    386.67502  0.023675913  0.023293292           22 
 1362000   0.69978733   -6.7181673    386.91857  0.023673432  0.023275033           26 
 1363000   0.70682807   -6.7259433    386.01515  0.023600828  0.023256807           18 
 1364000    0.7032788   -6.7142827     386.7531  0.023628611  0.023238478           36 
 1365000   0.69832139   -6.7165918    386.76711  0.023612156  0.023220146           21 
 1366000   0.71679462   -6.7463601    386.47152  0.023576837  0.023201829           35 
 1367000   0.71195915   -6.7201972    385.86358   0.02352253  0.023183483           20 
 1368000   0.71738559   -6.7290813    386.71765  0.023557362   0.02316516           20 
 1369000   0.70326712   -6.7344828    386.45195  0.023523981  0.023146869           25 
 1370000   0.72677708   -6.7212233    387.02107  0.023541428  0.023128618           18 
 1371000   0.70541349   -6.7238997    386.00976  0.023462786  0.023110328           12 
 1372000   0.71891851   -6.7104029    386.84974  0.023496705  0.023092087           22 
 1373000   0.71342531   -6.7073128    386.79298  0.023476146  0.023073919           27 
 1374000   0.72039553   -6.7129847    386.55074  0.023444368  0.023055766           12 
 1375000    0.7049256   -6.7222127    386.62571  0.023431861  0.023037579           16 
 1376000    0.7190792   -6.7293347    387.14495  0.023446278  0.023019401           10 
 1377000   0.70992319   -6.7556499    386.56975  0.023394442  0.023001195           18 
 1378000   0.69331197   -6.7167327    387.46142  0.023431387  0.022982929           13 
 1379000   0.68417355   -6.7655573    386.59526  0.023362054  0.022964651           25 
 1380000    0.7148387   -6.6871693    388.81454  0.023479139  0.022946559           17 
 1381000    0.6951195   -6.7162913     387.5898  0.023388233   0.02292853           15 
 1382000   0.70233888   -6.7315614    387.47749  0.023364538  0.022910464           18 
 1383000   0.67977328   -6.7364908    386.82922  0.023308581  0.022892333           30 
 1384000   0.69402417   -6.7467989    387.32084  0.023321342  0.022874241           16 
 1385000   0.70427239   -6.7340325    386.82626  0.023274745  0.022856154           21 
 1386000   0.70678155    -6.749532    386.44345  0.023234936   0.02283813           25 
 1387000   0.70189028   -6.7523546    387.57928  0.023286426  0.022820086           15 
 1388000   0.69113875   -6.7111935     388.0837  0.023299934  0.022802115           10 
 1389000   0.70188338   -6.7487811    386.08413  0.023163195  0.022784149            6 
 1390000    0.7009965   -6.7428065    386.63969  0.023179838  0.022766156            9 
 1391000   0.68187516   -6.7538922    386.77381  0.023171208  0.022748172           16 
 1392000   0.69528841   -6.7445053    387.05304  0.023171279  0.022730179           12 
 1393000   0.67746581   -6.7585327    385.88758  0.023084923  0.022712131           19 
 1394000   0.72089544   -6.7644005     386.7232  0.023118316  0.022694108           14 
 1395000   0.69478667   -6.7238401    386.86262  0.023110073  0.022676152           20 
 1396000   0.69639257   -6.7103382    388.47696  0.023189885  0.022658256           12 
 1397000   0.70055267   -6.7326975    387.24057  0.023099533  0.022640376           11 
 1398000    0.7171648   -6.7328024    389.14405  0.023196474  0.022622552            7 
 1399000   0.70177501   -6.7163325    388.10105  0.023117765  0.022604701            9 
 1400000   0.69982279   -6.7421054    387.20771  0.023048078  0.022586855           24 
 1401000   0.69356435    -6.755811    387.57766  0.023053632  0.022569048           13 
 1402000   0.69197177   -6.7529839    387.66441  0.023042345  0.022551213           10 
 1403000   0.69210865   -6.7694078    387.50495   0.02301645  0.022533274           15 
 1404000   0.68977767   -6.7573261    387.25332  0.022985121  0.022515355           10 
 1405000   0.69463679   -6.7283726    388.17054  0.023023164  0.022497504            9 
 1406000   0.68970617   -6.7477697    388.17876  0.023007276   0.02247973            9 
 1407000   0.69665628   -6.7443308    387.65476  0.022959889  0.022461954            9 
 1408000    0.6908399   -6.7614454    387.33647  0.022924744  0.022444192            9 
 1409000   0.69016239   -6.7187738    388.32501  0.022966939  0.022426314           32 
 1410000    0.6969798   -6.7635293    386.83132  0.022862371   0.02240848           11 
 1411000   0.69716769   -6.7756529     387.5754  0.022890113  0.022390612           40 
 1412000   0.67815463   -6.7670797    388.00781  0.022899422  0.022372788           16 
 1413000   0.70066136   -6.7937044    387.43749  0.022849581  0.022355019           12 
 1414000   0.68268791   -6.7366941    387.55292  0.022840224  0.022337148           58 
 1415000    0.6865945   -6.7714457    387.55026  0.022823926  0.022319327           33 
 1416000    0.6878924   -6.7573145    387.78893  0.022821853  0.022301568           39 
 1417000   0.68709464   -6.7624703    388.17253  0.022828307  0.022283811           21 
 1418000    0.6913671   -6.7851587    387.91672  0.022797174  0.022266093           22 
 1419000   0.68268703   -6.7698489    387.53148  0.022758485  0.022248396           31 
 1420000   0.68669612   -6.7808166     387.3988  0.022734671  0.022230632           18 
 1421000   0.68171435   -6.7666114    386.71202  0.022678397  0.022212933           25 
 1422000   0.69717608    -6.769522    387.37791  0.022701472  0.022195224           36 
 1423000   0.69686488   -6.7923436     386.7338  0.022647798  0.022177537           16 
 1424000   0.68154801   -6.7790351    386.59174   0.02262358   0.02215984           25 
 1425000   0.67317228    -6.790561    386.21855   0.02258588  0.022142105           48 
 1426000   0.68509966    -6.772948     387.9776  0.022672838  0.022124429           54 
 1427000   0.69162772    -6.763848    386.55058  0.022573615  0.022106744           51 
 1428000      0.68898   -6.7808891    387.47383  0.022611685  0.022089047           49 
 1429000   0.66977774   -6.7558688    387.26675  0.022583785  0.022071398           58 
 1430000   0.69909625   -6.7879681    387.03475  0.022554472    0.0220537           47 
 1431000   0.66943432   -6.7811034    387.43639  0.022562101  0.022036036           22 
 1432000   0.67792908   -6.7792963    387.55819  0.022553433   0.02201843           22 
 1433000   0.67601762   -6.7982982    388.13081  0.022570994  0.022000789           21 
 1434000   0.66379906   -6.8061627    387.26135  0.022504727  0.021983177           50 
 1435000   0.67541841    -6.789187    387.51197  0.022503599  0.021965565           27 
 1436000   0.67815997   -6.7881596    387.97532  0.022514816  0.021947968           41 
 1437000   0.68691395   -6.7904425    386.93243   0.02243867  0.021930344           59 
 1438000   0.67889201   -6.8061268    387.52664  0.022457501  0.021912769           80 
 1439000   0.67639017    -6.785607    388.12453  0.022476519  0.021895199          108 
 1440000    0.6652538   -6.7869254    387.94712  0.022450644  0.021877652           32 
 1441000   0.66662181   -6.8115677    387.18829   0.02239118  0.021860049           86 
 1442000   0.68452363    -6.805856     386.5019  0.022335986  0.021842431           94 
 1443000   0.66985766   -6.8167413    387.17964  0.022359647  0.021824792          110 
 1444000   0.67543547   -6.8121023    386.84087  0.022324612  0.021807121           62 
 1445000   0.66530372   -6.8663748    386.18861  0.022271546   0.02178942           75 
 1446000   0.68288207   -6.8044906    386.80565  0.022291704  0.021771774           45 
 1447000   0.66767095   -6.8248987    386.62239  0.022265744  0.021754169           84 
 1448000   0.68444425   -6.8018719    387.79068  0.022317603  0.021736596          103 
 1449000   0.68190587   -6.8288351    387.34479  0.022276558  0.021719062           79 
 1450000   0.66090292   -6.8274682    387.09972   0.02224711  0.021701489           81 
 1451000   0.67337511   -6.7876341    387.36193  0.022246837  0.021683916           52 
 1452000    0.6733765   -6.8243178    386.25918  0.022168227  0.021666367           76 
 1453000   0.67664691   -6.8225917    387.41688  0.022219367  0.021648864           16 
 1454000   0.65754626   -6.8335855    386.99585  0.022179955  0.021631365           16 
 1455000   0.68486053   -6.7911378    387.09843  0.022170586  0.021613901           14 
 1456000   0.67657913   -6.8422368    386.93697  0.022146118  0.021596472           17 
 1457000   0.68169956   -6.8237731    387.51105  0.022163753  0.021579027           28 
 1458000   0.67566946   -6.8344745    387.33766  0.022138641  0.021561588           29 
 1459000   0.67028738   -6.8248709    387.41597   0.02212794  0.021544152           14 
 1460000   0.66074223   -6.8284741    387.66118  0.022126779  0.021526712            9 
 1461000   0.66822165   -6.8154934    386.85908  0.022065884  0.021509321           23 
 1462000   0.64855897   -6.8324253    387.47452  0.022085871  0.021491905           26 
 1463000   0.67511837   -6.8202532    387.00843  0.022044226  0.021474569           19 
 1464000   0.67087405   -6.7965022    388.30073  0.022102728  0.021457284           11 
 1465000    0.6600373   -6.8066104     386.7945  0.022001963  0.021440056           10 
 1466000   0.66373128   -6.7895256    388.04417   0.02205799  0.021422846            8 
 1467000   0.67501699   -6.8223896    387.04279  0.021986071  0.021405677           24 
 1468000   0.65241454   -6.8147864    387.76699  0.022012204  0.021388473           13 
 1469000   0.67284418   -6.7930215    388.38277  0.022032152  0.021371295           21 
 1470000    0.6893137   -6.8307959    387.88616  0.021989011  0.021354116           12 
 1471000   0.67207941   -6.7978658    387.86215  0.021972703  0.021336927           20 
 1472000   0.66488657   -6.8170885     388.2163  0.021977825  0.021319736           20 
 1473000   0.66313006   -6.8497805    387.22941  0.021907072  0.021302516           25 
 1474000   0.67732942    -6.825508    387.22152  0.021891764   0.02128533           37 
 1475000   0.67541991   -6.8332299      387.998  0.021920791  0.021268165           21 
 1476000   0.66592031    -6.842253    387.16034  0.021858646  0.021250972           39 
 1477000   0.64859756   -6.8480654    387.45493  0.021860468  0.021233816           35 
 1478000   0.66744581   -6.8613437    387.70579  0.021859821  0.021216665           42 
 1479000    0.6656143   -6.8542712    387.19086  0.021816028  0.021199515           70 
 1480000    0.6763174   -6.8325255    388.10366  0.021852684  0.021182468           69 
 1481000   0.66236569    -6.843098    388.26536  0.021847027  0.021165363           80 
 1482000   0.67653682   -6.8673768    386.63069  0.021740367   0.02114823           36 
 1483000   0.65951899    -6.876812    386.95195   0.02174376  0.021131085           68 
 1484000   0.66527945   -6.8650557    388.25315  0.021802176  0.021113946           40 
 1485000   0.65801278   -6.8546794    387.50218  0.021745352  0.021096787           43 
 1486000   0.66901048   -6.8584603    387.39529  0.021724725  0.021079674           70 
 1487000   0.65927924   -6.8505499    386.29359  0.021648374   0.02106253           53 
 1488000   0.67271718   -6.8451574    387.41811  0.021696802  0.021045398           48 
 1489000   0.66641015   -6.8835201    388.11766  0.021721382  0.021028326           63 
 1490000   0.66253637   -6.8655606    387.05356  0.021647291  0.021011224           82 
 1491000   0.66176941   -6.8684549    386.75837  0.021616274  0.020994178           55 
 1492000   0.65885288   -6.8633535     388.0311  0.021672872  0.020977173           49 
 1493000   0.65353479   -6.8696494    386.77612  0.021588307  0.020960132           45 
 1494000   0.64631501   -6.8371427    387.25992  0.021600843  0.020943126           56 
 1495000   0.66555746   -6.8643747    387.80616  0.021616843  0.020926122           51 
 1496000   0.65509119   -6.8451718    387.44769  0.021582425  0.020909126           66 
 1497000   0.66454151   -6.8766665    387.20957  0.021554753  0.020892235          144 
 1498000   0.64874159   -6.8555416    387.51775  0.021557507  0.020875315           97 
 1499000   0.64522396   -6.8798224    387.98644  0.021569182  0.020858386          109 
 1500000    0.6636124   -6.8928759    387.39123  0.021521735  0.020841383           41 
 1501000   0.65634195   -6.8603127    387.66215  0.021522438  0.020824448           70 
 1502000   0.66181524   -6.8774172    387.28181  0.021487007  0.020807531          194 
 1503000   0.64655871   -6.9027957    386.65941  0.021438202  0.020790512          108 
 1504000   0.64369313   -6.8896622    387.28648  0.021458693  0.020773527           87 
 1505000   0.65232621   -6.9024477    387.21991  0.021440748  0.020756574          187 
 1506000   0.63343545    -6.886639    386.59161  0.021391745  0.020739622          149 
 1507000   0.65408574   -6.8987812    386.53647    0.0213745  0.020722686           93 
 1508000    0.6543368    -6.916563     387.3447   0.02140499  0.020705763          216 
 1509000   0.63771616   -6.9053962    386.87146  0.021364671  0.020688849          123 
 1510000   0.64650278   -6.9193682    387.16908  0.021366947  0.020671918          178 
 1511000   0.65866908   -6.9048486    386.29169  0.021304417  0.020655008          135 
 1512000   0.65063888   -6.9121584    386.35712  0.021293933  0.020638196          153 
 1513000   0.64322261   -6.8921206    387.61312  0.021349037  0.020621441           71 
 1514000   0.62612635   -6.8835844    388.39715   0.02137809  0.020604733          105 
 1515000   0.64175734   -6.9045096    387.25024  0.021300893  0.020587988          203 
 1516000   0.64163236   -6.9024028    387.13483  0.021280499  0.020571292          238 
 1517000   0.64230388   -6.8931131    386.94424  0.021256001   0.02055458          240 
 1518000   0.65193233   -6.9342162    386.87151  0.021238006  0.020537826          309 
 1519000   0.64056502   -6.9358002    387.38913  0.021252421  0.020521025          283 
 1520000   0.65457227    -6.918673    386.66334  0.021198648  0.020504332          170 
 1521000   0.64720375   -6.9074671    386.90989  0.021198219  0.020487664          170 
 1522000   0.64507858   -6.9111422    387.18774  0.021199504  0.020471012          204 
 1523000   0.63928763   -6.9216068    387.11813  0.021181775  0.020454339          274 
 1524000   0.63563071   -6.9276576    387.16023  0.021170179   0.02043769          299 
 1525000    0.6443717   -6.9066661    387.35165  0.021166757  0.020421051          290 
 1526000   0.64128289    -6.905215    387.34674  0.021152618  0.020404422          112 
 1527000   0.64488353   -6.9042599    387.47519  0.021145775  0.020387822          110 
 1528000   0.66010769     -6.92092    387.05914  0.021109246   0.02037119          306 
 1529000   0.64652054   -6.9367935    386.13123  0.021044868  0.020354527          282 
 1530000    0.6345976   -6.9241573    386.85137  0.021070336  0.020337848          319 
 1531000   0.65016478   -6.9289307    387.18298  0.021074623  0.020321149          251 
 1532000   0.64818409    -6.918331    387.01312  0.021051627  0.020304538          348 
 1533000     0.640911   -6.9280408    387.40942  0.021059438  0.020287925          135 
 1534000   0.62071451   -6.9218712    387.11599  0.021029769  0.020271307          143 
 1535000   0.64094375   -6.8940799    387.94238  0.021060933  0.020254738          304 
 1536000   0.64126114   -6.9109449    388.09639  0.021055577   0.02023823          212 
 1537000   0.63367577   -6.9213548      386.582   0.02095977  0.020221694          384 
 1538000   0.65152783   -6.9116235    387.15522  0.020977201  0.020205145          289 
 1539000   0.63461837   -6.9158938    386.19394  0.020911519  0.020188563          213 
 1540000   0.63335409   -6.9126414    386.87789  0.020934951  0.020172001          308 
 1541000    0.6314343   -6.9146307    387.21229  0.020939449  0.020155443          220 
 1542000   0.64510509   -6.9263399    386.18191  0.020870185  0.020138875          344 
 1543000   0.63512035   -6.9274455    387.09485  0.020905965  0.020122301          288 
 1544000   0.64080395   -6.9295943    386.38761  0.020854254  0.020105768          189 
 1545000   0.63087353   -6.9078394    387.33552  0.020891883  0.020089224          173 
 1546000   0.63565847   -6.9245631    387.04625  0.020862778  0.020072729          233 
 1547000   0.64582688   -6.9399593    387.06082  0.020850077  0.020056264          144 
 1548000   0.61895817   -6.9044159    387.11825  0.020839699  0.020039851          235 
 1549000   0.64657693    -6.927488    387.43203  0.020843126  0.020023461          266 
 1550000   0.63553681   -6.9252352     387.3245  0.020823898  0.020007112          323 
 1551000   0.65097807   -6.9322566    386.28826  0.020754796  0.019990779          212 
 1552000   0.64765726   -6.9401385    387.18085   0.02078935  0.019974411          166 
 1553000   0.63677065   -6.9351007     387.5129  0.020793781  0.019958043          283 
 1554000   0.63926373   -6.9390479    387.46684   0.02077793  0.019941671          320 
 1555000   0.62791515   -6.9445404     386.3494  0.020704684   0.01992522          371 
 1556000   0.64197868   -6.9395012    386.53856  0.020701508    0.0199088          333 
 1557000   0.61981494   -6.9481835    387.17496  0.020722274  0.019892419          433 
 1558000   0.63614379   -6.9557946    386.79428  0.020688612  0.019876071          370 
 1559000   0.63946576   -6.9464066     386.3681  0.020652561  0.019859745          474 
 1560000   0.62846552   -6.9589515    386.32147   0.02063683  0.019843429          522 
 1561000   0.63143207   -6.9444968    386.21668  0.020618016   0.01982708          469 
 1562000    0.6343223   -6.9482027    386.51624  0.020620798  0.019810759          471 
 1563000   0.62234075   -6.9391999    387.34008  0.020651529  0.019794464          276 
 1564000   0.63127066   -6.9615186    386.15252  0.020575049  0.019778163          339 
 1565000   0.62406443   -6.9470561    386.88767  0.020601047  0.019761886          357 
 1566000   0.62227382   -6.9431189    386.47592  0.020565981  0.019745618          363 
 1567000   0.63802241   -6.9670239    386.74781  0.020567316  0.019729419          263 
 1568000   0.62171998   -6.9798119     386.7311  0.020553311   0.01971315          413 
 1569000   0.61940078   -6.9475383    386.88039   0.02054814  0.019696903          436 
 1570000   0.62891801   -6.9698028    386.16699  0.020497186  0.019680701          406 
 1571000   0.62759121   -6.9685438    386.31541  0.020492012  0.019664452          434 
 1572000   0.61899263   -6.9598958    385.42195  0.020431613  0.019648242          321 
 1573000   0.61683212   -6.9779743    386.56027  0.020478929  0.019631994          276 
 1574000   0.63084967   -6.9604076    386.70617  0.020473643  0.019615791          234 
 1575000   0.62984759   -6.9848688    385.74606  0.020409845  0.019599594          236 
 1576000   0.62415485   -6.9634155    386.53669    0.0204387  0.019583378          286 
 1577000   0.63776827   -6.9897066    386.02806  0.020398862  0.019567146          404 
 1578000   0.63548212   -6.9815123    386.64582  0.020418558  0.019550924          354 
 1579000   0.61628853   -6.9725088    386.78297  0.020412865  0.019534723          337 
 1580000   0.62414721   -6.9637142     386.8733   0.02040471  0.019518543          180 
 1581000   0.61722995   -6.9703938    385.47291   0.02031799  0.019502381          220 
 1582000   0.61462357   -6.9764116    385.90408  0.020327859  0.019486222          293 
 1583000   0.62332411   -6.9933312    386.55934  0.020349512  0.019470076          358 
 1584000   0.62903913   -6.9963587    385.45232  0.020278426  0.019453931          201 
 1585000   0.62234007   -7.0084409     385.1282  0.020248591  0.019437774          265 
 1586000   0.62054246   -6.9850843     385.3597  0.020247988  0.019421573          277 
 1587000   0.62267396   -7.0096199    384.94272  0.020213333  0.019405423          322 
 1588000   0.62551774   -6.9880367    385.41323  0.020225296  0.019389266          251 
 1589000   0.61499699   -6.9976066    385.66828  0.020225943  0.019373109          302 
 1590000   0.62317717   -6.9759407    386.11052    0.0202364  0.019356973          289 
 1591000   0.61378897   -6.9905805    386.65132  0.020252007  0.019340942          234 
 1592000   0.61506572   -7.0025994     386.1982  0.020215568  0.019324896          326 
 1593000   0.62948494   -6.9777963    386.18567  0.020202222  0.019308877          284 
 1594000   0.61555373   -6.9912265    385.61565  0.020159747  0.019292889          423 
 1595000   0.61159658   -6.9849721    385.82042  0.020157806  0.019276916          321 
 1596000   0.60329916   -7.0072331    386.62989  0.020187442  0.019260912          383 
 1597000    0.6223429    -6.990984    385.66505  0.020124455  0.019244923          302 
 1598000   0.61360664   -6.9981113    384.56525  0.020054508   0.01922895          371 
 1599000   0.60671101   -7.0070311    385.68953  0.020100559   0.01921301          389 
 1600000   0.61172731    -7.019341    385.36495  0.020071091  0.019197046          617 
 1601000   0.62224775   -7.0442703    385.34548  0.020057541  0.019181069          557 
 1602000    0.6221263   -6.9893064    384.93286  0.020023557  0.019165098          443 
 1603000   0.62576442    -7.031795    385.18109   0.02002397  0.019149127          395 
 1604000   0.61624085   -7.0288338    384.85271  0.019994426  0.019133141          581 
 1605000    0.6173179   -7.0344621    385.46016  0.020013508  0.019117157          623 
 1606000   0.61089027   -7.0076614    385.97395  0.020027706  0.019101187          544 
 1607000   0.60775396    -7.008833     385.8291  0.020007732  0.019085256          444 
 1608000   0.61559098   -7.0424477     384.3897  0.019920694  0.019069342          539 
 1609000   0.60646401   -7.0199093    384.57544  0.019917932  0.019053439          514 
 1610000   0.61076777   -7.0085732    385.33234  0.019944738  0.019037499          484 
 1611000    0.6142605   -7.0123624    385.37716  0.019934676  0.019021597          383 
 1612000   0.62779296   -7.0232421    384.15765  0.019859266  0.019005718          624 
 1613000   0.60103647   -7.0375773     384.9786  0.019889368  0.018989861          462 
 1614000   0.61036791   -7.0429683    386.02843  0.019931249  0.018974022          482 
 1615000   0.61287374   -7.0434275    384.69779  0.019850247  0.018958166          357 
 1616000   0.61744789   -7.0338223    385.33588  0.019870868   0.01894228          494 
 1617000    0.6032584   -7.0357955    385.29912  0.019856685  0.018926435          585 
 1618000   0.60834937   -7.0533723    384.72477  0.019814831  0.018910608          505 
 1619000   0.61168289    -7.030697    384.72979  0.019802851    0.0188948          547 
 1620000   0.61052373   -7.0209331    384.97687  0.019803337  0.018879025          693 
 1621000   0.59551462   -7.0289502    385.35021  0.019810313  0.018863252          519 
 1622000   0.61444924   -7.0492814    384.64947  0.019762098  0.018847493          682 
 1623000   0.60079361   -7.0288773    385.63384  0.019800464  0.018831766          627 
 1624000   0.61158194   -7.0415951    384.15261  0.019712264  0.018816045          553 
 1625000   0.60238672   -7.0239628     385.5679  0.019772713  0.018800321          612 
 1626000   0.61466084   -7.0500622    385.29459  0.019746545  0.018784619          600 
 1627000   0.60397852   -7.0609158     384.6625  0.019702033   0.01876891          630 
 1628000   0.60774055   -7.0517511    384.48156  0.019680669  0.018753204          607 
 1629000    0.6133681   -7.0477745    384.76715  0.019683198  0.018737465          732 
 1630000   0.61235656   -7.0630256    384.34758  0.019649672  0.018721762          673 
 1631000   0.59831254   -7.0624613    384.46433  0.019643589  0.018706053          730 
 1632000   0.59720912   -7.0510946    385.27027  0.019672706  0.018690395          653 
 1633000   0.61045853   -7.0344903    385.69061  0.019682109   0.01867479          584 
 1634000    0.6008464   -7.0365533    385.10791  0.019640346  0.018659184          535 
 1635000   0.59995977   -7.0411795    384.43906  0.019594244   0.01864359          806 
 1636000      0.61747   -7.0522267    384.45905  0.019583285  0.018628005          623 
 1637000   0.61606461   -7.0737785    384.59382  0.019578183   0.01861241          827 
 1638000    0.6035077   -7.0545116    385.25525   0.01959988  0.018596837          809 
 1639000   0.59135822   -7.0525052    385.32283  0.019591358  0.018581319          712 
 1640000   0.58851954   -7.0564735    384.96789  0.019561376   0.01856579          784 
 1641000   0.60026012    -7.047714    384.88631  0.019545313  0.018550236          594 
 1642000   0.60468847   -7.0528184      384.309  0.019504111  0.018534751          674 
 1643000   0.59417327   -7.0612322      385.205  0.019537685  0.018519225          639 
 1644000   0.59475967    -7.052586    384.72502  0.019501471  0.018503725          688 
 1645000   0.58807746   -7.0642161    384.48359  0.019477385  0.018488248          736 
 1646000   0.60105658   -7.0696982    384.66472  0.019474722  0.018472779          724 
 1647000   0.60421755   -7.0869315    383.80774  0.019419537  0.018457277          790 
 1648000   0.60929233   -7.0411123     384.8845  0.019462202  0.018441819          731 
 1649000    0.6036614   -7.0570901    384.24019  0.019417839  0.018426385          643 
 1650000   0.58317336    -7.065836    384.65563  0.019427052  0.018410953          862 
 1651000   0.58092993   -7.0666148    383.84116  0.019374175  0.018395486          727 
 1652000   0.57687906   -7.1027104    383.66291  0.019353456  0.018379997          869 
 1653000   0.59926008   -7.0849927    384.71679  0.019394878  0.018364525          652 
 1654000   0.58366775   -7.0869236    384.10145  0.019352149  0.018349052          731 
 1655000   0.60853627   -7.0889695    383.73984  0.019322248  0.018333608          825 
 1656000   0.58500389   -7.0814974    383.69776  0.019308462    0.0183182          833 
 1657000   0.58606396   -7.0756994    383.68667  0.019296252  0.018302779          924 
 1658000   0.59747449   -7.0926137    383.44137  0.019272284  0.018287358          857 
 1659000   0.59138138   -7.0690187    384.95929  0.019336915  0.018271965          640 
 1660000   0.60030025   -7.0862529    384.11329  0.019282796  0.018256578          760 
 1661000   0.59500778   -7.0775025    384.06353   0.01926869  0.018241183          942 
 1662000   0.58794438   -7.0993992    384.34368  0.019271143  0.018225838          892 
 1663000   0.59024455   -7.0695217    383.54332  0.019219449  0.018210497          937 
 1664000   0.60109871    -7.067792    384.50307  0.019255963   0.01819518          816 
 1665000   0.58521894   -7.0769182    383.63425  0.019200914  0.018179883          838 
 1666000   0.58612819   -7.1118806    383.51085  0.019183216  0.018164585          859 
 1667000   0.58777534   -7.0794798    383.53245  0.019172788  0.018149276          955 
 1668000   0.59562598   -7.1070047     383.6163  0.019165483  0.018133991          735 
 1669000   0.57672994   -7.0814815    384.16462  0.019181377  0.018118708          794 
 1670000   0.58748559   -7.0870521    383.75462  0.019149432  0.018103435          742 
 1671000   0.58064363   -7.1187161    383.43323  0.019121945  0.018088149          790 
 1672000   0.58279691   -7.1001531     384.5578  0.019166557  0.018072866          860 
 1673000   0.59051463   -7.1062956    383.98124  0.019126382  0.018057625          842 
 1674000   0.57991837   -7.0847062    384.57712   0.01914462  0.018042421          815 
 1675000   0.58179133   -7.0817597    383.84618  0.019096825   0.01802728          850 
 1676000   0.58069688   -7.1080404    383.05278  0.019045981  0.018012117          785 
 1677000   0.58182629   -7.0938788    383.57942  0.019060794  0.017996927          944 
 1678000   0.59562767   -7.0729028    384.54996  0.019097634  0.017981803          860 
 1679000   0.58008698   -7.1082653    383.73122  0.019045623  0.017966674          951 
 1680000   0.59171938   -7.0980364    383.68846  0.019032165  0.017951513          971 
 1681000   0.58327283   -7.1022428     383.0364  0.018988519  0.017936381          855 
 1682000   0.57968071   -7.0993287    383.94585  0.019022288   0.01792127          897 
 1683000   0.58380466   -7.1030028    383.19609  0.018973861   0.01790616         1001 
 1684000   0.57855849   -7.1083645    383.11522  0.018958592  0.017891032         1082 
 1685000   0.58243238   -7.1010147     383.2257  0.018952804  0.017875936         1142 
 1686000   0.58868365   -7.1098888    382.98491  0.018929661   0.01786084         1055 
 1687000   0.57418011   -7.1021332    383.38496  0.018938202  0.017845805         1065 
 1688000   0.58143645   -7.1057052    382.73409   0.01889485   0.01783074         1055 
 1689000   0.57702696   -7.1121863    383.72415  0.018932512  0.017815684          916 
 1690000   0.57947328   -7.1001981    383.37413   0.01890405  0.017800672          939 
 1691000   0.57067343   -7.0947725    383.29109  0.018888778  0.017785678         1028 
 1692000   0.57511061   -7.0940538     383.4103  0.018883486  0.017770709          920 
 1693000   0.56914097   -7.0992584    383.50763  0.018877123   0.01775576          955 
 1694000   0.58343463   -7.1194982    383.54559  0.018867847  0.017740793          967 
 1695000   0.57496667   -7.1115051    383.10932  0.018835266  0.017725797         1013 
 1696000   0.57949531   -7.1243332     382.7636  0.018807174  0.017710842         1103 
 1697000   0.57250014   -7.1057569    383.34962  0.018824869   0.01769593         1061 
 1698000   0.56375519   -7.1039935    382.84101  0.018788821  0.017680986         1094 
 1699000    0.5816951   -7.1171541    383.15883  0.018793351  0.017666084         1055 
 1700000   0.58106003   -7.1231558    382.49355  0.018749684  0.017651163         1095 
 1701000   0.57348236   -7.0993668    383.00222  0.018763581  0.017636274          912 
 1702000    0.5790666   -7.1204391    383.35463  0.018769811  0.017621374         1035 
 1703000   0.59110703   -7.1253396    382.48113  0.018716047  0.017606475          997 
 1704000   0.56212428    -7.132011    383.39728  0.018749867  0.017591603         1000 
 1705000   0.57041829   -7.1112901    382.63269    0.0187015  0.017576744         1017 
 1706000    0.5668989    -7.141321    382.39065  0.018678715  0.017561849         1008 
 1707000   0.56093355    -7.130634    382.84909  0.018690153  0.017546982         1045 
 1708000   0.57666126   -7.1293614    382.15994  0.018645587  0.017532149         1010 
 1709000   0.57484565   -7.1451118    382.19148  0.018636214   0.01751731         1073 
 1710000   0.58382124   -7.1429545    381.85051  0.018608699  0.017502487          972 
 1711000   0.56737305   -7.1404435    382.80607  0.018644363  0.017487662         1055 
 1712000   0.57344476   -7.1333267    382.92715  0.018639367  0.017472894         1089 
 1713000   0.55819152   -7.1212537    382.71022  0.018617933  0.017458149         1057 
 1714000   0.57453485   -7.1348738    382.08388  0.018576618  0.017443394         1096 
 1715000   0.57858966   -7.1469049    383.39526  0.018629507   0.01742868         1013 
 1716000   0.56727485   -7.1359107    383.38752  0.018618275  0.017413937         1036 
 1717000   0.57541562    -7.116283    382.56355  0.018567441  0.017399215          976 
 1718000   0.56796329   -7.1334897    383.47017   0.01860061   0.01738454         1109 
 1719000   0.56003885   -7.1347723    383.06207  0.018570005  0.017369859         1237 
 1720000    0.5628131   -7.1303092    382.58766  0.018536224  0.017355187         1104 
 1721000   0.54674338   -7.1437646    382.38426  0.018515604  0.017340521         1190 
 1722000   0.57215026    -7.163492    383.14515  0.018541674  0.017325844         1159 
 1723000     0.564199   -7.1724436    381.95779  0.018473486   0.01731117         1225 
 1724000   0.56356906   -7.1517025    382.40489  0.018484382  0.017296519         1143 
 1725000   0.55115068   -7.1628717     382.7286  0.018489304  0.017281852         1246 
 1726000   0.56766725   -7.1423483    382.71631  0.018477999   0.01726723         1105 
 1727000   0.56366633   -7.1717821    382.06728  0.018435981  0.017252611         1146 
 1728000   0.55518491     -7.14768     381.9008  0.018417284  0.017237993         1112 
 1729000   0.56923589   -7.1621482    382.73216  0.018446701  0.017223409         1165 
 1730000   0.56868279   -7.1382269    382.16122  0.018408537  0.017208835         1271 
 1731000   0.55239741   -7.1693658    381.62416  0.018372047  0.017194262         1100 
 1732000   0.56025656   -7.1588134    382.24404  0.018391264  0.017179698         1238 
 1733000   0.56132558   -7.1571584    382.21423  0.018379219  0.017165154         1085 
 1734000   0.56395385   -7.1563097    382.33629  0.018374485  0.017150625         1272 
 1735000   0.56191351   -7.1635588    381.28912  0.018313599  0.017136131         1261 
 1736000   0.56482698   -7.1508341     382.0329  0.018338753  0.017121649         1231 
 1737000   0.55178524   -7.1588958    381.43284  0.018299407  0.017107152         1227 
 1738000   0.55077858   -7.1561293    381.66857  0.018300181  0.017092697         1121 
 1739000   0.56464283    -7.161752     382.0993  0.018310298  0.017078223         1087 
 1740000   0.56350341   -7.1701346    381.35288  0.018264027  0.017063765         1178 
 1741000   0.55955464   -7.1776319    382.77013  0.018321373  0.017049328         1103 
 1742000   0.55843463   -7.1658053    381.57906  0.018253878  0.017034887         1111 
 1743000   0.55966996   -7.1824982    381.99503  0.018263293  0.017020453         1199 
 1744000   0.56142333   -7.1676933    381.93416  0.018249912  0.017006023         1168 
 1745000   0.54995885   -7.1955244     381.6148  0.018224202  0.016991596         1241 
 1746000   0.56879343   -7.1592727    381.37055  0.018202107  0.016977203         1173 
 1747000   0.54011834   -7.1959379    381.92772  0.018218266  0.016962818         1297 
 1748000   0.55305438   -7.1744642    381.58252  0.018191387  0.016948455         1194 
 1749000   0.56072105   -7.1791745    381.60372  0.018181995  0.016934101         1244 
 1750000   0.55014085   -7.1874964    381.78494  0.018180235  0.016919777         1164 
 1751000   0.56560299   -7.1781676    382.15827   0.01818762  0.016905464         1198 
 1752000   0.55501996   -7.1583722     381.0954  0.018126684  0.016891151         1216 
 1753000   0.55353119   -7.1963123    381.72476  0.018146261  0.016876854         1283 
 1754000    0.5413393   -7.1804332    381.79551  0.018139277  0.016862596         1244 
 1755000   0.55506779   -7.1694087    381.10974  0.018096379  0.016848342         1226 
 1756000   0.54992204   -7.1707296    382.59786  0.018156694  0.016834105         1175 
 1757000   0.55233583   -7.1715715    381.69688  0.018103627  0.016819888         1192 
 1758000   0.55593117   -7.1874759    381.79063  0.018097773  0.016805663         1304 
 1759000   0.55273556   -7.1734799    382.08882  0.018101612  0.016791459         1244 
 1760000   0.55106721   -7.1831865    381.55495  0.018066049  0.016777261         1282 
 1761000   0.54746556   -7.1727542    381.67396  0.018061421  0.016763059         1302 
 1762000   0.55429628   -7.1927665     381.6946  0.018052147  0.016748853         1364 
 1763000   0.55282023   -7.1838202    381.47004  0.018031293  0.016734659         1254 
 1764000   0.54450979   -7.1872029    381.59553     0.018027  0.016720475         1287 
 1765000   0.53997284   -7.1866354    380.76636  0.017977637  0.016706304         1280 
 1766000   0.54126946   -7.2141075    381.41233  0.017997939   0.01669215         1290 
 1767000   0.54659348   -7.2046364    381.85416  0.018008591  0.016677992         1300 
 1768000   0.54853132   -7.2031878    381.23162  0.017969062  0.016663865         1405 
 1769000   0.55120403   -7.2064851    381.71871   0.01798185  0.016649773         1420 
 1770000    0.5487696   -7.2084274    380.93303    0.0179347   0.01663566         1384 
 1771000   0.55352325   -7.1897289    381.69916  0.017960623   0.01662156         1348 
 1772000   0.56054398   -7.1855086    381.53502  0.017942768  0.016607496         1329 
 1773000   0.52989593   -7.1980365    381.49607  0.017930817  0.016593439         1327 
 1774000   0.54776646   -7.2025521    380.63301  0.017880168  0.016579396         1391 
 1775000   0.53411707   -7.2025783     380.5176  0.017864676  0.016565356         1382 
 1776000   0.53572298   -7.2052916    381.04474  0.017879351  0.016551324         1390 
 1777000   0.54189913   -7.2040632    380.70819  0.017853507  0.016537316         1366 
 1778000   0.54211246    -7.201134     381.2725  0.017869915  0.016523333         1349 
 1779000   0.53257531   -7.2167222    381.47011  0.017869126  0.016509344         1357 
 1780000   0.54049989   -7.1956554    381.39093  0.017855381  0.016495372         1451 
 1781000   0.54204053   -7.2004755    381.37969  0.017844829  0.016481429         1376 
 1782000   0.53617366   -7.2231581    380.94163   0.01781433  0.016467485         1472 
 1783000   0.53714647   -7.2129819    380.46687  0.017782149  0.016453538         1439 
 1784000    0.5412509   -7.1999438     381.2172  0.017807231   0.01643961         1386 
 1785000   0.53433225   -7.2143745    381.41929   0.01780669   0.01642571         1365 
 1786000   0.54051544   -7.2070852    380.86019  0.017770632    0.0164118         1376 
 1787000   0.53735863    -7.209008    381.23367  0.017778104  0.016397914         1362 
 1788000   0.54852306   -7.1996319    381.00922  0.017757701  0.016384041         1390 
 1789000    0.5367306   -7.2054249    380.74516  0.017735474  0.016370193         1554 
 1790000   0.52607393   -7.2112121    381.57063  0.017763996  0.016356378         1424 
 1791000   0.54698691    -7.219922    381.18482  0.017736126  0.016342543         1416 
 1792000   0.54034981   -7.2276682    380.92191  0.017714003  0.016328732         1456 
 1793000   0.53848927     -7.21033    380.90676  0.017703419  0.016314939         1443 
 1794000   0.53723162   -7.2268114    381.06378  0.017700845  0.016301184         1447 
 1795000   0.54341425   -7.2103798    381.23691  0.017699021  0.016287434         1458 
 1796000   0.54050739   -7.2209833    380.51983  0.017655894  0.016273695         1441 
 1797000   0.53585428   -7.2310227    380.61491  0.017650478  0.016259946         1498 
 1798000   0.52601852   -7.2198721    380.62704  0.017641224  0.016246202         1400 
 1799000   0.53404994   -7.2033674    381.30101  0.017662637  0.016232508         1392 
 1800000   0.54590799   -7.2268831    381.09547  0.017643309  0.016218839         1473 
 1801000    0.5363666   -7.2110031    380.51979  0.017606875  0.016205188         1464 
 1802000   0.52620743   -7.2083854    381.24864   0.01763081  0.016191541         1426 
 1803000   0.54271874   -7.2165305    381.33959  0.017625235    0.0161779         1421 
 1804000   0.54110801   -7.2284152    380.61268  0.017581887  0.016164275         1537 
 1805000   0.54202924   -7.2218884    380.12503  0.017549632  0.016150654         1486 
 1806000   0.52808041   -7.2330315    380.25532  0.017545927  0.016137025         1462 
 1807000    0.5353471   -7.2263566    381.30355  0.017584558  0.016123448         1583 
 1808000   0.53606826   -7.2182913    381.31793  0.017575495  0.016109869         1450 
 1809000   0.53180154   -7.2283823    380.26646  0.017517342   0.01609631         1534 
 1810000    0.5337976   -7.2231308    381.20722  0.017550977  0.016082785         1505 
 1811000   0.53638274   -7.2314299    381.16355  0.017539276   0.01606926         1565 
 1812000   0.51838857   -7.2363543    380.79715  0.017512746  0.016055736         1509 
 1813000   0.53722808   -7.2301268    380.37939  0.017483885  0.016042229         1509 
 1814000   0.52263724   -7.2379029     380.5902   0.01748393  0.016028713         1474 
 1815000   0.52309004   -7.2473611    381.75532  0.017527792  0.016015257         1454 
 1816000   0.54487754   -7.2264343    380.57201  0.017463841  0.016001781         1509 
 1817000    0.5286733   -7.2328419    380.52307  0.017451984  0.015988329         1447 
 1818000   0.53549917   -7.2345195    380.94502  0.017461726  0.015974888         1477 
 1819000   0.52440053   -7.2295567    381.07341  0.017458008  0.015961469         1502 
 1820000   0.52512796   -7.2449861    380.25173  0.017410793  0.015948039         1536 
 1821000   0.52847809   -7.2474126    380.38597  0.017407376  0.015934633         1552 
 1822000   0.53038666   -7.2257675    380.05635  0.017382746  0.015921241         1484 
 1823000   0.52121408   -7.2447338    380.20709  0.017380101  0.015907849         1642 
 1824000    0.5265251   -7.2351847    380.14073   0.01736754  0.015894479         1524 
 1825000   0.51566368   -7.2374927    380.37956   0.01736893  0.015881127         1605 
 1826000   0.52726587   -7.2397962    380.32643  0.017356993   0.01586777         1580 
 1827000   0.52407942   -7.2392887    381.21189  0.017387881  0.015854433         1529 
 1828000   0.51973214   -7.2303965    380.19689  0.017332097  0.015841128         1549 
 1829000   0.51931361   -7.2559136    379.96628  0.017312114  0.015827825         1531 
 1830000   0.52402861   -7.2388887    379.59191  0.017285606  0.015814525         1578 
 1831000    0.5200893   -7.2511377    380.75717  0.017329199   0.01580126         1582 
 1832000   0.53144873   -7.2402716    380.35123  0.017301275  0.015787998         1538 
 1833000   0.52305028    -7.255557    380.40613  0.017294332  0.015774754         1552 
 1834000    0.5167819   -7.2363493    380.63504  0.017295304  0.015761532         1539 
 1835000   0.51065336   -7.2466436    380.16436  0.017264503  0.015748302         1641 
 1836000   0.51619624   -7.2463007    380.23118  0.017258133  0.015735098         1650 
 1837000   0.52315866   -7.2484685    380.47372  0.017259741  0.015721884         1543 
 1838000   0.51904951   -7.2709777    380.00139  0.017228935  0.015708685         1612 
 1839000   0.53444345   -7.2468873     380.8119  0.017256294  0.015695505         1532 
 1840000   0.51300681   -7.2502934     380.2817  0.017222903   0.01568232         1588 
 1841000   0.51956577   -7.2576494    380.05705  0.017203379  0.015669164         1566 
 1842000   0.51411231   -7.2572356     380.2586  0.017203158  0.015656021         1546 
 1843000   0.52194697   -7.2345108    379.53983  0.017161324  0.015642869         1682 
 1844000   0.51261955    -7.266395    380.98187  0.017217185  0.015629728         1641 
 1845000   0.51021441   -7.2606347    380.06619  0.017166495  0.015616623         1628 
 1846000   0.51091665    -7.261797    380.23371  0.017164758  0.015603525         1610 
 1847000   0.51658859   -7.2434124    379.09059  0.017103889  0.015590449         1650 
 1848000   0.51157017   -7.2401435    380.23223  0.017146114  0.015577404         1553 
 1849000    0.5214297   -7.2407291    381.32452   0.01718607  0.015564364         1594 
 1850000   0.51922173   -7.2535786    380.36163  0.017133407  0.015551332         1554 
 1851000   0.51611372   -7.2488642    380.48062  0.017129507   0.01553831         1621 
 1852000    0.4967211   -7.2725148    380.04935  0.017100852  0.015525288         1656 
 1853000   0.50612329    -7.250672    379.93462  0.017086464  0.015512281         1536 
 1854000   0.51250719   -7.2422172    380.39448  0.017097918  0.015499296         1554 
 1855000   0.49824941   -7.2425875    379.39939  0.017043998   0.01548632         1622 
 1856000   0.50336137    -7.262128    379.62015  0.017044727  0.015473338         1602 
 1857000    0.5021633   -7.2797594    380.88183  0.017092166  0.015460369         1477 
 1858000   0.52167647   -7.2536664    379.57419  0.017024318  0.015447419         1630 
 1859000   0.51926407   -7.2787609    380.13506  0.017040302  0.015434474         1619 
 1860000   0.50213019   -7.2791438    379.29988  0.016993722  0.015421534         1583 
 1861000   0.49736588   -7.2698215    379.17943  0.016979197  0.015408605         1573 
 1862000   0.51560875   -7.2691303    379.92485  0.017003439   0.01539569         1608 
 1863000   0.50433019   -7.2733437    380.56193  0.017022809  0.015382795         1630 
 1864000   0.50862589   -7.2869579    378.88898  0.016938885  0.015369903         1656 
 1865000   0.51356643   -7.2763547    380.02841  0.016980715  0.015357029         1618 
 1866000    0.5097994   -7.2701476     379.9773  0.016969333  0.015344163         1625 
 1867000   0.51179624   -7.2631177    379.54369  0.016940889  0.015331318         1650 
 1868000   0.51159926   -7.2596407    379.45033  0.016927656  0.015318475         1680 
 1869000    0.5118476    -7.284296    379.95494  0.016941098  0.015305645         1634 
 1870000   0.51690582   -7.2734036    379.70687  0.016920984  0.015292826         1651 
 1871000   0.51110369   -7.2786438    379.63485  0.016908732  0.015280019         1605 
 1872000   0.49911048   -7.2882106    379.79313  0.016906746   0.01526723         1709 
 1873000    0.5066958   -7.2779552    379.49263  0.016884349  0.015254445         1597 
 1874000   0.50410308   -7.2883851    379.17623  0.016861269  0.015241675         1674 
 1875000   0.49880458   -7.2866691    378.89561  0.016839805  0.015228931         1735 
 1876000   0.51185271   -7.2962768    378.74355  0.016824074  0.015216192         1634 
 1877000   0.50307632   -7.2765432     379.9514  0.016868736  0.015203464         1636 
 1878000   0.51219167   -7.2812894    379.52275  0.016840733  0.015190752         1618 
 1879000   0.50429354   -7.2715246    380.11101  0.016857859  0.015178058         1579 
 1880000   0.50570588   -7.2860461    379.52756   0.01682303  0.015165367         1607 
 1881000   0.48514138   -7.2855584    378.86051  0.016784535  0.015152685         1637 
 1882000   0.50258287   -7.2806308    379.90878  0.016822032  0.015140027         1610 
 1883000   0.50463276    -7.295429     378.9283  0.016769707  0.015127366         1521 
 1884000    0.4918228   -7.3179202    379.93191  0.016805198  0.015114717         1622 
 1885000   0.49006837   -7.2777633    379.98608  0.016798677  0.015102082         1577 
 1886000   0.50059075   -7.3014075    379.24197  0.016756892  0.015089461         1647 
 1887000   0.51061712   -7.2895374    378.95914  0.016735521   0.01507686         1587 
 1888000    0.4999649   -7.3001613    378.95318  0.016726394  0.015064274         1676 
 1889000   0.50319221   -7.3010996    379.25044  0.016730653  0.015051696         1668 
 1890000   0.49708293   -7.2761052    379.32853  0.016725244  0.015039133         1640 
 1891000   0.49337544   -7.2880326    379.66601  0.016731271   0.01502657         1663 
 1892000    0.5034704   -7.2896522    379.50507  0.016715339  0.015014022         1779 
 1893000     0.497561   -7.2863201     380.0271   0.01672949  0.015001489         1724 
 1894000   0.50132695   -7.2800208    378.88238  0.016670291  0.014988968         1665 
 1895000   0.48075008    -7.286592    379.27078  0.016678575  0.014976462         1685 
 1896000   0.50165011   -7.2954818    379.51954  0.016680711  0.014963971         1699 
 1897000   0.49086858   -7.3044129    379.47287  0.016669868  0.014951491         1718 
 1898000   0.49128062   -7.2974214    379.05665   0.01664281  0.014939023         1682 
 1899000   0.50455742   -7.3091498    379.06157  0.016634262   0.01492657         1616 
 1900000    0.4922357   -7.3053242    378.97609  0.016621758  0.014914137         1701 
 1901000   0.49078687   -7.2864799    379.37107  0.016630329  0.014901712         1548 
 1902000   0.50239657   -7.2996707    379.51946  0.016628087  0.014889296         1646 
 1903000   0.49315353   -7.2818652    378.26597  0.016564458  0.014876881         1600 
 1904000   0.49466802   -7.3149892      378.697  0.016574624  0.014864473         1679 
 1905000   0.49055965    -7.303107    379.43555  0.016598231  0.014852076         1567 
 1906000   0.48792994   -7.3005356    379.22308  0.016580232  0.014839693         1620 
 1907000   0.49279375   -7.3166937    379.54976  0.016585814   0.01482732         1648 
 1908000   0.48527848   -7.3161052    379.08951  0.016557019  0.014814969         1621 
 1909000   0.48136884   -7.3086868    379.23278    0.0165546  0.014802624         1651 
 1910000   0.48507838   -7.2997595     378.8931  0.016531112  0.014790292         1566 
 1911000   0.48663924   -7.3145706     378.9081  0.016523116  0.014777963         1654 
 1912000   0.49378305   -7.3013431    379.03837  0.016520152  0.014765653         1674 
 1913000    0.4902923    -7.314856    378.90473  0.016505695   0.01475337         1590 
 1914000   0.49087332   -7.3089606    379.02389  0.016502259  0.014741097         1685 
 1915000    0.4875879    -7.316715    378.92846  0.016489489  0.014728826         1631 
 1916000   0.49202139     -7.30666    378.92403   0.01648069  0.014716574         1618 
 1917000   0.48880013   -7.2997066    379.11664  0.016480466  0.014704318         1587 
 1918000   0.50112658   -7.3143157    379.15388  0.016473491  0.014692086         1579 
 1919000   0.48813155   -7.2956891    378.54663  0.016438537  0.014679859         1631 
 1920000   0.48543604   -7.3057382    378.74118  0.016438419  0.014667651         1662 
 1921000   0.47413896   -7.3192336    379.03029  0.016442403  0.014655462         1645 
 1922000   0.48853791   -7.3103445    378.85258  0.016426144  0.014643278         1693 
 1923000   0.48307198   -7.3121684    378.17864  0.016388397  0.014631106         1698 
 1924000   0.47998087   -7.3241029    378.48925  0.016393332  0.014618946         1670 
 1925000      0.49254   -7.3208775    378.44388  0.016382852  0.014606792         1693 
 1926000    0.4862083   -7.3114337    378.81641  0.016390464  0.014594658         1676 
 1927000   0.49243482   -7.3295013    379.33215  0.016404262  0.014582533         1639 
 1928000   0.48757601    -7.325399    378.80761  0.016373081  0.014570415         1692 
 1929000   0.48690421   -7.3158275    378.67105  0.016358694  0.014558317         1574 
 1930000    0.4805745   -7.3101649    379.55791  0.016388511  0.014546232         1554 
 1931000   0.47855002    -7.321423    378.65337  0.016340988  0.014534159         1631 
 1932000   0.46885765   -7.3274343    378.94007  0.016344896  0.014522111         1666 
 1933000   0.47530311   -7.3125269    378.56827  0.016320412  0.014510057         1645 
 1934000   0.47416225   -7.3333791    378.41176  0.016305229  0.014498015         1711 
 1935000   0.47677421   -7.3236962     378.3648   0.01629478  0.014485987         1686 
 1936000   0.47949697   -7.3020012    378.56782  0.016295103  0.014473959         1676 
 1937000   0.47941946    -7.318217    378.24268  0.016272702  0.014461956         1570 
 1938000   0.47699368   -7.3210859     378.8495  0.016290398  0.014449973         1657 
 1939000    0.4746204   -7.3141004    378.31969  0.016259227  0.014437978         1647 
 1940000   0.48121298   -7.3397092     379.0929  0.016284059  0.014426019         1660 
 1941000     0.471187   -7.3197616    378.45336  0.016248212  0.014414063         1694 
 1942000   0.47861548   -7.3205331    378.84329  0.016256578  0.014402125         1626 
 1943000   0.47151199   -7.3226615    378.58524  0.016237144  0.014390203         1635 
 1944000   0.46721859   -7.3295541    378.52836  0.016226353  0.014378296         1667 
 1945000   0.48064306   -7.3308969    379.25819   0.01624928  0.014366393         1608 
 1946000   0.46789723   -7.3213421       378.45  0.016206321  0.014354511         1647 
 1947000   0.48473582   -7.3226297    378.65189  0.016206638  0.014342646         1761 
 1948000    0.4843741   -7.3225896    378.27915  0.016182373  0.014330781         1671 
 1949000   0.48498743   -7.3336503    378.72989  0.016193342  0.014318935         1661 
 1950000   0.46598116   -7.3339804    378.38772  0.016170416  0.014307101         1769 
 1951000   0.48070762    -7.344843    377.93814  0.016142924  0.014295266         1667 
 1952000       0.4651   -7.3413339    378.26949    0.0161488  0.014283439         1748 
 1953000    0.4702694   -7.3354972    378.27837   0.01614091  0.014271622         1666 
 1954000   0.46850105   -7.3459415    377.72702  0.016109136  0.014259813         1740 
 1955000   0.46827141   -7.3384174    378.81434  0.016147244  0.014248037         1688 
 1956000   0.48121207   -7.3329259    378.21359  0.016113394   0.01423625         1767 
 1957000   0.47256833   -7.3304917     378.4919  0.016117012  0.014224488         1744 
 1958000   0.48251377    -7.336933    377.97151  0.016086632  0.014212733         1769 
 1959000   0.46737581   -7.3246945     377.8681  0.016074021  0.014200996         1788 
 1960000   0.46834865   -7.3410798       378.37   0.01608716  0.014189271         1733 
 1961000   0.45956021   -7.3320158    378.11607  0.016068166  0.014177555         1734 
 1962000   0.45940175    -7.362248    378.11324  0.016059855  0.014165841         1768 
 1963000   0.46632923   -7.3338939    378.43183  0.016065199  0.014154143         1734 
 1964000   0.48181467   -7.3410041    378.23275  0.016048572  0.014142463         1847 
 1965000   0.47178901   -7.3438162    378.44782  0.016049526  0.014130796         1733 
 1966000   0.46487824   -7.3550386    378.28624  0.016034513  0.014119136         1698 
 1967000   0.45956075   -7.3387918     378.6807  0.016043073  0.014107479         1665 
 1968000   0.46195394    -7.346776    377.80068  0.015997658  0.014095851         1747 
 1969000   0.46499261   -7.3480502    378.75233  0.016029809  0.014084227         1647 
 1970000    0.4674855   -7.3470327    377.75992  0.015979692  0.014072621         1687 
 1971000   0.46349049   -7.3526243     378.5005  0.016002896  0.014061028         1733 
 1972000   0.46669534   -7.3513508    377.63222  0.015958089  0.014049453         1714 
 1973000   0.46098527   -7.3472285    378.27194   0.01597702  0.014037865         1729 
 1974000   0.46687535   -7.3658142    378.02838  0.015958645  0.014026294         1694 
 1975000   0.46420376   -7.3370833     378.4761  0.015969456  0.014014747         1723 
 1976000   0.47408127   -7.3692519    378.36255  0.015956585  0.014003196         1806 
 1977000   0.47049858   -7.3686807    377.89832  0.015928946  0.013991649         1794 
 1978000   0.47036809   -7.3501028    378.15386  0.015931659  0.013980115         1746 
 1979000   0.46592958   -7.3456302    377.71668    0.0159052  0.013968599         1768 
 1980000    0.4588225   -7.3731105    377.54082  0.015889765  0.013957085         1817 
 1981000   0.46167636   -7.3536022    377.98614  0.015900477  0.013945582         1831 
 1982000   0.45863497   -7.3644621    378.33752  0.015907228  0.013934103         1866 
 1983000   0.46253919   -7.3550623    377.80235  0.015876717   0.01392262         1754 
 1984000    0.4653144    -7.353715    377.92235  0.015873755  0.013911167         1774 
 1985000   0.46973596   -7.3639066    377.79429  0.015860381  0.013899714         1753 
 1986000   0.45826625   -7.3625811    377.66383  0.015846921  0.013888274         1826 
 1987000   0.44957575   -7.3566155    378.23036  0.015862706  0.013876831         1789 
 1988000   0.46945418   -7.3595583    378.41133  0.015862313  0.013865419         1836 
 1989000     0.468407   -7.3624281    378.15702  0.015843683  0.013854018         1823 
 1990000   0.46138905   -7.3549306    377.46189  0.015806612  0.013842612         1908 
 1991000   0.45113087   -7.3706642    377.59419   0.01580421  0.013831229         1756 
 1992000   0.45557896   -7.3617717     377.8887  0.015808597  0.013819857         1848 
 1993000   0.46500839   -7.3669864    377.74217  0.015794538  0.013808499         1763 
 1994000   0.45743421   -7.3606236    377.38439  0.015771665  0.013797141         1857 
 1995000   0.46466369   -7.3585844    378.32387  0.015803002  0.013785806         1775 
 1996000   0.46055799   -7.3661107     377.5161   0.01576136  0.013774487         1768 
 1997000   0.45134648   -7.3646158    378.00332  0.015773799  0.013763178         1865 
 1998000   0.45396104    -7.366566    377.75482   0.01575554  0.013751862         1783 
 1999000   0.45591801   -7.3631012     377.4424  0.015734634  0.013740568         1792 
 2000000   0.46191219    -7.379747    377.30188  0.015720912  0.013729282         1883 
 2001000   0.45202421   -7.3637117    377.78873   0.01573333  0.013718005         1848 
 2002000   0.45805437   -7.3840377    377.65451  0.015719885  0.013706741         1856 
 2003000   0.44601331   -7.3654406      377.455  0.015703736   0.01369549         1813 
 2004000   0.45333805   -7.3720861      377.903  0.015714529   0.01368424         1811 
 2005000   0.45715826   -7.3778257    377.79393  0.015702158  0.013673022         1892 
 2006000   0.44642765   -7.3505059    377.32638  0.015674908  0.013661817         1732 
 2007000   0.45083719   -7.3697973     377.5263  0.015675398  0.013650622         1856 
 2008000   0.45348774   -7.3789847    377.38455  0.015661709  0.013639435         1880 
 2009000   0.45819171   -7.3708981     377.4928  0.015658404   0.01362826         1801 
 2010000   0.45404416   -7.3785641    377.79876  0.015663298  0.013617095         1812 
 2011000   0.45195884   -7.3639583    377.35716   0.01563721  0.013605928         1788 
 2012000   0.45368912   -7.3750864    377.75981  0.015646116  0.013594779         1778 
Loop time of 5217.1 on 48 procs for 2000000 steps with 4000 atoms

Performance: 66243.738 tau/day, 383.355 timesteps/s
99.4% CPU use with 48 MPI tasks x no OpenMP threads

MPI task timing breakdown:
Section |  min time  |  avg time  |  max time  |%varavg| %total
---------------------------------------------------------------
Pair    | 368.87     | 395.7      | 419.49     |  66.7 |  7.58
Neigh   | 36.357     | 37.628     | 39.132     |  10.4 |  0.72
Comm    | 326.54     | 357.63     | 384.69     |  71.6 |  6.85
Output  | 5.3355     | 5.3376     | 5.3932     |   0.4 |  0.10
Modify  | 4356.3     | 4371.2     | 4389       |  12.8 | 83.79
Other   |            | 49.58      |            |       |  0.95

Nlocal:        83.3333 ave          89 max          74 min
Histogram: 1 0 1 1 9 7 11 7 9 2
Nghost:        2415.67 ave        2431 max        2402 min
Histogram: 1 2 11 6 6 7 7 5 2 1
Neighs:        16732.0 ave       19194 max       14989 min
Histogram: 5 4 9 6 6 5 7 3 1 2
FullNghs:      33465.4 ave       36161 max       29574 min
Histogram: 1 0 1 7 5 9 10 10 3 2

Total # of neighbors = 1606341
Ave neighs/atom = 401.58525
Neighbor list builds = 106983
Dangerous builds = 0

#clear
#
#next RN
#
#jump SELF
Total wall time: 1:27:00
