
units lj                  # Use reduced LJ style units
atom_style atomic         # Uncharged point particles
atom_modify map hash      # Needed for indexing of clusters etc
                          # Used to be able to find where atoms are in relation to each other.

lattice fcc 1.0 spacing 1 1 1
Lattice spacing in x,y,z = 1.5874011 1.5874011 1.5874011
region box block 0 10 0 10 0 10 units lattice
create_box 2 box
Created orthogonal box = (0.0000000 0.0000000 0.0000000) to (15.874011 15.874011 15.874011)
  3 by 4 by 4 MPI processor grid
create_atoms 1 box
Created 4000 atoms
  using lattice units in orthogonal box = (0.0000000 0.0000000 0.0000000) to (15.874011 15.874011 15.874011)
  create_atoms CPU = 0.002 seconds
set type 1 type/fraction 2 0.76 78393
Setting atom values ...
  3028 settings made for type/fraction
mass 1 1.0
mass 2 1.0
pair_style lj/cut  3.5
pair_modify tail  yes
pair_coeff 1  1  1.0  1.0   # Intearaction between 1 and 1 set with epsilon = 1 and sigma = 1
pair_coeff 1  2  1.5  0.8
pair_coeff 2  2  0.5  0.88

write_data data.0
System init for write_data ...
Neighbor list info ...
  update every 1 steps, delay 10 steps, check yes
  max neighbors/atom: 2000, page size: 100000
  master list distance cutoff = 3.8
  ghost atom cutoff = 3.8
  binsize = 1.9, bins = 9 9 9
  1 neighbor lists, perpetual/occasional/extra = 1 0 0
  (1) pair lj/cut, perpetual
      attributes: half, newton on
      pair build: half/bin/atomonly/newton
      stencil: half/bin/3d
      bin: standard
WARNING: Not all mixed pair coeffs generated from mixing. Use write_data with 'pair ij' option to store all pair coeffs. (../write_data.cpp:312)


#############################
#   M E L T   S Y S T E M   #
#############################

velocity all create 2.4 3143649 mom yes dist gaussian # Assign velocities
                                                    # Temperature 2.4, random number seed, zero linear momentum
                                                                                # Gaussian distribution

timestep 0.002   # simulation timestep
thermo 1000       # output thermodynamic data every 1000 steps bf 100

# Define a fix  in this case with index 1 applied to all
# particles in the simulation. This fix is for simulations
# in the anisotropic NPT ensemble. Note that we use the MTK
# correction.
fix 1 all npt temp 2.4 2.4 0.1 iso 5.68 5.68 0.5 mtk yes tchain 5 pchain 5 # Use NPT ensemble
                                                                         # Set temperature and pressure and damping
                                                                         # Numbers of thermostats in chain and in barostat
run 10000          # run for 10000 steps
Per MPI rank memory allocation (min/avg/max) = 3.642 | 3.644 | 3.648 Mbytes
Step Temp E_pair E_mol TotEng Press Volume 
       0          2.4   -3.9031684            0  -0.30406845   -3.4881309         4000 
    1000     2.455284   -3.3983667            0   0.28363856    5.5409199    3734.7528 
    2000    2.4116838   -3.3638972            0   0.25272411    5.7626859    3723.2135 
    3000    2.3556062   -3.3863682            0   0.14615774    5.6632628    3724.1437 
    4000    2.3105222   -3.3785132            0  0.086403624    5.0964428    3795.1357 
    5000    2.4121688   -3.3945323            0   0.22281634    5.3984488    3766.5468 
    6000    2.4205039    -3.354123            0   0.27572516    6.1101168    3708.8586 
    7000    2.4047856   -3.3592481            0   0.24702849    6.0737446    3702.6499 
    8000    2.3678763    -3.368611            0   0.18231556    5.8119885    3719.7639 
    9000    2.3835062   -3.3957832            0   0.17858232    5.7756702    3694.6652 
   10000    2.3978777   -3.4279966            0   0.16792075    5.5979394    3708.4197 
Loop time of 2.57373 on 48 procs for 10000 steps with 4000 atoms

Performance: 671399.478 tau/day, 3885.414 timesteps/s
99.6% CPU use with 48 MPI tasks x no OpenMP threads

MPI task timing breakdown:
Section |  min time  |  avg time  |  max time  |%varavg| %total
---------------------------------------------------------------
Pair    | 1.1689     | 1.2384     | 1.2936     |   2.7 | 48.12
Neigh   | 0.21236    | 0.21965    | 0.22656    |   0.7 |  8.53
Comm    | 0.80573    | 0.86564    | 0.95189    |   3.6 | 33.63
Output  | 0.00024529 | 0.0002532  | 0.0003189  |   0.0 |  0.01
Modify  | 0.21487    | 0.23418    | 0.26553    |   2.7 |  9.10
Other   |            | 0.01564    |            |       |  0.61

Nlocal:        83.3333 ave          99 max          74 min
Histogram: 1 4 14 7 14 3 1 3 0 1
Nghost:        1725.75 ave        1752 max        1699 min
Histogram: 3 4 3 5 8 7 7 4 5 2
Neighs:        10300.4 ave       12294 max        9206 min
Histogram: 4 6 11 9 9 2 6 0 0 1

Total # of neighbors = 494420
Ave neighs/atom = 123.60500
Neighbor list builds = 900
Dangerous builds = 172

# Equilibrate just above the melting temperature to avoid step fn in T

fix 1 all npt temp 1.25 1.25 0.1 iso 5.68 5.68 0.5 mtk yes tchain 5 pchain 5
run 2000
Per MPI rank memory allocation (min/avg/max) = 3.644 | 3.646 | 3.649 Mbytes
Step Temp E_pair E_mol TotEng Press Volume 
   10000    2.3978777   -3.4279966            0   0.16792075    5.5979394    3708.4197 
   11000    1.2712158   -5.0032173            0   -3.0968702     5.607356    2854.8383 
   12000    1.2454857    -5.003751            0   -3.1359895    5.6872218    2844.0566 
Loop time of 0.644394 on 48 procs for 2000 steps with 4000 atoms

Performance: 536317.615 tau/day, 3103.690 timesteps/s
99.6% CPU use with 48 MPI tasks x no OpenMP threads

MPI task timing breakdown:
Section |  min time  |  avg time  |  max time  |%varavg| %total
---------------------------------------------------------------
Pair    | 0.294      | 0.31835    | 0.34222    |   1.8 | 49.40
Neigh   | 0.041697   | 0.043371   | 0.04571    |   0.5 |  6.73
Comm    | 0.2094     | 0.23194    | 0.2582     |   2.3 | 35.99
Output  | 5.3943e-05 | 5.7831e-05 | 0.00017787 |   0.0 |  0.01
Modify  | 0.040821   | 0.045693   | 0.050104   |   1.2 |  7.09
Other   |            | 0.004977   |            |       |  0.77

Nlocal:        83.3333 ave          91 max          77 min
Histogram: 4 2 8 2 7 14 5 4 1 1
Nghost:        2066.73 ave        2095 max        2039 min
Histogram: 3 2 2 10 7 11 3 4 3 3
Neighs:        13407.3 ave       15148 max       11586 min
Histogram: 2 1 3 7 10 8 9 5 0 3

Total # of neighbors = 643552
Ave neighs/atom = 160.88800
Neighbor list builds = 143
Dangerous builds = 6

#############################
# L I N E A R  Q U E N C H  #
#############################

# Define solid atoms. This closely follows ten Wolde  Ruiz-Montero and Frenkel  Faraday Discuss  1996  104  93-110
# Compute components of the per-atom q6 vector
compute q6 all orientorder/atom degrees 1 6 components 6 nnn NULL cutoff 1.3 # compute the Q6 parameter.
                                                                             # Use all neighbours within 1.3 unit cell.

# get number of connections
compute coord_number all coord/atom orientorder q6 0.5

# An atom is solid if it has 8 or more connections (of a possible 14)
variable is_solid atom c_coord_number>=8
group solid dynamic all var is_solid    # Must be dynamic to update
dynamic group solid defined

# do clustering
compute cluster solid cluster/atom 1.3 # Create a cluster where all atoms within are solid and max 1.3 units from another member

# define chunks one chunk per cluster
compute clus_chunks solid chunk/atom c_cluster nchunk every compress yes  # Says which atoms are in which chunk

# count the size of each chunk
compute size_chunks solid property/chunk clus_chunks count


# Find the maximum entry in the vector of chunk sizes
variable max_n equal max(c_size_chunks)


# Thermo style which includes this variable
# thermo_style custom step temp pe vol v_max_n

thermo ${N}  # Print the thermo information every 100 steps
thermo 1000  

# Reset the npt fix at a lower temperature (below freezing)
fix 1  all npt temp  ${temp} ${temp}  0.1  iso  5.68  5.68  0.5  mtk yes tchain  5  pchain  5
fix 1  all npt temp  0.45 ${temp}  0.1  iso  5.68  5.68  0.5  mtk yes tchain  5  pchain  5
fix 1  all npt temp  0.45 0.45  0.1  iso  5.68  5.68  0.5  mtk yes tchain  5  pchain  5

dump dmp2 all dcd ${N} traj.dcd
dump dmp2 all dcd 1000 traj.dcd


compute msd all msd com yes
variable twopoint equal c_msd[4]/6/(step*dt+1.0e-6)
fix 9 all vector 10 c_msd[4]
variable fit equal slope(f_9)/6/(10*dt)
thermo_style custom step temp pe c_msd[4] v_twopoint v_fit v_max_n

fix 1 all npt temp 1.25 ${temp} 0.1 iso 5.68 5.68 0.5 mtk yes tchain 5 pchain 5
fix 1 all npt temp 1.25 0.45 0.1 iso 5.68 5.68 0.5 mtk yes tchain 5 pchain 5
run 5000000 # 5000000  # Run for this many steps
Neighbor list info ...
  update every 1 steps, delay 10 steps, check yes
  max neighbors/atom: 2000, page size: 100000
  master list distance cutoff = 3.8
  ghost atom cutoff = 3.8
  binsize = 1.9, bins = 8 8 8
  4 neighbor lists, perpetual/occasional/extra = 1 3 0
  (1) pair lj/cut, perpetual
      attributes: half, newton on
      pair build: half/bin/atomonly/newton
      stencil: half/bin/3d
      bin: standard
  (2) compute orientorder/atom, occasional
      attributes: full, newton on
      pair build: full/bin/atomonly
      stencil: full/bin/3d
      bin: standard
  (3) compute coord/atom, occasional
      attributes: full, newton on
      pair build: full/bin/atomonly
      stencil: full/bin/3d
      bin: standard
  (4) compute cluster/atom, occasional
      attributes: full, newton on
      pair build: full/bin/atomonly
      stencil: full/bin/3d
      bin: standard
Per MPI rank memory allocation (min/avg/max) = 9.841 | 9.845 | 9.849 Mbytes
Step Temp PotEng c_msd[4] v_twopoint v_fit v_max_n 
   12000    1.2454857    -5.003751 2.1358409e-30 1.4832228e-32 8.3333333e+20            1 
   13000     1.214646   -5.0420768   0.68059703 0.0043628013  0.056946736            6 
   14000    1.2468084   -5.0201865    1.3816119 0.0082238801  0.057848819            3 
   15000    1.2373878   -4.9920163    2.1319473  0.011844151  0.059010977            2 
   16000    1.2581058   -4.9889837    2.8701509  0.014948702  0.059924355            2 
   17000    1.2464074   -5.0448475      3.61374  0.017714411     0.060632            3 
   18000    1.2455037   -5.0385068    4.2337605  0.019600742  0.060522723            1 
   19000    1.2412097   -5.0233852    4.9465826  0.021695537  0.059546728            3 
   20000    1.2599929     -5.01664    5.6393342  0.023497225  0.059053217            1 
   21000    1.2307067   -4.9977682    6.3292904  0.025116231  0.058817779            3 
   22000    1.2557466   -5.0377994    7.0489608  0.026700608  0.058584361            2 
   23000    1.2599542   -4.9891228    7.6646608   0.02777051  0.058434428            3 
   24000    1.2631642   -5.0182575    8.1865989   0.02842569  0.057919661            4 
   25000    1.2570746   -5.0110453    8.9197595  0.029732531  0.057451657            7 
   26000    1.2621335   -5.0430158    9.6521816  0.030936479  0.057240558            3 
   27000    1.2450263   -5.0922088    10.334551  0.031896762  0.057183238            4 
   28000    1.2581999   -5.0523695    10.967107  0.032640199  0.057094328            2 
   29000    1.2469659   -5.0634726    11.543659  0.033171432  0.056899213            2 
   30000    1.2312794   -5.0267636     12.21574  0.033932612  0.056648472            2 
   31000    1.2557928   -4.9944648    12.963363   0.03484775  0.056491791            4 
   32000    1.2583439   -5.0499162    13.567867  0.035332986  0.056367499            2 
   33000    1.2547781    -5.053304    14.325166  0.036174661  0.056350416            1 
   34000    1.2394545   -5.0105127    15.123056  0.037066312  0.056384347            1 
   35000    1.2391451   -4.9969942    15.741593  0.037479983  0.056391032            3 
   36000    1.2467161   -5.0161247    16.455798  0.038092124  0.056431828            2 
   37000    1.2324491   -5.0189024    17.120959  0.038560717  0.056480398            4 
   38000    1.2370184   -5.0082535    17.851463  0.039147945  0.056523447            3 
   39000    1.2464187    -5.026813    18.511799  0.039555126  0.056548018            3 
   40000     1.240982    -5.025011    19.161273  0.039919318  0.056582821            1 
   41000    1.2438911   -5.0510871    19.803633  0.040251287  0.056625359            2 
   42000    1.2305764   -5.0228335    20.648141  0.040968533  0.056655231            4 
   43000    1.2360446    -5.041278    21.505578  0.041677476   0.05676528            1 
   44000    1.2606588   -5.0516587    22.242476  0.042125901  0.056904959            5 
   45000    1.2811399   -5.0310668    22.839703  0.042295746  0.057065891            3 
   46000    1.2583219   -5.0430014    23.547996  0.042659412  0.057162641            3 
   47000    1.2755706   -4.9668731    24.519002  0.043473407  0.057286672            2 
   48000    1.2360561   -5.0192707    25.176141  0.043708578  0.057394142            1 
   49000    1.2461047   -5.0329606    25.741457  0.043777988  0.057510118            1 
   50000    1.2436667   -5.0508602    26.416239  0.044027064  0.057550818            2 
   51000    1.2260724   -5.0216046     27.06337  0.044221193  0.057611493            3 
   52000    1.2652487   -5.0688455    27.723111  0.044428062  0.057650988            3 
   53000    1.2346188   -5.0394952    28.407306  0.044665575  0.057678299            4 
   54000    1.2433529   -5.0686607    29.268258  0.045167065  0.057724893            8 
   55000     1.234001   -5.0200997    30.064915  0.045552901  0.057823162            1 
   56000    1.2520592   -5.0228006    30.866182  0.045931819  0.057920249            2 
   57000      1.22518   -5.0717284    31.496422    0.0460474  0.057994803            3 
   58000     1.230944   -5.0117703    32.351002  0.046481324  0.058094116            1 
   59000    1.2450854   -5.0178331    33.230167  0.046935263  0.058211147            1 
   60000    1.2518739   -5.0578017    33.762796  0.046892773  0.058290698            1 
   61000    1.2541791   -5.0643586    34.485778  0.047111718  0.058368628            3 
   62000    1.2376534   -5.0395656    35.123793  0.047209399  0.058418336            2 
   63000    1.2670551   -5.0584063    35.901108  0.047488237  0.058472452            2 
   64000    1.2101933   -5.0093748    36.673966   0.04775256  0.058537471            1 
   65000    1.2394667   -5.0421693    37.272277   0.04778497  0.058582801            2 
   66000    1.2535398   -5.0350618    38.066845  0.048064198  0.058615948            1 
   67000    1.2392506   -5.0461328    38.462029  0.047838344  0.058629498            2 
   68000    1.2181065   -5.0616184    39.045561  0.047849952  0.058631961            2 
   69000    1.2331965   -5.0555076    39.835906  0.048110997  0.058631002            1 
   70000      1.25019   -5.0617436    40.431764  0.048133052  0.058627858            3 
   71000    1.2339935   -5.0347849    41.308573   0.04848424  0.058616287            2 
   72000    1.2490203   -5.0124329    42.037963  0.048655049   0.05860598            2 
   73000    1.2531342     -5.03225    42.536366  0.048557495   0.05858329            2 
   74000    1.2381796   -5.0783843    43.018852  0.048444653  0.058547963            3 
   75000    1.2430059   -5.0477315    43.617788  0.048464209  0.058506336            2 
   76000     1.260258   -5.0652107    44.388704  0.048671824  0.058461514            2 
   77000    1.2515049    -5.031114    45.246952  0.048968562  0.058436332            5 
   78000    1.2441732   -5.0163188    45.883756  0.049021106  0.058400641            2 
   79000    1.2244956   -5.0065142    46.348305  0.048890617  0.058362591            2 
   80000    1.2785062   -5.0308728    47.084506  0.049046361  0.058328234            2 
   81000    1.2293544   -5.0458062    48.266016  0.049656395  0.058317675            2 
   82000    1.2390512   -5.0614845    48.830133  0.049624118  0.058306258            2 
   83000    1.2535323   -5.0247252    49.418362  0.049616829  0.058314379            3 
   84000    1.2119502   -5.0561454     50.23423  0.049835546  0.058300296            3 
   85000    1.2427294   -5.0516626    50.572639  0.049581019  0.058283581            9 
   86000     1.231888   -5.0522734    51.097271  0.049512859  0.058257289            1 
   87000    1.2342201   -5.0190929    51.809289  0.049625756  0.058216066            4 
   88000    1.2295908   -5.0546239    52.476845  0.049693982  0.058166192            3 
   89000    1.2574168   -5.0180228    53.154046  0.049769706  0.058124404            2 
   90000    1.2487455   -5.0297617    53.904577  0.049911645  0.058082759            2 
   91000    1.1970122   -5.0507393    54.572637  0.049974942  0.058048238            2 
   92000    1.2464004   -5.0207849    55.294633  0.050085718  0.058021459            2 
   93000    1.2584263   -4.9876476    56.189204  0.050348749  0.057995977            1 
   94000    1.2648252   -5.0629306    56.428759  0.050025495  0.057968361            7 
   95000    1.2359308   -5.0590417    56.875479  0.049890771  0.057921844            3 
   96000     1.247445   -5.0401833    57.746183  0.050126894  0.057873962            3 
   97000    1.2354796   -5.0161303    58.344293  0.050123963  0.057834112            2 
   98000    1.2349683    -5.035062    59.348129  0.050466096  0.057796583            2 
   99000    1.2462103   -5.0767791    60.183839  0.050659797  0.057770842            5 
  100000    1.2260602   -5.0243859    60.903581  0.050752984  0.057757724            3 
  101000    1.2616603   -5.0521271    61.400083  0.050660134  0.057740705            2 
  102000    1.2385717   -5.0635547    62.343897  0.050934556  0.057738072            2 
  103000    1.2168602   -5.0541049    62.816355  0.050822293  0.057731335            2 
  104000    1.1982807   -5.0408902     63.96317  0.051252539  0.057737039            5 
  105000    1.2137453   -5.0471219    64.499394  0.051189995   0.05774846            2 
  106000    1.2548986   -5.0503897    65.144124  0.051213933   0.05775072            1 
  107000    1.2307242    -5.053545    65.767533   0.05122082  0.057746119            3 
  108000       1.2538   -5.0445105    66.655716  0.051431879  0.057742923            2 
  109000    1.2359792    -5.097971     66.99739  0.051221246  0.057747799            3 
  110000    1.2571235    -5.014619    67.993078  0.051509907  0.057744714            2 
  111000    1.2555376   -5.0406827    68.524176  0.051444577  0.057734817            2 
  112000     1.243307   -5.0359118    69.522907  0.051728353  0.057734573            5 
  113000    1.2406462   -5.0259598    70.353226   0.05188291  0.057738539            1 
  114000    1.2347506   -5.0953933     70.73783   0.05170894  0.057748192            2 
  115000    1.2273906   -5.1056488    71.374069   0.05172034   0.05774804            2 
  116000    1.2273293   -5.0187498    72.189231   0.05186008  0.057750974            2 
  117000    1.2803793   -5.0897146    72.459532  0.051609353  0.057751001            3 
  118000    1.2076368   -5.0545013    73.152838  0.051661608  0.057749151            4 
  119000    1.2447498   -5.0558039    74.200075  0.051960837  0.057751382            2 
  120000    1.2449081   -5.0409514    75.332277  0.052314081  0.057757791            4 
  121000    1.2144989   -5.0759618    75.592498  0.052060949  0.057767203            2 
  122000    1.2165088   -5.0505869     76.52643  0.052272152  0.057776895            3 
  123000    1.2399097   -5.0299991    77.633536  0.052597246  0.057793876            2 
  124000    1.2268163   -5.0618741    77.782676  0.052273304  0.057815555            2 
  125000    1.2047691   -5.0473979    79.088966  0.052725977  0.057835785            3 
  126000    1.2223257   -5.0401151    79.780546  0.052764911  0.057856833            2 
  127000    1.2386135   -5.0457626    80.399751  0.052755742  0.057880689            2 
  128000    1.2047767    -5.107668    81.097971  0.052798158  0.057907062            2 
  129000    1.2360298   -5.0630737    81.971058   0.05295288  0.057928466            4 
  130000    1.2022406   -5.0496671    82.773458  0.053059909  0.057958335            2 
  131000    1.2459728    -5.084943    83.326993  0.053006993  0.057987053            3 
  132000     1.210269   -5.0601554    84.240805  0.053182326  0.058004708            1 
  133000    1.2238647   -5.0699571    84.911176  0.053202491  0.058024113            2 
  134000    1.2398875   -5.0557005    85.627017  0.053250632  0.058043742            5 
  135000    1.2430817   -5.0735719    86.068924  0.053128965  0.058064742            2 
  136000    1.2332536   -5.0307289    86.930098  0.053265991  0.058088786            3 
  137000    1.2252164   -5.0563442    87.270513  0.053084253  0.058105319            3 
  138000    1.2054356   -5.0540288    88.419002  0.053393117  0.058117912            1 
  139000    1.2390816   -5.0749665    88.585948  0.053109081  0.058131126            1 
  140000    1.2274368   -5.0528881    89.461194   0.05325071  0.058140206            5 
  141000    1.2099526   -5.0571045    89.950707  0.053162356  0.058149102            2 
  142000    1.2202444   -5.0717443    90.511179  0.053116889  0.058148122            2 
  143000    1.2337858    -5.096715    91.221752  0.053159529   0.05814666            2 
  144000    1.2213055   -5.0371826    92.206184   0.05336006  0.058147105            2 
  145000    1.1975978   -5.0427155    92.742906  0.053300521  0.058137759            1 
  146000    1.2312441   -5.0762895    93.013807  0.053090072   0.05813037            1 
  147000    1.2150267   -5.0523591    93.692961  0.053113923  0.058124137            4 
  148000    1.2439217   -5.0705261     94.41436  0.053161238  0.058116196            2 
  149000     1.240961   -5.0241662    94.745567   0.05298969  0.058100907            2 
  150000    1.2232428   -5.0595771    94.862218  0.052701232  0.058077327            3 
  151000    1.2087485    -5.039343    95.799154   0.05286929  0.058051668            2 
  152000    1.2319545   -5.0861895    96.036518  0.052651599  0.058018507            2 
  153000    1.2219534    -5.061924    96.672652   0.05265395  0.057984877            2 
  154000     1.219663   -5.0859621    97.031798  0.052506384  0.057945289            1 
  155000    1.2125858   -5.0921556    97.460995  0.052398384  0.057904422            2 
  156000    1.2115951   -5.1040331    98.232615  0.052474688  0.057866086            2 
  157000    1.2193883   -5.0318447    99.297076  0.052705454  0.057829354            5 
  158000    1.2118333   -5.0852329       99.351  0.052400316  0.057791835            2 
  159000     1.229341   -5.0806576    100.24924  0.052541528  0.057754011            2 
  160000    1.2385524   -5.0473222    101.10317  0.052657901  0.057720043            1 
  161000     1.252834   -5.0663653    101.78399  0.052683224  0.057692622            2 
  162000    1.2452244   -5.0581552    102.66887  0.052813204  0.057659616            2 
  163000    1.2244007   -5.0532501    103.02051  0.052668973  0.057620208            2 
  164000    1.2416284   -5.0803344    103.76021  0.052723683  0.057585598            3 
  165000    1.2596108    -5.080279    104.25797  0.052655542  0.057555267            1 
  166000    1.2366718   -5.0842503    105.25146  0.052837077  0.057529161            2 
  167000    1.2386882   -5.0832841    106.11679  0.052952488  0.057507187            4 
  168000    1.2023227   -5.0683571    106.38211  0.052768902   0.05748435            2 
  169000    1.2296277   -5.1044913    107.14236  0.052831538  0.057459866            2 
  170000    1.2238694   -5.0728002    108.29575  0.053086152  0.057438582            2 
  171000    1.2140243   -5.0579145    109.02923  0.053133154  0.057419347            3 
  172000    1.2174336   -5.0952531    109.09758  0.052857355  0.057395519            2 
  173000    1.2381499    -5.063921    109.86457  0.052921277  0.057368241            3 
  174000    1.2136014   -5.0903785    110.45884  0.052901741  0.057342147            3 
  175000    1.2054754   -5.0688184    111.16534  0.052935877  0.057318385            4 
  176000    1.2116514   -5.0908952    111.60196  0.052841837  0.057298902            3 
  177000    1.2026786   -5.0549753    112.50751  0.052969636  0.057277685            2 
  178000    1.2180722   -5.0380915    113.68934  0.053225348  0.057262721            2 
  179000    1.2218966   -5.0497283    114.58547   0.05334519  0.057248937            3 
  180000    1.2492794   -5.0649265    115.31544  0.053386777  0.057237323            4 
  181000     1.234213   -5.0891665    115.36031  0.053112479  0.057225764            2 
  182000    1.2125515   -5.0494614    116.38854  0.053291454  0.057215364            2 
  183000    1.2396222    -5.096641    117.39707  0.053459503  0.057203247            3 
  184000    1.2401076    -5.078336    117.89765  0.053395676   0.05719255            1 
  185000    1.2419208     -5.05838    118.36645  0.053318222  0.057183374            2 
  186000    1.2244723   -5.0985516    118.57464  0.053124836  0.057163956            2 
  187000     1.218942   -5.0829909    119.44488  0.053228556  0.057141323            2 
  188000      1.20944   -5.0451691    119.70132  0.053059096  0.057122423            1 
  189000    1.2086335    -5.034204    121.30936  0.053487373  0.057106503            1 
  190000    1.2006303   -5.0622185    121.12054  0.053123044  0.057087272            1 
  191000    1.2200678   -5.0441115    122.37907   0.05339401  0.057068699            2 
  192000    1.2165981   -5.0632076     122.6057  0.053214281  0.057053263            3 
  193000    1.2121929   -5.0916769    123.33667  0.053254173  0.057034003            2 
  194000    1.2145574   -5.0845001    124.01613  0.053271532  0.057015299            1 
  195000     1.217064   -5.1094851    124.62445   0.05325831  0.056999757            1 
  196000    1.1919426   -5.0308756    125.91197  0.053533999  0.056988109            8 
  197000    1.2167877    -5.077564    125.84719  0.053234852  0.056971625            3 
  198000    1.2156708   -5.0887673     126.4693  0.053227818  0.056956905            3 
  199000    1.2232341   -5.0433545    127.76996  0.053505007  0.056943169            1 
  200000    1.2429572   -5.1037942    127.74272  0.053226134  0.056927765            3 
  201000    1.2160721   -5.0634192    128.91084   0.05344562  0.056914234            4 
  202000    1.2100341   -5.0829224    129.37477  0.053372431  0.056898056            1 
  203000    1.2248519   -5.0544734    130.36311  0.053515233  0.056884727            2 
  204000    1.2216903   -5.0726768    130.87368  0.053461469  0.056869787            1 
  205000    1.1930307   -5.0824868     130.9145  0.053217277  0.056851001            2 
  206000     1.228332   -5.0223415    133.02555  0.053812926  0.056836744            1 
  207000    1.2171041   -5.0985874    131.74087  0.053035778  0.056822673            2 
  208000    1.2060357   -5.0690654    133.33626  0.053419975  0.056808651            1 
  209000     1.230722   -5.1527501    133.74572  0.053327638  0.056791452            3 
  210000    1.2406117   -5.0908204    134.47473  0.053362988  0.056775415            1 
  211000    1.2199188   -5.0949185    135.03317  0.053330636  0.056761328            3 
  212000    1.2221891   -5.0873429    136.14465  0.053515977  0.056748697            3 
  213000    1.2311367   -5.0805181    137.01029  0.053603399  0.056736011            3 
  214000    1.2415187   -5.0892246    137.30576  0.053467975  0.056723637            4 
  215000     1.223012   -5.0880955    138.20875  0.053569282  0.056711796            3 
  216000    1.2149312   -5.0866857      138.308  0.053359567  0.056700427            5 
  217000    1.2243458   -5.0786207    139.41234  0.053537764  0.056687843            1 
  218000    1.2155199   -5.0875754    140.12673  0.053565264   0.05667669            3 
  219000    1.1928393   -5.0574301    141.18343  0.053722765  0.056668289            4 
  220000     1.187657   -5.0449522    141.79518  0.053710294  0.056659258            3 
  221000    1.2305178   -5.1475142    141.79796  0.053468309  0.056648714            5 
  222000    1.2100047   -5.1011129    142.75732  0.053587584  0.056637261            2 
  223000    1.2166694   -5.0978347    143.79814  0.053736224  0.056628792            2 
  224000    1.2327077    -5.077144    143.78977  0.053493216  0.056619747            1 
  225000    1.2305522   -5.0852802    145.11773  0.053747308  0.056610494            3 
  226000    1.2074447   -5.0827133      145.778  0.053752949  0.056601457            3 
  227000    1.2091768   -5.0404303    146.61504  0.053823437  0.056592203            2 
  228000    1.1982056   -5.0985966    146.53224  0.053557106  0.056580769            2 
  229000    1.1918142   -5.0440838    146.96933  0.053482288  0.056566208            2 
  230000     1.234606    -5.125592    147.81393  0.053555771  0.056553561            9 
  231000    1.2062367   -5.0877661    148.21132  0.053467287  0.056541589            3 
  232000    1.2141616   -5.0446946    149.01234  0.053524548  0.056529544            1 
  233000    1.2161872   -5.0878218    149.70845  0.053543796  0.056519801            2 
  234000    1.1775578   -5.1414101    149.98487  0.053413415  0.056507731            4 
  235000    1.2252461   -5.0897154    150.96042  0.053532064  0.056496513            3 
  236000    1.1957621   -5.0793765    152.24411  0.053758514   0.05648564            2 
  237000    1.2027098   -5.0660841    153.75898  0.054064339  0.056481841            2 
  238000    1.2079003   -5.0755664    154.21022  0.053995175  0.056478668            3 
  239000    1.2568045   -5.0668429    155.31604  0.054154826  0.056479868            3 
  240000    1.2044429   -5.0566106    155.60967  0.054031135   0.05647927            3 
  241000    1.2244875   -5.0716434     156.8918  0.054250278   0.05647835            4 
  242000    1.2222924    -5.080743    156.97691   0.05405541  0.056480883            3 
  243000    1.2316808   -5.0802187    157.50812  0.054015132  0.056483956            3 
  244000     1.217012   -5.0644344     158.9272  0.054278415  0.056487747            4 
  245000    1.2127515   -5.0916832    159.39746  0.054216822  0.056491409            2 
  246000    1.2142719    -5.126336    159.95397  0.054184948  0.056494623            3 
  247000    1.2171944   -5.1107857     160.7428  0.054231715  0.056501044            2 
  248000    1.2039632   -5.0977211    161.63799   0.05431384  0.056508136            3 
  249000    1.2284475   -5.1145809    162.21299  0.054288149  0.056516781            3 
  250000    1.2128789    -5.125143    162.62649  0.054208831  0.056522969            2 
  251000    1.2275827   -5.1129011    162.75134  0.054034308  0.056527143            2 
  252000    1.2144279   -5.0625654     164.3558  0.054350462  0.056528413            2 
  253000    1.1785753   -5.1236593    163.24463  0.053769642    0.0565259            2 
  254000     1.222055   -5.1008964    164.24331    0.0538856  0.056520744            2 
  255000    1.1998306   -5.1510132    164.51716  0.053763777  0.056512155            3 
  256000    1.2085713   -5.1216566    164.44527   0.05353036  0.056501543            8 
  257000    1.2348887   -5.1354548    165.94188  0.053807353  0.056492578            1 
  258000    1.2049089   -5.1093248    165.99756  0.053616782  0.056481725            1 
  259000    1.2236758   -5.0689229    167.13262  0.053774975  0.056469174            2 
  260000    1.2117426   -5.1101481    167.30045  0.053621939   0.05645545            3 
  261000    1.1784305   -5.1527939    167.64204  0.053525554  0.056442174            3 
  262000    1.2261536   -5.0662148     168.2588  0.053517431  0.056426969            2 
  263000    1.2126935   -5.0665864    169.10294  0.053581414  0.056409088            2 
  264000    1.2160687   -5.0890962    169.44218  0.053485538    0.0563919            1 
  265000    1.2147615    -5.082984    170.03738  0.053470873   0.05637026            3 
  266000    1.1723458   -5.1094067    169.68852  0.053160564   0.05635116            1 
  267000    1.2053358   -5.1077739    170.67163  0.053268297  0.056329845            2 
  268000    1.1997626   -5.0762581    171.71428  0.053393745  0.056305321            2 
  269000     1.206752    -5.080208    171.84877  0.053236919  0.056283176            2 
  270000    1.2032997   -5.1202773    172.33842   0.05319087  0.056261937            2 
  271000    1.1817331   -5.0871378    173.84004  0.053456346  0.056241321            3 
  272000    1.2260282   -5.0669285     173.8243  0.053254995  0.056220685            1 
  273000    1.2169027   -5.1081595    174.10384  0.053145251  0.056198178            3 
  274000    1.2034432   -5.0942641    174.45656  0.053058564  0.056175408            2 
  275000    1.2091023   -5.0877732    175.03373  0.053040523   0.05614988            1 
  276000    1.2208952   -5.0748407    175.93028  0.053119044  0.056125791            4 
  277000    1.2155521    -5.104583    176.20916   0.05301118  0.056101367            2 
  278000    1.2087246   -5.0811777    177.79007  0.053294384  0.056076479            1 
  279000    1.2143477   -5.0887217    177.60428  0.053047874  0.056052659            2 
  280000     1.189793   -5.1046182    177.67669  0.052879969  0.056025622            3 
  281000    1.1879026   -5.0834191    179.20383  0.053144672  0.055999322            4 
  282000    1.2060564   -5.0858195    179.88058  0.053156201  0.055975183            2 
  283000    1.1959928   -5.1119676    179.66059  0.052903589  0.055949996            2 
  284000    1.1804626    -5.109456     180.9709  0.053101789  0.055927262            2 
  285000    1.1964981   -5.0989847    181.80733  0.053160038  0.055903847            3 
  286000    1.2000224   -5.0785796    181.81825  0.052977347  0.055882362            2 
  287000    1.1721886   -5.0972033    182.52717  0.052998599  0.055857375            2 
  288000    1.2092885   -5.1059034    182.64864  0.052849722  0.055832988            4 
  289000    1.2021426   -5.1058216    183.67733  0.052963475  0.055806136            2 
  290000    1.1790512   -5.1127394    183.43941  0.052712474  0.055781114            2 
  291000    1.1991013   -5.1129291    184.64038  0.052875251  0.055757976            1 
  292000    1.2056304   -5.0850923    186.50438  0.053226135  0.055735181            4 
  293000    1.2457576   -5.1084553    185.51595  0.052763352  0.055713261            6 
  294000    1.1901142   -5.1324174    186.56165  0.052880285  0.055690966            1 
  295000    1.2238468   -5.1197769    187.12312  0.052859637  0.055668358            2 
  296000    1.2185852   -5.1335642    187.62834  0.052823294  0.055645555            3 
  297000    1.1934292   -5.0977197    187.82613  0.052700933   0.05562198            3 
  298000    1.1994747    -5.104573    188.58473  0.052736223  0.055595761            2 
  299000     1.198682   -5.0778347    189.04309  0.052687594  0.055569471            1 
  300000    1.1987615   -5.0865418    188.76811  0.052435586  0.055544424            1 
  301000    1.1687571   -5.1498092    188.83441  0.052279736  0.055515682            2 
  302000    1.2105699   -5.1487678    190.65186   0.05260813  0.055487403            2 
  303000     1.193413   -5.1254638      192.059  0.052821506  0.055460338            2 
  304000    1.2278663   -5.0787088    191.82398  0.052583328  0.055433132            5 
  305000    1.1930935   -5.1255656    191.81722  0.052409077  0.055403479            2 
  306000    1.2062967   -5.1052346    192.86277  0.052522541  0.055373168            2 
  307000    1.1957539   -5.1432039    193.07589  0.052409309  0.055343904            4 
  308000    1.1872947   -5.1171023    193.45124  0.052340704  0.055313823            2 
  309000    1.1911866   -5.1247037     194.1372  0.052356311  0.055284994            3 
  310000    1.2165128   -5.1470201    193.89964   0.05212356   0.05525653            3 
  311000     1.216026   -5.0709335    195.88418  0.052487721  0.055227585            1 
  312000    1.2217818   -5.1265877    196.16743  0.052395146  0.055198893            2 
  313000    1.2152701   -5.1147864    196.44621  0.052301973  0.055168048            1 
  314000    1.1885796   -5.1302547    196.78128  0.052224332  0.055139351            1 
  315000    1.2022531   -5.1025765    197.50437  0.052249833  0.055109867            5 
  316000    1.2185655   -5.0856782    199.17665  0.052525488  0.055083314            2 
  317000    1.2098623   -5.0920326    199.93176  0.052558297  0.055056955            1 
  318000    1.1835845   -5.1069853    199.47993  0.052274614  0.055029897            3 
  319000    1.1941103   -5.1280439    199.81678  0.052198742  0.054999839            2 
  320000    1.1893549   -5.1214461    201.02862  0.052351203  0.054971737            2 
  321000    1.1929071   -5.1383746    200.59252    0.0520749   0.05494295            2 
  322000    1.1995429   -5.1023385      202.401  0.052381211  0.054915089            2 
  323000    1.1838939   -5.1175917    202.88392  0.052343633  0.054890228            2 
  324000    1.2161726   -5.1321063    203.47447  0.052333968  0.054864095            6 
  325000    1.1839611   -5.1557118    202.45249  0.051910895  0.054835458            1 
  326000    1.2268146   -5.0999633    204.52934  0.052282551   0.05480764            3 
  327000    1.2010526   -5.1512036    204.16881  0.052030786  0.054781776            2 
  328000    1.2118655   -5.1515854    205.87257  0.052305024  0.054756101            3 
  329000     1.203009   -5.1347767    205.18105  0.051970883  0.054730677            2 
  330000    1.1897351   -5.0799535    207.29749   0.05234785    0.0547049            2 
  331000    1.2019741    -5.102063    206.91966  0.052094577  0.054678887            2 
  332000     1.212901   -5.1501913    208.13961  0.052243879  0.054653391            3 
  333000    1.2138552   -5.1263495    208.72844  0.052234343  0.054628231            2 
  334000    1.2000753   -5.1221099    208.84796  0.052107774  0.054602303            3 
  335000    1.2004758   -5.1145278    208.72861   0.05192254  0.054575074            3 
  336000    1.2030293   -5.1177114    209.84094  0.052043884  0.054546725            3 
  337000    1.2067699   -5.0860248    210.62078  0.052082289  0.054519286            4 
  338000     1.191851   -5.0965304    211.33185  0.052103514  0.054493606            2 
  339000    1.1780989   -5.1456054    211.33123  0.051949662  0.054468452            2 
  340000    1.2032634   -5.1127479     211.4691  0.051830661  0.054442264            2 
  341000    1.1996469   -5.1089474    212.97022  0.052045508  0.054417101            2 
  342000    1.2164869    -5.149474    213.48443  0.052018624  0.054391954            4 
  343000    1.1869369   -5.1313757    213.64356  0.051905626  0.054367424            2 
  344000    1.1889905   -5.1013132     214.3356  0.051922384  0.054343284            1 
  345000    1.2097005   -5.1323647    215.19635  0.051979795  0.054317852            2 
  346000    1.2029076   -5.1138464    215.26021  0.051844945  0.054291575            2 
  347000    1.2101547   -5.0674569    216.01503  0.051876808  0.054264776            4 
  348000     1.201813   -5.0823253    216.28281   0.05179186  0.054235951            2 
  349000    1.1922089    -5.160703    215.91912  0.051556619  0.054206772            2 
  350000    1.1412641   -5.1695581    216.20637  0.051477707  0.054177764            2 
  351000    1.2080063    -5.129652    217.97274  0.051750413  0.054150004            2 
  352000    1.1960243   -5.1457632     217.8204  0.051567328   0.05412418            2 
  353000    1.2202244   -5.1282398    218.46283  0.051572905  0.054097359            2 
  354000    1.1874462   -5.0845462    219.65447  0.051707739  0.054070004            2 
  355000     1.196814   -5.1367215    219.86905  0.051612452  0.054045178            2 
  356000    1.2126824   -5.1173623     221.6128  0.051875655  0.054023572            3 
  357000    1.2055599    -5.145575    221.24023  0.051643377   0.05400269            3 
  358000    1.1918081   -5.1409136    222.42761  0.051775514  0.053981064            1 
  359000     1.192251   -5.1289563    223.72112  0.051931551  0.053959061            2 
  360000    1.1904195    -5.082791    225.06349  0.052098029  0.053941723            1 
  361000    1.2109474   -5.1397613    225.80556  0.052125013  0.053922833            3 
  362000    1.1966032   -5.1476115    225.58372  0.051929953  0.053905552            3 
  363000    1.2108923   -5.1205716    226.95592  0.052101911  0.053887639            2 
  364000    1.2185863   -5.1134736    228.11965  0.052225195  0.053871357            3 
  365000    1.2252319   -5.1206896     228.0009  0.052054999  0.053855857            4 
  366000     1.195077   -5.1292365    228.24103  0.051967448   0.05383841            3 
  367000    1.1852974   -5.1317028    228.64483  0.051917537  0.053819155            2 
  368000    1.2206798   -5.1096719    229.74317  0.052025175  0.053800687            1 
  369000    1.2308474   -5.1056236    231.09619  0.052189744  0.053781041            1 
  370000    1.1890637   -5.1352741    230.15593   0.05183692  0.053762855            3 
  371000    1.1801511    -5.106048    231.82494  0.052072089  0.053744172            2 
  372000    1.1834383   -5.1276072    232.25451   0.05202834  0.053725982            4 
  373000    1.1841953   -5.1168055    232.48909  0.051941263  0.053707155            1 
  374000    1.1991404   -5.1267431    232.10729  0.051717311  0.053687028            2 
  375000    1.1962613   -5.1205862    232.53969  0.051675487  0.053667438            2 
  376000    1.2042304   -5.1820243    233.27007  0.051699927  0.053647362            3 
  377000    1.1797069   -5.1640957    233.14363  0.051534844   0.05362628            2 
  378000    1.1937636   -5.1670272    234.43107  0.051682334  0.053605896            1 
  379000    1.1721519   -5.1234026    235.30214  0.051737498   0.05358633            1 
  380000    1.1718921     -5.16289     236.5296  0.051870526  0.053568374           10 
  381000    1.1848021   -5.1271037    237.48306  0.051942925  0.053551056            2 
  382000    1.1542655   -5.1358863    237.21079  0.051747553   0.05353416            2 
  383000    1.1702087   -5.1283076    238.01246  0.051786871  0.053516653            1 
  384000    1.2059867   -5.0777407    238.69753  0.051800678  0.053501226            4 
  385000    1.2127335   -5.0973103    239.82661  0.051910523  0.053484895            2 
  386000    1.2031712   -5.1339671    239.94661  0.051801946  0.053467464            4 
  387000    1.1873767   -5.0989909    241.06432  0.051908768  0.053451184            2 
  388000    1.1949425   -5.1029129    240.85912   0.05173091  0.053436576            2 
  389000    1.1840344   -5.1053851    242.82099  0.052018206  0.053421711            1 
  390000    1.1815595   -5.1592324    242.11685   0.05173437  0.053405507            1 
  391000     1.201681   -5.1544366    242.78429  0.051744307  0.053389539            6 
  392000    1.1741154   -5.1266334     244.3729  0.051950021  0.053373698            4 
  393000    1.1963111    -5.137891    245.71774  0.052102999  0.053359851            4 
  394000    1.1711741   -5.1243104    245.56248  0.051937919  0.053346167            3 
  395000    1.1867641   -5.1329027    245.76017  0.051848137  0.053332274            2 
  396000    1.1946663   -5.1487543    246.85686  0.051947993  0.053317902            5 
  397000     1.189536   -5.1259559    247.10572  0.051869379  0.053304541            2 
  398000    1.1967305   -5.0879389    248.75373  0.052084115  0.053290089            2 
  399000     1.192455   -5.0643659    251.57226  0.052542243  0.053279122            2 
  400000    1.1923926   -5.1633029    249.48623  0.051976298  0.053269307            3 
  401000    1.1534393   -5.1366754     250.6786  0.052094472  0.053259268            4 
  402000     1.162332   -5.1474795    251.02175  0.052036018  0.053248641            2 
  403000    1.2144337   -5.1514685    251.97732  0.052104492  0.053238118            5 
  404000    1.1605683   -5.1404723    252.43663  0.052070261  0.053226921            6 
  405000    1.1742273   -5.1326128    252.59773  0.051974842  0.053215323            1 
  406000    1.1725991   -5.1539749    253.00641  0.051930709  0.053204221            2 
  407000    1.1785509   -5.1618662     253.9282  0.051991852  0.053192613            2 
  408000    1.2068996   -5.1065524    255.44321  0.052173857  0.053180654            2 
  409000    1.1787843   -5.1840037    254.92035  0.051939762  0.053170793            3 
  410000    1.1582562    -5.129662    257.26994  0.052290639  0.053162367            5 
  411000    1.1815991   -5.1300001     256.6424  0.052036173  0.053153814            2 
  412000    1.1814787   -5.1306158    257.47509  0.052078295   0.05314443            2 
  413000    1.1691317   -5.1827801    257.77568  0.052012848  0.053134339            2 
  414000    1.2088125   -5.1318001    259.14033  0.052161903  0.053125472            4 
  415000     1.166971   -5.1647682    259.43335   0.05209505  0.053117426            4 
  416000    1.1838226   -5.1303565    260.82967  0.052249534  0.053109597            2 
  417000    1.2024559   -5.1173169     261.2324  0.052204716  0.053102217            1 
  418000    1.1861849   -5.1314777    262.24376   0.05228145  0.053094777            3 
  419000     1.176644   -5.1638896     261.8459  0.052077545  0.053089291            7 
  420000    1.1905233   -5.1073269    262.85938  0.052154638  0.053082126            2 
  421000    1.1794238   -5.1437462    263.78617  0.052214206  0.053076401            3 
  422000    1.1832255   -5.1432108    264.20433  0.052173051  0.053070747            3 
  423000    1.1694683   -5.1492246    263.81053   0.05197213  0.053064554            3 
  424000    1.2054765   -5.1010499    265.99049  0.052278005  0.053059437            3 
  425000    1.1728579   -5.1649483    266.68421  0.052291021  0.053054592            2 
  426000    1.1630644    -5.139122    267.06995   0.05224373  0.053049398            1 
  427000    1.1964632   -5.1173737    268.95517  0.052489299   0.05304496            3 
  428000    1.1858712   -5.1572832    267.50144  0.052083614  0.053041636            2 
  429000    1.2244548   -5.1306162    269.10928   0.05227453  0.053035627            3 
  430000    1.2034263   -5.1692662     269.1916  0.052168915  0.053031175            2 
  431000    1.1801947   -5.1241419    270.17555  0.052238118  0.053025866            1 
  432000    1.1855249   -5.1195635    271.25273  0.052324986  0.053023447            2 
  433000    1.1992052   -5.1454202    272.42713  0.052430163  0.053020626            1 
  434000    1.1888377   -5.1088101    274.56268  0.052719408  0.053018329            3 
  435000    1.1701743   -5.1795189    272.85484  0.052271041  0.053015441            2 
  436000    1.1666414   -5.0912472    275.67801   0.05269075  0.053012532            1 
  437000    1.1567025   -5.1481975    274.68698  0.052381193  0.053009173            3 
  438000    1.1845673   -5.1334868     276.0651  0.052523801  0.053005448            4 
  439000    1.1625054   -5.1502174    274.82751  0.052169231  0.053002523            1 
  440000    1.1792439   -5.1594581    276.01969  0.052276456  0.052999788            5 
  441000    1.1682124   -5.0984318    278.81579  0.052686279  0.052997321            2 
  442000     1.195354   -5.1812773    277.11749  0.052246887  0.052994463            3 
  443000     1.158969   -5.1823276    277.62975  0.052225311  0.052991875            2 
  444000    1.1949868   -5.1609119    279.16916  0.052396613  0.052989511            3 
  445000    1.1824565   -5.1590063    279.96035  0.052427032  0.052986496            2 
  446000    1.1929507   -5.1239884    280.80479  0.052467263   0.05298368            2 
  447000    1.1534662    -5.128919    281.11223  0.052407202  0.052980141            2 
  448000    1.1626976   -5.1808869    282.51208   0.05255061  0.052977872            2 
  449000    1.1551779   -5.1066678    282.74244  0.052476325  0.052976756            2 
  450000    1.1880916   -5.1664958    283.34285  0.052470899  0.052975261            2 
  451000    1.1804655   -5.1792438    283.04404  0.052299342  0.052973403            2 
  452000    1.2063317   -5.1443169     284.6696  0.052483333  0.052970767            6 
  453000    1.1984948   -5.1451067    285.41126  0.052503911   0.05296922            2 
  454000     1.164283   -5.1708188     286.9368  0.052668282  0.052970089            4 
  455000    1.1697106   -5.1283349    288.55209  0.052848367  0.052970591            2 
  456000    1.1860992   -5.1436385    288.38252  0.052701484  0.052971137            3 
  457000    1.1692262   -5.1427529    288.99822  0.052698435   0.05297322            3 
  458000    1.1936959   -5.1423666    289.58156  0.052689512  0.052974616            5 
  459000    1.1922783   -5.1365052     290.2186  0.052690378  0.052974863            2 
  460000     1.166304    -5.161384    290.48631  0.052624332  0.052974303            2 
  461000    1.1596901   -5.1648847    290.51863  0.052516021  0.052975797            3 
  462000    1.1701728   -5.1987248    290.96331   0.05248256  0.052977134            5 
  463000    1.1715521   -5.1479557    292.60758  0.052665152  0.052978573            3 
  464000    1.1721351   -5.1649201    292.41903  0.052517786  0.052980075            3 
  465000    1.1783922   -5.1289063    295.51614  0.052959882  0.052982755            2 
  466000    1.1692288   -5.1678682    295.40737  0.052826782  0.052986167            2 
  467000    1.1666819   -5.1474987    297.46262   0.05308041  0.052989468            2 
  468000    1.1579099   -5.1828733    296.83799  0.052855768  0.052992759            2 
  469000    1.1864116   -5.1526311    298.20005  0.052985084  0.052996147            3 
  470000    1.1718994   -5.1542129    298.48861  0.052923513  0.053000442            1 
  471000    1.1813611    -5.156461    299.32993  0.052960001  0.053005369            2 
  472000     1.171566   -5.1452337    300.78298  0.053104339  0.053010633            2 
  473000    1.1705473   -5.1528779    300.86298  0.053006164  0.053016392            2 
  474000     1.176695   -5.2102303     300.9092  0.052902461  0.053021985            5 
  475000     1.168361   -5.1781147    302.61118   0.05308968  0.053026448            6 
  476000    1.1633825   -5.1495525    303.34657  0.053106892  0.053032357            2 
  477000    1.2029573   -5.1267269      303.416  0.053007687  0.053037062            6 
  478000    1.1753495   -5.1801292    303.34264  0.052884003  0.053041014            3 
  479000    1.1785903   -5.1695888    304.11112  0.052907293  0.053044091            2 
  480000    1.1696317   -5.1209748    305.53107  0.053043588  0.053047907            3 
  481000    1.1399329    -5.165725    304.69542  0.052788534  0.053051265            2 
  482000    1.1897497    -5.170684    305.85522  0.052879533  0.053054394            3 
  483000     1.160476   -5.1523151     307.5084  0.053055279  0.053058059            1 
  484000    1.1829858   -5.1289252    309.45464  0.053280757  0.053061977            2 
  485000    1.1636627   -5.1457727     307.9081  0.052905172  0.053066649            2 
  486000    1.1627315   -5.1794114    308.18385  0.052843595  0.053070054            2 
  487000    1.1763808    -5.166714     309.7854  0.053009137  0.053073475            3 
  488000    1.1529733   -5.1571726    308.98672  0.052764126  0.053076911            2 
  489000    1.2094864   -5.1815036    310.96361  0.052993117  0.053079338            3 
  490000    1.1754256   -5.2031585    311.17183  0.052920379  0.053081838            1 
  491000     1.168607   -5.1674768    310.64514  0.052723208   0.05308398            4 
  492000    1.1690156   -5.1504939    312.54834  0.052938404  0.053087031            3 
  493000    1.1954228   -5.1779985    312.79639  0.052872953  0.053090182            3 
  494000    1.1757357   -5.1822507    312.87306  0.052778856  0.053092846            2 
  495000    1.1503004   -5.1141171    314.85908  0.053006579  0.053095546            2 
  496000     1.167431   -5.1797169    313.99652  0.052754792  0.053098162            4 
  497000    1.1554501   -5.1925506    315.32551  0.052871481  0.053099903            3 
  498000    1.1668075   -5.1531518    315.51684  0.052797329  0.053102364            2 
  499000    1.1916535   -5.1760617    316.21104  0.052807455   0.05310456            4 
  500000    1.1432724   -5.1894374    317.04163  0.052840271  0.053107474            2 
  501000    1.1617483    -5.202583    316.85642  0.052703996  0.053109345            2 
  502000    1.1673644   -5.1692476    318.02612   0.05279318  0.053111254            6 
  503000    1.1724241   -5.1523133    318.00444  0.052684633  0.053111362            6 
  504000    1.1715946   -5.1849491     319.2739  0.052789996  0.053112768            2 
  505000    1.1714711   -5.1599861    320.13099  0.052826896  0.053114155            2 
  506000    1.1705471   -5.1428725    321.47566  0.052943949  0.053114667            2 
  507000     1.168097   -5.1846906    320.94574  0.052752423  0.053116474            4 
  508000    1.2040021   -5.1347671    323.34482   0.05304213  0.053118712            9 
  509000    1.1454011    -5.164091    323.59139  0.052978289  0.053120243            2 
  510000    1.1945765   -5.2052449    322.46734  0.052690741  0.053121432            2 
  511000    1.1791535   -5.2018664    322.38055  0.052573476  0.053120046            3 
  512000    1.1818506   -5.1781389     323.9162  0.052720735  0.053119479            2 
  513000    1.1508441   -5.1808027    324.10087  0.052647965  0.053118502            2 
  514000    1.1739465   -5.1434159    324.17811  0.052558059  0.053116665            2 
  515000    1.1645621   -5.1753413    325.54778  0.052677635  0.053114887            1 
  516000    1.1853975   -5.1681627    326.44672  0.052720724  0.053113836            3 
  517000    1.1893441   -5.1936817    325.92487  0.052534634  0.053112699            4 
  518000    1.1741386   -5.1353452    327.62551  0.052706807  0.053111842            2 
  519000    1.1567135   -5.1594786    328.01538  0.052667851  0.053110316            4 
  520000    1.1829646   -5.1641944    327.24827  0.052443633  0.053109642            2 
  521000     1.174928   -5.1846725    328.16729   0.05248997  0.053108135            1 
  522000    1.1757543   -5.1724388    329.19335  0.052553217  0.053106633            2 
  523000    1.1608023   -5.1869404     330.4891  0.052659194  0.053104303            2 
  524000    1.1408356   -5.1948678    329.13507  0.052343363  0.053100743            4 
  525000    1.1910447   -5.1780891    330.55797   0.05246952  0.053096882            7 
  526000    1.1604402   -5.2007661    330.14519  0.052304371  0.053092783            4 
  527000    1.1914617   -5.1785442    330.72742  0.052297189  0.053089023            2 
  528000    1.1761489   -5.1754833    332.22726  0.052434858   0.05308439            3 
  529000    1.1534607   -5.1708419    333.13225    0.0524783  0.053080241            3 
  530000    1.1893178    -5.165196    333.23263  0.052395068  0.053075904            1 
  531000    1.1526365   -5.2084998    332.63054  0.052201906  0.053071716            6 
  532000     1.176719   -5.1396491    335.05565  0.052483654  0.053067301            2 
  533000    1.1901383   -5.1494571    334.77993  0.052342078  0.053063351            3 
  534000    1.1577912   -5.1979099    335.50321   0.05235693  0.053059152            1 
  535000    1.1727595    -5.170767    335.86526  0.052315461  0.053055034            1 
  536000    1.1940694   -5.2071887    336.54128  0.052322961  0.053051276            2 
  537000    1.1758517   -5.1680657    337.72809  0.052409697  0.053047377            2 
  538000    1.1875643   -5.1636002    338.12369  0.052373557  0.053043786            2 
  539000    1.1648181   -5.2034465    338.80086  0.052381086  0.053040055            4 
  540000    1.1529536   -5.1446848    342.04159  0.052784196  0.053036653            2 
  541000    1.1595048    -5.157381    339.82614   0.05234537   0.05303384            3 
  542000      1.18281   -5.1750236    341.15182  0.052452617  0.053030495            3 
  543000     1.185023   -5.2135756    341.50155  0.052409691  0.053028323            2 
  544000    1.1772655   -5.2004075    340.77769  0.052202464  0.053025605            5 
  545000    1.1757641   -5.1780825    343.63564  0.052543676   0.05302239            4 
  546000    1.1612137      -5.2226    341.93711  0.052188203  0.053019193            2 
  547000     1.153544   -5.1599769     345.7784  0.052678002  0.053016114            2 
  548000    1.1512324   -5.1941699    345.15628  0.052487269  0.053013149            4 
  549000    1.1500338   -5.1653824    346.16993  0.052545527  0.053010993            2 
  550000    1.1729746   -5.1719601    348.58386  0.052815737  0.053009133            3 
  551000    1.1808774   -5.1827017    347.52879  0.052560313  0.053007757            3 
  552000    1.1341558   -5.1798871    347.98527  0.052534009   0.05300584            2 
  553000    1.1574747   -5.1763351    348.36494  0.052496224  0.053004092            2 
  554000    1.1891586   -5.1963992    348.30205  0.052392004  0.053001407            3 
  555000    1.1608878   -5.1914319    349.86799  0.052532731  0.052999813            5 
  556000    1.1573374   -5.2038815    349.43511  0.052373367  0.052998502            3 
  557000    1.1529767   -5.1507584    352.15588  0.052686398  0.052996967            1 
  558000      1.13843    -5.169046    352.40628  0.052629372  0.052995725            2 
  559000    1.1366765   -5.1708865    353.07932  0.052635558  0.052993947            9 
  560000    1.1745789   -5.1622987    353.73722  0.052639468  0.052993383            2 
  561000    1.1292748   -5.2134789    352.51255  0.052363718  0.052992617            3 
  562000      1.16382   -5.1952444    354.55172  0.052572912  0.052991331            3 
  563000    1.1728205   -5.2051872     355.2906  0.052588898  0.052990269            2 
  564000    1.1604853   -5.1875273    355.52082  0.052529672  0.052989103            2 
  565000     1.180477   -5.1904853    357.31517  0.052701352  0.052989295            3 
  566000    1.1722389   -5.1855936    358.30232  0.052753581  0.052990166            2 
  567000    1.1857637   -5.2198237    358.46921   0.05268507  0.052990313            7 
  568000    1.1787504   -5.1685735    360.16114  0.052840542  0.052990701            4 
  569000    1.1705774   -5.2080561    360.18206  0.052750741   0.05299065            2 
  570000    1.1349764   -5.1706521    360.94553  0.052769814  0.052990571            2 
  571000    1.1837699   -5.2010128    359.69906  0.052495485   0.05299058            1 
  572000    1.1842362   -5.1846582    362.13399  0.052758449   0.05299112            4 
  573000    1.1730463   -5.1663218    362.02358  0.052650317  0.052990534            1 
  574000    1.1680863   -5.1944861    363.51999   0.05277584  0.052989479            3 
  575000    1.1360239   -5.2327118    361.49924  0.052391195  0.052988416            4 
  576000    1.1646077   -5.2273152    362.15205  0.052394683  0.052986563            2 
  577000     1.165766   -5.1821957    365.06593  0.052724715  0.052984447            3 
  578000    1.1539554   -5.1971207    365.32837  0.052671333  0.052982449            5 
  579000    1.1574866   -5.2006342    364.25512  0.052425896  0.052980263            3 
  580000     1.191405   -5.2148687    364.19835  0.052327349  0.052977306            2 
  581000    1.1728719   -5.2365926    365.08763  0.052364835  0.052973912            2 
  582000    1.1733857   -5.2223425    366.38897  0.052461193  0.052971556            2 
  583000    1.1501177   -5.1827358    366.65987   0.05240993  0.052969276            2 
  584000    1.1626864   -5.2134367    367.09703  0.052382567  0.052968016            2 
  585000    1.1437781   -5.2037697    367.80725  0.052394195  0.052964804            3 
  586000    1.1462652   -5.2021142    366.88998  0.052174342  0.052961673            1 
  587000    1.1587714   -5.2035434    368.22088    0.0522744  0.052957778            3 
  588000    1.1463784    -5.218247    368.26732   0.05219208  0.052953489            2 
  589000    1.1640332   -5.2215501    368.28043  0.052105324  0.052949192            3 
  590000    1.1837071    -5.218403     369.0628  0.052127514  0.052944668            3 
  591000    1.1613962   -5.2182607    368.85951  0.052010647   0.05293903            3 
  592000    1.1443683   -5.2361577    370.82078  0.052198871  0.052934758            3 
  593000    1.1483285   -5.1886878    371.83062  0.052252757  0.052930796            2 
  594000    1.1581573   -5.1933707    372.41034   0.05224612   0.05292632            2 
  595000    1.1562031   -5.1442154    374.47407  0.052447349   0.05292211            4 
  596000    1.1698108   -5.2449783    372.91272   0.05214104  0.052918503            2 
  597000    1.1323244   -5.1951788       374.91  0.052332496  0.052914987            4 
  598000     1.176044   -5.2045602     373.5231  0.052051713  0.052910849            5 
  599000    1.1672337   -5.2100034    375.50064  0.052239933  0.052906856            2 
  600000    1.1550993   -5.1645305    377.42626  0.052420314  0.052902301            7 
  601000    1.1684129   -5.2042247    375.54062  0.052071634   0.05289713            4 
  602000    1.1671225    -5.210588    377.05323  0.052194522  0.052892289            1 
  603000    1.1465053   -5.2362169    376.46939  0.052027279  0.052886668            3 
  604000    1.1549227   -5.2101511    377.44315   0.05207549  0.052881356            3 
  605000    1.1662809   -5.2076324    377.75375  0.052032196  0.052875414            1 
  606000    1.1604452   -5.2021075    378.13757  0.051999115  0.052868584            3 
  607000    1.1558075   -5.1734694    380.21031  0.052198011  0.052861091            3 
  608000    1.1701759   -5.2471237    377.55967  0.051748859  0.052854134            3 
  609000    1.1588597    -5.202327    380.20789  0.052026257  0.052846776            5 
  610000    1.1672848   -5.2219185    378.63433  0.051726001  0.052839651            3 
  611000    1.1529348   -5.1857679    379.53792  0.051764582  0.052833287            4 
  612000    1.1448587   -5.1862638    380.71106  0.051839742  0.052825931            4 
  613000      1.14802   -5.1547827    380.54119  0.051732081   0.05281874            3 
  614000    1.1493163   -5.2009988    381.59897  0.051791392  0.052811516            2 
  615000    1.1432191   -5.1930449    381.24787  0.051659603  0.052803462            2 
  616000    1.1634196   -5.2068439    382.54253  0.051750883  0.052795568            2 
  617000    1.1521981   -5.2238946    383.52794    0.0518001  0.052788037            3 
  618000    1.1621459   -5.1975095     383.8681   0.05176215  0.052780069            4 
  619000    1.1520493   -5.2041465    384.31986  0.051739346  0.052771779            6 
  620000    1.1340168   -5.2207213    383.36441  0.051527474  0.052763704            3 
  621000    1.1436604   -5.2169796    385.62603  0.051747991  0.052755538            3 
  622000    1.1314165   -5.2109895    385.97545  0.051711609  0.052746879            2 
  623000    1.1401605   -5.1733751    386.75447  0.051732808  0.052739219            2 
  624000    1.1361803   -5.2001795    388.27825  0.051853398  0.052731234            2 
  625000    1.1476128   -5.1645992    388.93504  0.051858006    0.0527238            4 
  626000    1.1446526   -5.1851556    389.40287  0.051837443  0.052716241            4 
  627000    1.1749116   -5.1548607    391.03445  0.051971617  0.052709554            2 
  628000    1.1442285   -5.2101041    390.86401  0.051866243  0.052703048            2 
  629000    1.1533154    -5.222982    391.88005  0.051918396  0.052696143            2 
  630000    1.1240078   -5.2374908    390.56621  0.051662197  0.052687947            2 
  631000    1.1848958   -5.1951146    393.17625  0.051925019  0.052680844            3 
  632000    1.1816717   -5.2050483    394.10086  0.051964776  0.052674811            3 
  633000    1.1517258   -5.2459095     394.3794  0.051919352  0.052667483            3 
  634000    1.1527232   -5.2250846    394.22282   0.05181688  0.052660913            3 
  635000    1.1242181   -5.1843885    396.58798  0.052045667   0.05265602            1 
  636000    1.1140266   -5.2161059    395.13258  0.051773136  0.052649429            2 
  637000    1.1502926    -5.183071    396.63755  0.051888743  0.052642497            4 
  638000     1.158989   -5.2166206    395.72063  0.051687648  0.052635388            4 
  639000    1.1241721   -5.2166304    395.56793  0.051586845  0.052628919            2 
  640000    1.1877814   -5.2362482    396.75761  0.051661147  0.052621941            5 
  641000    1.1532782   -5.2366583    396.52782  0.051550679  0.052614685            2 
  642000    1.1579436   -5.1593563    398.41808  0.051715742  0.052607077            4 
  643000    1.1591897   -5.2651862    397.90163  0.051568381  0.052599802            2 
  644000    1.1582961   -5.2193995    400.69577  0.051849867  0.052593074            2 
  645000    1.1435795   -5.2349774    401.43337  0.051864776  0.052586496            8 
  646000     1.154484   -5.2333133    401.47123  0.051789375  0.052579064            2 
  647000    1.1689193    -5.227567    401.18502  0.051672466  0.052571555            4 
  648000    1.1374471   -5.2316905    401.24537  0.051600485  0.052563676            2 
  649000    1.1382446   -5.2297031    401.50035  0.051553717  0.052555186            2 
  650000    1.1749464   -5.2371154    400.49923  0.051346055  0.052547487            8 
  651000    1.1495604   -5.2137094    402.05429  0.051466243  0.052538396            2 
  652000    1.1088919   -5.1959089    402.65662  0.051464292  0.052529997            3 
  653000    1.1416061   -5.2369748    402.66095  0.051386033  0.052521183            3 
  654000    1.1277735   -5.2365023    404.90708  0.051593665  0.052512606            1 
  655000    1.1391695   -5.2469769    403.91273  0.051388388  0.052503466            3 
  656000    1.1496967   -5.2187498    404.80518  0.051423423  0.052494323            1 
  657000     1.138481   -5.2073414    406.35294  0.051541469  0.052485025            1 
  658000    1.1462608   -5.2379905    406.21259  0.051445363  0.052476435            2 
  659000    1.1593508   -5.2095656    406.76251  0.051436837  0.052467377            2 
  660000    1.1244582   -5.2179348    407.56191  0.051459837  0.052458517            3 
  661000    1.1235081    -5.244025    407.46234  0.051369432  0.052449481            2 
  662000    1.1471653   -5.2309291     406.7221  0.051198653  0.052439699            3 
  663000    1.1228878   -5.2742348    406.22573  0.051059042  0.052429299            2 
  664000    1.1312951   -5.1828636    408.65096  0.051286517  0.052419648            1 
  665000    1.1457099   -5.2238313    410.03827  0.051383242   0.05240939            3 
  666000     1.147939   -5.2173094    411.05397  0.051433179  0.052400027            2 
  667000    1.1327339   -5.2331258    412.05569  0.051481221  0.052390811            4 
  668000    1.1317018   -5.2378748    410.62126  0.051225207  0.052381642            2 
  669000    1.1307723   -5.2697907    410.60004  0.051145993  0.052371521            3 
  670000    1.1382526    -5.236788    411.02355  0.051122331  0.052360615            2 
  671000     1.152497   -5.2176828     412.9925  0.051290673  0.052350212            3 
  672000     1.160045   -5.2375531    412.32323  0.051131353  0.052339718            3 
  673000    1.1465742   -5.1894373    414.84867  0.051368088  0.052328796            6 
  674000    1.1447257   -5.2256882    414.26388   0.05121957  0.052318231            4 
  675000    1.1353925   -5.1859844    414.47471  0.051169717  0.052308127            3 
  676000    1.1346097   -5.2531442    413.22756   0.05094028  0.052297381            2 
  677000    1.1716273   -5.2369258    415.65074  0.051163311  0.052285907            3 
  678000    1.1519347   -5.2458717    416.15528  0.051149862  0.052275016            3 
  679000    1.1402224   -5.1895508    416.91072  0.051167246  0.052264336            2 
  680000    1.1582505   -5.2244569    416.52759  0.051045048  0.052253799            6 
  681000    1.1323063   -5.2936069    416.21853  0.050932272  0.052242497            4 
  682000    1.1186747   -5.1965565    417.55716  0.051021158  0.052231142            2 
  683000    1.1309318   -5.2201174     417.1191  0.050893008  0.052219571            2 
  684000    1.1594233   -5.2527157    417.74576  0.050894951  0.052208667            2 
  685000    1.1361037   -5.2300742    418.39079  0.050899123   0.05219753            3 
  686000    1.1557565   -5.2279132    419.12013  0.050913523  0.052185632            2 
  687000    1.1582696   -5.2541432    420.01003  0.050947359  0.052173694            4 
  688000    1.1318703   -5.2320343    420.97794  0.050990545  0.052162182            2 
  689000    1.1245088   -5.2530123    419.57765  0.050747176  0.052150837            6 
  690000    1.1323342   -5.1923361    422.63084  0.051042372  0.052138827            2 
  691000    1.1332054   -5.2650013    420.12803   0.05066667  0.052126847            2 
  692000    1.1245568   -5.2186841    423.35075  0.050981545  0.052115186            1 
  693000    1.1350696    -5.242069    423.69042  0.050948824  0.052103981            2 
  694000    1.1470278   -5.2141567    423.36031  0.050835772   0.05209351            5 
  695000    1.1461393    -5.226235    425.19278  0.050982348  0.052082574            2 
  696000    1.1378181    -5.195695    425.82531  0.050984832  0.052071498            3 
  697000    1.1489976   -5.2168259    426.61758  0.051006406  0.052061493            8 
  698000    1.1560606   -5.2454329    425.88014  0.050845289  0.052051608            3 
  699000    1.1711204   -5.2380505    427.33709  0.050946244  0.052041268            1 
  700000    1.1270719   -5.1957583    428.72703  0.051038932  0.052031401            1 
  701000    1.1490268   -5.2500402    427.83875  0.050860526  0.052021016            3 
  702000     1.122035   -5.2421149    429.17206  0.050946351  0.052011297            3 
  703000     1.115208   -5.2214566    430.35463  0.051014063  0.052001733            4 
  704000    1.1388854   -5.2417452    429.13957  0.050797772  0.051991619            3 
  705000    1.1396383   -5.2257647    430.71881  0.050912389   0.05198139            5 
  706000    1.1319702   -5.2328327     432.2698  0.051023348  0.051970715            2 
  707000    1.1318759   -5.2343869    431.64878   0.05087798  0.051960085            3 
  708000    1.1195381   -5.2127453     432.4091   0.05089561  0.051949646            4 
  709000    1.1424016   -5.2701687    430.61198  0.050612597  0.051939085            3 
  710000    1.1464254   -5.2074144     432.1603   0.05072304  0.051928774            2 
  711000    1.1421357   -5.1972485    434.91527  0.050974598  0.051918667            4 
  712000    1.1410685   -5.2780193    433.70523  0.050761379  0.051908399            1 
  713000    1.1403556   -5.2330685    434.92934  0.050833256  0.051898393            2 
  714000    1.1629159   -5.2561212    436.41945  0.050935977  0.051888177            3 
  715000    1.1365885   -5.2055288    437.12876  0.050947408  0.051877631            3 
  716000    1.1227076   -5.2372493    435.49934  0.050686609  0.051867377            1 
  717000    1.1252691   -5.2188697    437.45475  0.050843184  0.051857166            4 
  718000    1.1386845   -5.2527447    437.08712  0.050729703    0.0518461            4 
  719000     1.127198   -5.2326398    439.41235  0.050928645  0.051836147            3 
  720000    1.1389833   -5.2588238    436.40674   0.05051004  0.051825717            2 
  721000    1.1389644   -5.2041042    440.53789  0.050917463  0.051815155            5 
  722000    1.1295924   -5.2251944    438.64054  0.050627948  0.051803915            4 
  723000     1.161442   -5.2646313    439.87819  0.050700575  0.051792655            2 
  724000    1.1564277   -5.2248609    441.06958  0.050767677  0.051781759            2 
  725000    1.1582182   -5.2360972    439.38196  0.050503674  0.051771086            2 
  726000    1.1390832    -5.246019    441.44645   0.05067108  0.051760129            2 
  727000    1.1260671   -5.2504416    441.50767  0.050608398  0.051749324            2 
  728000    1.1390494   -5.2184484    441.57643  0.050546753  0.051738444            6 
  729000    1.1305033   -5.2595189    441.95832   0.05052107  0.051727137            3 
  730000    1.1402706   -5.2276966    445.14164  0.050815256  0.051716152            2 
  731000    1.1227633   -5.2250605    444.46585  0.050668702  0.051705807            1 
  732000    1.1329933   -5.2559497    445.34249  0.050699281  0.051695969            2 
  733000    1.1168767   -5.2509883    443.92168  0.050468585  0.051686196            2 
  734000    1.1370818   -5.2640652    445.54135  0.050583713  0.051676221            5 
  735000    1.1372676   -5.2300204    446.47709  0.050620985  0.051666316            4 
  736000    1.1135365   -5.2425041    448.58751  0.050791159   0.05165683            2 
  737000    1.1265605   -5.2332066    449.53504  0.050829381  0.051647727            2 
  738000     1.130602   -5.2288054    449.35893  0.050740619  0.051638657            2 
  739000    1.1345688   -5.2609916     449.3759  0.050673873  0.051628947            2 
  740000    1.1498167   -5.2248129    449.84079  0.050657747  0.051620081            4 
  741000    1.1148811   -5.2576371     449.9744  0.050604408  0.051611169            3 
  742000     1.130556   -5.2242142    452.14912  0.050780449  0.051602286            1 
  743000    1.1648601   -5.2750357    452.98501  0.050805856  0.051592819            2 
  744000    1.1429561    -5.207317    453.43321   0.05078777  0.051583769            2 
  745000    1.1531334   -5.2711035    452.08897  0.050569236  0.051574155            2 
  746000    1.1422353   -5.2638785    452.52386  0.050550029  0.051564234            3 
  747000    1.1490923   -5.2327395    453.75673  0.050619894  0.051553704            4 
  748000    1.1096259    -5.262045    452.86816  0.050453226  0.051543907            2 
  749000     1.124912   -5.2541263    454.36617  0.050552533  0.051534513            3 
  750000    1.1575694    -5.278822    452.99253  0.050332504  0.051523851            2 
  751000    1.1418827   -5.2392572    454.88141  0.050475078  0.051513357            2 
  752000    1.1384783   -5.2121189    457.02002  0.050644949  0.051502983            3 
  753000    1.1351526   -5.2416423    456.29872  0.050497866  0.051493142            4 
  754000    1.1481647   -5.2292216    457.36447  0.050548681   0.05148341            1 
  755000    1.1467448   -5.2133572    459.65569  0.050734623  0.051473566            5 
  756000    1.1323223   -5.2508875    457.50888  0.050430873  0.051463561            2 
  757000    1.1559853   -5.2694713    458.90557  0.050518006  0.051454081            2 
  758000    1.1312964   -5.2373815    459.97662  0.050569109  0.051444747            2 
  759000    1.1110847   -5.2469185    461.37355  0.050655858  0.051435385            3 
  760000    1.1211512    -5.268262    460.03895  0.050442867  0.051425409            3 
  761000    1.1313028   -5.2529527    460.95423   0.05047681  0.051415503            4 
  762000    1.1383902   -5.2519344     462.8855  0.050621774  0.051405664            4 
  763000    1.1360942   -5.2188868    463.99623  0.050676739  0.051395608            5 
  764000    1.1353814   -5.2401603    462.31341  0.050426855   0.05138631            4 
  765000    1.1201685    -5.255575    462.56354  0.050388185  0.051376505            2 
  766000    1.1334088   -5.2391133    464.21883  0.050502484   0.05136767            4 
  767000    1.1535482   -5.2741014    464.14842  0.050428989  0.051358773            4 
  768000    1.1204377   -5.2479913    465.13461  0.050470335  0.051349104            2 
  769000    1.1267911   -5.2397801    465.81793  0.050478752  0.051340037            3 
  770000    1.1010675     -5.27202    466.14406  0.050448491  0.051330748            2 
  771000    1.1299438   -5.2635208    468.37074  0.050623729  0.051321189            4 
  772000    1.1341452   -5.2648109    467.44432  0.050458152  0.051311369            3 
  773000     1.139045   -5.2458902    467.98255  0.050450901  0.051301572            5 
  774000    1.1140533   -5.2237866    469.72894  0.050573745  0.051292119            3 
  775000    1.1150001   -5.2517821     467.7681  0.050297646  0.051283036            2 
  776000    1.1391039    -5.223471    469.02876  0.050368209  0.051273264            2 
  777000    1.1350412   -5.2487618    469.58947  0.050363521  0.051262893            6 
  778000    1.1465047   -5.2746984    468.58923  0.050191648  0.051252567            2 
  779000    1.1146517   -5.2601923    469.68822  0.050244782  0.051242597            2 
  780000    1.1626278    -5.245347     471.7212  0.050397564  0.051232995            2 
  781000    1.1617643   -5.2736035     471.7985  0.050341283  0.051223714            1 
  782000    1.1276999   -5.2606873    472.70005  0.050372981   0.05121429            3 
  783000    1.1210917   -5.2542363    474.38624  0.050488106   0.05120499            3 
  784000    1.1173062   -5.2189458    474.78248  0.050465825  0.051195639            3 
  785000    1.1080164   -5.2003693    475.02889  0.050427695   0.05118601            4 
  786000    1.1217343   -5.2727444    474.26415  0.050282459  0.051176691            4 
  787000    1.1308943   -5.2527026    475.55281   0.05035502  0.051167277            3 
  788000     1.144257   -5.2341793    474.74561  0.050205754  0.051157657            3 
  789000    1.1243753   -5.2142408    477.45073  0.050427833  0.051148507            1 
  790000    1.1273968   -5.2425414    477.45414   0.05036436  0.051139798            1 
  791000    1.1303425   -5.2698493    476.82613  0.050234526  0.051130172            2 
  792000    1.1320092   -5.2717087    478.22027  0.050317789  0.051120875            2 
  793000    1.1099891   -5.2913957    477.38543  0.050166606  0.051111598            3 
  794000    1.1294207   -5.2722332    477.94225  0.050161865  0.051102261            1 
  795000      1.11688   -5.2468309    478.86206  0.050195184  0.051092854            2 
  796000    1.1490632   -5.2916204    477.19082  0.049957163  0.051083821            3 
  797000    1.1315855   -5.3089249     477.0368  0.049878378  0.051073813            2 
  798000    1.1142261   -5.2659279    479.63352  0.050087043  0.051064086            3 
  799000    1.1199415   -5.2686761    481.94878   0.05026583  0.051054112            5 
  800000    1.1109076   -5.2480127    482.23933  0.050233264  0.051044383            2 
  801000    1.1235294   -5.2809445     479.9693  0.049934384  0.051034802            4 
  802000    1.1168702   -5.2437224    483.57247  0.050246516  0.051025173            2 
  803000    1.1038378   -5.3128315     480.4847  0.049863501  0.051014576            1 
  804000     1.140286   -5.2704545    482.21122  0.049980433   0.05100386            4 
  805000    1.1223463   -5.2805173    482.92925  0.049992676    0.0509932            2 
  806000    1.0983591   -5.2419489    483.16554  0.049955081  0.050982607            5 
  807000    1.1093554   -5.2701497    482.47407  0.049821775  0.050971983            3 
  808000    1.1052105   -5.2492284    486.16378  0.050140654  0.050961421            2 
  809000    1.1011447   -5.2540504    483.73669  0.049828666  0.050950787            3 
  810000    1.1248494   -5.2589172    485.70151  0.049969291  0.050939932            6 
  811000    1.1401783   -5.2467699    486.96958  0.050037976  0.050929526            2 
  812000    1.0920678   -5.2535592    486.28209  0.049905797  0.050919075            2 
  813000    1.1117141   -5.2856481    488.49296  0.050071029  0.050909299            4 
  814000    1.1347244   -5.2885881    489.01638  0.050063102  0.050898972            6 
  815000    1.0986604    -5.268357    488.01327  0.049899107  0.050889181            3 
  816000    1.1105087   -5.2687795    489.61931  0.050001972  0.050878795            2 
  817000     1.120061   -5.2904104    489.56043  0.049934765  0.050868773            2 
  818000    1.1338746   -5.2722826    489.80015  0.049898141  0.050858717            4 
  819000     1.123945   -5.2519612    492.85979  0.050148534  0.050849479            4 
  820000    1.1112779   -5.2942156    491.85976  0.049985748  0.050840062            4 
  821000    1.1050322   -5.2714315    492.56478  0.049996425  0.050830806            4 
  822000    1.1164236   -5.2755954    492.30372  0.049909136  0.050821017            4 
  823000    1.1047203   -5.2796992     494.0609  0.050026418  0.050811648            4 
  824000    1.1271918   -5.2922368    494.33987  0.049993919  0.050801994            4 
  825000    1.1112237   -5.2556815    494.34767  0.049934108   0.05079248            1 
  826000    1.1437873   -5.3158773    492.96839  0.049734503  0.050782833            2 
  827000    1.1005321   -5.2627006    496.44413    0.0500246  0.050773279            2 
  828000    1.1141669   -5.2931349    494.92515  0.049811307   0.05076386            2 
  829000    1.1162379   -5.2849532    497.37174   0.04999716  0.050754589            3 
  830000    1.1193454   -5.2624188    499.31748  0.050132277  0.050745289            2 
  831000    1.1388201   -5.2416615    498.44839  0.049984796  0.050736859            3 
  832000    1.1276508   -5.2711273    498.07634  0.049887454  0.050728244            2 
  833000    1.0965674   -5.2900657    498.74577  0.049894535  0.050719147            3 
  834000    1.1347149   -5.2886312    501.14495  0.050074435  0.050710282            4 
  835000    1.1341891   -5.2762486    500.44882  0.049944992  0.050701167            4 
  836000    1.1257822   -5.2744601    501.72709  0.050012669  0.050691953            2 
  837000     1.122448   -5.2680263    500.16966  0.049797855  0.050683092            4 
  838000    1.1420663     -5.28835    503.79641  0.050099086  0.050674298            3 
  839000    1.1150169    -5.229525    505.42428   0.05020106  0.050665508            2 
  840000    1.1185684   -5.2645088    503.45792  0.049946222   0.05065654            3 
  841000    1.1213771    -5.299549    504.67857  0.050007786  0.050647497            3 
  842000    1.1176904   -5.2781549    502.87088  0.049769486  0.050637951            2 
  843000    1.1397571   -5.2736971    506.77481  0.050096364   0.05062892            3 
  844000    1.1213745   -5.2478818    504.74157  0.049836252  0.050619508            2 
  845000    1.1227755   -5.3091468    504.32019  0.049735719  0.050610006            3 
  846000    1.1145805   -5.2889707    505.98329   0.04984075  0.050600195            1 
  847000      1.10546   -5.2745084    506.99676  0.049881618  0.050590978            4 
  848000    1.1145425   -5.2706204    506.55865  0.049779741  0.050581282            3 
  849000    1.1090653   -5.2793348    507.67043  0.049830235  0.050571519            5 
  850000    1.1239239   -5.3473964    505.99157  0.049607016  0.050561837            2 
  851000    1.1175512   -5.2893973    507.70287  0.049716302  0.050552493            2 
  852000    1.1205961   -5.2930156    507.64762  0.049652545  0.050543591            3 
  853000     1.135559   -5.2657883    510.17586  0.049841331  0.050533872            2 
  854000    1.1196741   -5.2667522    510.53632  0.049818142  0.050524523            4 
  855000    1.0953627   -5.3162008    509.70514  0.049678864   0.05051509            2 
  856000    1.1213331    -5.273182    511.98542  0.049842817  0.050505516            2 
  857000    1.0810598   -5.2857012    511.34736  0.049722613  0.050496226            4 
  858000    1.1277464   -5.2693398    512.66216  0.049792362  0.050487328            3 
  859000    1.1103431   -5.2807151    514.89562  0.049951069  0.050479048            2 
  860000    1.1045264   -5.3055999    512.68062  0.049678355  0.050470544            3 
  861000     1.115156   -5.3002558    514.84339  0.049829984  0.050461783            7 
  862000    1.1149197   -5.3315697    513.41625  0.049634208  0.050452137            2 
  863000    1.1391459   -5.2885901    514.35594  0.049667433  0.050443016            2 
  864000    1.1089484   -5.3250678    516.13544  0.049781582  0.050433394            4 
  865000    1.1273982   -5.2884905    514.04164  0.049522316  0.050424351            2 
  866000    1.1073436   -5.2898447    514.61876  0.049520665   0.05041531            4 
  867000    1.1199772   -5.3042118     517.8549  0.049774596  0.050405993            4 
  868000    1.1215355   -5.2673137    518.81581  0.049809505  0.050396583            2 
  869000    1.1438639   -5.3475612    513.96166  0.049286696  0.050386914            5 
  870000    1.1165363   -5.3003053    518.43046   0.04965809  0.050377225            3 
  871000     1.119579    -5.279615    518.52029  0.049609672  0.050367927            1 
  872000     1.079728   -5.3292029    515.90396  0.049302748  0.050358185            2 
  873000    1.1128444   -5.2665497    522.53254  0.049879013   0.05034879            2 
  874000    1.1237218    -5.278527    521.11726  0.049687001  0.050339159            2 
  875000    1.1000284    -5.302272    519.36301  0.049463144  0.050330004            4 
  876000    1.1206575   -5.3091304    520.77669  0.049541161  0.050319967            2 
  877000    1.1001861   -5.2898901      519.457  0.049359274  0.050310086            2 
  878000    1.1039366   -5.2498221    523.55982  0.049692466  0.050300382            4 
  879000    1.0938805   -5.2978736    522.14471  0.049501774  0.050290498            4 
  880000    1.1376181   -5.3231781    522.16198  0.049447157  0.050281031            4 
  881000    1.1159836   -5.2958058    522.55714  0.049428409  0.050271233            5 
  882000    1.1027331   -5.3328829    523.46882  0.049458505  0.050261168            5 
  883000     1.116006   -5.2945135    523.98059  0.049450792  0.050251449            4 
  884000    1.1129414   -5.2730141    523.67165  0.049365728  0.050241998            3 
  885000    1.1310172   -5.3061205    525.73844  0.049504562  0.050232004            2 
  886000    1.1140705   -5.3142654    523.57756  0.049245444  0.050221782            2 
  887000    1.1145708   -5.3034042    526.60142  0.049474016  0.050211643            1 
  888000    1.1246975   -5.2550041    528.33235  0.049580739  0.050202353            2 
  889000    1.1021133   -5.3167053    527.27591  0.049425938  0.050193587            3 
  890000    1.1128987    -5.310892    526.38834  0.049287298  0.050183968            2 
  891000    1.0988206   -5.2706003    527.85929  0.049369556  0.050174343            2 
  892000    1.0899109   -5.2860162    528.38964  0.049363756   0.05016437            2 
  893000    1.1066883   -5.2706472    528.57742     0.049326  0.050154405            4 
  894000    1.1132715    -5.284951    530.16649  0.049418949  0.050144456            3 
  895000    1.1095799   -5.3271815     528.9937  0.049254534  0.050134191            5 
  896000    1.0998128   -5.3003675    530.67549  0.049355979  0.050123658            3 
  897000    1.1257683   -5.2764414    531.16222  0.049346174  0.050113392            3 
  898000    1.0701169   -5.3014243     529.9823  0.049181728  0.050103191            2 
  899000    1.1243164   -5.3178966    530.38531  0.049164378   0.05009262            5 
  900000     1.117305    -5.323156    529.59358  0.049036442  0.050082229            4 
  901000    1.1155095   -5.2538066    531.90809  0.049196086  0.050071471            2 
  902000    1.0763571   -5.3260672    532.73381  0.049217832  0.050061065            2 
  903000     1.125983   -5.2754742    534.82587  0.049356392  0.050051089            1 
  904000    1.1384889   -5.2993112    533.53147  0.049182473  0.050041386            3 
  905000      1.11548   -5.3366958    533.25779  0.049102927  0.050031143            2 
  906000    1.0970895   -5.3024675    533.90646  0.049108394  0.050021057            3 
  907000     1.098506   -5.2783994    535.61046   0.04921081  0.050011877            3 
  908000    1.0983121   -5.3131331    536.33349  0.049222971   0.05000193            3 
  909000    1.1147598   -5.2774139     536.8113  0.049212624  0.049991442            4 
  910000     1.088354   -5.3030304    537.09901  0.049184891  0.049981579            9 
  911000    1.1262947   -5.2683641    537.87945  0.049202292  0.049971602            2 
  912000    1.1159279   -5.3634878    537.50623  0.049114238  0.049961846            5 
  913000    1.1065207   -5.3320051    538.97405  0.049194419  0.049951718            2 
  914000    1.0787977   -5.2913665    539.26585    0.0491672    0.0499417            2 
  915000      1.08923   -5.2710767      540.332  0.049210565  0.049931347            3 
  916000    1.1264336   -5.3049216    539.99146  0.049125861  0.049921114            2 
  917000    1.1045793   -5.2994991    540.07512  0.049079891  0.049910709            1 
  918000    1.1249636   -5.2983076    539.39527  0.048964712  0.049901075            2 
  919000     1.102214   -5.2958499    542.77236   0.04921766  0.049890813            4 
  920000    1.0973211   -5.3161537    540.61062  0.048968354  0.049880494            3 
  921000    1.1228804   -5.2901534    543.90774  0.049213513  0.049870098            2 
  922000    1.1009932   -5.3025701    541.96093  0.048984177  0.049859933            2 
  923000    1.1078097   -5.3339147    542.69635  0.048997504  0.049849822            5 
  924000    1.0926056   -5.3198499    543.03146  0.048974699  0.049839183            3 
  925000    1.0859481   -5.3207444     542.9314  0.048912738  0.049828709            3 
  926000    1.1075729   -5.3246277    545.91125  0.049128082  0.049818662            5 
  927000    1.0986916   -5.3084504      545.136  0.049005394   0.04980828            3 
  928000    1.1027542   -5.2842417    546.88014  0.049109208  0.049798427            1 
  929000    1.1240181   -5.3133519    546.10628  0.048986928  0.049788273            4 
  930000    1.1026337   -5.2784004    545.86228  0.048912391  0.049778009            1 
  931000    1.1115194   -5.2997212    546.72318  0.048936912  0.049767621            1 
  932000    1.1303498   -5.2935626    548.52429  0.049045448  0.049757168            2 
  933000    1.0904021   -5.3037773    546.97237  0.048854267  0.049745768            3 
  934000    1.1088366   -5.3010921    546.25242  0.048737725   0.04973465            2 
  935000    1.1110498   -5.3180892    546.33713  0.048693148  0.049722741            2 
  936000    1.1077424   -5.2940658    546.10082  0.048620087  0.049711226            3 
  937000    1.1252824   -5.3274061    545.89472  0.048549869  0.049699384            8 
  938000    1.0940834   -5.2746941    549.12605  0.048785186  0.049687765            2 
  939000    1.1080675   -5.3159082    545.51381  0.048412657  0.049675294            4 
  940000    1.0986025    -5.295234    548.60981  0.048635622  0.049662985            3 
  941000    1.1052547   -5.3014308    548.65522  0.048587958  0.049650974            2 
  942000    1.0995786   -5.3077557    549.97745  0.048653349  0.049638622            3 
  943000    1.0943178   -5.3067609    550.24941  0.048625788  0.049626804            2 
  944000    1.1012607   -5.2906432    550.49762  0.048596188  0.049614697            1 
  945000    1.0896587   -5.3137505    551.62276  0.048643983  0.049602889            3 
  946000    1.0989703    -5.332089    549.61135  0.048415376  0.049590943            1 
  947000    1.0746258   -5.2921063    548.71034  0.048284965  0.049578726            2 
  948000    1.1022108   -5.3420322    549.45351  0.048299359  0.049566541            2 
  949000    1.0926645   -5.2821008    552.63118  0.048527501  0.049554144            2 
  950000    1.0974236   -5.3052653    554.66963  0.048655231  0.049542012            3 
  951000    1.0900284   -5.2914133    553.26577  0.048481053  0.049530334            2 
  952000    1.1165703   -5.3297897    552.59944  0.048371799  0.049517775            7 
  953000    1.0954609   -5.3370029    553.65181  0.048413065  0.049505564            2 
  954000    1.1119193   -5.2994357    554.12737  0.048403858  0.049493545            5 
  955000    1.1185928   -5.3353809    553.99814  0.048341897  0.049481616            3 
  956000    1.0952396   -5.3057563    555.67503  0.048437503  0.049469519            2 
  957000    1.1100496   -5.3163774    556.06667  0.048420992   0.04945769            6 
  958000    1.1021922   -5.3328771    554.74369  0.048255366  0.049445749            3 
  959000    1.1017235   -5.2810461    559.18134  0.048590662  0.049434078            2 
  960000    1.1232621   -5.3070895    558.35665  0.048468459  0.049422453            2 
  961000    1.1230913   -5.3067808    557.36236  0.048331803  0.049410515            5 
  962000    1.1138488   -5.3185114    558.36393  0.048368324  0.049398271            5 
  963000    1.0974234   -5.3490854    557.22232  0.048219308  0.049385982            3 
  964000    1.0913751   -5.3264031    558.91078  0.048315247   0.04937374            3 
  965000    1.0936948   -5.3101281    558.79518  0.048255197  0.049361335            1 
  966000    1.1002012   -5.3282968    558.43085  0.048173814  0.049348445            6 
  967000    1.0828189   -5.3201151     557.7381  0.048064297  0.049335717            2 
  968000    1.0884141   -5.3363431    558.59564  0.048088468  0.049323091            3 
  969000     1.098224   -5.3079673    560.93747  0.048240237   0.04931099            3 
  970000    1.0953741   -5.3553333    561.49038  0.048238005  0.049298775            2 
  971000    1.0933607   -5.2982418    561.58429  0.048196386  0.049286219            4 
  972000    1.0885199   -5.3152507    563.83594  0.048339844  0.049273963            3 
  973000    1.1081833   -5.2474438    563.52883   0.04826386  0.049261764            3 
  974000    1.1109042   -5.3216955    562.48523  0.048125019  0.049249393            4 
  975000    1.1063331   -5.3400194    561.61224  0.048001046  0.049236655            4 
  976000    1.0744743   -5.3085504    564.49527  0.048198025   0.04922431            5 
  977000    1.0771432   -5.3645638    562.33353  0.047964306  0.049211636            3 
  978000    1.0902804   -5.3346504    563.97514  0.048055142  0.049198773            2 
  979000    1.1194349    -5.351971    561.27945  0.047776596  0.049185849            2 
  980000    1.1074112   -5.3115996    564.97494  0.048042087   0.04917311            2 
  981000    1.1115594   -5.3496886      564.535  0.047955742  0.049160175            5 
  982000    1.1095116   -5.3345455    565.73627  0.048008848  0.049147479            4 
  983000    1.1118151   -5.3202928    565.36233  0.047928309  0.049134773            3 
  984000    1.0983445   -5.3420721    566.52048  0.047977683  0.049122123            2 
  985000    1.1039275   -5.3219288    568.95954  0.048135325  0.049109743            3 
  986000    1.0926954   -5.3070732     568.2102  0.048023174  0.049097116            1 
  987000    1.0869948   -5.3324584     567.3961  0.047905784  0.049084275            3 
  988000    1.0689857   -5.3432462    566.89152  0.047814737  0.049070874            4 
  989000    1.1073711   -5.3265703     567.3486  0.047804904  0.049058037            4 
  990000      1.09129   -5.3386508     567.9548  0.047807643  0.049045077            4 
  991000    1.0818118   -5.2964048    569.90479  0.047923376     0.049032            3 
  992000    1.0796761   -5.2826881    570.89064  0.047957883  0.049019221            6 
  993000    1.0863001   -5.3171424    571.42236   0.04795421  0.049006471            2 
  994000     1.070602   -5.3627925    571.25331  0.047891793  0.048993015            3 
  995000    1.0966588   -5.3765433    570.82412  0.047807715  0.048980106            5 
  996000    1.0863751   -5.3519679    573.33516  0.047969809  0.048967608            2 
  997000    1.1139743   -5.3547112     569.1019  0.047567862  0.048954502            4 
  998000     1.102719   -5.3315546    572.22932   0.04778134  0.048941861            2 
  999000    1.0939208   -5.3143683    572.67794  0.047770932  0.048928891            2 
 1000000    1.1092969    -5.333022    573.80784   0.04781732  0.048915651            3 
 1001000    1.1001063   -5.3466608    572.65767  0.047673798  0.048902435            4 
 1002000    1.0932035   -5.3224428    573.22163  0.047673123  0.048889437            3 
 1003000     1.087914   -5.3701412    573.34391  0.047635752  0.048875951            3 
 1004000    1.1021997   -5.3446919    573.31496  0.047585903  0.048862811            1 
 1005000    1.0784133   -5.3332007    576.55795  0.047807459  0.048849737            5 
 1006000    1.1023443   -5.3237909     576.5918   0.04776274  0.048836863            5 
 1007000    1.0533408   -5.3415695     576.9393  0.047744067  0.048824266            3 
 1008000    1.0876715   -5.3475761    576.53772  0.047663502  0.048811573            2 
 1009000    1.0813595   -5.3344437     577.7031  0.047712512  0.048798431            4 
 1010000    1.0613484   -5.3905353    576.21605  0.047542578  0.048785202            4 
 1011000    1.0558293   -5.3576735    580.20894  0.047824673  0.048771751            4 
 1012000    1.0825846   -5.3236435    578.31193  0.047621206  0.048758649            6 
 1013000    1.0829316   -5.3036187    579.93204  0.047707472  0.048745664            3 
 1014000     1.089593   -5.2834567    581.15232   0.04776071   0.04873276            3 
 1015000    1.0852214    -5.359669    577.61145  0.047422943  0.048719888            2 
 1016000    1.0885604   -5.3457409    579.72955  0.047549995  0.048706957            5 
 1017000    1.1049041   -5.3266284     580.6957  0.047582407  0.048694026            6 
 1018000    1.1395522   -5.3209897    580.92859   0.04755473  0.048681399            3 
 1019000    1.1009283   -5.3060726    583.38161   0.04770867  0.048669083            2 
 1020000    1.0819656   -5.3721641    581.93327  0.047543568  0.048656323            2 
 1021000    1.1048983   -5.3712108    581.51659  0.047462993  0.048643388            2 
 1022000    1.0761636    -5.334474    582.22157  0.047474036  0.048630842            4 
 1023000    1.0700397   -5.3469837    583.71399    0.0475492  0.048617964            4 
 1024000    1.0696531   -5.3224634    583.15739   0.04745747  0.048605259            4 
 1025000    1.0884182   -5.3634066    581.97271  0.047314854  0.048592416            2 
 1026000    1.0757439   -5.3029079    584.71603  0.047491555  0.048578963            2 
 1027000    1.0857678   -5.2957596    584.51363  0.047428889   0.04856612            4 
 1028000    1.1043076   -5.3625127    583.58458   0.04730744  0.048553087            1 
 1029000    1.1052539    -5.367489    586.66564  0.047510985  0.048540057            3 
 1030000     1.067033    -5.329285    588.96497  0.047650887  0.048527409            9 
 1031000     1.091884   -5.3575203    585.75132  0.047344918  0.048514815            4 
 1032000    1.0894066   -5.3349461    588.84759  0.047549062  0.048502677            4 
 1033000    1.0878586   -5.3579188    586.72158  0.047331524  0.048489964            2 
 1034000     1.095774   -5.3591323    587.99053  0.047388018  0.048477214            2 
 1035000     1.077662   -5.3355529    588.02507  0.047345013  0.048464761            3 
 1036000    1.0997472   -5.3429208    587.86013  0.047286047   0.04845188            5 
 1037000    1.0822598   -5.3601791    587.46513  0.047208706  0.048438916            4 
 1038000     1.090376    -5.360842    590.04191  0.047370096  0.048426145            5 
 1039000    1.0893326   -5.3640473    593.37462  0.047591805  0.048414113            2 
 1040000     1.091658   -5.3071425    592.25701  0.047456491  0.048402067            3 
 1041000    1.0912831   -5.3425153    593.94872  0.047546327   0.04839044            2 
 1042000    1.0995255   -5.3090287    593.51303  0.047465854  0.048379166            2 
 1043000    1.0639104   -5.3407808    594.67159  0.047512911  0.048367958            3 
 1044000    1.0870399   -5.3413707    594.02555  0.047415833  0.048356418            5 
 1045000    1.0846307   -5.3522708    592.17061  0.047222536  0.048344328            2 
 1046000    1.0612882   -5.3531215    595.70299   0.04745881  0.048332586            3 
 1047000     1.095617   -5.3245571    597.82987  0.047582766  0.048321348            4 
 1048000    1.1062827   -5.3132734    599.00874  0.047631102   0.04831018            5 
 1049000    1.0776267   -5.3408169    596.25117  0.047366633  0.048298537            2 
 1050000    1.0938992   -5.3706668    598.78384  0.047522527  0.048287611            2 
 1051000     1.092699   -5.3723099    599.52217  0.047535852  0.048276344            2 
 1052000    1.0795397   -5.3744943    599.06576  0.047454512  0.048264962            2 
 1053000    1.0659788   -5.3716089    598.49069  0.047363936  0.048253741            4 
 1054000    1.0775203   -5.3335437    600.74789  0.047497461  0.048242289            3 
 1055000    1.0895342   -5.3397047    601.06803  0.047477728  0.048231611            3 
 1056000    1.0588195   -5.3777578    598.82133  0.047255471   0.04821999            4 
 1057000    1.0705668   -5.3201724    603.35972  0.047568568   0.04820881            3 
 1058000     1.088656   -5.3480517    601.42717   0.04737139  0.048197828            6 
 1059000    1.0784991   -5.3607966    601.43209  0.047327045  0.048187125            5 
 1060000    1.0888107   -5.3677943     601.8018  0.047311462  0.048176266            8 
 1061000    1.0899184   -5.3623127    601.86073  0.047271499  0.048165399            8 
 1062000    1.0946281   -5.3734119      604.896   0.04746516   0.04815432            3 
 1063000    1.0555255   -5.3609201     601.5436  0.047157698  0.048142846            5 
 1064000    1.0634031   -5.3314119    603.25475  0.047247396   0.04813142            4 
 1065000    1.0780033   -5.3529863    603.81266  0.047246687  0.048119923            5 
 1066000    1.0694605   -5.3921746    605.53499  0.047337007  0.048108423            4 
 1067000    1.0920719   -5.3602319    606.25131  0.047348587  0.048096903            2 
 1068000    1.0799089   -5.3759077    605.60227  0.047253611  0.048085071            2 
 1069000    1.0813384   -5.3518159    605.30665  0.047186362  0.048073526            6 
 1070000    1.0773485   -5.3453103    606.65585   0.04724734  0.048061576            2 
 1071000    1.0753579   -5.3400774    606.50367  0.047191384  0.048049743            2 
 1072000    1.1062351   -5.3422818    605.60545  0.047077538  0.048037818            3 
 1073000    1.0877123   -5.3592343     606.4282  0.047097561   0.04802607            5 
 1074000    1.0687587   -5.3513848    606.84177  0.047085798  0.048014166            6 
 1075000    1.0873844   -5.3765088    607.89058  0.047123301  0.048002252            4 
 1076000    1.0751603   -5.3549772     609.1729  0.047178818  0.047990389            4 
 1077000     1.080146     -5.36249    607.96142  0.047041274  0.047979172            2 
 1078000    1.0907285   -5.3976047    609.48454  0.047115378  0.047967694            3 
 1079000    1.0712401   -5.3392915    610.52781  0.047152287  0.047956157            4 
 1080000    1.0727818   -5.3487408    610.96211  0.047142138  0.047944283            5 
 1081000    1.0829301   -5.3576931    610.32389  0.047049329  0.047932916            4 
 1082000    1.0945579   -5.3034353    612.50209  0.047173605  0.047921336            1 
 1083000    1.1140276   -5.3183053    611.90356  0.047083992   0.04790953            6 
 1084000    1.0906413    -5.334067    612.68228  0.047100422  0.047897938            4 
 1085000    1.0824282   -5.3716799    611.64681  0.046977482  0.047886298            2 
 1086000    1.0674238   -5.3568629    612.62936   0.04700962  0.047874592            5 
 1087000    1.0815142   -5.4088791    611.53929  0.046882803  0.047862663            4 
 1088000    1.0744591    -5.366201    612.46038  0.046910262   0.04785074            3 
 1089000    1.0995169    -5.397466    612.48157  0.046868807  0.047839006            3 
 1090000    1.0981847   -5.3513386    614.23546  0.046959898  0.047827243            2 
 1091000    1.0333783   -5.3800159     614.8142   0.04696106  0.047815374            2 
 1092000    1.0809309   -5.3397358    616.14749  0.047019803  0.047803402            2 
 1093000    1.0794718   -5.3672638    616.53132  0.047006047  0.047791397            2 
 1094000    1.0815305   -5.3634502      615.445  0.046880332  0.047779629            2 
 1095000    1.1050355   -5.3802153    616.47468  0.046915881  0.047768074           11 
 1096000    1.0584937   -5.3144249    618.45646  0.047023758  0.047756306            3 
 1097000    1.0765827   -5.3379188     618.8809  0.047013134  0.047745263            2 
 1098000    1.0711748   -5.3747475    617.58734  0.046872142   0.04773347            3 
 1099000    1.0666389   -5.3625146    618.73011  0.046916145  0.047721847            2 
 1100000    1.0786717   -5.3733157    619.95713  0.046966449  0.047710466            3 
 1101000    1.0873149   -5.3838076    619.03019  0.046853632   0.04769869            8 
 1102000    1.0800494   -5.3479389    620.75686  0.046941686  0.047687373            2 
 1103000    1.0709282   -5.3723907    619.35504  0.046793218  0.047675924            4 
 1104000     1.100643    -5.382054    622.13492  0.046960667  0.047664714            6 
 1105000    1.0699709   -5.3708598    623.07592  0.046989135  0.047653555            2 
 1106000    1.0854564   -5.3482467    624.47075  0.047051744  0.047642443            5 
 1107000    1.0615328   -5.3656128    623.10192  0.046906197  0.047631239            4 
 1108000    1.0770022   -5.3467114    625.29704  0.047028959  0.047620141            5 
 1109000    1.0754364   -5.3687367    623.73861  0.046869448  0.047608983            3 
 1110000    1.0615724   -5.3923347    623.74259  0.046827521  0.047597411            3 
 1111000     1.068348   -5.3491037     626.6548   0.04700381  0.047586039            2 
 1112000    1.0813408   -5.3567891    624.99894   0.04683745  0.047574664            3 
 1113000    1.0659665   -5.3405949     626.1733  0.046883296  0.047563971            4 
 1114000    1.1049671   -5.4026137    624.15016  0.046689868  0.047552967            2 
 1115000    1.0709178   -5.3594362    628.38099    0.0469642   0.04754215            4 
 1116000    1.0618578   -5.3650588    628.39593  0.046923233  0.047531125            3 
 1117000     1.054638   -5.3585015    628.94901  0.046922487  0.047520814            2 
 1118000    1.0719763   -5.3328933    632.13402   0.04711792   0.04751064            3 
 1119000    1.0607655   -5.3859275    630.74028  0.046972019   0.04750027            3 
 1120000    1.0757143   -5.3841944    630.89163  0.046941342  0.047489905            3 
 1121000    1.0738144   -5.3784216    630.19202  0.046847459  0.047479381            3 
 1122000    1.0785671   -5.4075546    631.40659  0.046895914  0.047468749            3 
 1123000    1.0760966   -5.3648334     632.2035   0.04691329  0.047458234            3 
 1124000    1.0610029   -5.3936558    632.30015  0.046878718  0.047447942            2 
 1125000    1.0747306   -5.3685988    631.45755  0.046774633  0.047437466            3 
 1126000    1.0979845   -5.4146544    633.03502  0.046849839  0.047427074            2 
 1127000    1.0571036    -5.405944    631.98849  0.046730885  0.047416869            2 
 1128000    1.0674182   -5.3393393    634.32962  0.046862413  0.047406508            5 
 1129000    1.0662979   -5.3882999    635.09068   0.04687708  0.047396169            2 
 1130000    1.0820999    -5.347214     638.2375  0.047067662  0.047386311            4 
 1131000     1.077698   -5.3786316    635.05942  0.046791882  0.047376436            4 
 1132000    1.0568089   -5.3704879    635.52102  0.046784528  0.047365907            2 
 1133000    1.0546134   -5.3472272    636.71782  0.046831261  0.047355495            3 
 1134000    1.0854122   -5.4064864     634.6387  0.046637177  0.047344787            3 
 1135000    1.0746045   -5.3636116    637.18596   0.04678311  0.047334046            3 
 1136000    1.0774368   -5.3519665    638.57571  0.046843876  0.047323463            6 
 1137000    1.0652434   -5.4175587    635.13858   0.04655076  0.047312854            3 
 1138000    1.0682064   -5.3758078    635.96071  0.046570058  0.047301892            2 
 1139000    1.0556234   -5.4441578    634.86791  0.046449218  0.047291009            3 
 1140000    1.0780563   -5.3664106    636.21085  0.046506641  0.047279605            4 
 1141000    1.0539745   -5.3805956    635.15049  0.046388437  0.047268422            5 
 1142000    1.0747163   -5.3814197    637.52558  0.046521131  0.047257347            5 
 1143000    1.0316071   -5.3731127    639.64596  0.046635022  0.047246371            3 
 1144000    1.1055159   -5.3695792    637.54347  0.046441103  0.047235617            3 
 1145000    1.0681864   -5.4100828    637.71654   0.04641314  0.047224711            2 
 1146000    1.0523449   -5.3661127     639.6703   0.04651471  0.047213529            5 
 1147000    1.0577377   -5.3737266    640.24267  0.046515742   0.04720242            3 
 1148000    1.0305813   -5.3762676    639.27438  0.046404935  0.047191215            2 
 1149000    1.0762393   -5.3955767    642.77512  0.046618445  0.047179804            1 
 1150000    1.0583689   -5.3501546    640.93345  0.046444453  0.047168814            3 
 1151000    1.0688539   -5.3593251    641.78697  0.046465897  0.047157948            2 
 1152000    1.0368331   -5.3863778    642.76474  0.046496292  0.047146736            3 
 1153000    1.0614343   -5.3536324    642.26193  0.046419625  0.047135654            1 
 1154000    1.0693944   -5.4095319    641.43286   0.04631953  0.047124534            4 
 1155000     1.056405   -5.4118427    640.67757  0.046224933  0.047113171            6 
 1156000    1.0827227   -5.3843143     643.4364  0.046383823  0.047102075            2 
 1157000    1.0294293   -5.4099232    645.56228  0.046496851  0.047090658            3 
 1158000    1.0795432   -5.3741594    645.01872  0.046417582  0.047079488            2 
 1159000    1.0796756   -5.3728859    644.74905  0.046358143  0.047068507            4 
 1160000    1.0529758   -5.3881224    645.37446  0.046363108  0.047057636            3 
 1161000    1.0629026   -5.3780457     646.3808  0.046395406  0.047046874            2 
 1162000    1.0804684   -5.3686278    645.13442  0.046266095  0.047035694            3 
 1163000    1.0543082    -5.374278    647.09369  0.046366702  0.047024716            7 
 1164000    1.0751765   -5.3755129    648.43309  0.046422758  0.047013856            2 
 1165000    1.0528866   -5.3703843    647.92894  0.046346849  0.047002849            4 
 1166000    1.0679791   -5.3659076     649.8487  0.046444304  0.046992002           10 
 1167000    1.0317905   -5.4051584    647.98842  0.046271667   0.04698124            3 
 1168000    1.0696851   -5.3868404    649.62189  0.046348594  0.046970097            7 
 1169000    1.0531579   -5.4062965    650.97704  0.046405549  0.046959537            2 
 1170000    1.0426965   -5.3496492    651.80689  0.046424992   0.04694862            3 
 1171000    1.0643114   -5.4040851    649.00164  0.046185713  0.046937915            6 
 1172000    1.0677698    -5.375852    651.99388  0.046359064  0.046927412            3 
 1173000    1.0368985   -5.3659021    651.81161  0.046306594  0.046916944            4 
 1174000    1.0666091    -5.394737    651.33848  0.046233566  0.046906463            5 
 1175000    1.0717573   -5.4601756    650.58992  0.046141129  0.046895723            4 
 1176000     1.070174   -5.3848694    653.48462  0.046307017  0.046884671            5 
 1177000    1.0522614   -5.4221433    651.61705  0.046135447  0.046873526            3 
 1178000    1.0590047   -5.3529584    655.07723   0.04634106  0.046863133            4 
 1179000    1.0620792   -5.3935378    654.00385  0.046225887  0.046852486            4 
 1180000    1.0466437   -5.3943302    656.27951  0.046347423  0.046841557            2 
 1181000    1.0794066   -5.3734532     655.0341  0.046220301  0.046830835            2 
 1182000    1.0634947   -5.3634884    656.51698  0.046285743  0.046820324            4 
 1183000    1.0638194   -5.3806301     657.2464     0.046298  0.046810009            4 
 1184000    1.0428798   -5.3915295     656.6469  0.046216702  0.046799636            5 
 1185000    1.0542875   -5.4052396    654.76765  0.046045545  0.046789055            4 
 1186000    1.0465169   -5.3595003    657.86433  0.046224307  0.046778652            4 
 1187000    1.0577789   -5.3959819    657.61718  0.046168013  0.046768273            2 
 1188000    1.0619005   -5.3799244    659.14165  0.046236087  0.046757962            4 
 1189000    1.0564741   -5.4219104    659.51445  0.046223328   0.04674748            3 
 1190000    1.0678619   -5.3934492    658.45709   0.04611044  0.046736777            4 
 1191000    1.0484139   -5.3772254    661.73557  0.046301118  0.046726419            4 
 1192000    1.0732969    -5.414047    660.90095  0.046203926  0.046715752            3 
 1193000    1.0707191    -5.424851    658.24665  0.045979788  0.046705214            2 
 1194000    1.0472186   -5.4148403    659.67536  0.046040994  0.046694818            3 
 1195000    1.0557087   -5.4085249    662.30145  0.046185596   0.04668446            3 
 1196000    1.0559412   -5.3852368    662.87102  0.046186665  0.046674047            2 
 1197000    1.0888094   -5.3776795    663.16542  0.046168576  0.046663576            3 
 1198000    1.0577108   -5.3967844    661.62267  0.046022723   0.04665327            3 
 1199000    1.0753268   -5.3866135    663.99736  0.046149386  0.046642964            6 
 1200000    1.0403491   -5.4247724    663.96013  0.046108343  0.046632233            3 
 1201000    1.0832909   -5.3642238    666.23685  0.046227924  0.046622106            6 
 1202000    1.0342933   -5.4015179    663.78874  0.046019741  0.046611696            7 
 1203000    1.0592314   -5.3910704    664.36906  0.046021686  0.046601209            3 
 1204000    1.0502151   -5.3904931    666.49454  0.046130575  0.046590806            2 
 1205000    1.0593143   -5.3861865    666.58911  0.046098832  0.046580269            2 
 1206000    1.0704674   -5.4048903     665.0091   0.04595143  0.046569178            2 
 1207000    1.0688122   -5.4219956    665.84603  0.045971142  0.046558528            4 
 1208000    1.0676588   -5.3817612    664.90421  0.045868116  0.046548134            2 
 1209000    1.0593312   -5.4178435    667.35421   0.04599905  0.046537647            3 
 1210000     1.031831   -5.3928659    666.96424  0.045934176  0.046526772            3 
 1211000    1.0580257   -5.3670318    668.09334  0.045973943  0.046516161            7 
 1212000    1.0753732   -5.4247271    664.93243  0.045718677  0.046505247            4 
 1213000    1.0745909   -5.4171695    668.08027  0.045897243  0.046494491            4 
 1214000    1.0536813   -5.4138961    669.18357  0.045935171  0.046484014            4 
 1215000    1.0660622   -5.4347939    667.73759  0.045798188  0.046473201            6 
 1216000    1.0559105   -5.3991975    667.93631  0.045774144  0.046462182            4 
 1217000    1.0556347   -5.3953403    670.83976  0.045935344  0.046451203            2 
 1218000    1.0598167   -5.4243196    668.85193  0.045761626  0.046440239            3 
 1219000     1.061476   -5.4153646    671.22763  0.045886494  0.046429205            5 
 1220000    1.0713672   -5.3998999     668.4338  0.045658046  0.046418339            3 
 1221000    1.0664059   -5.4107037    671.19969  0.045809425  0.046407302            2 
 1222000    1.0402457   -5.3457591    673.71879  0.045943725  0.046396974            4 
 1223000    1.0627631   -5.3563078     676.8552  0.046119869  0.046386395            3 
 1224000    1.0618226   -5.4089584    670.71212  0.045663951  0.046375716            6 
 1225000    1.0585779   -5.4126662     673.1369  0.045791626  0.046364378            2 
 1226000    1.0459961   -5.4072791    672.79655  0.045731141  0.046353392            8 
 1227000    1.0812506   -5.3786098     674.8267  0.045831751  0.046342282            5 
 1228000    1.0649933   -5.4121474    671.53936  0.045571346  0.046330993            4 
 1229000    1.0591448   -5.4162459    674.09904  0.045707828  0.046320074            3 
 1230000    1.0740056   -5.4033311    672.35375  0.045552422  0.046308707            2 
 1231000    1.0593458   -5.4048084    673.89993  0.045620087  0.046297568            2 
 1232000    1.0680572   -5.4048696     675.4927  0.045690794  0.046286308            2 
 1233000    1.0714902   -5.4395305    674.86996  0.045611649  0.046275218            5 
 1234000    1.0326663   -5.3972767    674.36652  0.045540689   0.04626422            5 
 1235000    1.0379352   -5.3963096    675.81737  0.045601712  0.046253077            5 
 1236000    1.0664293   -5.4172299    676.45245  0.045607635  0.046242103            4 
 1237000    1.0395877   -5.4332474    674.77844  0.045457992   0.04623112            4 
 1238000     1.046531   -5.3888308       677.97  0.045636107  0.046220391            5 
 1239000    1.0487076   -5.3820602    679.43363  0.045697715  0.046209415            3 
 1240000    1.0337178    -5.398538    680.48602  0.045731587  0.046198608            2 
 1241000    1.0654624   -5.4073092    680.15067  0.045672218  0.046187797            1 
 1242000    1.0630285   -5.3544139    682.94321  0.045822813  0.046177159            3 
 1243000    1.0497604   -5.3921759    682.27032  0.045740837  0.046166624            2 
 1244000    1.0611583   -5.4168783    680.75242  0.045602386   0.04615619            3 
 1245000    1.0676053   -5.4210732    681.41614  0.045610183   0.04614563            4 
 1246000    1.0493975   -5.4097384    685.80963  0.045867418  0.046135158            5 
 1247000    1.0360309   -5.3592423    683.96313  0.045707239  0.046124839            4 
 1248000     1.042692   -5.4069223    683.06058  0.045610349  0.046114538            3 
 1249000    1.0543536   -5.4658289    682.64583  0.045546159  0.046103993            3 
 1250000    1.0299784   -5.4382862    679.96249  0.045330833  0.046093347            3 
 1251000    1.0613932   -5.3945932    683.96563   0.04556126  0.046082862            4 
 1252000    1.0188385   -5.3859502    688.09614  0.045799796  0.046072845            2 
 1253000     1.030494   -5.4205814    685.99682  0.045623624  0.046062733            2 
 1254000    1.0416914   -5.3911946    685.49709  0.045554033  0.046052731            3 
 1255000    1.0617266   -5.4542177    685.52996  0.045519917  0.046042559            6 
 1256000    1.0507517   -5.4078329    689.47687  0.045745546  0.046032402            3 
 1257000    1.0532557   -5.4188648    684.92024   0.04540707  0.046022762            5 
 1258000     1.055455   -5.4278268    688.99077  0.045640618  0.046012868            2 
 1259000    1.0473068   -5.4475819    688.13092  0.045547453  0.046002598            4 
 1260000    1.0456574   -5.3750852    690.86747  0.045692293  0.045992168            3 
 1261000    1.0387097   -5.4258678    688.99163  0.045532093  0.045982014            2 
 1262000    1.0494935    -5.403168    690.21589  0.045576855  0.045971855            2 
 1263000    1.0542767   -5.3819504    690.48502  0.045558526  0.045961859            3 
 1264000    1.0377447   -5.4794444    686.33702  0.045249012  0.045951681            4 
 1265000     1.044203   -5.4430498    690.81526  0.045508252  0.045941622            3 
 1266000    1.0342459    -5.431915    691.51743  0.045518525  0.045931578            3 
 1267000    1.0555492   -5.4399566    690.97975  0.045447235  0.045921423            4 
 1268000    1.0756927   -5.4109342    691.86873  0.045469817   0.04591128            4 
 1269000    1.0518076   -5.4380162    691.08725  0.045382667  0.045901265            3 
 1270000      1.02932   -5.4406708    691.63723   0.04538302  0.045890792            3 
 1271000    1.0459864   -5.4636881    690.20727  0.045253558   0.04588038            4 
 1272000    1.0570128   -5.4310238    694.87652  0.045523881  0.045870337            6 
 1273000    1.0338382   -5.4174807    695.26625  0.045513632  0.045860587            3 
 1274000    1.0622055   -5.4420128    695.95666  0.045523067  0.045850655            4 
 1275000    1.0434751   -5.3817433    698.31165  0.045641285  0.045841155            2 
 1276000    1.0345742   -5.4220206    697.46715  0.045550362  0.045831224            7 
 1277000    1.0647294   -5.4387395    696.95358  0.045481178  0.045821532            4 
 1278000    1.0606216   -5.4382899    695.57629  0.045355783   0.04581188            5 
 1279000    1.0346623   -5.4403469    695.28863  0.045301579  0.045801873            4 
 1280000    1.0696973   -5.4568173    696.44407  0.045341411   0.04579182            7 
 1281000    1.0445603   -5.4055253    698.05509  0.045410818  0.045781988            3 
 1282000     1.057868      -5.4052    696.74696  0.045290364  0.045772123            3 
 1283000    1.0301632   -5.4003303    700.84056  0.045520951  0.045762362            3 
 1284000    1.0444295   -5.4192438    699.51308  0.045399343  0.045752757            6 
 1285000    1.0405957   -5.4232224    698.81402  0.045318679  0.045743027            4 
 1286000    1.0515846   -5.4443997    699.29568   0.04531465  0.045732998            3 
 1287000    1.0307636   -5.4211561    700.16224  0.045335551  0.045722888            4 
 1288000    1.0320221    -5.443532     700.5909  0.045328086   0.04571299            3 
 1289000    1.0493241    -5.420351    702.34686  0.045406443  0.045703094            3 
 1290000    1.0434813   -5.4407348    699.85147  0.045210043  0.045693287            6 
 1291000    1.0544271   -5.4319142    699.29648    0.0451392  0.045683268            4 
 1292000    1.0601295   -5.4254262    703.00214  0.045343275  0.045673376            5 
 1293000    1.0459268   -5.4389791    702.03641  0.045245966   0.04566394            4 
 1294000    1.0417908   -5.4236887    703.80661     0.045325  0.045654381            3 
 1295000    1.0288616   -5.3677967    705.88938  0.045424027  0.045644846            3 
 1296000    1.0212233    -5.432129     702.7083  0.045184433  0.045635145            2 
 1297000    1.0317719   -5.4502625    702.57853  0.045141257   0.04562534            4 
 1298000      1.04747   -5.4272354    703.97343  0.045196034  0.045615563            4 
 1299000    1.0609651    -5.455715    705.07836  0.045232124  0.045605979            3 
 1300000     1.062413   -5.4780561    705.14334  0.045201496  0.045596155            2 
 1301000    1.0387657   -5.4090529    707.36464  0.045309034  0.045586689            4 
 1302000    1.0591134   -5.4115721    709.03132  0.045380909  0.045577569            2 
 1303000    1.0565407   -5.4315853    707.15482  0.045226069   0.04556842            2 
 1304000    1.0489944   -5.4147773    709.97417   0.04537156  0.045558957            2 
 1305000    1.0306218   -5.4308133    708.81686   0.04526289   0.04554935            4 
 1306000    1.0228892   -5.4206711    710.51486  0.045336578  0.045539579            6 
 1307000    1.0348677   -5.4482166    707.28296  0.045095827  0.045529488            6 
 1308000    1.0593723   -5.4381022    709.85257  0.045225062  0.045519524            8 
 1309000    1.0443999   -5.4103321    711.69654  0.045307903  0.045510094            3 
 1310000    1.0622502   -5.4478224    709.98166  0.045164228   0.04550075            2 
 1311000    1.0655974   -5.4662309    711.16619  0.045205072  0.045491418            4 
 1312000    1.0300876   -5.4651553    712.23417  0.045238451  0.045481998            4 
 1313000    1.0329688    -5.468965    710.46602  0.045091776  0.045472543            3 
 1314000       1.0432   -5.4283416    714.49547  0.045313005  0.045463175            5 
 1315000    1.0341465   -5.4073896     716.2855  0.045391984   0.04545414            5 
 1316000    1.0171766   -5.4414671    715.29582  0.045294821  0.045445247            5 
 1317000    1.0563934   -5.4174269    718.19979  0.045444178  0.045436417            5 
 1318000    1.0432795   -5.4609519    712.73417  0.045064123  0.045427493            2 
 1319000    1.0511556   -5.4065984    717.18459  0.045311131  0.045418462            6 
 1320000    1.0298382   -5.4665435    714.46143  0.045104888  0.045409294            3 
 1321000    1.0296977   -5.4453098    717.57494  0.045267155  0.045400466            3 
 1322000    1.0275627   -5.4000548    717.75845  0.045244481  0.045391615            3 
 1323000    1.0507189   -5.4413409    716.21087  0.045112804  0.045382605            3 
 1324000    1.0277163   -5.4477036    716.78044   0.04511458  0.045373424           10 
 1325000      1.05848   -5.4255189    721.12577  0.045353822  0.045364251            2 
 1326000    1.0347504    -5.429179    716.78803  0.045047011  0.045355011            5 
 1327000    1.0498253   -5.4378542    718.17715  0.045100299  0.045346047            9 
 1328000     1.030368   -5.4768438    718.76616  0.045103298  0.045336888            3 
 1329000    1.0455341   -5.4397132    720.90799  0.045203661  0.045328055            4 
 1330000    1.0596058   -5.3862758    724.55889  0.045398427  0.045319218            3 
 1331000    1.0424459   -5.4194698    724.21209  0.045342605  0.045310482            5 
 1332000    1.0592795    -5.438472    721.11176  0.045114599  0.045302036            2 
 1333000    1.0303361   -5.4164141    722.85539  0.045189759  0.045293732            2 
 1334000     1.065154   -5.4446885    724.76309  0.045275055  0.045285134            2 
 1335000    1.0492839   -5.4351018    722.82143   0.04511994  0.045276112            2 
 1336000    1.0541844   -5.4193392    724.90871  0.045216362   0.04526728            4 
 1337000    1.0415009   -5.4373616    721.42188  0.044965213  0.045258241            3 
 1338000    1.0320643   -5.4784252    720.09306  0.044848845  0.045249211            3 
 1339000     1.044388     -5.45818     723.7116  0.045040553  0.045239884            3 
 1340000    1.0337224   -5.4485213    725.75112  0.045133776  0.045230899            5 
 1341000    1.0403563   -5.4399187    724.69174  0.045034286  0.045222175            2 
 1342000    1.0224977   -5.4434007    725.84267  0.045072198  0.045213038            2 
 1343000    1.0221203   -5.4455422    723.99808   0.04492418  0.045203937            5 
 1344000    1.0368983   -5.4860923     722.4025  0.044791822  0.045194378            4 
 1345000    1.0206382   -5.4619648    725.23964  0.044934302  0.045184976            2 
 1346000    1.0494445   -5.4342223    726.62812  0.044986882  0.045175782            3 
 1347000    1.0557681   -5.4420647    727.50056  0.045007458  0.045166319            7 
 1348000    1.0229627   -5.4116545    725.24527  0.044834648  0.045156945            2 
 1349000    1.0288521   -5.4225557    728.69064  0.045014247  0.045147639            4 
 1350000    1.0548676   -5.4654219    725.06818  0.044757295  0.045138301            4 
 1351000      1.05813   -5.4389928    726.69965    0.0448248  0.045128953            6 
 1352000    1.0325221   -5.4031962    730.31694  0.045014604  0.045119966            4 
 1353000    1.0209701   -5.4541745    729.72385  0.044944804  0.045111011            4 
 1354000    1.0359353   -5.4279947    731.23661  0.045004715  0.045102365            2 
 1355000    1.0400502   -5.4287335    731.01092  0.044957621  0.045093628           10 
 1356000   0.99832303   -5.4483936    731.67971  0.044965567   0.04508446            3 
 1357000    1.0560781   -5.4464021    730.89172  0.044884041  0.045075157            2 
 1358000    1.0468402   -5.4793152    730.85527  0.044848752  0.045065749            5 
 1359000    1.0516276   -5.4380113    731.16567  0.044834785  0.045056367            6 
 1360000   0.99901316   -5.4687453     732.9416  0.044910637  0.045046912            5 
 1361000    1.0538434   -5.4409726    731.07874  0.044763577  0.045037592            3 
 1362000    1.0305012   -5.4659918    732.16816  0.044797367  0.045028479            3 
 1363000    1.0335899   -5.4072372    732.48573  0.044783916  0.045019282            3 
 1364000    1.0456685   -5.4586343    731.71818   0.04470419  0.045010139            4 
 1365000    1.0308254   -5.4104231    736.76309  0.044979431  0.045001116            2 
 1366000    1.0119053   -5.4069093    736.09362  0.044905662  0.044992234            3 
 1367000    1.0282534   -5.4645798    737.40057  0.044952486  0.044983315            2 
 1368000    1.0494297    -5.443858    737.92112  0.044951335   0.04497467            4 
 1369000    1.0584417    -5.445988    736.30331  0.044820021   0.04496606            6 
 1370000     1.043903   -5.4491785    736.66221  0.044809137   0.04495719            2 
 1371000    1.0303915   -5.4598092    736.52101  0.044767871  0.044948268            7 
 1372000    1.0199185   -5.4560666    737.38638  0.044787802  0.044939302            4 
 1373000    1.0155939   -5.4487064     737.4696  0.044760233  0.044930255            2 
 1374000    1.0147271   -5.4629509    738.53722  0.044792408  0.044921082            2 
 1375000    1.0233925   -5.4870101    738.25402  0.044742668  0.044912269            3 
 1376000    1.0383397   -5.4500371    740.64186  0.044854764  0.044903545            2 
 1377000    1.0399202   -5.4742182    740.41099  0.044808218  0.044894716            3 
 1378000    1.0273202   -5.4188811    742.46911  0.044900164  0.044886031            2 
 1379000    1.0431043   -5.4520295    740.79044  0.044766161   0.04487711            4 
 1380000    1.0221626   -5.5131589    738.66553  0.044605406  0.044867956            3 
 1381000    1.0155015   -5.4952974    740.79798  0.044701785  0.044858903            4 
 1382000    1.0426118   -5.4736062    739.59974  0.044597187  0.044849892            3 
 1383000    1.0261588   -5.4828924    739.73484   0.04457308  0.044840897            5 
 1384000    1.0325413   -5.4431763    741.85683  0.044668643  0.044831988            4 
 1385000    1.0543476   -5.4513438    746.95824  0.044943336   0.04482338            4 
 1386000     1.025027   -5.4778051    748.06671  0.044977556   0.04481481            4 
 1387000    1.0335333   -5.4802023    743.53652  0.044672946  0.044806198            2 
 1388000    1.0404722   -5.4839965    743.62266  0.044645933  0.044797372            5 
 1389000    1.0108749   -5.4695705     744.7947  0.044684107  0.044788462            4 
 1390000     1.010695   -5.4253649    746.93527  0.044780292  0.044779641            2 
 1391000    1.0325208   -5.4585289    746.05985  0.044695654  0.044770778            2 
 1392000    1.0174635   -5.4618486    745.29663  0.044617854  0.044762044            3 
 1393000    1.0158706    -5.461761    743.97899  0.044506998  0.044753107            2 
 1394000    1.0003266   -5.4690682    745.54275  0.044568553  0.044744293            5 
 1395000    1.0459202   -5.4286916     748.3341  0.044703351  0.044735505            6 
 1396000    1.0347951   -5.4621011    745.88417  0.044525082  0.044726454            3 
 1397000    1.0107239   -5.4852935    744.42796  0.044406345   0.04471719            5 
 1398000    1.0243036   -5.4680359    745.09843  0.044414546    0.0447084            5 
 1399000    1.0390322   -5.4605464    747.60645  0.044532193  0.044699607            3 
 1400000    1.0244484   -5.4223649      751.214  0.044715119  0.044690512            4 
 1401000    1.0266359   -5.4525243    748.86092  0.044543238  0.044681721            6 
 1402000    1.0418273   -5.5034108    746.93148  0.044396783  0.044672862            3 
 1403000     1.050091   -5.4672131    750.59868  0.044582958  0.044663681            2 
 1404000     1.016888   -5.5225757    744.80937  0.044207583  0.044654451            9 
 1405000    1.0191131   -5.4310226    751.13465  0.044551284  0.044645298            4 
 1406000     1.027842   -5.4329192    750.47762  0.044480655  0.044636617            2 
 1407000    1.0191433   -5.4723212    750.66566  0.044460179  0.044627543           10 
 1408000    1.0403135   -5.4618136    750.32196   0.04440826  0.044618326            7 
 1409000    1.0027039   -5.4579774    749.77398  0.044344333  0.044609135            2 
 1410000     1.038068   -5.4785998    749.40267  0.044290938  0.044600129            3 
 1411000    1.0366694   -5.4408411    751.61941  0.044390469  0.044591091            6 
 1412000    1.0253796   -5.4974115    750.34752  0.044283966  0.044582132            2 
 1413000    1.0342687   -5.4744829    753.53599  0.044440669  0.044572837            3 
 1414000    1.0542002   -5.4324779    752.27039  0.044334653  0.044563746            5 
 1415000    1.0578142   -5.4505781    749.42793  0.044135921  0.044554554            2 
 1416000    1.0126892   -5.4521986    751.61246  0.044233313  0.044545185            2 
 1417000    1.0354364    -5.478912    752.65763  0.044263563  0.044535539            6 
 1418000    1.0333479   -5.4520907    751.37178  0.044156781  0.044525953            3 
 1419000    1.0292509    -5.466632    752.77493  0.044208065  0.044516435            3 
 1420000    1.0290585   -5.4840156    751.83253  0.044121627  0.044506387            5 
 1421000    1.0237399   -5.4829678    751.46463  0.044069002  0.044496633            9 
 1422000    1.0203959   -5.4822648    754.08449  0.044191543  0.044486695            5 
 1423000    1.0230237   -5.4878602    751.62695   0.04401657  0.044476772            8 
 1424000    1.0222585   -5.4638472    754.84521  0.044173994  0.044466809            4 
 1425000    1.0337822   -5.4977316    754.08426  0.044098495  0.044456499            5 
 1426000    1.0361029    -5.488973    754.47729  0.044090538  0.044446377            3 
 1427000      1.00811   -5.4959567    753.14156  0.043981638  0.044436401            4 
 1428000   0.99884204   -5.4810023    755.14478  0.044067739  0.044426215            6 
 1429000     1.019763   -5.4966948    752.88896  0.043905351  0.044416207            2 
 1430000    1.0214077   -5.5112989     754.8076  0.043986457  0.044406078            5 
 1431000    1.0211424   -5.4966819    753.95626  0.043906141  0.044395811            2 
 1432000    1.0261546    -5.446934    758.67953  0.044150345  0.044385574            3 
 1433000     1.043151   -5.4954257    754.52092  0.043877699  0.044375504            4 
 1434000    1.0369216   -5.4242327    758.16946  0.044059127  0.044365261            5 
 1435000    1.0143701   -5.4650684      755.428  0.043869222  0.044355031            5 
 1436000    1.0202315   -5.4676379    755.45086  0.043839999  0.044344567            6 
 1437000   0.99717291   -5.4686404    759.44041   0.04404085   0.04433433           10 
 1438000    1.0481231   -5.4886319    756.41003   0.04383461  0.044324377            4 
 1439000    1.0309055   -5.5193696    756.29291  0.043797365  0.044314122            2 
 1440000    1.0174444   -5.4554535    759.53059  0.043954317  0.044304179            4 
 1441000    1.0084454   -5.4950065    757.13087  0.043785037  0.044294174            6 
 1442000   0.99602649   -5.4860294    760.97869   0.04397704  0.044284081            6 
 1443000    1.0091233   -5.5048428    757.21283  0.043729085  0.044273795            9 
 1444000    1.0278169   -5.4680904    761.19676  0.043928714  0.044263589            5 
 1445000    1.0130438   -5.5094332     757.7364  0.043698754  0.044253635            2 
 1446000    1.0190726   -5.4925844    760.72874  0.043840983  0.044243554            3 
 1447000      1.02409   -5.4727395    761.87396  0.043876639  0.044233279            5 
 1448000     1.033304   -5.4596167    761.96904  0.043851809   0.04422313            2 
 1449000    1.0265487   -5.5035214    761.18723  0.043776583  0.044212767            2 
 1450000    1.0174873   -5.4681678    762.38405  0.043815175  0.044202465            4 
 1451000    1.0102181   -5.4777843    762.89348  0.043814236  0.044192074            1 
 1452000   0.99837816   -5.4779395    762.55156  0.043764438  0.044181858            3 
 1453000    1.0334263   -5.4930745    761.63931  0.043681998  0.044171673            4 
 1454000    1.0114323   -5.4790546    762.43975  0.043697831  0.044161519            2 
 1455000    1.0077806   -5.4536895    765.72144  0.043855753  0.044151412            1 
 1456000    1.0196391   -5.4863152    764.33759  0.043746428  0.044141622            2 
 1457000    1.0356642   -5.4865609    764.23195  0.043710361  0.044131471            4 
 1458000    1.0134574    -5.470723    767.03795  0.043840761  0.044121816            3 
 1459000   0.99033709   -5.4580035    767.28531  0.043824841  0.044112262            3 
 1460000    1.0294219   -5.4579523    766.46076   0.04374776  0.044102779            4 
 1461000   0.98334575   -5.5137442    764.94126  0.043631147  0.044093065            7 
 1462000    1.0247887   -5.4930542    769.25241  0.043847037  0.044083288            5 
 1463000    1.0184763   -5.4784639    769.29721  0.043819618   0.04407359            6 
 1464000   0.99850629   -5.4847468    769.42003  0.043796677   0.04406377            3 
 1465000     1.017129   -5.4909427    771.05745  0.043859923  0.044054266            2 
 1466000    1.0334201   -5.4636112     766.7107  0.043582918  0.044044814            2 
 1467000    1.0458291   -5.5132526      769.683  0.043722052  0.044035412            9 
 1468000     1.033869   -5.5042772    771.75918  0.043810126  0.044025914            3 
 1469000    1.0264217   -5.4802616    773.33927  0.043869938  0.044016183            3 
 1470000    1.0214851   -5.4902248    771.83397   0.04375476  0.044006563            3 
 1471000    1.0242809   -5.4444328    772.56476  0.043766415  0.043997114            4 
 1472000   0.99107071   -5.4830017    772.83951  0.043752237  0.043987582            6 
 1473000    1.0340293   -5.4868049    772.50914  0.043703843  0.043977925            3 
 1474000    1.0323217   -5.4809916    773.52338  0.043731534  0.043968497            2 
 1475000    1.0020956   -5.4726357    774.16787  0.043738298  0.043958857            3 
 1476000     1.008671   -5.4953285    774.61352  0.043733826  0.043949237           13 
 1477000    1.0229551   -5.4898682    773.48121   0.04364033  0.043939585            5 
 1478000    1.0251782   -5.4694768    774.53055  0.043669968  0.043930047            3 
 1479000   0.99031734   -5.4584977     775.6563  0.043703871  0.043920467            4 
 1480000    1.0275534   -5.4946135    777.00212  0.043750119   0.04391082            8 
 1481000    1.0348616   -5.5060165    774.99068  0.043607398  0.043901091            6 
 1482000    1.0181159   -5.4916967    774.09769   0.04352776  0.043891393            2 
 1483000    1.0010864   -5.4907074    775.09963  0.043554711  0.043881501            3 
 1484000   0.99474825   -5.4759994    775.26544  0.043534672  0.043871543            3 
 1485000    1.0116733    -5.506435    774.80249  0.043479376  0.043861639            5 
 1486000      1.02773   -5.4527058    780.43641  0.043766061  0.043851764            2 
 1487000    1.0175707   -5.4727302     775.8145  0.043477611  0.043842009            3 
 1488000    1.0242484   -5.4778493    775.80938  0.043448106  0.043832152            4 
 1489000    1.0083791   -5.4625629    774.71993  0.043357954   0.04382247            6 
 1490000    1.0075197   -5.5071469    775.36468  0.043364915  0.043812599            3 
 1491000    1.0144932   -5.5161545    775.62742  0.043350515  0.043802697            4 
 1492000    1.0069065   -5.4880613    777.12348   0.04340502  0.043792573            5 
 1493000   0.99624638   -5.4727783     777.6082  0.043403003  0.043782545            2 
 1494000    1.0125071   -5.4939592    778.07933   0.04340023  0.043772252            3 
 1495000    1.0080989   -5.4924289    779.68541  0.043460725   0.04376211            4 
 1496000   0.99803273   -5.5080787    778.68444  0.043375916  0.043752063            5 
 1497000    1.0246606   -5.5110433    780.82268   0.04346597  0.043742158            5 
 1498000    1.0501399   -5.5130913    779.81861  0.043381098  0.043732464            5 
 1499000    1.0091364   -5.4757643    782.64244  0.043509141  0.043722467            5 
 1500000    1.0226442   -5.4932027    778.33511  0.043240839  0.043712633            3 
 1501000     1.001746   -5.5066099    780.23614  0.043317574  0.043702754            4 
 1502000    1.0119996   -5.5021272    779.27685  0.043235511  0.043692615            4 
 1503000    1.0198012   -5.4927712    779.18372  0.043201581  0.043682472            2 
 1504000    1.0033774   -5.5054253    782.41286  0.043351777  0.043672472            2 
 1505000     1.009417    -5.537106    779.24748  0.043147701  0.043662346            3 
 1506000    1.0139828    -5.487736    784.75846  0.043423996  0.043652124            3 
 1507000    1.0177667   -5.5069762    785.01746  0.043409504  0.043642007            9 
 1508000    1.0079933   -5.5331122     782.5504  0.043244386  0.043631974            1 
 1509000    1.0275407    -5.505968    781.51065  0.043158308  0.043622085            3 
 1510000    1.0044776   -5.4764211    785.58134  0.043354379  0.043612274            3 
 1511000    1.0238512   -5.5413287    784.12501  0.043245368  0.043602058            5 
 1512000    1.0105971   -5.4984972    784.46323  0.043235408  0.043592138            3 
 1513000     1.013628   -5.5093196    786.12114  0.043298146  0.043582177            2 
 1514000    1.0172071   -5.4830651    785.14157   0.04321563  0.043572435            5 
 1515000   0.99289133   -5.5426449    784.86352  0.043171811  0.043562291            6 
 1516000    1.0052589   -5.5194819    785.43917  0.043174976  0.043552012            5 
 1517000    1.0257893   -5.4810447    786.23923  0.043190465  0.043541835            6 
 1518000    1.0134827   -5.5062097    785.88129  0.043142364  0.043531634            3 
 1519000    1.0044012    -5.516151    786.44804  0.043145054  0.043521383            4 
 1520000   0.99555872   -5.5147177     784.7163  0.043021727   0.04351111            3 
 1521000    1.0415982   -5.4871715    787.15224  0.043126904  0.043500873            2 
 1522000   0.98972948   -5.5006734    787.08945   0.04309513  0.043490709            6 
 1523000   0.99085489   -5.4901493    786.35994  0.043026917  0.043480347            2 
 1524000    1.0214515   -5.4841193    789.57927  0.043174719   0.04347025            4 
 1525000    1.0138601   -5.5111584    786.06698   0.04295448  0.043459888            5 
 1526000   0.99176179   -5.4901196    791.19308  0.043206263  0.043449712            3 
 1527000    1.0293165   -5.4875928    790.34613  0.043131747  0.043439602            5 
 1528000   0.99663332   -5.5227416     790.3549  0.043103998  0.043429671            3 
 1529000    1.0155304   -5.4896175    792.28656  0.043181086  0.043419676            4 
 1530000    1.0158125   -5.5222177    788.06697  0.042923038  0.043409718            2 
 1531000    1.0134273   -5.4986565    790.47406  0.043026021  0.043399383            4 
 1532000    1.0346429   -5.5623748    787.38175   0.04282973  0.043388947            3 
 1533000    1.0031208   -5.4909365    795.14018  0.043223536  0.043378666            4 
 1534000    1.0138875   -5.5416018    789.35954  0.042881331  0.043368414            3 
 1535000    1.0165572   -5.4922082    793.02295  0.043052277   0.04335808            2 
 1536000    1.0067626   -5.5134736    788.31981  0.042769087  0.043348193            6 
 1537000    1.0171209    -5.505249    795.70904  0.043141891   0.04333808            9 
 1538000    1.0007816   -5.5127259    793.14563  0.042974947  0.043327863            6 
 1539000   0.99127649   -5.5488638    791.67494  0.042867389  0.043317722            3 
 1540000    1.0115278   -5.5001817    792.20237  0.042868094  0.043307501           10 
 1541000    1.0013499   -5.5128834    793.89759  0.042931949  0.043297405            4 
 1542000    1.0037272   -5.5259368    793.00615  0.042855931   0.04328724            6 
 1543000    1.0150279   -5.5314888    794.12064  0.042888347  0.043276985            4 
 1544000   0.99513362   -5.5297943    791.88753  0.042740044  0.043266705            4 
 1545000   0.98837147   -5.4983807     792.9269  0.042768441  0.043256464            3 
 1546000     1.010613   -5.5055166    796.38267  0.042927052  0.043246488            7 
 1547000    1.0043422   -5.5313112    793.15831  0.042725615  0.043236044            5 
 1548000    1.0008131   -5.5537322     794.0487  0.042745946  0.043225719            4 
 1549000    1.0315789   -5.5173388    795.15427  0.042777828   0.04321533            5 
 1550000    1.0019831   -5.5159049    793.20376  0.042645363  0.043205362            5 
 1551000     1.027809   -5.5563109    795.71657  0.042752878  0.043194638            5 
 1552000   0.98226271   -5.4995188    795.91662  0.042736073  0.043184385            3 
 1553000   0.99454816   -5.5446473    794.90774  0.042654418  0.043174103            2 
 1554000    1.0384877   -5.4998593    800.68965  0.042937025  0.043163836            7 
 1555000   0.99500012    -5.541986    798.17618  0.042774715  0.043153913            4 
 1556000   0.98091549   -5.4891177    798.83659  0.042782594  0.043143887            3 
 1557000    1.0182777   -5.4861068    799.78799  0.042806037  0.043133867            7 
 1558000   0.99844378   -5.5151263    799.03371  0.042738217   0.04312366            5 
 1559000    1.0037902    -5.510892      798.617  0.042688529  0.043113207            4 
 1560000    1.0238429   -5.4770986    803.38536  0.042915885  0.043103194            5 
 1561000    1.0107104   -5.5157436      801.177    0.0427705  0.043093092           10 
 1562000   0.99944893   -5.5604106    798.41706  0.042595874  0.043082742            2 
 1563000   0.98659911   -5.5422473    799.23379  0.042612166  0.043072398            5 
 1564000   0.98944228   -5.5177744    800.65023  0.042660392  0.043062211            7 
 1565000    0.9773121   -5.5447833    801.71998  0.042690095  0.043051881            5 
 1566000   0.98772328   -5.4939592    801.06099  0.042627767  0.043041908            3 
 1567000    1.0049105   -5.4804769    803.37976  0.042723876  0.043031739            7 
 1568000    1.0292376    -5.480193    803.70446  0.042713885  0.043021672            4 
 1569000    1.0089328   -5.5033873    803.36409  0.042668584  0.043011385            4 
 1570000   0.99711338   -5.5266507    800.77493  0.042503977  0.043001109            8 
 1571000     1.002252   -5.5594254    802.47251  0.042566969  0.042990845            5 
 1572000    1.0007368   -5.4949675    805.01108  0.042674464  0.042980687            2 
 1573000   0.99981121   -5.5137541    805.73678   0.04268578  0.042970711            4 
 1574000    1.0108148   -5.5554037    803.88971   0.04256087  0.042960596            8 
 1575000    1.0001102    -5.499002     804.3973  0.042560703  0.042950645            5 
 1576000    0.9882883   -5.5321552    805.28197  0.042580476  0.042940583            6 
 1577000   0.99007433   -5.5295141    806.87129   0.04263746  0.042930525            2 
 1578000    1.0047532   -5.5502317     803.3816  0.042426151  0.042920233            3 
 1579000   0.99066903   -5.5117846    805.10148  0.042490051  0.042909943            2 
 1580000    1.0263357   -5.4944742    807.67771  0.042599035  0.042900041            4 
 1581000    1.0028899   -5.5154301     807.4953  0.042562476   0.04288992            5 
 1582000   0.99984936   -5.4884688    809.45916   0.04263902  0.042879602            6 
 1583000    1.0084879   -5.5260537    804.73877  0.042363591  0.042869421            7 
 1584000    1.0017787    -5.506035    811.12835  0.042672998  0.042859058            3 
 1585000   0.98955045   -5.5342616    807.43151  0.042451709  0.042848693            2 
 1586000   0.99220984   -5.5142874    809.53883  0.042535668   0.04283817            4 
 1587000   0.99119609    -5.556487    805.90109  0.042317848  0.042827688            4 
 1588000   0.98352429   -5.5300646    809.05648  0.042456784  0.042817441            3 
 1589000   0.97613769   -5.4981565    810.84469  0.042523846  0.042807246            5 
 1590000    1.0002555   -5.5544713     807.3038   0.04231152  0.042797082            2 
 1591000   0.98934695   -5.5650433    808.51649  0.042348444  0.042786859            2 
 1592000   0.99543276   -5.5276344    811.77241  0.042492274  0.042776537            4 
 1593000   0.98828339   -5.5710827    809.35998    0.0423394  0.042766401            3 
 1594000    1.0070111   -5.5384423    812.97298  0.042501724    0.0427562            2 
 1595000   0.96835254   -5.5171133    811.58514  0.042402567  0.042746011            2 
 1596000    1.0013657   -5.5054485    813.36509  0.042468937  0.042735802            3 
 1597000   0.99978927   -5.5251073    811.97772   0.04236995  0.042725734            2 
 1598000   0.98392259   -5.5257169    809.64516  0.042221796  0.042715468            4 
 1599000   0.99437683    -5.531797    812.82908  0.042361324  0.042705137           11 
 1600000    0.9871242   -5.5395657    812.30501  0.042307553  0.042694901            4 
 1601000    1.0171208   -5.5730006    811.97764  0.042264087  0.042684693            5 
 1602000    1.0074046   -5.5673705    809.34842  0.042100937  0.042674336            3 
 1603000    1.0102178   -5.5518318    815.34049  0.042386177  0.042664121            3 
 1604000   0.99636983   -5.5571675    814.35038  0.042308311  0.042654151            4 
 1605000   0.98996409   -5.5497585    815.46843  0.042340002  0.042644095            2 
 1606000   0.97123782   -5.5032393    816.53165  0.042368807  0.042634274            4 
 1607000    1.0033963   -5.5360467    814.15803  0.042219354  0.042624346            4 
 1608000     0.999437   -5.5118822    816.22871   0.04230041   0.04261431            7 
 1609000   0.97119399   -5.5463211    817.20806  0.042324843  0.042604476            2 
 1610000   0.96991514    -5.542284    816.65331   0.04226984  0.042594726            3 
 1611000   0.99567488   -5.5293497    815.68876  0.042193708  0.042584765            4 
 1612000   0.99469895   -5.5634439     817.1484   0.04224299  0.042574969            3 
 1613000    0.9927162   -5.5015262    818.74214  0.042299139    0.0425652            3 
 1614000   0.98104133   -5.5250191    822.48909  0.042466393  0.042555647            5 
 1615000     1.008634   -5.5327771     819.8429  0.042303555  0.042545862            3 
 1616000   0.98953104   -5.5580039    818.77048  0.042222075  0.042536081            4 
 1617000   0.99750556   -5.5299831      820.783   0.04229968  0.042526224            7 
 1618000   0.99920783   -5.5246827    822.27377  0.042350318  0.042516554            3 
 1619000   0.97751272    -5.497415    823.71651   0.04239842  0.042506764            2 
 1620000   0.98621494   -5.5262927    822.11483  0.042289857  0.042496881            5 
 1621000    1.0168039     -5.55115    824.54477  0.042388689  0.042487117            6 
 1622000   0.97954309    -5.558827    820.79683  0.042169998  0.042477203            4 
 1623000   0.98680973   -5.5450264    819.39922  0.042072254  0.042467355            3 
 1624000   0.98913493   -5.5815239    818.19078  0.041984338  0.042457444            2 
 1625000    1.0059548    -5.519321    824.50917  0.042282522  0.042447622            4 
 1626000   0.99414324   -5.5534582    821.54031  0.042104362   0.04243757            4 
 1627000   0.98585704   -5.5686645    822.77435   0.04214169  0.042427593            3 
 1628000    1.0006102    -5.556017    823.61733  0.042158954  0.042417702            3 
 1629000     1.014649   -5.5455191    822.54564   0.04207825  0.042407834            5 
 1630000   0.99858912   -5.5450554      824.273  0.042140746  0.042397909            3 
 1631000   0.97940986   -5.5532029    823.93418  0.042097598  0.042387995            3 
 1632000   0.99062295   -5.5263725    823.78475  0.042064172  0.042378273            1 
 1633000   0.98755323   -5.5169787    826.52851   0.04217843  0.042368459            4 
 1634000   0.99819032    -5.551405    827.35946  0.042194995  0.042358595            5 
 1635000   0.99873432   -5.5409222     825.6983  0.042084521  0.042348713            1 
 1636000    1.0041609   -5.5370161    825.91345  0.042069756  0.042338968            2 
 1637000   0.97148803   -5.5459229    826.08466  0.042052772  0.042328894            5 
 1638000    0.9762285   -5.5122197     829.4378   0.04219769  0.042319025            2 
 1639000    1.0092869    -5.541499    827.29924  0.042063211  0.042309157            2 
 1640000    1.0120697    -5.535078    826.78527  0.042011446  0.042299308            5 
 1641000    0.9979247    -5.544592    827.82429  0.042038609  0.042289443            3 
 1642000   0.99202687   -5.5343247    829.53715  0.042099936  0.042279814            5 
 1643000   0.98587416   -5.5474477    830.46885  0.042121569   0.04227028            7 
 1644000   0.99794415   -5.5614594      826.192  0.041879157  0.042260693            5 
 1645000   0.98521681   -5.5406365    829.84208  0.042038606  0.042251055            2 
 1646000    1.0026852   -5.5563819     828.2047  0.041930169  0.042241401            3 
 1647000   0.96464565    -5.548548     830.1106  0.042001143  0.042231646            3 
 1648000   0.99821089   -5.5508964    828.12105  0.041875053  0.042221932            4 
 1649000   0.96950019   -5.5397947    831.62058   0.04202651  0.042212375            5 
 1650000   0.98706586   -5.5570935    831.26268  0.041982964  0.042202729            9 
 1651000   0.98667998   -5.6072748    831.25262  0.041957027  0.042193145            2 
 1652000    1.0061778   -5.5766594    832.74616   0.04200697   0.04218352            4 
 1653000    0.9951139   -5.5271765    833.05302  0.041997027  0.042173995            2 
 1654000   0.98526709   -5.5732128    832.62301   0.04194997  0.042164341            3 
 1655000   0.97533813   -5.5292702     833.5146  0.041969517  0.042154902            3 
 1656000   0.96772782   -5.5742152    831.93139  0.041864502  0.042145436            5 
 1657000   0.99154667   -5.5489752    835.42801  0.042015088  0.042135871            3 
 1658000    0.9903969   -5.5607178    833.29419  0.041882499  0.042126445            4 
 1659000    1.0012341   -5.5788928    835.61848  0.041974004  0.042117233            3 
 1660000    1.0022578   -5.5275102    836.54111  0.041995036  0.042107733            6 
 1661000   0.99919694   -5.5574919    834.26732  0.041855675   0.04209819            3 
 1662000   0.97916018   -5.5816536    838.48498  0.042041966  0.042088901            2 
 1663000   0.98826242   -5.5281264    837.53022  0.041968843  0.042079584            4 
 1664000   0.98097844   -5.5197648    839.04948  0.042019706  0.042070454            2 
 1665000   0.99216062   -5.5557963    837.68255  0.041926054  0.042061243            5 
 1666000   0.97011706   -5.5209369      839.181   0.04197584  0.042052057            5 
 1667000   0.97981646   -5.5516815    840.10372  0.041996787  0.042042974            4 
 1668000   0.97825193   -5.5600669    841.59408  0.042046067  0.042033947            2 
 1669000   0.99396706   -5.5590019    839.82344  0.041932466  0.042025083            2 
 1670000   0.98721389   -5.5379959    840.37493  0.041934877  0.042016014            5 
 1671000   0.98669051   -5.5508874    842.64936  0.042023208  0.042007099            6 
 1672000    0.9791772   -5.5267327     838.4031  0.041786438  0.041998172            6 
 1673000   0.97127726    -5.527842    843.40599  0.042010659  0.041989219            3 
 1674000   0.97640411   -5.5774931    843.58124  0.041994287  0.041980342            3 
 1675000   0.97386907   -5.5498815    844.95099  0.042037363  0.041971563            4 
 1676000    0.9769275    -5.584759    842.83327  0.041906984  0.041962677            7 
 1677000   0.95762033   -5.6010903    846.36199  0.042057344  0.041953656            4 
 1678000   0.98485037   -5.5757328    843.92629  0.041911317  0.041944778            3 
 1679000   0.97858865   -5.5768621    846.57391  0.042017764  0.041935732            4 
 1680000   0.98147678   -5.5840044    844.12891  0.041871473  0.041926684            2 
 1681000   0.99673832    -5.561204    842.82728  0.041782038  0.041917683            8 
 1682000   0.97858885   -5.5669256    843.62989  0.041796962  0.041908835            5 
 1683000    1.0009568   -5.5751508    846.23488  0.041901113  0.041900218            6 
 1684000   0.97060101   -5.5857367    846.27786  0.041878358  0.041891407            3 
 1685000   0.97798368   -5.5407194    849.08118  0.041992145  0.041882754            2 
 1686000   0.98944793   -5.5350759    848.34167  0.041930687   0.04187426            2 
 1687000   0.98613524   -5.5769536    846.74949  0.041827183  0.041865601            2 
 1688000   0.99512742   -5.5483434    851.55937  0.042039858  0.041856883            4 
 1689000   0.97386275   -5.5578892    850.98103  0.041986433  0.041848098            8 
 1690000   0.99036113    -5.516735    853.08926  0.042065545   0.04183942            6 
 1691000   0.97611706   -5.5517237    849.48436  0.041863018  0.041830564            4 
 1692000   0.98031858   -5.5685125     850.1325  0.041870198  0.041821884            5 
 1693000   0.97944673   -5.5548057    851.46622  0.041911115  0.041812979            4 
 1694000   0.99998911   -5.5895315    849.97218  0.041812878  0.041804184            6 
 1695000   0.97366116   -5.5645373    849.03415  0.041742092  0.041795431            3 
 1696000   0.96826711   -5.5581535    852.09322  0.041867788  0.041786581            2 
 1697000   0.98264784   -5.5716425    847.95125   0.04163972  0.041777556            4 
 1698000    0.9688762   -5.5516287    850.10671  0.041720981  0.041768404            3 
 1699000   0.98030604   -5.5352847    852.84404  0.041830687  0.041759578            3 
 1700000   0.99903912   -5.5888764    848.64344  0.041600169  0.041750489            7 
 1701000   0.95415814   -5.5827672    849.84469  0.041634563  0.041741317            2 
 1702000    1.0030357   -5.5751024    849.63032  0.041599604  0.041731976            5 
 1703000   0.98874445   -5.5620424    852.22817  0.041702298  0.041722893            6 
 1704000   0.97888473   -5.5839713    850.79942  0.041607953  0.041713658            4 
 1705000   0.96549767   -5.5711028    847.97826  0.041445663  0.041704445            4 
 1706000   0.96784898   -5.5967429    851.33151  0.041585166   0.04169536            3 
 1707000   0.98499919   -5.5577426    852.39889  0.041612912  0.041686035            2 
 1708000   0.96758376   -5.5629745     852.1565  0.041576722   0.04167698            4 
 1709000   0.98173258   -5.5822787    850.30069  0.041461902  0.041667877            3 
 1710000   0.96117359   -5.5536034    854.15287  0.041625384  0.041658784            2 
 1711000   0.96555929   -5.5625189    853.72763  0.041580344  0.041649609            6 
 1712000   0.96602118   -5.5576232    852.36248  0.041489607  0.041640353            5 
 1713000   0.97473074   -5.5619995     855.0517  0.041596211  0.041631275            4 
 1714000   0.98253627   -5.5760609    856.19788  0.041627668  0.041622106            6 
 1715000   0.97804145   -5.5676014    852.99278  0.041447657  0.041613057            4 
 1716000   0.97646034   -5.5807345    852.08336  0.041379339  0.041604065            2 
 1717000   0.99320717   -5.5711143    857.16239  0.041601747  0.041594778            3 
 1718000   0.96318767   -5.5754823    854.84536  0.041465142  0.041585631            7 
 1719000    1.0014536   -5.5927392    855.46025  0.041470829  0.041576453            7 
 1720000   0.99039935   -5.6024092     856.3473  0.041489695  0.041567366            5 
 1721000   0.97816832   -5.5919712    854.45551  0.041373984  0.041558368            4 
 1722000   0.97108112   -5.5861156    859.22124  0.041580586  0.041549262            2 
 1723000   0.97570961   -5.5957541    855.47924  0.041375471  0.041540328            5 
 1724000    0.9660731   -5.5319744    861.62295  0.041648441  0.041531502            3 
 1725000    1.0006727   -5.5718148    857.95962  0.041447325  0.041522607            6 
 1726000    1.0023835   -5.5965076    856.64397   0.04135979  0.041513486            4 
 1727000   0.99329187   -5.6098558    858.34692  0.041418014  0.041504309            4 
 1728000   0.95608622   -5.5434677    861.35718  0.041539216  0.041495359            2 
 1729000   0.97381951   -5.5861094    857.68458  0.041338181  0.041486401            6 
 1730000   0.96717627   -5.5968888     862.0522  0.041524673  0.041477079            3 
 1731000   0.95636961   -5.5699695    860.19375  0.041411215  0.041468083            4 
 1732000   0.98339031   -5.5540782    861.34524  0.041442708  0.041458949            2 
 1733000   0.96897137   -5.5634957    860.18811  0.041363152  0.041449847            3 
 1734000   0.98911421   -5.5648463    860.50824  0.041354683  0.041440816            3 
 1735000   0.97333246   -5.6014864    858.28545  0.041224085  0.041431648            4 
 1736000   0.97527643   -5.5390967    861.44102  0.041351816  0.041422431            2 
 1737000   0.99742213   -5.5619008    862.68317  0.041387602  0.041413301            4 
 1738000     0.976498   -5.5921877    861.56852  0.041310343  0.041403977            5 
 1739000    0.9867222   -5.5594167      861.536   0.04128503   0.04139472            6 
 1740000   0.96068119   -5.5577512    859.13289  0.041146211  0.041385466            4 
 1741000   0.97487225   -5.5921432    862.61047  0.041289032    0.0413762            3 
 1742000   0.98305271   -5.6354542    860.07651  0.041144112   0.04136703            5 
 1743000   0.97031401   -5.5919197    862.83722  0.041252497  0.041357784            5 
 1744000   0.95819178   -5.5796635    861.70373  0.041174681  0.041348543            3 
 1745000   0.98804975   -5.5715172    866.33667  0.041372334  0.041339582            3 
 1746000   0.97531431   -5.5729402    866.02602  0.041333811    0.0413305            7 
 1747000   0.98142898   -5.6055983    861.91516   0.04111406   0.04132125            7 
 1748000   0.98448401    -5.575953    866.26454   0.04129789  0.041312168            8 
 1749000   0.98422568   -5.5795894    861.18059  0.041032046  0.041303058           10 
 1750000   0.96309822    -5.584717    863.84395  0.041135426  0.041293802            4 
 1751000   0.97915062   -5.5752406    864.25602  0.041131545  0.041284495            4 
 1752000   0.95295904   -5.6089272    864.74753  0.041131447  0.041275036           15 
 1753000   0.95653635   -5.5642381    868.08828  0.041266794  0.041265747            4 
 1754000   0.97596649   -5.5845481    866.04237  0.041146064  0.041256563            5 
 1755000    0.9906636   -5.5691655    870.18883  0.041319508  0.041247392            4 
 1756000   0.97557442   -5.5685641    869.34159   0.04125577  0.041238064            6 
 1757000   0.96173819   -5.5838477    865.51225  0.041050666  0.041228815            4 
 1758000   0.97678844   -5.5990075    865.41039  0.041022487  0.041219288            4 
 1759000   0.96416543   -5.5696316    867.26141  0.041086858  0.041209866            3 
 1760000   0.98338659   -5.5967792    866.51931  0.041028376  0.041200688            3 
 1761000   0.95350578    -5.600151    864.54104  0.040911463  0.041191382            6 
 1762000   0.94714901   -5.5619091    869.35774  0.041116049  0.041182207            2 
 1763000   0.94303941   -5.5809849    867.96374  0.041026836  0.041172891            3 
 1764000   0.97538323   -5.5821382    867.59556  0.040986185  0.041163674            2 
 1765000   0.97743961   -5.6017721    870.13498   0.04108286  0.041154423            3 
 1766000   0.97476321   -5.6078389    869.36702  0.041023359  0.041145135            3 
 1767000   0.95774748   -5.6024613    868.06333  0.040938659  0.041135786            3 
 1768000   0.97309294   -5.5811529    871.37934  0.041071801  0.041126659            3 
 1769000   0.95815204     -5.58928    869.01783  0.040937339  0.041117579            5 
 1770000   0.96622252    -5.577371    869.86539  0.040954114  0.041108358            3 
 1771000   0.98853595   -5.6025028    869.85228  0.040930373  0.041099291            5 
 1772000   0.94917788   -5.6423113    872.79332  0.041045585  0.041090124            7 
 1773000   0.97390006   -5.5940511    869.85131  0.040884156    0.0410809            8 
 1774000   0.94239215   -5.5767798    873.40631  0.041028105  0.041071748           13 
 1775000   0.96986988   -5.5822743    873.53315  0.041010946  0.041062559            2 
 1776000   0.96188931   -5.5616037    876.97314  0.041149265  0.041053455            4 
 1777000   0.96813355   -5.5553941    873.61808  0.040968771   0.04104441            2 
 1778000   0.95278541   -5.5822363    873.88004  0.040958007  0.041035249            3 
 1779000   0.97235579   -5.6073652    873.29148  0.040907414   0.04102613            4 
 1780000   0.96321704   -5.5983879    873.77122  0.040906892  0.041016759            3 
 1781000   0.93905106   -5.5848031    873.61144  0.040876448  0.041007397            4 
 1782000   0.96398589   -5.6068506    871.45681   0.04075275  0.040997881            2 
 1783000   0.96000264   -5.5725506    873.74128  0.040836665  0.040988573            3 
 1784000   0.96917164   -5.6031704    873.78966  0.040816034   0.04097933            4 
 1785000   0.97483527   -5.6176801    875.00079   0.04084971  0.040970009            7 
 1786000   0.96016239   -5.6442856    871.36728  0.040657301  0.040960568            4 
 1787000   0.96774569   -5.6319582    874.95577  0.040801892    0.0409509            2 
 1788000   0.94907404   -5.6210409    873.49923  0.040711187  0.040941486            6 
 1789000   0.95077753    -5.603052    875.26016  0.040770457  0.040932107            5 
 1790000   0.96086012   -5.6073229    878.42944  0.040895225   0.04092277            8 
 1791000   0.95879857    -5.597349    878.99432  0.040898675  0.040913386            3 
 1792000   0.97184417   -5.5743805    879.81217  0.040913884  0.040903978            3 
 1793000   0.97377127   -5.5838974     876.9023  0.040755824  0.040894721            2 
 1794000   0.97577126    -5.612126    876.60147  0.040719132  0.040885238            5 
 1795000   0.96126575   -5.6331674    874.04319  0.040577678  0.040875827            7 
 1796000   0.97217082   -5.5673229    879.22554  0.040795543  0.040866419            5 
 1797000   0.97454918   -5.6277886    876.21844  0.040633391   0.04085719            4 
 1798000   0.95676039   -5.6143291    879.89438  0.040781163  0.040847831            9 
 1799000   0.92217419   -5.5802729    879.39368  0.040735301  0.040838526            5 
 1800000    0.9641489   -5.6130505    876.17445  0.040563632  0.040829174            8 
 1801000   0.97761093   -5.6003827    878.64169   0.04065527  0.040819789            4 
 1802000   0.96348007   -5.6090685    881.06666  0.040744851  0.040810459            4 
 1803000   0.96508143    -5.602957    882.51679  0.040789277   0.04080128            6 
 1804000   0.97550769   -5.5859906    884.74354  0.040869528  0.040792245            6 
 1805000   0.95403749   -5.6134993    881.40437  0.040692723  0.040783147            4 
 1806000   0.97983455   -5.5953223    881.05495  0.040654067  0.040773774           10 
 1807000   0.95017619   -5.6151742    881.39192   0.04064711  0.040764466            5 
 1808000   0.95604489   -5.6253917    878.94479  0.040511836  0.040755178            5 
 1809000   0.95656087   -5.6185321    880.93941  0.040581325  0.040745943            4 
 1810000    1.0089813   -5.5781856    883.66014  0.040684168  0.040736697            7 
 1811000   0.95879783   -5.5637154    883.00228  0.040631432  0.040727497            4 
 1812000   0.95676071   -5.6263009    881.07556  0.040520399  0.040718068            6 
 1813000   0.95304152   -5.6134269    883.27121  0.040598971  0.040708638            5 
 1814000   0.94453478   -5.6137979    882.87696  0.040558479  0.040699276            6 
 1815000   0.93471865   -5.5681044    886.45438  0.040700385  0.040690192           10 
 1816000   0.94216089   -5.6433006    881.14822  0.040434482  0.040680713            2 
 1817000   0.96714558     -5.62687    885.44122  0.040609119  0.040671168            6 
 1818000   0.94269586   -5.6330994    883.70296  0.040507103  0.040661739            4 
 1819000   0.94360807   -5.6078673    885.61671  0.040572508  0.040652334           10 
 1820000    0.9747247   -5.6259127    886.44971  0.040588357  0.040643015            3 
 1821000   0.96965239   -5.6201353       883.53  0.040432455  0.040633773            2 
 1822000   0.95321243   -5.6323286    886.05873  0.040525921  0.040624394            8 
 1823000   0.97424773   -5.6255501    884.92026  0.040451648  0.040614975            3 
 1824000   0.93944719   -5.6225243    883.42809  0.040361298  0.040605434            6 
 1825000   0.94645739   -5.6229742    884.13366    0.0403714  0.040595959            5 
 1826000   0.96424004   -5.6079792    887.64303  0.040509448    0.0405867            5 
 1827000   0.97478177   -5.5834553    887.75189  0.040492241  0.040577373            4 
 1828000   0.97352375   -5.5822575     891.9668  0.040662236  0.040568085            6 
 1829000   0.97297734   -5.5868625    890.74381  0.040584281  0.040558892            4 
 1830000   0.95215957   -5.6171526    888.15234  0.040444096  0.040549701            7 
 1831000   0.95439534   -5.5778198     889.1413  0.040467017  0.040540401            6 
 1832000   0.95041231   -5.5837475    888.41291  0.040411796   0.04053143            4 
 1833000   0.96767836   -5.6092034    888.29107  0.040384209  0.040522255            5 
 1834000   0.97720542   -5.6282424    890.69211  0.040471288  0.040512886            8 
 1835000   0.92368878   -5.5926971    889.28628   0.04038539  0.040503566            5 
 1836000   0.95795281   -5.6222141    888.64441   0.04033426  0.040494242            5 
 1837000    0.9603944   -5.6312565     888.8669  0.040322396  0.040484867            4 
 1838000   0.95480679   -5.5857866    890.08454  0.040355665  0.040475441            7 
 1839000   0.96313802   -5.5461581    892.18222  0.040428775  0.040466254            5 
 1840000   0.95576849     -5.61561    887.11216  0.040177181  0.040456853            3 
 1841000   0.97013757   -5.5911438    892.68364  0.040407552  0.040447453            4 
 1842000   0.96620564   -5.5782491    893.01564  0.040400635   0.04043796            5 
 1843000   0.94274007   -5.6195955    888.57922  0.040178116  0.040428621            3 
 1844000   0.98395219   -5.6378638    891.58926  0.040292356  0.040419199            4 
 1845000   0.96701843   -5.6020987    894.21585  0.040389153  0.040409793            3 
 1846000   0.94875971   -5.5979832    890.59185  0.040203677  0.040400387            3 
 1847000   0.94126724   -5.6260041    892.16641  0.040252951  0.040390823            5 
 1848000   0.96687783   -5.6156533    893.30553  0.040282537  0.040381176            5 
 1849000   0.95903376   -5.6080559    891.08792  0.040160804  0.040371638            5 
 1850000    0.9539652   -5.6386377    891.97738  0.040179161  0.040362238            9 
 1851000   0.97420425   -5.6378926    891.79449  0.040149221  0.040352437            3 
 1852000   0.95724355   -5.6228883    888.82813  0.039994066  0.040342934            6 
 1853000   0.95971995    -5.617891    893.18323  0.040168341  0.040333405            3 
 1854000   0.96621489   -5.6553256    891.25271  0.040059902  0.040323888            3 
 1855000   0.95683867   -5.6332538    892.55274  0.040096709  0.040314118            3 
 1856000   0.96309002   -5.6310795    893.40389  0.040113321  0.040304425           16 
 1857000   0.96395151   -5.6402406    891.47464  0.040005144  0.040294768            3 
 1858000   0.95133732   -5.6338509    893.72043  0.040084339  0.040285224            2 
 1859000   0.94279844    -5.617014    891.92471   0.03998228  0.040275582            3 
 1860000   0.95505165   -5.6408937     893.9098  0.040049722  0.040265885            4 
 1861000   0.94378759   -5.6492768       895.05  0.040079258   0.04025637            2 
 1862000   0.97712959   -5.6467269    896.10501   0.04010495  0.040246918            7 
 1863000   0.95440572   -5.6487031    895.65359  0.040063231   0.04023737            4 
 1864000   0.98284628   -5.6257533    897.38377  0.040119089  0.040227814            3 
 1865000   0.96158572    -5.632099    897.36324   0.04009666  0.040218461            3 
 1866000   0.93609011   -5.6297881    897.67577  0.040089129  0.040208948            5 
 1867000   0.95265534   -5.6191363     897.7272  0.040069952    0.0401994            3 
 1868000   0.95950061   -5.6413206    896.04987  0.039973674  0.040190085            9 
 1869000   0.95624287   -5.6292242    900.37002  0.040144909  0.040180785            4 
 1870000   0.96133072    -5.617379    898.82045  0.040054387  0.040171469            4 
 1871000   0.95018571   -5.6278848    900.18561  0.040093783  0.040162231            6 
 1872000    0.9731146    -5.607518    900.45274  0.040084256   0.04015293            6 
 1873000     0.942247   -5.6217615    900.52451  0.040066049  0.040143785            5 
 1874000   0.92220922   -5.6172391     902.8531  0.040148217  0.040134592            5 
 1875000   0.96033246   -5.6337671    900.85431  0.040037969   0.04012549            4 
 1876000   0.97201313   -5.6358814    901.86453  0.040061502  0.040116472            2 
 1877000   0.96045827    -5.624425    903.67732  0.040120641  0.040107409            5 
 1878000   0.95071084   -5.6143374    905.01509  0.040158639  0.040098242            5 
 1879000   0.95803445   -5.6358335    902.36816  0.040019876  0.040089081            6 
 1880000   0.94910458   -5.6280345    900.95304  0.039935862  0.040080045            5 
 1881000   0.96162858   -5.6301103    903.61799  0.040032695  0.040070948            5 
 1882000   0.95993495   -5.5945114     904.5158  0.040051178  0.040061913            5 
 1883000   0.93415215    -5.620924    903.64829  0.039991516  0.040052824            2 
 1884000    0.9584709    -5.657855    905.73133  0.040062426   0.04004368            5 
 1885000   0.95399267    -5.642052    903.62097  0.039947877  0.040034501            7 
 1886000   0.96555623   -5.6696785    904.37669  0.039960087   0.04002531            4 
 1887000   0.95200963   -5.6445291    902.87697   0.03987268  0.040016104            2 
 1888000   0.94501722     -5.64022    904.30168  0.039914446  0.040006815            3 
 1889000   0.95395343   -5.6323803    905.51439  0.039946814  0.039997585            6 
 1890000   0.94246343   -5.6569395    905.19938  0.039911789  0.039988264            8 
 1891000   0.93561076   -5.6248242    904.91273  0.039878051  0.039978933            3 
 1892000   0.94580781   -5.6236299     906.9851  0.039948251  0.039969839            6 
 1893000   0.94054763   -5.6282762    907.79286  0.039962707  0.039960628            3 
 1894000   0.95211099   -5.6631645     905.1977  0.039827424  0.039951542            3 
 1895000   0.96853933    -5.632425    907.88887  0.039924753  0.039942415            2 
 1896000   0.97244433   -5.6246011    905.20845  0.039785885  0.039933252            3 
 1897000   0.94397107   -5.6560652    904.57325  0.039737008  0.039924021            5 
 1898000   0.93981404   -5.5973109    909.38372   0.03992728  0.039914715            3 
 1899000   0.94910198   -5.6065852    906.61402  0.039784712  0.039905379            3 
 1900000   0.95753519   -5.6295319    907.59348  0.039806732  0.039896049            4 
 1901000   0.94260517   -5.6394536    906.53909  0.039739571  0.039886626            5 
 1902000   0.94872701   -5.6243482    907.87289  0.039777116  0.039877213            7 
 1903000   0.95897542   -5.6395513    905.87619  0.039668777  0.039867865            4 
 1904000   0.92451929   -5.6389221    909.44411  0.039804102  0.039858358           12 
 1905000   0.93594801   -5.6412679    910.50353  0.039829551   0.03984914            4 
 1906000   0.93844208    -5.613083    911.01689  0.039831099  0.039839868            4 
 1907000    0.9700653   -5.6322462    909.66217  0.039751012  0.039830794            3 
 1908000   0.96284834   -5.6089585    912.19897  0.039840975  0.039821651            6 
 1909000   0.95197292   -5.6496817    910.77906  0.039758122  0.039812413            5 
 1910000   0.95155085     -5.62819    910.37051  0.039719481  0.039803239            5 
 1911000   0.96626075    -5.616665    910.14612  0.039688912  0.039794111            5 
 1912000   0.94635384   -5.6221974    912.50019  0.039770754  0.039784981            4 
 1913000   0.95363388   -5.6504679    912.72026  0.039759551  0.039775857            5 
 1914000   0.95252345   -5.6358685    913.11637  0.039756024  0.039766661            3 
 1915000   0.94983828   -5.6550819    912.85465  0.039723875  0.039757375            3 
 1916000   0.96060334    -5.659809    908.99031  0.039535069  0.039748084            4 
 1917000    0.9264063   -5.6645805    910.04056  0.039560101  0.039738745            3 
 1918000   0.93298474   -5.6460965    911.46683  0.039601444  0.039729401            4 
 1919000   0.93693598   -5.6205245    913.15122  0.039653953  0.039720102            3 
 1920000   0.93420705   -5.6673807    913.17984  0.039634542  0.039710916            4 
 1921000   0.95414763   -5.6361475    913.13022  0.039611757  0.039701596            5 
 1922000   0.94776091   -5.6393581    914.12049  0.039634083  0.039692453            5 
 1923000   0.94088143   -5.6188355    914.01107  0.039608731  0.039683392            7 
 1924000   0.96191162   -5.6642924    913.31252  0.039557888  0.039674121           10 
 1925000   0.97122989   -5.6847901    914.97922   0.03960949   0.03966468            3 
 1926000    0.9503069   -5.6580408    912.41831   0.03947812  0.039655403            7 
 1927000   0.95046127   -5.6328266    915.15661  0.039576051  0.039646097            2 
 1928000   0.94736369    -5.635207    918.74448  0.039710602  0.039636813            7 
 1929000   0.95332599   -5.6711513    911.38326  0.039372009  0.039627461            2 
 1930000   0.96015958   -5.6587695    915.84819  0.039544395  0.039618065            5 
 1931000   0.96004068   -5.6330945    915.36597  0.039503106   0.03960858           11 
 1932000   0.94536973   -5.6779986    912.42592  0.039355845  0.039599082            6 
 1933000   0.92540439   -5.6651503    910.37158  0.039246921  0.039589619            7 
 1934000   0.94276713   -5.6953767    912.65018  0.039324809  0.039580018           11 
 1935000   0.93877632   -5.6168146    918.12587  0.039540305  0.039570584            3 
 1936000    0.9209139   -5.7131675    917.21074   0.03948049  0.039561235            5 
 1937000   0.95685404   -5.6694593    916.20272  0.039416741  0.039551953            2 
 1938000   0.94372008   -5.6552783    915.79471  0.039378857  0.039542633            3 
 1939000   0.96448865    -5.639089     916.3932   0.03938427  0.039533532            4 
 1940000   0.94040277   -5.6750127    918.44324  0.039452029  0.039524342           12 
 1941000   0.94840389   -5.6700842    918.63868  0.039440094  0.039515197            3 
 1942000   0.96137538   -5.6261057    921.20072  0.039529725  0.039505922            7 
 1943000   0.95094649   -5.6771489     920.2983  0.039470677  0.039496675            5 
 1944000   0.94771338   -5.6448191    921.43295  0.039499012  0.039487348            4 
 1945000   0.94389292   -5.6555149     922.1372  0.039508877  0.039478049            6 
 1946000   0.94191871    -5.644062     916.1134  0.039230618  0.039468656            7 
 1947000   0.93732602   -5.6619278    916.67752  0.039234614  0.039459349            3 
 1948000   0.93928278   -5.6540483    919.18928  0.039321923  0.039449934            7 
 1949000   0.95026863   -5.6491159    916.99581  0.039207962  0.039440522            6 
 1950000   0.92396474   -5.6640727    917.90502   0.03922671  0.039430941            3 
 1951000   0.94243844   -5.6855364    917.04226  0.039169753  0.039421553            7 
 1952000   0.96701866   -5.6321579    919.60676  0.039259168  0.039412091            3 
 1953000   0.95873682   -5.6721255    919.76907  0.039245992  0.039402771            6 
 1954000     0.929536   -5.6567854    922.55478  0.039344711  0.039393504            3 
 1955000    0.9321558   -5.6874758    918.29654  0.039143075  0.039384149            4 
 1956000   0.93946926   -5.6341678    923.66604  0.039351825  0.039374797            6 
 1957000   0.93971968   -5.7177702    918.56985   0.03911471  0.039365459           13 
 1958000    0.9390606   -5.6400253    926.92894    0.0394505  0.039356237            5 
 1959000   0.92603742   -5.6423441    924.01903  0.039306578   0.03934712            4 
 1960000   0.93525299   -5.6419164    923.36509   0.03925872   0.03933803            4 
 1961000   0.92267527   -5.6336661    926.53128  0.039373248  0.039328975            4 
 1962000   0.94535415   -5.6429103    928.05328  0.039417825  0.039319827            3 
 1963000   0.94781976   -5.6413657    925.31374  0.039281446  0.039310788            3 
 1964000   0.95059148   -5.6379872    928.37033  0.039391138   0.03930165            6 
 1965000   0.95565297   -5.6447429    927.87171  0.039349945  0.039292643            8 
 1966000   0.92435981    -5.685014    926.79999  0.039284503  0.039283473            4 
 1967000   0.93481984   -5.6724837    923.50713  0.039125027  0.039274311            7 
 1968000   0.92659942   -5.6976768    922.44297  0.039060085   0.03926509            8 
 1969000    0.9307434   -5.6611592    925.88393  0.039185878  0.039255735            4 
 1970000   0.92945365   -5.6851684    924.18828  0.039094259  0.039246383           12 
 1971000   0.92632571   -5.6933267    927.37441  0.039209133  0.039237059            4 
 1972000   0.91359671   -5.6910943    923.93838  0.039044049  0.039227565            2 
 1973000   0.93342514   -5.6701534    925.76468  0.039101397  0.039218194            5 
 1974000   0.93142451   -5.6545974    924.57852  0.039031515  0.039208815            8 
 1975000   0.94053789   -5.6493557    926.40964  0.039089014  0.039199469            6 
 1976000   0.92697502   -5.6562687     926.7378  0.039083072  0.039190258            3 
 1977000   0.93650383   -5.6332422    928.44917  0.039135439  0.039181068            5 
 1978000   0.91227864   -5.6679489    926.55133  0.039035698  0.039171654            6 
 1979000   0.93529458    -5.673819    926.22946  0.039002419  0.039162299            3 
 1980000   0.90476937   -5.6362178    927.22972   0.03902482  0.039152945            4 
 1981000   0.94573904   -5.6439222     928.3238  0.039051144  0.039143568            4 
 1982000   0.92209523   -5.6782601    927.60282  0.039001128  0.039134251            8 
 1983000   0.92205251   -5.6863637    928.41422  0.039015558  0.039124924            4 
 1984000   0.94384698   -5.6996993    929.69375  0.039049637   0.03911549            4 
 1985000   0.92051204    -5.648967    928.47239   0.03897869  0.039106169            6 
 1986000   0.94371473   -5.7016914     928.2505  0.038949753  0.039096834            4 
 1987000   0.91643168   -5.6590081    930.43953  0.039021956  0.039087503            4 
 1988000   0.93727095   -5.6773114    931.08958  0.039029577  0.039078326           11 
 1989000   0.95286809   -5.6583697     933.6031  0.039115263  0.039069116            2 
 1990000   0.92858235   -5.6741767    930.49949   0.03896564  0.039059942            4 
 1991000   0.92085878   -5.6693733    930.22645  0.038934641  0.039050611            6 
 1992000    0.9492319   -5.6429594    932.32021  0.039002686  0.039041412            5 
 1993000    0.9286071   -5.6507158    929.49375  0.038864934  0.039032075            3 
 1994000   0.94030499   -5.7077106    929.78434  0.038857587   0.03902258            4 
 1995000   0.93452569   -5.6530761    930.99398  0.038888637  0.039013318            6 
 1996000   0.92740314   -5.7016548    931.16805  0.038876422    0.0390041            4 
 1997000   0.91491191   -5.6733385    934.31778   0.03898839  0.038994845            3 
 1998000   0.92547412   -5.6943799     929.9377   0.03878619  0.038985621            4 
 1999000   0.92515729    -5.649178    935.38494  0.038993869  0.038976457            6 
 2000000   0.93375164   -5.6269325    936.31063  0.039012943  0.038967438            5 
 2001000   0.93717987   -5.6768444    935.06098  0.038941403  0.038958259            6 
 2002000   0.91531776   -5.6760841     932.6232   0.03882048  0.038949012            5 
 2003000   0.94419825   -5.6787646    933.26977  0.038827998  0.038939852            3 
 2004000   0.95053529   -5.6706308    934.95502  0.038878702  0.038930634            4 
 2005000   0.93039343   -5.6794892    933.19134  0.038786007  0.038921216            7 
 2006000    0.9152195   -5.6784352    935.77839  0.038874144  0.038911885            4 
 2007000   0.93594473   -5.6543563    934.77359  0.038813054  0.038902629            6 
 2008000   0.93267029   -5.6748939     936.8744   0.03888091  0.038893469           11 
 2009000   0.92402958   -5.6894577    933.35672  0.038715643  0.038884227            3 
 2010000   0.91583169    -5.707281    931.25594  0.038609284  0.038874936            7 
 2011000   0.92954903   -5.6677373    938.65958  0.038896883  0.038865773            7 
 2012000   0.93634686   -5.7102213    935.49487  0.038746474  0.038856634            4 
 2013000   0.93134026   -5.6519006    940.50359  0.038934575  0.038847632            5 
 2014000     0.936144   -5.6480385    940.15769  0.038900931  0.038838676            4 
 2015000   0.94875365    -5.683915    937.69835  0.038779915  0.038829673            4 
 2016000    0.9227962   -5.7039956    939.61701  0.038839989  0.038820746            2 
 2017000   0.92821355   -5.6740899    939.68536  0.038823556  0.038811842            6 
 2018000    0.9143547   -5.6516332     944.2279  0.038991902  0.038802943            5 
 2019000   0.90371399   -5.6866294    938.99656  0.038756668  0.038793926            6 
 2020000   0.94364434   -5.6686717    939.55877  0.038760675  0.038784873            2 
 2021000   0.92215046    -5.682587    945.18985  0.038973687  0.038775965            5 
 2022000   0.95012284   -5.7228121    940.29935  0.038752858   0.03876707            4 
 2023000   0.90300364   -5.6324732    947.20501  0.039018166  0.038758422            4 
 2024000   0.95295577   -5.6858248    943.08165  0.038829119  0.038749751            4 
 2025000    0.9279419   -5.6772178    942.72123  0.038795112  0.038741014            4 
 2026000   0.93359262   -5.6521006      946.911  0.038948297  0.038732223            3 
 2027000   0.90396548   -5.6521874    943.62749  0.038794092  0.038723515            4 
 2028000   0.95161934    -5.687029      944.005  0.038790475  0.038714799            5 
 2029000    0.9126622    -5.669847    945.49584  0.038832587  0.038706008            6 
 2030000   0.92433929   -5.6646622    943.65999  0.038738095  0.038697207            2 
 2031000   0.97000386   -5.6931978    945.71737  0.038803437  0.038688616            5 
 2032000   0.91996286   -5.7023385    943.12773  0.038678139  0.038679896            3 
 2033000   0.92518482   -5.6709749    945.13088  0.038741223  0.038671119            3 
 2034000   0.90240209   -5.7013254    944.04707  0.038677773  0.038662248            5 
 2035000   0.93319106   -5.6711685     945.3687  0.038712887  0.038653391            4 
 2036000   0.91849677   -5.6838243    948.69524  0.038830028  0.038644525            3 
 2037000   0.93048577   -5.6641298    947.00906  0.038741984  0.038635824            6 
 2038000   0.92495572   -5.6985253    945.37345  0.038656094  0.038627217            7 
 2039000   0.93001755   -5.7011787    949.41147  0.038802169  0.038618462            6 
 2040000   0.90428088   -5.6929722    947.27698  0.038695955  0.038609807            4 
 2041000    0.9248926   -5.6766766    948.72048  0.038735933  0.038601025            4 
 2042000   0.90809833   -5.6983553    946.20677   0.03861438  0.038592383            5 
 2043000   0.94157244   -5.7035419    946.46508  0.038606016  0.038583559            8 
 2044000   0.89955989   -5.7229736    948.35826  0.038664313  0.038574847            5 
 2045000   0.93990936   -5.6675916    947.36627  0.038604983  0.038566108            4 
 2046000   0.93469202   -5.6384906    951.26363  0.038744853  0.038557485            4 
 2047000   0.90817009   -5.7263541    949.52179  0.038655015  0.038548713            5 
 2048000   0.91868723   -5.7097951    947.04697   0.03853544  0.038539918            3 
 2049000   0.94352928   -5.6806965     950.9792  0.038676558  0.038531188            3 
 2050000   0.90446216   -5.6802053    952.16131  0.038705744  0.038522577            5 
 2051000   0.91928626   -5.7045896    948.74298  0.038547984  0.038513945            6 
 2052000   0.93064015   -5.6778473    951.13497  0.038626339   0.03850522            7 
 2053000   0.92970773   -5.6811784    950.02211  0.038562352   0.03849636            2 
 2054000   0.90779453    -5.683329    950.93736  0.038580711  0.038487653            3 
 2055000   0.92436105   -5.6988547    951.40816  0.038581028  0.038478758            6 
 2056000    0.9289503   -5.7308818    949.18789  0.038472272  0.038469852            6 
 2057000    0.9176852   -5.6981992     951.3084  0.038539475  0.038461126            4 
 2058000    0.9242651   -5.6820567    950.30355  0.038480059  0.038452374            6 
 2059000   0.92558646   -5.6704087    951.56593  0.038512463  0.038443553            7 
 2060000   0.91993365   -5.7181122    952.57492  0.038534584  0.038434714            3 
 2061000   0.93966022   -5.6919821    951.63938   0.03847806  0.038425864            4 
 2062000   0.93601046   -5.7284976    950.52253  0.038414263  0.038416966            3 
 2063000   0.92507122   -5.7115492      951.252  0.038425109  0.038408096            5 
 2064000   0.90797318   -5.6812439    952.82462  0.038469986  0.038399218            5 
 2065000   0.92441175   -5.6661033    952.78448  0.038449737  0.038390393            3 
 2066000   0.89239485   -5.6762211    954.16593  0.038486848  0.038381549            3 
 2067000   0.92611845   -5.7148069    952.01668  0.038381579  0.038372766            3 
 2068000   0.93266516   -5.7058762    953.11208   0.03840716  0.038364016            3 
 2069000   0.90062263   -5.6981383    955.06653  0.038467316  0.038355346            3 
 2070000   0.91956074   -5.6456811    959.71329  0.038635801  0.038346882            5 
 2071000   0.90344874   -5.7223843    954.51381  0.038407927  0.038338168            3 
 2072000   0.93704583   -5.7223949     953.4961   0.03834846  0.038329324            8 
 2073000   0.93097073   -5.7275391     953.7539  0.038340324  0.038320378            4 
 2074000   0.93278699    -5.726713    953.72081  0.038320508   0.03831146            8 
 2075000   0.90647287   -5.7317907    956.14945  0.038399576  0.038302436            5 
 2076000   0.88928794   -5.7354366     951.6901  0.038202075   0.03829346            5 
 2077000   0.92020333   -5.7101873    956.33731  0.038370138  0.038284516            5 
 2078000    0.9026489   -5.7281905    955.46465  0.038316677  0.038275613            8 
 2079000   0.90867448   -5.6973976     955.1253  0.038284644  0.038266689            6 
 2080000   0.90608589    -5.683449    955.16929     0.038268  0.038257831            7 
 2081000   0.91809395   -5.7173514    955.17676   0.03824991   0.03824902            3 
 2082000   0.90761208   -5.7466107     958.9572  0.038382853  0.038240202            5 
 2083000   0.90052636   -5.6757448     959.6674  0.038392839  0.038231426            6 
 2084000   0.92625418   -5.6843693    959.86333  0.038382251  0.038222903            4 
 2085000    0.9274602   -5.7076707    958.83557  0.038322765  0.038214132            8 
 2086000   0.90958143   -5.6822052    961.23894  0.038400405  0.038205447            7 
 2087000   0.88518908    -5.708665    957.21843  0.038221468  0.038196655            8 
 2088000   0.90362868   -5.6735288    959.04799  0.038276181  0.038187866            7 
 2089000   0.92149814   -5.7152144    958.45586  0.038234237  0.038179184            5 
 2090000   0.91421377   -5.7353697    956.94275  0.038155612  0.038170366           10 
 2091000   0.90523054   -5.6925204     961.4618  0.038317464  0.038161544           11 
 2092000   0.92061828    -5.703647    958.73132  0.038190381  0.038152654            5 
 2093000   0.90786867   -5.6921317    963.65803  0.038368292   0.03814381            3 
 2094000   0.92309244    -5.685474    958.51894  0.038145453  0.038135089            3 
 2095000   0.93957687   -5.7232705    962.11167  0.038270154  0.038126297            5 
 2096000   0.90699563   -5.6782189    960.90103  0.038203762  0.038117429            4 
 2097000   0.92424559   -5.7031873    958.62364  0.038095042  0.038108595            5 
 2098000   0.91573916   -5.6935414    962.23247  0.038220228  0.038099796            4 
 2099000   0.92975803   -5.7333726    959.30215  0.038085682  0.038091084            4 
 2100000   0.92704345   -5.7022857    960.87392  0.038129918  0.038082228            5 
 2101000   0.92143179   -5.6903146    962.02498  0.038157424  0.038073329            4 
 2102000   0.92621738   -5.6924717    963.59576  0.038201545  0.038064663            4 
 2103000   0.90616818   -5.7016739    962.96361   0.03815833  0.038055921            5 
 2104000   0.91789922   -5.7024578     961.6421  0.038087853  0.038047171            2 
 2105000   0.92394729   -5.7233894      962.667  0.038110333  0.038038406            3 
 2106000   0.91746911   -5.6834293    962.16148  0.038072233  0.038029645            4 
 2107000   0.92813326   -5.7174361    963.68288  0.038114336  0.038020711            3 
 2108000   0.92743293   -5.7275664    961.81599  0.038022454  0.038011866            6 
 2109000   0.91733679   -5.7072677    964.39887  0.038106483  0.038002856            3 
 2110000   0.91042667   -5.7020669    966.13426  0.038156961  0.037993996            6 
 2111000   0.92316872   -5.7266045    962.20133   0.03798363  0.037985022           11 
 2112000   0.92522555   -5.7362935    962.21949  0.037966362  0.037976002           10 
 2113000   0.90723963   -5.7646901    962.68108  0.037966599  0.037966987            6 
 2114000   0.89595591   -5.7252092    965.19418  0.038047705   0.03795798            3 
 2115000   0.92938759   -5.7001311    965.26873  0.038032653  0.037949041            5 
 2116000   0.93637419   -5.7389945    960.15762  0.037813391   0.03794011            5 
 2117000   0.92091099   -5.7355741    964.46536  0.037965099  0.037931173            4 
 2118000   0.92983534   -5.7397511    964.13919   0.03793434  0.037922211           11 
 2119000   0.93663476   -5.7136067     963.5093  0.037891667   0.03791328            6 
 2120000   0.92825308   -5.7360986    963.06901  0.037856486  0.037904372            4 
 2121000   0.94346025    -5.715754    966.39591   0.03796935  0.037895537            6 
 2122000   0.92292476   -5.7035932     967.7412  0.038004288  0.037886742            6 
 2123000   0.89395857   -5.7322948    963.64973  0.037825786   0.03787785            5 
 2124000   0.90667202   -5.6922932    964.83597  0.037854519  0.037868826            3 
 2125000   0.90186728   -5.7260051    969.18704  0.038007335  0.037859956           11 
 2126000    0.9018973    -5.744275    965.25131  0.037835188  0.037850923            4 
 2127000   0.91716272    -5.733384    967.70103  0.037913377  0.037842041            8 
 2128000   0.91285934   -5.7190039    968.87935  0.037941704  0.037833098            4 
 2129000   0.92241507   -5.6859475    971.85628  0.038040406   0.03782427            6 
 2130000   0.90682404   -5.6814027    970.17879  0.037956916  0.037815548            6 
 2131000   0.90534303   -5.7148356    966.63008  0.037800332  0.037806747            4 
 2132000   0.90495821   -5.7148956    968.51496  0.037856276  0.037797981            6 
 2133000    0.9062762   -5.7047562    971.57598  0.037958118  0.037789306            2 
 2134000   0.91296033   -5.6770502    974.29045  0.038046331  0.037780538            8 
 2135000   0.91847201   -5.7070791    972.27366  0.037949791  0.037771899            7 
 2136000   0.90626237   -5.7129497    972.39123  0.037936612  0.037763192            3 
 2137000   0.91505211   -5.7304129    969.13461  0.037791866  0.037754469            3 
 2138000   0.89843791   -5.7248399    972.55469  0.037907495  0.037745804            3 
 2139000   0.90183797   -5.7140117    968.86452  0.037746008  0.037737039            4 
 2140000   0.90285532   -5.7320277    970.00242   0.03777268  0.037728293            8 
 2141000   0.91946745     -5.74723    970.60313  0.037778418  0.037719473            6 
 2142000   0.91083588    -5.724702    976.51882  0.037990928  0.037710695            4 
 2143000   0.93065272   -5.7473062    973.54241  0.037857459  0.037702002            3 
 2144000   0.91617007   -5.7274032    971.64474  0.037766043  0.037693294            5 
 2145000   0.88621725   -5.7101907    971.73047  0.037751766  0.037684571            5 
 2146000   0.93234951   -5.7568127    971.92014   0.03774154  0.037675813            4 
 2147000   0.91887775    -5.730471    971.25331  0.037698079  0.037667117            7 
 2148000   0.89729544   -5.7360564    974.85111  0.037820108  0.037658335            8 
 2149000   0.93179118   -5.7408618    973.64035  0.037755559  0.037649609            4 
 2150000   0.91033582   -5.7213261    975.04528  0.037792453   0.03764086            4 
 2151000   0.89765556   -5.7028694    975.81411  0.037804669  0.037632205           11 
 2152000   0.92059943   -5.7199304    977.93757   0.03786933  0.037623577            3 
 2153000   0.89123188   -5.7284121    971.52993  0.037603728  0.037614954            8 
 2154000   0.90215912   -5.6942476    977.60076  0.037821138  0.037606342            3 
 2155000   0.90194252   -5.7158311    979.76711  0.037887359  0.037597926            4 
 2156000   0.90480799   -5.7141786    978.16162  0.037807731   0.03758937            6 
 2157000    0.9139242     -5.71797    974.90749  0.037664484  0.037580546            4 
 2158000   0.93095016   -5.7102694    977.26942  0.037738238   0.03757177            4 
 2159000   0.89064563   -5.7456868    973.97367  0.037593549  0.037562903            4 
 2160000   0.92601753   -5.7195818    980.21561   0.03781696  0.037554252            5 
 2161000   0.90598698    -5.725148    977.72536  0.037703431  0.037545595            4 
 2162000   0.88832795   -5.7147015     981.7078  0.037839493   0.03753688            4 
 2163000    0.8862019   -5.7311881    977.39052  0.037655668  0.037528138            5 
 2164000   0.87540364   -5.7138519    978.03655  0.037663145  0.037519283            8 
 2165000   0.91837837   -5.7420941    980.24623  0.037730802  0.037510534            2 
 2166000   0.90417549   -5.7093472    980.12988  0.037708906  0.037501912           15 
 2167000   0.92112179   -5.7399231    977.52624   0.03759138   0.03749317            6 
 2168000   0.90859139   -5.7288818    981.06394  0.037710022    0.0374845            8 
 2169000   0.91700277   -5.7497929    977.60508  0.037559746   0.03747589            5 
 2170000   0.90601995   -5.7372196    977.52219  0.037539254   0.03746728            5 
 2171000   0.89999613   -5.7550425    977.28481  0.037512851   0.03745856            5 
 2172000   0.91122691   -5.7006744    982.14332  0.037681987   0.03744985            4 
 2173000   0.91681008   -5.7255193    979.99576  0.037582289  0.037441352            5 
 2174000   0.91815419   -5.7188598    981.95086  0.037639944  0.037432792            4 
 2175000   0.89958681   -5.7288009    981.36533  0.037600204  0.037424156            4 
 2176000   0.90578445   -5.7364136    980.21948  0.037539042   0.03741553            5 
 2177000   0.89202345   -5.7547236    984.94922  0.037702849  0.037407048            4 
 2178000   0.90585968   -5.7594912    980.99378  0.037534197  0.037398578            8 
 2179000   0.92044475   -5.7373216    981.49002   0.03753595  0.037389939           10 
 2180000   0.88074689   -5.7637094    980.53967  0.037482403  0.037381391            6 
 2181000   0.91124226   -5.7311387      982.476  0.037539202  0.037372836            4 
 2182000   0.93156224   -5.7502459    981.27093  0.037475975  0.037364214            6 
 2183000   0.90523581   -5.7414825    982.30345  0.037498223  0.037355656            3 
 2184000   0.89990558   -5.7276989    982.67941  0.037495399  0.037347026            7 
 2185000   0.92076974   -5.7674238    979.24082  0.037347095  0.037338471            7 
 2186000   0.88618129   -5.7209708    987.11704  0.037630262   0.03732999            5 
 2187000   0.91073252   -5.7496858    980.48062  0.037360182  0.037321406            3 
 2188000   0.89546371   -5.7302923    981.89809  0.037397094  0.037312842            4 
 2189000   0.91909951   -5.7634581    982.79406  0.037414118  0.037304268            2 
 2190000   0.91547214   -5.7750525    983.62641  0.037428707  0.037295579            8 
 2191000   0.90301413   -5.7618756     983.4957  0.037406652  0.037287013            7 
 2192000   0.90322582   -5.7551467    982.04119  0.037334291   0.03727856            2 
 2193000   0.88916049   -5.7653564    985.11941  0.037434238  0.037270058            8 
 2194000   0.89770943   -5.7254071     986.5793  0.037472626  0.037261612            5 
 2195000   0.91361999   -5.7389307    986.17445  0.037440184  0.037253271            5 
 2196000   0.92115129   -5.7600901    988.15607  0.037498333  0.037244757            3 
 2197000   0.89540666   -5.7335869     990.3576   0.03756477  0.037236357            5 
 2198000   0.89121457   -5.7203756    986.77129  0.037411711  0.037227911            4 
 2199000   0.91756356   -5.7286528    986.81412  0.037396321  0.037219439            5 
 2200000   0.91169654   -5.7206338    989.00296  0.037462233  0.037210912            8 
 2201000   0.90316051   -5.7879449    986.25962  0.037341346  0.037202439            6 
 2202000    0.8782966    -5.751649    989.03795  0.037429532   0.03719391            4 
 2203000   0.89092149   -5.7623662    988.60956  0.037396337  0.037185463            5 
 2204000   0.91239423   -5.7385742    991.07674  0.037472654   0.03717723            7 
 2205000   0.90150789   -5.7245254    988.73905  0.037367311  0.037168952            5 
 2206000   0.88405434   -5.7621596    989.82638  0.037391447  0.037160588            8 
 2207000   0.88490726   -5.7578312    991.95379  0.037454833   0.03715231            4 
 2208000   0.88906394   -5.7491639    991.88747  0.037435366     0.037144            5 
 2209000   0.89021657   -5.7729411    994.03208  0.037499324    0.0371357            4 
 2210000   0.90819805   -5.7576793    993.14385  0.037448863  0.037127446            5 
 2211000   0.91610823   -5.7287827    991.22456  0.037359587  0.037119128            5 
 2212000   0.89445259   -5.7611288    991.98964   0.03737152  0.037110782            5 
 2213000   0.90753345    -5.764206    992.88876  0.037388491  0.037102476            6 
 2214000   0.90366079   -5.7409974    989.94213  0.037260695  0.037094137            6 
 2215000   0.91228117   -5.7646685    989.27435  0.037218749  0.037085846            7 
 2216000   0.90205703   -5.7799901    989.53811  0.037211872  0.037077581            7 
 2217000   0.90624602   -5.7757826    990.82168  0.037243335  0.037069336            7 
 2218000   0.89478803    -5.762462    992.52816  0.037290658  0.037060986            3 
 2219000   0.88903111   -5.7578949    992.11159  0.037258209  0.037052687            6 
 2220000   0.89981203    -5.732536    994.60962  0.037335196  0.037044414            5 
 2221000   0.88935613   -5.7384844    992.86169  0.037252803  0.037036119            3 
 2222000   0.90637698   -5.7677419    994.23821  0.037287662  0.037027677            8 
 2223000   0.88743929    -5.773226    990.38313  0.037126373  0.037019302            4 
 2224000   0.90518838   -5.7532076    993.43637  0.037224085  0.037010994            7 
 2225000   0.88838865   -5.7558116    994.65544  0.037253013  0.037002602           11 
 2226000   0.91025741   -5.7485635    993.30982  0.037185902  0.036994284            6 
 2227000   0.89259469   -5.7780598    994.26489  0.037204943  0.036985826            2 
 2228000   0.89467914   -5.7517968    993.14013  0.037146175  0.036977336            5 
 2229000    0.8827842   -5.7730816    993.22985  0.037132864  0.036968856            5 
 2230000   0.89709663   -5.7698904    993.41844   0.03712326  0.036960393            9 
 2231000   0.89034464   -5.7451075    995.02151  0.037166499  0.036951999            8 
 2232000   0.88676574   -5.7243011    995.38891  0.037163564  0.036943784            5 
 2233000   0.90432269   -5.7478263    998.25582  0.037253912  0.036935614            6 
 2234000   0.90928592   -5.7646868     997.3486  0.037203394  0.036927393            7 
 2235000   0.91637895   -5.7377981    996.87413  0.037169058   0.03691909            4 
 2236000   0.89776001   -5.7415286     996.6769  0.037145084  0.036910891            3 
 2237000   0.90982307     -5.74312    998.67294  0.037202836  0.036902677            5 
 2238000   0.90773094   -5.7635032    995.56648  0.037070542  0.036894289            4 
 2239000     0.891424   -5.7845946    996.55147  0.037090646  0.036885969            6 
 2240000   0.89317105   -5.7491216    995.67589  0.037041514  0.036877583            6 
 2241000   0.89224673   -5.7839468    996.75303  0.037065039  0.036869263            7 
 2242000   0.87866258   -5.7580594    999.26728  0.037141959  0.036860841            3 
 2243000   0.89578596   -5.7855016     995.6586  0.036991329  0.036852344            4 
 2244000   0.89938197   -5.7706136    998.89716  0.037095111  0.036843913            3 
 2245000     0.906799   -5.7589857    996.10838   0.03697507  0.036835533            6 
 2246000   0.88241558   -5.7420817    1002.4145  0.037192583  0.036827098            7 
 2247000   0.90754441   -5.7379091    1002.4797  0.037178449  0.036818849            3 
 2248000   0.89302778   -5.7585759    999.92492  0.037067205  0.036810689            4 
 2249000   0.91655182   -5.7624653     1000.885  0.037086299  0.036802436            4 
 2250000   0.88428788   -5.7877141    997.48996  0.036944073  0.036794111            6 
 2251000   0.89771306   -5.7609063    1000.8209  0.037050973  0.036785826            4 
 2252000   0.89020837   -5.7498531    1001.0296  0.037042243  0.036777566            8 
 2253000   0.89890022   -5.7809376    998.46659  0.036931003  0.036769188            6 
 2254000   0.87647704   -5.7849451    1000.6758  0.036996294  0.036760841           22 
 2255000   0.87794606   -5.7481875    1003.2618  0.037075454  0.036752599           11 
 2256000   0.89880428   -5.7957737    999.88131   0.03693415  0.036744272            9 
 2257000   0.89536612   -5.7228052    1005.2075   0.03711444  0.036736038            4 
 2258000   0.87648792   -5.7553402    1003.1559  0.037022288  0.036727718            8 
 2259000   0.89148603   -5.7660929    1002.9312  0.036997608  0.036719384            6 
 2260000   0.89151817   -5.7923001    1000.6222  0.036896099  0.036711008            5 
 2261000   0.88244563   -5.7765455    1001.1231  0.036898241  0.036702427            4 
 2262000   0.88475591   -5.7648695    1003.4115  0.036966236  0.036694086           11 
 2263000   0.90147635   -5.7726388    1001.6734  0.036885897  0.036685656            3 
 2264000   0.89095795   -5.7789597    999.86077  0.036802885  0.036677192            6 
 2265000   0.89970916   -5.7515123    1002.8566   0.03689686  0.036668726            5 
 2266000   0.88998566   -5.7512784    1003.7331   0.03691281  0.036660274            4 
 2267000   0.88648837   -5.7940652    1002.9857  0.036869054  0.036651771            6 
 2268000    0.8953836   -5.7658293    1003.2232  0.036861524  0.036643287            6 
 2269000   0.90388004   -5.7701697    1002.3259  0.036812323  0.036634794            5 
 2270000   0.88315057   -5.7813787    1002.3751  0.036797909  0.036626424            7 
 2271000    0.8736508   -5.7651654    1003.9228  0.036838501  0.036618098            4 
 2272000   0.86810393   -5.7411638    1004.1763  0.036831585  0.036609673            8 
 2273000   0.90381725   -5.7836051    1002.1646  0.036741627  0.036601251            6 
 2274000     0.904057   -5.7511728    1006.9783  0.036901871  0.036592922            4 
 2275000   0.87387231   -5.7767151    1003.0362  0.036741254  0.036584514            6 
 2276000   0.87386287   -5.7865831    1003.4473  0.036740161  0.036576008            4 
 2277000   0.88501256   -5.7690892    1003.2871  0.036718165  0.036567479            7 
 2278000   0.90626739   -5.7793483    1004.5427  0.036747979  0.036558939            7 
 2279000   0.90803365   -5.7967468    1004.8523  0.036743172  0.036550454            5 
 2280000   0.90245136   -5.8032075    1004.3759  0.036709644  0.036541999            8 
 2281000   0.88569578   -5.7571359     1005.891  0.036748905  0.036533565            2 
 2282000   0.89230989   -5.8038653    1004.4172  0.036678981  0.036525029            9 
 2283000   0.87341421   -5.7851828    1005.2889  0.036694734  0.036516498            4 
 2284000   0.90751133   -5.7872043    1002.0988  0.036562273  0.036507913            4 
 2285000   0.89526519   -5.8044837    1004.4434   0.03663178  0.036499305            5 
 2286000   0.88140053   -5.7659402    1008.3361  0.036757658  0.036490713            6 
 2287000   0.89147032   -5.8230641    999.25825  0.036410809  0.036482169            4 
 2288000   0.90015476    -5.792996    1006.7866  0.036669092  0.036473594            4 
 2289000   0.87228905   -5.7898068    1003.2798  0.036525405  0.036464968            8 
 2290000   0.89229097   -5.7561287    1008.9878  0.036717167  0.036456497            3 
 2291000    0.8780881   -5.8006946    1004.7539  0.036547137  0.036447977           10 
 2292000   0.88278338   -5.7929136    1007.8621    0.0366442  0.036439526            6 
 2293000   0.88436003   -5.7740352    1005.4503  0.036540569  0.036431042            4 
 2294000   0.87944065   -5.8036963    1004.9129  0.036505119  0.036422531            6 
 2295000   0.86891759    -5.781962    1009.6926  0.036662768  0.036413993            5 
 2296000   0.87636373   -5.7986603    1007.7101  0.036574843  0.036405462            9 
 2297000   0.88499171   -5.7823561    1008.1522   0.03657496  0.036397034            5 
 2298000   0.88283416   -5.7666875    1010.4967  0.036644064  0.036388553            3 
 2299000   0.87929141   -5.7674729    1008.6326  0.036560554  0.036380173            5 
 2300000   0.89413344   -5.8072989    1010.3817  0.036608034  0.036371727            3 
 2301000   0.88619302   -5.8161043    1007.5868  0.036490903  0.036363432            4 
 2302000    0.8753397   -5.8099768    1009.6223  0.036548737  0.036355042            7 
 2303000   0.88244193   -5.7904002    1007.3831  0.036451843  0.036346562            4 
 2304000   0.88165365   -5.8018512    1010.1097   0.03653464  0.036338125            6 
 2305000   0.89049227   -5.8001016    1008.3728  0.036455995   0.03632962            7 
 2306000   0.87243051   -5.7669174    1013.6643  0.036631406  0.036320999            6 
 2307000   0.87641095   -5.7607513    1009.7366  0.036473652  0.036312406            8 
 2308000   0.88585138   -5.7871884    1011.1592  0.036509213  0.036303921           19 
 2309000   0.87940369   -5.7919124    1011.4181  0.036502748  0.036295403            5 
 2310000   0.88727446   -5.7953265    1010.5179  0.036454469  0.036286883            6 
 2311000   0.89981516   -5.7957993    1011.4816  0.036473446  0.036278396            6 
 2312000   0.88459872   -5.7950153    1010.9043  0.036436863  0.036269957            2 
 2313000    0.8752413   -5.8195769    1013.1749  0.036502913  0.036261392            6 
 2314000   0.90389629   -5.7765315    1011.7663  0.036436414  0.036252977            5 
 2315000   0.85924124    -5.763077    1012.0311  0.036430206  0.036244625            6 
 2316000   0.89033679   -5.7708376     1012.236  0.036421849  0.036236361            4 
 2317000   0.88595652   -5.7934369    1012.8432  0.036427967  0.036228003            3 
 2318000   0.86829214   -5.7865779    1009.6942  0.036299045  0.036219517            4 
 2319000    0.8748185   -5.7772737    1016.1044   0.03651374  0.036211127            3 
 2320000   0.87127524   -5.7665171    1015.4487  0.036474452  0.036202874            8 
 2321000   0.88550026   -5.7962669    1013.4964  0.036388639  0.036194568           11 
 2322000   0.87732117    -5.814681    1012.7214  0.036345155  0.036186127            5 
 2323000   0.86817827   -5.7845337    1011.2489  0.036276686  0.036177671            3 
 2324000   0.89844025   -5.8105137    1011.7192  0.036277941  0.036169149            4 
 2325000   0.85272601   -5.8022586    1013.7763  0.036336068  0.036160706           12 
 2326000   0.88434438   -5.7818164    1015.1974   0.03637136  0.036152277            8 
 2327000   0.88129739   -5.7980135    1018.5542  0.036475941  0.036143881            9 
 2328000   0.87433147   -5.7770272    1017.8746  0.036435948  0.036135549            5 
 2329000   0.87357775   -5.7908585    1017.7389  0.036415448  0.036127236            4 
 2330000   0.88935692   -5.7709397    1019.5644  0.036465107  0.036118943            4 
 2331000   0.88790137   -5.7718663    1019.8375  0.036459227  0.036110776            5 
 2332000   0.86771641   -5.8318713    1017.4836  0.036359477  0.036102493           11 
 2333000   0.89588495   -5.7823434     1016.087  0.036294007  0.036094304            6 
 2334000   0.89108435   -5.7980953    1019.6913  0.036407145  0.036086046            4 
 2335000   0.88271558   -5.8511178     1015.812  0.036253104   0.03607781            9 
 2336000   0.88552626   -5.8214953    1018.7863   0.03634369  0.036069492            6 
 2337000   0.89137438   -5.7856587    1019.2611  0.036345069  0.036061267            7 
 2338000   0.87919341   -5.8032312     1018.823  0.036313908  0.036053076            7 
 2339000   0.87909783   -5.7832807    1021.4138  0.036390688  0.036044984            2 
 2340000   0.89807338   -5.7646268    1021.7568  0.036387352  0.036036731            5 
 2341000   0.86183602    -5.775632    1019.8653  0.036304474  0.036028466            3 
 2342000   0.88801943   -5.7773517    1019.4677  0.036274826  0.036020205            3 
 2343000   0.85900684   -5.8305499    1018.9112  0.036239551    0.0360119            4 
 2344000   0.85082639   -5.7971162    1018.8154  0.036220684  0.036003492            8 
 2345000   0.89056131   -5.8273342    1020.2498  0.036256212  0.035995138            4 
 2346000   0.86833156   -5.8092951    1015.9298  0.036087303  0.035986726            5 
 2347000   0.87135446   -5.8073203     1022.051  0.036289269  0.035978418            7 
 2348000   0.89092839   -5.8117541    1018.8741  0.036161061  0.035970102            4 
 2349000   0.86012037   -5.8026207    1021.8772  0.036252207  0.035961868            8 
 2350000   0.86774404   -5.8474339    1021.8872  0.036237135  0.035953496            5 
 2351000   0.88494776   -5.8360625     1018.326  0.036095493  0.035945141            5 
 2352000   0.87759376   -5.7941806    1023.3425  0.036257884  0.035936764            6 
 2353000   0.87324754   -5.8145943    1019.2372  0.036097083  0.035928443            5 
 2354000   0.87477312   -5.8145674    1021.7717  0.036171469  0.035920058            4 
 2355000   0.85794198   -5.7990597    1020.2138  0.036100985   0.03591163            3 
 2356000   0.87495439   -5.8389708    1020.2804  0.036088015  0.035903294            8 
 2357000   0.86836999   -5.7920455    1023.8552  0.036199096  0.035894969            4 
 2358000   0.86538302   -5.8184641    1023.2797  0.036163404    0.0358867            8 
 2359000   0.87569955   -5.7843565    1020.5912  0.036053101  0.035878322            2 
 2360000   0.86069311   -5.8182171    1024.5784  0.036178616  0.035870104            6 
 2361000   0.87565257   -5.7883347    1022.4886  0.036089532  0.035861766           11 
 2362000   0.86873013   -5.7859234     1026.281  0.036208052  0.035853533            2 
 2363000    0.8744243   -5.8317254    1024.7321  0.036138106  0.035845234            9 
 2364000   0.87515239   -5.8424487    1021.4853  0.036008364  0.035836984           15 
 2365000   0.88421953   -5.7883637    1025.5801  0.036137424  0.035828631            5 
 2366000   0.88232752   -5.8133351    1022.5362   0.03601494  0.035820334            5 
 2367000   0.88969729   -5.8076769    1026.4418  0.036137228  0.035812064            5 
 2368000   0.86611347   -5.8389895    1022.4896  0.035982881  0.035803732            7 
 2369000   0.88716021   -5.8335313    1025.5353  0.036074829  0.035795415            5 
 2370000   0.86183175   -5.7765272     1025.806  0.036069128  0.035787199            5 
 2371000   0.86611536   -5.7786138    1027.1266   0.03610033  0.035779002            4 
 2372000   0.85523252   -5.8555617    1023.1565  0.035945634  0.035770635           10 
 2373000   0.86332926    -5.804118    1027.8298    0.0360946  0.035762357            5 
 2374000   0.88674682   -5.7870725    1024.7849  0.035972511  0.035754037            7 
 2375000   0.87193684   -5.8126544    1025.6617   0.03598813  0.035745854            5 
 2376000   0.85101523   -5.8173151    1026.0791  0.035987623  0.035737526            5 
 2377000   0.87095516    -5.814584    1027.6036   0.03602593  0.035729311            4 
 2378000   0.86091361   -5.8386016    1025.8845  0.035950536  0.035721069            8 
 2379000   0.86923033   -5.8120622    1028.9049  0.036041226  0.035712866            4 
 2380000   0.88200368   -5.8058733    1027.9603  0.035993007  0.035704663            3 
 2381000   0.86397514   -5.8235032    1025.7247  0.035899645  0.035696451            7 
 2382000   0.86195622   -5.8156722    1026.4615   0.03591035  0.035688182            3 
 2383000   0.87472365   -5.8103933    1027.3766  0.035927284  0.035679825            4 
 2384000   0.84129156     -5.81317    1028.9258  0.035966366  0.035671554            7 
 2385000    0.8661625   -5.8409395    1026.9001  0.035880506  0.035663159            7 
 2386000   0.88369828   -5.8232105    1027.8012  0.035896941  0.035654757            6 
 2387000    0.8658129   -5.8312695    1027.0179  0.035854555  0.035646547            7 
 2388000   0.88125201   -5.7911409     1031.005  0.035978678  0.035638312            6 
 2389000   0.84947435    -5.824223    1028.9487   0.03589189  0.035630016            3 
 2390000   0.87004089   -5.8253474    1028.5171  0.035861825  0.035621716            4 
 2391000   0.86438435   -5.8074569    1029.3773  0.035876805  0.035613484            6 
 2392000   0.86735826    -5.819409    1030.0913  0.035886681  0.035605223            4 
 2393000   0.86312123   -5.8086542    1030.0295  0.035869534  0.035596925            7 
 2394000   0.86454552   -5.8560095    1029.1563  0.035824153  0.035588662            5 
 2395000   0.86541124    -5.827102    1027.8634  0.035764211  0.035580353            4 
 2396000   0.89598617   -5.8204674    1029.3346  0.035800453  0.035572061            6 
 2397000   0.87870661   -5.8249419     1033.868  0.035943124   0.03556376            7 
 2398000   0.87443487   -5.8269134    1029.7861  0.035786283   0.03555549            8 
 2399000   0.84675733   -5.8286773    1033.3864   0.03589643  0.035547172            4 
 2400000   0.87012419    -5.801214    1031.8025  0.035826475  0.035538879            6 
 2401000   0.88763881   -5.8024999    1031.5634  0.035803255  0.035530534            6 
 2402000   0.87619028   -5.8139651    1033.3911  0.035851759  0.035522291           14 
 2403000   0.88312862   -5.8102694    1033.7488  0.035849245  0.035514051            5 
 2404000   0.87206669   -5.8143348    1033.4471  0.035823873  0.035505834            4 
 2405000   0.87259956   -5.8013697    1037.0521  0.035933892  0.035497704            3 
 2406000   0.87556673   -5.8206648    1037.3339  0.035928716  0.035489511            2 
 2407000   0.86437117   -5.8408593    1031.5395  0.035713181  0.035481334            3 
 2408000   0.85806903     -5.85436    1033.6286  0.035770648  0.035473055            3 
 2409000   0.85602411   -5.8178769    1033.5138  0.035751828  0.035464852            8 
 2410000   0.87679055   -5.8043871    1035.9439  0.035821021  0.035456732            3 
 2411000   0.87281396   -5.7943827    1036.0286  0.035809091  0.035448552           13 
 2412000   0.87983238   -5.8235926    1035.4859  0.035775495  0.035440407            5 
 2413000   0.86766091   -5.8358977     1034.507  0.035726863  0.035432219            5 
 2414000   0.85390986   -5.8162005    1034.8286  0.035723162  0.035424152            5 
 2415000   0.85062996   -5.8263269    1039.0532  0.035854149  0.035416097            4 
 2416000   0.84403789   -5.7916237    1036.6258  0.035755582  0.035408103            3 
 2417000   0.85428288   -5.8181466     1035.999  0.035719176  0.035399964            4 
 2418000   0.87394576   -5.7939514    1036.9708  0.035737897  0.035391937            5 
 2419000   0.84730216   -5.8568703    1032.7861   0.03557896  0.035383782            8 
 2420000    0.8664335    -5.813806    1036.2118  0.035682224   0.03537563            6 
 2421000   0.85317173    -5.829587    1036.5878  0.035680427  0.035367555            5 
 2422000   0.87844339   -5.8312833    1035.2207  0.035618657   0.03535938            8 
 2423000   0.84753734    -5.817774    1037.0128  0.035665593  0.035351139            2 
 2424000   0.85474187   -5.8404285    1035.8855  0.035612124  0.035343041            9 
 2425000   0.85729918   -5.8421407    1035.7209  0.035591784  0.035334895            2 
 2426000   0.85349585   -5.8214709    1033.2707  0.035492947  0.035326681            4 
 2427000     0.869439   -5.8341685    1034.3916  0.035516809  0.035318497            6 
 2428000   0.85739207   -5.8178744    1035.4436   0.03553829  0.035310346            6 
 2429000   0.87681444   -5.8458517    1039.0169   0.03564625  0.035302202           11 
 2430000   0.86694285   -5.8651092    1034.6232  0.035480904  0.035294016           12 
 2431000   0.85692909   -5.8573313     1035.319  0.035490163  0.035285822            3 
 2432000   0.87009799   -5.8442918    1038.6007  0.035588016  0.035277526           10 
 2433000   0.86923277    -5.811222     1039.971  0.035620323   0.03526941           11 
 2434000   0.86411679   -5.8055389    1041.4021  0.035654688  0.035261288            4 
 2435000   0.86293016   -5.8237965    1040.7537  0.035617854  0.035253101            8 
 2436000   0.86908496   -5.8570785    1038.5407  0.035527529  0.035244855            5 
 2437000   0.85449422   -5.8089914    1040.2947  0.035572927  0.035236609            6 
 2438000   0.84222645   -5.8406784    1038.6313   0.03550148  0.035228469            5 
 2439000   0.85571738   -5.8070964    1037.6679  0.035454007  0.035220219            7 
 2440000    0.8470414   -5.8632521    1041.0538  0.035555115  0.035211924            3 
 2441000   0.86468728    -5.875863    1036.7877  0.035394909  0.035203666            9 
 2442000   0.86914167   -5.8288998    1039.1379  0.035460618  0.035195471            8 
 2443000   0.85393228   -5.8519634    1041.7961  0.035536776  0.035187287            4 
 2444000   0.86394281    -5.839645    1039.7822  0.035453567  0.035179067            5 
 2445000    0.8542579   -5.8510642     1038.874  0.035408111  0.035170835            5 
 2446000   0.87136196   -5.8507542    1038.0784  0.035366532  0.035162653            5 
 2447000   0.84541798   -5.8407791    1041.2529  0.035460185  0.035154397            6 
 2448000   0.86146867    -5.833274    1042.1236  0.035475339  0.035146198            6 
 2449000   0.87054354   -5.8584857    1039.5765  0.035374185  0.035137994            5 
 2450000   0.87475912   -5.8324721    1041.7519  0.035433738  0.035129747            4 
 2451000   0.84854074   -5.8366805    1038.1766  0.035297723  0.035121407            5 
 2452000   0.84803827    -5.867164    1039.6625  0.035333826  0.035113145            4 
 2453000   0.86509771   -5.7972476     1041.578  0.035384494  0.035104814            5 
 2454000   0.85934306   -5.8483514    1037.9964   0.03524845   0.03509662            4 
 2455000   0.88445655   -5.8390549    1038.6433  0.035256053  0.035088349            9 
 2456000   0.85003654    -5.835129    1042.7347   0.03538052  0.035080168           10 
 2457000    0.8646428   -5.8539719    1043.0679  0.035377421  0.035071889            9 
 2458000   0.85649398   -5.8567539    1040.9354  0.035290729  0.035063663            6 
 2459000   0.86917811   -5.8119556    1044.5737  0.035399677   0.03505546            4 
 2460000   0.86682882   -5.8557477    1041.9191  0.035295362  0.035047239            6 
 2461000   0.86540199   -5.8350394    1042.5225  0.035301452  0.035039043            2 
 2462000   0.88017423   -5.8276669    1043.6099  0.035323919  0.035030778            5 
 2463000   0.85984441   -5.8460887    1041.7628  0.035247084  0.035022553            3 
 2464000   0.84966529   -5.8855418    1038.4563  0.035120951  0.035014219            4 
 2465000   0.87040852   -5.8625993    1043.2945  0.035270267  0.035005875            7 
 2466000   0.84617745   -5.8487334    1043.1016  0.035249446  0.034997545            5 
 2467000   0.85429683   -5.8477522    1048.3627  0.035412874  0.034989364            4 
 2468000   0.85673533   -5.8534781     1044.245  0.035259488  0.034981257            5 
 2469000   0.85291521   -5.8585732    1045.1389  0.035275378  0.034973106            7 
 2470000   0.84921097   -5.8451766    1045.2505  0.035264862  0.034965035            7 
 2471000   0.86214233   -5.8423027    1046.0112  0.035276244  0.034956937            5 
 2472000   0.84863419    -5.868713    1042.9631   0.03515922  0.034948679            7 
 2473000   0.86799701   -5.8341708     1044.618   0.03520077  0.034940475            5 
 2474000   0.85769353   -5.8539949    1043.9871  0.035165289  0.034932336            3 
 2475000    0.8659414   -5.8831784    1041.9368  0.035082047  0.034923991            5 
 2476000   0.85339168     -5.84718    1046.5261  0.035222337  0.034915677            6 
 2477000   0.85728178    -5.861864    1045.1853   0.03516301  0.034907413            5 
 2478000   0.86274588   -5.8819815     1042.618  0.035062483  0.034899179            4 
 2479000   0.84778154   -5.8378783    1048.1443  0.035234109  0.034890922            4 
 2480000   0.85552177   -5.8121769    1050.5347  0.035300224  0.034882797            5 
 2481000   0.85667941   -5.8347718    1044.5654  0.035085497  0.034874732            5 
 2482000   0.83551165   -5.8637515    1045.1154  0.035089828  0.034866642           14 
 2483000   0.85711726   -5.8539557    1048.6846  0.035195482   0.03485848            4 
 2484000   0.86298574   -5.8473074    1045.4102  0.035071466  0.034850425            5 
 2485000   0.84126584   -5.8500835    1050.6373   0.03523264  0.034842255            5 
 2486000   0.86656861   -5.8362526     1050.981  0.035229987   0.03483416            4 
 2487000   0.84027781   -5.8374772    1048.6693  0.035138364   0.03482604            7 
 2488000   0.84751058   -5.8246826     1050.904  0.035199088     0.034818           11 
 2489000   0.85996183   -5.8479521    1049.9527  0.035153098  0.034809975            7 
 2490000   0.83018714   -5.8128912    1049.7076  0.035130776  0.034801978            6 
 2491000   0.86755677    -5.853094     1051.651  0.035181688  0.034793956           10 
 2492000    0.8655976   -5.8402925     1047.449  0.035027053  0.034785976            7 
 2493000   0.82738762   -5.8477989    1050.4244  0.035112463  0.034777901            7 
 2494000   0.85794016   -5.8669541    1048.6149   0.03503792  0.034769768            6 
 2495000    0.8579708   -5.8320144    1051.5068  0.035120469  0.034761629            4 
 2496000   0.85551145   -5.8767483    1049.8275  0.035050329  0.034753466            8 
 2497000   0.84057202   -5.8850918    1048.0545  0.034977123  0.034745267            6 
 2498000     0.852453   -5.8398381    1048.2211  0.034968678  0.034737018            4 
 2499000   0.84872592   -5.8553179    1047.3888  0.034926931  0.034728839            2 
 2500000   0.86579015   -5.8724966    1048.5265  0.034950884  0.034720632            6 
 2501000   0.83871667   -5.8627102    1047.5092  0.034903012  0.034712352            9 
 2502000   0.84185242   -5.8542184    1048.0091  0.034905712  0.034704121            4 
 2503000    0.8491812   -5.8812877     1047.164   0.03486363  0.034695842            3 
 2504000   0.84446766   -5.8418035    1049.6002  0.034930784  0.034687552            5 
 2505000   0.84768297   -5.8356128     1054.303  0.035073288  0.034679433            2 
 2506000   0.85095586   -5.8489565    1055.4306  0.035096789  0.034671262            6 
 2507000   0.84989492   -5.8671398     1044.886  0.034732284  0.034662999            7 
 2508000   0.83448778   -5.8836851    1050.6543  0.034910098  0.034654676            6 
 2509000   0.85841308   -5.8676129    1051.3315  0.034918675  0.034646469            6 
 2510000   0.85847985   -5.8712187    1052.3108  0.034937278  0.034638341            7 
 2511000   0.85107338   -5.8485055    1055.0139  0.035013072  0.034630253            4 
 2512000   0.85395735   -5.8551322    1053.5755  0.034951416  0.034622181            6 
 2513000    0.8355454   -5.8818099    1051.4142  0.034865838  0.034613959            7 
 2514000   0.85828284   -5.8802863    1055.6766  0.034993257  0.034605782            6 
 2515000    0.8418345   -5.8494171    1053.7947  0.034916987  0.034597638            7 
 2516000   0.83898231   -5.8083333    1054.1877  0.034916127  0.034589616            8 
 2517000   0.85864566   -5.8497436    1055.2317  0.034936819  0.034581552           10 
 2518000   0.83881757   -5.8272074    1057.8285  0.035008885  0.034573453            6 
 2519000   0.82824892   -5.8536668     1055.589  0.034920903  0.034565435            4 
 2520000   0.85775519   -5.8726392    1057.0049  0.034953865   0.03455732            3 
 2521000   0.85341894   -5.8672253    1053.7199  0.034831413  0.034549218            5 
 2522000    0.8388841   -5.8568483    1055.1233  0.034863972  0.034541028           12 
 2523000   0.83082989   -5.8681894    1054.3106  0.034823312  0.034532815            7 
 2524000   0.84960704   -5.8701333    1053.3807  0.034778814  0.034524698           11 
 2525000   0.85311391   -5.9010359    1052.9346  0.034750318   0.03451655           15 
 2526000   0.84907675   -5.8718487    1055.2367  0.034812506  0.034508423            7 
 2527000   0.85266335    -5.875535     1057.953  0.034888305  0.034500322            4 
 2528000   0.83998103   -5.8732196    1054.2678  0.034753025  0.034492258            5 
 2529000   0.84934389   -5.8640354    1056.3324  0.034807314  0.034484286           15 
 2530000    0.8440127   -5.8664332    1055.2049   0.03475642  0.034476209            6 
 2531000    0.8556796    -5.877604    1054.3996  0.034716172  0.034468161            4 
 2532000   0.84115213   -5.8882001    1057.0245  0.034788853  0.034460164            6 
 2533000   0.83309221   -5.8874968    1056.0129  0.034741837  0.034452023            9 
 2534000   0.85044605   -5.8560796    1056.1757  0.034733481   0.03444385            8 
 2535000   0.83909932   -5.8928872    1056.0196  0.034714648  0.034435713            5 
 2536000   0.83506911    -5.864257    1060.1817  0.034837728  0.034427586            5 
 2537000   0.83998324   -5.8788544    1059.0425  0.034786576  0.034419468            5 
 2538000   0.84909976   -5.8788608    1059.2203  0.034778708  0.034411459            5 
 2539000   0.85036244   -5.8517556    1058.7521  0.034749642  0.034403405            8 
 2540000    0.8500745   -5.8790752    1057.0383  0.034679734  0.034395269           12 
 2541000   0.84351472   -5.8703698    1057.1961   0.03467126  0.034387086            8 
 2542000    0.8451562   -5.8508153    1055.1178   0.03458949   0.03437888            3 
 2543000   0.83183331   -5.8927938    1055.0074   0.03457227  0.034370681            5 
 2544000   0.84553185   -5.8990819    1056.7978  0.034617329  0.034362474            8 
 2545000   0.84358047   -5.8714236    1060.7282  0.034732424  0.034354272            8 
 2546000   0.84398262   -5.8736523    1058.4229  0.034643327  0.034346137            4 
 2547000   0.83070372   -5.8858497    1056.6393  0.034571369  0.034337984            8 
 2548000   0.82770833   -5.8758438    1056.7662  0.034561951  0.034329915            5 
 2549000   0.83937326   -5.9127047    1058.0807  0.034591366  0.034321757            8 
 2550000   0.83518195   -5.8649821    1060.3445  0.034651781  0.034313609            5 
 2551000    0.8416983   -5.8760441    1060.2769  0.034635989  0.034305519            3 
 2552000   0.84488142   -5.8733071    1059.9874  0.034612963  0.034297429            4 
 2553000   0.83487525   -5.8812835     1058.998  0.034567111  0.034289343            6 
 2554000   0.82877674    -5.869405    1059.8143   0.03458021  0.034281244            6 
 2555000   0.83288701   -5.9045621    1060.3894  0.034585433  0.034273103           10 
 2556000   0.83481302   -5.8835771    1058.6965   0.03451671  0.034264978           13 
 2557000    0.8630798    -5.874874    1063.1196  0.034647361   0.03425683            3 
 2558000   0.83096278   -5.8683993    1060.5539  0.034550231   0.03424865            6 
 2559000   0.84798317   -5.8614309    1060.7138  0.034541936  0.034240525            4 
 2560000   0.82996141   -5.9045462    1059.8126  0.034499109  0.034232361           12 
 2561000   0.86743801   -5.8946505    1061.2104  0.034531122  0.034224219            5 
 2562000   0.82818851   -5.8386277    1064.1044  0.034611776  0.034216194            6 
 2563000   0.84647733    -5.842484    1060.8568  0.034492679  0.034208138           13 
 2564000   0.83253815   -5.8624656    1063.7924  0.034574636  0.034200054            9 
 2565000   0.82771758    -5.871606    1065.1565  0.034605476  0.034191913            7 
 2566000   0.84381817   -5.8650782    1064.3882  0.034567038  0.034183916            3 
 2567000   0.84181518   -5.8701314    1062.5647  0.034494376  0.034175847            4 
 2568000   0.84285604   -5.8776867    1061.1139  0.034433861  0.034167807           20 
 2569000   0.84863683   -5.8522643    1061.7039  0.034439596  0.034159793            8 
 2570000    0.8420397   -5.8978015    1062.5342   0.03445312  0.034151718            9 
 2571000   0.83138962   -5.9228696    1058.6833  0.034314901  0.034143646            7 
 2572000   0.85509203   -5.8861249    1064.4082  0.034487046  0.034135538            8 
 2573000   0.83866194   -5.8693998    1064.2499  0.034468516    0.0341275            5 
 2574000   0.83217396   -5.8980294    1064.4201  0.034460634   0.03411929            7 
 2575000   0.84309586   -5.8931596    1062.7478  0.034393131  0.034111152           13 
 2576000   0.83988982   -5.8918273    1063.1968  0.034394305  0.034103001            6 
 2577000   0.85127782   -5.8920799    1063.0046  0.034374744   0.03409497            7 
 2578000   0.83460501   -5.8891944    1061.9008  0.034325729  0.034086891            2 
 2579000   0.85500752    -5.910304    1064.9316  0.034410352  0.034078663            8 
 2580000   0.84095515   -5.9058284    1064.5889  0.034385946  0.034070585            9 
 2581000   0.85837349   -5.8975144    1063.7682  0.034346125  0.034062445            5 
 2582000   0.83902998   -5.9186769    1066.9472  0.034435424  0.034054328            7 
 2583000   0.85303041     -5.86467    1067.9123   0.03445323    0.0340462            7 
 2584000    0.8385436   -5.9146356     1064.091  0.034316662   0.03403809           11 
 2585000    0.8450931   -5.9084233    1062.9678  0.034267176  0.034029938            8 
 2586000   0.83894032   -5.9166883    1064.1692   0.03429264  0.034021809            4 
 2587000   0.85005653   -5.8998088    1068.2012  0.034409266  0.034013816            4 
 2588000   0.83199422   -5.8756694    1070.4926  0.034469753  0.034005877            5 
 2589000   0.82909338   -5.8800748    1068.6182  0.034396104  0.033997974            6 
 2590000   0.82411844   -5.8527453    1072.5788  0.034510259  0.033990068            5 
 2591000   0.83403496   -5.8615174    1069.8877  0.034410386  0.033982141            3 
 2592000   0.81594749   -5.8921146    1071.8498  0.034460191  0.033974215            6 
 2593000    0.8460292   -5.8548277    1070.8503  0.034414779  0.033966237           11 
 2594000   0.83767885   -5.8721676    1068.8001  0.034335649  0.033958315            3 
 2595000   0.84056627   -5.8707639    1068.2795    0.0343057  0.033950328            5 
 2596000   0.84071533   -5.9035773    1067.1019  0.034254684  0.033942327            7 
 2597000   0.83362425   -5.8934499    1068.5852  0.034289088  0.033934354            4 
 2598000   0.85697887   -5.8546313    1072.9721  0.034416605  0.033926494            6 
 2599000   0.82796117   -5.8516567    1070.0811  0.034310668  0.033918627            9 
 2600000   0.82161242   -5.9098035    1066.2177  0.034173643  0.033910625            6 
 2601000   0.83714232    -5.924654    1068.4611  0.034232383  0.033902529            6 
 2602000   0.85034631   -5.8898737     1068.652   0.03422534  0.033894479            4 
 2603000   0.82232918   -5.8807818    1068.2985  0.034200874   0.03388661            7 
 2604000   0.81972651   -5.9055572    1067.0617  0.034148161  0.033878583            7 
 2605000   0.83372426    -5.912464    1067.9731  0.034164208  0.033870443            7 
 2606000   0.81303678   -5.8887242    1068.6337  0.034172222  0.033862396            5 
 2607000   0.82835078   -5.9111963    1070.1261  0.034206819  0.033854449            8 
 2608000   0.82473841   -5.8679335    1070.0216  0.034190363  0.033846506            8 
 2609000   0.86171913   -5.9274129    1071.0494  0.034210088  0.033838515            7 
 2610000   0.81630292   -5.9403204    1069.5178  0.034148077  0.033830472            6 
 2611000   0.84086794   -5.9052959    1071.0524  0.034183978  0.033822487            3 
 2612000   0.84703583   -5.9085983     1074.743  0.034288636  0.033814631            4 
 2613000   0.82336688    -5.878921    1074.0643  0.034253869  0.033806824            6 
 2614000   0.83262645   -5.8803365    1073.0446  0.034208257  0.033798965            3 
 2615000   0.82950462   -5.9064707    1074.0127  0.034226025    0.0337911            9 
 2616000   0.83964928   -5.9121854    1074.3539   0.03422381  0.033783203           10 
 2617000   0.84298453   -5.8940559    1072.7664  0.034160183  0.033775286           10 
 2618000   0.84038133   -5.9156269    1070.6657  0.034080267  0.033767307           10 
 2619000   0.82794114   -5.8663707    1073.0371  0.034142712  0.033759379            6 
 2620000   0.82885952   -5.9171679    1072.0783  0.034099182  0.033751453            7 
 2621000   0.84202545   -5.9279263    1073.1455  0.034120103   0.03374353            9 
 2622000   0.83302684   -5.9193508    1072.7762  0.034095353  0.033735487            4 
 2623000   0.82890266   -5.9006685    1073.8361  0.034116028  0.033727545            7 
 2624000   0.82245649   -5.9041157    1076.2416  0.034179421  0.033719615            3 
 2625000   0.83356857     -5.88446    1075.9005  0.034155571  0.033711672            3 
 2626000   0.85706247   -5.9168085    1073.3666  0.034062154  0.033703729            7 
 2627000    0.8294669   -5.9104196    1074.3927  0.034081737  0.033695788            9 
 2628000   0.83554027   -5.9129481    1072.7644  0.034017136  0.033687822            6 
 2629000   0.83693791   -5.9139923    1070.7568   0.03394056  0.033679808            3 
 2630000   0.83573307   -5.9045884     1073.201  0.034005102  0.033671804            6 
 2631000   0.83850155    -5.910646    1074.3749  0.034029359  0.033663883           13 
 2632000    0.8627288   -5.9276234    1071.9405  0.033939352  0.033655873            6 
 2633000    0.8473401   -5.9232434    1072.9886  0.033959634  0.033647831            4 
 2634000   0.81956563   -5.8879383    1074.5454  0.033995994  0.033639855            5 
 2635000   0.83182301   -5.9274192    1070.6586  0.033860171  0.033631909            4 
 2636000    0.8421718   -5.9192529    1072.7425  0.033913204  0.033623857            4 
 2637000   0.82063318   -5.8878159    1077.2397  0.034042465  0.033615779            4 
 2638000   0.84422868    -5.911526    1073.0358   0.03389676   0.03360785            7 
 2639000    0.8412188   -5.9256048    1074.0075  0.033914597  0.033599905           11 
 2640000   0.80819543     -5.89022    1075.9835  0.033964124  0.033591946            9 
 2641000   0.84519793   -5.8969972    1073.5695  0.033875095  0.033583914            6 
 2642000   0.83445905   -5.9124493    1074.9901  0.033907081  0.033575966            7 
 2643000   0.80838669   -5.9416125    1075.9019  0.033923001  0.033567937            7 
 2644000   0.82843867   -5.9417231    1073.5863  0.033837188  0.033559857           24 
 2645000   0.81048575   -5.9364111    1077.5602  0.033949598  0.033551793            9 
 2646000   0.83143503   -5.9533648    1073.8047  0.033818492  0.033543734            6 
 2647000   0.83638369   -5.9360403    1075.0815   0.03384591  0.033535654            7 
 2648000    0.8146572    -5.896848    1076.6167  0.033881441  0.033527632            3 
 2649000   0.82486489    -5.940045    1077.9189  0.033909618  0.033519635            6 
 2650000   0.81380347   -5.9163268    1077.1508  0.033872668  0.033511534           11 
 2651000    0.8370976   -5.8935826    1080.5818  0.033967742  0.033503628            5 
 2652000   0.82272888   -5.8872821    1081.1012  0.033971253  0.033495783           12 
 2653000   0.81968749   -5.8886915    1080.0104  0.033924188  0.033487908            5 
 2654000   0.83834661   -5.9264137    1079.8034  0.033904903  0.033479983            9 
 2655000   0.82931277    -5.902946    1080.3397  0.033908968  0.033472082            9 
 2656000   0.81093082   -5.9265177    1079.9013  0.033882446  0.033464167            4 
 2657000   0.83920064   -5.9049184    1079.2399   0.03384895  0.033456222            4 
 2658000   0.82005323   -5.8828166    1077.1221  0.033769817  0.033448257            8 
 2659000   0.84331001   -5.9457496    1076.3451  0.033732765  0.033440227            6 
 2660000   0.83500182   -5.9391524    1076.9618  0.033739405  0.033432161            3 
 2661000   0.81685292   -5.9520031    1077.5196  0.033744194  0.033424052            7 
 2662000   0.82535374   -5.9422085    1076.6028  0.033702817  0.033415989            7 
 2663000   0.82375481   -5.9222718    1077.2452  0.033710265  0.033407924            5 
 2664000   0.84120354   -5.9425201    1075.8803  0.033654915  0.033399818            4 
 2665000   0.81899429   -5.9275011    1076.9115  0.033674531  0.033391751            6 
 2666000   0.80587331   -5.9182324    1080.0507  0.033760024  0.033383802            7 
 2667000   0.82682895   -5.9385893    1079.3033  0.033724013  0.033375791            3 
 2668000   0.82763608   -5.9257663    1078.6964  0.033692416  0.033367775            5 
 2669000   0.81758053   -5.9141662    1077.3112  0.033636544  0.033359792            5 
 2670000   0.84246628   -5.9141709     1080.067  0.033709955    0.0333518            9 
 2671000   0.82158778   -5.8833457    1084.0897   0.03382284  0.033343837            4 
 2672000   0.83449253   -5.9158208    1080.3859  0.033694671  0.033335928            7 
 2673000   0.82240688    -5.934183    1080.9589  0.033699928  0.033328047            4 
 2674000   0.81934261   -5.9035362    1082.3208  0.033729769   0.03332012            6 
 2675000   0.81261898   -5.9094705    1081.0609  0.033677909   0.03331225            4 
 2676000   0.82293422   -5.9208817    1082.6367  0.033714395  0.033304301            8 
 2677000   0.81501986   -5.9424328    1083.3917  0.033725304  0.033296379            8 
 2678000    0.8249752   -5.9412422    1080.4106  0.033619946   0.03328848            8 
 2679000   0.82173187   -5.9519625    1080.1802   0.03360023  0.033280446            6 
 2680000   0.82674857   -5.9230438    1080.9475   0.03361155  0.033272465            6 
 2681000   0.81685465   -5.9234184    1078.7553  0.033530876  0.033264582            4 
 2682000   0.82142306   -5.9200938    1080.5823  0.033575138  0.033256637            4 
 2683000   0.82262187   -5.9574083    1081.4573  0.033589803  0.033248644            7 
 2684000   0.81614908    -5.915029    1081.1364  0.033567326  0.033240629            4 
 2685000   0.84335474   -5.9563636    1082.2425  0.033589154  0.033232713            9 
 2686000   0.81595131   -5.9335755    1083.4778  0.033614973  0.033224799            7 
 2687000   0.80330768   -5.9169921    1084.0446  0.033620041  0.033216839            5 
 2688000   0.81470512   -5.9463425     1082.374  0.033555741  0.033208945            5 
 2689000   0.82419112   -5.9370891     1083.239  0.033570069   0.03320097           10 
 2690000   0.83654715   -5.9019191    1084.3375   0.03359162  0.033192995            4 
 2691000   0.82220047   -5.8903414    1085.3749  0.033611264  0.033185105            7 
 2692000   0.81226358   -5.9162952    1085.3655  0.033598487  0.033177249            5 
 2693000   0.84285897   -5.9571683     1082.781  0.033506034  0.033169382            5 
 2694000   0.84290326   -5.9436262    1086.6916  0.033614564  0.033161447            6 
 2695000   0.80962653   -5.9523094    1082.4321  0.033470379  0.033153532           15 
 2696000   0.81597427   -5.9426464    1086.0052  0.033568409  0.033145591            6 
 2697000   0.83565854   -5.9482501    1083.2666  0.033471346  0.033137671            9 
 2698000   0.81533254   -5.9554835    1083.9107  0.033478834  0.033129674            6 
 2699000   0.81271945   -5.9174143    1084.9623  0.033498898  0.033121742            4 
 2700000    0.8157027   -5.9252412    1087.1094  0.033552759   0.03311399            4 
 2701000   0.83170051   -5.9125906    1089.0367    0.0335998  0.033106141            5 
 2702000   0.82822231   -5.9515194    1082.2339  0.033377557   0.03309832            2 
 2703000   0.82782916   -5.9399513    1088.0332  0.033544002  0.033090468           22 
 2704000   0.81784059   -5.9221641    1089.0663  0.033563435  0.033082724            5 
 2705000   0.80965562   -5.9052315    1089.7786  0.033572969  0.033074976           14 
 2706000   0.81992025   -5.9202945    1086.2552  0.033452057  0.033067145            6 
 2707000   0.80362923   -5.9517696    1088.3971  0.033505637  0.033059317            7 
 2708000   0.81456412   -5.9650215    1087.9603  0.033479822  0.033051506           10 
 2709000   0.83010468   -5.9174132    1092.8168  0.033616858  0.033043744            4 
 2710000   0.82064021   -5.9376856    1089.0749  0.033489388  0.033035992            8 
 2711000   0.80709371   -5.9386841    1087.6026  0.033431779  0.033028277            5 
 2712000    0.8152397   -5.9331118    1086.7796  0.033394163  0.033020547            5 
 2713000   0.82227402   -5.9165478    1090.4324  0.033494053  0.033012784            6 
 2714000    0.8138657   -5.9622188    1084.8272  0.033309606  0.033004981            6 
 2715000   0.80547891   -5.9309867    1088.1311  0.033398745  0.032997158            4 
 2716000   0.82410948   -5.9427791    1090.2839  0.033452501  0.032989393            7 
 2717000   0.82386186   -5.9428329    1089.2507  0.033408499  0.032981572            4 
 2718000   0.81991365   -5.9381273    1092.0996  0.033483554  0.032973734            9 
 2719000   0.79822553    -5.947947    1089.8448  0.033402132  0.032965948            7 
 2720000    0.8137331   -5.9103713    1092.0056  0.033456053   0.03295817            6 
 2721000   0.82877164   -5.9373467    1089.5801  0.033369475  0.032950353            5 
 2722000   0.81728001   -5.9398562    1090.1483  0.033374611  0.032942432            7 
 2723000   0.81994672   -5.9391229    1090.0175  0.033358352  0.032934594            4 
 2724000   0.80924459    -5.907377    1090.6582  0.033365707  0.032926739            4 
 2725000   0.81965557   -5.9567172    1090.1575   0.03333815  0.032918918            5 
 2726000   0.83327526   -5.9604041    1084.6109  0.033156362  0.032911105            4 
 2727000   0.82336772   -5.9491807    1086.6254  0.033205764  0.032903245            4 
 2728000   0.83252762   -5.9407184    1088.2839  0.033244253  0.032895353           12 
 2729000   0.82108431    -5.980333    1087.3775  0.033204394  0.032887422            6 
 2730000   0.81453568    -5.931569     1094.871  0.033420969  0.032879555            8 
 2731000   0.81054173   -5.9354944    1088.4874  0.033213946  0.032871749            8 
 2732000    0.8155771   -5.9603593    1089.2977  0.033226504  0.032863855            5 
 2733000   0.83350485   -5.9507142    1090.7346  0.033258161   0.03285602            5 
 2734000   0.81861563   -5.9322929    1090.7397   0.03324615  0.032848167            7 
 2735000   0.83279442   -5.9601381    1092.2786  0.033280885  0.032840237            7 
 2736000   0.80547085   -5.9293059    1091.3707  0.033241066  0.032832299            9 
 2737000   0.85104062   -5.9402249    1088.6896  0.033147291  0.032824403            9 
 2738000   0.81715693   -5.9633896    1092.1729    0.0332412  0.032816566           14 
 2739000   0.82494041    -5.949941    1091.8031  0.033217814  0.032808695            4 
 2740000    0.7948803    -5.956012    1091.4576  0.033195183  0.032800815            4 
 2741000   0.80506974   -5.9564543    1089.1753  0.033113685  0.032792932            7 
 2742000   0.80990386   -5.9388819    1091.4021  0.033169282  0.032785041            3 
 2743000   0.80104581   -5.9619266    1090.6874  0.033135479  0.032777114            5 
 2744000   0.82216882   -5.9470113    1093.1422  0.033197954  0.032769249            7 
 2745000    0.8157183   -5.9617679    1090.6675  0.033110731  0.032761309            6 
 2746000    0.8156119   -5.9757853     1088.636  0.033037025  0.032753329            6 
 2747000   0.79859388   -5.9802217    1089.9263  0.033064141  0.032745398            7 
 2748000   0.81261811   -5.9215512    1093.9279  0.033173457  0.032737506            8 
 2749000   0.80753314   -5.9425478    1092.9912  0.033132995  0.032729759           15 
 2750000   0.81510645   -5.9015167    1095.5524  0.033198558  0.032721941            7 
 2751000   0.81941606    -5.930652    1093.2056  0.033115401  0.032714114            9 
 2752000   0.79398483   -5.9590176    1092.9308  0.033095047  0.032706312            6 
 2753000   0.81609287   -5.9738476    1088.4768  0.032948202  0.032698456           13 
 2754000   0.80896003   -5.9733953      1089.93   0.03298021   0.03269047            6 
 2755000   0.81847793   -5.9519221    1093.4275  0.033074031  0.032682515           11 
 2756000   0.80411065    -5.953248    1094.3827  0.033090914  0.032674614            4 
 2757000   0.81455406   -5.9792429    1094.1459  0.033071754    0.0326667            4 
 2758000   0.78042427   -5.9752759    1091.1245  0.032968471  0.032658688            3 
 2759000   0.81877518   -5.9555949    1093.6166  0.033031794  0.032650731            8 
 2760000   0.81105336   -5.9807874    1092.2243  0.032977788  0.032642841           10 
 2761000   0.79719633    -5.965947    1093.6971  0.033010295  0.032634825            6 
 2762000   0.81030543   -5.9718249    1093.2318  0.032984304  0.032626899            5 
 2763000   0.80051107   -5.9530843    1092.6242  0.032954042  0.032618955            9 
 2764000   0.79562111   -5.9681358    1092.2921  0.032932108     0.032611            7 
 2765000   0.80014173   -5.9517292    1095.2102  0.033008145  0.032603011           11 
 2766000   0.82458316   -6.0106267    1090.3666  0.032850283   0.03259505           10 
 2767000   0.80776582   -5.9672247    1093.3117  0.032927108  0.032587006            6 
 2768000   0.81493441   -5.9730373    1093.7888  0.032929576  0.032578967            5 
 2769000   0.82336092   -5.9748351    1092.9084  0.032891187   0.03257096           11 
 2770000     0.786606   -5.9455885    1095.4064  0.032954463  0.032563005            6 
 2771000   0.80731775   -5.9973743    1091.5804  0.032827511  0.032554985           16 
 2772000     0.804374   -5.9907638    1089.6886  0.032758797  0.032546992            5 
 2773000   0.79734547   -5.9512041    1095.1412  0.032910842  0.032538952            2 
 2774000   0.80115619   -5.9633458    1096.3497  0.032935284  0.032530974           14 
 2775000   0.79820663   -5.9583956    1094.7483  0.032875326  0.032523005            8 
 2776000   0.80556701   -5.9516542    1096.0671   0.03290307  0.032515051            5 
 2777000    0.7894542    -5.949437    1096.6853  0.032909774  0.032507141            5 
 2778000   0.80383402   -5.9691889    1094.7345  0.032839409  0.032499274            5 
 2779000   0.81054337   -5.9438366    1096.5046   0.03288067  0.032491341            8 
 2780000   0.78797111   -5.9627758    1092.5121  0.032749165  0.032483393            5 
 2781000   0.80686807   -5.9502905    1096.3615  0.032852735  0.032475437           13 
 2782000    0.8228105   -5.9598266    1093.7687   0.03276326   0.03246746            8 
 2783000    0.8045922   -5.9617599    1095.0832   0.03279085  0.032459467            6 
 2784000    0.8020526   -5.9594552    1098.1625  0.032871243  0.032451496            6 
 2785000   0.79022475   -5.9446921    1096.3782  0.032806051  0.032443502            9 
 2786000   0.78992122   -5.9947361     1092.737  0.032685362  0.032435445            4 
 2787000   0.80429593   -6.0028561     1093.015  0.032681945  0.032427322            7 
 2788000   0.79062381   -5.9799043    1093.9507  0.032698191  0.032419283            8 
 2789000   0.78009637   -5.9565055    1096.5425  0.032763908  0.032411214           11 
 2790000   0.80547342   -5.9718088    1094.6568  0.032695843  0.032403178           22 
 2791000   0.80605651   -5.9388866    1097.4807  0.032768445  0.032395155            5 
 2792000   0.79416734   -5.9509916    1095.9157  0.032709997  0.032387087            9 
 2793000   0.80617582   -5.9880364    1096.2423  0.032708029  0.032379003            4 
 2794000   0.81729175   -5.9438503    1096.7208  0.032710594  0.032370949           11 
 2795000   0.81754597   -6.0013461    1096.7245  0.032699002  0.032362927            3 
 2796000   0.81315321   -5.9844801     1095.908  0.032662971  0.032354794            6 
 2797000   0.80184561   -5.9787385    1095.5002  0.032639144  0.032346643            9 
 2798000   0.81717715    -5.982173    1097.9999  0.032701928  0.032338497            7 
 2799000   0.81010351   -6.0095421    1093.3263  0.032551099  0.032330393            6 
 2800000   0.81049649   -5.9607135    1097.6356  0.032667725  0.032322293            4 
 2801000   0.81080823   -5.9601013    1096.9755  0.032636423  0.032314308            4 
 2802000   0.79743159   -5.9600982    1097.3564  0.032636104  0.032306268            8 
 2803000   0.81077257   -5.9564534     1096.704  0.032605065  0.032298203            8 
 2804000   0.81656411   -5.9266365    1099.2015  0.032667662  0.032290218           10 
 2805000   0.80327634   -5.9500403    1097.4982  0.032605414  0.032282299           10 
 2806000   0.79990496   -5.9571153    1099.2168  0.032644831  0.032274301            7 
 2807000   0.80710077   -5.9966398    1095.7971  0.032531679  0.032266299            8 
 2808000   0.81041898   -5.9794473    1094.7908   0.03249023  0.032258267            9 
 2809000   0.79316208   -5.9891865    1097.8098  0.032568229  0.032250246            7 
 2810000   0.80468609   -5.9640308    1100.1489  0.032626007  0.032242237            4 
 2811000   0.78277067   -5.9335937    1101.3771   0.03265081  0.032234262           15 
 2812000    0.7735439   -5.9810198    1099.1768  0.032573992  0.032226308            4 
 2813000   0.79639538   -5.9769909    1095.3049   0.03244771  0.032218363            4 
 2814000    0.8059973   -5.9910615    1099.0038  0.032545717  0.032210303           11 
 2815000   0.79854461   -5.9650627    1098.5698  0.032521309  0.032202354            7 
 2816000   0.80397428   -5.9511536    1101.2184   0.03258814  0.032194455            6 
 2817000   0.82061682   -5.9523492    1102.2349  0.032606641   0.03218649            7 
 2818000   0.80661842   -5.9516421    1104.0682  0.032649284   0.03217856            5 
 2819000   0.81357295   -5.9666664    1099.9131  0.032514872  0.032170539            6 
 2820000   0.80217636   -5.9556488    1099.6986  0.032497003  0.032162473            4 
 2821000   0.81194427   -5.9969095    1098.9592  0.032463643  0.032154429            6 
 2822000   0.80655331   -5.9798983    1099.3946  0.032464994  0.032146456            8 
 2823000    0.8004755   -5.9940384    1098.3002  0.032421189  0.032138504            5 
 2824000    0.7953936   -5.9841128    1098.3488  0.032411143  0.032130444            7 
 2825000   0.80005144   -5.9416243    1102.1107   0.03251064  0.032122459            7 
 2826000   0.79934716   -5.9835216    1097.5162  0.032363652  0.032114481            3 
 2827000   0.78594043   -5.9865866    1101.4433  0.032467966  0.032106498            7 
 2828000   0.78722999   -5.9567572    1101.2192  0.032449881  0.032098533            3 
 2829000   0.80037116    -5.957706    1098.5318  0.032359248  0.032090571           11 
 2830000   0.80149952   -5.9765764    1104.6779  0.032528796  0.032082619           14 
 2831000   0.80781466   -5.9601777    1100.4364  0.032392454  0.032074634            8 
 2832000   0.78967912   -5.9580719    1106.5754  0.032561659  0.032066645           18 
 2833000   0.82186681   -5.9534662    1102.2366  0.032422538  0.032058607            4 
 2834000   0.80114665   -5.9775253    1097.9835  0.032286036  0.032050606            5 
 2835000   0.80866997   -5.9978592     1098.136   0.03227913  0.032042559            4 
 2836000   0.78530758   -5.9904766     1100.853  0.032347585  0.032034474            8 
 2837000   0.81957875    -5.998498    1101.2692  0.032348407  0.032026465            3 
 2838000    0.7907587   -5.9859546     1100.548  0.032315832  0.032018408            9 
 2839000   0.79662142   -5.9799491    1099.9816  0.032287825  0.032010405            4 
 2840000   0.80574169   -5.9795888    1103.6675   0.03238461  0.032002351            6 
 2841000   0.77733451   -6.0058766    1102.0886  0.032326899   0.03199429            5 
 2842000   0.80286329   -5.9843568    1103.4689  0.032355997  0.031986232            5 
 2843000   0.78647686   -5.9832336     1103.757  0.032353059  0.031978141            5 
 2844000   0.80340256   -5.9665126     1105.058  0.032379807  0.031970124            9 
 2845000   0.80565372   -6.0070835    1100.0739  0.032222435  0.031962103            5 
 2846000   0.79314632   -5.9840419    1104.3561  0.032336499  0.031954083           10 
 2847000   0.80641814   -6.0043021    1100.2494  0.032204935  0.031946068           11 
 2848000   0.79832186   -5.9871011    1105.9597  0.032360713   0.03193804            7 
 2849000    0.8095553   -5.9656274    1103.7407  0.032284447  0.031930025            7 
 2850000   0.80347975   -5.9756788    1102.5882   0.03223942  0.031921971           11 
 2851000   0.80163992   -5.9767922    1103.2174  0.032246503  0.031913906           21 
 2852000   0.80906084   -5.9933722    1103.8948  0.032254989  0.031905854            7 
 2853000   0.78292694   -5.9949674    1100.8256  0.032154037   0.03189778           18 
 2854000    0.7939912   -6.0177997    1101.6527  0.032166921  0.031889659           12 
 2855000   0.79456896   -5.9956911    1101.3631  0.032147201  0.031881551           15 
 2856000   0.78685334   -6.0223187    1099.8976  0.032093185  0.031873432            7 
 2857000   0.81356282   -5.9932904    1100.0391  0.032086077   0.03186535            7 
 2858000   0.79643795   -6.0288394    1101.3849  0.032114091  0.031857212           10 
 2859000   0.82342366   -6.0019329    1103.5245  0.032165223   0.03184915            6 
 2860000   0.79790474   -6.0025999    1100.2117  0.032057452  0.031841053            5 
 2861000   0.78641463    -6.010016    1101.2776  0.032077292   0.03183291            8 
 2862000     0.780471   -5.9742717    1102.7799  0.032109827   0.03182481           11 
 2863000   0.80914638   -6.0072691    1098.9914  0.031988339  0.031816687            4 
 2864000   0.78988227   -6.0122606    1103.2515  0.032101125  0.031808641            5 
 2865000   0.77455725   -6.0035049    1104.0866  0.032114213  0.031800554           18 
 2866000   0.78180483   -5.9942744    1100.8828  0.032009851  0.031792424            8 
 2867000   0.79939489   -5.9696705    1100.9438  0.032000459  0.031784296            8 
 2868000   0.79469125    -5.989105    1106.9143  0.032162782   0.03177627           11 
 2869000    0.7833472   -5.9803982    1105.5693  0.032112505   0.03176827            3 
 2870000   0.79493577   -5.9862326    1104.6211  0.032073783  0.031760202            8 
 2871000   0.80000852   -5.9702514    1105.3593  0.032084039   0.03175216            7 
 2872000   0.78305804   -6.0135157    1105.8291    0.0320865  0.031744042            5 
 2873000   0.78513433    -6.000852    1104.5384  0.032037894  0.031735965           10 
 2874000   0.79129015   -6.0005285    1104.9733  0.032039356  0.031727957            6 
 2875000   0.79192645   -5.9689511    1106.2779  0.032066027  0.031720008            5 
 2876000   0.78600547   -5.9766076    1108.9208  0.032131454  0.031712069            5 
 2877000   0.79158192   -5.9919797    1102.5317  0.031935226  0.031704089           18 
 2878000   0.79327342   -5.9749716     1107.734  0.032074762  0.031696079            4 
 2879000   0.78745908   -5.9908966    1105.6246  0.032002564  0.031688138            5 
 2880000   0.77745153   -5.9836156    1106.5296   0.03201764  0.031680168           12 
 2881000   0.79473061   -5.9933276    1105.7754  0.031984709  0.031672196           15 
 2882000   0.79717917   -6.0042397     1111.225  0.032131187  0.031664257            6 
 2883000   0.78810807   -5.9954786     1106.706  0.031989422  0.031656311            8 
 2884000   0.78265583   -5.9643812    1110.1519  0.032077897  0.031648351            9 
 2885000   0.78644912   -6.0127079    1104.5797  0.031905827   0.03164031           13 
 2886000   0.79254411   -5.9936889    1109.3765  0.032033278  0.031632303            6 
 2887000   0.77434143   -6.0266585    1105.0037  0.031895963  0.031624264           11 
 2888000   0.79344302   -6.0035838    1106.5454  0.031929402  0.031616227            6 
 2889000   0.79550891   -6.0104404    1103.3402  0.031825898   0.03160819            5 
 2890000   0.77756216   -6.0053722    1106.1397  0.031895609  0.031600106            4 
 2891000   0.79221472   -6.0135139    1104.3025  0.031831618  0.031591989            9 
 2892000   0.78607102   -6.0071125    1107.2961  0.031906873  0.031583892            5 
 2893000   0.78860959   -6.0402456      1103.37  0.031782752  0.031575813            5 
 2894000   0.78998874   -5.9983762    1104.6921  0.031809839   0.03156774           19 
 2895000   0.77308699   -6.0100851    1110.3486  0.031961675  0.031559728            8 
 2896000   0.77444448   -6.0128514    1104.6627  0.031787026   0.03155168            3 
 2897000   0.78451423   -6.0259297    1105.3659  0.031796281  0.031543658            5 
 2898000   0.79334857   -6.0203088    1105.3236  0.031784094   0.03153561            6 
 2899000   0.79876541   -6.0394173    1105.7392  0.031785076  0.031527565           14 
 2900000   0.78310384    -6.029445    1105.8011  0.031775894  0.031519508            7 
 2901000   0.79162789   -6.0120787    1105.4415   0.03175461  0.031511401           11 
 2902000   0.78228878   -6.0076601    1107.2789   0.03179643  0.031503331            7 
 2903000   0.78372119   -6.0385523    1105.6717  0.031739342    0.0314953            5 
 2904000   0.78530321   -6.0182732     1106.048   0.03173921  0.031487295            7 
 2905000   0.77475033   -6.0001504    1109.3033  0.031821667  0.031479358            5 
 2906000   0.79079924   -6.0152539    1108.5956  0.031790423  0.031471411           15 
 2907000   0.78468516   -5.9922981    1110.5417  0.031835274  0.031463448            6 
 2908000   0.79642583    -5.993228    1111.1548  0.031841896  0.031455522            5 
 2909000   0.77803985   -6.0275271    1108.8501  0.031764929  0.031447571            5 
 2910000   0.79386586   -5.9893971    1110.0484  0.031788327  0.031439664            8 
 2911000   0.78395228   -6.0171804    1113.1151  0.031865197  0.031431769            6 
 2912000   0.78770462   -6.0211677    1107.2734  0.031687083  0.031423817            5 
 2913000   0.78635027    -6.009397    1112.0005  0.031811436  0.031415829            7 
 2914000    0.7831136   -5.9968156    1108.6179  0.031703783  0.031407874            8 
 2915000   0.77776569   -6.0074522    1112.5225  0.031804532  0.031399857            8 
 2916000   0.77374299   -5.9914686     1108.783  0.031686757   0.03139186            5 
 2917000   0.76921478   -6.0097267    1109.4379  0.031694604  0.031383898           14 
 2918000   0.77730479    -6.017628    1110.4547  0.031712781  0.031375876            9 
 2919000   0.79064567   -6.0164339    1110.2617  0.031696405  0.031367869            9 
 2920000   0.78851238    -6.023413    1111.1785  0.031711716   0.03135984            6 
 2921000   0.76674177   -6.0190323    1109.9161  0.031664843  0.031351824           11 
 2922000   0.77842002   -6.0063176    1109.2495  0.031634996   0.03134382            7 
 2923000   0.78272302   -6.0159046    1112.5953  0.031719559  0.031335883            8 
 2924000   0.76961649   -6.0260728    1109.8515  0.031630516  0.031327891            7 
 2925000   0.76794021   -5.9945899    1110.3039  0.031632591  0.031319913            8 
 2926000   0.78683116   -6.0146894    1111.8426  0.031665602  0.031311948            6 
 2927000   0.77720157   -6.0086554    1111.0617  0.031632549  0.031304005            4 
 2928000    0.7816669   -6.0124468     1108.756  0.031556126  0.031296064            8 
 2929000      0.78043   -6.0334843    1112.0249  0.031638354  0.031288047            9 
 2930000   0.78199352   -6.0236144    1110.5855  0.031586618  0.031280063            7 
 2931000   0.78116413   -6.0250495    1112.3484  0.031625964  0.031272102           11 
 2932000   0.79233787   -6.0560469    1110.0203  0.031549007  0.031264107           19 
 2933000   0.79351897   -6.0514176    1109.4095  0.031520897   0.03125618           10 
 2934000   0.79963939    -6.020644    1112.7826  0.031605959  0.031248287           10 
 2935000   0.78220081   -6.0285229     1111.649  0.031563004  0.031240361            8 
 2936000   0.77016523   -6.0223466    1114.7546  0.031640402  0.031232468           19 
 2937000   0.76323951   -6.0406974    1111.8637  0.031547604  0.031224477            5 
 2938000   0.77458476   -6.0428879    1108.9741  0.031454904  0.031216524           14 
 2939000   0.76580667    -6.037835    1113.8741  0.031583137  0.031208527            8 
 2940000   0.76281242   -6.0227478    1113.6084  0.031564864  0.031200531            9 
 2941000   0.79200764   -6.0213233    1114.7506  0.031586496   0.03119262           12 
 2942000   0.79028984   -6.0081015    1111.3799  0.031480283    0.0311847            7 
 2943000   0.78121858   -6.0364781    1111.9059  0.031484481  0.031176761            6 
 2944000   0.77123479   -6.0249367    1113.9918   0.03153283  0.031168851           11 
 2945000   0.79210784   -6.0638184    1110.7377  0.031430043  0.031160901           15 
 2946000   0.78105703   -6.0251262    1115.6198  0.031557474  0.031152918           13 
 2947000   0.78565358   -6.0435128    1113.8885   0.03149781  0.031144971            9 
 2948000   0.78564761   -6.0521053    1115.0378  0.031519613  0.031137026           11 
 2949000   0.77655332   -6.0252008    1115.0232  0.031508511  0.031129148            7 
 2950000   0.77566027   -6.0389111    1116.9025  0.031550919  0.031121317            5 
 2951000   0.78414035   -6.0242712    1115.7416  0.031507445  0.031113462            5 
 2952000   0.78936621   -6.0235884     1115.707  0.031495794  0.031105659            7 
 2953000   0.78619964   -6.0227258    1118.5464  0.031565254  0.031097837            8 
 2954000   0.78696105   -6.0114918    1115.6036  0.031471552  0.031089997            5 
 2955000   0.79386769   -6.0182683    1116.5392  0.031487286  0.031082146           18 
 2956000    0.7894548   -6.0035874    1116.6952  0.031481032  0.031074301            6 
 2957000   0.77612699   -6.0137042    1116.3277  0.031460031  0.031066409            6 
 2958000   0.79163885   -6.0425337    1118.8368  0.031520081  0.031058511            7 
 2959000    0.7752199   -6.0177672    1117.8663  0.031482097  0.031050659            8 
 2960000   0.77817021    -6.035902    1116.5927  0.031435605    0.0310428           12 
 2961000    0.7695464    -6.008931    1119.5259   0.03150754  0.031034956            4 
 2962000   0.77073881   -6.0563406    1113.3656  0.031323588  0.031027033            9 
 2963000   0.78234526   -6.0197024    1116.5853   0.03140357  0.031019085            6 
 2964000   0.78428876    -6.052505    1110.4111  0.031219384  0.031011185            6 
 2965000   0.78900045   -6.0606061     1117.121  0.031397442  0.031003234            6 
 2966000   0.77488888   -6.0492067    1116.1932   0.03136079   0.03099535            5 
 2967000   0.78036221   -6.0339249    1116.7416  0.031365621  0.030987487            6 
 2968000    0.7700115   -6.0029556     1118.011  0.031390694  0.030979651            6 
 2969000   0.76527851   -6.0523664    1115.7478  0.031316599  0.030971808            8 
 2970000   0.79524707   -6.0549223    1116.7648   0.03133459  0.030963945           11 
 2971000   0.77979135   -6.0135502    1116.0048  0.031302726  0.030956037            5 
 2972000   0.78141687   -6.0501056    1115.9496  0.031290647   0.03094811           13 
 2973000   0.77182657   -6.0264823    1115.6755  0.031272439  0.030940153            7 
 2974000   0.77803453   -6.0104672    1117.5492  0.031314424  0.030932182           11 
 2975000   0.76569628   -6.0147643    1117.2677  0.031296015   0.03092419            4 
 2976000   0.77268166   -6.0335642    1116.1699  0.031254756  0.030916236            9 
 2977000   0.79314417   -6.0403643    1115.1458  0.031215591  0.030908312           11 
 2978000   0.76629876    -6.055445    1117.0027   0.03125707  0.030900303           20 
 2979000   0.77592023   -6.0435102    1114.9068  0.031187948  0.030892324           12 
 2980000   0.77564893   -6.0579519    1115.5124  0.031194418   0.03088436            8 
 2981000    0.7813841   -6.0130303    1117.3067  0.031234113  0.030876377            3 
 2982000   0.77673466   -6.0870628    1115.9091  0.031184582  0.030868422            7 
 2983000   0.79286711   -6.0418331    1116.2313  0.031183129  0.030860475            4 
 2984000   0.76246324   -6.0665296    1116.4044  0.031177512  0.030852418            6 
 2985000   0.77523007   -6.0493525    1117.4663  0.031196714  0.030844378           14 
 2986000   0.75717914   -6.0406168    1116.7982  0.031167622  0.030836427            4 
 2987000   0.78586547   -6.0537602    1118.1706  0.031195475  0.030828434            9 
 2988000   0.79339203   -6.0631069    1114.0229  0.031069358  0.030820432           16 
 2989000   0.76860658    -6.059322    1115.1976  0.031091715  0.030812453           12 
 2990000   0.77600347    -6.065486    1115.4904  0.031089475  0.030804437            5 
 2991000   0.78350326   -6.0774256    1115.4516  0.031078001  0.030796411           22 
 2992000   0.77231313   -6.0170115     1121.503  0.031236158  0.030788391            6 
 2993000   0.77485487   -6.0406672    1117.3065   0.03110888  0.030780444            4 
 2994000   0.77458644   -6.0480637    1117.3862  0.031100707  0.030772464            9 
 2995000   0.76874525   -6.0579389    1116.5142  0.031066061  0.030764428            9 
 2996000   0.76396734   -6.0533334    1116.3586  0.031051362  0.030756407           32 
 2997000   0.76754683   -6.0553741    1120.4908  0.031155901  0.030748448           16 
 2998000   0.75925051   -6.0596309    1115.2176  0.030998932  0.030740468            3 
 2999000   0.75569258   -6.0736506    1115.4313  0.030994535  0.030732461            6 
 3000000   0.78419377   -6.0590174    1115.1886  0.030977462  0.030724478           14 
 3001000   0.77627122   -6.0405441    1117.0416  0.031018594  0.030716417           10 
 3002000   0.76661446   -6.0149841    1120.9995   0.03111813  0.030708472            7 
 3003000   0.75778116   -6.0655285    1114.0444  0.030914762  0.030700488            5 
 3004000    0.7745682   -6.0550486    1117.5119  0.031000664  0.030692469            5 
 3005000   0.75953837   -6.0750829    1116.7108  0.030968131  0.030684426            5 
 3006000   0.78211626   -6.0109398    1120.9892  0.031076435  0.030676436            4 
 3007000   0.77824057   -6.0475934    1117.3937  0.030966458  0.030668461            8 
 3008000   0.77658169    -6.061449     1120.261  0.031035601   0.03066045           14 
 3009000     0.747435   -6.0568659    1121.2416  0.031052442   0.03065251            6 
 3010000   0.76855691   -6.0607519    1116.6059  0.030913784  0.030644518            3 
 3011000   0.78467335   -6.0331989      1119.36  0.030979741  0.030636485            7 
 3012000   0.78660982   -6.0749529    1115.5418  0.030863818  0.030628479            9 
 3013000   0.77212172   -6.0636173    1117.7849  0.030915613  0.030620444           10 
 3014000   0.76424481   -6.0788147    1116.7856  0.030877725  0.030612352            9 
 3015000   0.76761766   -6.0552275    1118.7534  0.030921875  0.030604295            5 
 3016000   0.76422261   -6.0665131    1120.0735  0.030948096  0.030596221            6 
 3017000   0.76471725   -6.0456956    1117.1714  0.030857679  0.030588238            9 
 3018000   0.76123838   -6.0335682    1118.2496  0.030877225   0.03058024            5 
 3019000   0.76117331   -6.0464322    1118.7289  0.030880228  0.030572195            5 
 3020000   0.76658183    -6.062353    1116.9745  0.030821592   0.03056412            7 
 3021000    0.7480785    -6.050637    1118.0783  0.030841837  0.030556097            6 
 3022000   0.76349368   -6.0606416    1116.7179  0.030794117  0.030548057            7 
 3023000   0.76497038   -6.0755133    1115.0134  0.030736945  0.030540003            5 
 3024000   0.76201939   -6.0491512    1116.7021  0.030773315  0.030531999           10 
 3025000   0.77570437   -6.0564694    1119.7058  0.030845889  0.030523973            6 
 3026000   0.76382392   -6.0303282    1119.6925   0.03083533  0.030515918            7 
 3027000   0.75729718   -6.0728687    1116.1164  0.030726694  0.030507861           11 
 3028000   0.76047723   -6.0729402    1116.2475  0.030720154  0.030499743            8 
 3029000   0.76091678   -6.0600389    1118.8124  0.030780578  0.030491618            6 
 3030000   0.77829014    -6.101956    1114.1533  0.030642279  0.030483518           12 
 3031000   0.78859417   -6.0828442    1115.7155  0.030675122   0.03047539            6 
 3032000   0.77383478   -6.0794051    1120.9727  0.030809496  0.030467363            8 
 3033000   0.76978666    -6.069009    1119.6978  0.030764309  0.030459295           11 
 3034000   0.75959998   -6.0565376    1118.0582  0.030709137  0.030451231            6 
 3035000   0.73625793   -6.0836496     1117.997  0.030697338  0.030443193            6 
 3036000   0.75503206   -6.0304037    1121.4482  0.030781954  0.030435183            4 
 3037000   0.76567577   -6.0685202    1119.8699  0.030728513  0.030427173            7 
 3038000   0.77046052   -6.0554263    1121.1618  0.030753834  0.030419169            9 
 3039000   0.75036994   -6.0469634    1123.6872  0.030812963  0.030411157            7 
 3040000   0.74578492   -6.0460525    1121.6326  0.030746508  0.030403114            7 
 3041000   0.76553964   -6.0533843    1120.6599  0.030709741  0.030395096            5 
 3042000   0.77358465   -6.0730866     1122.322   0.03074518  0.030387036            5 
 3043000   0.77101439   -6.0406882    1119.7487  0.030664605  0.030378951            8 
 3044000   0.76570764   -6.0993329    1118.5608  0.030622009  0.030370894            6 
 3045000   0.78449137   -6.0686664    1120.7363  0.030671492  0.030362862            8 
 3046000   0.76898574   -6.0913222    1118.0076  0.030586768  0.030354771           11 
 3047000   0.76356231   -6.0890037    1118.7574  0.030597239  0.030346754           11 
 3048000   0.77217748   -6.0366705    1122.3939  0.030686622  0.030338693            7 
 3049000   0.76238601   -6.0707291    1119.8882  0.030608075  0.030330646           10 
 3050000   0.76460661   -6.0592742    1121.1971  0.030633801  0.030322575            7 
 3051000   0.77366218   -6.0821505    1118.5346  0.030551038  0.030314512            7 
 3052000   0.76494186   -6.0782557    1116.5807  0.030487677   0.03030641           12 
 3053000    0.7631202   -6.0775373    1119.6501  0.030561472  0.030298301            7 
 3054000   0.74825098   -6.0675204     1117.983  0.030505977  0.030290212           15 
 3055000   0.77166662    -6.077681    1121.7531  0.030598829  0.030282091            8 
 3056000   0.76712327   -6.0641928    1121.9394  0.030593896  0.030274021            8 
 3057000   0.75759578   -6.0796006    1121.2247  0.030564408     0.030266           10 
 3058000   0.75689903   -6.0811522    1119.8843  0.030517884  0.030257904            8 
 3059000   0.75951373   -6.0946152    1121.7916  0.030559867  0.030249827           19 
 3060000   0.75727063   -6.0877478    1119.4659  0.030486545   0.03024173           12 
 3061000   0.75792052   -6.0870392    1118.5324  0.030451171  0.030233633            7 
 3062000   0.76434676   -6.1003279    1120.0543  0.030482645  0.030225553            7 
 3063000   0.73850279   -6.0615431    1121.9342  0.030523837  0.030217506            5 
 3064000    0.7678063    -6.036805    1122.1013   0.03051842  0.030209489            4 
 3065000   0.76778525    -6.107127    1119.8643  0.030447644  0.030201426           12 
 3066000   0.76822892   -6.0712052    1123.4903  0.030536267  0.030193381           12 
 3067000    0.7595851   -6.1000183    1120.6276  0.030448528  0.030185275            5 
 3068000   0.77537115   -6.0447528    1122.2011  0.030481343  0.030177214           15 
 3069000   0.76386612   -6.0880466    1120.8883  0.030435764   0.03016911            4 
 3070000   0.76818139   -6.0854872    1124.9389  0.030535802  0.030160998            7 
 3071000   0.76385208   -6.0530482    1122.5709    0.0304616  0.030152922           11 
 3072000   0.75513412   -6.0636668    1119.1724  0.030359495  0.030144877           17 
 3073000   0.75346202    -6.056292    1122.3086  0.030434662  0.030136833            9 
 3074000   0.77148052   -6.0540937    1122.5123  0.030430283  0.030128781            5 
 3075000   0.76634031   -6.0569566    1121.7688  0.030400237  0.030120758            4 
 3076000   0.76107148   -6.0703754    1120.8537  0.030365564   0.03011272           13 
 3077000   0.73960976   -6.0634817    1121.5471  0.030374474  0.030104658            8 
 3078000   0.76269885   -6.0504527    1122.2287  0.030383061  0.030096628            6 
 3079000   0.76060163   -6.0662436     1124.505  0.030434801  0.030088574            9 
 3080000    0.7483884   -6.0662908    1122.2181  0.030363044  0.030080492            8 
 3081000    0.7598448   -6.0851149     1122.009  0.030347534  0.030072381            6 
 3082000   0.75644262   -6.0682907     1124.233  0.030397821  0.030064364           12 
 3083000   0.75689933   -6.0712512    1125.3693  0.030418675  0.030056373            6 
 3084000   0.75398851    -6.090567    1121.4447  0.030302765  0.030048314            7 
 3085000   0.74603142   -6.0862004    1121.2462  0.030287579  0.030040251            5 
 3086000   0.76834663   -6.1030531    1123.3647  0.030334973  0.030032146            8 
 3087000   0.75712093    -6.060508    1122.4692  0.030300972  0.030024049           11 
 3088000    0.7605874   -6.0786569    1122.1243  0.030281852  0.030015993            8 
 3089000   0.78362907   -6.0988618    1121.6501  0.030259255  0.030007865           13 
 3090000   0.76060526   -6.0683584     1123.204  0.030291369  0.029999763            9 
 3091000   0.75493607   -6.0762143    1122.3669  0.030259002  0.029991651           10 
 3092000   0.76527839   -6.1070643    1119.9058  0.030182886  0.029983503           14 
 3093000    0.7475978   -6.1022231     1119.104  0.030151525  0.029975315            8 
 3094000   0.76381116     -6.08627    1122.2136  0.030225534  0.029967117            8 
 3095000   0.74311033   -6.1051029    1123.1371  0.030240634  0.029959021            5 
 3096000   0.76332619   -6.0714883    1124.5236  0.030268185  0.029950889            9 
 3097000   0.75382997   -6.0967873    1120.4247  0.030148119  0.029942771            8 
 3098000   0.75826941   -6.0666821    1120.7665  0.030147581  0.029934606           10 
 3099000   0.76378183   -6.0862567    1122.2882  0.030178773  0.029926507            4 
 3100000    0.7693263   -6.1021678    1121.1365  0.030138077   0.02991835            5 
 3101000   0.76171175   -6.1034169    1122.9053  0.030175893  0.029910175            6 
 3102000    0.7555218   -6.0677188     1121.763  0.030135477  0.029902029            8 
 3103000   0.76841841   -6.1023747    1120.7742   0.03009921  0.029893954            7 
 3104000   0.76061592   -6.0943006    1120.2301  0.030074906  0.029885856           18 
 3105000   0.75476613   -6.0866755    1123.5567  0.030154502  0.029877808            8 
 3106000   0.74757136   -6.1070393    1121.2097  0.030081822  0.029869687            4 
 3107000   0.75212759   -6.0960149     1122.011  0.030093631  0.029861568           15 
 3108000    0.7717372   -6.0616796    1123.3979  0.030121135   0.02985343           14 
 3109000   0.74881509   -6.0925711    1122.3031  0.030082102  0.029845296           14 
 3110000   0.74562981   -6.0755138    1119.9433  0.030009198   0.02983716           10 
 3111000   0.75805897   -6.0760352    1122.2718  0.030061926  0.029829012            8 
 3112000   0.74671513   -6.1263802    1122.0578  0.030046534  0.029820908            5 
 3113000   0.76327901   -6.0869653    1123.4287  0.030073581  0.029812717            7 
 3114000   0.73876533   -6.0973745    1120.2527  0.029978932  0.029804511            8 
 3115000   0.75045571   -6.1225346    1114.7091  0.029821003  0.029796252            5 
 3116000   0.75417652   -6.0952742    1122.3788   0.03001655  0.029788032            7 
 3117000   0.76840416   -6.0640024    1120.7407  0.029963123  0.029779872            9 
 3118000   0.74628408   -6.0806226    1120.5379  0.029948096  0.029771705            6 
 3119000    0.7532931   -6.1196186    1118.7244  0.029890039  0.029763477            7 
 3120000    0.7441424   -6.1446649    1118.8322  0.029883339  0.029755203           14 
 3121000   0.75606762   -6.1224139    1121.1091  0.029934559  0.029746961            8 
 3122000   0.76563409   -6.0857485    1121.8078  0.029943621  0.029738706            6 
 3123000   0.74613203   -6.1169093    1120.8133  0.029907495  0.029730526            9 
 3124000   0.74393529   -6.1052691    1122.4814   0.02994242  0.029722363            7 
 3125000   0.75156208   -6.1107521     1121.241  0.029899759  0.029714156            6 
 3126000   0.74697905   -6.1016595    1123.9342  0.029961991  0.029705948            9 
 3127000   0.75343558   -6.1243784    1122.6707  0.029918736  0.029697788           16 
 3128000   0.75447617   -6.1386015    1121.3288  0.029873424  0.029689591           15 
 3129000    0.7545745   -6.1159179    1118.8519  0.029797909  0.029681366            6 
 3130000   0.74642413   -6.1022592    1120.9062  0.029843083  0.029673191            7 
 3131000   0.74466762   -6.0983845    1123.0344  0.029890195  0.029665042            8 
 3132000   0.74321352   -6.1022691     1124.875  0.029929624  0.029656846            5 
 3133000   0.75039833   -6.1441299    1121.9867  0.029843246  0.029648684            9 
 3134000    0.7548739   -6.0906119    1123.7346  0.029880201  0.029640525           12 
 3135000   0.75148998   -6.1131078    1126.0612  0.029932515    0.0296324           10 
 3136000   0.74586646   -6.0981593     1125.135  0.029898358  0.029624259           13 
 3137000   0.74674313   -6.0927355    1124.2622  0.029865641  0.029616138           17 
 3138000   0.74822958    -6.087838    1122.3876  0.029806341  0.029608074            7 
 3139000   0.75112126   -6.1148193     1124.475  0.029852262  0.029599999            8 
 3140000   0.77098418   -6.0763052    1124.7104  0.029849001  0.029591903            7 
 3141000   0.76286066   -6.1528947    1119.6342  0.029704823  0.029583784           11 
 3142000   0.74910104   -6.0885363    1126.7475   0.02988403  0.029575631           10 
 3143000   0.75105133   -6.1063349    1125.3735  0.029838092  0.029567552           17 
 3144000   0.74666047   -6.1004471    1126.1827   0.02985005  0.029559531            5 
 3145000   0.73193556   -6.0963673    1127.4975  0.029875397  0.029551457            9 
 3146000     0.760392    -6.085161    1126.5514   0.02984084   0.02954342           10 
 3147000   0.75735992    -6.120062    1126.4764  0.029829371  0.029535374           10 
 3148000   0.73943964   -6.0934669    1126.5707  0.029822392   0.02952737           11 
 3149000   0.73655254   -6.0793333    1127.3648  0.029833938  0.029519338            5 
 3150000   0.74851299   -6.0629431    1126.6623  0.029805882  0.029511325            9 
 3151000   0.75606078   -6.1009381     1126.208  0.029784406  0.029503288            3 
 3152000   0.74204674    -6.123787    1126.0286  0.029770216  0.029495212            5 
 3153000   0.76245351   -6.1218141    1128.5998  0.029828728  0.029487196           10 
 3154000   0.73664892   -6.0928706    1128.5352  0.029817565  0.029479179           11 
 3155000   0.72729278   -6.1079957     1129.909  0.029844399  0.029471103            5 
 3156000   0.75548915   -6.0959946    1127.6691  0.029775801  0.029463034            5 
 3157000   0.74156992   -6.1183498    1127.0215  0.029749274  0.029454979           14 
 3158000    0.7473537   -6.0971022    1125.7259  0.029705666  0.029446867            7 
 3159000   0.75665663   -6.1156689     1124.272  0.029657908  0.029438765           12 
 3160000   0.75528585   -6.1218272    1126.0898  0.029696461  0.029430715           30 
 3161000   0.74220074   -6.1257891    1126.5615  0.029699502  0.029422592           10 
 3162000   0.75978722   -6.1199014    1127.1419  0.029705405  0.029414475           12 
 3163000   0.74065714   -6.0965715    1125.8627  0.029662311  0.029406414           21 
 3164000   0.75526695   -6.1247811    1125.5864  0.029645659  0.029398368           13 
 3165000   0.75031947   -6.1400889    1124.9606  0.029619817  0.029390333            8 
 3166000   0.74063118   -6.1085384     1127.303  0.029672115  0.029382266            8 
 3167000    0.7448212   -6.0827108    1127.9198  0.029678975   0.02937424            7 
 3168000   0.74093652   -6.1142209    1128.0785  0.029673783  0.029366224            9 
 3169000   0.73002104   -6.1070188    1129.2756  0.029695898  0.029358225            8 
 3170000   0.74888482   -6.1157876    1126.8914  0.029623854  0.029350196            6 
 3171000   0.74121384   -6.1033376    1125.7701  0.029585044  0.029342156            6 
 3172000   0.75187293   -6.1412043    1126.8886  0.029605102  0.029334124           11 
 3173000    0.7484961    -6.120368    1127.6022  0.029614513  0.029326044           15 
 3174000   0.74679938   -6.1258449    1127.1491  0.029593287  0.029318048            8 
 3175000   0.74079928   -6.1410506    1128.0467  0.029607525  0.029310021           11 
 3176000   0.74907608   -6.1183469    1129.6694   0.02964078  0.029301998           10 
 3177000   0.75433318    -6.103067    1130.5142  0.029653608  0.029294011            9 
 3178000    0.7564695   -6.1354173    1131.8549  0.029679433  0.029286027           15 
 3179000   0.73628379   -6.1469176    1127.0827  0.029545002  0.029278029           10 
 3180000   0.73304995   -6.0979881    1130.2123  0.029617722  0.029270018           13 
 3181000   0.76687593   -6.1127155    1129.4018  0.029587178  0.029262049            8 
 3182000    0.7397615   -6.1159126    1131.2639  0.029626649  0.029254056            4 
 3183000   0.74414554   -6.0916021    1129.9578  0.029583145   0.02924608           10 
 3184000   0.73921412   -6.1122811    1130.3995  0.029585414  0.029238162           13 
 3185000   0.73751082   -6.1068555    1133.7382  0.029663479   0.02923026            9 
 3186000   0.74723233   -6.1265734    1129.3814  0.029540212  0.029222344           18 
 3187000   0.73302873   -6.1216607    1126.9604  0.029467639  0.029214435            7 
 3188000    0.7355857     -6.11674    1129.7634  0.029531665  0.029206486           11 
 3189000   0.74991561    -6.130846    1127.6669  0.029467621  0.029198468           12 
 3190000    0.7472658    -6.113818     1130.929    0.0295436  0.029190481            7 
 3191000    0.7431381    -6.127301    1130.1592  0.029514238  0.029182507           10 
 3192000   0.74113588   -6.1259359    1129.6847  0.029492603  0.029174588            6 
 3193000   0.74093166   -6.0951533    1129.6742  0.029483093  0.029166646            5 
 3194000   0.73851465   -6.1127436    1131.8824  0.029531475  0.029158754            6 
 3195000   0.74998863   -6.0918335    1129.6212  0.029463254  0.029150834            6 
 3196000   0.71896112   -6.0954669    1129.8056  0.029458844  0.029142889            5 
 3197000   0.75852553   -6.0987314    1134.4697  0.029571205  0.029134913           10 
 3198000   0.74240705   -6.1196661    1128.0974  0.029395908   0.02912697            9 
 3199000   0.74189039   -6.1146582    1133.7358  0.029533599  0.029119023            9 
 3200000   0.73333309   -6.1161465    1130.0793  0.029429149  0.029111089            8 
 3201000    0.7199562   -6.1419856    1127.7457  0.029359202  0.029103085            9 
 3202000    0.7443388   -6.1333299     1132.168  0.029465126  0.029095083            7 
 3203000   0.72345591   -6.1523194    1126.7424  0.029314766  0.029087078           11 
 3204000   0.73645111   -6.1328465    1129.1134  0.029367286  0.029079044            8 
 3205000   0.74502922   -6.1228621    1129.0163  0.029355598  0.029071058           18 
 3206000   0.73427172   -6.1504554    1132.8398  0.029445826  0.029063119            5 
 3207000   0.74412441   -6.1393936    1129.4612  0.029348852  0.029055115            7 
 3208000    0.7315722   -6.1410682    1132.3018  0.029413491   0.02904712           14 
 3209000   0.73871313   -6.1338461    1132.2176  0.029402139  0.029039124           15 
 3210000   0.73293091   -6.1517957    1129.9196  0.029333322  0.029031125            8 
 3211000    0.7341717   -6.1771893    1128.9988   0.02930029  0.029023137           10 
 3212000   0.73739157   -6.1666041    1128.3951  0.029275506  0.029015153            4 
 3213000   0.74550946   -6.1539599    1129.1429  0.029285788  0.029007123            7 
 3214000   0.73492214   -6.1693067    1129.2214  0.029278713  0.028999085            8 
 3215000   0.73695595   -6.1435278    1129.4274  0.029274946  0.028991083           12 
 3216000    0.7362538   -6.1451029    1131.0914  0.029308962  0.028983081           12 
 3217000   0.72476039   -6.1534561     1130.362  0.029280956  0.028975153            8 
 3218000   0.74764005    -6.147469    1132.5331  0.029328078  0.028967192           13 
 3219000    0.7425456   -6.1261308    1134.3694  0.029366507  0.028959255            9 
 3220000   0.73851409   -6.1478564    1130.2229  0.029250076  0.028951363            9 
 3221000   0.73755465   -6.1486711    1131.2987  0.029268827  0.028943438            7 
 3222000   0.75321733   -6.1592735    1132.3976  0.029288165  0.028935479           17 
 3223000    0.7310745   -6.1646274    1128.6491  0.029182156  0.028927502           10 
 3224000   0.72223213   -6.1564165    1132.5928   0.02927504  0.028919512           11 
 3225000   0.74119873   -6.1681141    1126.2322  0.029101607  0.028911501            9 
 3226000   0.74062891   -6.1543873    1132.2625  0.029248359  0.028903524           17 
 3227000   0.72812072   -6.1412161    1134.6595  0.029301197   0.02889558           13 
 3228000   0.72960084   -6.1272787    1133.3628  0.029258643  0.028887637           17 
 3229000   0.73151877    -6.151873     1133.166  0.029244504  0.028879696            5 
 3230000   0.73071757   -6.1450247    1131.1797  0.029184202  0.028871733            9 
 3231000   0.73789806    -6.137094    1132.2216  0.029202042  0.028863788           21 
 3232000   0.73129908    -6.165089    1129.1667  0.029114241  0.028855848           10 
 3233000   0.72332159   -6.1520523    1134.8209  0.029250978  0.028847906           18 
 3234000   0.74147331   -6.1417126    1131.3684  0.029152969  0.028839947            7 
 3235000   0.74894048   -6.1402315    1131.3283  0.029142925  0.028831995            5 
 3236000   0.74595401   -6.1639532    1133.5142  0.029190208  0.028824023            8 
 3237000   0.73028713    -6.128042    1133.8586  0.029190058  0.028816071           12 
 3238000   0.72943222   -6.1586549    1129.8761  0.029078548  0.028808079           25 
 3239000   0.72466124   -6.1580005    1131.0514  0.029099809   0.02880009            8 
 3240000   0.73678948   -6.1486802    1134.6734  0.029183986  0.028792152            9 
 3241000   0.74543424   -6.1374396    1132.9478  0.029130613  0.028784244            8 
 3242000   0.73227666   -6.1452469    1133.1804  0.029127606  0.028776352           19 
 3243000   0.72408994   -6.1376789    1134.0987  0.029142223    0.0287684            5 
 3244000   0.72751987   -6.1119701    1134.0186   0.02913118  0.028760456            8 
 3245000   0.73506082   -6.1434739    1131.6103  0.029060358  0.028752543           17 
 3246000   0.72314938   -6.1708401    1130.7373  0.029028992  0.028744603            7 
 3247000   0.71740867   -6.1353945    1132.9664  0.029077262  0.028736656            8 
 3248000   0.73184234   -6.1543523    1132.4506  0.029055074    0.0287287           26 
 3249000   0.74176885   -6.1403102    1132.2862  0.029041914  0.028720765           22 
 3250000   0.73159954   -6.1398463    1135.2683  0.029109443  0.028712813            8 
 3251000    0.7238004   -6.1515234    1132.8915  0.029039564  0.028704904            9 
 3252000   0.74137619   -6.1418759    1134.2971  0.029066654  0.028697014            9 
 3253000   0.72410636   -6.1322445    1134.4287   0.02906109  0.028689128           11 
 3254000   0.72988309   -6.1566187    1132.6227  0.029005907  0.028681218           30 
 3255000   0.71990101   -6.1578212     1133.727  0.029025268  0.028673269           18 
 3256000   0.72389648   -6.1756336    1133.1787  0.029002322  0.028665325            8 
 3257000   0.73624533   -6.1716555    1132.2205    0.0289689  0.028657362           10 
 3258000   0.71988444   -6.1350414    1133.7406  0.028998889  0.028649379           14 
 3259000   0.73060739   -6.1472147    1133.0162  0.028971468  0.028641434           11 
 3260000   0.72284704   -6.1514741    1134.7293  0.029006373  0.028633516            9 
 3261000   0.73290403   -6.1391285    1136.1328  0.029033343  0.028625639           12 
 3262000   0.72190137   -6.1761871    1127.9107  0.028814397  0.028617705           10 
 3263000   0.71796996   -6.1813596    1132.6895  0.028927611  0.028609755           10 
 3264000   0.72687793   -6.1550838    1134.7937  0.028972469  0.028601808           10 
 3265000   0.73816957   -6.1615898    1130.5363  0.028854934  0.028593858           11 
 3266000   0.71580293   -6.1809661    1131.6878  0.028875479  0.028585851           11 
 3267000   0.75277571   -6.1627579    1132.8366  0.028895945  0.028577861           12 
 3268000   0.71456254   -6.1581264    1134.2304  0.028922645  0.028569899           10 
 3269000   0.72907662   -6.1594534    1132.3145  0.028864956  0.028561961            8 
 3270000   0.73160675   -6.1791956    1131.1503  0.028826461  0.028554026            6 
 3271000   0.73263047   -6.1688951    1131.0249  0.028814452  0.028546059           12 
 3272000   0.73460564   -6.1603036     1132.458  0.028842145  0.028538119            9 
 3273000   0.71755878   -6.1858834    1132.9558  0.028846008   0.02853018            8 
 3274000   0.72425333   -6.1468891    1134.1728  0.028868172  0.028522221            9 
 3275000   0.72458616   -6.1628174     1133.294  0.028836999  0.028514291            6 
 3276000   0.71846892   -6.1863594    1133.2353  0.028826701  0.028506327           20 
 3277000   0.71447335   -6.1549456    1133.9822    0.0288369  0.028498397           11 
 3278000   0.71845894   -6.1604881    1136.5846  0.028894259  0.028490495           13 
 3279000    0.7287653   -6.1650417    1133.5713  0.028808868  0.028482569           12 
 3280000   0.71106412   -6.1525563    1136.3334   0.02887026   0.02847463           13 
 3281000   0.71763275    -6.139002     1133.866  0.028798792   0.02846672           16 
 3282000   0.71974464   -6.1562085     1132.906   0.02876564  0.028458782           15 
 3283000   0.72473521   -6.1458625    1133.9365  0.028783037  0.028450825            6 
 3284000   0.71530382   -6.1448681    1132.8841  0.028747566  0.028442856            7 
 3285000   0.69953616   -6.1404194    1133.4275    0.0287526  0.028434921           14 
 3286000   0.73146113   -6.1416167    1134.3658  0.028767645  0.028427028           11 
 3287000    0.7201428   -6.1762753    1132.5956  0.028714014  0.028419135            9 
 3288000   0.73122191   -6.1551574    1133.4237  0.028726269  0.028411147           22 
 3289000   0.74448651    -6.171829    1135.6454  0.028773827  0.028403199           12 
 3290000   0.72265859   -6.1778187     1134.998  0.028748683  0.028395264           10 
 3291000   0.71853892    -6.203827    1133.0722  0.028691182  0.028387273            5 
 3292000   0.72611676   -6.1564822    1135.3924  0.028741202  0.028379315           10 
 3293000   0.72339114    -6.138536    1134.9964  0.028722452  0.028371371           10 
 3294000   0.72050593   -6.1316172    1136.2382  0.028745147  0.028363455            6 
 3295000   0.71480767   -6.1569588    1132.5344  0.028642752  0.028355549            7 
 3296000   0.72339386   -6.1795092      1134.75  0.028690079   0.02834763           14 
 3297000   0.71603027   -6.1751467    1132.6431  0.028628125  0.028339684            7 
 3298000   0.73621748   -6.1642202    1135.3342  0.028687442  0.028331764            7 
 3299000   0.72218644   -6.1665309     1135.822  0.028691067  0.028323844           11 
 3300000   0.72474505   -6.1806195    1134.7361  0.028654951  0.028315926            7 
 3301000   0.71428977   -6.1645467    1137.4343  0.028714388  0.028308034            8 
 3302000   0.72480661   -6.1872864    1135.5295  0.028657618  0.028300152            8 
 3303000    0.7261799   -6.1466764    1136.1909  0.028665629  0.028292323           12 
 3304000   0.72130841   -6.1512649    1134.7039  0.028619449  0.028284494            6 
 3305000   0.71377973   -6.1480395    1135.6884  0.028635613  0.028276718            7 
 3306000   0.72651488   -6.1636602    1136.8084  0.028655183  0.028268879            7 
 3307000    0.7235996   -6.1978723    1136.9469  0.028650007  0.028261009            5 
 3308000   0.71208713   -6.1896044    1134.1212  0.028570164  0.028253153           10 
 3309000   0.71968802   -6.2039315    1133.3219    0.0285414  0.028245229           11 
 3310000   0.71205325    -6.198063    1135.5368  0.028588541  0.028237276            8 
 3311000   0.72712882   -6.1780522     1136.441  0.028602664  0.028229349           13 
 3312000   0.72386728   -6.1758149    1138.0335  0.028634095  0.028221501            8 
 3313000   0.70801209   -6.1867478    1138.3829  0.028634241  0.028213654            9 
 3314000   0.73053729   -6.1830076    1138.9461  0.028639763  0.028205807            7 
 3315000   0.72110637    -6.162685    1138.6557  0.028623825  0.028197999            9 
 3316000   0.73406939   -6.1723792     1138.528  0.028611983  0.028190222           23 
 3317000   0.72516274   -6.1499077    1141.5343  0.028678883  0.028182497           13 
 3318000   0.71960785   -6.1401479    1139.6087  0.028621878  0.028174758           13 
 3319000    0.7272242   -6.1858884    1136.6742  0.028539575  0.028167007           13 
 3320000   0.72100007   -6.1899687     1136.798  0.028534086  0.028159225           12 
 3321000   0.72491267   -6.1848567    1137.1804  0.028535091  0.028151448           13 
 3322000   0.72705049   -6.1928431    1138.5464  0.028560766   0.02814362           11 
 3323000   0.72207296    -6.200776    1138.2897  0.028545735  0.028135802            8 
 3324000   0.71455698   -6.1820542    1140.7304  0.028598336  0.028127998            9 
 3325000   0.71951221   -6.1692208    1139.8304  0.028567178  0.028120214           22 
 3326000   0.73139208   -6.1860532    1138.5664   0.02852692  0.028112443           12 
 3327000   0.70988623   -6.1614245    1142.9641  0.028628497  0.028104717           17 
 3328000   0.72349215   -6.1821381    1141.4115  0.028581018  0.028097017           22 
 3329000   0.72745064   -6.1843269    1143.5095  0.028624949  0.028089323            9 
 3330000   0.71580619   -6.1926085    1139.1931  0.028508335  0.028081628           11 
 3331000   0.71414127   -6.1959598    1138.3129  0.028477757  0.028073913           14 
 3332000   0.71228792   -6.2089588    1140.8884  0.028533624  0.028066187           15 
 3333000   0.70323241   -6.1864504    1141.0466  0.028529018  0.028058438           13 
 3334000   0.72773426   -6.1936021    1139.2263  0.028474963  0.028050696           11 
 3335000   0.73414726   -6.1833318    1138.4343  0.028446634  0.028042952            5 
 3336000   0.71938531   -6.1746931    1141.0106  0.028502462   0.02803525            6 
 3337000   0.72148331   -6.1776502    1137.7169   0.02841167    0.0280275           10 
 3338000   0.72195964   -6.1982048     1140.177  0.028464576  0.028019727            5 
 3339000   0.71745985   -6.1878887    1141.3367  0.028484993  0.028011975           22 
 3340000   0.71659443   -6.1866175    1138.0745  0.028395072  0.028004189           20 
 3341000    0.6988253   -6.1991269    1138.9962  0.028409563  0.027996415           16 
 3342000   0.70978776   -6.1682789    1143.8833  0.028522922  0.027988606           12 
 3343000   0.71581365   -6.1796452    1139.7338  0.028410952  0.027980822            6 
 3344000   0.71534028   -6.2142011    1138.9942  0.028384026   0.02797303           15 
 3345000    0.7148844   -6.1699405    1139.7775  0.028395055  0.027965251           12 
 3346000    0.7147943   -6.2016769    1138.6529  0.028358559  0.027957448           17 
 3347000   0.71968255   -6.1945488     1139.097  0.028361145  0.027949639            8 
 3348000   0.73804656   -6.1673419    1139.9798  0.028374647  0.027941853            9 
 3349000   0.72705352   -6.1889637    1138.3661  0.028326019    0.0279341           12 
 3350000   0.72162243   -6.1959591    1139.9228  0.028356288  0.027926275           14 
 3351000   0.70281375   -6.2004794    1138.0812  0.028302029  0.027918445           39 
 3352000   0.71985533   -6.1877601    1139.1229  0.028319483  0.027910636           11 
 3353000   0.71077616   -6.1907249    1138.9367  0.028306409  0.027902845            8 
 3354000   0.70427792   -6.2122399    1139.5559  0.028313355  0.027894979           15 
 3355000   0.71538841   -6.1806779    1140.4113  0.028326163  0.027887139           20 
 3356000   0.71753944   -6.2156535    1135.5289  0.028196487   0.02787932           11 
 3357000   0.71288189    -6.192766    1139.2648  0.028280825   0.02787151            8 
 3358000   0.70229374   -6.2166159    1137.2957  0.028223537  0.027863688           18 
 3359000   0.71629001    -6.182937    1136.0413  0.028184016  0.027855901            4 
 3360000   0.69057268    -6.187377    1137.9551  0.028223093  0.027848121            7 
 3361000   0.70684131   -6.1631275    1139.4508   0.02825178  0.027840334            7 
 3362000   0.72088409   -6.1995851    1138.8181  0.028227694  0.027832577           12 
 3363000   0.70514878   -6.1867108    1140.5238  0.028261567   0.02782484           15 
 3364000   0.72537176   -6.1861148    1138.8054  0.028210598  0.027817086            7 
 3365000   0.72265766   -6.2000566    1141.1469    0.0282602  0.027809331           11 
 3366000   0.72471444   -6.1696526    1137.5379  0.028162455  0.027801584           29 
 3367000   0.71209022   -6.1890605    1138.4066  0.028175591  0.027793805           22 
 3368000   0.69440048   -6.1862353    1139.6649   0.02819836   0.02778603            6 
 3369000   0.70168256   -6.2121108    1139.9549  0.028197164  0.027778268           17 
 3370000   0.71386449   -6.2060004    1138.9942  0.028165041  0.027770477           34 
 3371000   0.72599907   -6.2089626    1141.3082  0.028213887  0.027762729           12 
 3372000     0.715143   -6.2071668     1139.317  0.028156311  0.027754923            7 
 3373000   0.71385142   -6.1810995    1141.8527  0.028210611  0.027747149            8 
 3374000   0.70021864   -6.2156446    1139.6397  0.028147593  0.027739369           20 
 3375000   0.70442612   -6.1928621    1139.4186  0.028133792  0.027731601            9 
 3376000   0.72485092   -6.1890577    1138.4007  0.028100332  0.027723838            5 
 3377000   0.72594575   -6.1999452    1141.4726  0.028167817  0.027716047           11 
 3378000   0.71369615   -6.2133874    1140.0755  0.028125012  0.027708225            8 
 3379000   0.69630406   -6.2110467    1138.2016  0.028070474   0.02770039            5 
 3380000   0.71813802   -6.1879997    1144.3858  0.028214639  0.027692618            7 
 3381000   0.69418999   -6.2091663    1140.3535  0.028106908  0.027684874           25 
 3382000   0.70065736   -6.1879924    1141.8528  0.028135542   0.02767711           17 
 3383000   0.71158819   -6.2023823    1139.7944  0.028076521   0.02766936           13 
 3384000   0.71337399   -6.1951889    1143.5279  0.028160163  0.027661594           14 
 3385000   0.71036039   -6.2195249    1138.0015  0.028015793  0.027653847            8 
 3386000   0.71484795   -6.1978723    1139.5819  0.028046414   0.02764606           13 
 3387000   0.71044556   -6.2047448    1139.3265  0.028031849  0.027638327            9 
 3388000   0.71257184   -6.1924093    1142.3071   0.02809689  0.027630534           27 
 3389000   0.71701118   -6.2018798    1140.3333  0.028040063  0.027622775            9 
 3390000   0.72604229   -6.2242436     1140.878  0.028045183  0.027614996           10 
 3391000   0.71580457   -6.2402629    1135.7881  0.027911828  0.027607188           16 
 3392000   0.70134072   -6.1882624    1136.9029  0.027930987  0.027599384           11 
 3393000   0.71304156   -6.2099333    1138.7408  0.027967894  0.027591612           17 
 3394000   0.71381241   -6.1989793    1140.4081  0.028000592  0.027583814            6 
 3395000   0.71209439   -6.1981327     1143.733  0.028073956   0.02757601           17 
 3396000   0.69901217   -6.1666417    1141.9739  0.028022524  0.027568279            8 
 3397000    0.7084507    -6.209353    1140.6351  0.027981433  0.027560488           17 
 3398000   0.71774242   -6.2286868    1139.8536  0.027954032  0.027552724           25 
 3399000   0.71731001   -6.2177484    1139.5811  0.027939126  0.027544956           16 
 3400000   0.71795615   -6.2118241    1139.7352  0.027934686  0.027537169           10 
 3401000   0.69499961   -6.2191254    1141.0312  0.027958227  0.027529399           14 
 3402000   0.70518908   -6.2196654     1138.139  0.027879164  0.027521608           19 
 3403000   0.69505486   -6.2369791    1140.6028  0.027931306  0.027513853           11 
 3404000    0.7170808   -6.1891121    1137.3276   0.02784292  0.027506054            5 
 3405000   0.70925471   -6.2100168    1140.7508  0.027918523  0.027498289            5 
 3406000   0.71070772   -6.2243559    1140.5347  0.027905037  0.027490504           12 
 3407000   0.72036369   -6.2066995    1142.3996  0.027942462  0.027482757            8 
 3408000   0.69362876   -6.1988382    1144.1779  0.027977746  0.027475011            8 
 3409000   0.70639024   -6.2062429    1141.1552  0.027895648  0.027467246           15 
 3410000   0.69543823   -6.2054793    1141.1441  0.027887197  0.027459475            8 
 3411000   0.70392896    -6.179317     1142.404  0.027909801  0.027451752            9 
 3412000   0.71996382   -6.2151447    1141.9838   0.02789136  0.027444009            6 
 3413000   0.72122579   -6.2320021    1139.8789  0.027831794  0.027436244            7 
 3414000   0.71036154   -6.2245869    1142.0214  0.027875937  0.027428475            8 
 3415000   0.73154312   -6.2199798    1142.3166  0.027874979  0.027420691           10 
 3416000    0.6987696   -6.2008519    1142.1575  0.027862936  0.027412953           13 
 3417000   0.70461983   -6.2418791     1143.517  0.027887938  0.027405228           22 
 3418000   0.69897221   -6.2201381     1139.997  0.027793958  0.027397459            9 
 3419000   0.70946851    -6.225754    1139.9693  0.027785154  0.027389713            9 
 3420000   0.70330735    -6.205434    1143.4513  0.027861874  0.027381972           12 
 3421000   0.69816015   -6.2083074    1142.1736  0.027822606  0.027374293            7 
 3422000   0.71309135   -6.2051108     1142.506   0.02782257  0.027366566           11 
 3423000   0.71895917   -6.2104837    1140.9278  0.027776019  0.027358854           17 
 3424000   0.70642567   -6.2039907    1141.0531  0.027770958  0.027351158            9 
 3425000   0.72029257   -6.2030873    1139.9045  0.027734902  0.027343427            9 
 3426000   0.69166618   -6.2220368    1138.2258  0.027685975   0.02733568           13 
 3427000   0.69251969   -6.2124887    1139.8267  0.027716825  0.027327932           10 
 3428000   0.70389134   -6.2302975    1138.8716  0.027685522  0.027320233            7 
 3429000   0.68128299   -6.2122792    1143.2426  0.027783673  0.027312504            9 
 3430000   0.70805089   -6.2030305    1141.4595  0.027732253    0.0273048            7 
 3431000   0.69759166   -6.2345755    1142.2616  0.027743651  0.027297088           11 
 3432000   0.69719403   -6.2252203    1141.7909  0.027724138  0.027289368            8 
 3433000   0.70566235   -6.2230547    1141.6922  0.027713667  0.027281605           12 
 3434000   0.70689887   -6.2333387    1143.7796  0.027756251  0.027273871            9 
 3435000   0.69345373   -6.2305405    1141.5395  0.027693826  0.027266155            9 
 3436000    0.6940771   -6.2138069    1141.8859  0.027694168  0.027258456           17 
 3437000   0.72093732   -6.2128063     1142.148  0.027692463  0.027250759            8 
 3438000    0.7144859    -6.200002    1141.6536  0.027672425  0.027243076           10 
 3439000   0.69431446   -6.2305256    1140.9032  0.027646196  0.027235323            8 
 3440000   0.69328717   -6.2151856    1142.4858  0.027676497  0.027227621            6 
 3441000   0.71973079   -6.2342483    1141.3237  0.027640311  0.027219915           12 
 3442000   0.70982789   -6.2275059    1142.5116  0.027661039  0.027212228           13 
 3443000   0.69590898   -6.2244914    1141.7209  0.027633867  0.027204581            8 
 3444000   0.70418138   -6.2241288     1144.451  0.027691903  0.027196876           16 
 3445000   0.70646787   -6.2095911    1144.8062  0.027692457  0.027189197           10 
 3446000    0.6991706    -6.234334    1144.1997  0.027669754  0.027181552           13 
 3447000   0.70379123   -6.2214766    1142.5798  0.027622567  0.027173869           16 
 3448000    0.7034828    -6.212627    1147.3222   0.02772917  0.027166196           15 
 3449000   0.68058836    -6.238303    1142.8493   0.02761306  0.027158568           12 
 3450000   0.71258405    -6.189117    1143.7175  0.027626027  0.027150889           10 
 3451000   0.69612694   -6.2152224    1143.7241   0.02761818  0.027143249            5 
 3452000   0.71058649   -6.2018077    1143.2037  0.027597616  0.027135593           23 
 3453000   0.70031063   -6.2106284    1143.1875  0.027589233  0.027127906            7 
 3454000   0.70708544   -6.2321463    1143.1814  0.027581099  0.027120203           14 
 3455000   0.69495361   -6.2169574     1144.728  0.027610419  0.027112473           25 
 3456000   0.69621503   -6.2232869    1143.6368  0.027576118  0.027104801           19 
 3457000   0.68900234   -6.2143299    1142.5787  0.027542636  0.027097144           13 
 3458000   0.70233004   -6.2266387    1139.1603  0.027452292  0.027089461            8 
 3459000   0.69871892     -6.21097      1142.59  0.027526983  0.027081815            6 
 3460000    0.6868858   -6.2407672    1142.8477  0.027525235   0.02707416            8 
 3461000   0.70637609   -6.2571319    1140.2072  0.027453704  0.027066473           15 
 3462000   0.68472116   -6.2324531    1141.6367  0.027480183  0.027058777           13 
 3463000   0.68135521   -6.2181827    1143.8627  0.027525813  0.027051111           18 
 3464000   0.69094739   -6.2391821    1143.1003  0.027499527  0.027043441           10 
 3465000   0.69792379    -6.249574     1142.418   0.02747518  0.027035786           10 
 3466000   0.70708952   -6.2279375    1141.0457  0.027434258  0.027028141            6 
 3467000   0.68138558   -6.2483418    1144.4908  0.027509152  0.027020503            9 
 3468000   0.69276936   -6.2598711     1143.018  0.027465832  0.027012834            9 
 3469000   0.69595918    -6.231118    1145.3154  0.027513101   0.02700515            9 
 3470000   0.70303432   -6.2380058    1145.7746    0.0275162  0.026997514           20 
 3471000   0.69903787   -6.2328816    1143.2257  0.027447077  0.026989872           14 
 3472000   0.69380646   -6.2422609    1139.4636  0.027348877  0.026982219            9 
 3473000   0.67690359   -6.2343773    1141.8621  0.027398554  0.026974592           10 
 3474000    0.6966338   -6.2436032    1140.9382  0.027368504  0.026966951           10 
 3475000   0.69706922   -6.2299253    1144.6307  0.027449177  0.026959324            8 
 3476000   0.69208907   -6.2593041     1143.622  0.027417099  0.026951683           16 
 3477000    0.6999207   -6.2375354    1140.5147  0.027334739  0.026944013           13 
 3478000   0.69449635   -6.2583168    1142.6565  0.027378198  0.026936349           46 
 3479000    0.6810322   -6.2487642    1142.1009   0.02735702  0.026928692            6 
 3480000    0.7014857   -6.2537954    1140.0616  0.027300327  0.026921009           33 
 3481000   0.69578691   -6.2192343    1146.0877  0.027436744  0.026913357           14 
 3482000   0.68842584   -6.2371272    1147.3833  0.027459873  0.026905769           13 
 3483000   0.68709355   -6.2552599    1145.3056  0.027402277  0.026898101           40 
 3484000   0.71057663   -6.2487969    1145.9887  0.027410752  0.026890489            8 
 3485000   0.68512734   -6.2359565    1147.5883  0.027441135  0.026882843           17 
 3486000   0.69540013   -6.2430609    1144.5421  0.027360445  0.026875209           11 
 3487000   0.68102621   -6.2822255    1144.1133  0.027342351  0.026867558            8 
 3488000   0.70831475   -6.2553568    1144.8632  0.027352428  0.026859933           10 
 3489000   0.67258816   -6.2382182    1146.7843  0.027390473  0.026852343           11 
 3490000   0.69441422   -6.2703122    1145.7014  0.027356767  0.026844724           13 
 3491000   0.70002789   -6.2504657    1145.8149  0.027351639  0.026837097           24 
 3492000   0.68220459   -6.2262477     1148.979  0.027419316  0.026829499           17 
 3493000   0.69036903   -6.2409353     1146.063  0.027341898  0.026821915           41 
 3494000   0.67688165   -6.2529807    1143.9359  0.027283341  0.026814318           16 
 3495000   0.70251628   -6.2443857    1146.8243  0.027344404   0.02680672           18 
 3496000   0.69876397   -6.2566589     1142.705  0.027238392  0.026799118           27 
 3497000   0.69125308   -6.2473857    1144.0142    0.0272618   0.02679147           14 
 3498000   0.69941299   -6.2480811    1144.0323  0.027254438  0.026783833           18 
 3499000   0.69085594   -6.2303003     1144.983  0.027269292  0.026776243           38 
 3500000   0.68872946   -6.2585886    1147.0914  0.027311699  0.026768633            9 
 3501000    0.6955623   -6.2651257     1145.426  0.027264257  0.026761015           17 
 3502000     0.676815   -6.2742933    1146.8223  0.027289698  0.026753414            8 
 3503000   0.69520714   -6.2545102    1146.3069  0.027269647   0.02674583           17 
 3504000   0.68434827   -6.2706463    1143.3752  0.027192142  0.026738254           18 
 3505000   0.69237408   -6.2504156     1146.106   0.02724931  0.026730696            8 
 3506000   0.68244197   -6.2572663    1144.5105  0.027203614  0.026723139           10 
 3507000   0.68937927   -6.2499095    1146.2536  0.027237278  0.026715595           11 
 3508000   0.70322107   -6.2441906    1147.8716  0.027267949  0.026708031           12 
 3509000   0.68550165   -6.2462576    1150.4053  0.027320351  0.026700477           11 
 3510000   0.70620584   -6.2584027    1147.9943  0.027255326  0.026692941           27 
 3511000   0.69678685   -6.2434053    1145.3947  0.027185862    0.0266854           11 
 3512000   0.67936011    -6.241576    1145.9543  0.027191399   0.02667789           24 
 3513000   0.70107951    -6.257011     1146.912  0.027206375  0.026670363           13 
 3514000   0.69040114   -6.2494571     1147.012  0.027201006  0.026662829           22 
 3515000   0.69349718   -6.2639111    1147.7994  0.027211934  0.026655326            8 
 3516000    0.6963151   -6.2463871    1149.6651  0.027248415  0.026647808           11 
 3517000   0.69491866   -6.2305564    1149.6265  0.027239752  0.026640291           17 
 3518000   0.69274968   -6.2304651    1147.8811  0.027190664  0.026632817            8 
 3519000   0.69236221   -6.2479189     1146.633  0.027153382  0.026625306           18 
 3520000    0.6927135   -6.2822035    1145.5575  0.027120206  0.026617757           12 
 3521000   0.67011641   -6.2578041    1147.5179  0.027158901  0.026610173           13 
 3522000   0.70511339   -6.2753884    1146.9915  0.027138736  0.026602592           27 
 3523000   0.69502548   -6.2533925    1146.0752  0.027109359  0.026595031           23 
 3524000   0.67285965   -6.2527527    1147.4928  0.027135187  0.026587488            8 
 3525000   0.67239495   -6.2550828    1146.7556  0.027110062  0.026579933           12 
 3526000   0.68099477   -6.2677612    1146.1555  0.027088189  0.026572384           12 
 3527000   0.69316241   -6.2682878    1143.9742  0.027028971  0.026564803            7 
 3528000   0.69917099   -6.2403665    1146.5509  0.027082174  0.026557237           19 
 3529000   0.67919441   -6.2586607    1145.5609  0.027051121  0.026549709           11 
 3530000   0.68303304    -6.260767    1145.0896  0.027032331  0.026542155            9 
 3531000   0.70121285   -6.2262807    1146.8623  0.027066513  0.026534618           12 
 3532000    0.6663527   -6.2473835    1148.9509  0.027108128  0.026527106           23 
 3533000   0.68475741   -6.2683416    1147.6858  0.027070614  0.026519602           10 
 3534000   0.70835792   -6.2439915    1147.9029  0.027068075  0.026512088            6 
 3535000   0.69190615   -6.2345886    1148.6232  0.027077398  0.026504573           10 
 3536000   0.67637139   -6.2328098    1149.7049  0.027095233  0.026497038           35 
 3537000   0.69162512   -6.2494664    1144.5979  0.026967249  0.026489526           21 
 3538000   0.70320564   -6.2588884    1148.9797  0.027062836  0.026482001           18 
 3539000   0.68772115   -6.2762315    1147.1702  0.027012578  0.026474491           26 
 3540000   0.68122609   -6.2672063    1145.0481  0.026954992  0.026466947           21 
 3541000   0.69253779   -6.2900414    1147.0536  0.026994578  0.026459405           10 
 3542000   0.66794293   -6.2656638    1146.2841  0.026968852  0.026451858           14 
 3543000   0.68583448   -6.2945796    1145.6462  0.026946236  0.026444338           16 
 3544000   0.68213679   -6.2582412    1147.0824  0.026972403  0.026436818           17 
 3545000   0.70135386   -6.2742524    1145.3883  0.026924972  0.026429294           17 
 3546000   0.69471913   -6.2649144     1149.001   0.02700228  0.026421763           12 
 3547000   0.68895388   -6.2809292    1144.6136   0.02689159  0.026414252           16 
 3548000    0.6927668    -6.277223    1146.4446  0.026927016  0.026406761           12 
 3549000    0.6750437   -6.2682431    1145.3647  0.026894072  0.026399278            6 
 3550000   0.68912033   -6.2688902    1145.6393  0.026892941  0.026391748           22 
 3551000   0.67398494   -6.2833993    1147.0601   0.02691871  0.026384243           12 
 3552000   0.68328995   -6.2498276    1147.6572   0.02692514  0.026376752           11 
 3553000   0.69316664   -6.2382626    1151.4048  0.027005459  0.026369312           13 
 3554000   0.69921159   -6.2953299    1147.1897  0.026899026  0.026361861            8 
 3555000   0.67072161   -6.2430586     1152.633  0.027019057   0.02635437           10 
 3556000   0.68010096   -6.2712895    1149.4986  0.026938006  0.026346858            8 
 3557000   0.69319493   -6.2599928    1147.7174  0.026888702  0.026339353           17 
 3558000   0.67324192   -6.2752098    1147.1456  0.026867752  0.026331831            6 
 3559000   0.68558853   -6.2701554    1147.6367  0.026871703  0.026324331            8 
 3560000   0.67744147   -6.2746144    1145.9307  0.026824221  0.026316842           19 
 3561000   0.67806448   -6.2373754    1150.7618  0.026929743  0.026309372           11 
 3562000   0.68095001   -6.2707874    1147.5267  0.026846498  0.026301892           16 
 3563000   0.68573477   -6.2872994    1145.1709  0.026783864  0.026294381           25 
 3564000   0.68392563   -6.2645337    1146.1048  0.026798186  0.026286855            8 
 3565000    0.6839054   -6.2690835    1148.0706  0.026836619   0.02627936           23 
 3566000   0.69630624   -6.2803934    1147.2456  0.026809816  0.026271887           13 
 3567000   0.66934322   -6.2448368    1152.2496  0.026919204  0.026264433           11 
 3568000   0.69758594   -6.2547002    1150.2861    0.0268658  0.026256966            8 
 3569000   0.66631577   -6.2683661    1144.8894  0.026732265  0.026249484           19 
 3570000   0.68354983   -6.2463543    1149.6652  0.026836256  0.026242018           12 
 3571000   0.67878446   -6.2948298    1148.9603   0.02681229  0.026234489           13 
 3572000   0.66760996   -6.2861751    1147.8107  0.026777964  0.026226949           12 
 3573000   0.67809303   -6.2777587    1146.6535  0.026743482  0.026219386           27 
 3574000   0.67443111   -6.2779808    1149.6005  0.026804711  0.026211838           20 
 3575000   0.67871638    -6.280957    1145.7234   0.02670684  0.026204308           13 
 3576000   0.67631019   -6.2842499    1144.7478  0.026676636  0.026196733           18 
 3577000   0.67332486   -6.2781054    1145.8652  0.026695211   0.02618917           20 
 3578000   0.68686584   -6.2614944    1150.2433  0.026789718  0.026181692            7 
 3579000   0.68999889   -6.2819632    1148.4454   0.02674037  0.026174217           18 
 3580000   0.68475546   -6.2868154    1148.0553  0.026723819  0.026166697            8 
 3581000   0.69082102   -6.2841022    1148.5438  0.026727725  0.026159193           12 
 3582000   0.68035762   -6.2727081    1150.2683  0.026760382  0.026151704           13 
 3583000   0.67152413   -6.3075685    1145.9381  0.026652202  0.026144232           21 
 3584000   0.67105194   -6.2596337    1147.4574  0.026680092  0.026136769           13 
 3585000   0.67407534   -6.2788551    1146.5944   0.02665259  0.026129296           16 
 3586000   0.66425644   -6.2652814    1148.7747  0.026695824  0.026121794           24 
 3587000   0.67237043   -6.2704034     1147.226  0.026652402  0.026114311           14 
 3588000   0.67102488   -6.2922651    1145.9049   0.02661429  0.026106833           13 
 3589000   0.67241426   -6.3035123    1145.5659  0.026599004  0.026099341           14 
 3590000   0.66635326   -6.2907926    1150.2896  0.026701244  0.026091826            7 
 3591000   0.67077476   -6.2798451     1147.358  0.026625777  0.026084351           17 
 3592000   0.68632309   -6.2959647    1148.8685  0.026653408  0.026076867           26 
 3593000   0.67709343   -6.3047643    1146.6134  0.026593686  0.026069404           15 
 3594000   0.67664058   -6.2747038     1147.285  0.026601859  0.026061979            5 
 3595000   0.66684597   -6.3001652    1146.6842  0.026580534  0.026054497           13 
 3596000   0.68508781    -6.308413      1148.98  0.026626344  0.026047017           13 
 3597000   0.67182541    -6.294262    1149.8668  0.026639486  0.026039565           12 
 3598000   0.69091318   -6.2737223    1148.6369  0.026603596  0.026032133            9 
 3599000   0.66499934   -6.2719149    1153.6665  0.026712663  0.026024719           14 
 3600000   0.65766244   -6.2993796    1148.4189  0.026583771  0.026017259           19 
 3601000   0.68906102   -6.2881311    1150.3388  0.026620818  0.026009806           19 
 3602000   0.69929232   -6.2661495    1153.5039  0.026686654  0.026002396           11 
 3603000   0.66324818   -6.2719943    1150.3297  0.026605831  0.025995004           17 
 3604000   0.68844972   -6.2653007    1150.6728  0.026606381  0.025987617           14 
 3605000   0.67431991   -6.2588311     1152.561   0.02664265  0.025980256           14 
 3606000   0.65875861   -6.2693492    1150.8323  0.026595312  0.025972904           14 
 3607000   0.67546199   -6.2651564    1149.2428  0.026551215   0.02596553           21 
 3608000   0.66180513   -6.2711636     1147.511  0.026503857  0.025958109           12 
 3609000    0.6768382   -6.2626819    1149.3384  0.026538708  0.025950717           11 
 3610000   0.66844445   -6.3150277    1149.7466   0.02654078  0.025943339           49 
 3611000   0.66470047   -6.2912633    1152.3357   0.02659318  0.025935933            7 
 3612000    0.6599324   -6.2702127    1151.2349  0.026560422  0.025928515           19 
 3613000    0.6824891   -6.3049571    1147.4672  0.026466168  0.025921077           14 
 3614000   0.67836741   -6.2929296    1150.5265  0.026529387  0.025913639           15 
 3615000    0.6757899   -6.2992752    1150.7042  0.026526145  0.025906211            8 
 3616000   0.68337314   -6.2949405    1150.6218  0.026516911  0.025898796           24 
 3617000   0.68764376   -6.2939683    1150.4576  0.026505797  0.025891393           12 
 3618000   0.66772782   -6.2914353    1149.2862  0.026471489  0.025883969           10 
 3619000    0.6663473   -6.2894981    1148.3452  0.026442507  0.025876561           10 
 3620000   0.68413673   -6.3058246    1146.3183  0.026388543  0.025869143            7 
 3621000   0.67849569   -6.2951272    1149.2906  0.026449661  0.025861734           29 
 3622000   0.68229277   -6.2743233    1151.5673  0.026494738  0.025854369            7 
 3623000   0.67681158   -6.2813587    1148.1932  0.026409816  0.025846965            7 
 3624000   0.66990335   -6.2954769    1150.0491  0.026445204  0.025839537           10 
 3625000   0.67070387   -6.3100634    1149.3301  0.026421382  0.025832087           15 
 3626000   0.68041474   -6.2954257    1149.8872  0.026426899  0.025824673           13 
 3627000   0.67885557   -6.2967512    1150.1408  0.026425439  0.025817281           11 
 3628000   0.66346726   -6.2960194    1150.1142  0.026417545  0.025809932           11 
 3629000   0.66402595   -6.2870521      1151.35  0.026438643  0.025802572            9 
 3630000   0.65747566   -6.3088344    1151.1437  0.026426624  0.025795208            9 
 3631000    0.6607275   -6.3280823    1150.0025  0.026393153  0.025787794           20 
 3632000   0.66931388   -6.2933551     1151.077  0.026410541  0.025780395           35 
 3633000   0.66453395    -6.288618    1149.1839  0.026359846  0.025772986           17 
 3634000    0.6715955   -6.2942515     1151.084  0.026396166  0.025765589           21 
 3635000   0.67124917   -6.3162916    1148.9495   0.02633997  0.025758184           25 
 3636000   0.66236299    -6.297683    1149.6164   0.02634801  0.025750781           26 
 3637000   0.64421978   -6.2970099    1149.9456  0.026348309  0.025743413           16 
 3638000   0.68242598   -6.3154274    1151.1058  0.026367642     0.025736            9 
 3639000   0.67053538   -6.3418644    1148.6515  0.026304194  0.025728574           23 
 3640000   0.67928116   -6.3228188    1147.0814   0.02626102  0.025721162           14 
 3641000   0.65840695   -6.2965776    1149.1865  0.026301989  0.025713749           23 
 3642000   0.67222717   -6.3040009    1151.2649  0.026342323  0.025706381           10 
 3643000   0.67010451   -6.3037355    1148.0646  0.026261886  0.025699019           13 
 3644000   0.67736207   -6.3261394    1150.1154  0.026301578  0.025691638           13 
 3645000   0.66299544   -6.3203575    1151.3679  0.026322997  0.025684238           15 
 3646000   0.67727455   -6.3014868    1149.9109  0.026282476  0.025676873           15 
 3647000   0.68197714   -6.3135281    1149.3653  0.026262802  0.025669498           30 
 3648000   0.66865425   -6.3342453     1150.982  0.026292535  0.025662105           15 
 3649000   0.67374173   -6.3108459    1150.3595  0.026271112  0.025654742            9 
 3650000   0.65936931   -6.3222785    1150.6655  0.026270901  0.025647377           15 
 3651000   0.65101323   -6.3053431     1151.998  0.026294121  0.025640015           17 
 3652000   0.67295231   -6.3110465     1149.989  0.026241079  0.025632651           21 
 3653000   0.65362284   -6.3327461    1148.8106  0.026207012  0.025625293            8 
 3654000   0.67438301   -6.3261806    1148.1327   0.02618438  0.025617918           23 
 3655000   0.67756976     -6.30809    1151.3684   0.02625099  0.025610544           17 
 3656000    0.6643179   -6.3193954    1151.0553  0.026236672  0.025603179           11 
 3657000   0.67355445    -6.328763    1152.1497  0.026254436   0.02559582           33 
 3658000   0.65973345   -6.3161733    1150.4927  0.026209512  0.025588472           16 
 3659000   0.67849418   -6.2872508    1151.9974  0.026236618  0.025581142           14 
 3660000   0.67203519   -6.2827829     1150.984  0.026206375   0.02557383           14 
 3661000     0.667997   -6.2789825    1152.0931  0.026224464   0.02556653           11 
 3662000   0.65339881   -6.3248388    1150.2063  0.026174366  0.025559231           11 
 3663000   0.66151866    -6.290594    1150.3236  0.026169888  0.025551923           12 
 3664000   0.67848873   -6.3014431    1152.3865  0.026209664  0.025544605           14 
 3665000   0.66002382   -6.3138021    1150.8046  0.026166544  0.025537314           16 
 3666000   0.67600901   -6.3158139    1152.0202  0.026187039  0.025530008           19 
 3667000   0.66681481   -6.3086897    1152.7586  0.026196676  0.025522683           29 
 3668000   0.67061592   -6.3076747    1151.8021  0.026167805  0.025515368           14 
 3669000   0.67339825   -6.3197269    1153.0404  0.026188798  0.025508045            6 
 3670000   0.66630565   -6.3175652    1148.3242  0.026074574  0.025500698            8 
 3671000   0.66488081   -6.3369862    1152.8599  0.026170434  0.025493312           24 
 3672000   0.65725558   -6.3419468       1153.3  0.026173292  0.025485985           16 
 3673000   0.65164181    -6.335943     1148.412  0.026055268  0.025478625           23 
 3674000   0.67052185   -6.3196647    1151.0967  0.026109071  0.025471272           26 
 3675000   0.64760637    -6.326693    1150.9379  0.026098365  0.025463943           24 
 3676000   0.66208647   -6.3400764    1148.5448  0.026037015  0.025456632           44 
 3677000   0.66257134   -6.3162132    1150.3762  0.026071439  0.025449343           20 
 3678000   0.65385524    -6.307956    1154.1276  0.026149347  0.025442062           25 
 3679000   0.67247487   -6.3248244    1151.2918  0.026078005  0.025434778           18 
 3680000   0.64907427   -6.3141425    1152.5301   0.02609896  0.025427454           11 
 3681000    0.6841363   -6.3189676    1152.5488  0.026092294  0.025420166           11 
 3682000   0.65705128   -6.3074679    1153.1416  0.026098624  0.025412884           21 
 3683000   0.66822774   -6.3080451    1151.3888  0.026051879  0.025405622           13 
 3684000   0.65333632   -6.3384914    1151.6077  0.026049758  0.025398338           13 
 3685000   0.65407571   -6.3422387    1154.3787  0.026105353  0.025391044           20 
 3686000   0.65648803   -6.3105667    1152.8797  0.026064382  0.025383738           12 
 3687000   0.68020989   -6.3175061    1154.1801  0.026086704  0.025376456           15 
 3688000   0.67050011   -6.3323588    1150.7061  0.026001131  0.025369153           10 
 3689000   0.66686595   -6.3230927    1148.8921  0.025953107   0.02536184           19 
 3690000   0.65403136   -6.3240817    1150.3033  0.025977942  0.025354524           16 
 3691000   0.67632406   -6.3168541    1152.3818  0.026017831  0.025347214           14 
 3692000   0.67705489   -6.3100046    1152.6571  0.026016999  0.025339934           17 
 3693000   0.64796011    -6.326535    1153.0093  0.026017902  0.025332644           16 
 3694000   0.65649202    -6.333181    1149.2373  0.025925764  0.025325355           13 
 3695000   0.66037276   -6.3515912     1149.629  0.025927583  0.025318057           14 
 3696000   0.67061951   -6.3038321    1150.4228  0.025938466  0.025310736           14 
 3697000   0.66187343   -6.3504398    1151.4074  0.025953643  0.025303415           42 
 3698000   0.66089547   -6.3104683    1151.8945  0.025957601  0.025296085           19 
 3699000    0.6685867   -6.3338667    1149.9404  0.025906561  0.025288786           12 
 3700000   0.67117887   -6.3115835    1149.9514  0.025899806  0.025281496           19 
 3701000   0.68755675   -6.3028584    1149.1532  0.025874835  0.025274224           30 
 3702000   0.65856231   -6.3339955    1149.9625  0.025886064  0.025266916           20 
 3703000   0.66651143   -6.3421408    1149.7495   0.02587428  0.025259587            9 
 3704000   0.65550945   -6.3478915     1151.285   0.02590184  0.025252268           18 
 3705000   0.66020097   -6.3328223    1148.7136  0.025837013  0.025244921           16 
 3706000   0.66430245   -6.3430698    1149.2445  0.025841979  0.025237572           29 
 3707000   0.66942072   -6.3256575     1147.623  0.025798556  0.025230224           22 
 3708000   0.65262444   -6.3399885    1147.7984  0.025795542  0.025222852           15 
 3709000    0.6403476   -6.3419028    1152.9946  0.025905333  0.025215483           31 
 3710000   0.66862453   -6.3358444    1151.0342  0.025854318  0.025208158           21 
 3711000   0.66254957    -6.323374    1149.9841  0.025823769  0.025200795           28 
 3712000   0.66215806   -6.3407805    1149.4672  0.025805208  0.025193426           27 
 3713000   0.66308875   -6.3498172    1149.9021  0.025808019  0.025186059           12 
 3714000   0.64375944   -6.3440738    1151.7203  0.025841866  0.025178727           18 
 3715000   0.65418044   -6.3300162    1151.0293  0.025819409  0.025171394            7 
 3716000    0.6554966   -6.3191149    1153.8841  0.025876483  0.025164097           12 
 3717000   0.66811436   -6.3498385    1147.0919  0.025717242   0.02515678           12 
 3718000   0.67026411   -6.3242064    1150.8675   0.02579495   0.02514945            7 
 3719000   0.66115436   -6.3672211    1148.6779  0.025738951  0.025142136           21 
 3720000   0.66962852   -6.3336802    1150.7292  0.025777984  0.025134808           58 
 3721000   0.64378774   -6.3234512    1150.9942  0.025776991  0.025127514           53 
 3722000   0.66593622   -6.3298935    1151.1511  0.025773579  0.025120212           58 
 3723000   0.66142179   -6.3524063    1150.9038   0.02576112  0.025112906           43 
 3724000   0.65782842   -6.3508103    1150.7468  0.025750689  0.025105595           16 
 3725000   0.66292686   -6.3739601    1150.0228  0.025727578  0.025098262           18 
 3726000   0.63813682    -6.373365     1146.409  0.025639851  0.025090903           37 
 3727000   0.65923119   -6.3108587    1152.5421  0.025770104  0.025083595           12 
 3728000   0.67235261   -6.3372764     1154.235  0.025801033   0.02507631           42 
 3729000   0.66268049   -6.3483074    1148.0662  0.025656258  0.025069008           39 
 3730000    0.6555435    -6.344343      1149.97  0.025691912  0.025061703           28 
 3731000    0.6400493   -6.3341265    1154.3197  0.025782179   0.02505445           24 
 3732000   0.65438602   -6.3252214    1153.3712  0.025754092  0.025047155           33 
 3733000   0.64486365   -6.3292426    1150.0491   0.02567303  0.025039866           20 
 3734000   0.65098969   -6.3320305    1151.8793  0.025707002  0.025032603           11 
 3735000    0.6513808   -6.3410542    1149.1009  0.025638128  0.025025326           13 
 3736000   0.66674436   -6.3066417     1151.004  0.025673715  0.025018081           16 
 3737000   0.63914802   -6.3518467    1151.7298   0.02568303  0.025010814            9 
 3738000   0.64826507   -6.3234172    1148.8398  0.025611732  0.025003548            6 
 3739000   0.66021205   -6.3421653     1152.351  0.025683138  0.024996267           17 
 3740000   0.65189302   -6.3392912    1150.2862  0.025630263  0.024988974           16 
 3741000   0.65423671   -6.3357253    1150.8528  0.025636034  0.024981671           21 
 3742000   0.64625099    -6.346617    1151.4959  0.025643505  0.024974376           18 
 3743000   0.65635173   -6.3449786    1153.2891  0.025676577   0.02496711           11 
 3744000   0.65007096   -6.3517456    1153.7639  0.025680286  0.024959876           20 
 3745000   0.64404094    -6.328892    1152.1776  0.025638131  0.024952629           13 
 3746000    0.6694184   -6.3453978    1149.8046  0.025578496  0.024945382           17 
 3747000   0.65914638    -6.349991     1150.137  0.025579063  0.024938112           11 
 3748000   0.64462653   -6.3599608    1151.1391  0.025594519  0.024930826           15 
 3749000   0.64507138   -6.3455231    1151.2771  0.025590759  0.024923537           11 
 3750000   0.66862043   -6.3838775    1149.9507   0.02555446  0.024916232           11 
 3751000   0.65983208   -6.3328861    1152.2018  0.025597658  0.024908963           12 
 3752000   0.65388529   -6.3396797    1151.5425  0.025576192  0.024901702           25 
 3753000   0.66494249   -6.3363605    1150.7616  0.025552038  0.024894432           14 
 3754000    0.6461199   -6.3528136    1152.3159  0.025579735   0.02488716           19 
 3755000    0.6445268   -6.3653098    1150.4132  0.025530697  0.024879895           15 
 3756000   0.63482668   -6.3647451    1150.3768  0.025523092  0.024872609           19 
 3757000   0.66398739   -6.3684592    1153.6453  0.025588796  0.024865348           20 
 3758000    0.6643058   -6.3320996     1149.677  0.025493991  0.024858103           27 
 3759000   0.65151341   -6.3698357    1150.7122  0.025510157  0.024850845           26 
 3760000   0.63930672   -6.3264144    1150.5289  0.025499311  0.024843567            8 
 3761000    0.6577527   -6.3548897    1148.8866  0.025456141   0.02483632           17 
 3762000   0.64111852   -6.3495484    1149.5807  0.025464751  0.024829096           18 
 3763000   0.64050125   -6.3290874    1154.2757  0.025561957   0.02482184            7 
 3764000   0.65197186   -6.3314195    1154.0173  0.025549445  0.024814599           15 
 3765000   0.64249654   -6.3295386    1151.7681  0.025492876  0.024807368            9 
 3766000     0.659132   -6.3499852    1150.2256  0.025451975  0.024800134            4 
 3767000   0.65922662   -6.3363873    1153.6341  0.025520619  0.024792902            6 
 3768000   0.65140797   -6.3373147    1152.7006  0.025493201  0.024785683           16 
 3769000   0.64247299    -6.361118    1152.5139   0.02548231   0.02477844           16 
 3770000    0.6458912   -6.3495705    1150.0078  0.025420154  0.024771186           28 
 3771000    0.6525589   -6.3581486    1150.3904  0.025421869  0.024763947           13 
 3772000   0.64510614    -6.337447    1152.1363  0.025453699  0.024756699           15 
 3773000   0.64312593   -6.3598007    1149.2599  0.025383425  0.024749428           16 
 3774000   0.65035918   -6.3837337    1149.6974  0.025386359   0.02474215           11 
 3775000   0.64065371   -6.3746834    1149.4028   0.02537313   0.02473486           11 
 3776000   0.66262336   -6.3492168    1150.2964  0.025386131  0.024727594           16 
 3777000   0.65080228   -6.3665052    1149.4601  0.025360959  0.024720365           23 
 3778000   0.63609993   -6.3855038    1148.4452   0.02533186  0.024713073           20 
 3779000   0.64772565   -6.3562472    1151.6307  0.025395402  0.024705778           21 
 3780000    0.6495959   -6.3723237    1148.8363  0.025327078  0.024698484           28 
 3781000   0.65354889   -6.3382573    1150.4953  0.025356944  0.024691197           37 
 3782000   0.65329878   -6.3969586    1147.9574   0.02529432  0.024683929           20 
 3783000   0.64538311   -6.3642064    1151.6569  0.025369127  0.024676644           34 
 3784000   0.64876757   -6.3559413    1152.5199  0.025381429  0.024669398           46 
 3785000   0.64476769   -6.3708781    1149.7283   0.02531326  0.024662145           17 
 3786000   0.64586359    -6.364465    1150.4729  0.025322965  0.024654874           36 
 3787000   0.64762683    -6.379759    1148.5946  0.025274945  0.024647611           27 
 3788000   0.65627354   -6.3769397    1150.1164  0.025301752  0.024640339           46 
 3789000   0.63238373   -6.3568183    1149.8689   0.02528963  0.024633107           12 
 3790000   0.62936954   -6.3766593    1152.7317  0.025345904   0.02462586           23 
 3791000   0.63829061   -6.3833513    1150.6135  0.025292655  0.024618598           42 
 3792000    0.6409083   -6.3731125    1151.5503  0.025306574  0.024611325           40 
 3793000   0.65657817   -6.3850434    1149.3256  0.025251024  0.024604046           24 
 3794000   0.63745913   -6.3859878    1149.9489   0.02525806  0.024596789           29 
 3795000   0.63893823   -6.3658891    1150.9895  0.025274253  0.024589553           14 
 3796000   0.64228433   -6.3613586    1151.1153  0.025270357  0.024582325           15 
 3797000    0.6403545   -6.3508197    1150.9479  0.025260027   0.02457511            8 
 3798000   0.64914688   -6.3504575    1152.9755  0.025297866  0.024567911            9 
 3799000    0.6351107   -6.3822399    1150.6321  0.025239802   0.02456072           16 
 3800000   0.64479874   -6.3675483    1152.1038  0.025265434   0.02455351           12 
 3801000   0.64945251   -6.3931739    1152.0274  0.025257112  0.024546263           11 
 3802000   0.64801184   -6.3693218    1151.8939  0.025247542   0.02453902           17 
 3803000   0.63156964   -6.3692906    1151.3198  0.025228324  0.024531796           47 
 3804000   0.63667824   -6.3879055    1149.7484  0.025187267  0.024524579           35 
 3805000   0.64607059    -6.399614    1152.1192  0.025232572   0.02451734           42 
 3806000   0.65396909   -6.3844706    1151.8519   0.02522009  0.024510144           27 
 3807000   0.64737583   -6.3608083    1152.9401  0.025237284  0.024502956           30 
 3808000   0.63324161   -6.3592414    1153.8118  0.025249733  0.024495809           36 
 3809000   0.64593146   -6.3741925    1151.1822  0.025185574   0.02448861           17 
 3810000   0.62446795   -6.3587867    1151.7402  0.025191168  0.024481434           21 
 3811000   0.65384793   -6.3684999    1152.8865  0.025209624  0.024474226           20 
 3812000   0.64383998   -6.3852712    1150.4673  0.025150124  0.024467012           28 
 3813000   0.62874903   -6.3858707    1151.6366  0.025169084  0.024459803           11 
 3814000   0.63291778   -6.3824939    1149.9243  0.025125072  0.024452583           13 
 3815000   0.64795067   -6.3796271    1153.8053   0.02520326  0.024445345           10 
 3816000   0.64874786   -6.3867604    1149.3771  0.025099954  0.024438124            8 
 3817000   0.64664376   -6.4056406    1150.8446  0.025125416  0.024430896           16 
 3818000   0.64980447   -6.3796098    1151.9926  0.025143894  0.024423683           31 
 3819000   0.65300656   -6.3789827    1148.6662  0.025064725  0.024416454           14 
 3820000   0.61622916   -6.3885556     1151.143  0.025112195  0.024409224           12 
 3821000   0.62628574   -6.3699768    1149.5648  0.025071202  0.024402009           20 
 3822000   0.63801177   -6.3804107    1147.9832  0.025030158  0.024394792           35 
 3823000    0.6481047   -6.3700738    1152.4483  0.025120942  0.024387597            8 
 3824000   0.63772412   -6.3988763    1147.8793  0.025014804    0.0243804           10 
 3825000   0.63474796   -6.3971171    1149.5374  0.025044388  0.024373165           23 
 3826000   0.63323049   -6.3993106    1150.7432  0.025064104  0.024365932           16 
 3827000   0.63764584   -6.3871068    1150.9316  0.025061658  0.024358709           25 
 3828000    0.6347034   -6.4170072    1152.0813   0.02508014   0.02435149           19 
 3829000   0.63461761   -6.3934561    1149.4554  0.025016441  0.024344279           28 
 3830000   0.64072512   -6.4032855    1149.0605  0.025001317  0.024337048           17 
 3831000   0.63593745   -6.3760903    1152.4458  0.025068428  0.024329846           16 
 3832000   0.62750544   -6.4140654    1147.6219  0.024956984  0.024322638           29 
 3833000   0.65428184   -6.3619904    1150.9558  0.025022954   0.02431545           24 
 3834000    0.6368539    -6.392739    1151.6633  0.025031806  0.024308282           15 
 3835000    0.6207206   -6.3965885    1153.5988  0.025067336  0.024301141           22 
 3836000   0.63571997   -6.4033032    1151.7962  0.025021641   0.02429402            7 
 3837000   0.64052411   -6.3833107    1151.8333  0.025015926  0.024286874           19 
 3838000   0.63400008   -6.3979046    1151.1057   0.02499361    0.0242797           21 
 3839000   0.63707154   -6.4135804      1148.33  0.024926847  0.024272532           46 
 3840000   0.63315713   -6.3868762     1150.707  0.024971939  0.024265379           24 
 3841000    0.6406082   -6.3873811    1150.8782  0.024969153  0.024258243           28 
 3842000   0.64658891   -6.3607586    1152.6197  0.025000428  0.024251099           13 
 3843000     0.640397   -6.3749663    1151.3986  0.024967444  0.024243979           25 
 3844000   0.64533183   -6.3898443    1149.1109  0.024911353  0.024236878           10 
 3845000   0.63938665   -6.3843785    1151.0151  0.024946144  0.024229757           14 
 3846000   0.64619146   -6.3886377    1149.3814  0.024904259   0.02422262           12 
 3847000   0.65039277   -6.3963694    1151.3991  0.024941493  0.024215522           16 
 3848000     0.629354   -6.4096481    1150.7846  0.024921703  0.024208385           17 
 3849000   0.62130062   -6.3957295    1150.1589  0.024901681  0.024201229           14 
 3850000   0.63146475   -6.4200341    1150.3937  0.024900296   0.02419407           46 
 3851000   0.64775561   -6.3909213    1152.5115   0.02493966  0.024186935           23 
 3852000   0.63213072   -6.3849729    1154.1037  0.024967629  0.024179828           19 
 3853000   0.63530235   -6.4021712    1149.3072   0.02485741  0.024172703           34 
 3854000    0.6439063   -6.3785918     1150.275  0.024871886   0.02416557           25 
 3855000   0.64862001   -6.3660937    1153.8682  0.024943108  0.024158456           15 
 3856000    0.6250279   -6.3508209    1155.1857  0.024965112  0.024151355           17 
 3857000   0.63573394   -6.3881668    1154.4853  0.024943507  0.024144233           14 
 3858000   0.64146484   -6.3911364    1153.4587  0.024914867  0.024137155           20 
 3859000   0.63670469    -6.403781    1152.8537  0.024895347   0.02413005            7 
 3860000   0.63525133   -6.3977583    1152.4591  0.024880377  0.024122955            5 
 3861000   0.62934512    -6.410222     1151.855  0.024860895  0.024115821           16 
 3862000   0.62819295   -6.4026948    1151.4712  0.024846177  0.024108711           47 
 3863000   0.63466767   -6.3989831    1154.1253  0.024896999  0.024101596           26 
 3864000   0.63452645   -6.3804739    1150.5439  0.024813318  0.024094491           10 
 3865000   0.63965846   -6.4172854     1151.848  0.024835016  0.024087369           14 
 3866000   0.63790705   -6.4101501    1151.5869  0.024822962  0.024080255           11 
 3867000   0.61885218   -6.3814272    1151.2027  0.024808264  0.024073154           16 
 3868000   0.62962421   -6.3834722    1152.1885   0.02482309  0.024066074           12 
 3869000   0.64384656   -6.3849644    1150.8588  0.024788033  0.024058995           12 
 3870000   0.63303709   -6.3838461    1153.3284  0.024834807    0.0240519           28 
 3871000   0.61947505   -6.3912475    1152.0539  0.024800954  0.024044811           31 
 3872000   0.64153632   -6.4064538    1152.5318  0.024804833  0.024037718           27 
 3873000    0.6329326   -6.4075969    1153.7887  0.024825473    0.0240306           25 
 3874000    0.6318791   -6.4026948    1154.9571  0.024844199  0.024023521           25 
 3875000   0.62057815   -6.4031162    1150.0005  0.024731194  0.024016418           24 
 3876000   0.64151005   -6.4258295    1149.5237  0.024714563  0.024009319           19 
 3877000   0.62776458   -6.4332604    1149.6109  0.024710061  0.024002197           46 
 3878000   0.64427494   -6.3929184    1149.2755  0.024696483  0.023995071           38 
 3879000   0.61822288   -6.4108801    1148.3294  0.024669791  0.023987961           38 
 3880000   0.62340695   -6.3856252    1151.7477   0.02473685  0.023980849           30 
 3881000   0.62164967   -6.3671749    1154.8492   0.02479707  0.023973781           27 
 3882000   0.61870711   -6.4097227    1153.0537   0.02475214  0.023966726           34 
 3883000   0.61904075   -6.4062936    1149.7001  0.024673794  0.023959654           18 
 3884000   0.63850515   -6.3938809    1151.4616  0.024705236   0.02395259           16 
 3885000   0.63591441   -6.4077515    1152.3006  0.024716873  0.023945539           22 
 3886000   0.62713782   -6.4059011    1153.5272  0.024736817  0.023938466           23 
 3887000    0.6330038   -6.4033948    1153.1539  0.024722449   0.02393139           18 
 3888000   0.62711711   -6.4130402    1150.5032  0.024659276  0.023924282           21 
 3889000   0.63727542   -6.4164133    1152.8762  0.024703783  0.023917173           56 
 3890000   0.63763754    -6.421852    1149.7545   0.02463056  0.023910063           46 
 3891000   0.62604106   -6.4094761    1153.4306   0.02470296   0.02390297           31 
 3892000   0.63752436   -6.4199256    1150.6983  0.024638109  0.023895874           51 
 3893000   0.63207969   -6.4003059    1150.5306  0.024628193  0.023888806           55 
 3894000   0.61495596   -6.4035268    1153.0326   0.02467541  0.023881748           65 
 3895000   0.62364672   -6.4109901    1151.4416  0.024635035  0.023874682           61 
 3896000   0.63339558   -6.4176501    1149.5233  0.024587682  0.023867625           35 
 3897000   0.63782837   -6.4208591    1150.4285  0.024600729  0.023860541           38 
 3898000   0.62358009   -6.4210778    1148.9533  0.024562881  0.023853459           58 
 3899000   0.63426846   -6.3917324    1151.6943  0.024615165  0.023846407          120 
 3900000   0.61147539   -6.3946909    1152.7575  0.024631571  0.023839377           53 
 3901000   0.62985255   -6.4262347    1152.3949  0.024617511  0.023832324           35 
 3902000   0.64272682   -6.4235279    1151.8219  0.024598964  0.023825246           24 
 3903000   0.63137349    -6.432901    1147.5357  0.024501147  0.023818157           81 
 3904000   0.61663157   -6.4278328    1149.2611  0.024531701  0.023811065           43 
 3905000   0.63155328   -6.4239112    1149.3632  0.024527597  0.023803971           20 
 3906000   0.63386098   -6.4246986    1150.6462  0.024548691  0.023796855           49 
 3907000   0.62465388   -6.4186122    1146.4117  0.024452088  0.023789733           28 
 3908000    0.6382297   -6.4114063    1152.1786  0.024568803  0.023782654           22 
 3909000   0.62354782   -6.4051303    1151.3475    0.0245448   0.02377557           22 
 3910000     0.626908   -6.4462166    1148.0443  0.024468121  0.023768496           27 
 3911000    0.6357417    -6.425158    1152.4584  0.024555919  0.023761418           67 
 3912000   0.62588443   -6.4329098      1149.41  0.024484706  0.023754346           61 
 3913000   0.62382107   -6.4297252    1148.9314  0.024468256  0.023747295           24 
 3914000   0.61605553   -6.4332408    1152.3576  0.024534951  0.023740251           33 
 3915000   0.62242769   -6.4176683    1151.8101  0.024517031  0.023733205           29 
 3916000   0.63425341    -6.456172    1149.6141  0.024464039  0.023726153           27 
 3917000   0.63136663   -6.4640664    1148.7895   0.02444025  0.023719069           49 
 3918000   0.62956217   -6.4517837    1150.1147  0.024462198  0.023711986           45 
 3919000   0.61392388   -6.4308443    1149.9689  0.024452856  0.023704945           30 
 3920000   0.63736444   -6.4034983    1153.5861  0.024523514  0.023697924           43 
 3921000   0.62883727   -6.4183107    1153.3375  0.024511975  0.023690907           22 
 3922000   0.64059228   -6.4588458    1151.4983  0.024466647  0.023683885           61 
 3923000   0.61372326   -6.4276387    1152.1331  0.024473896  0.023676865           60 
 3924000   0.60945547   -6.4256027    1152.4989  0.024475427  0.023669838           33 
 3925000   0.62057464   -6.4252535    1152.9187  0.024478105  0.023662832           38 
 3926000   0.62647463   -6.4253588     1151.878   0.02444978  0.023655825           30 
 3927000   0.63010996     -6.44084    1152.8273  0.024463698  0.023648784           32 
 3928000   0.62849027   -6.4350817    1150.5572  0.024409309  0.023641755           24 
 3929000   0.61812238    -6.439904    1150.6294  0.024404628  0.023634722           23 
 3930000   0.61526302   -6.4390918    1154.5914  0.024482431  0.023627708           29 
 3931000    0.6086407   -6.4330095    1152.0251  0.024421799  0.023620714           31 
 3932000   0.61841008   -6.4290059    1153.1287  0.024438976  0.023613694           26 
 3933000   0.63813498   -6.4324161    1150.8191  0.024383827  0.023606677           30 
 3934000   0.62924964   -6.4498197    1151.4327  0.024390626  0.023599656           23 
 3935000   0.60227403   -6.4499405    1155.0436  0.024460897  0.023592649           25 
 3936000    0.6254924   -6.4304034    1152.5422  0.024401723  0.023585654           13 
 3937000   0.62018419   -6.4384184    1154.2646  0.024431982  0.023578689           28 
 3938000   0.62624351   -6.4478044    1151.7818   0.02437324   0.02357173           20 
 3939000   0.61300365   -6.4425146    1153.7151  0.024407953  0.023564776           31 
 3940000   0.62212767   -6.4235983    1151.7285   0.02435974  0.023557787           17 
 3941000   0.61673931   -6.4375124    1152.1161  0.024361754  0.023550794           12 
 3942000   0.61579245   -6.4520059    1149.9192  0.024309132  0.023543779           13 
 3943000   0.60701013   -6.4295021    1149.9452  0.024303516  0.023536794           28 
 3944000   0.62168378   -6.4288118    1152.5153   0.02435166  0.023529811           14 
 3945000   0.62051343   -6.4392039    1152.5687  0.024346615  0.023522821           20 
 3946000   0.62235139   -6.4283249    1152.3081  0.024334941  0.023515859           25 
 3947000   0.63072501   -6.4417337    1150.5925  0.024292554   0.02350889           17 
 3948000   0.62808783   -6.4289395    1154.9859  0.024379136  0.023501902           21 
 3949000   0.62570975   -6.4324993    1152.8502  0.024327894   0.02349496           25 
 3950000    0.6068796   -6.4164006    1153.3868  0.024333055  0.023487997           29 
 3951000    0.6184902   -6.4028731    1153.4188  0.024327571  0.023481062           12 
 3952000   0.60917513   -6.4391773    1152.9492  0.024311513  0.023474135           31 
 3953000   0.61721861   -6.4381448    1152.1988  0.024289543  0.023467188           30 
 3954000   0.60206066   -6.4179605    1155.0297  0.024343064  0.023460243           25 
 3955000   0.62291557   -6.4544554    1151.3309  0.024258974  0.023453258           16 
 3956000   0.60578918   -6.4492896    1152.1732  0.024270585  0.023446287           23 
 3957000   0.62489738    -6.457008    1153.7677  0.024298031  0.023439338           27 
 3958000   0.62387914   -6.4276612    1155.0059  0.024317961  0.023432404           24 
 3959000   0.61511997   -6.4322375    1153.9182  0.024288924  0.023425447           17 
 3960000   0.62749718   -6.4445577    1155.1477  0.024308664  0.023418503           17 
 3961000    0.6291405   -6.4166923    1154.0308  0.024279028  0.023411559           37 
 3962000   0.62881646   -6.4385134    1152.7085  0.024245089  0.023404625           21 
 3963000   0.61515516   -6.4412569    1151.8369  0.024220643  0.023397678           19 
 3964000   0.61672999   -6.4150439    1153.5593  0.024250743  0.023390733           31 
 3965000   0.62178817   -6.4364728    1152.2249   0.02421658  0.023383796           34 
 3966000   0.60823251   -6.4371434    1150.9861  0.024184445  0.023376869           28 
 3967000   0.62063646   -6.4379356    1154.6177  0.024254636  0.023369943           32 
 3968000   0.61620562   -6.4386682    1151.5789  0.024184705  0.023362985           18 
 3969000   0.60871181   -6.4453801    1151.0884  0.024168312  0.023356044           37 
 3970000   0.62032834   -6.4538988    1153.2407  0.024207403  0.023349089           29 
 3971000   0.60912642    -6.444167    1154.4479  0.024226641  0.023342155           26 
 3972000   0.61654909   -6.4423981    1150.6803  0.024141498  0.023335221           26 
 3973000   0.61347277   -6.4739597    1151.6927  0.024156655  0.023328272           47 
 3974000   0.61381535     -6.46494     1151.507  0.024146682  0.023321313           73 
 3975000   0.61328967   -6.4398896    1153.8021  0.024188723  0.023314385           37 
 3976000   0.60657191   -6.4659278    1150.6918  0.024117452   0.02330745           23 
 3977000   0.63479524    -6.435717    1151.6196  0.024130827  0.023300512           26 
 3978000   0.62257733   -6.4699684     1151.385  0.024119846  0.023293583           76 
 3979000   0.61734922   -6.4649868    1151.1897  0.024109694  0.023286661           44 
 3980000   0.60001286   -6.4695298    1152.8989  0.024139423  0.023279709           73 
 3981000   0.62257178   -6.4685051    1151.0436  0.024094524  0.023272758           56 
 3982000    0.6133941     -6.45389     1151.939  0.024107211  0.023265808           52 
 3983000   0.61134841   -6.4525824    1151.7693  0.024097608  0.023258885           31 
 3984000   0.61490169   -6.4398103    1151.9165  0.024094639  0.023251978           28 
 3985000   0.61731088   -6.4072157    1153.0252  0.024111778  0.023245074           24 
 3986000   0.61020743   -6.4442243    1151.2041  0.024067655  0.023238182           59 
 3987000   0.61052136   -6.4569527    1152.1342  0.024081058  0.023231253           28 
 3988000   0.60505415   -6.4627731    1151.0063  0.024051453  0.023224324           15 
 3989000   0.61661453   -6.4504944    1154.5587  0.024119635  0.023217382           22 
 3990000   0.61275803    -6.461813    1154.1771   0.02410562  0.023210463           11 
 3991000   0.60004756   -6.4540393     1151.323  0.024039985  0.023203523           38 
 3992000   0.60971639   -6.4583797    1155.4175  0.024119438  0.023196602           20 
 3993000   0.61541126   -6.4746211    1153.4049  0.024071393  0.023189696           55 
 3994000   0.61317448    -6.448352    1151.5047   0.02402572   0.02318278           21 
 3995000   0.60860401   -6.4542099    1152.6404  0.024043395  0.023175861           21 
 3996000   0.62084328   -6.4707441    1150.5631   0.02399406  0.023168935           39 
 3997000   0.58997541   -6.4489589    1151.9704  0.024017397  0.023162003          103 
 3998000   0.59800615   -6.4562965    1151.8053  0.024007948  0.023155096           49 
 3999000   0.60245293   -6.4509228    1152.7756  0.024022165  0.023148196           19 
 4000000   0.60685214   -6.4704548    1152.2185  0.024004553    0.0231413           49 
 4001000   0.62210156   -6.4501671    1153.1222  0.024017375  0.023134416           18 
 4002000   0.60282624   -6.4659653    1151.4841  0.023977263  0.023127531           22 
 4003000   0.61771538   -6.4446053    1152.2912  0.023988076  0.023120645           32 
 4004000   0.61352618   -6.4729085    1152.6234  0.023988998  0.023113751           18 
 4005000   0.60503425   -6.4525438    1150.9969  0.023949165  0.023106837           27 
 4006000   0.61795873   -6.4741369    1151.3729  0.023951008  0.023099929           43 
 4007000   0.62977879   -6.4875953    1148.2235  0.023879534  0.023092995           37 
 4008000   0.61548822   -6.4650356    1150.2832  0.023916401  0.023086058           21 
 4009000   0.60682061   -6.4813555    1149.3398  0.023890825  0.023079122           25 
 4010000    0.6047539   -6.4690233    1149.7028  0.023892411  0.023072185           28 
 4011000   0.61645388    -6.472046    1151.6355  0.023926607  0.023065283           25 
 4012000   0.60807447   -6.4523994    1150.8287  0.023903887  0.023058368           85 
 4013000   0.60302407   -6.4687928    1150.6493  0.023894204  0.023051472           23 
 4014000   0.60629604   -6.4592444    1150.1642   0.02387818  0.023044585           30 
 4015000    0.6095391   -6.4715697    1152.2265  0.023915038   0.02303769           46 
 4016000   0.62131736   -6.4320367    1151.8949  0.023902201  0.023030821           46 
 4017000   0.61276339   -6.4352003    1150.4924  0.023867157  0.023023969           14 
 4018000     0.594075   -6.4426666    1155.0172  0.023955061  0.023017098           26 
 4019000   0.60605011   -6.4667426    1152.9594  0.023906433  0.023010237           29 
 4020000   0.60519311    -6.454178    1153.8214  0.023918354  0.023003368           30 
 4021000    0.5906399   -6.4567076    1151.0271  0.023854496  0.022996519           30 
 4022000   0.60725802   -6.4470662    1155.3322  0.023937764  0.022989673           22 
 4023000    0.6169394   -6.4609614    1153.4005  0.023891798  0.022982856           40 
 4024000   0.61721397   -6.4665016    1152.3422  0.023863946  0.022976046           40 
 4025000   0.61339723   -6.4496365    1152.0764  0.023852514  0.022969229           21 
 4026000    0.6088047   -6.4579868    1151.9025   0.02384299  0.022962408           42 
 4027000   0.60084363   -6.4727251    1151.1183   0.02382084  0.022955575           35 
 4028000   0.60667321   -6.4635033    1150.7475  0.023807255  0.022948732           21 
 4029000    0.6101141   -6.4625048    1152.0485  0.023828256  0.022941858           56 
 4030000   0.61359446   -6.4827377    1151.4812  0.023810613  0.022934981           28 
 4031000   0.60414244   -6.4691817    1151.1024  0.023796874  0.022928117           33 
 4032000   0.59796261   -6.4617941    1152.2888  0.023815493  0.022921239           27 
 4033000   0.60764275   -6.4591602    1153.0734  0.023825801  0.022914367           20 
 4034000   0.59500391   -6.4560969     1150.991  0.023776876  0.022907524           37 
 4035000   0.60287942   -6.4663241    1148.2481  0.023714334  0.022900668           35 
 4036000   0.60201347   -6.4667618    1155.8629  0.023865686  0.022893838           29 
 4037000   0.60528353   -6.4741054    1150.0685  0.023740163  0.022886975           34 
 4038000   0.60659146   -6.4918016    1149.7016  0.023726712  0.022880099           75 
 4039000   0.59670389   -6.4690076    1148.5182  0.023696422  0.022873233           28 
 4040000   0.61529332   -6.4575547    1152.6566   0.02377592  0.022866369           41 
 4041000   0.59903207   -6.4468613    1150.8287  0.023732341  0.022859529           19 
 4042000   0.59937318   -6.4608616    1150.6064  0.023721887  0.022852648           46 
 4043000   0.60161699    -6.482188    1150.1438  0.023706484  0.022845763           15 
 4044000   0.60603971   -6.4733565    1151.1498  0.023721352  0.022838884           57 
 4045000   0.60258226   -6.4806117    1149.4632  0.023680741  0.022832015           18 
 4046000   0.59895016   -6.4818614    1152.1718  0.023730677   0.02282515           46 
 4047000    0.5977626    -6.466042    1150.5944  0.023692332  0.022818304           20 
 4048000   0.60367026   -6.4759887    1149.7617  0.023669338  0.022811447           27 
 4049000   0.61463161   -6.4579921    1151.0231  0.023689452  0.022804591           25 
 4050000   0.59632453   -6.4850502    1149.5641  0.023653583  0.022797779           34 
 4051000   0.59489791   -6.4681745    1151.6117  0.023689865  0.022790954           25 
 4052000   0.60101614   -6.4677913    1151.7776   0.02368743  0.022784125           46 
 4053000   0.59728462   -6.4979316    1148.1033  0.023606039  0.022777275           33 
 4054000   0.60373552   -6.4982195    1151.4668  0.023669355  0.022770421           40 
 4055000   0.59726728   -6.4834541    1148.9128  0.023611031   0.02276358           17 
 4056000   0.62537441   -6.4726976    1152.4818  0.023678538  0.022756766           40 
 4057000   0.61276766   -6.4612706    1151.2334  0.023647058   0.02274995           23 
 4058000   0.61711031   -6.4904177    1150.4088  0.023624298  0.022743147           32 
 4059000   0.59728814   -6.4688374    1152.3605  0.023658547  0.022736352           27 
 4060000   0.60481945   -6.4751745    1152.3162   0.02365181  0.022729576           39 
 4061000   0.60055534   -6.4813282    1153.8561  0.023677586  0.022722792           16 
 4062000    0.6078873   -6.5049487    1151.9968  0.023633612  0.022715986           21 
 4063000   0.59528014   -6.4723095    1153.2348  0.023653188  0.022709196           39 
 4064000   0.59649509   -6.4771483    1150.1568  0.023584252  0.022702401           50 
 4065000   0.59945394   -6.4811143    1151.7748  0.023611619    0.0226956           55 
 4066000   0.60829582   -6.4693659    1150.2974  0.023575533  0.022688787           58 
 4067000   0.60574596   -6.5068491    1148.2618  0.023528027  0.022681958           38 
 4068000   0.61047113   -6.4961535    1151.3343  0.023585183  0.022675129           35 
 4069000   0.61212914   -6.5035339    1148.2729   0.02351669  0.022668309           91 
 4070000   0.61091324   -6.4872336    1151.3181  0.023573262  0.022661504           91 
 4071000   0.59467278    -6.487925    1149.0601  0.023521251  0.022654702           21 
 4072000   0.59316474   -6.4918673    1151.4644  0.023564678  0.022647906           50 
 4073000   0.60035937   -6.5142651     1149.165  0.023511846  0.022641083           38 
 4074000   0.60334781   -6.4985614    1150.2587  0.023528447  0.022634258           33 
 4075000   0.60342331   -6.4984566    1151.4012  0.023546037  0.022627439           28 
 4076000   0.61828901   -6.5128257    1150.9806  0.023531662  0.022620614           89 
 4077000   0.59394213   -6.5151622    1152.5406  0.023557776  0.022613815           76 
 4078000   0.59142847   -6.4985113    1152.8785  0.023558904  0.022607042           63 
 4079000    0.6149843   -6.4970544    1149.4191  0.023482453  0.022600268           82 
 4080000   0.59023922   -6.4729208    1153.3551  0.023557089  0.022593507          105 
 4081000   0.59337074   -6.5032845    1151.3218  0.023509797  0.022586726           90 
 4082000   0.61376224    -6.479996    1149.5887  0.023468657  0.022579957           65 
 4083000   0.60435172    -6.507311    1152.1525  0.023515235  0.022573183           60 
 4084000   0.59492259   -6.4682501    1153.3519  0.023533952  0.022566412           63 
 4085000    0.6014783    -6.503432    1151.7167  0.023494833  0.022559646           57 
 4086000   0.59742904   -6.4988935    1151.7271  0.023489296   0.02255287           61 
 4087000    0.5982596   -6.5027187    1153.0786  0.023511104    0.0225461           54 
 4088000   0.59975632   -6.5027003    1152.3328  0.023490151  0.022539326           52 
 4089000   0.58947494   -6.5136487    1149.3382  0.023423375  0.022532551           30 
 4090000   0.59906112   -6.5161711    1149.3865  0.023418633  0.022525772           42 
 4091000   0.59429662   -6.4992917    1150.1358  0.023428171  0.022518987           53 
 4092000   0.58986967   -6.5224993     1146.956   0.02335769  0.022512199           49 
 4093000      0.60581   -6.5132904    1149.5956  0.023405726  0.022505435           46 
 4094000   0.59785366    -6.508205    1151.2309  0.023433295  0.022498666           49 
 4095000   0.61435487   -6.5370277    1148.9866  0.023381901  0.022491893           34 
 4096000   0.60083338   -6.5099529    1148.0716  0.023357577  0.022485111           29 
 4097000   0.59893387   -6.5077299    1149.4535  0.023379983   0.02247834           52 
 4098000   0.60601029   -6.4942474    1152.3227  0.023432623  0.022471588           30 
 4099000   0.60159126   -6.5400833    1152.1242  0.023422871  0.022464829           59 
 4100000   0.61167398   -6.5288324    1152.0657   0.02341597  0.022458085           32 
 4101000   0.60000245   -6.4930326    1151.8162   0.02340519  0.022451347           22 
 4102000   0.59918957   -6.5119527    1153.2863  0.023429349  0.022444619           96 
 4103000   0.61077338    -6.520747    1151.7203  0.023391833    0.0224379           58 
 4104000   0.59580701   -6.5124736    1151.3506  0.023378627  0.022431163           18 
 4105000   0.60147718   -6.4922806      1153.77  0.023422047  0.022424439           11 
 4106000   0.59154447   -6.5251543     1151.333  0.023366882  0.022417711           21 
 4107000   0.59147811   -6.5368728    1149.6099   0.02332623  0.022410983           32 
 4108000   0.59029466   -6.5356227    1150.4558  0.023337711  0.022404245           82 
 4109000    0.5985127   -6.5286879     1152.016  0.023363673  0.022397493           40 
 4110000   0.59294462   -6.5335352    1150.2395  0.023321969  0.022390741           73 
 4111000   0.59735779   -6.4939703    1151.1104  0.023333949  0.022384015           62 
 4112000   0.58346472   -6.5091929    1150.1772  0.023309363   0.02237729           53 
 4113000   0.61252432   -6.4985612    1151.4721  0.023329931  0.022370567           61 
 4114000   0.59071583   -6.5075583    1149.2423  0.023279093   0.02236386           43 
 4115000   0.60552462    -6.505226    1152.4531  0.023338458  0.022357185           17 
 4116000    0.5883745   -6.5136766    1150.2826  0.023288845  0.022350482           51 
 4117000   0.58801306   -6.5276406    1151.4964  0.023307757  0.022343767           35 
 4118000   0.59436862   -6.4842939    1153.9747  0.023352248  0.022337073           60 
 4119000   0.60011092    -6.526068    1149.7818  0.023261751  0.022330357           54 
 4120000   0.58670264   -6.5408017    1151.9404  0.023299766  0.022323637           70 
 4121000   0.60955286   -6.5214172     1150.135  0.023257604  0.022316896           84 
 4122000   0.60081764   -6.5145088    1149.8816  0.023246839  0.022310169           59 
 4123000    0.5841628   -6.5487507    1150.0699  0.023245006  0.022303423           78 
 4124000   0.60377245   -6.5422448    1150.5161  0.023248385  0.022296679           48 
 4125000   0.57677012   -6.5186254    1151.5709  0.023264059  0.022289946           98 
 4126000   0.58812471   -6.5361128     1152.523  0.023277649  0.022283225           68 
 4127000   0.59829306   -6.5267947    1149.3356  0.023207648  0.022276522           62 
 4128000   0.59093361   -6.5475666    1152.8482  0.023272938  0.022269821           49 
 4129000   0.59897737    -6.535361    1152.5606  0.023261497  0.022263111           47 
 4130000   0.59932155   -6.5328063    1149.3028   0.02319013  0.022256398           41 
 4131000   0.59805437   -6.5309431    1150.4565  0.023207788  0.022249675           86 
 4132000   0.59289165   -6.5414542    1152.3944  0.023241255  0.022242965           94 
 4133000   0.57480787   -6.5118053    1152.3276  0.023234284  0.022236267           56 
 4134000   0.60761846   -6.4911999    1150.2127  0.023186032  0.022229589           36 
 4135000   0.59415877   -6.5077131    1151.5374  0.023207123  0.022222898           65 
 4136000   0.58849412   -6.5273456    1151.1871  0.023194452    0.0222162           73 
 4137000   0.59439306   -6.5209619    1151.8212  0.023201619  0.022209505          101 
 4138000   0.58892349    -6.527515    1150.5328  0.023170067  0.022202796          127 
 4139000   0.58580267   -6.5300743    1148.7797  0.023129171  0.022196092          202 
 4140000   0.59346675   -6.5172121    1150.5317  0.023158851  0.022189382           71 
 4141000   0.59330866   -6.5488399    1151.4548  0.023171834  0.022182681           59 
 4142000   0.59815523    -6.531572    1148.9698  0.023116245  0.022175967           48 
 4143000   0.59409881   -6.5308553    1150.1726  0.023134858  0.022169269           99 
 4144000   0.58682232   -6.5292019     1147.899  0.023083556   0.02216257          102 
 4145000    0.5851412   -6.5401012     1149.215  0.023104443  0.022155858           56 
 4146000   0.58944179   -6.5321902    1148.5341  0.023085184  0.022149149           57 
 4147000   0.59183525   -6.5448712    1148.9931  0.023088841  0.022142436           26 
 4148000   0.59842708   -6.5156373    1149.1345  0.023086116  0.022135718           65 
 4149000    0.5935681   -6.5257202    1148.9829  0.023077506  0.022129021           35 
 4150000   0.60572528   -6.5180442    1151.3809  0.023120098   0.02212232           73 
 4151000   0.58842993   -6.5106668    1152.8071  0.023143161  0.022115635           34 
 4152000   0.58109562   -6.5396453    1150.2213  0.023085688  0.022108968           18 
 4153000   0.58977721   -6.5174022    1149.8602  0.023072882  0.022102277           39 
 4154000   0.58270784   -6.5200007    1149.7439  0.023064996  0.022095602           63 
 4155000   0.59330991   -6.5242588    1152.2093  0.023108891  0.022088928           47 
 4156000    0.5828709   -6.5153953    1150.3954  0.023066959  0.022082258           43 
 4157000   0.58890123   -6.5321212    1148.3936  0.023021281  0.022075588           39 
 4158000   0.58419861   -6.5303852    1150.9703  0.023067386  0.022068916           67 
 4159000   0.57873147   -6.5370548    1150.0807  0.023044015   0.02206224           39 
 4160000   0.60147798   -6.5221569    1151.4891  0.023066689  0.022055564           24 
 4161000   0.59157248   -6.5274586    1149.5354  0.023022018  0.022048886           76 
 4162000   0.59353594   -6.5306713    1148.5059  0.022995873  0.022042201           39 
 4163000   0.59848064   -6.5348682    1148.5681  0.022991594  0.022035525           22 
 4164000   0.58833634   -6.5345034    1149.3117  0.023000955  0.022028851           31 
 4165000   0.58526767   -6.5117311    1149.2367  0.022993932  0.022022192           32 
 4166000   0.59575059   -6.5084793    1150.1019  0.023005719  0.022015535           22 
 4167000    0.5834359   -6.5161593    1146.2148  0.022922462  0.022008891           33 
 4168000   0.57698324   -6.5171343    1148.2172  0.022956998  0.022002229           66 
 4169000   0.59254129   -6.5367504    1146.1446  0.022910062  0.021995575           45 
 4170000   0.58119779   -6.5257906    1147.5859  0.022933371  0.021988919           46 
 4171000   0.58959204   -6.5397379    1146.7562  0.022911296  0.021982257           44 
 4172000   0.57279587   -6.5043199    1149.2117  0.022954851   0.02197559           22 
 4173000   0.58572965   -6.5250902    1148.1815  0.022928778  0.021968942           78 
 4174000   0.57744412   -6.5274095    1149.2069  0.022943758  0.021962291           42 
 4175000    0.5755807   -6.5414365    1148.1866  0.022917895  0.021955639           33 
 4176000   0.58744339   -6.5427574    1148.4848   0.02291836  0.021948968           27 
 4177000   0.58246071   -6.5298647     1147.961  0.022902422   0.02194232           88 
 4178000   0.58075148   -6.5342194    1150.5914  0.022949405  0.021935655           45 
 4179000   0.58448104   -6.5368896    1150.9183  0.022950433  0.021928996           30 
 4180000    0.5876553      -6.5377    1149.7953  0.022922554  0.021922352           35 
 4181000    0.5818175   -6.5436357    1148.4055   0.02288937  0.021915722           36 
 4182000   0.58631986    -6.540377    1148.6981  0.022889727  0.021909071           27 
 4183000   0.58797552   -6.5353305    1149.5361  0.022900951  0.021902432           66 
 4184000   0.59431564   -6.5234323    1149.4528  0.022893817  0.021895799           60 
 4185000    0.5866645   -6.5560552    1148.1163  0.022861735  0.021889169           59 
 4186000   0.58396864   -6.5399184    1149.9193  0.022892166  0.021882529           81 
 4187000   0.58891961   -6.5385783     1150.886  0.022905939  0.021875894           67 
 4188000   0.57342914    -6.537862    1148.1797  0.022846619  0.021869256          106 
 4189000   0.58483043   -6.5305612    1150.7563  0.022892423   0.02186264           98 
 4190000   0.56994305   -6.5024076    1152.8543  0.022928685   0.02185603           56 
 4191000   0.57696725   -6.5514581    1150.2141  0.022870717  0.021849422           86 
 4192000   0.58321926   -6.5413178    1149.0172  0.022841468  0.021842802          155 
 4193000   0.58408735   -6.5479586    1149.1947  0.022839548  0.021836162          116 
 4194000   0.58185217   -6.5201012    1147.2951  0.022796358   0.02182953           85 
 4195000   0.58076133   -6.5537955    1147.8486  0.022801919  0.021822885           75 
 4196000   0.57890875   -6.5239984    1147.9019  0.022797544  0.021816247           98 
 4197000   0.57573677   -6.5345032    1147.4862  0.022783857  0.021809593           88 
 4198000   0.56914155   -6.5529795    1148.8036  0.022804582   0.02180295           66 
 4199000   0.57860864   -6.5399536    1147.2036  0.022767397  0.021796308           90 
 4200000   0.57249042   -6.5506885    1147.9687  0.022777158  0.021789692           54 
 4201000   0.57482061    -6.547085    1147.0016  0.022752551   0.02178306           23 
 4202000     0.579727   -6.5546927    1146.4167  0.022735536   0.02177642           78 
 4203000   0.57456459   -6.5606776    1148.4554  0.022770548  0.021769786           99 
 4204000   0.57853605   -6.5654257    1146.6834  0.022730008  0.021763126           36 
 4205000   0.60079872   -6.5669744    1146.2061  0.022715143  0.021756487           66 
 4206000   0.58908227   -6.5581622    1146.9061  0.022723611  0.021749848          161 
 4207000   0.59228931   -6.5505302    1150.1508  0.022782482  0.021743219          204 
 4208000   0.57569875   -6.5608558    1147.1952  0.022718537  0.021736594           57 
 4209000   0.58726833   -6.5490486    1146.9946  0.022709166  0.021729964          120 
 4210000   0.58008105   -6.5449423    1148.0178  0.022724027  0.021723335          161 
 4211000   0.57141556   -6.5556795    1147.5588  0.022709546  0.021716707          222 
 4212000   0.57753144   -6.5485168    1147.2449  0.022697945  0.021710078           86 
 4213000   0.57276871   -6.5566463    1146.6197  0.022680191  0.021703454          113 
 4214000    0.5744521   -6.5756331    1146.6323  0.022675058   0.02169683          194 
 4215000   0.57364272   -6.5507736    1146.4602  0.022666274  0.021690204           49 
 4216000   0.57089789   -6.5495059    1146.1852  0.022655464  0.021683593           81 
 4217000   0.58024627   -6.5556887    1148.7076  0.022699936   0.02167698           97 
 4218000   0.57995085   -6.5533217    1148.0929  0.022682411  0.021670363           97 
 4219000   0.57654421   -6.5609747     1149.469  0.022704216  0.021663742          103 
 4220000   0.57180294    -6.571576    1145.4213  0.022618904  0.021657121          209 
 4221000   0.56719353   -6.5417373    1147.4887  0.022654362  0.021650488           94 
 4222000   0.57950617   -6.5794656     1145.232  0.022604452  0.021643858          135 
 4223000   0.57495053   -6.5690482    1146.4314  0.022622768  0.021637234          140 
 4224000   0.58441136    -6.577336    1149.7338  0.022682564  0.021630628          136 
 4225000   0.57740993   -6.5567662    1149.5285  0.022673145  0.021624029          103 
 4226000   0.58020686   -6.5725401    1148.2413  0.022642398  0.021617426          130 
 4227000   0.56785324   -6.5727248     1149.777  0.022667318  0.021610822          158 
 4228000   0.59309633   -6.5772473    1149.1313   0.02264923  0.021604217          162 
 4229000   0.59396851   -6.5541912    1147.7463  0.022616583   0.02159761          161 
 4230000   0.56981468   -6.5689976    1146.5681  0.022588024  0.021591016          167 
 4231000   0.57805662   -6.5507704    1150.8972  0.022667951  0.021584437           94 
 4232000   0.57357615    -6.563931     1148.977  0.022624784  0.021577872          157 
 4233000   0.57711112   -6.5678639    1148.8536   0.02261701   0.02157132          160 
 4234000   0.57873776    -6.567819    1147.0269  0.022575715  0.021564759          118 
 4235000   0.57490898    -6.580741     1146.137  0.022552872  0.021558193          373 
 4236000   0.57521539    -6.562627    1150.4185  0.022631777  0.021551622          253 
 4237000   0.56484811   -6.5569916    1147.5298  0.022569621  0.021545036          173 
 4238000   0.56363501   -6.5631078    1146.5695  0.022545412  0.021538459          289 
 4239000    0.5777367    -6.555585    1148.9611   0.02258711  0.021531889          120 
 4240000   0.57929319   -6.5515485    1146.3521  0.022530504  0.021525334          285 
 4241000   0.56987073   -6.5753399    1147.3711  0.022545215  0.021518766          122 
 4242000   0.58179166   -6.5870604    1146.6978  0.022526673  0.021512199          159 
 4243000   0.55705875   -6.5400399     1149.563  0.022577637  0.021505639          246 
 4244000   0.56322467    -6.555347    1150.4756  0.022590238  0.021499087          255 
 4245000   0.58343427   -6.5387787    1148.0785  0.022537859  0.021492537          164 
 4246000   0.57430772   -6.5510697    1147.9994  0.022530999  0.021485998          216 
 4247000   0.57224254   -6.5451246    1149.4404  0.022553968  0.021479446          269 
 4248000   0.56661637   -6.5740071    1148.1477  0.022523299  0.021472902          257 
 4249000   0.56511753   -6.5844233    1146.4538  0.022484777  0.021466354          209 
 4250000   0.56363404   -6.5689975    1149.0713   0.02253081  0.021459813          216 
 4251000   0.57822201   -6.5770217    1149.0737  0.022525557  0.021453272          277 
 4252000   0.56769219   -6.5776363    1147.5492  0.022490382  0.021446734          233 
 4253000   0.56112382   -6.5824999    1147.0903  0.022476101  0.021440182          240 
 4254000   0.56905537   -6.5845431    1148.5946  0.022500285  0.021433633          258 
 4255000   0.57020695   -6.5822238    1147.7948  0.022479334  0.021427102          265 
 4256000   0.58570434   -6.5640242     1146.926   0.02245704  0.021420557          258 
 4257000    0.5712834   -6.5860283    1146.7016  0.022447372  0.021414025          272 
 4258000   0.55713827    -6.582852    1146.8678  0.022445354  0.021407499          225 
 4259000   0.55230306   -6.5812896    1148.8656  0.022479173  0.021400965          263 
 4260000   0.58248367   -6.5657734    1150.8275  0.022512275  0.021394447          287 
 4261000   0.57236451    -6.540618    1149.8534   0.02248794  0.021387947          222 
 4262000   0.56190346   -6.5457383    1150.1122  0.022487725  0.021381437          318 
 4263000   0.56395612   -6.5804164    1146.2223  0.022406409  0.021374925          220 
 4264000   0.56833369   -6.5491176    1150.7095   0.02248885  0.021368413          241 
 4265000   0.58424145   -6.5709188     1147.334  0.022417625  0.021361913          201 
 4266000   0.56737697   -6.5738747    1148.0488  0.022426332  0.021355391          160 
 4267000   0.57661142    -6.578537    1147.9446  0.022419042  0.021348861          259 
 4268000   0.56125485   -6.5887935    1149.6267  0.022446631  0.021342358          272 
 4269000   0.56798919    -6.568617    1148.8289  0.022425801  0.021335842          283 
 4270000   0.57476534   -6.5772724    1146.6397  0.022377823  0.021329328          244 
 4271000   0.56173974   -6.5781874    1147.8144  0.022395504  0.021322818          272 
 4272000   0.57166637    -6.564131    1146.6594  0.022367731   0.02131631          287 
 4273000    0.5675265   -6.5792429    1145.9802  0.022349251  0.021309812          285 
 4274000   0.57658152   -6.5762579    1148.2896   0.02238905  0.021303326          239 
 4275000   0.56263327   -6.5890466    1144.3038  0.022306118  0.021296828          254 
 4276000   0.56589627   -6.5795311    1148.7232  0.022387029  0.021290336          251 
 4277000   0.57321312    -6.579783    1149.5065  0.022397055  0.021283848          291 
 4278000   0.57071946   -6.5774372    1147.6563   0.02235578  0.021277361          269 
 4279000   0.57383865   -6.5886018    1148.5931  0.022368799  0.021270879          338 
 4280000    0.5569202   -6.5770511     1145.688  0.022307009  0.021264381          317 
 4281000   0.57697942   -6.5953493    1146.5999  0.022319549  0.021257902          249 
 4282000   0.58042776   -6.5852849    1147.6626  0.022335018  0.021251417          256 
 4283000   0.57868739   -6.5864372    1146.0518  0.022298462  0.021244947          217 
 4284000    0.5640717   -6.5782237    1146.4339   0.02230069  0.021238462          295 
 4285000   0.57083686    -6.595148    1149.1441  0.022348193  0.021231993          365 
 4286000    0.5661058   -6.5901302    1147.4456  0.022309955  0.021225507          250 
 4287000   0.57139146   -6.5903861    1148.2214  0.022319831   0.02121902          240 
 4288000    0.5774963   -6.5830349    1148.1776  0.022313774  0.021212538          305 
 4289000   0.56565521   -6.6018378    1149.3523  0.022331395  0.021206041          276 
 4290000   0.55083899   -6.6064697    1145.9923  0.022260923  0.021199547          339 
 4291000   0.56855072   -6.5844029    1147.6401  0.022287736  0.021193055          311 
 4292000   0.56255392   -6.6167187    1147.5676  0.022281135  0.021186562          332 
 4293000   0.54854252   -6.5907493    1147.6763  0.022278056  0.021180069          380 
 4294000   0.56494034   -6.5989206    1144.0821  0.022203115  0.021173574          375 
 4295000   0.56768783   -6.6212584    1145.5351  0.022226137  0.021167081          319 
 4296000   0.55797148   -6.5719975    1146.7436  0.022244405  0.021160588          278 
 4297000   0.58265338   -6.5844609    1147.9415  0.022262461  0.021154112          316 
 4298000   0.56382733   -6.5989272    1145.6171  0.022212213  0.021147627          326 
 4299000   0.56742214   -6.5760089    1147.6483   0.02224642  0.021141158          386 
 4300000   0.55596788   -6.5988135    1144.9506  0.022188964  0.021134696          406 
 4301000   0.56176429    -6.604161    1147.8652  0.022240278  0.021128223          362 
 4302000   0.57434117   -6.5962253    1147.7347   0.02223258  0.021121744          407 
 4303000    0.5611557   -6.5887753    1146.8746  0.022210755  0.021115291          468 
 4304000    0.5790158   -6.5953796      1145.03   0.02216988  0.021108831          449 
 4305000   0.57453457   -6.6152698    1146.2668  0.022188672  0.021102379          411 
 4306000    0.5606209   -6.5971466    1147.7838  0.022212877  0.021095917          485 
 4307000   0.54666363   -6.5984706    1147.5607  0.022203403  0.021089452          481 
 4308000   0.56704633   -6.5994765     1147.201  0.022191291  0.021082997          471 
 4309000   0.56161614   -6.6122827    1146.3221  0.022169145  0.021076547          567 
 4310000   0.56708986   -6.5954672    1146.7624  0.022172514  0.021070098          469 
 4311000   0.55387047   -6.5989976     1145.736   0.02214753  0.021063638          517 
 4312000   0.55846233   -6.6199434    1147.3065  0.022172745  0.021057181          592 
 4313000   0.56459104   -6.6124247    1144.8107  0.022119381  0.021050726          495 
 4314000   0.55803832   -6.6160726    1145.5054  0.022127674  0.021044252          601 
 4315000   0.56630363   -6.6084692    1145.4121  0.022120744  0.021037789          588 
 4316000    0.5667579   -6.6145394    1146.4405  0.022135474  0.021031317          481 
 4317000   0.57177292   -6.6152687    1146.1589  0.022124912  0.021024844          521 
 4318000   0.55107772   -6.6159157    1144.7475  0.022092549  0.021018361          461 
 4319000   0.57111207   -6.6053872    1144.8825  0.022090038  0.021011895          513 
 4320000   0.55779456   -6.6169338    1146.0729  0.022107888  0.021005433          476 
 4321000   0.55025329   -6.6065908    1143.7598  0.022058162  0.020998959          428 
 4322000   0.56647324   -6.6063967    1146.4437  0.022104807  0.020992498          492 
 4323000   0.56156757   -6.6156318    1146.0649  0.022092392  0.020986045          479 
 4324000   0.56411416   -6.5963834    1146.4814  0.022095309  0.020979587          484 
 4325000   0.56407594   -6.6112962    1143.6953  0.022036519   0.02097313          578 
 4326000   0.56164072   -6.6323787    1145.4821  0.022065844  0.020966669          491 
 4327000   0.56475284   -6.6195085    1146.2501  0.022075536  0.020960202          580 
 4328000   0.56590928   -6.6171504    1144.5969  0.022038604  0.020953749          592 
 4329000   0.55774422   -6.6307189    1146.3568  0.022067391  0.020947306          624 
 4330000   0.55622303   -6.6268021    1148.3932  0.022101486  0.020940855          580 
 4331000   0.56150945    -6.648864    1145.5218  0.022041134  0.020934407          650 
 4332000   0.55462851   -6.6384193      1142.73   0.02198234  0.020927932          653 
 4333000    0.5565738   -6.6315166    1142.4654  0.021972178  0.020921472          661 
 4334000   0.55975651   -6.6088451    1146.1971  0.022038861  0.020915017          690 
 4335000   0.56624991   -6.6310549    1143.9233  0.021990067   0.02090857          671 
 4336000   0.55773561   -6.6321834     1143.966  0.021985815  0.020902119          691 
 4337000   0.55699157   -6.6043292    1147.6968  0.022052432  0.020895677          602 
 4338000   0.55071044   -6.6392415    1144.6851  0.021989495  0.020889245          689 
 4339000   0.55908975    -6.641376    1144.1875   0.02197487  0.020882794          719 
 4340000   0.57159197   -6.6247904    1145.0528   0.02198642  0.020876355          655 
 4341000   0.54666487   -6.6328028    1147.1816  0.022022222  0.020869928          639 
 4342000   0.55531791   -6.6167831    1146.5088  0.022004238   0.02086348          735 
 4343000   0.56739605   -6.6022478    1143.3113  0.021937817  0.020857052          700 
 4344000   0.56267546   -6.6329694     1146.096  0.021986188  0.020850628          612 
 4345000   0.57042105   -6.6153309    1143.0785  0.021923254  0.020844211          608 
 4346000   0.56066724   -6.6260004    1144.7698   0.02195064  0.020837808          581 
 4347000   0.55975536   -6.6058535    1143.3145  0.021917691  0.020831408          730 
 4348000   0.55634553   -6.6611757    1144.2262  0.021930125  0.020824998          737 
 4349000   0.57160791   -6.6242228    1144.0924  0.021922519  0.020818584          603 
 4350000    0.5518315   -6.6123953    1144.1732  0.021919026  0.020812164          641 
 4351000   0.55609598   -6.6294492    1143.6311  0.021903606  0.020805746          570 
 4352000   0.55106039   -6.6166238     1144.308  0.021911535  0.020799344          660 
 4353000   0.55753929   -6.6210484    1146.2297   0.02194329  0.020792937          633 
 4354000    0.5648067   -6.6325597    1145.7548  0.021929162  0.020786521          671 
 4355000   0.55957848   -6.6214197    1144.5847  0.021901735  0.020780119          640 
 4356000   0.55582281   -6.6438234    1144.7804  0.021900451  0.020773704          556 
 4357000   0.54493911   -6.6199847    1144.1214  0.021882821  0.020767296          702 
 4358000   0.56147191   -6.6289634    1146.2266  0.021918055  0.020760893          654 
 4359000   0.55086866   -6.6404856    1143.8333  0.021867272  0.020754482          552 
 4360000   0.55829491   -6.6354569     1144.919  0.021883008  0.020748075          533 
 4361000   0.54252221   -6.6301524    1144.4784  0.021869571  0.020741664          542 
 4362000   0.54291729   -6.6331162    1144.7245  0.021869259  0.020735263          485 
 4363000   0.55787525   -6.6575581    1141.1686  0.021796328  0.020728865          624 
 4364000   0.56080304   -6.6495064    1144.4764  0.021854499  0.020722465          539 
 4365000   0.55379139   -6.6342909    1143.9049  0.021838581  0.020716069          649 
 4366000   0.56162508    -6.625305    1146.2342  0.021878038  0.020709663          564 
 4367000   0.56180853   -6.6566502    1145.4274  0.021857633  0.020703273          636 
 4368000   0.55783918   -6.6453768    1141.3811  0.021775433  0.020696886          702 
 4369000   0.55708834    -6.643162    1144.1497  0.021823257  0.020690501          641 
 4370000    0.5443766   -6.6495963    1144.8022  0.021830706   0.02068411          663 
 4371000   0.54754753   -6.6305979    1147.0654  0.021868859  0.020677729          513 
 4372000   0.54300772   -6.6103855    1143.6093  0.021797982   0.02067135          558 
 4373000   0.54706556   -6.6519086    1144.3441     0.021807  0.020664969          618 
 4374000    0.5521222    -6.643005    1143.4424  0.021784835  0.020658585          617 
 4375000    0.5670336   -6.6311779    1144.5752  0.021801433  0.020652203          590 
 4376000   0.54877098   -6.6391758    1140.9583  0.021727572  0.020645834          683 
 4377000   0.54716513     -6.63648    1142.5959  0.021753786  0.020639462          654 
 4378000   0.56987373   -6.6369955    1142.7385  0.021751532  0.020633098          633 
 4379000   0.54358925   -6.6406415    1145.9032  0.021806791  0.020626741          599 
 4380000   0.55511081   -6.6318298    1144.2383  0.021770135  0.020620374          708 
 4381000   0.55003829   -6.6489645     1144.718   0.02177429  0.020613998          766 
 4382000   0.54881134   -6.6718407    1143.5386  0.021746893  0.020607625          690 
 4383000   0.54452336   -6.6696534    1145.1715  0.021772976  0.020601249          730 
 4384000   0.55665425   -6.6576887    1142.4648   0.02171656  0.020594871          796 
 4385000   0.55515471   -6.6335958    1142.7372  0.021716784  0.020588512          800 
 4386000   0.55069777   -6.6482271    1144.6978  0.021749083  0.020582143          800 
 4387000   0.54241156    -6.643499    1143.5054  0.021721476  0.020575769          733 
 4388000   0.54556263   -6.6381079    1143.7759  0.021721663  0.020569403          646 
 4389000    0.5480177   -6.6457538    1144.4079  0.021728714  0.020563036          676 
 4390000   0.55610714   -6.6733221    1142.5925  0.021689303  0.020556668          742 
 4391000   0.54557548   -6.6506053    1141.0312  0.021654734  0.020550297          771 
 4392000    0.5515736   -6.6571329    1143.3445  0.021693694  0.020543921          724 
 4393000   0.56382762   -6.6500143    1143.7844  0.021697101  0.020537556          742 
 4394000   0.55889176   -6.6684161    1142.4855   0.02166753   0.02053119          734 
 4395000    0.5477735   -6.6509675    1143.0076    0.0216725  0.020524827          712 
 4396000   0.54541621    -6.644577    1141.2107  0.021633505  0.020518457          646 
 4397000   0.54272307    -6.651018    1141.2535  0.021629397  0.020512086          726 
 4398000    0.5458581   -6.6589134    1142.7358  0.021652565  0.020505726          814 
 4399000   0.54904546   -6.6389515     1143.501  0.021662138  0.020499362          703 
 4400000   0.53308289   -6.6561053    1144.0116  0.021666887  0.020492991          839 
 4401000   0.54689545   -6.6741467    1141.4808  0.021614043  0.020486603          816 
 4402000   0.54992318    -6.668462    1142.3376  0.021625352   0.02048022          799 
 4403000   0.54740578   -6.6632863    1145.1887  0.021674403  0.020473837          736 
 4404000   0.54863122   -6.6659181    1144.2093  0.021650948   0.02046747          850 
 4405000   0.55446122   -6.6738263    1140.0867  0.021568042  0.020461095          838 
 4406000   0.52626568   -6.6681614    1141.6213  0.021592171  0.020454711          823 
 4407000   0.55472606   -6.6472995      1142.33  0.021600673  0.020448331          725 
 4408000   0.54661751   -6.6789816    1145.1245  0.021648604   0.02044196          865 
 4409000   0.55054833   -6.6775497    1142.4405  0.021592963  0.020435593          747 
 4410000   0.54547738   -6.6682319     1139.273  0.021528212  0.020429235          820 
 4411000   0.54509754   -6.6679235    1138.5721  0.021510091  0.020422872          921 
 4412000    0.5577197   -6.6481521    1142.0038  0.021570033  0.020416511          812 
 4413000   0.55594829   -6.6645342    1139.6281  0.021520284  0.020410164          805 
 4414000    0.5489902   -6.6576094    1142.3753  0.021567273  0.020403809          846 
 4415000   0.54720873   -6.6677781    1141.4354  0.021544647  0.020397453          814 
 4416000   0.54615327   -6.6965492    1140.5479   0.02152302  0.020391098          904 
 4417000   0.55793829   -6.6853896    1141.2892  0.021532133  0.020384754          872 
 4418000   0.53911435   -6.6861693    1139.4251  0.021492098  0.020378416          800 
 4419000   0.54251803   -6.6709201    1140.4164  0.021505929  0.020372072          889 
 4420000   0.55362524   -6.6703558    1141.4531  0.021520609  0.020365732          805 
 4421000   0.55174979   -6.6743322    1141.7783   0.02152187  0.020359401          869 
 4422000   0.55284935   -6.6623165    1140.8885  0.021500235  0.020353064          936 
 4423000   0.54378724   -6.7024992    1139.5794   0.02147071  0.020346722          967 
 4424000   0.53848767   -6.6763388    1139.9579  0.021472986  0.020340387          944 
 4425000   0.55203299   -6.6843211    1141.0856  0.021489372  0.020334056          908 
 4426000   0.54741074   -6.6557162    1140.0424  0.021464874   0.02032774          814 
 4427000   0.55983591   -6.6641132    1144.3876   0.02154182  0.020321417          818 
 4428000   0.54253984   -6.6494705    1142.9072  0.021509094  0.020315106          897 
 4429000    0.5502671    -6.689113    1140.8485  0.021465502  0.020308785          848 
 4430000   0.54470335    -6.681934    1141.4146  0.021471305  0.020302462          891 
 4431000   0.54003247   -6.6666394    1141.6403  0.021470705  0.020296127          800 
 4432000   0.54880762   -6.6802298    1139.2717  0.021421324  0.020289814          916 
 4433000   0.54269067    -6.674486    1140.4269  0.021438207    0.0202835          898 
 4434000   0.54366003   -6.6929727    1139.9156  0.021423764  0.020277178          962 
 4435000   0.54782925   -6.6729691    1141.7564  0.021453522  0.020270867          845 
 4436000   0.55508232   -6.6819769    1139.1403  0.021399541  0.020264539         1043 
 4437000   0.52444186   -6.6907432    1137.9813  0.021372949  0.020258206         1010 
 4438000   0.53631114   -6.6810075    1139.7755  0.021401824   0.02025187         1000 
 4439000   0.53475192   -6.6946553    1138.6006  0.021374946   0.02024553          968 
 4440000   0.53795897    -6.701222     1137.382  0.021347261  0.020239189         1051 
 4441000   0.54996445    -6.695506    1141.9187  0.021427583  0.020232859          919 
 4442000   0.53628682    -6.695344    1140.1345  0.021389286  0.020226519          935 
 4443000   0.56101951   -6.6732599    1140.8295  0.021397508    0.0202202         1016 
 4444000    0.5387579   -6.6777124    1139.7323  0.021372118  0.020213874          924 
 4445000   0.54414231   -6.7140322    1138.1006  0.021336719  0.020207553          994 
 4446000   0.54448079   -6.6763856    1139.7733  0.021363273  0.020201243          966 
 4447000   0.53975718    -6.682042    1141.5175  0.021391154  0.020194946          995 
 4448000   0.54176762   -6.6767289    1140.5727  0.021368643  0.020188645          977 
 4449000   0.54278245   -6.7036996    1141.0802  0.021373346  0.020182357         1061 
 4450000   0.54515582   -6.6790531     1140.873  0.021364663  0.020176059         1137 
 4451000   0.53440813   -6.6966886    1142.0353  0.021381624   0.02016976         1077 
 4452000   0.54551502    -6.714342    1139.8269  0.021335484  0.020163454         1040 
 4453000   0.54928614   -6.6722166    1139.4811  0.021324222  0.020157159         1027 
 4454000    0.5298384   -6.7045098    1137.9848  0.021291439  0.020150865          936 
 4455000   0.53087715    -6.697964     1142.992  0.021380321  0.020144576         1047 
 4456000   0.53193503   -6.7103981    1139.1454  0.021303586  0.020138285         1043 
 4457000   0.54260289   -6.6993491    1140.1148  0.021316932  0.020131997         1013 
 4458000   0.52806372   -6.7070865    1138.2419   0.02127714  0.020125706         1049 
 4459000   0.53519032   -6.6924223    1141.6552   0.02133616  0.020119413         1013 
 4460000   0.53598987   -6.7028246    1140.0256  0.021300926  0.020113119         1103 
 4461000    0.5444038   -6.6949639    1140.3172  0.021301598  0.020106828         1088 
 4462000   0.52637871    -6.713898    1139.5695   0.02128286  0.020100542         1036 
 4463000   0.53660879   -6.6932072    1138.7365  0.021262539  0.020094258         1064 
 4464000   0.54573391   -6.6865055    1139.3717  0.021269633  0.020087975          977 
 4465000   0.54244522   -6.7030239    1139.0511  0.021258885  0.020081694         1091 
 4466000   0.54196929   -6.6906047    1138.7311  0.021248154  0.020075408         1011 
 4467000   0.53377856   -6.7086569    1138.0806  0.021231263   0.02006913         1115 
 4468000   0.52225918   -6.6960671    1138.7938  0.021239813   0.02006285         1056 
 4469000     0.533483   -6.6900804    1140.2022  0.021261323  0.020056586          965 
 4470000   0.52980789   -6.6864315    1142.1575  0.021293018  0.020050328         1047 
 4471000    0.5416783   -6.6941183     1141.404  0.021274211  0.020044065         1070 
 4472000   0.52867156    -6.695927    1140.8064  0.021258319  0.020037802         1077 
 4473000   0.52789385   -6.6824297    1138.6067  0.021212585  0.020031552         1084 
 4474000   0.54203878   -6.7024994    1140.1551  0.021236685  0.020025306         1058 
 4475000   0.53074154   -6.7174874    1139.5958  0.021221523   0.02001906         1134 
 4476000   0.53609923   -6.7003144    1141.0469  0.021243798  0.020012798         1105 
 4477000    0.5224603   -6.6895816    1140.9835  0.021237873  0.020006547         1157 
 4478000   0.54373338   -6.6953479    1139.2147  0.021200214  0.020000296         1202 
 4479000   0.53055056   -6.7094998    1141.3363  0.021234954  0.019994064         1208 
 4480000   0.53825341    -6.694083     1140.197  0.021209022  0.019987833         1223 
 4481000   0.52920549   -6.7071655    1141.8132  0.021234346  0.019981605         1180 
 4482000    0.5380766   -6.6905559      1138.57  0.021169307  0.019975377         1041 
 4483000   0.52017851   -6.7042991    1139.3938  0.021179898   0.01996915         1121 
 4484000   0.53781689   -6.6960929    1138.8263  0.021164629  0.019962916         1048 
 4485000   0.52634426   -6.7013821    1139.8465  0.021178864  0.019956684         1111 
 4486000   0.54788989    -6.697621    1141.0506  0.021196512  0.019950449         1074 
 4487000   0.53645959   -6.6902246    1138.6791  0.021147744  0.019944218         1165 
 4488000   0.53279909   -6.6870335    1137.6564  0.021124042  0.019937986         1115 
 4489000   0.53817038   -6.7211397    1139.9992  0.021162827  0.019931743         1109 
 4490000   0.52112554   -6.6940325    1139.3157  0.021145429  0.019925503         1132 
 4491000   0.54226297   -6.7009776    1138.6689  0.021128718  0.019919282         1177 
 4492000   0.54395624   -6.7170415    1138.6252  0.021123204  0.019913055         1115 
 4493000    0.5236555   -6.7066089    1140.4765   0.02115284  0.019906834         1176 
 4494000   0.54134204   -6.7098318    1138.5544  0.021112491  0.019900612         1214 
 4495000   0.53092848   -6.6942577    1138.4267  0.021105426  0.019894395         1188 
 4496000   0.52568609   -6.7116016    1137.5489  0.021084463  0.019888178         1185 
 4497000   0.53053848   -6.6963426    1140.3195  0.021131115  0.019881961         1175 
 4498000   0.53907861   -6.7168272    1140.1741  0.021123723   0.01987575         1238 
 4499000   0.51396181   -6.6805876    1139.0856  0.021098866  0.019869548         1210 
 4500000   0.53587937   -6.7068172    1137.0701  0.021056853  0.019863335         1164 
 4501000   0.53477263   -6.6849578    1138.0779  0.021070834  0.019857123         1164 
 4502000   0.53460229   -6.7123789    1138.8506  0.021080457   0.01985092         1167 
 4503000     0.526097   -6.7066331    1137.6512  0.021053578  0.019844706         1244 
 4504000   0.52220619   -6.7303837     1137.541  0.021046866   0.01983849         1219 
 4505000   0.54087839   -6.7234094    1139.9049  0.021085921  0.019832279         1315 
 4506000   0.53196964   -6.7180236    1136.4596  0.021017525  0.019826072         1216 
 4507000   0.52898513   -6.7100402    1137.7707  0.021037104  0.019819858         1171 
 4508000   0.54004429   -6.7112986    1137.3783  0.021025183  0.019813636         1195 
 4509000    0.5404121   -6.7276832    1137.3707   0.02102038  0.019807422         1235 
 4510000    0.5346551   -6.7100174    1137.8349  0.021024296  0.019801204         1320 
 4511000   0.52439034   -6.7121724    1138.5792  0.021033384  0.019794989         1269 
 4512000   0.53205255   -6.7208021    1138.4572  0.021026471  0.019788775         1221 
 4513000   0.53482305   -6.7155756    1136.4765  0.020985237   0.01978256         1308 
 4514000   0.52821778   -6.7027189    1137.7708  0.021004483  0.019776337         1398 
 4515000   0.53468788   -6.7162789    1138.2435  0.021008556  0.019770135         1355 
 4516000   0.53740036    -6.716206    1137.9278  0.020998077   0.01976393         1285 
 4517000   0.52514909   -6.7148962    1137.5467  0.020986397  0.019757731         1287 
 4518000   0.54038957   -6.7141162    1137.7501  0.020985505  0.019751535         1307 
 4519000   0.53083607   -6.7275421    1138.3634  0.020992169  0.019745349         1343 
 4520000   0.53413915     -6.70418    1136.7653  0.020958062  0.019739162         1367 
 4521000   0.52823346   -6.7328652    1138.7579  0.020990155  0.019732975         1369 
 4522000   0.52158361   -6.7001787    1139.3956  0.020997265   0.01972679         1309 
 4523000   0.52181405   -6.7190279     1137.633  0.020960148  0.019720624         1399 
 4524000    0.5335913   -6.7152116    1136.7659  0.020939543  0.019714451         1334 
 4525000    0.5313955   -6.7053985    1138.1808  0.020960973  0.019708282         1350 
 4526000   0.52776508   -6.7284007    1136.8921  0.020932614  0.019702108         1419 
 4527000   0.52929521   -6.7042802    1138.1568  0.020951269  0.019695933         1460 
 4528000   0.53250739   -6.7166275    1137.4126  0.020932947   0.01968976         1503 
 4529000   0.53738422   -6.7168705    1141.3303  0.021000411  0.019683595         1492 
 4530000   0.52379123   -6.7269873    1136.6388  0.020909469  0.019677432         1525 
 4531000   0.51709351   -6.7171252    1137.6636  0.020923704  0.019671267         1466 
 4532000   0.52948674   -6.7254994    1137.4417  0.020915007  0.019665107         1542 
 4533000    0.5222399   -6.7047405     1135.305  0.020871112  0.019658942         1564 
 4534000   0.51610625   -6.7190389     1137.458  0.020906081  0.019652784         1493 
 4535000    0.5305361   -6.7210991    1138.4698  0.020920063  0.019646632         1508 
 4536000   0.52716231   -6.7268496    1137.4435  0.020896596   0.01964047         1573 
 4537000   0.51825826   -6.7124099    1139.2089  0.020924415  0.019634314         1431 
 4538000   0.53740658   -6.7160934    1135.4793  0.020851317  0.019628155         1564 
 4539000   0.52437592   -6.7340618    1136.4504  0.020864551  0.019621994         1601 
 4540000   0.51503482   -6.7384412    1137.1549  0.020872887  0.019615833         1534 
 4541000   0.52944881   -6.7284796    1136.3466  0.020853458   0.01960967         1654 
 4542000   0.51911481   -6.7085837    1137.4369  0.020868871  0.019603508         1565 
 4543000   0.52009901   -6.7492788    1138.2413  0.020879032  0.019597344         1609 
 4544000   0.51496208   -6.7319015    1137.9986  0.020869987  0.019591179         1705 
 4545000   0.51401559   -6.7261297    1136.9047  0.020845337  0.019585022         1565 
 4546000   0.53063051   -6.7452679    1136.3026  0.020829715  0.019578859         1488 
 4547000   0.51558451   -6.7398928     1135.337  0.020807438  0.019572705         1508 
 4548000   0.52782999   -6.7434284    1138.7315   0.02086506  0.019566551         1577 
 4549000   0.51707229    -6.755653    1136.0457  0.020811271  0.019560394         1600 
 4550000   0.52676879   -6.7366714    1139.9003  0.020877295  0.019554246         1556 
 4551000   0.53517431   -6.7548583    1136.2163  0.020805249  0.019548094         1678 
 4552000   0.52430175    -6.746866    1134.2528  0.020764734  0.019541939         1648 
 4553000     0.512738   -6.7338811    1137.1783  0.020813718  0.019535789         1643 
 4554000   0.51778233   -6.7657238     1136.508  0.020796882  0.019529633         1699 
 4555000   0.52488403   -6.7354506    1134.9612  0.020764017  0.019523472         1597 
 4556000   0.52705556   -6.7391344    1135.9045  0.020776713   0.01951733         1589 
 4557000   0.52131549    -6.766318    1135.8899  0.020771887  0.019511176         1699 
 4558000    0.5187597   -6.7533018    1136.7464   0.02078299  0.019505023         1691 
 4559000   0.52822418   -6.7327119    1136.7195  0.020777939   0.01949888         1539 
 4560000   0.53169251   -6.7519415    1136.3858  0.020767284  0.019492754         1627 
 4561000   0.53447065   -6.7449544    1136.0377  0.020756371  0.019486624         1624 
 4562000   0.52078721   -6.7411956    1136.3012  0.020756635  0.019480504         1651 
 4563000   0.52600828   -6.7421647    1135.7338  0.020741722  0.019474372         1692 
 4564000   0.52128215   -6.7458933    1137.7162  0.020773375  0.019468252         1585 
 4565000   0.52021585   -6.7545677    1134.8862  0.020717164  0.019462123         1677 
 4566000    0.5130237   -6.7600887    1133.0781  0.020679626  0.019455995         1640 
 4567000   0.51937213   -6.7348944     1135.257  0.020714856  0.019449874         1633 
 4568000   0.51667939   -6.7487329    1135.9964  0.020723811  0.019443748         1786 
 4569000   0.52293173   -6.7431771     1135.121  0.020703309  0.019437621         1806 
 4570000   0.51000474    -6.758536     1137.531  0.020742725  0.019431492         1931 
 4571000   0.51140133   -6.7589092    1135.6978  0.020704765   0.01942536         1813 
 4572000   0.53139193   -6.7285146    1134.5061  0.020678515  0.019419232         1800 
 4573000   0.52360294   -6.7475695    1135.2543  0.020687628  0.019413104         1840 
 4574000   0.53406393   -6.7723947    1133.8711  0.020657905  0.019406976         1838 
 4575000    0.5152316   -6.7539106    1136.7381  0.020705613  0.019400845         1738 
 4576000   0.52308605   -6.7688938     1135.789  0.020683804  0.019394726         1836 
 4577000   0.51543342   -6.7523822    1134.4453  0.020654819  0.019388617         1817 
 4578000   0.52195002   -6.7677538    1133.7197  0.020637099  0.019382498         1800 
 4579000   0.51184332    -6.759905    1136.7058  0.020686936  0.019376387         1835 
 4580000   0.52270775   -6.7656667    1135.7583  0.020665181  0.019370273         1756 
 4581000   0.52322527   -6.7682386     1136.091  0.020666722  0.019364159         1722 
 4582000   0.51866685   -6.7692747    1136.4393  0.020668546  0.019358056         1780 
 4583000   0.52348954   -6.7533523    1134.4405  0.020627691  0.019351966         1858 
 4584000   0.51251817    -6.761507    1135.2619  0.020638123  0.019345871         1878 
 4585000   0.51686995   -6.7500523    1138.0142  0.020683645  0.019339783         1922 
 4586000   0.50501898   -6.7555835    1135.2286  0.020628519  0.019333682         1933 
 4587000   0.51636711   -6.7655647    1134.5835  0.020612301  0.019327592         1921 
 4588000    0.5229004   -6.7488121    1137.0523   0.02065265  0.019321489         1899 
 4589000   0.51118252   -6.7556654    1134.6241  0.020604055  0.019315389         1914 
 4590000   0.50785226   -6.7679183    1135.0334  0.020606997  0.019309295         2044 
 4591000   0.50776991   -6.7466264    1137.1813  0.020641497  0.019303202         1984 
 4592000   0.53007251   -6.7706751    1135.8871  0.020613515  0.019297095         1891 
 4593000   0.52512518    -6.782696    1132.2775  0.020543535  0.019290993         2090 
 4594000   0.52183281   -6.7688649    1134.1235   0.02057255  0.019284892         2101 
 4595000   0.51232491   -6.7688714     1131.198  0.020515016  0.019278788         2090 
 4596000   0.52324351   -6.7648864    1133.3782  0.020550083  0.019272698         2162 
 4597000   0.51913712   -6.7713456    1132.9834  0.020538457  0.019266601         2125 
 4598000   0.50925378   -6.7615879    1132.5693  0.020526485  0.019260511         2124 
 4599000   0.50560384    -6.776956    1134.5573  0.020558043  0.019254419         2097 
 4600000   0.51700897   -6.7596841    1131.3312   0.02049513  0.019248338         2125 
 4601000   0.51742876   -6.7782108    1135.2484  0.020561624  0.019242253         2024 
 4602000    0.5164656   -6.7650045    1134.9583  0.020551903  0.019236168         2072 
 4603000   0.51128751   -6.7702511    1132.2438  0.020498294  0.019230086         2114 
 4604000   0.52521454    -6.762144    1134.0715  0.020526924   0.01922401         2074 
 4605000   0.52432715   -6.7709346    1134.4197  0.020528767  0.019217948         2020 
 4606000   0.52779352   -6.7777931    1134.2106  0.020520528  0.019211877         2134 
 4607000   0.52419133   -6.7720747    1134.1944   0.02051578  0.019205803         1982 
 4608000   0.51516938   -6.7593963    1135.0617  0.020527012   0.01919974         1980 
 4609000   0.51671335   -6.7548875    1134.6478  0.020515076    0.0191937         2022 
 4610000   0.51076925   -6.7803596    1136.1878  0.020538464  0.019187645         2127 
 4611000   0.50754584   -6.7695673    1131.9295   0.02045705  0.019181574         2073 
 4612000   0.51530886   -6.7669488    1134.8352  0.020505116  0.019175515         2036 
 4613000   0.51081131   -6.7657925    1134.0324  0.020486169  0.019169453         2058 
 4614000    0.5174926   -6.7718919    1132.1348  0.020447457  0.019163398         2114 
 4615000   0.51293194   -6.7823566    1132.2852  0.020445742   0.01915734         2045 
 4616000   0.52011335   -6.7633511    1134.9817  0.020489994  0.019151297         1948 
 4617000   0.50589965   -6.7693901    1134.5152  0.020477136  0.019145259         2055 
 4618000   0.51788328   -6.7743343    1132.6484  0.020439014   0.01913922         2087 
 4619000   0.51591952   -6.7685733    1136.3146  0.020500733  0.019133175         2105 
 4620000   0.50894701   -6.7626661    1135.9466  0.020489658  0.019127142         2036 
 4621000   0.49827716   -6.7889578    1132.9079  0.020430425    0.0191211         2078 
 4622000   0.50705067   -6.7666292     1132.043   0.02041041  0.019115056         2097 
 4623000   0.52425787   -6.7610322    1133.1344   0.02042567  0.019109018         2129 
 4624000   0.52175887   -6.7522828    1136.0466  0.020473734  0.019102993         2059 
 4625000   0.51734368   -6.7774354    1135.4209  0.020458033  0.019096968         2050 
 4626000    0.5157569   -6.7654877    1132.3285  0.020397905  0.019090942         1975 
 4627000   0.51760743   -6.7710684    1133.3656  0.020412176  0.019084917         2104 
 4628000   0.51944617   -6.7774714    1136.1441  0.020457795  0.019078895         2055 
 4629000   0.50938896   -6.7851178    1131.6722  0.020372871  0.019072868         2031 
 4630000   0.50778889   -6.7759058    1134.3574    0.0204168  0.019066845         2080 
 4631000   0.50285417   -6.7784861    1135.3272  0.020429843   0.01906083         2112 
 4632000   0.52148106   -6.7690709    1132.7333  0.020378765  0.019054818         2116 
 4633000   0.52430387   -6.7809894    1133.7958  0.020393478   0.01904881         2061 
 4634000   0.51259727   -6.7762997     1134.516  0.020402029  0.019042793         2077 
 4635000   0.51206916   -6.7785018    1136.1391   0.02042681  0.019036781         2110 
 4636000   0.51304544   -6.7779286    1132.3327  0.020353981  0.019030776         2154 
 4637000   0.51220206    -6.779901    1134.6486  0.020391212  0.019024759         2138 
 4638000   0.50836115   -6.7924409    1131.6484   0.02033291   0.01901875         1975 
 4639000   0.50853503   -6.7784102    1132.7177  0.020347734   0.01901274         2145 
 4640000   0.50112449   -6.7917564    1133.1565  0.020351231  0.019006728         2098 
 4641000   0.50239253   -6.7692037    1134.1321  0.020364363  0.019000723         2181 
 4642000   0.49882551   -6.7724016    1133.9031  0.020355866  0.018994722         2147 
 4643000   0.50416155   -6.7820581    1132.2998  0.020322704  0.018988717         2099 
 4644000   0.51818437   -6.7858314    1133.8829  0.020346736  0.018982719         2210 
 4645000   0.50531144   -6.7702015    1134.2237  0.020348469  0.018976725         2214 
 4646000   0.50965343   -6.7811231    1132.1835  0.020307496   0.01897073         2211 
 4647000   0.50545815    -6.765885    1133.9999  0.020335699  0.018964731         2081 
 4648000   0.50589194   -6.7905606    1131.1254  0.020279786  0.018958735         2203 
 4649000   0.50430118   -6.7931099    1133.3113  0.020314607   0.01895274         2165 
 4650000   0.50823903    -6.784897    1133.2133  0.020308482   0.01894675         2095 
 4651000   0.50935691   -6.7962933     1133.015  0.020300563   0.01894076         2139 
 4652000   0.50126035   -6.7888978    1131.6827  0.020272333  0.018934771         2104 
 4653000   0.51563648   -6.7749518    1133.9631  0.020308818  0.018928787         2073 
 4654000   0.51259949   -6.7926453     1132.574  0.020279579  0.018922806         2151 
 4655000   0.50577513   -6.7861619     1131.781  0.020261027  0.018916823         2078 
 4656000   0.50544284   -6.7826263    1132.9064  0.020276819  0.018910852         2077 
 4657000   0.49142644   -6.7780748    1131.2351  0.020242558  0.018904877         2100 
 4658000     0.494184   -6.7868807    1131.7002  0.020246533  0.018898901         2193 
 4659000   0.51418618   -6.7822391    1132.5567  0.020257506  0.018892924         2297 
 4660000   0.50019755   -6.7905494    1133.3735  0.020267767  0.018886949         2217 
 4661000   0.50497198    -6.780301     1132.995  0.020256652  0.018880982         2143 
 4662000   0.50585889    -6.788567     1132.143  0.020237076   0.01887501         2186 
 4663000    0.4997686    -6.785407    1134.1013  0.020267734  0.018869052         2220 
 4664000    0.5038122   -6.8076034    1133.4838  0.020252355  0.018863084         2063 
 4665000    0.5041897    -6.787263    1132.0966  0.020223233  0.018857128         2037 
 4666000   0.52430585   -6.7925185    1132.1436  0.020219739  0.018851171         2195 
 4667000   0.51550925   -6.7837308    1132.8668   0.02022832  0.018845214         2115 
 4668000   0.49495071   -6.7861253    1132.3013   0.02021389  0.018839259         2180 
 4669000   0.50635536   -6.7881557    1133.1825   0.02022529   0.01883331         2137 
 4670000   0.50436002   -6.7927985    1131.7335  0.020195102  0.018827356         2224 
 4671000   0.51059663   -6.7991759    1133.2266  0.020217415  0.018821402         2192 
 4672000   0.51262225   -6.7760757    1132.5255  0.020200583  0.018815451         2239 
 4673000    0.4845298   -6.7933303     1131.987  0.020186657  0.018809509         2225 
 4674000   0.50723195   -6.7929797    1131.2127  0.020168533  0.018803562         2156 
 4675000   0.50881841   -6.8046608    1130.8273  0.020157349  0.018797611         2304 
 4676000   0.49497343   -6.7890172    1131.8262  0.020170841  0.018791666         2213 
 4677000   0.50699171   -6.7947955    1132.0729  0.020170923  0.018785717         2291 
 4678000   0.50607519   -6.7955889    1132.0242  0.020165743  0.018779776         2194 
 4679000   0.51063577   -6.8020246    1131.5193  0.020152442  0.018773839         2299 
 4680000   0.49837544   -6.7902244    1135.4288   0.02021775  0.018767903         2172 
 4681000   0.50127843   -6.8138478    1132.6438  0.020163851   0.01876197         2177 
 4682000   0.50223705   -6.7919924    1130.0184  0.020112815  0.018756036         2151 
 4683000   0.50167018   -6.8131328    1131.8041  0.020140296   0.01875012         2215 
 4684000   0.50796642   -6.7908724    1134.5559  0.020184954  0.018744207         2100 
 4685000   0.49988035   -6.8012589    1133.1403  0.020155466  0.018738303         2180 
 4686000   0.51936505   -6.7848505     1132.658  0.020142589  0.018732401         2209 
 4687000   0.50734702   -6.8098968    1131.8271  0.020123517  0.018726493         2204 
 4688000    0.5067475   -6.7792109     1133.307  0.020145531  0.018720586         2173 
 4689000    0.5067689   -6.7836078    1133.1614  0.020138646  0.018714679         2257 
 4690000   0.49601139   -6.8102033    1134.2566  0.020153814  0.018708773         2258 
 4691000   0.49938997    -6.790833    1132.7794  0.020123275  0.018702872         2244 
 4692000   0.49782103   -6.7742262    1131.7065  0.020099931  0.018696959         2192 
 4693000    0.5071669   -6.7766183     1133.897  0.020134544  0.018691058         2200 
 4694000   0.50376075   -6.8001488    1131.1213  0.020080977  0.018685163         2294 
 4695000   0.50077304   -6.7951318    1130.6168  0.020067745  0.018679265         2151 
 4696000   0.50928254   -6.8200275    1132.5997   0.02009866  0.018673373         2245 
 4697000   0.51226048   -6.7843242    1132.6421  0.020095133  0.018667479         2220 
 4698000   0.50117354   -6.7971068    1130.5928  0.020054505  0.018661572         2260 
 4699000   0.50516587   -6.7889561    1132.7186  0.020087937  0.018655681         2164 
 4700000    0.5000168    -6.799384    1131.4777  0.020061661  0.018649786         2248 
 4701000   0.50473158   -6.8028073    1130.6646   0.02004298  0.018643894         2289 
 4702000   0.49906926   -6.8251314    1130.6586  0.020038611     0.018638         2346 
 4703000   0.49578872   -6.8167321    1132.6285  0.020069256  0.018632104         2293 
 4704000   0.50219836   -6.8175088    1131.0088  0.020036295  0.018626212         2236 
 4705000    0.5115659    -6.804998    1132.9285  0.020066038  0.018620317         2342 
 4706000   0.49899034   -6.8045346    1130.4473  0.020017836  0.018614429         2361 
 4707000   0.49061131   -6.8125621    1131.9286   0.02003981   0.01860854         2357 
 4708000   0.49600729   -6.7998414    1131.4758  0.020027538  0.018602648         2355 
 4709000   0.49510471   -6.8060371     1130.663  0.020008902  0.018596762         2370 
 4710000   0.51011277   -6.8280966    1131.2962  0.020015856  0.018590883         2396 
 4711000   0.50067426   -6.8126573    1131.8347  0.020021134  0.018584994         2341 
 4712000   0.49635876   -6.8124245    1131.5478  0.020011809  0.018579114         2339 
 4713000   0.49016499   -6.8176856    1129.5503  0.019972245  0.018573233         2385 
 4714000    0.5036966    -6.814577    1131.5485  0.020003332  0.018567348         2344 
 4715000   0.50299262   -6.8134419    1130.1338  0.019974086  0.018561467         2376 
 4716000    0.5021887   -6.8311388    1130.1459  0.019970065  0.018555593         2430 
 4717000   0.49499277   -6.8233221    1131.8346  0.019995665  0.018549725         2369 
 4718000   0.49179843   -6.8119175    1129.0991  0.019943109  0.018543858         2366 
 4719000   0.49751836   -6.8148816    1130.9354  0.019971311  0.018537977         2483 
 4720000   0.49701971   -6.8112206    1129.6995   0.01994526  0.018532113         2375 
 4721000   0.50275911   -6.8236087    1129.9325  0.019945148  0.018526245         2455 
 4722000    0.5055417   -6.7982989     1132.579  0.019987629  0.018520391         2437 
 4723000   0.50314626   -6.8087875    1132.5297  0.019982527  0.018514533         2352 
 4724000   0.49723721    -6.810408    1130.2838  0.019938679  0.018508675         2409 
 4725000   0.49774424   -6.8021825    1130.6217  0.019940417  0.018502815         2433 
 4726000   0.49815208   -6.8163955    1130.1931  0.019928641  0.018496953         2400 
 4727000   0.48707325   -6.8170841    1130.5616  0.019930922  0.018491106         2320 
 4728000   0.49795933    -6.831011    1128.5896  0.019891949  0.018485255         2312 
 4729000   0.49363274   -6.8144694    1130.6574  0.019924181  0.018479403         2331 
 4730000   0.49198313   -6.8226726    1130.6979  0.019920683  0.018473556         2470 
 4731000   0.48954719   -6.8256656    1129.5126  0.019895594  0.018467712         2393 
 4732000   0.51609021   -6.8193964     1129.134  0.019884722  0.018461864         2392 
 4733000   0.49174397   -6.8188612    1130.8635  0.019910971  0.018456028         2407 
 4734000   0.49420168   -6.8275557    1131.2884  0.019914244  0.018450191         2351 
 4735000   0.49079326    -6.822537     1130.188  0.019890672  0.018444352         2356 
 4736000   0.49570354   -6.8191721    1130.2866  0.019888207  0.018438517         2315 
 4737000   0.48741043   -6.8075124    1132.1321  0.019916474  0.018432684         2322 
 4738000   0.48461475   -6.8265161    1130.2205   0.01987865  0.018426852         2443 
 4739000   0.48536386   -6.8233417    1131.3709  0.019894684  0.018421026         2319 
 4740000   0.49763993   -6.8207485    1133.1555  0.019921862  0.018415198         2355 
 4741000   0.49592972   -6.8219381    1127.8223  0.019823917  0.018409363         2402 
 4742000   0.49624103   -6.8229278    1128.9483  0.019839525  0.018403537         2420 
 4743000   0.49561468   -6.8144239     1131.103  0.019873199  0.018397712         2403 
 4744000   0.49724216   -6.8267022    1129.4633  0.019840206   0.01839189         2422 
 4745000   0.49765174   -6.8240714    1130.4352  0.019853095  0.018386068         2342 
 4746000   0.49380054   -6.8211876    1129.4535  0.019831673  0.018380252         2451 
 4747000   0.49167148   -6.8295136    1130.6638  0.019848744  0.018374437         2430 
 4748000   0.48894745   -6.8128114    1130.0618  0.019833998   0.01836862         2459 
 4749000   0.49074201    -6.815672    1129.4486   0.01981906  0.018362807         2352 
 4750000   0.49285929    -6.835651    1131.3256  0.019847818  0.018357001         2423 
 4751000   0.49800702   -6.8267319    1131.1259  0.019840137  0.018351194         2513 
 4752000   0.48679302   -6.8296451    1130.2896  0.019821297   0.01834538         2468 
 4753000   0.48143939   -6.8271627    1127.4708  0.019767704  0.018339579         2481 
 4754000   0.49594459   -6.8376329    1129.4549  0.019798326  0.018333782         2463 
 4755000   0.48489187   -6.8288596    1130.8034  0.019817795  0.018327986         2426 
 4756000   0.48975148   -6.8366779    1129.9204  0.019798156  0.018322187         2469 
 4757000   0.48822574   -6.8381827    1131.3472   0.01981899  0.018316394         2347 
 4758000   0.48930994   -6.8180459    1131.0009  0.019808759  0.018310596         2421 
 4759000    0.4958086   -6.8314998    1129.7826  0.019783263  0.018304803         2403 
 4760000   0.48239845   -6.8403587    1130.2998  0.019788162  0.018299015         2360 
 4761000   0.48563256   -6.8251299    1131.8189  0.019810594   0.01829323         2297 
 4762000   0.48590355   -6.8349791    1129.7363   0.01976999  0.018287446         2423 
 4763000   0.49323767   -6.8310324    1128.5985  0.019745932  0.018281668         2431 
 4764000   0.48678843   -6.8464595    1128.7208  0.019743927  0.018275885         2466 
 4765000   0.49250373   -6.8252166    1131.2886  0.019784691  0.018270103         2438 
 4766000   0.48977355   -6.8318765    1131.5731  0.019785514  0.018264327         2463 
 4767000   0.48504976     -6.83251    1129.1544  0.019739082  0.018258555         2473 
 4768000   0.49223432    -6.829774    1129.1033  0.019734048  0.018252775         2429 
 4769000   0.49176808   -6.8195029    1129.5846   0.01973832  0.018246998         2456 
 4770000    0.4881064   -6.8291939    1129.3321  0.019729772  0.018241224         2440 
 4771000   0.50016617   -6.8569418    1130.8652  0.019752413  0.018235458         2416 
 4772000   0.49549267   -6.8454716    1130.1996  0.019736652  0.018229692         2399 
 4773000   0.48277774   -6.8213813    1130.0067  0.019729148  0.018223938         2322 
 4774000   0.48539947   -6.8259964    1130.6296  0.019735889  0.018218177         2340 
 4775000   0.48314766   -6.8398764    1130.4688   0.01972895  0.018212421         2427 
 4776000   0.48989027   -6.8390734     1129.371  0.019705664  0.018206665         2393 
 4777000   0.49190957   -6.8311717    1130.8172  0.019726768  0.018200917         2434 
 4778000   0.49299419   -6.8229606    1128.5537  0.019683161  0.018195165         2425 
 4779000   0.48457596   -6.8517428    1129.4961  0.019695476   0.01818942         2394 
 4780000   0.48128337   -6.8441082    1128.5686  0.019675185  0.018183671         2336 
 4781000   0.48771108   -6.8298131    1131.6013  0.019723929  0.018177927         2380 
 4782000    0.4839637   -6.8431097    1129.1137  0.019676455  0.018172183         2475 
 4783000    0.4885438   -6.8399986    1130.7234  0.019700387  0.018166438         2396 
 4784000   0.48717689   -6.8239433    1128.6276  0.019659761  0.018160698         2369 
 4785000   0.48423908   -6.8363221    1129.1713  0.019665122  0.018154958         2378 
 4786000   0.48943994   -6.8417088    1130.8872   0.01969089  0.018149223         2388 
 4787000   0.48916401   -6.8352565    1128.6522  0.019647869  0.018143488         2383 
 4788000   0.47453355   -6.8453108    1131.1567  0.019687356  0.018137758         2508 
 4789000   0.49375026        -6.85    1131.4037  0.019687542  0.018132025         2445 
 4790000   0.48637282   -6.8605541    1127.6437  0.019618019  0.018126293         2435 
 4791000   0.49124322   -6.8540796    1129.2587  0.019642015  0.018120566         2407 
 4792000   0.47386652   -6.8297949    1128.9523  0.019632588  0.018114841         2455 
 4793000   0.49523633   -6.8678305    1129.2417  0.019633523  0.018109119         2401 
 4794000   0.48930702   -6.8347819    1129.3886  0.019631982  0.018103402         2425 
 4795000   0.48610301   -6.8355756    1129.2185  0.019624931  0.018097692         2388 
 4796000   0.48139298   -6.8384809    1128.6593  0.019611122  0.018091981         2471 
 4797000   0.48646358     -6.83052    1130.3248  0.019635966  0.018086268         2478 
 4798000   0.48755778   -6.8481539    1128.6434  0.019602671  0.018080558         2433 
 4799000   0.48437162   -6.8488273    1130.1371  0.019624524  0.018074844         2483 
 4800000   0.49377838    -6.844498    1129.1779  0.019603783  0.018069134         2352 
 4801000   0.47711589    -6.846593    1129.0045  0.019596691  0.018063437         2412 
 4802000   0.48292605   -6.8517188    1128.3682  0.019581567  0.018057733         2532 
 4803000   0.47230863   -6.8455016    1128.7724  0.019584503  0.018052034         2470 
 4804000   0.47590002   -6.8414336    1129.8728  0.019599515   0.01804633         2475 
 4805000   0.49305512   -6.8576606    1129.6642  0.019591818  0.018040621         2435 
 4806000   0.48920297   -6.8507595    1129.6444  0.019587398  0.018034921         2454 
 4807000   0.47628085   -6.8427803    1128.5566  0.019564464  0.018029228         2487 
 4808000   0.47818057   -6.8563577    1128.1506   0.01955336  0.018023534         2468 
 4809000   0.48694219    -6.847462    1128.8634  0.019561644  0.018017842         2488 
 4810000   0.47554975   -6.8336582     1127.359  0.019531513  0.018012152         2457 
 4811000   0.48604729   -6.8542671    1130.6438  0.019584352  0.018006468         2459 
 4812000   0.48118908   -6.8382942    1129.5772   0.01956181  0.018000785         2434 
 4813000   0.48886052    -6.840922    1129.0506  0.019548628  0.017995102         2508 
 4814000    0.4780578   -6.8414066     1128.009  0.019526537  0.017989421         2522 
 4815000   0.47603693   -6.8476773    1130.2467   0.01956121  0.017983743         2405 
 4816000   0.49231329   -6.8532296    1129.4063  0.019542605  0.017978068         2495 
 4817000    0.4833693   -6.8546263     1129.126    0.0195337  0.017972391         2413 
 4818000   0.47873001   -6.8641029    1129.1259  0.019529643  0.017966717         2519 
 4819000   0.48844085   -6.8473252    1129.4714  0.019531567  0.017961049         2397 
 4820000   0.47615874   -6.8587776    1127.4653  0.019492831  0.017955383         2436 
 4821000   0.48557352   -6.8277577    1128.3322  0.019503772  0.017949715         2434 
 4822000    0.4815209   -6.8481942    1130.2692  0.019533203   0.01794405         2413 
 4823000   0.48390457   -6.8594141    1128.7581  0.019503043  0.017938387         2408 
 4824000   0.48352734   -6.8430693    1129.7869  0.019516772  0.017932729         2480 
 4825000   0.47172325   -6.8538329    1130.9472  0.019532767   0.01792707         2422 
 4826000   0.48248439   -6.8515106    1128.5806  0.019487854  0.017921404         2430 
 4827000   0.47415969    -6.841583    1128.3063  0.019479082  0.017915751         2383 
 4828000   0.49286346   -6.8687471    1128.0055  0.019469855  0.017910097         2494 
 4829000   0.49271414   -6.8520941    1126.4041  0.019438187   0.01790444         2384 
 4830000   0.48666865   -6.8522321    1128.2495  0.019466002  0.017898783         2387 
 4831000   0.47890409   -6.8551234     1128.946  0.019473988  0.017893127         2438 
 4832000   0.47408972   -6.8607072    1126.8135  0.019433179   0.01788747         2446 
 4833000   0.46820938   -6.8513016    1129.2786  0.019471664  0.017881822         2420 
 4834000   0.48318712   -6.8356442    1128.5234  0.019454617  0.017876178         2406 
 4835000   0.47307395   -6.8608126    1128.7047  0.019453718  0.017870534         2450 
 4836000   0.47453945   -6.8493377    1127.1309  0.019422576  0.017864891         2488 
 4837000   0.46989016   -6.8387901    1128.2986  0.019438677  0.017859248         2446 
 4838000   0.46819448   -6.8626026    1128.3447  0.019435454  0.017853608         2506 
 4839000   0.47046977   -6.8522508    1127.1057  0.019410101  0.017847975         2449 
 4840000   0.48795634   -6.8314987    1128.4712    0.0194296  0.017842341         2384 
 4841000   0.47671798   -6.8575128    1127.5134    0.0194091  0.017836709         2475 
 4842000   0.47452555   -6.8516805    1130.0679  0.019449056   0.01783108         2448 
 4843000   0.47966803   -6.8590606    1126.5136  0.019383881  0.017825443         2539 
 4844000   0.48400334   -6.8558112    1128.3935  0.019412219  0.017819816         2541 
 4845000   0.48416681    -6.862081    1127.9053  0.019399816   0.01781418         2496 
 4846000   0.46931807   -6.8607624    1129.1282  0.019416843  0.017808553         2514 
 4847000   0.47533845   -6.8609483    1126.3762  0.019365522  0.017802927         2504 
 4848000   0.47403809   -6.8762873    1127.7407  0.019384982  0.017797303         2463 
 4849000    0.4763121   -6.8588188     1128.321  0.019390957  0.017791681         2419 
 4850000    0.4758614   -6.8719862    1127.9881  0.019381239  0.017786072         2432 
 4851000   0.47517725   -6.8631044    1128.5271  0.019386503  0.017780456         2479 
 4852000   0.47625409   -6.8639837    1127.0493  0.019357125  0.017774843         2490 
 4853000   0.47962722   -6.8684527    1128.7138   0.01938172  0.017769227         2441 
 4854000   0.48112245   -6.8567972    1129.1141  0.019384598  0.017763618         2504 
 4855000   0.47483238   -6.8626442    1129.3711  0.019385017   0.01775801         2465 
 4856000   0.47265326   -6.8673568    1127.5935   0.01935052  0.017752404         2421 
 4857000   0.47344985   -6.8754254    1124.5809  0.019294847  0.017746796         2504 
 4858000   0.47002551   -6.8722267    1128.0778   0.01935086  0.017741194         2493 
 4859000   0.47981122   -6.8558516    1126.9268  0.019327138  0.017735596         2448 
 4860000   0.47923842   -6.8556392    1126.8772  0.019322312  0.017730007         2453 
 4861000   0.46633379   -6.8660477    1128.8212  0.019351663  0.017724407         2439 
 4862000   0.47400987   -6.8728734    1127.4874  0.019324822  0.017718806         2529 
 4863000   0.47958926    -6.852711    1127.4897  0.019320888  0.017713214         2426 
 4864000   0.47373365    -6.873774    1127.9426  0.019324675  0.017707621         2542 
 4865000   0.47630277   -6.8584888    1129.2046  0.019342319  0.017702036         2433 
 4866000     0.473656   -6.8750239     1127.225  0.019304443  0.017696449         2478 
 4867000   0.48276963   -6.8578706    1129.0078  0.019331002  0.017690866         2486 
 4868000   0.47723394   -6.8657185    1127.2559   0.01929704  0.017685282         2453 
 4869000   0.46481997   -6.8779602    1127.1032  0.019290464    0.0176797         2465 
 4870000   0.47828527   -6.8605607    1126.8457  0.019282096  0.017674117         2476 
 4871000   0.47563237   -6.8736287    1126.5074  0.019272349  0.017668536         2538 
 4872000   0.46929356   -6.8710839    1126.7752  0.019272975  0.017662955         2489 
 4873000   0.47708975   -6.8713813    1128.9808  0.019306737  0.017657389         2474 
 4874000   0.47033056   -6.8607746    1127.9339  0.019284878   0.01765182         2423 
 4875000   0.46975185   -6.8752389    1126.9796  0.019264608  0.017646253         2495 
 4876000   0.46775096   -6.8730604    1128.3372  0.019283861  0.017640687         2540 
 4877000   0.46621543   -6.8730506    1126.7212  0.019252293  0.017635118         2483 
 4878000   0.47392134   -6.8648005    1128.1054  0.019271993  0.017629554         2519 
 4879000   0.47673236   -6.8656629    1126.5944  0.019242235  0.017623992         2492 
 4880000   0.47526491   -6.8798498     1128.455  0.019270065  0.017618433         2502 
 4881000   0.46737738   -6.8511707     1130.061  0.019293537   0.01761288         2483 
 4882000   0.47941833    -6.867744    1125.6309  0.019213965  0.017607334         2559 
 4883000   0.47428713   -6.8796061    1127.4294  0.019240722  0.017601777         2530 
 4884000   0.47675007   -6.8668139    1127.4157  0.019236549  0.017596228         2449 
 4885000   0.48096061   -6.8671935    1126.7377  0.019221046  0.017590677         2395 
 4886000   0.46489086   -6.8663451    1127.8096  0.019235393  0.017585133         2466 
 4887000   0.47559774   -6.8531289    1125.9441  0.019199648  0.017579589         2461 
 4888000   0.47142614   -6.8534006    1126.6222  0.019207279   0.01757405         2521 
 4889000   0.47197583   -6.8762877    1127.5931  0.019219901  0.017568509         2529 
 4890000   0.46603721    -6.869274    1127.9169  0.019221487  0.017562972         2467 
 4891000   0.47739555   -6.8682412    1127.7716  0.019215083  0.017557434         2565 
 4892000   0.47017639   -6.8722407    1125.2104  0.019167526    0.0175519         2543 
 4893000   0.46739316   -6.8621083    1124.7561   0.01915587  0.017546369         2491 
 4894000   0.46127946   -6.8615854    1126.2783  0.019177876   0.01754084         2476 
 4895000   0.46734177   -6.8879669    1125.1843  0.019155334  0.017535307         2529 
 4896000   0.47073438   -6.8665886    1126.6492  0.019176355  0.017529779         2522 
 4897000   0.46329972   -6.8762248    1128.3561  0.019201485  0.017524256         2466 
 4898000    0.4674631    -6.864037    1126.6392  0.019168355  0.017518739         2507 
 4899000   0.46503253   -6.8702599    1126.2037  0.019157034   0.01751322         2514 
 4900000   0.45811745   -6.8754812    1126.5252  0.019158591  0.017507699         2487 
 4901000   0.47452673   -6.8792465    1127.9855  0.019179513  0.017502175         2602 
 4902000   0.46595901   -6.8738388    1127.0729  0.019160087  0.017496656         2636 
 4903000    0.4680013   -6.8813185    1126.4199  0.019145079   0.01749114         2543 
 4904000   0.46151629   -6.8829712    1127.7064  0.019163037  0.017485637         2582 
 4905000   0.47691674   -6.8712519    1128.1514   0.01916669  0.017480135         2520 
 4906000   0.46664963   -6.8652784    1126.0606   0.01912727  0.017474632         2524 
 4907000   0.46710995    -6.875491    1127.1894  0.019142541  0.017469132         2546 
 4908000   0.45994895   -6.8904377    1127.3772   0.01914183  0.017463632         2543 
 4909000   0.47008636    -6.893984    1125.8511  0.019112024  0.017458131         2580 
 4910000   0.46285265   -6.8634476    1128.7263  0.019156929  0.017452635         2568 
 4911000   0.46016164   -6.8828208    1126.8881  0.019121836   0.01744714         2523 
 4912000   0.46476959   -6.8762051    1125.6225  0.019096473  0.017441648         2538 
 4913000   0.47552318   -6.8669573    1127.2005  0.019119352  0.017436153         2464 
 4914000   0.46234097   -6.8759027    1126.3575  0.019101165  0.017430669         2587 
 4915000   0.45766487   -6.8775932    1126.6847  0.019102827  0.017425185         2629 
 4916000   0.45980435   -6.8803054    1125.7314   0.01908278  0.017419699         2562 
 4917000   0.45821134   -6.8850273    1128.6916   0.01912907   0.01741422         2595 
 4918000   0.46929609   -6.8771368    1127.9505  0.019112622  0.017408741         2462 
 4919000   0.46342565   -6.8795774    1126.8827  0.019090647  0.017403264         2547 
 4920000   0.46279486   -6.8742173    1128.3818  0.019112158  0.017397781         2556 
 4921000   0.45657365   -6.8843455    1125.0993  0.019052688  0.017392298         2515 
 4922000   0.46576928   -6.8790884    1125.5114  0.019055793  0.017386817         2580 
 4923000   0.46554124    -6.877518    1125.5761  0.019053018  0.017381345         2495 
 4924000   0.47210823   -6.8849865    1126.9196  0.019071886  0.017375872         2519 
 4925000   0.46381746   -6.8844685    1126.6101  0.019062776  0.017370405         2578 
 4926000   0.46113585   -6.8898592    1125.8637   0.01904628  0.017364937         2570 
 4927000   0.46965544   -6.8982509    1124.9844  0.019027542  0.017359472         2509 
 4928000    0.4714964   -6.8742991    1125.3801  0.019030373  0.017354007         2504 
 4929000   0.46440823   -6.8844374    1124.7777  0.019016327  0.017348549         2565 
 4930000   0.47187278   -6.8902681    1124.4898  0.019007603  0.017343092         2515 
 4931000   0.46473698   -6.8832089    1127.3632  0.019052309   0.01733764         2526 
 4932000   0.45901435   -6.9051349    1126.3375  0.019031115  0.017332177         2505 
 4933000   0.45344514   -6.8812561     1126.483  0.019029715  0.017326721         2502 
 4934000   0.45217842   -6.8837778    1128.2063  0.019054963  0.017321273         2509 
 4935000   0.46148116   -6.8941483    1126.6808  0.019025343   0.01731582         2507 
 4936000   0.47395563   -6.8744072    1126.6482  0.019020938  0.017310374         2433 
 4937000    0.4607892   -6.8789068    1126.2026  0.019009564  0.017304928         2522 
 4938000   0.47140199   -6.8670602    1127.2703  0.019023732  0.017299486         2585 
 4939000   0.46327325   -6.8928689    1126.4576  0.019006169  0.017294042         2520 
 4940000   0.45925052   -6.9112503    1125.2194  0.018981434  0.017288599         2545 
 4941000   0.45803748   -6.8776017    1124.3894  0.018963594  0.017283157         2584 
 4942000   0.46216598   -6.8699596    1125.4491  0.018977626  0.017277719         2541 
 4943000   0.45980254   -6.8804635    1126.2394  0.018987109  0.017272292         2475 
 4944000   0.45932296   -6.8884778    1125.4764  0.018970408  0.017266861         2555 
 4945000   0.45902961   -6.8894808    1124.7972  0.018955126  0.017261428         2528 
 4946000   0.47239453   -6.8894961    1125.6909  0.018966352  0.017255998         2613 
 4947000   0.46618955   -6.8875757    1125.6663  0.018962104  0.017250567         2522 
 4948000   0.45084873   -6.8794874    1126.2353  0.018967853  0.017245143         2592 
 4949000   0.45704233   -6.8816837    1126.0123  0.018960266  0.017239714         2458 
 4950000   0.46326925   -6.9031157    1127.7529   0.01898574  0.017234297         2519 
 4951000   0.45308347    -6.888075      1125.88   0.01895038  0.017228876         2565 
 4952000   0.45196809   -6.8834235    1124.9904  0.018931584  0.017223459         2646 
 4953000   0.46159104   -6.8804879    1127.4101  0.018968472   0.01721804         2513 
 4954000   0.45683589   -6.8842727    1126.5369  0.018949954  0.017212624         2528 
 4955000   0.46222041   -6.8773969     1124.812  0.018917121  0.017207208         2585 
 4956000   0.46743554   -6.8843369    1128.1746  0.018969845    0.0172018         2371 
 4957000   0.46820778   -6.8918809    1127.8313  0.018960246  0.017196391         2512 
 4958000   0.45226879   -6.8739452    1125.7019  0.018920631  0.017190986         2558 
 4959000   0.46743098   -6.8854791    1124.1543   0.01889081  0.017185582         2528 
 4960000   0.46091295    -6.895555    1124.8932  0.018899415  0.017180177         2566 
 4961000   0.46242563   -6.8868494    1123.3864  0.018870296  0.017174775         2515 
 4962000   0.45595569   -6.8850943    1126.0394  0.018911047  0.017169378         2513 
 4963000   0.45781472   -6.8830608    1125.3167  0.018895103  0.017163981         2507 
 4964000   0.45708534   -6.8937045    1127.2903  0.018924427  0.017158592         2558 
 4965000   0.44770232   -6.8860478    1124.3363  0.018871036    0.0171532         2518 
 4966000   0.46106832   -6.8801145    1124.6793  0.018872991  0.017147806         2491 
 4967000   0.45789655   -6.8995787     1126.612  0.018901617  0.017142416         2555 
 4968000   0.45505932   -6.8894306    1124.1424  0.018856387  0.017137031         2565 
 4969000   0.46678686   -6.8960421    1128.2289  0.018921126  0.017131649         2475 
 4970000   0.45360391   -6.8841371    1124.5759  0.018856069   0.01712627         2575 
 4971000   0.46161253   -6.8976615    1126.6357  0.018886805  0.017120891         2567 
 4972000   0.45885639    -6.882548    1125.7384  0.018867967  0.017115514         2556 
 4973000   0.45342998   -6.8896942    1126.8802  0.018883307  0.017110138         2512 
 4974000   0.45078708   -6.8962476     1122.926  0.018813262  0.017104767         2570 
 4975000   0.45259592   -6.9000474    1125.9261  0.018859734  0.017099399         2521 
 4976000   0.45903026   -6.8912658    1125.0231  0.018840821  0.017094028         2485 
 4977000   0.45827131   -6.9118012    1124.0894  0.018821402  0.017088665         2571 
 4978000   0.46474723   -6.9032424    1124.4314  0.018823347  0.017083298         2498 
 4979000   0.44999885   -6.8905132    1126.9832  0.018862275  0.017077933         2542 
 4980000    0.4516947    -6.870814     1124.726  0.018820716   0.01707257         2496 
 4981000    0.4539651   -6.8939916    1124.0626  0.018805839  0.017067215         2583 
 4982000   0.46580681    -6.879386    1126.3865  0.018840936   0.01706186         2529 
 4983000   0.44940316   -6.9047246    1124.1755  0.018800179  0.017056505         2566 
 4984000   0.45047194   -6.8941225    1125.4951  0.018818471  0.017051148         2528 
 4985000   0.46031765   -6.9046876    1124.9247  0.018805161  0.017045795         2629 
 4986000   0.46219084   -6.9040123     1124.961  0.018801996  0.017040444         2583 
 4987000   0.45321051   -6.9082229    1125.8637  0.018813309  0.017035093         2645 
 4988000   0.45547391   -6.9143969    1125.0557  0.018796038  0.017029747         2585 
 4989000   0.44806585   -6.8939193    1125.0973  0.018792966  0.017024403         2558 
 4990000   0.45513492   -6.9146972    1124.3104  0.018776059  0.017019057         2554 
 4991000   0.45684916   -6.8951253     1126.369  0.018806669  0.017013718         2519 
 4992000   0.46014684   -6.9043671    1124.8956  0.018778306  0.017008383         2511 
 4993000   0.44887981   -6.9078011    1126.0599  0.018793977  0.017003047         2531 
 4994000   0.44818375   -6.8991473    1125.4359  0.018779801  0.016997715         2555 
 4995000   0.45453772   -6.8745891    1124.7503  0.018764603  0.016992387         2648 
 4996000   0.45298308    -6.898803    1125.4009  0.018771699  0.016987056         2541 
 4997000   0.44289877   -6.9059397    1124.6761  0.018755854  0.016981727         2580 
 4998000   0.46477113   -6.9000169     1124.454  0.018748399    0.0169764         2481 
 4999000    0.4493124   -6.8933429    1123.3594  0.018726402  0.016971078         2443 
 5000000   0.45075019   -6.8853523    1125.2805  0.018754676  0.016965755         2519 
 5001000   0.44920232   -6.8847864     1124.457  0.018737202  0.016960437         2519 
 5002000   0.45562752   -6.8900356    1124.3446  0.018731584  0.016955117         2443 
 5003000   0.44181421   -6.8888887    1125.0155  0.018739014  0.016949801         2575 
 5004000   0.43970934   -6.8974897    1124.0262  0.018718794  0.016944485         2548 
 5005000   0.44816687   -6.8992934    1123.7551  0.018710542  0.016939171         2548 
 5006000   0.45243327   -6.8986551    1127.1129    0.0187627  0.016933861         2588 
 5007000   0.44703563   -6.8892006    1125.8567  0.018738046  0.016928551         2556 
 5008000   0.44381622   -6.8952438    1123.0047  0.018686845  0.016923239         2577 
 5009000   0.45566985   -6.9085539     1125.233  0.018720186  0.016917933         2571 
 5010000   0.43855726   -6.8960927    1123.1564  0.018681909  0.016912631         2529 
 5011000   0.45145664   -6.8904795    1124.2519  0.018696399  0.016907331         2526 
 5012000   0.45017938   -6.8884878    1127.5509  0.018747521   0.01690203         2583 
Loop time of 12954.3 on 48 procs for 5000000 steps with 4000 atoms

Performance: 66695.766 tau/day, 385.971 timesteps/s
99.4% CPU use with 48 MPI tasks x no OpenMP threads

MPI task timing breakdown:
Section |  min time  |  avg time  |  max time  |%varavg| %total
---------------------------------------------------------------
Pair    | 960.45     | 1007.8     | 1071.4     |  84.0 |  7.78
Neigh   | 89.716     | 92.547     | 95.649     |  15.0 |  0.71
Comm    | 823.14     | 893.7      | 949.05     |  97.4 |  6.90
Output  | 38.868     | 38.875     | 38.963     |   0.3 |  0.30
Modify  | 10776      | 10802      | 10831      |  12.1 | 83.39
Other   |            | 119.3      |            |       |  0.92

Nlocal:        83.3333 ave          90 max          78 min
Histogram: 5 4 3 4 9 15 4 0 3 1
Nghost:        2395.35 ave        2413 max        2381 min
Histogram: 4 3 5 9 8 8 2 3 5 1
Neighs:        16554.5 ave       19280 max       13994 min
Histogram: 2 3 9 5 8 5 4 7 4 1
FullNghs:      33109.8 ave       35667 max       30688 min
Histogram: 2 5 4 4 9 6 12 2 2 2

Total # of neighbors = 1589272
Ave neighs/atom = 397.31800
Neighbor list builds = 268054
Dangerous builds = 0

#clear
#
#next RN
#
#jump SELF
Total wall time: 3:35:57
