
units lj                  # Use reduced LJ style units
atom_style atomic         # Uncharged point particles
atom_modify map hash      # Needed for indexing of clusters etc
                          # Used to be able to find where atoms are in relation to each other.

lattice fcc 1.0 spacing 1 1 1
Lattice spacing in x,y,z = 1.5874011 1.5874011 1.5874011
region box block 0 10 0 10 0 10 units lattice
create_box 2 box
Created orthogonal box = (0.0000000 0.0000000 0.0000000) to (15.874011 15.874011 15.874011)
  3 by 4 by 4 MPI processor grid
create_atoms 1 box
Created 4000 atoms
  using lattice units in orthogonal box = (0.0000000 0.0000000 0.0000000) to (15.874011 15.874011 15.874011)
  create_atoms CPU = 0.002 seconds
set type 1 type/fraction 2 0.57 78393
Setting atom values ...
  2292 settings made for type/fraction
mass 1 1.0
mass 2 1.0
pair_style lj/cut  3.5
pair_modify tail  yes
pair_coeff 1  1  1.0  1.0   # Intearaction between 1 and 1 set with epsilon = 1 and sigma = 1
pair_coeff 1  2  1.5  0.8
pair_coeff 2  2  0.5  0.88

write_data data.0
System init for write_data ...
Neighbor list info ...
  update every 1 steps, delay 10 steps, check yes
  max neighbors/atom: 2000, page size: 100000
  master list distance cutoff = 3.8
  ghost atom cutoff = 3.8
  binsize = 1.9, bins = 9 9 9
  1 neighbor lists, perpetual/occasional/extra = 1 0 0
  (1) pair lj/cut, perpetual
      attributes: half, newton on
      pair build: half/bin/atomonly/newton
      stencil: half/bin/3d
      bin: standard
WARNING: Not all mixed pair coeffs generated from mixing. Use write_data with 'pair ij' option to store all pair coeffs. (../write_data.cpp:312)


#############################
#   M E L T   S Y S T E M   #
#############################

velocity all create 2.4 6583654 mom yes dist gaussian # Assign velocities
                                                    # Temperature 2.4, random number seed, zero linear momentum
                                                                                # Gaussian distribution

timestep 0.002   # simulation timestep
thermo 1000       # output thermodynamic data every 1000 steps bf 100

# Define a fix  in this case with index 1 applied to all
# particles in the simulation. This fix is for simulations
# in the anisotropic NPT ensemble. Note that we use the MTK
# correction.
fix 1 all npt temp 2.4 2.4 0.1 iso 5.68 5.68 0.5 mtk yes tchain 5 pchain 5 # Use NPT ensemble
                                                                         # Set temperature and pressure and damping
                                                                         # Numbers of thermostats in chain and in barostat
run 10000          # run for 10000 steps
Per MPI rank memory allocation (min/avg/max) = 3.642 | 3.644 | 3.648 Mbytes
Step Temp E_pair E_mol TotEng Press Volume 
       0          2.4   -4.8904957            0   -1.2913957   -4.1230707         4000 
    1000    2.4363009   -4.5937699            0  -0.94023212    5.6576848    3639.9997 
    2000    2.3817467   -4.6315293            0   -1.0598025    5.6804639    3623.9953 
    3000    2.4012134   -4.5842186            0  -0.98329903    5.9773842    3610.6811 
    4000     2.433067   -4.6462228            0   -0.9975346    5.4214536    3633.8038 
    5000    2.3832086   -4.6278645            0   -1.0539452    6.0377346    3601.6401 
    6000    2.3790459    -4.667469            0   -1.0997923     5.652777    3608.2502 
    7000    2.3907338   -4.5709347            0   -0.9857305    5.6482642    3645.7268 
    8000    2.3938122   -4.6584405            0     -1.06862    5.6441827    3610.9312 
    9000    2.4115468   -4.6012803            0  -0.98486453    5.9874135    3607.6825 
   10000    2.3664495   -4.5684822            0   -1.0196953    5.4315339    3670.7543 
Loop time of 2.66618 on 48 procs for 10000 steps with 4000 atoms

Performance: 648119.354 tau/day, 3750.691 timesteps/s
99.7% CPU use with 48 MPI tasks x no OpenMP threads

MPI task timing breakdown:
Section |  min time  |  avg time  |  max time  |%varavg| %total
---------------------------------------------------------------
Pair    | 1.194      | 1.269      | 1.4529     |   3.9 | 47.60
Neigh   | 0.21531    | 0.22429    | 0.25252    |   1.5 |  8.41
Comm    | 0.72002    | 0.90962    | 1.0301     |   6.0 | 34.12
Output  | 0.00023928 | 0.00024438 | 0.00034489 |   0.0 |  0.01
Modify  | 0.2017     | 0.24764    | 0.30714    |   5.9 |  9.29
Other   |            | 0.01535    |            |       |  0.58

Nlocal:        83.3333 ave          93 max          75 min
Histogram: 4 4 8 8 4 1 9 4 3 3
Nghost:        1735.85 ave        1772 max        1699 min
Histogram: 3 1 4 7 5 14 6 3 3 2
Neighs:        10407.7 ave       12066 max        8961 min
Histogram: 3 4 8 5 8 3 10 2 2 3

Total # of neighbors = 499570
Ave neighs/atom = 124.89250
Neighbor list builds = 906
Dangerous builds = 192

# Equilibrate just above the melting temperature to avoid step fn in T

fix 1 all npt temp 1.25 1.25 0.1 iso 5.68 5.68 0.5 mtk yes tchain 5 pchain 5
run 2000
Per MPI rank memory allocation (min/avg/max) = 3.644 | 3.646 | 3.650 Mbytes
Step Temp E_pair E_mol TotEng Press Volume 
   10000    2.3664495   -4.5684822            0   -1.0196953    5.4315339    3670.7543 
   11000    1.2349444   -6.6885563            0   -4.8366027    5.6880735    2798.7336 
   12000    1.2457732   -6.7859032            0   -4.9177105    5.6670816    2775.4212 
Loop time of 0.652147 on 48 procs for 2000 steps with 4000 atoms

Performance: 529941.496 tau/day, 3066.791 timesteps/s
99.7% CPU use with 48 MPI tasks x no OpenMP threads

MPI task timing breakdown:
Section |  min time  |  avg time  |  max time  |%varavg| %total
---------------------------------------------------------------
Pair    | 0.28116    | 0.31838    | 0.34074    |   2.3 | 48.82
Neigh   | 0.040787   | 0.043504   | 0.046377   |   0.6 |  6.67
Comm    | 0.21548    | 0.24159    | 0.28314    |   3.0 | 37.04
Output  | 5.0448e-05 | 5.2357e-05 | 6.9486e-05 |   0.0 |  0.01
Modify  | 0.040584   | 0.043861   | 0.046674   |   0.8 |  6.73
Other   |            | 0.004764   |            |       |  0.73

Nlocal:        83.3333 ave          91 max          74 min
Histogram: 1 3 3 2 11 12 3 6 4 3
Nghost:        2104.77 ave        2124 max        2084 min
Histogram: 4 1 4 7 4 7 7 5 8 1
Neighs:        13754.8 ave       15478 max       11633 min
Histogram: 1 2 3 6 7 8 8 7 4 2

Total # of neighbors = 660229
Ave neighs/atom = 165.05725
Neighbor list builds = 144
Dangerous builds = 14

#############################
# L I N E A R  Q U E N C H  #
#############################

# Define solid atoms. This closely follows ten Wolde  Ruiz-Montero and Frenkel  Faraday Discuss  1996  104  93-110
# Compute components of the per-atom q6 vector
compute q6 all orientorder/atom degrees 1 6 components 6 nnn NULL cutoff 1.3 # compute the Q6 parameter.
                                                                             # Use all neighbours within 1.3 unit cell.

# get number of connections
compute coord_number all coord/atom orientorder q6 0.5

# An atom is solid if it has 8 or more connections (of a possible 14)
variable is_solid atom c_coord_number>=8
group solid dynamic all var is_solid    # Must be dynamic to update
dynamic group solid defined

# do clustering
compute cluster solid cluster/atom 1.3 # Create a cluster where all atoms within are solid and max 1.3 units from another member

# define chunks one chunk per cluster
compute clus_chunks solid chunk/atom c_cluster nchunk every compress yes  # Says which atoms are in which chunk

# count the size of each chunk
compute size_chunks solid property/chunk clus_chunks count


# Find the maximum entry in the vector of chunk sizes
variable max_n equal max(c_size_chunks)


# Thermo style which includes this variable
# thermo_style custom step temp pe vol v_max_n

thermo ${N}  # Print the thermo information every 100 steps
thermo 1000  

# Reset the npt fix at a lower temperature (below freezing)
fix 1  all npt temp  ${temp} ${temp}  0.1  iso  5.68  5.68  0.5  mtk yes tchain  5  pchain  5
fix 1  all npt temp  0.45 ${temp}  0.1  iso  5.68  5.68  0.5  mtk yes tchain  5  pchain  5
fix 1  all npt temp  0.45 0.45  0.1  iso  5.68  5.68  0.5  mtk yes tchain  5  pchain  5

dump dmp2 all dcd ${N} traj.dcd
dump dmp2 all dcd 1000 traj.dcd


compute msd all msd com yes
variable twopoint equal c_msd[4]/6/(step*dt+1.0e-6)
fix 9 all vector 10 c_msd[4]
variable fit equal slope(f_9)/6/(10*dt)
thermo_style custom step temp pe c_msd[4] v_twopoint v_fit v_max_n

fix 1 all npt temp 1.25 ${temp} 0.1 iso 5.68 5.68 0.5 mtk yes tchain 5 pchain 5
fix 1 all npt temp 1.25 0.45 0.1 iso 5.68 5.68 0.5 mtk yes tchain 5 pchain 5
run 500000 # 5000000  # Run for this many steps
Neighbor list info ...
  update every 1 steps, delay 10 steps, check yes
  max neighbors/atom: 2000, page size: 100000
  master list distance cutoff = 3.8
  ghost atom cutoff = 3.8
  binsize = 1.9, bins = 8 8 8
  4 neighbor lists, perpetual/occasional/extra = 1 3 0
  (1) pair lj/cut, perpetual
      attributes: half, newton on
      pair build: half/bin/atomonly/newton
      stencil: half/bin/3d
      bin: standard
  (2) compute orientorder/atom, occasional
      attributes: full, newton on
      pair build: full/bin/atomonly
      stencil: full/bin/3d
      bin: standard
  (3) compute coord/atom, occasional
      attributes: full, newton on
      pair build: full/bin/atomonly
      stencil: full/bin/3d
      bin: standard
  (4) compute cluster/atom, occasional
      attributes: full, newton on
      pair build: full/bin/atomonly
      stencil: full/bin/3d
      bin: standard
Per MPI rank memory allocation (min/avg/max) = 9.845 | 9.850 | 9.854 Mbytes
Step Temp PotEng c_msd[4] v_twopoint v_fit v_max_n 
   12000    1.2457732   -6.7859032 1.020786e-30 7.0887915e-33 8.3333333e+20            2 
   13000    1.2474093   -6.8076056   0.45549044 0.0029198104  0.037113628            2 
   14000    1.2807606   -6.8571009   0.86693416 0.0051603222  0.035137819            1 
   15000    1.2707614    -6.853269    1.3002054 0.0072233632  0.035185705            3 
   16000    1.2631129   -6.8587991    1.7343156 0.0090328936  0.035550698            3 
   17000    1.2436224   -6.8297936     2.180316  0.010687823  0.035702825            2 
   18000    1.2414508   -6.8890089    2.5922201  0.012001019  0.035759889            3 
   19000    1.2671013   -6.8700646    2.9980149  0.013149188  0.035581206            4 
   20000    1.2505786   -6.8802784     3.342265  0.013926104  0.035154873            2 
   21000    1.2298921   -6.8792982    3.7169854  0.014749942  0.034574016            2 
   22000     1.230189   -6.8489809     4.146014  0.015704598  0.034330987            2 
   23000    1.2509591   -6.8671485    4.5957786  0.016651371  0.034306246            4 
   24000     1.241693   -6.9068224    4.9067271  0.017037247  0.034170742            2 
   25000    1.2164223   -6.8750794     5.285005  0.017616683  0.033920047            2 
   26000    1.2324738   -6.8652376    5.6810045  0.018208347  0.033667411            3 
   27000    1.2341803   -6.9377013    6.0208331  0.018582818  0.033447389            2 
   28000    1.2529363   -6.9236446    6.4217824  0.019112447  0.033224437            4 
   29000    1.2156543   -6.9045056    6.7507135  0.019398602  0.033008363            5 
   30000    1.1960389   -6.8767915    7.1282242  0.019800622  0.032822701            1 
   31000    1.2195452   -6.8880283    7.5293449  0.020240174  0.032670911            3 
   32000    1.1976722   -6.8747875    7.9332859  0.020659598  0.032536538            6 
   33000    1.2412654   -6.9159801    8.2960676  0.020949665    0.0324467            4 
   34000    1.2113423    -6.908402    8.5915735  0.021057778  0.032308062            6 
   35000    1.2035649   -6.9172424    8.9508535  0.021311556  0.032185131            3 
   36000    1.2048692   -6.8852651    9.4033824  0.021767089  0.032066108            3 
   37000    1.1951246   -6.9148161    9.7831277  0.022034071  0.032021022            1 
   38000    1.2122625   -6.9311105    10.105751  0.022161734   0.03195654            3 
   39000    1.2278632   -6.9126504    10.590736  0.022629778  0.031951722            7 
   40000    1.2338772   -6.9063287    10.979014  0.022872946  0.031950157            4 
   41000    1.2173151   -6.9338404    11.305472  0.022978602  0.031932194            2 
   42000    1.2211668   -6.9523516    11.704213  0.023222645  0.031912156            1 
   43000    1.2215503   -6.9308902    12.240758    0.0237224  0.031938105            2 
   44000    1.1786464   -6.9657714    12.688147  0.024030582  0.032009896            3 
   45000    1.2157157   -6.9324341    13.113792  0.024284801  0.032096689            2 
   46000    1.1938363   -6.9439453    13.524028   0.02450005  0.032179612            2 
   47000     1.182852   -6.9986774    13.710691  0.024309735  0.032228446            2 
   48000     1.206393   -6.9567172    14.156509  0.024577273   0.03222336            2 
   49000    1.1924897   -6.9941862    14.360397  0.024422444  0.032198203            3 
   50000     1.210367   -6.9564764    14.598675  0.024331124  0.032125693            2 
   51000    1.1825507    -7.072631     14.81468  0.024206993  0.032011728            2 
   52000    1.1598571   -7.0106404    15.334082   0.02457385  0.031911089            4 
   53000    1.2071769   -6.9917166    15.785336   0.02481971  0.031851362            3 
   54000    1.1845417   -6.9992249    16.225413  0.025039217  0.031822456            5 
   55000    1.1905395   -7.0175723       16.504   0.02500606  0.031779551            5 
   56000    1.1817733   -7.0541303    16.780638  0.024971188  0.031732665            5 
   57000    1.1782003   -7.0954121    16.859985  0.024649101  0.031636115            3 
   58000    1.1813527    -7.029751     17.21745  0.024737715   0.03151867            5 
   59000    1.1776466   -6.9716422    17.635461  0.024908843  0.031407043            5 
   60000    1.1514021    -7.045675    18.039978  0.025055525  0.031319291            3 
   61000    1.2000436   -7.0562887    18.353084  0.025072518  0.031254576            3 
   62000     1.163709   -7.0440326    18.585843  0.024980972  0.031171621            6 
   63000     1.184537   -7.0097087    19.086913   0.02524724   0.03108498            2 
   64000    1.1839893   -7.0808896    19.326936  0.025165281  0.031014486            5 
   65000    1.1727919   -7.0740324     19.51849  0.025023705   0.03092309            4 
   66000     1.170019   -7.0542817    19.812202  0.025015406  0.030825594            2 
   67000    1.1850546   -7.0505436    20.112441  0.025015474  0.030718156            3 
   68000    1.1727716   -7.0654019    20.500253  0.025122858  0.030614345            4 
   69000    1.1634823    -7.083072    20.754744  0.025066115  0.030509652            4 
   70000    1.1491146   -7.1317229    21.000971  0.025001156  0.030401599            3 
   71000    1.1362028   -7.0772091    21.366833  0.025078442  0.030302659            1 
   72000    1.1463261   -7.1065254    21.582435  0.024979671  0.030206725            1 
   73000    1.1698591   -7.0695792    21.980852  0.025092296   0.03011137            1 
   74000    1.1511224   -7.0594319    22.237183  0.025041873  0.030013222            2 
   75000    1.1490274   -7.0984467    22.501976  0.025002195  0.029919498            5 
   76000    1.1512961   -7.0998998    22.765323  0.024961977  0.029825554            6 
   77000    1.1425704   -7.0922136    23.108201  0.025008876   0.02972209            4 
   78000    1.1349185   -7.1207133    23.339832  0.024935718   0.02962488            2 
   79000    1.1534195   -7.0745196    23.665781  0.024963904  0.029527716            4 
   80000    1.1585647   -7.1145063    24.113291  0.025118011  0.029440884            2 
   81000    1.1494132    -7.096426    24.353445  0.025054984  0.029357329            4 
   82000    1.1251407    -7.104911    24.537673   0.02493666  0.029269595            2 
   83000    1.1776466   -7.1408646     24.82412  0.024923815  0.029178504            2 
   84000    1.1435447   -7.1222842     25.17425  0.024974454  0.029096336            2 
   85000    1.1344168   -7.1393556    25.483846  0.024984163  0.029013832            3 
   86000    1.1399735   -7.1288434     25.68209  0.024885746  0.028931052            1 
   87000    1.1175449   -7.1561472    26.054474  0.024956393  0.028852254            4 
   88000    1.1090167   -7.1702961    26.277486  0.024883982  0.028774852            3 
   89000    1.1270258   -7.1490591    26.617639  0.024922882  0.028694547            1 
   90000    1.1632835    -7.125526    26.903501  0.024910649  0.028616741            3 
   91000    1.1213346   -7.1811886    27.016066  0.024739987  0.028532357            2 
   92000    1.1256928   -7.1781253    27.429525  0.024845584   0.02844955            8 
   93000    1.1341229   -7.1870015    27.414103  0.024564609  0.028360683            3 
   94000    1.1293769   -7.1675535    27.899297  0.024733419  0.028270741            1 
   95000    1.1280984   -7.1884959    28.114988   0.02466227  0.028186365            3 
   96000    1.1204922   -7.1861675    28.386736  0.024641264  0.028104081            2 
   97000    1.1163622     -7.21527    28.628181  0.024594657  0.028027038            2 
   98000      1.12094   -7.1992156    29.078012    0.0247262  0.027952153            2 
   99000    1.1344209   -7.2030353    29.258865  0.024628674  0.027874895            2 
  100000    1.1126119   -7.1969035    29.618613  0.024682177  0.027801575            3 
  101000    1.0895582    -7.187554    29.864865  0.024640977   0.02773256            8 
  102000    1.1243035   -7.2351953    29.919774  0.024444259  0.027659182            5 
  103000    1.1085835   -7.2275175     30.29848  0.024513333  0.027586091            2 
  104000    1.1169549   -7.1985634    30.526369  0.024460231  0.027514652            7 
  105000    1.0824151   -7.2495955    30.710283  0.024373241   0.02743809            2 
  106000    1.0607566   -7.2121616      30.9483  0.024330425  0.027360197            5 
  107000    1.1108085   -7.2486265    31.106369  0.024226144  0.027282697            6 
  108000     1.083338   -7.2425228    31.318668  0.024165639  0.027199087            3 
  109000    1.1155568   -7.2588403    31.487623  0.024073106  0.027114029            4 
  110000    1.0749585   -7.2854532    31.540296  0.023894164  0.027019838            3 
  111000    1.0978198   -7.2346234    31.676224  0.023780949  0.026924084            4 
  112000    1.0632704   -7.2577852    31.857309  0.023703355  0.026822082            2 
  113000     1.096686   -7.2151258    32.096625  0.023670077  0.026718071            3 
  114000    1.1103262   -7.2945528    32.123093  0.023481793  0.026616898            4 
  115000    1.0916618   -7.2716178    32.476518  0.023533708  0.026513911            2 
  116000    1.0735725   -7.2684623    32.743706  0.023522777  0.026414862            4 
  117000     1.076672    -7.229735    33.090699  0.023568873  0.026320125            5 
  118000    1.0489477   -7.2513298    33.167709  0.023423523    0.0262267            3 
  119000    1.0802016   -7.2903801    33.530267  0.023480579  0.026136635            3 
  120000    1.0721233   -7.2875057    33.549885  0.023298531   0.02604384            3 
  121000    1.0888662   -7.3237448    33.670036   0.02318873   0.02594717            6 
  122000     1.060782   -7.2831562    34.112953  0.023301198  0.025853381            2 
  123000    1.0610226   -7.3186309    34.264484   0.02321442  0.025763786            7 
  124000    1.0619974   -7.2903153    34.506584  0.023189909   0.02567834            4 
  125000    1.0481519   -7.3147823    34.597932  0.023065288  0.025594321            4 
  126000    1.0513262   -7.3580074    34.802604  0.023017595  0.025506986            5 
  127000    1.0724451   -7.3072855    35.062646  0.023006985     0.025422            5 
  128000    1.0674848   -7.3887093    35.105726  0.022855291    0.0253329            3 
  129000    1.0812749   -7.2923947    35.630325  0.023017006  0.025248114            5 
  130000    1.0738872   -7.3307169    35.843186  0.022976401  0.025168669            3 
  131000    1.0581405   -7.3633422    35.801588  0.022774547  0.025088191            5 
  132000    1.0752937   -7.3656067     35.96263  0.022703681  0.025003976            3 
  133000    1.0925103   -7.3575428    36.141004  0.022644739  0.024916536            4 
  134000    1.0506202   -7.3271603    36.422346  0.022650713  0.024830579            3 
  135000    1.0741344   -7.3624226    36.625717  0.022608467  0.024745214            2 
  136000    1.0600091   -7.3687633    36.734128  0.022508657  0.024658755            3 
  137000    1.0641504   -7.3824916    36.834436  0.022405375  0.024572826            4 
  138000    1.0501301   -7.3466411    37.030378  0.022361339  0.024487046            3 
  139000     1.039271   -7.4037918    37.059379  0.022217853   0.02439956            3 
  140000    1.0446626    -7.381266    37.302876  0.022204093  0.024312508            4 
  141000    1.0460754   -7.4001491    37.413681  0.022112105  0.024224778            4 
  142000    1.0481019    -7.388691    37.631097  0.022083977  0.024137379            3 
  143000    1.0358541   -7.3713636    37.832079  0.022046666  0.024051895            4 
  144000    1.0506001   -7.3541573    38.253632  0.022137519  0.023971143            4 
  145000    1.0167033   -7.3867199    38.250212   0.02198288  0.023890634            6 
  146000     1.052998   -7.4300043    38.424782  0.021931953  0.023809775            1 
  147000    1.0354418   -7.4420658    38.655826  0.021913733  0.023731121            3 
  148000    1.0269002   -7.4046489    38.855278  0.021877972  0.023652138            2 
  149000    1.0262562   -7.4115294    39.013085  0.021819399   0.02357352            7 
  150000    1.0248821   -7.4322659    39.352185  0.021862325  0.023498494            8 
  151000    1.0235544   -7.4082964    39.507324  0.021803159  0.023425327            4 
  152000    1.0209171   -7.4332085    39.535612  0.021675226  0.023349575            2 
  153000    1.0570029   -7.4321566    39.824252  0.021690769   0.02327403            5 
  154000    1.0116204   -7.4868182    39.888186  0.021584516  0.023198452            6 
  155000    1.0232723   -7.4491779    40.122671  0.021571328  0.023124887            7 
  156000    1.0068481   -7.4557408    40.317634  0.021537197  0.023052815            7 
  157000   0.97536352   -7.4409476    40.598135  0.021548904  0.022981099            4 
  158000    1.0188708   -7.4570624    40.764165  0.021500087  0.022909636           13 
  159000    1.0259562   -7.4717044    40.898342   0.02143519  0.022840507            4 
  160000    1.0110147   -7.4843833    41.043404  0.021376773  0.022772494            3 
  161000   0.99701792   -7.4680964    41.322723  0.021388573  0.022706206            2 
  162000    1.0412275   -7.4485479     41.51627  0.021356106  0.022639973            2 
  163000    1.0132466   -7.4768709    41.511221  0.021222505  0.022572288            4 
  164000    1.0028934   -7.4916964     41.79342  0.021236494  0.022506871            7 
  165000   0.97332754   -7.5094001    42.052192  0.021238481  0.022440964            5 
  166000   0.99775849   -7.5068041     42.16184  0.021165582   0.02237673            4 
  167000    1.0175984   -7.5065618    42.479449   0.02119733  0.022315412            5 
  168000    1.0068171   -7.5159888    42.704848   0.02118296  0.022253395            4 
  169000   0.98348868   -7.5093063    42.694173  0.021052354  0.022189743            5 
  170000   0.98053041    -7.514882    42.889336  0.021024184  0.022127187            3 
  171000   0.98138286   -7.5453288    42.961772  0.020936536  0.022065737            5 
  172000   0.97701557   -7.5579585    43.247557  0.020953274  0.022004248            4 
  173000   0.98134504   -7.5193314    43.418495  0.020914496  0.021941867            9 
  174000    1.0083405    -7.548046    43.463511  0.020815858  0.021879461            3 
  175000   0.97290588    -7.557217    43.592106  0.020758146  0.021816235            3 
  176000   0.96745744   -7.5706734    43.596544  0.020642303  0.021752248            4 
  177000    1.0128665   -7.5407755     43.81262  0.020627411  0.021689076            4 
  178000   0.98959446   -7.5192053    44.038049  0.020617064  0.021626405            3 
  179000   0.98832669   -7.5748659    44.000134  0.020484234   0.02156251            4 
  180000   0.99344405   -7.5782822    44.070738   0.02040312  0.021497063            4 
  181000   0.97882479   -7.5931083    44.132908  0.020319019  0.021430247            3 
  182000    0.9614268   -7.5831674    44.318585  0.020292392  0.021364331            7 
  183000   0.99777125   -7.5645839    44.372654  0.020206127  0.021299054            3 
  184000   0.97683898   -7.6077088    44.550533  0.020176872  0.021232201            5 
  185000   0.95394654   -7.5877965    44.712139  0.020140603  0.021166303            2 
  186000   0.97119714   -7.5703964    44.877745  0.020106516  0.021101839            3 
  187000   0.95302758   -7.5597164    44.959008  0.020035208  0.021038187            4 
  188000   0.95945662   -7.6022423    45.132766  0.020005659  0.020974536            3 
  189000   0.98767816   -7.6622928    45.066935  0.019870782  0.020909593            2 
  190000   0.96546314   -7.6280208    45.262173   0.01985183  0.020844197            5 
  191000   0.95263958   -7.6107654    45.339681  0.019781711  0.020778749            4 
  192000   0.95748585   -7.6551356    45.412615  0.019710336  0.020713045            6 
  193000   0.95054834    -7.601945    45.611347  0.019694018  0.020647792            4 
  194000   0.94901754   -7.6267216    45.738464  0.019647106  0.020582712            9 
  195000   0.95805689   -7.6423503    45.740426  0.019547191  0.020517444            5 
  196000   0.96977103   -7.6382232    45.993368  0.019555003  0.020452197            7 
  197000   0.95244936     -7.70364    45.704866    0.0193337  0.020385858           15 
  198000   0.96137544   -7.6302803     46.01356  0.019365977  0.020318389            9 
  199000   0.95751009   -7.6414425    45.978862   0.01925413  0.020250227            4 
  200000   0.94925814   -7.6302868    46.300264  0.019291776   0.02018307            9 
  201000    0.9627275   -7.6859055    46.506891  0.019281464  0.020117169           17 
  202000   0.93702106   -7.6968166    46.420204  0.019150249  0.020050697            7 
  203000   0.94304984   -7.6752045    46.610438  0.019134006  0.019984379            7 
  204000   0.94562179    -7.655208    46.452272  0.018975601  0.019917653            6 
  205000   0.94515046   -7.7289139    46.682137  0.018976479  0.019851293            6 
  206000   0.95821191   -7.6695322    46.808472  0.018935466  0.019784473            9 
  207000   0.93330519   -7.6899695    46.712789   0.01880547  0.019717469            4 
  208000   0.93192992   -7.6922562    46.894541  0.018787877  0.019649899           15 
  209000   0.94425468   -7.7392298    47.025442  0.018750176  0.019583212            9 
  210000   0.92588192   -7.7277406    47.118239  0.018697714  0.019517304            4 
  211000    0.9344838   -7.7255449    47.297071  0.018679728  0.019452684            1 
  212000   0.93615789   -7.7097035     47.26379  0.018578534  0.019388245            7 
  213000   0.91906679   -7.7381664    47.434048  0.018557922  0.019323941            4 
  214000   0.91762069   -7.7158708    47.536372  0.018511048  0.019259122            4 
  215000   0.91342065   -7.7427086    47.453164  0.018392699  0.019193728            7 
  216000   0.93837152   -7.7340451    47.593642  0.018361745  0.019128684            5 
  217000   0.90794369   -7.7129159    47.887401  0.018389939  0.019065037            7 
  218000   0.91933534   -7.7022888    47.877424  0.018301768  0.019000888            3 
  219000   0.91611964   -7.7348298    47.957301  0.018248592  0.018937285            7 
  220000   0.93282616   -7.7330901    48.106009  0.018221973  0.018873477            8 
  221000   0.93143368   -7.7439931    48.061728  0.018122824  0.018809903           13 
  222000   0.93501075   -7.7922021    48.134075  0.018068346   0.01874604           13 
  223000    0.9196341   -7.8012517    48.234671  0.018024914  0.018682171            4 
  224000   0.89808058   -7.7867291    48.406547  0.018008388  0.018618459            8 
  225000   0.88356122   -7.7833407    48.340182  0.017903771  0.018554639            9 
  226000   0.88757157   -7.7852834    48.207401   0.01777559  0.018490617            7 
  227000   0.91836996   -7.8352174     48.32095  0.017738969  0.018426046            9 
  228000    0.9046116   -7.7777821    48.554262  0.017746441  0.018362319            3 
  229000   0.91844438   -7.8199067    48.644801  0.017701893  0.018299053           11 
  230000   0.92355655   -7.8201047    48.532657  0.017584296  0.018235638            7 
  231000   0.92888208    -7.795347     48.86639  0.017628568   0.01817297            3 
  232000   0.90908899   -7.8081218    48.968502  0.017589261   0.01811047            7 
  233000   0.89253734    -7.835922    48.953205  0.017508299  0.018048137            5 
  234000    0.8901519   -7.8072572    48.990125  0.017446626  0.017986675            5 
  235000   0.89546812    -7.806779    49.005953  0.017377997  0.017924248            7 
  236000   0.88778593   -7.8070334    49.158461  0.017358214   0.01786165            3 
  237000   0.89254168   -7.8215674    48.959543  0.017215029  0.017798881            4 
  238000   0.89269496   -7.8111728    48.998829  0.017156453  0.017735709            5 
  239000   0.87527731   -7.7855562    49.209522  0.017158132  0.017673087           11 
  240000   0.88933425   -7.8343709    49.114257  0.017053561  0.017610295            6 
  241000   0.88305153   -7.8598429    49.147132  0.016994167  0.017547644           16 
  242000   0.87678524   -7.8376714    49.267713  0.016965466  0.017484644           11 
  243000    0.8620307   -7.8873991    49.164778  0.016860349  0.017421418            7 
  244000   0.89255881    -7.859712    49.353086  0.016855562  0.017358187            7 
  245000   0.86413023   -7.8749327    49.272303  0.016759287  0.017294482            6 
  246000   0.85456061   -7.8987616    49.365867  0.016722855  0.017230971            7 
  247000   0.86445554    -7.905041    49.414764  0.016671648  0.017167858            7 
  248000   0.87732907   -7.8873356    49.530264  0.016643234  0.017105185           14 
  249000   0.87128529   -7.9137813    49.449004  0.016549198  0.017042418            6 
  250000   0.85304792   -7.9648255    49.345445  0.016448482  0.016979727            6 
  251000   0.86944146   -7.9421094    49.544148   0.01644892  0.016917322           19 
  252000   0.87812443   -7.9394217    49.610204  0.016405491  0.016854915           14 
  253000    0.8457824   -7.9377526    49.689354  0.016366718   0.01679283           10 
  254000   0.87708115   -7.9135546    49.743214  0.016319952  0.016731437           12 
  255000   0.86471784   -7.9195989    49.797184  0.016273589  0.016670691            8 
  256000   0.86031303   -7.9259275    49.956258  0.016261803  0.016609627           11 
  257000   0.86301349   -7.9649397     49.79101  0.016144945  0.016549352           12 
  258000   0.85752371   -7.9398395    50.102675  0.016183035  0.016488727            9 
  259000   0.84667103   -7.9802028    49.926963  0.016064016    0.0164282           13 
  260000   0.85385711   -7.9679876    49.876444   0.01598604  0.016367035            7 
  261000   0.86744622   -7.9917626    49.871079  0.015923078  0.016305948           22 
  262000   0.85131583   -8.0014122    49.988532   0.01589966  0.016244642            4 
  263000   0.83624815    -7.996175    49.959216  0.015829916   0.01618381           11 
  264000   0.85270443   -8.0217181    49.919516  0.015757423  0.016122646           11 
  265000   0.84482159    -8.041422    50.055171   0.01574062  0.016061654           17 
  266000   0.85475815   -8.0150527    50.291082  0.015755351  0.016001257           14 
  267000   0.86268467   -8.0289041    50.184015  0.015662926  0.015941291           21 
  268000   0.83917662   -8.0315805     50.17331  0.015601154  0.015881341           18 
  269000   0.83799762   -8.0310504    50.268589  0.015572673  0.015821645           27 
  270000   0.84868592   -8.0321798    50.304134  0.015525967    0.0157625           11 
  271000   0.84343423   -8.0345741    50.319281  0.015473334  0.015703496           14 
  272000   0.82331197   -7.9932119    50.432396  0.015451102  0.015644625            7 
  273000   0.85029943   -8.0433722    50.375522  0.015377144  0.015585947            7 
  274000   0.82911157   -8.0428025    50.478287  0.015352277  0.015527473            8 
  275000   0.82264543   -8.0332459    50.462143  0.015291558  0.015469715            7 
  276000   0.82123206   -8.0678966    50.503955  0.015248779  0.015411773           16 
  277000   0.83112407   -8.0378747    50.637084   0.01523378  0.015354229            9 
  278000   0.82728503   -8.0566987    50.508039  0.015140299  0.015296539           13 
  279000    0.8052541   -8.0333056    50.525385  0.015091214  0.015239112           10 
  280000   0.82775546   -8.0686141    50.440414  0.015012028  0.015182061           13 
  281000   0.82661087   -8.0612857    50.536949  0.014987233  0.015125043            9 
  282000   0.81768395   -8.0407777    50.784535   0.01500725  0.015068578           12 
  283000   0.81416831   -8.0551294    50.661134  0.014917884  0.015012298           15 
  284000    0.8311993   -8.0724806    50.675127  0.014869462  0.014956334           14 
  285000   0.81626341   -8.0658832    50.593169  0.014793324  0.014900667            8 
  286000   0.82283902   -8.0858451    50.741798  0.014784906  0.014844963           11 
  287000   0.79725923   -8.0612802    50.733518  0.014730987  0.014789204           23 
  288000   0.80717433   -8.1151479    50.712599  0.014673784  0.014733625           10 
  289000   0.81619255   -8.0861552    50.699765  0.014619309  0.014677903           12 
  290000   0.81017396   -8.1250699    50.754001  0.014584483  0.014622464           11 
  291000   0.79823798   -8.0919154    50.764096  0.014537255  0.014566883           14 
  292000    0.8024741   -8.0823601    50.758745  0.014485943  0.014511467            8 
  293000   0.81725076   -8.1404071    50.645543  0.014404307  0.014455776            6 
  294000   0.79347221   -8.1515012    50.803655  0.014400129  0.014400304           12 
  295000   0.78750508   -8.1384503    50.773581  0.014342819  0.014344753           13 
  296000   0.77922869   -8.1464819    50.778967   0.01429588  0.014289287           21 
  297000    0.8047979   -8.1471612    50.856464  0.014269491  0.014234194           17 
  298000   0.78264121   -8.1460656    50.616204   0.01415442  0.014179048           27 
  299000   0.80152487    -8.144295    50.736169  0.014140515  0.014124301           34 
  300000   0.79923073   -8.1575149    50.617536  0.014060427  0.014069927           21 
  301000   0.80687059   -8.1519081    50.862866  0.014081635  0.014015667           18 
  302000   0.79587756   -8.1659819    50.881924  0.014040266  0.013961558           13 
  303000   0.79907825   -8.1622301    50.845104  0.013983802  0.013907877           14 
  304000   0.76894444    -8.160858    50.941752  0.013964296  0.013854839           14 
  305000   0.76901626   -8.1659783    51.009698  0.013937076  0.013801565           13 
  306000   0.79401684   -8.1701345    50.830688   0.01384278  0.013748557           24 
  307000   0.79192625    -8.194302    50.859718  0.013805569  0.013695512           28 
  308000   0.76505054   -8.1562229    50.985446  0.013794764  0.013642768           21 
  309000   0.77962347   -8.1939663    50.922477  0.013733138  0.013590168           17 
  310000   0.77091744   -8.2246363    50.879582  0.013677307  0.013538188           38 
  311000   0.78343744   -8.2019788    51.045898  0.013677893   0.01348623           24 
  312000   0.76760258   -8.1916673    51.114553  0.013652391   0.01343467           25 
  313000   0.75905369   -8.1772254    51.062365  0.013594879  0.013383305           10 
  314000   0.75097417   -8.2040528    50.932571  0.013517137  0.013331972           26 
  315000    0.7500449   -8.2353271    50.977233  0.013486041  0.013280615           27 
  316000   0.77139509   -8.2664939    50.926249  0.013429918  0.013229228           25 
  317000   0.74437597    -8.243187    51.032826  0.013415569  0.013177884           24 
  318000   0.75801275   -8.2861953    50.903022  0.013339366  0.013126646           21 
  319000   0.74316891   -8.2675101     50.87849  0.013291142  0.013075545           31 
  320000   0.75505574    -8.250909    51.050824  0.013294485  0.013024721           43 
  321000   0.76550498   -8.2469474    50.955568  0.013228341   0.01297413           56 
  322000     0.749021   -8.2845921    50.846802   0.01315911  0.012923601           20 
  323000   0.75537452   -8.2637664     51.02434  0.013164174  0.012873103           30 
  324000   0.73728319   -8.2811288    50.883957  0.013087437  0.012822953           72 
  325000   0.73248871   -8.2791355    50.913846  0.013054832  0.012772561           48 
  326000   0.75427207   -8.2800896    50.846896  0.012997673   0.01272254           39 
  327000   0.72922137   -8.3383518    50.862065   0.01296179   0.01267254           22 
  328000   0.73205825   -8.3075412    50.872306  0.012924874  0.012622867           80 
  329000   0.73133045   -8.3343527     50.94024  0.012902796  0.012573399           48 
  330000   0.74288844   -8.3321263    50.877357  0.012847817  0.012523933           35 
  331000   0.72564046   -8.3301504    50.868452   0.01280676  0.012474639           60 
  332000   0.73358639   -8.3090528    50.832247  0.012759098  0.012425611           77 
  333000   0.71928121   -8.3449569    50.879447  0.012732594  0.012376909           74 
  334000   0.73665834   -8.3455233    50.937815  0.012709036  0.012328335           49 
  335000   0.72014599   -8.3412554    50.757173  0.012626162   0.01227993           75 
  336000   0.72795429   -8.3532159    50.851202  0.012611905  0.012231629           41 
  337000   0.71971515   -8.3320248    50.863319  0.012577477  0.012183631           40 
  338000   0.72994599    -8.370835    50.895791  0.012548272  0.012135773           50 
  339000   0.72846617   -8.3784442    50.934479  0.012520767  0.012088056           68 
  340000   0.72983588   -8.3593288    50.882022  0.012471084  0.012040613           58 
  341000   0.72787603   -8.3378268    50.837723  0.012423686  0.011993311          146 
  342000   0.70852802   -8.3788869    50.897706  0.012401975  0.011946066           53 
  343000   0.72217598   -8.3931145    50.791034  0.012339901  0.011899042           57 
  344000   0.72750372   -8.4035973    50.845994  0.012317343  0.011852169           70 
  345000   0.71545193    -8.383305    50.887673  0.012291708  0.011805368          111 
  346000   0.71213785   -8.3976854    50.840544  0.012244832  0.011758827           83 
  347000   0.72337824   -8.3669717     50.80684  0.012201451  0.011712326          181 
  348000   0.72086483   -8.3677702    50.907459  0.012190483  0.011666284           59 
  349000   0.70869923   -8.3858777    50.812953  0.012132988  0.011620322          106 
  350000   0.71143566   -8.3805169    50.760149   0.01208575  0.011574414          101 
  351000   0.71208274   -8.3998796     50.76258  0.012051895  0.011528859           78 
  352000   0.71198166   -8.3944018    50.727022  0.012009238  0.011483462           73 
  353000   0.71432308   -8.3923802    50.808486  0.011994449   0.01143835           65 
  354000   0.71365489   -8.4026813     50.82973  0.011965567  0.011393457          113 
  355000   0.69539525   -8.4155606    50.848894   0.01193636  0.011348668          132 
  356000   0.69185243    -8.411456    50.852931  0.011903776  0.011304206           40 
  357000   0.70838215   -8.4278295    50.738237  0.011843659  0.011259736           63 
  358000   0.70339917   -8.3998879    50.748929  0.011813065  0.011215344          117 
  359000   0.69107854    -8.426672    50.732273  0.011776294  0.011171144           82 
  360000   0.71009234   -8.4114961    50.803196  0.011759999  0.011127261          123 
  361000   0.69053591   -8.4268879    50.784381   0.01172308  0.011083531          139 
  362000    0.6959076     -8.45268    50.702225  0.011671783  0.011039906          104 
  363000   0.67910244   -8.4297568    50.798587  0.011661751  0.010996547          142 
  364000   0.68669221   -8.4168006    50.742885  0.011616961  0.010953423          144 
  365000   0.69802773   -8.4558122    50.697769  0.011574833  0.010910203          145 
  366000   0.68824641   -8.4357672    50.626195  0.011526911  0.010867272          175 
  367000   0.67319374   -8.4586541    50.690738  0.011510158  0.010824477          166 
  368000   0.66399505    -8.460278    50.725977  0.011486861  0.010781941          163 
  369000   0.67009662   -8.4438954    50.749326  0.011461004  0.010739531          157 
  370000   0.66278265   -8.4840481    50.562159  0.011387874  0.010697276          152 
  371000   0.68401437   -8.4786578    50.670579  0.011381532   0.01065515          175 
  372000   0.67273206   -8.4971455    50.669156  0.011350617  0.010613234          163 
  373000   0.66853649   -8.4881247    50.587553  0.011301956  0.010571455          168 
  374000   0.67822014   -8.4963814    50.638628  0.011283117  0.010529832          137 
  375000   0.65890838   -8.4941637    50.702614  0.011267247  0.010488409          172 
  376000   0.65976989   -8.4889545    50.642361  0.011223927  0.010447078          162 
  377000   0.65933415   -8.5122582    50.673243  0.011200982  0.010406049          156 
  378000   0.66429386    -8.494223    50.736023   0.01118519  0.010365324          147 
  379000   0.67184032   -8.5075351    50.662646  0.011139544  0.010324827          186 
  380000   0.67150854   -8.5263038    50.564107   0.01108862  0.010284347          149 
  381000   0.66646312   -8.5135439     50.56107  0.011058852  0.010244116          200 
  382000   0.65532463   -8.5076486    50.701734  0.011060588  0.010204038          152 
  383000   0.64306137   -8.5479179    50.572269   0.01100354  0.010164285          210 
  384000   0.64247906   -8.5461391    50.607411  0.010982511  0.010124488          154 
  385000   0.64475693   -8.5366409    50.556103   0.01094288  0.010084929          183 
  386000   0.63951027   -8.5480299    50.439226  0.010889298  0.010045581          166 
  387000   0.64195768   -8.5189065    50.594226  0.010894536  0.010006421          192 
  388000   0.63630734   -8.5327315    50.587596  0.010865033 0.0099674924          182 
  389000   0.65344725   -8.5298225     50.55417  0.010829942 0.0099288648          141 
  390000   0.64721844    -8.550013    50.553733   0.01080208 0.0098902386          168 
  391000   0.63903849   -8.5472827    50.613438  0.010787178 0.0098517322          180 
  392000    0.6347472   -8.5480706    50.568039  0.010750008 0.0098135114          288 
  393000   0.62868052   -8.5611932    50.524479  0.010713418 0.0097753623          162 
  394000   0.64165378   -8.5384612    50.513206  0.010683842  0.009737303          175 
  395000   0.64108198   -8.5558495    50.516388  0.010657466 0.0096995516          184 
  396000   0.63637562   -8.5852947    50.474749  0.010621791 0.0096619859          134 
  397000   0.64368647    -8.552085    50.520236  0.010604584  0.009624635          144 
  398000   0.63589535   -8.5853207    50.582246  0.010590923 0.0095875038          156 
  399000   0.63029857   -8.5863108    50.507433  0.010548754 0.0095505025          151 
  400000   0.61737593   -8.5810856    50.560877  0.010533516 0.0095136201          179 
  401000    0.6230957   -8.5845012     50.50497   0.01049563 0.0094769811          147 
  402000    0.6147206   -8.5739036    50.463613  0.010460948 0.0094404432          174 
  403000   0.62141018   -8.5838208    50.576055  0.010458241 0.0094041482          139 
  404000   0.63023035   -8.5906267     50.56933  0.010430967 0.0093679511          168 
  405000   0.61472586   -8.6086101    50.525291   0.01039615 0.0093319872          173 
  406000   0.60864738   -8.6141399    50.463603  0.010357882 0.0092961637          190 
  407000   0.60928098    -8.593443    50.458314   0.01033135 0.0092605562          174 
  408000   0.62154902   -8.5942368    50.545491  0.010323834 0.0092250477          178 
  409000   0.61712376   -8.6101756    50.501952  0.010289721 0.0091897099          167 
  410000   0.61770504   -8.5830462     50.37897  0.010239628 0.0091546293          160 
  411000   0.59910383   -8.6239825    50.573048  0.010254065 0.0091196366          212 
  412000   0.61921014   -8.6245253    50.403366  0.010194856 0.0090848797          190 
  413000    0.5998005   -8.6035479    50.468075  0.010183227 0.0090502398          205 
  414000    0.6008562   -8.6175642    50.324455  0.010129721 0.0090156913          217 
  415000   0.59865046    -8.617635     50.40375  0.010121235 0.0089813171          170 
  416000   0.60597098   -8.6286881    50.436185  0.010103402 0.0089470613          172 
  417000    0.6010706    -8.620692    50.382613  0.010068468 0.0089130038          283 
  418000   0.58606524   -8.6366087    50.419106  0.010051656 0.0088791163          157 
  419000   0.60492716   -8.6611745    50.425366  0.010028911 0.0088454267          356 
  420000   0.60408217   -8.6320106    50.422216  0.010004408 0.0088119287          163 
  421000   0.60856167   -8.6113581    50.403701 0.0099769796 0.0087785966          184 
  422000   0.58581747   -8.6400688    50.365642  0.009945822 0.0087453388          297 
  423000   0.58725121   -8.6680952    50.271272 0.0099037179  0.008712203          187 
  424000   0.58647037   -8.6649879    50.421007  0.009909789 0.0086792161          202 
  425000   0.59251877    -8.650869    50.343193 0.0098712143 0.0086463729          195 
  426000   0.59640125   -8.6493632    50.367282 0.0098527547 0.0086136947          187 
  427000    0.6019865   -8.6820877     50.30212 0.0098169632 0.0085812118          183 
  428000    0.5880851    -8.671052    50.445557 0.0098219542 0.0085488589          223 
  429000   0.58215597   -8.6754315    50.295236 0.0097698594 0.0085166818          175 
  430000   0.58791201   -8.6848912    50.370446 0.0097617143 0.0084846072          245 
  431000   0.57122209   -8.6793845    50.313643 0.0097280826 0.0084526997          247 
  432000   0.57149666     -8.67732    50.271196 0.0096973758 0.0084209316          340 
  433000   0.57748836   -8.6791392    50.289682 0.0096785376 0.0083892791          199 
  434000   0.56868566   -8.6876547    50.248347    0.0096483 0.0083577682          183 
  435000    0.5705327    -8.679513    50.200776  0.009617007 0.0083263541          203 
  436000   0.58997699   -8.6815522    50.303433 0.0096145705 0.0082951265          208 
  437000   0.57104883   -8.6876994    50.244986 0.0095814237 0.0082640278          184 
  438000   0.55974332    -8.710873    50.189168 0.0095489285 0.0082331367          247 
  439000   0.56227304   -8.6855388    50.273724 0.0095432278 0.0082023889          223 
  440000   0.57110376   -8.6875538    50.318502 0.0095300193 0.0081717478          225 
  441000   0.56270579   -8.6926108    50.255336 0.0094964732 0.0081412928          203 
  442000   0.57120172   -8.7146704    50.290396  0.009481598 0.0081109594          230 
  443000   0.57284248   -8.7106524    50.198836 0.0094429713  0.008080784          209 
  444000   0.56235356   -8.7195265    50.161784 0.0094147492 0.0080507005          197 
  445000   0.53724845   -8.7071853    50.239045 0.0094080609 0.0080207823          205 
  446000   0.55073285   -8.7182693    50.225704 0.0093844738 0.0079909906          183 
  447000   0.56078616   -8.7145561    50.214013 0.0093612999 0.0079613502          194 
  448000    0.5569301   -8.7209982     50.23744  0.009344762 0.0079318945          230 
  449000   0.55136852   -8.7130516    50.256376  0.009327464 0.0079025524          238 
  450000   0.55032696    -8.740233    50.199616 0.0092962252 0.0078733465          265 
  451000   0.54913683   -8.7369672     50.18022 0.0092720288 0.0078442445          224 
  452000   0.54845932   -8.7326613    50.122164  0.009240812 0.0078153078          254 
  453000   0.54538455   -8.7266502    50.162969 0.0092279193 0.0077864636          259 
  454000   0.53695523   -8.7353521    50.171176 0.0092090998 0.0077577701          208 
  455000   0.53985735   -8.7416049    50.104911 0.0091767236 0.0077292704          227 
  456000   0.54267278   -8.7389028    50.154393 0.0091656421 0.0077008852          205 
  457000   0.54461322   -8.7577021     50.19233 0.0091525037 0.0076726865          263 
  458000   0.53219694    -8.762263    50.189236  0.009131957 0.0076446443          251 
  459000   0.53661317   -8.7447668    50.128497 0.0091010344 0.0076166842          405 
  460000   0.54300447   -8.7513429    50.129652 0.0090814587 0.0075888386          383 
  461000   0.52864021   -8.7922134    50.079132 0.0090526269 0.0075611422          221 
  462000   0.52496655   -8.7722221    50.078157 0.0090328566 0.0075335178          236 
  463000   0.53486111   -8.7551689     50.10845 0.0090187996 0.0075060531          372 
  464000   0.53655418   -8.7747338    50.101061 0.0089980353 0.0074787009          202 
  465000   0.52640486   -8.7670116    50.115706 0.0089813093 0.0074514863          227 
  466000   0.52156566   -8.7735221    50.053987 0.0089509991 0.0074243726          240 
  467000    0.5273636   -8.7873262    50.080842 0.0089366242   0.00739739          226 
  468000   0.51559723   -8.7718932     50.14909 0.0089296813 0.0073705938          402 
  469000   0.51018574   -8.7630911    50.127849 0.0089068673 0.0073439192          373 
  470000   0.51177395   -8.7944229    50.003313 0.0088658356 0.0073173221          247 
  471000   0.52191296   -8.7866833    49.997304 0.0088459491 0.0072908432          220 
  472000   0.51759364   -8.7730804    50.045474 0.0088357123  0.007264478          205 
  473000   0.51579183   -8.7970027    50.015753 0.0088117958 0.0072382782          276 
  474000   0.50739046   -8.8165839    50.022297  0.008794356  0.007212161          237 
  475000    0.5129222   -8.7874085    50.043926 0.0087796361 0.0071861876          319 
  476000    0.5182589   -8.8062155    50.115206 0.0087736706 0.0071603635          452 
  477000   0.49687145   -8.8163572    49.975191  0.008730816 0.0071346398          247 
  478000   0.50213172   -8.8025423    49.972945 0.0087121592 0.0071090408          240 
  479000   0.50669372   -8.8068105    50.000347 0.0086987382  0.007083543          411 
  480000   0.48902532   -8.8069519    50.002542 0.0086809968 0.0070582431          242 
  481000   0.49211137   -8.8116197    50.039185 0.0086692974 0.0070330094          288 
  482000   0.49824573   -8.8231141    50.023796 0.0086486508 0.0070079126          208 
  483000    0.4888305   -8.8069733    49.980281 0.0086232368 0.0069829487          462 
  484000   0.48809845    -8.827818    49.958304 0.0086016364 0.0069580413          202 
  485000   0.49918749   -8.8274585    49.964695 0.0085849992 0.0069332925          260 
  486000   0.49815573   -8.8096745    50.081128 0.0085872991 0.0069086117          310 
  487000   0.48333422   -8.8292049    49.987069  0.008553571 0.0068840433          265 
  488000   0.48239148   -8.8098266    49.943315 0.0085285715 0.0068596136          210 
  489000   0.48765446   -8.8364872    49.958439  0.008513708 0.0068352842          184 
  490000   0.48858514   -8.8397153    49.953739 0.0084955339 0.0068110615          188 
  491000   0.47594001   -8.8336376    49.886828  0.008466875 0.0067869725          239 
  492000   0.47694555   -8.8538917    49.912709 0.0084540496 0.0067629631          158 
  493000   0.47960639   -8.8427474    49.936915  0.008440993 0.0067390621          210 
  494000   0.48408304   -8.8444366    49.953399 0.0084266867 0.0067152788          221 
  495000   0.46466347   -8.8497618    49.873838  0.008396269 0.0066916339          251 
  496000   0.48083356   -8.8593191     49.89886 0.0083835451 0.0066680039          214 
  497000   0.46306563   -8.8400131    49.919795 0.0083701869 0.0066445401          201 
  498000   0.48000774   -8.8554606     50.00766 0.0083680823 0.0066211903          212 
  499000   0.46924555   -8.8505976    49.920646 0.0083367812 0.0065979357          219 
  500000   0.46577516   -8.8735833     49.89268 0.0083154466  0.006574755          258 
  501000   0.46611431   -8.8679286    49.844371 0.0082908135 0.0065517087          207 
  502000   0.46050121   -8.8630447    49.888145 0.0082815646 0.0065287483          193 
  503000   0.46972548   -8.8581522    49.838601 0.0082568921 0.0065058891          198 
  504000    0.4601361    -8.863978    49.831577  0.008239348 0.0064831739          344 
  505000   0.46418351   -8.8722314     49.77019 0.0082129026 0.0064605563          208 
  506000   0.47588721   -8.8807494    49.844583 0.0082089235 0.0064380629          207 
  507000   0.45380411   -8.8732337    49.794241 0.0081844578 0.0064156437          248 
  508000   0.46425364   -8.8956081    49.759142 0.0081625888 0.0063933243          444 
  509000   0.44294286   -8.8828132       49.879 0.0081661755   0.00637109          237 
  510000   0.45794602   -8.8824539    49.870821  0.008148827 0.0063489917          207 
  511000   0.45150496    -8.879811    49.803082 0.0081218334 0.0063269434          422 
  512000   0.44592222   -8.8917223    49.765057 0.0080997814 0.0063049988          232 
Loop time of 1306.79 on 48 procs for 500000 steps with 4000 atoms

Performance: 66116.190 tau/day, 382.617 timesteps/s
99.4% CPU use with 48 MPI tasks x no OpenMP threads

MPI task timing breakdown:
Section |  min time  |  avg time  |  max time  |%varavg| %total
---------------------------------------------------------------
Pair    | 90.919     | 99.071     | 106.55     |  33.4 |  7.58
Neigh   | 8.9557     | 9.3121     | 9.6676     |   5.7 |  0.71
Comm    | 82.3       | 89.921     | 99.384     |  39.1 |  6.88
Output  | 0.97634    | 0.97709    | 1.0003     |   0.3 |  0.07
Modify  | 1089.6     | 1094.6     | 1098.1     |   6.2 | 83.76
Other   |            | 12.9       |            |       |  0.99

Nlocal:        83.3333 ave          91 max          77 min
Histogram: 5 3 8 7 1 9 6 7 1 1
Nghost:        2391.17 ave        2405 max        2375 min
Histogram: 2 2 4 8 4 4 9 6 5 4
Neighs:        16476.1 ave       18798 max       14304 min
Histogram: 5 4 5 4 4 9 7 5 3 2
FullNghs:      32952.6 ave       36173 max       30417 min
Histogram: 5 3 7 6 6 6 8 5 1 1

Total # of neighbors = 1581726
Ave neighs/atom = 395.43150
Neighbor list builds = 26622
Dangerous builds = 0

#clear
#
#next RN
#
#jump SELF
Total wall time: 0:21:50
