
units lj                  # Use reduced LJ style units
atom_style atomic         # Uncharged point particles
atom_modify map hash      # Needed for indexing of clusters etc
                          # Used to be able to find where atoms are in relation to each other.

lattice fcc 1.0 spacing 1 1 1
Lattice spacing in x,y,z = 1.5874011 1.5874011 1.5874011
region box block 0 10 0 10 0 10 units lattice
create_box 2 box
Created orthogonal box = (0.0000000 0.0000000 0.0000000) to (15.874011 15.874011 15.874011)
  3 by 4 by 4 MPI processor grid
create_atoms 1 box
Created 4000 atoms
  using lattice units in orthogonal box = (0.0000000 0.0000000 0.0000000) to (15.874011 15.874011 15.874011)
  create_atoms CPU = 0.002 seconds
set type 1 type/fraction 2 0.89 78393
Setting atom values ...
  3550 settings made for type/fraction
mass 1 1.0
mass 2 1.0
pair_style lj/cut  3.5
pair_modify tail  yes
pair_coeff 1  1  1.0  1.0   # Intearaction between 1 and 1 set with epsilon = 1 and sigma = 1
pair_coeff 1  2  1.5  0.8
pair_coeff 2  2  0.5  0.88

write_data data.0
System init for write_data ...
Neighbor list info ...
  update every 1 steps, delay 10 steps, check yes
  max neighbors/atom: 2000, page size: 100000
  master list distance cutoff = 3.8
  ghost atom cutoff = 3.8
  binsize = 1.9, bins = 9 9 9
  1 neighbor lists, perpetual/occasional/extra = 1 0 0
  (1) pair lj/cut, perpetual
      attributes: half, newton on
      pair build: half/bin/atomonly/newton
      stencil: half/bin/3d
      bin: standard
WARNING: Not all mixed pair coeffs generated from mixing. Use write_data with 'pair ij' option to store all pair coeffs. (../write_data.cpp:312)


#############################
#   M E L T   S Y S T E M   #
#############################

velocity all create 2.4 3143649 mom yes dist gaussian # Assign velocities
                                                    # Temperature 2.4, random number seed, zero linear momentum
                                                                                # Gaussian distribution

timestep 0.002   # simulation timestep
thermo 1000       # output thermodynamic data every 1000 steps bf 100

# Define a fix  in this case with index 1 applied to all
# particles in the simulation. This fix is for simulations
# in the anisotropic NPT ensemble. Note that we use the MTK
# correction.
fix 1 all npt temp 2.4 2.4 0.1 iso 5.68 5.68 0.5 mtk yes tchain 5 pchain 5 # Use NPT ensemble
                                                                         # Set temperature and pressure and damping
                                                                         # Numbers of thermostats in chain and in barostat
run 10000          # run for 10000 steps
Per MPI rank memory allocation (min/avg/max) = 3.642 | 3.644 | 3.648 Mbytes
Step Temp E_pair E_mol TotEng Press Volume 
       0          2.4   -3.2438273            0   0.35527274   -2.6679874         4000 
    1000    2.3719169   -2.3520977            0    1.2048883    5.4351751    3975.9875 
    2000    2.4744233   -2.2965666            0    1.4141404    5.7269992    4007.0569 
    3000    2.3664615   -2.2828592            0    1.2659457    5.8001602    3979.9553 
    4000    2.3862112   -2.3483632            0    1.2300588    5.7261667    3946.7722 
    5000    2.4171547   -2.3086809            0    1.3161446    5.5944265    4005.1208 
    6000     2.428611   -2.3672062            0    1.2747996    5.6973859    3937.6434 
    7000    2.3780963   -2.3514758            0    1.2147769    5.6762538    3955.7591 
    8000    2.4180359    -2.318811            0    1.3073361    5.8319119    3948.2189 
    9000     2.442584   -2.3125649            0    1.3503951    5.7386331    3983.3216 
   10000    2.4314653   -2.3369949            0    1.3092913    5.7142266    3977.4858 
Loop time of 2.5258 on 48 procs for 10000 steps with 4000 atoms

Performance: 684139.942 tau/day, 3959.143 timesteps/s
99.0% CPU use with 48 MPI tasks x no OpenMP threads

MPI task timing breakdown:
Section |  min time  |  avg time  |  max time  |%varavg| %total
---------------------------------------------------------------
Pair    | 1.0639     | 1.1547     | 1.2275     |   2.8 | 45.72
Neigh   | 0.20609    | 0.2145     | 0.22984    |   0.9 |  8.49
Comm    | 0.78356    | 0.86819    | 0.97208    |   4.3 | 34.37
Output  | 0.0002457  | 0.00024931 | 0.00032364 |   0.0 |  0.01
Modify  | 0.24034    | 0.27283    | 0.30786    |   4.1 | 10.80
Other   |            | 0.01532    |            |       |  0.61

Nlocal:        83.3333 ave          93 max          71 min
Histogram: 1 3 4 2 6 12 7 3 6 4
Nghost:        1650.40 ave        1678 max        1617 min
Histogram: 2 2 3 2 11 9 5 9 3 2
Neighs:        9594.31 ave       10893 max        7803 min
Histogram: 2 3 2 3 2 11 14 4 4 3

Total # of neighbors = 460527
Ave neighs/atom = 115.13175
Neighbor list builds = 902
Dangerous builds = 183

# Equilibrate just above the melting temperature to avoid step fn in T

fix 1 all npt temp 1.25 1.25 0.1 iso 5.68 5.68 0.5 mtk yes tchain 5 pchain 5
run 2000
Per MPI rank memory allocation (min/avg/max) = 3.643 | 3.645 | 3.649 Mbytes
Step Temp E_pair E_mol TotEng Press Volume 
   10000    2.4314653   -2.3369949            0    1.3092913    5.7142266    3977.4858 
   11000    1.2409833   -3.4404813            0   -1.5794717    6.0425365    3060.4244 
   12000    1.2310983   -3.4625605            0   -1.6163746    5.6198051    3081.9253 
Loop time of 0.6024 on 48 procs for 2000 steps with 4000 atoms

Performance: 573705.129 tau/day, 3320.053 timesteps/s
99.7% CPU use with 48 MPI tasks x no OpenMP threads

MPI task timing breakdown:
Section |  min time  |  avg time  |  max time  |%varavg| %total
---------------------------------------------------------------
Pair    | 0.2695     | 0.29277    | 0.3146     |   1.8 | 48.60
Neigh   | 0.039295   | 0.041743   | 0.044924   |   0.5 |  6.93
Comm    | 0.19508    | 0.21795    | 0.24616    |   2.4 | 36.18
Output  | 5.2709e-05 | 5.4299e-05 | 7.1053e-05 |   0.0 |  0.01
Modify  | 0.041869   | 0.045093   | 0.04871    |   1.0 |  7.49
Other   |            | 0.004792   |            |       |  0.80

Nlocal:        83.3333 ave          91 max          72 min
Histogram: 3 0 3 1 5 11 8 9 6 2
Nghost:        1954.02 ave        1997 max        1926 min
Histogram: 4 4 11 6 10 6 3 1 2 1
Neighs:        12400.3 ave       14655 max       10567 min
Histogram: 5 2 1 10 13 6 6 4 0 1

Total # of neighbors = 595216
Ave neighs/atom = 148.80400
Neighbor list builds = 143
Dangerous builds = 13

#############################
# L I N E A R  Q U E N C H  #
#############################

# Define solid atoms. This closely follows ten Wolde  Ruiz-Montero and Frenkel  Faraday Discuss  1996  104  93-110
# Compute components of the per-atom q6 vector
compute q6 all orientorder/atom degrees 1 6 components 6 nnn NULL cutoff 1.3 # compute the Q6 parameter.
                                                                             # Use all neighbours within 1.3 unit cell.

# get number of connections
compute coord_number all coord/atom orientorder q6 0.5

# An atom is solid if it has 8 or more connections (of a possible 14)
variable is_solid atom c_coord_number>=8
group solid dynamic all var is_solid    # Must be dynamic to update
dynamic group solid defined

# do clustering
compute cluster solid cluster/atom 1.3 # Create a cluster where all atoms within are solid and max 1.3 units from another member

# define chunks one chunk per cluster
compute clus_chunks solid chunk/atom c_cluster nchunk every compress yes  # Says which atoms are in which chunk

# count the size of each chunk
compute size_chunks solid property/chunk clus_chunks count


# Find the maximum entry in the vector of chunk sizes
variable max_n equal max(c_size_chunks)


# Thermo style which includes this variable
# thermo_style custom step temp pe vol v_max_n

thermo ${N}  # Print the thermo information every 100 steps
thermo 1000  

# Reset the npt fix at a lower temperature (below freezing)
fix 1  all npt temp  ${temp} ${temp}  0.1  iso  5.68  5.68  0.5  mtk yes tchain  5  pchain  5
fix 1  all npt temp  0.45 ${temp}  0.1  iso  5.68  5.68  0.5  mtk yes tchain  5  pchain  5
fix 1  all npt temp  0.45 0.45  0.1  iso  5.68  5.68  0.5  mtk yes tchain  5  pchain  5

dump dmp2 all dcd ${N} traj.dcd
dump dmp2 all dcd 1000 traj.dcd


compute msd all msd com yes
variable twopoint equal c_msd[4]/6/(step*dt+1.0e-6)
fix 9 all vector 10 c_msd[4]
variable fit equal slope(f_9)/6/(10*dt)
thermo_style custom step temp pe c_msd[4] v_twopoint v_fit v_max_n

fix 1 all npt temp 1.25 ${temp} 0.1 iso 5.68 5.68 0.5 mtk yes tchain 5 pchain 5
fix 1 all npt temp 1.25 0.45 0.1 iso 5.68 5.68 0.5 mtk yes tchain 5 pchain 5
run 2000000 # 5000000  # Run for this many steps
Neighbor list info ...
  update every 1 steps, delay 10 steps, check yes
  max neighbors/atom: 2000, page size: 100000
  master list distance cutoff = 3.8
  ghost atom cutoff = 3.8
  binsize = 1.9, bins = 8 8 8
  4 neighbor lists, perpetual/occasional/extra = 1 3 0
  (1) pair lj/cut, perpetual
      attributes: half, newton on
      pair build: half/bin/atomonly/newton
      stencil: half/bin/3d
      bin: standard
  (2) compute orientorder/atom, occasional
      attributes: full, newton on
      pair build: full/bin/atomonly
      stencil: full/bin/3d
      bin: standard
  (3) compute coord/atom, occasional
      attributes: full, newton on
      pair build: full/bin/atomonly
      stencil: full/bin/3d
      bin: standard
  (4) compute cluster/atom, occasional
      attributes: full, newton on
      pair build: full/bin/atomonly
      stencil: full/bin/3d
      bin: standard
Per MPI rank memory allocation (min/avg/max) = 9.822 | 9.831 | 9.838 Mbytes
Step Temp PotEng c_msd[4] v_twopoint v_fit v_max_n 
   12000    1.2310983   -3.4625605 1.0450435e-30 7.2572461e-33 8.3333333e+20            1 
   13000    1.2415799   -3.4834749   0.99694592 0.0063906787  0.084355988            3 
   14000    1.2981115    -3.453357    2.0265174  0.012062603  0.085204592            3 
   15000    1.2751173   -3.4651069    3.1223843  0.017346579  0.087156542            1 
   16000    1.2497548   -3.4806935    4.0761454  0.021229923  0.086741161            1 
   17000    1.2122821   -3.4804067    5.1825026  0.025404424   0.08689815            2 
   18000    1.2422429   -3.4548759    6.1935398  0.028673794  0.086901538            1 
   19000    1.2390868   -3.4701604    7.2461504   0.03178136   0.08684323            1 
   20000       1.2565   -3.4404444    8.4724385  0.035301826  0.087645246            1 
   21000     1.254434   -3.4657367    9.5770993  0.038004361  0.088406352            2 
   22000    1.2095205   -3.4684106    10.539963  0.039924103  0.088565082            3 
   23000    1.2533202   -3.4684389    11.546269  0.041834309  0.088506244            5 
   24000    1.2639319   -3.4639735    12.703934   0.04411088  0.088497341            2 
   25000    1.2416235   -3.4977025    13.841695  0.046138983  0.088788255            2 
   26000    1.2509781   -3.4647291    14.955269  0.047933553  0.089176465            2 
   27000    1.2335864   -3.4803968     16.16318  0.049886357   0.08953905            2 
   28000    1.2451583   -3.4423037    17.283259  0.051438271  0.089914738            1 
   29000    1.2663333   -3.4840909    18.453604  0.053027598  0.090352872            3 
   30000    1.2453006   -3.4689701    19.628536  0.054523711  0.090857873            2 
   31000      1.23052    -3.477585    20.923827  0.056246847  0.091340297            2 
   32000    1.2650413   -3.4621712    22.049733  0.057421178  0.091755437            1 
   33000    1.2240099    -3.473017    23.209565  0.058610012  0.092116311            2 
   34000    1.2415237   -3.4706803    24.357428  0.059699577  0.092464149            2 
   35000    1.2187693   -3.4562943     25.56162     0.060861  0.092744386            5 
   36000     1.214278    -3.479331    26.521005  0.061391214  0.092930585            2 
   37000    1.2443234   -3.4875684    27.248768  0.061371099  0.092997186            2 
   38000    1.2637541   -3.5063544    28.403227  0.062287779   0.09288621            1 
   39000     1.216843   -3.4451204     29.48797  0.063008483  0.092797725            1 
   40000    1.2203682   -3.4410216    30.356957  0.063243659    0.0926716            1 
   41000    1.2098022   -3.4849387    31.453718  0.063930321  0.092488738            1 
   42000    1.2416033   -3.4812091    32.545233  0.064573875  0.092289498            2 
   43000    1.2239746   -3.4763406    33.727606  0.065363577   0.09216309            2 
   44000    1.2227824   -3.4850195    34.877279  0.066055452  0.092037549            1 
   45000    1.2384808   -3.5202155    35.724793  0.066157024   0.09190009            1 
   46000     1.266036   -3.4584512    37.040849  0.067102987  0.091813464            1 
   47000    1.2243633   -3.4734589    37.873712  0.067151971  0.091718699            1 
   48000    1.2502792   -3.4692475    38.831426  0.067415669  0.091539478            3 
   49000    1.2465975   -3.4548965    39.657785  0.067445212  0.091302648            1 
   50000    1.2145902   -3.4762286    40.756377  0.067927295  0.091041765            3 
   51000    1.2296406   -3.4598529     41.78175  0.068270832  0.090839522            4 
   52000    1.2449146   -3.4780473    43.103055  0.069075408  0.090705088       -1e+20 
   53000    1.2298363   -3.4710008    44.172299    0.0694533  0.090617556            2 
   54000    1.2034715    -3.465851    45.039473  0.069505359  0.090491288            2 
   55000    1.2179764   -3.4559228    45.992139  0.069685058  0.090353184            2 
   56000    1.2412786   -3.4509414    47.027687  0.069981676  0.090199793            5 
   57000    1.2450151    -3.512878    48.059909  0.070263025  0.090045436            6 
   58000    1.2236137   -3.5151888    49.104648  0.070552654  0.089919374            2 
   59000    1.2379742   -3.4791643    50.316452  0.071068434  0.089817714            1 
   60000    1.2361181   -3.4350807    51.486739  0.071509359  0.089728117            2 
   61000      1.24932    -3.509358    52.356633  0.071525454  0.089631683            1 
   62000    1.2156692   -3.4974542    53.432704   0.07181815  0.089544049            1 
   63000    1.2195822   -3.4781454    53.974511  0.071394855  0.089429365            3 
   64000    1.2182092   -3.4949067    55.312773   0.07202184  0.089294015            1 
   65000    1.2424576   -3.4915514    56.601434  0.072565941  0.089209189            2 
   66000      1.27451   -3.5026473     57.61877  0.072750972  0.089137906            2 
   67000    1.2351284   -3.5194098    58.779374  0.073108673  0.089104214            2 
   68000    1.2124522   -3.5219904    59.899537  0.073406295  0.089060376            2 
   69000    1.2558208   -3.4502826     61.11406   0.07380925   0.08903792            1 
   70000    1.2140864   -3.4837177     61.68721  0.073437154  0.089002028            1 
   71000    1.2324375   -3.4714312    63.084567  0.074042919  0.088957662            2 
   72000    1.2221872   -3.4970763    64.135615  0.074231035  0.088952891            1 
   73000    1.2025248   -3.4744335    65.543695  0.074821569  0.088943093            3 
   74000    1.2218232   -3.5012076    66.318212  0.074682671  0.088931733            4 
   75000     1.225271   -3.4733516    67.108836  0.074565373  0.088900942            3 
   76000    1.2207315   -3.4934761      68.1314  0.074705482  0.088862163            5 
   77000    1.2447422   -3.4927783    69.191138  0.074882184  0.088823629            2 
   78000    1.2267771    -3.515632    69.861305  0.074638145  0.088769766            1 
   79000    1.2307582   -3.4936429    71.378445  0.075293718  0.088712248            1 
   80000    1.2194105   -3.4798061    72.068079  0.075070915  0.088655719            2 
   81000     1.211959   -3.5103207    73.044563  0.075148727  0.088596349            2 
   82000    1.2524046   -3.5080731    74.563962  0.075776384  0.088567079            2 
   83000    1.2282989   -3.4975519    75.414701  0.075717571  0.088545736            2 
   84000    1.2292574   -3.5072623    75.911648  0.075309174  0.088506727            2 
   85000    1.2136828   -3.5085671    77.027619  0.075517273   0.08845081            1 
   86000    1.2137962   -3.4616306    78.427392  0.075995535  0.088387536            1 
   87000    1.2195952   -3.4964118      79.0467   0.07571523  0.088318233            2 
   88000    1.2198688    -3.476604    80.110098  0.075861834  0.088245686            4 
   89000    1.2029241   -3.4678192    81.566535   0.07637316  0.088169748            1 
   90000     1.214947   -3.5506868     82.10023  0.076018731  0.088116789            2 
   91000    1.1934188   -3.4844475    83.466199  0.076434248  0.088077718            2 
   92000    1.2218492   -3.4668737    84.584738   0.07661661  0.088025416            2 
   93000    1.2136556   -3.4945116    85.080368  0.076236889  0.087966234            2 
   94000    1.2515472   -3.4940371    85.996569  0.076238093  0.087904889            1 
   95000    1.1954625   -3.4694543    87.508946  0.076762233  0.087854635            1 
   96000    1.2282285   -3.4793733    88.610697  0.076919007  0.087808474            1 
   97000    1.2398186   -3.4967948    89.793101  0.077141839  0.087761073            1 
   98000    1.2122725   -3.5234907    90.515449  0.076968919  0.087741907            1 
   99000    1.2102978   -3.4859453    91.912938  0.077367792  0.087729497            2 
  100000    1.2069064    -3.494468    92.583634  0.077153028  0.087709395            1 
  101000    1.2177175   -3.5208997    93.316265  0.076993618  0.087679145            2 
  102000     1.216794   -3.5322741    94.498517  0.077204671  0.087633536            4 
  103000    1.1905224   -3.5213092    95.011133  0.076869849  0.087581536            2 
  104000    1.2182788   -3.5204417    96.179512  0.077066916  0.087529214            3 
  105000    1.2217582   -3.5343638    96.609152   0.07667393  0.087460555            1 
  106000    1.2124997   -3.4872551    98.156976  0.077167434  0.087388724            2 
  107000    1.2055874   -3.5018084     99.21761  0.077272282  0.087326983            2 
  108000    1.2117582   -3.4732933    99.839613  0.077036738  0.087258217            1 
  109000    1.2100172   -3.4870294    100.70674  0.076992921  0.087190336            4 
  110000    1.2223904   -3.5265814    101.95368  0.077237637  0.087116841            2 
  111000    1.2262829   -3.5029996    103.17435  0.077458219  0.087057107            2 
  112000    1.2330024   -3.5160473    104.04178  0.077412035  0.087004393            7 
  113000    1.1936969   -3.5168586    105.06424  0.077481005  0.086945224            3 
  114000    1.2184933   -3.5464498    105.83679  0.077366077  0.086877123            2 
  115000    1.2143399   -3.5364704    106.61221  0.077255226   0.08680812            3 
  116000    1.2043155   -3.4983781    108.24465  0.077761959  0.086743556            1 
  117000    1.2050712   -3.5489888    109.23299  0.077801276  0.086672154            2 
  118000    1.1912484    -3.511589    110.22648  0.077843557  0.086614403            2 
  119000    1.2048067   -3.5505511    110.56851  0.077428925  0.086557388            5 
  120000    1.2302446   -3.5352171    111.90645  0.077712809  0.086499076            4 
  121000    1.2099808   -3.4735909    112.89901  0.077754138  0.086445454            3 
  122000    1.2059117   -3.5196242     113.6756  0.077647268  0.086391486            3 
  123000    1.1963326   -3.5081298    114.96451  0.077889232  0.086338806            2 
  124000    1.1905421   -3.5056328    116.34323  0.078187653    0.0862988            2 
  125000    1.2289884   -3.5315476    117.31965  0.078213103  0.086265058            2 
  126000    1.2004545   -3.5078075    118.70235  0.078506843  0.086235946            2 
  127000    1.2176157   -3.5061945    119.64075  0.078504428  0.086213267            3 
  128000    1.1937746   -3.5575924    120.17509  0.078238992  0.086190533            3 
  129000    1.1928106   -3.5119947    122.08533  0.078866491   0.08616969            2 
  130000    1.2156927   -3.5046094    123.12651  0.078927251  0.086152425            2 
  131000    1.1918494   -3.5427126    122.96234  0.078220321  0.086126965            2 
  132000    1.1933605   -3.5284845    124.45566   0.07857049  0.086098055            1 
  133000     1.191544   -3.5306374     125.2763  0.078493921  0.086073419            1 
  134000    1.2016286   -3.5229477    126.71887  0.078805266  0.086059607            2 
  135000    1.2079906   -3.4932846    128.31013  0.079203781  0.086044875            1 
  136000    1.2086105    -3.502436    128.83602  0.078943641  0.086029574            3 
  137000     1.188091   -3.5039422    130.06359  0.079114106  0.086011354            4 
  138000    1.2329941   -3.4898862    129.99114  0.078497066  0.085982602            2 
  139000    1.2098874   -3.5106615    131.18643  0.078648936  0.085945094            4 
  140000    1.1948626   -3.5252265    132.25766  0.078724799  0.085907684            2 
  141000    1.1774916   -3.5495654    132.96538  0.078584742  0.085876471            1 
  142000    1.2151964   -3.5349073    133.89035  0.078574149  0.085840247            2 
  143000    1.2030596   -3.5040615    135.60089  0.079021495  0.085807802            1 
  144000    1.1888858   -3.5438621    136.48147  0.078982331  0.085784417            5 
  145000    1.1957029   -3.5166463    137.62331  0.079093856  0.085767908            4 
  146000    1.1644983    -3.522845    138.86953  0.079263431  0.085744727            2 
  147000    1.2043196   -3.5679781    139.16214  0.078890104  0.085727783            1 
  148000    1.1821297   -3.5300484    140.66666    0.0792042   0.08569744            3 
  149000    1.1988358   -3.5656368    141.20337  0.078972803  0.085672014            4 
  150000     1.192107    -3.509135    143.20705  0.079559473  0.085639437            1 
  151000    1.1866193   -3.5405877    142.37235  0.078571935  0.085598385            2 
  152000    1.1690696   -3.5453395    143.16922  0.078491898  0.085551223            2 
  153000    1.2025015   -3.5693795    144.25488  0.078570195  0.085497004            2 
  154000    1.1728315   -3.5073055    145.44951  0.078706442  0.085449358            2 
  155000    1.1593825   -3.5432234    145.28622  0.078110871  0.085393594            1 
  156000     1.221082   -3.5525784    146.95782   0.07850311  0.085339408            2 
  157000    1.1986325   -3.5182738    148.48854  0.078815573  0.085292533            1 
  158000    1.1941451   -3.5491841    149.33809  0.078764814  0.085250834            1 
  159000    1.2054706   -3.5238005    150.33768  0.078793335  0.085202774            3 
  160000    1.2057396   -3.5099624    151.80099  0.079063018  0.085165614            1 
  161000    1.1804114   -3.5314608     152.5857  0.078978106  0.085125677            3 
  162000    1.1888577   -3.5397752    153.29364  0.078854753  0.085083967            2 
  163000    1.1944244   -3.5465486    154.52926  0.079002687  0.085053399            1 
  164000    1.2016311   -3.5509364    155.29361  0.078909352   0.08501345            1 
  165000    1.1973404   -3.5488805    156.61785  0.079099925  0.084984233            1 
  166000    1.2199193   -3.5645579    157.15754  0.078894347  0.084951938            2 
  167000    1.1693317   -3.5465879    158.16386  0.078924079  0.084917256            3 
  168000    1.1604857   -3.5349122     159.1714  0.078954065  0.084882909            4 
  169000    1.2083494   -3.5491109    160.63344  0.079207812  0.084856335            1 
  170000    1.1857803   -3.5436209    161.54494  0.079188696  0.084826414            2 
  171000    1.1861182   -3.5405884    162.96157  0.079415969  0.084799348            4 
  172000    1.1672201   -3.5579529    163.49043  0.079210482  0.084775515            5 
  173000    1.2062594   -3.5712122    164.30895  0.079146893  0.084744838            2 
  174000    1.1697424   -3.5733977    164.95205  0.079000025  0.084721241            1 
  175000    1.1793099   -3.5456275    166.12836  0.079108743   0.08469116            2 
  176000    1.1809791   -3.5822034    166.78124  0.078968388  0.084669136            2 
  177000    1.2091179   -3.5453148    167.82836  0.079015237  0.084643614            2 
  178000    1.2195568   -3.5708264    169.19648  0.079211837  0.084620206            1 
  179000    1.1942017    -3.517948     170.8778  0.079552047  0.084595872            2 
  180000    1.1872257   -3.5507752    171.43458   0.07936786   0.08457398            2 
  181000    1.1915025    -3.582137    171.99956  0.079189483   0.08455207            1 
  182000    1.1749008   -3.5195673     172.9993  0.079212133  0.084525227            3 
  183000    1.2171694   -3.5621978    173.06381  0.078808658  0.084496315            2 
  184000    1.2277104   -3.5276315    174.16658  0.078879791  0.084457115            1 
  185000    1.1859468   -3.5582442     175.4755  0.079043018  0.084413915            4 
  186000    1.1783649    -3.548382    175.51293  0.078634825  0.084371068            3 
  187000     1.183898   -3.5755683    177.06164  0.078904472  0.084328321            2 
  188000    1.1912899   -3.5495129    177.60246  0.078724494  0.084286165            4 
  189000    1.1772281   -3.5341772    177.70502  0.078353182  0.084240479            2 
  190000    1.2191778   -3.5527778    179.35693  0.078665319  0.084198717            2 
  191000    1.1881516   -3.5282135    180.99789  0.078969409  0.084153444            1 
  192000    1.1612954   -3.5478263    181.52381  0.078786375  0.084110795            1 
  193000    1.2110879   -3.5268447    181.52103  0.078376954  0.084063698            2 
  194000    1.1922136   -3.5553948    183.42576  0.078791135  0.084022356            2 
  195000    1.1635703   -3.5531703    185.04033  0.079077064   0.08397881            2 
  196000    1.1571834   -3.5485229    185.75594  0.078977866  0.083941104            3 
  197000    1.1968237   -3.5363793    186.11414  0.078728484  0.083906326            3 
  198000     1.185861   -3.5785932    186.21289  0.078372429  0.083865328            7 
  199000    1.1853164   -3.5600279    188.06921  0.078755951  0.083822068            3 
  200000    1.1552406   -3.5451733    188.87368  0.078697366  0.083783226            3 
  201000    1.1660183   -3.5625485    188.81964  0.078283431   0.08373849            2 
  202000    1.1740307   -3.5856124    189.65713   0.07824139  0.083692767            2 
  203000    1.1533756   -3.5517643    191.12537  0.078458689  0.083650644            2 
  204000    1.1991718   -3.5546099    192.80927  0.078761958  0.083606604            1 
  205000     1.177281   -3.5500841    193.03166  0.078468155  0.083563228            2 
  206000    1.1821625   -3.5579525    194.35419  0.078622245   0.08351919            3 
  207000    1.1725175   -3.6005875    194.60524  0.078343496  0.083480947            3 
  208000    1.1620479   -3.5692818    195.54226  0.078342251   0.08343791            2 
  209000    1.1821621   -3.5822207    196.37387  0.078298991  0.083391614            1 
  210000    1.1789463   -3.5663704    198.69415  0.078846884   0.08334773            3 
  211000     1.155104   -3.5474756    198.90429  0.078556198  0.083306277            1 
  212000    1.1492777   -3.5427738    200.24953  0.078714437  0.083262908            2 
  213000    1.1573771   -3.5614365    200.15017  0.078306012  0.083223193            2 
  214000    1.1605971   -3.5572841    201.56275  0.078490169  0.083185027            1 
  215000    1.1499381   -3.5884364    201.93898  0.078270921  0.083138468            2 
  216000    1.1731366   -3.5851636    203.10328  0.078357747  0.083094249            3 
  217000    1.1763667   -3.5792782    203.86882  0.078290637  0.083053309            2 
  218000    1.1475366   -3.5394786     205.8915  0.078704703  0.083010155            3 
  219000    1.1396019    -3.579027    205.52141  0.078204494  0.082967085            1 
  220000    1.1647348   -3.5729857     205.6142  0.077884167  0.082924974            2 
  221000    1.1729016   -3.6015511    206.55459  0.077886347  0.082880679            2 
  222000    1.1807699    -3.555866    207.78188  0.077996201  0.082834649            2 
  223000    1.1921749    -3.569268    208.62616  0.077961945   0.08278825            1 
  224000    1.1730079   -3.5655317    208.62694  0.077614188  0.082736725            1 
  225000    1.1465302   -3.5805887    210.69991  0.078037003  0.082687509            4 
  226000    1.1850037   -3.5863191    211.80121  0.078097792  0.082637755            5 
  227000    1.1650136   -3.5799428    212.52199  0.078018353  0.082588345            2 
  228000    1.1911332   -3.5682056    212.73031  0.077752304  0.082533125            1 
  229000    1.1640183   -3.6168133    213.10352  0.077548587  0.082482684            2 
  230000    1.1672865   -3.6124355    214.52457  0.077726292  0.082431563            2 
  231000    1.1784929   -3.6222419    215.13279  0.077609231  0.082385572            2 
  232000    1.1462464   -3.5951938     217.1436  0.077996984  0.082335642            1 
  233000    1.1553294   -3.5751905    217.14475  0.077662642  0.082283702            1 
  234000     1.174326   -3.5569187    217.73034  0.077539296  0.082232713            1 
  235000    1.1636374   -3.5493937    219.55829  0.077857548  0.082183394            1 
  236000    1.1472142   -3.5918624    220.47299  0.077850633   0.08214251            2 
  237000    1.1656562   -3.6011337    220.43113  0.077507431  0.082098397            2 
  238000    1.1284958   -3.5416689    221.96254  0.077717977  0.082050156            4 
  239000    1.1516224   -3.5680638    221.93535  0.077383317  0.081997265            3 
  240000    1.1244694   -3.5640563    222.55122   0.07727473  0.081941736            2 
  241000    1.2016013   -3.6001218    224.10747  0.077492209  0.081894055            2 
  242000    1.1776656   -3.5943185    224.43742  0.077285614  0.081848444            7 
  243000    1.1412466   -3.5786107    225.91391  0.077473905  0.081799614            2 
  244000    1.1654489   -3.6069714    225.89914  0.077151346  0.081750608            2 
  245000    1.1721212   -3.5696619      228.604  0.077756463  0.081702491            1 
  246000    1.1476465   -3.5771716      228.362  0.077358402   0.08165259            5 
  247000    1.1392527   -3.6193187    228.99914  0.077260168  0.081601632            2 
  248000    1.1660613   -3.5651644     230.1177  0.077324497  0.081551965            1 
  249000     1.158851    -3.600636    230.17178  0.077032053  0.081500775            2 
  250000    1.1395061   -3.5828282    230.59953  0.076866509  0.081446975            1 
  251000    1.1525569   -3.5815998    232.80652  0.077293002  0.081394073            2 
  252000    1.1701562   -3.5697189     232.5996  0.076917858  0.081336922            3 
  253000    1.1755086   -3.6208438    231.13484  0.076131369   0.08127401            3 
  254000    1.1669858   -3.5970957    233.62806  0.076649626   0.08121104            2 
  255000    1.1282139   -3.6157945     234.1362  0.076515098  0.081146013            2 
  256000    1.1170656   -3.5763762      235.559  0.076679361  0.081082271            3 
  257000    1.1498714    -3.596465    235.20159  0.076265107  0.081017351            3 
  258000    1.1451303   -3.5706128    237.31062  0.076650718  0.080953723            4 
  259000    1.1330971   -3.5966542    237.04396  0.076268969  0.080890538            3 
  260000    1.1725719    -3.596464     238.3888  0.076406667  0.080829535            3 
  261000     1.148496   -3.5942786    238.41908  0.076123589   0.08076587            3 
  262000     1.156583   -3.5613435    239.71648  0.076245699  0.080700184            1 
  263000     1.135879   -3.6189884    240.54882  0.076219524  0.080637924            4 
  264000    1.1571213   -3.5712057    242.66551  0.076598963  0.080577523            2 
  265000    1.1618417   -3.6367308    242.05186  0.076116937  0.080515769            2 
  266000    1.1338553   -3.5928655    243.92092  0.076416327  0.080456968            2 
  267000    1.1685911   -3.6282753    244.45682  0.076297385  0.080398863            1 
  268000    1.1567526   -3.5980897    245.00238  0.076182332  0.080345701            1 
  269000    1.1336874   -3.5480973    247.26246  0.076599274  0.080289339            4 
  270000    1.1331695   -3.5838107    247.24273  0.076309486  0.080237278            2 
  271000    1.1445768   -3.6055836    247.44774  0.076090942  0.080186477            1 
  272000    1.1630179   -3.5718504    250.01017  0.076596254  0.080136156            1 
  273000    1.1595221   -3.6151346    250.78644  0.076552636  0.080090131            3 
  274000    1.1483655   -3.5840423    252.41425  0.076768325  0.080046526            3 
  275000    1.1489589   -3.5976466    253.06433   0.07668616   0.07999969            3 
  276000     1.162731   -3.6050156    251.79947   0.07602641  0.079951674            1 
  277000      1.12861   -3.5841873     254.2519  0.076489741  0.079904585            2 
  278000    1.1439749   -3.6010291    255.90149   0.07670908  0.079860641            2 
  279000    1.1477711   -3.5912116    256.00302  0.076464463  0.079817734            2 
  280000     1.127379   -3.6125204    257.21076  0.076550822  0.079773904            1 
  281000    1.1401098   -3.6063687    256.81557    0.0761612  0.079729673            1 
  282000    1.1726812   -3.5902198    256.88435   0.07591145  0.079683922            2 
  283000    1.1317514   -3.5590909    259.14621   0.07630925  0.079637345            5 
  284000    1.1586319   -3.6261677    259.65606  0.076190157  0.079594965            2 
  285000     1.122193   -3.5935989    259.90756  0.075996362  0.079549189            2 
  286000    1.1312702   -3.5991212    261.40405  0.076166681   0.07950261            3 
  287000    1.1464734   -3.6078423    262.16876  0.076123334  0.079454515            2 
  288000    1.1671672   -3.6060892    262.49777  0.075954214  0.079405172            2 
  289000     1.133813   -3.6081433    263.74171  0.076050091  0.079359596            3 
  290000    1.1405394   -3.6305587    264.17859  0.075913387  0.079311231            3 
  291000     1.137091   -3.5960107    266.11955  0.076208348   0.07926736            1 
  292000    1.1499128   -3.6128043    266.07634  0.075935028  0.079224025            2 
  293000    1.1337091   -3.5887473    266.40865  0.075770378  0.079179728            1 
  294000    1.1206407   -3.6356593    266.79589  0.075622417   0.07913017            2 
  295000    1.1401609   -3.5788823    269.35384  0.076088656  0.079084788            1 
  296000    1.1261783   -3.6105798    268.55427  0.075606494  0.079035543            3 
  297000    1.1360505    -3.597871    270.16696  0.075804422  0.078990259            2 
  298000    1.1289225   -3.6121275    269.98037  0.075497867  0.078944744            2 
  299000    1.1428355   -3.5917226    272.90575  0.076060688  0.078903497            2 
  300000    1.1322328   -3.6217899    271.95366  0.075542684  0.078860352            4 
  301000    1.1601976   -3.6422976     272.6533  0.075485409   0.07881692            2 
  302000    1.1195074   -3.5683629    274.02724  0.075614581  0.078771476            2 
  303000    1.1417022    -3.623887    274.53089  0.075503544  0.078727088            2 
  304000    1.1290528    -3.602139    275.38613  0.075489618   0.07868191            2 
  305000    1.1431044   -3.6020062    278.84698    0.0761877  0.078635181            1 
  306000    1.1231434   -3.6316447    278.19309  0.075760646  0.078590074            3 
  307000    1.1186563   -3.6387523    277.49801  0.075325194  0.078547239            2 
  308000     1.145732   -3.6320306    280.36284  0.075855746  0.078504614            1 
  309000    1.1362382   -3.6377097    279.75194  0.075445507   0.07846303            2 
  310000    1.1150067   -3.6268587    281.23297  0.075600259  0.078421447            1 
  311000     1.110927   -3.6093877    282.84977  0.075790398  0.078379499            5 
  312000    1.1059309   -3.6420967    283.21652  0.075645438  0.078337993            3 
  313000    1.1272444   -3.6351796    283.41709  0.075457159  0.078297876            2 
  314000    1.1221377   -3.5999709    284.67204  0.075549904  0.078259067            2 
  315000    1.1245951   -3.6305771    285.52381  0.075535399  0.078216598            2 
  316000    1.1392392   -3.6340901    285.58167   0.07531162  0.078176358            3 
  317000    1.1265725   -3.6338515    286.92764  0.075427876   0.07813354            2 
  318000    1.1363365   -3.6441887    287.36153  0.075304385  0.078092645            4 
  319000    1.1120408   -3.6246052    288.29205  0.075311404  0.078052375            2 
  320000    1.1163898   -3.6491716    288.08715  0.075022695  0.078010238            3 
  321000    1.1244485   -3.6660127    289.57071   0.07517412   0.07796716            3 
  322000    1.1340019   -3.6088905    291.55362  0.075453836  0.077924488            2 
  323000    1.1113115   -3.6204849     291.8028  0.075284521  0.077883579            2 
  324000    1.1584876     -3.61803    292.46195  0.075221694  0.077841177            2 
  325000    1.1456038   -3.6294306    292.90747  0.075104481    0.0777998            2 
  326000    1.0974576   -3.6518175    293.87454  0.075121305  0.077758489            4 
  327000    1.1070228   -3.5752821     295.3388  0.075264729  0.077719698            1 
  328000    1.0973946   -3.6297239    295.31509  0.075029241  0.077680576            2 
  329000    1.1281235    -3.638302    295.34591  0.074808995  0.077641131            2 
  330000    1.1016392   -3.6110236    298.78759   0.07545141  0.077603666            1 
  331000    1.1090066   -3.6241803    297.79158  0.074972703  0.077567462            1 
  332000    1.1022964   -3.6289318    299.85218  0.075264101  0.077532703            3 
  333000     1.113901   -3.6335417    300.32915  0.075157445  0.077497184            2 
  334000    1.1224479   -3.6329337    302.45508  0.075462844  0.077464256            1 
  335000    1.1283707    -3.639163    302.89016  0.075345811  0.077434189            1 
  336000    1.0873864   -3.6611505    302.68289  0.075070162  0.077400358            3 
  337000    1.1041119   -3.6142693    304.85405  0.075384286  0.077367023            2 
  338000    1.1037556   -3.6349715    303.73491  0.074885334  0.077330698            3 
  339000    1.1312714   -3.6414323    304.67399  0.074895278  0.077294494            2 
  340000    1.1153924   -3.6209103    306.22997  0.075056366  0.077256307            2 
  341000    1.0900751   -3.6380741    305.55691  0.074671777  0.077216892            3 
  342000    1.1080047   -3.6384122    307.40369  0.074903434  0.077181328            3 
  343000    1.1298696   -3.6467544    308.58999  0.074973273  0.077146168            1 
  344000    1.1015995   -3.6618561     308.2757  0.074679192  0.077110802            4 
  345000    1.1055613   -3.6359778    311.39782  0.075216864  0.077077329            2 
  346000     1.116013   -3.6329799     310.9368  0.074888438  0.077041024            4 
  347000    1.0806729   -3.6436903     312.2746    0.0749939  0.077007924            1 
  348000    1.1121712   -3.6307941    311.81708   0.07466884  0.076971863            2 
  349000    1.1286951   -3.6736309    311.35522  0.074344607  0.076938498            2 
  350000    1.1315871   -3.6293168    314.05909  0.074775973  0.076902379            2 
  351000    1.1011035   -3.6524022    315.59315  0.074927147  0.076868951            2 
  352000    1.1088313   -3.6514602    314.59468  0.074477907  0.076834213            1 
  353000     1.113133   -3.6593302    316.44991   0.07470489  0.076799894            3 
  354000    1.1300492   -3.6532956    315.32227  0.074228406  0.076763769            2 
  355000    1.1078014   -3.6668706     317.7261  0.074583592  0.076729506            3 
  356000    1.0930223   -3.6588891     318.5315  0.074562617  0.076693728            2 
  357000    1.1237836   -3.6561106     318.9093  0.074441947  0.076656366            2 
  358000    1.1135431   -3.6848665    318.82262  0.074213832   0.07661801            1 
  359000    1.1417206   -3.6206889     320.2632  0.074341503  0.076582118            2 
  360000    1.1160193   -3.6529927    320.98439  0.074301943  0.076546971            2 
  361000    1.1036505   -3.6617026    322.02411  0.074336129   0.07651293            3 
  362000    1.1209132   -3.6082725    322.81341  0.074312478  0.076477278            2 
  363000    1.1017541   -3.6758839    322.74299  0.074091595  0.076442202            3 
  364000    1.1232494   -3.6321575    324.10819  0.074200592  0.076404259            2 
  365000    1.1023477   -3.6650397    325.49305  0.074313483  0.076369312            2 
  366000    1.0953811   -3.6596386    326.42929  0.074323609  0.076335507            2 
  367000     1.103471   -3.6393806    328.46359  0.074583014  0.076300919            3 
  368000    1.1059714   -3.6647621    326.58008  0.073953822  0.076263896            1 
  369000    1.1050698   -3.6249608    328.68245  0.074228195  0.076225947            6 
  370000    1.1082813   -3.6693246    327.41053   0.07374111  0.076187838            3 
  371000    1.1127315   -3.6438298    329.08405  0.073918249  0.076148128            2 
  372000    1.0727634   -3.6631432    327.50333  0.073365441  0.076106919            4 
  373000    1.1082155   -3.6779622    329.38484  0.073589107  0.076064556            3 
  374000    1.1104808   -3.6832176    330.34916   0.07360721  0.076020747            1 
  375000    1.1039542   -3.6120992    331.37286  0.073638414  0.075979433            3 
  376000    1.1061041   -3.6363295     333.0192  0.073807447  0.075937935            7 
  377000    1.1108182   -3.6639597    333.42219  0.073700749  0.075899272            2 
  378000    1.1220207   -3.6419442    334.47262  0.073737349  0.075861286            4 
  379000      1.10145   -3.6666579    335.65775  0.073803375  0.075823946            2 
  380000    1.1079018   -3.6627336    335.70204  0.073618867  0.075783868            3 
  381000    1.0999525   -3.6473885     338.9401  0.074133879  0.075744612            3 
  382000    1.1159685   -3.6481084    336.10428  0.073321178  0.075704454            2 
  383000    1.1275167   -3.6586114    337.71493  0.073480185  0.075664588            3 
  384000     1.093449   -3.6545431    337.43437  0.073227945  0.075624434            3 
  385000     1.123539    -3.664312     339.5675   0.07349946  0.075585286            2 
  386000     1.112024   -3.6775718    338.66437  0.073114069  0.075544026            2 
  387000    1.1228346   -3.6409163    339.28501  0.073058788  0.075503745            2 
  388000    1.0778075   -3.6732182     341.8806  0.073427963  0.075465799            1 
  389000    1.0942993   -3.6755089    342.53317  0.073379001  0.075427629            2 
  390000    1.0813518   -3.6743916    342.09491  0.073097203  0.075389428            1 
  391000    1.0816026   -3.6893663    343.87109  0.073288809  0.075351046            2 
  392000    1.0789035   -3.6593646    344.21589  0.073175147  0.075311605            2 
  393000    1.0897968   -3.6551368    345.81051  0.073327081  0.075272394            1 
  394000    1.1003845   -3.6616283     343.9475  0.072746933  0.075233933            2 
  395000    1.0878137   -3.6699467    346.51876  0.073105223  0.075196255            2 
  396000     1.100256   -3.6737609    348.38905  0.073314195  0.075158849            2 
  397000    1.0951595   -3.6422628     348.5207  0.073157158  0.075119453            4 
  398000    1.1084315   -3.6391423    348.97752  0.073068996  0.075081282            3 
  399000    1.0999865   -3.6608429    349.95169  0.073089326   0.07504302            3 
  400000    1.1163074   -3.6725476    350.76685  0.073076427   0.07500503            3 
  401000    1.1083772   -3.6994284     349.0515  0.072537717  0.074967152            1 
  402000    1.0732068   -3.6676705     352.5615  0.073084888  0.074926155            3 
  403000    1.0970008   -3.7036872     352.5012  0.072891068  0.074885899            2 
  404000    1.0919151   -3.6924669    354.32294  0.073086415  0.074846812            2 
  405000     1.069888   -3.6788523    354.94468  0.073033885  0.074809796            2 
  406000    1.0929369    -3.673994    354.73733  0.072811439     0.074771            3 
  407000    1.1001675   -3.6904488    355.26355  0.072740285  0.074733131            3 
  408000    1.0834928   -3.6631627    357.05091  0.072927065  0.074696538            3 
  409000    1.0723097   -3.6934185     357.2093  0.072781031  0.074662448            2 
  410000    1.0901898   -3.6701192    359.42226  0.073053304  0.074627685            2 
  411000    1.0682851   -3.7111762    358.38641  0.072665533   0.07459255            2 
  412000    1.0825174   -3.6605376    359.88481  0.072792235  0.074556765            1 
  413000    1.0812875   -3.6934975    359.97183   0.07263354   0.07452016            2 
  414000    1.0824068   -3.6901634    360.74598  0.072613926  0.074483801            2 
  415000    1.0818473   -3.6684625    360.00901  0.072290965  0.074447364            1 
  416000    1.0656184   -3.6828335    363.41278  0.072799034  0.074410743            1 
  417000    1.1085314   -3.6887869    363.66708  0.072675276  0.074375455            3 
  418000    1.1086915   -3.6898642    364.47156  0.072661793  0.074339541            2 
  419000    1.0770052   -3.6717267    364.96351  0.072586219  0.074303142            4 
  420000    1.0988676   -3.6813372    366.61393  0.072740859  0.074268458            2 
  421000    1.0644301   -3.6835329     365.6885  0.072384896  0.074232813            3 
  422000    1.0921122   -3.6879841    368.04453   0.07267862  0.074199058            2 
  423000    1.1110778   -3.6884705    367.27389  0.072354983  0.074165158            2 
  424000    1.0849772   -3.6626669    368.68861  0.072462385  0.074131484            2 
  425000     1.056333   -3.6790719     370.9581  0.072736882  0.074098642            2 
  426000    1.0990979   -3.6755393     371.1113  0.072596107  0.074064903            4 
  427000    1.0798551   -3.7202182    369.38046  0.072088302  0.074032215            3 
  428000    1.0784897   -3.6907892     370.9224  0.072220093  0.073998062            2 
  429000    1.0868401   -3.6870926    372.70083  0.072397209  0.073962133            2 
  430000    1.0807539   -3.7063134     371.4962  0.071995387  0.073926797            1 
  431000    1.0770863   -3.6994832    373.24097  0.072165693  0.073890398            1 
  432000    1.0894655   -3.7170587    375.30918  0.072397604  0.073855732            2 
  433000    1.0793954   -3.6671561    376.69114  0.072496369  0.073824244            1 
  434000    1.0656828     -3.65581    377.42307  0.072469866  0.073791049            1 
  435000    1.0926794   -3.6991712    376.17978  0.072065092  0.073758864            4 
  436000    1.0714591   -3.6862098    376.99809  0.072056209  0.073725289            2 
  437000    1.0755446    -3.699509    379.64461  0.072395998  0.073692093            3 
  438000    1.0658041   -3.6948984     378.7133   0.07205352  0.073661378            1 
  439000    1.0814271   -3.7139938    380.23568  0.072178375  0.073630093            9 
  440000    1.0866772   -3.6916107    382.35077  0.072414918  0.073600725            2 
  441000    1.1079065   -3.6848585    383.05354   0.07238351  0.073569687            2 
  442000    1.0861454   -3.7110222    382.73521   0.07215973  0.073541515            4 
  443000    1.0864558   -3.7176625    384.26112  0.072283882  0.073511984            4 
  444000    1.0652615   -3.7108293    384.50232  0.072166351  0.073482683            3 
  445000    1.0731429   -3.7222939    387.07442  0.072485846  0.073452844            3 
  446000    1.0558089   -3.7060147    385.08026  0.071950722  0.073424436            3 
  447000    1.0618839   -3.7213078    386.05161  0.071970844  0.073395814            3 
  448000    1.0666536   -3.6792208    389.48262  0.072448405  0.073368442            2 
  449000    1.0774097   -3.6961742    389.71405  0.072330002  0.073341174            2 
  450000    1.0608752   -3.7337928    389.39822  0.072110781  0.073313849            7 
  451000    1.0741097   -3.6981317    389.86207  0.072036599  0.073284879            3 
  452000    1.0878089   -3.7169936      388.982   0.07171497  0.073254571            1 
  453000    1.0797523   -3.7191467    390.17247  0.071775657   0.07322327            3 
  454000     1.070557   -3.7063623    391.53896  0.071868385  0.073192033            5 
  455000    1.0622871   -3.6928014    394.44513  0.072242697  0.073162779            4 
  456000    1.0854404    -3.704611     394.6782  0.072126864  0.073134844            3 
  457000    1.0928919   -3.7171239    395.30092  0.072082589  0.073105888            4 
  458000    1.0961192   -3.6970192    394.48763  0.071777225  0.073076787            3 
  459000    1.0671718   -3.7167152    395.43476  0.071792804  0.073046843            3 
  460000    1.0840278   -3.7162393    397.04816  0.071929014  0.073016545            3 
  461000    1.0502342    -3.711507    397.97569  0.071940653  0.072987302            3 
  462000    1.0807636   -3.6961352     396.9773  0.071604851  0.072955518            2 
  463000     1.076715   -3.7338045    397.07583  0.071467932  0.072925027            3 
  464000    1.0783393   -3.6982641    397.74754  0.071434545  0.072892413            2 
  465000    1.0429795   -3.7128183    400.16754  0.071714612  0.072860299            3 
  466000    1.0575744   -3.7054248    400.36808  0.071596581  0.072825929            2 
  467000    1.0698862   -3.7236605    400.56984  0.071479271  0.072794033            3 
  468000    1.0741763   -3.7100247     401.0545  0.071412838  0.072760257            1 
  469000    1.0856561   -3.7057276    402.21568  0.071466894  0.072726588            5 
  470000    1.0598162   -3.7029398    402.30693  0.071331017  0.072694595            2 
  471000    1.0973505   -3.7121175    403.30221  0.071355663  0.072661193            1 
  472000    1.0706098   -3.7335432    403.30982  0.071205831  0.072628352            7 
  473000    1.0696966   -3.7347214    404.24445  0.071219953   0.07259516            1 
  474000    1.0374234   -3.7386904    404.57946  0.071128597  0.072562155            3 
  475000    1.0719699   -3.7039338    405.82016  0.071196518   0.07252866            2 
  476000    1.0582156   -3.7542389    405.42944  0.070978543  0.072495468            4 
  477000    1.0392923   -3.7202974    407.29023  0.071154827  0.072463738            4 
  478000    1.0679272   -3.6992417    408.13036  0.071152434  0.072432546            2 
  479000    1.0496686    -3.734181    410.28041  0.071377942  0.072399788            2 
  480000    1.0666349   -3.7156759    409.97015  0.071175373  0.072368028            2 
  481000    1.0633157   -3.7506064       411.77  0.071339224  0.072334926            2 
  482000    1.0811333    -3.718488    410.72003  0.071009687   0.07230241            3 
  483000    1.0507856   -3.7109061    412.18084  0.071114707  0.072269072            2 
  484000    1.0617489    -3.713516    410.97769  0.070760622  0.072237415            5 
  485000    1.0682017   -3.7299877    412.23285  0.070830387  0.072205564            1 
  486000    1.0735737   -3.7491908    413.94978  0.070979043   0.07217469            3 
  487000    1.0621755   -3.7312499    415.14523  0.071037856  0.072142213            1 
  488000    1.0789026   -3.7037708    415.04423  0.070875039   0.07210962            2 
  489000    1.0558861    -3.735915    417.35231  0.071123434  0.072077534            2 
  490000     1.057432   -3.7219653     416.7067  0.070868487  0.072046113            3 
  491000    1.0704126   -3.7273497    417.58837  0.070873789  0.072015515            8 
  492000    1.0325275   -3.7114462    418.50764   0.07088544  0.071984371            3 
  493000    1.0748414   -3.7153889    418.99064    0.0708233  0.071953182            2 
  494000    1.0422579   -3.7637147    418.71339  0.070633163  0.071922137            2 
  495000    1.0638842   -3.7085609     419.7671  0.070667862  0.071890581            2 
  496000    1.0535792   -3.6879805    422.23409  0.070939867  0.071860662            4 
  497000    1.0586986   -3.7396488    422.89519  0.070907979  0.071831208            3 
  498000    1.0518441   -3.7452356    421.65422  0.070557935   0.07180112            4 
  499000    1.0599744   -3.7190956    423.63452  0.070747248   0.07177158            2 
  500000    1.0448215   -3.7494752    424.25593  0.070709322  0.071742267            6 
  501000    1.0312547   -3.7246928    423.32121   0.07041271  0.071713225            3 
  502000    1.0688962   -3.7615025    423.34685  0.070276701  0.071681403            1 
  503000    1.0480696   -3.7384011    424.69505  0.070360347  0.071649242            1 
  504000    1.0536845    -3.727572    425.39835  0.070337029  0.071617721            7 
  505000    1.0611707   -3.7301145    428.25141  0.070668549  0.071585709            2 
  506000    1.0665782    -3.736875    427.31789  0.070375147  0.071554535            2 
  507000     1.060823   -3.7070466     429.1581  0.070538807  0.071523078            1 
  508000    1.0630925   -3.7161296    429.82401  0.070509188  0.071490984            2 
  509000    1.0463783   -3.7188017    427.68479   0.07002043   0.07145754            2 
  510000    1.0417528   -3.7647593    427.53708     0.069859  0.071423673            4 
  511000    1.0438541   -3.6788491    430.62777  0.070226316  0.071388579            3 
  512000    1.0659945   -3.7589814    428.86373  0.069802039   0.07135402            3 
  513000    1.0648852   -3.7656449    430.31542   0.06990179  0.071317919            3 
  514000    1.0364278   -3.7638573    429.27477  0.069597076  0.071281631            3 
  515000    1.0384205   -3.7402431    431.68308  0.069851631  0.071246124            1 
  516000    1.0530214   -3.7563422    431.65938  0.069712433  0.071210847            2 
  517000    1.0377138   -3.7461929    433.02355  0.069797478  0.071175909            1 
  518000    1.0363136   -3.7557922    431.83396  0.069471357  0.071140122            3 
  519000    1.0341203   -3.7380882    435.72887  0.069962889  0.071104642            4 
  520000    1.0352693   -3.7089043    436.15914  0.069897297  0.071069738            6 
  521000     1.053806   -3.7449891    436.80349  0.069866202  0.071036411            2 
  522000    1.0240246   -3.7311185       436.23  0.069640804  0.071002253            2 
  523000    1.0373661   -3.7245727    435.79987  0.069439113  0.070967574            2 
  524000    1.0361581   -3.7577105    437.73772  0.069614777   0.07093427            2 
  525000    1.0324038   -3.7576557     440.5767   0.06993281  0.070901008            3 
  526000     1.031981   -3.7385263    441.00271  0.069867349  0.070867992            5 
  527000    1.0524246   -3.7345114    438.67011  0.069365925  0.070834908            3 
  528000    1.0504741    -3.766027    440.93625  0.069592211  0.070801957            3 
  529000    1.0437571   -3.7241143    441.56958  0.069560425  0.070770008            1 
  530000     1.048141   -3.7691255    442.61797   0.06959402  0.070736987            2 
  531000    1.0503668   -3.7668483    444.59337  0.069772971  0.070703919            2 
  532000      1.01288   -3.7371678    446.62794  0.069960517  0.070672948            3 
  533000    1.0276601    -3.777762    445.59478  0.069667727  0.070640664            3 
  534000     1.048244   -3.7478361    445.85156  0.069577335    0.0706086            2 
  535000    1.0393662   -3.7696509    446.79176  0.069593731  0.070578294            3 
  536000    1.0249138   -3.7486646    447.24815  0.069534849  0.070546614            3 
  537000    1.0277593    -3.728401     447.2076  0.069399068  0.070515429            1 
  538000    1.0314254   -3.7390578    448.97026  0.069543101  0.070485226            2 
  539000    1.0320776   -3.7535326    449.07054  0.069429583  0.070454314            2 
  540000    1.0268381    -3.731825    449.18025  0.069317939  0.070423368            2 
  541000    1.0287771   -3.7727309    450.28257  0.069359607  0.070392629            4 
  542000    1.0281907   -3.7576503    452.53407  0.069577808  0.070361304            2 
  543000     1.023853   -3.7722845    450.91566  0.069201299  0.070329835            7 
  544000    1.0274758   -3.7864639    453.14166  0.069415082  0.070299554            5 
  545000    1.0196805   -3.7652692    454.04617  0.069426019  0.070269755            3 
  546000    1.0491404   -3.7766204    454.23487  0.069327666  0.070240105            3 
  547000    1.0516523   -3.7542621    456.86611  0.069601784  0.070211093            3 
  548000    1.0210751   -3.7348998    457.53911  0.069577116   0.07018368            2 
  549000    1.0233807   -3.7295582    458.56356  0.069605884  0.070153629            2 
  550000    1.0462559   -3.7691584    456.22296  0.069124691  0.070124396            1 
  551000    1.0422621   -3.7628641    458.27162  0.069309077  0.070097044            1 
  552000    1.0429232   -3.7692602    458.96627  0.069288386  0.070068476            3 
  553000    1.0195114   -3.7462071    459.61726  0.069261191  0.070038488            4 
  554000    1.0590665   -3.7766052    461.96781  0.069489742  0.070011314            2 
  555000    1.0511357   -3.7901293     463.1361  0.069539955  0.069983397            6 
  556000    1.0338445   -3.7655679     460.4563  0.069013234  0.069955738            1 
  557000    1.0131563   -3.7562102    462.43242  0.069184982  0.069927578            3 
  558000    1.0288882   -3.7746413    463.04016  0.069151757   0.06990055            3 
  559000    1.0165155   -3.7907394    464.72099  0.069278622  0.069875119            2 
  560000    1.0216761   -3.7829792    466.24364  0.069381494  0.069849725            3 
  561000    1.0326893   -3.7630611    467.42043  0.069432625  0.069824374            2 
  562000     1.054627   -3.7967074    468.07369  0.069405944  0.069801514            2 
  563000    1.0445805   -3.7698881    469.34967  0.069471531  0.069778203            2 
  564000    1.0214328    -3.786791    469.95158   0.06943729   0.06975432            3 
  565000     1.029227   -3.7729276    469.60165   0.06926278  0.069730473            3 
  566000    1.0482002   -3.7755806    470.61619  0.069289781  0.069705563            5 
  567000    1.0244204   -3.7929724    471.55236  0.069305167  0.069680792            5 
  568000    1.0283111   -3.7899019    471.46641  0.069170541  0.069655573            3 
  569000    1.0064884   -3.7950939     471.9469  0.069119347  0.069630342            6 
  570000    1.0459808   -3.7950233    471.26167  0.068897904   0.06960399            3 
  571000    1.0018729   -3.7617061    473.73877  0.069138759  0.069579048            3 
  572000    1.0201537   -3.8055785    473.45995  0.068977265   0.06955281            3 
  573000    1.0355764   -3.7615227    476.00473  0.069226983  0.069527272            1 
  574000    1.0302808     -3.78138     475.4038  0.069019135  0.069501571            5 
  575000    1.0252898    -3.781804    475.79695  0.068956079  0.069474354            6 
  576000    1.0379464   -3.7911412    475.88153    0.0688486  0.069447531            3 
  577000    1.0257028   -3.7808765    477.19849  0.068919482  0.069421383            3 
  578000    1.0221843   -3.7593795    477.11549  0.068788277   0.06939618            2 
  579000    1.0503348   -3.7770824    478.13143  0.068815692  0.069369809            2 
  580000    1.0095579   -3.7601742    481.04482  0.069115634  0.069344645            2 
  581000    1.0323696   -3.7818204    479.54447  0.068781479  0.069320011            3 
  582000    1.0286384   -3.7704432    481.76336  0.068981008  0.069294853            1 
  583000    1.0124421   -3.7505694    482.69264  0.068995517  0.069270781            4 
  584000    1.0131861   -3.7855654    480.32067  0.068538908  0.069245741            2 
  585000    1.0325727   -3.8145569    480.90702  0.068505273   0.06922012            6 
  586000    1.0143855    -3.774936    484.20925   0.06885797  0.069194735            5 
  587000    1.0293371   -3.7857433    486.24183   0.06902922  0.069169934            3 
  588000    1.0454271   -3.7616965    486.69599  0.068976189  0.069144826            1 
  589000    1.0232412   -3.7819305    486.20049  0.068788977  0.069119982            5 
  590000   0.99506219   -3.7807941    484.67773  0.068457307  0.069094591            2 
  591000    1.0163181    -3.776338    487.23171  0.068701594  0.069068556            3 
  592000      1.01805   -3.8007863    487.36386  0.068604147  0.069044006            5 
  593000   0.99643483   -3.7682234    488.81171  0.068691921  0.069019208            3 
  594000    0.9998954   -3.8002217    488.95363  0.068596188  0.068994386            3 
  595000    1.0423939   -3.7914106    489.28083  0.068526727  0.068968969            4 
  596000   0.98442724   -3.7873312    489.53383  0.068447123   0.06894205            2 
  597000    1.0270122   -3.8008944    488.20473  0.068146948  0.068915577            1 
  598000       1.0176   -3.7882802    490.95247  0.068415896   0.06888969            6 
  599000    1.0108945   -3.7874795    491.70857  0.068406868  0.068863861            1 
  600000    1.0255868    -3.791777    491.73416  0.068296411  0.068838028            6 
  601000    1.0094398   -3.7594786     493.1611   0.06838063  0.068812575            2 
  602000    1.0134992   -3.7880746    493.91924  0.068371988   0.06878718            2 
  603000    1.0029186    -3.792509    494.91094  0.068395652  0.068761068            3 
  604000   0.99530981   -3.8141918    494.23679  0.068189403  0.068734903            1 
  605000     1.009521   -3.7878981    495.66153  0.068272938  0.068708981            2 
  606000    1.0214736   -3.7699752    495.46837  0.068133714  0.068682945            2 
  607000    1.0192935   -3.7857966    496.31556  0.068137775  0.068657989            4 
  608000    1.0422769   -3.8339455    498.52919  0.068329111  0.068633638            4 
  609000   0.99487145   -3.7835646     498.5142   0.06821486  0.068608946            2 
  610000    1.0145463   -3.8052757    499.81535  0.068280785  0.068583575            4 
  611000   0.99983056    -3.796272    501.41365  0.068387022  0.068558636            3 
  612000    1.0117863   -3.8138094    502.14152  0.068374389  0.068535189            1 
  613000    1.0201577   -3.7880269    504.14875  0.068535719  0.068512301            2 
  614000    1.0233826   -3.8171763    502.76397  0.068236152  0.068488325            3 
  615000   0.99540928   -3.7960409    502.78717  0.068128342  0.068463975            3 
  616000    1.0424882   -3.8282293    502.49265  0.067977902  0.068439366            3 
  617000    1.0115239   -3.8277065    503.82711  0.068047962  0.068414391            3 
  618000   0.99810567   -3.7837223    503.77321  0.067930584  0.068390301            2 
  619000    1.0422687   -3.7791252    506.10654  0.068134968  0.068365164            3 
  620000    1.0033196   -3.7982742    506.68099  0.068102284  0.068340578            3 
  621000    1.0086755   -3.7981393    510.33926  0.068483529  0.068316422            3 
  622000    1.0052922   -3.8013865    507.09802  0.067939177  0.068293346            6 
  623000    1.0125973   -3.8285074     509.8404  0.068196951  0.068271175            4 
  624000   0.99819738   -3.8175422    509.33502  0.068020168  0.068247486            1 
  625000    1.0159164   -3.7731292    510.14569  0.068019425  0.068224164            3 
  626000   0.98811495   -3.8170531    510.21561  0.067920076  0.068200489            4 
  627000    1.0032988   -3.8342403    511.47708   0.06797941  0.068177051            2 
  628000    1.0105163     -3.83356    511.30352  0.067848131  0.068153263            2 
  629000    1.0082263   -3.7958655    511.01886  0.067702551  0.068128389            2 
  630000   0.99928953   -3.8009539    512.71245  0.067819108  0.068103923            9 
  631000    1.0143665   -3.7986843    515.02731  0.068017341  0.068078633            1 
  632000    1.0091221   -3.8138592    512.81698  0.067618273  0.068054397            2 
  633000    0.9971948   -3.8270873    511.58221  0.067348895  0.068029721            2 
  634000   0.99392151    -3.812117    514.56404  0.067634601  0.068004287            2 
  635000    1.0372262   -3.8002849    517.95868  0.067973581  0.067979682            2 
  636000   0.98176321    -3.818439    515.73033  0.067574729  0.067954841            5 
  637000    1.0283061   -3.8234024    516.34594  0.067549181  0.067929581            3 
  638000   0.97397404   -3.8133795    518.47651  0.067721592  0.067904406            3 
  639000    1.0172634   -3.8458887    516.81913  0.067399469  0.067878677            8 
  640000    1.0125049   -3.7903271    520.85689  0.067819907  0.067853687            2 
  641000    1.0058953   -3.8375162    517.95955  0.067337435   0.06782888            3 
  642000   0.99384574   -3.8222933    519.67776  0.067455576  0.067803795            2 
  643000   0.97650032    -3.813865    519.19617  0.067288254  0.067778164            4 
  644000    1.0008987   -3.8132285    520.58837   0.06736392  0.067752777            2 
  645000    1.0097072   -3.8203617    521.54773  0.067383427  0.067727757            3 
  646000    1.0175216   -3.8290079    522.27337  0.067372726  0.067702613            4 
  647000     1.001754   -3.8299959    522.94033  0.067354499  0.067677391            1 
  648000     1.014031    -3.838603    524.53661  0.067455839  0.067651787            2 
  649000   0.99368013   -3.7906878    525.38039  0.067460245  0.067627312            3 
  650000   0.98061888   -3.8095583    524.16619  0.067200794  0.067602112            3 
  651000    1.0266412   -3.8030321    524.00133  0.067076463  0.067576598            2 
  652000    1.0114613   -3.8366923    525.12876  0.067117683  0.067550341            3 
  653000   0.98478227   -3.8551198    523.96505  0.066866392  0.067523462            2 
  654000   0.99906826   -3.8277245    526.03311  0.067027664  0.067496396            3 
  655000   0.98529553   -3.8161715    525.49988  0.066857491  0.067470045            4 
  656000   0.99623599   -3.8265018    526.26247  0.066852448  0.067442551            3 
  657000   0.99912707   -3.7949126    528.15988   0.06699136   0.06741496            3 
  658000   0.98456447   -3.8507029     527.2003  0.066768022  0.067387897            7 
  659000    1.0135091   -3.8341615    528.70286   0.06685671  0.067360293            5 
  660000   0.98868395   -3.8452007    530.52122  0.066985003   0.06733317            1 
  661000   0.97338473   -3.8592364    528.94129  0.066684479   0.06730608            3 
  662000   0.98946342   -3.8433172    528.08417  0.066475852  0.067278433            3 
  663000    0.9858479   -3.8259454     530.1541  0.066635759  0.067251515            3 
  664000   0.99768428   -3.8392272    531.82753  0.066745423  0.067225333            7 
  665000   0.96029276   -3.8328144    532.03448  0.066670987  0.067199677            2 
  666000   0.98454915   -3.8287648    533.48424  0.066752282  0.067173196            3 
  667000    1.0018629   -3.8242517    536.37237   0.06701304  0.067146779            2 
  668000    0.9773229   -3.8483864    533.62746  0.066570292  0.067119528            3 
  669000    1.0042392   -3.8019321    533.27588  0.066426991  0.067093148            2 
  670000   0.97727615   -3.8508295    533.76656  0.066388876  0.067065375            3 
  671000   0.98990191   -3.8322649    535.08405  0.066453558  0.067037016            2 
  672000   0.99120823   -3.8580981    536.12677  0.066483975  0.067009639            4 
  673000    1.0025613   -3.8547782    535.93048  0.066360882   0.06698132            3 
  674000   0.99859003    -3.866187    536.58872  0.066343808  0.066953562            3 
  675000    1.0106439   -3.8397017    537.96638  0.066415602  0.066925617            1 
  676000   0.98243627   -3.8348924    538.83913  0.066424942   0.06689792            4 
  677000   0.96787459   -3.8765917    538.88174  0.066332071   0.06686953            5 
  678000   0.98061359   -3.8448958    539.21075  0.066274674  0.066842229            2 
  679000   0.98293022   -3.8202327    540.55878  0.066342512  0.066814654            8 
  680000   0.98096765   -3.8054651    541.04185  0.066304149  0.066786264            6 
  681000   0.96905626   -3.8690824    537.17451  0.065733542  0.066757423            2 
  682000   0.98394472   -3.8368874    540.19548   0.06600629  0.066728006            4 
  683000   0.97678048   -3.8507075    542.12514  0.066145088  0.066698831            3 
  684000   0.97394527   -3.8316786    542.62192  0.066108908  0.066670234            3 
  685000    0.9791741    -3.827507    545.49716  0.066362185   0.06664197            3 
  686000   0.97286795   -3.8442194    542.86031   0.06594513  0.066613293            2 
  687000   0.96528687    -3.882226     543.1886  0.065888961   0.06658424            3 
  688000   0.98060503   -3.8443713    544.31876  0.065930083  0.066555503            3 
  689000   0.98797065   -3.8344867    541.93097  0.065545594  0.066526304            2 
  690000    0.9761357   -3.8375815    546.26937  0.065974561  0.066497989            4 
  691000   0.97988089   -3.8532951    545.51694  0.065788343  0.066468841            2 
  692000   0.99119831   -3.8382462    545.62858  0.065706718  0.066439903            2 
  693000    0.9782758   -3.8325626    544.89888  0.065524156   0.06641065            3 
  694000   0.97654155   -3.8491454    545.92835  0.065553356  0.066380056            4 
  695000   0.99651936   -3.8388327    547.68666  0.065669864   0.06635038            3 
  696000   0.96918341   -3.8447966    545.50028  0.065313731  0.066320269            3 
  697000   0.97505537   -3.8805156    547.07538  0.065408343  0.066290001            3 
  698000   0.99866122   -3.8562166    547.67584  0.065386323  0.066259092            2 
  699000      0.96903   -3.8725563     547.3677  0.065256044  0.066228549            2 
  700000   0.98398101   -3.8652037    548.47938  0.065295164  0.066197489            2 
  701000   0.95485153   -3.8717152    548.87676  0.065249258  0.066165864            3 
  702000   0.98611158   -3.8541132    547.13745   0.06494984  0.066134934            4 
  703000   0.93480654   -3.8888605    545.84892  0.064704708  0.066102052            6 
  704000   0.97765635   -3.8705507     548.8573  0.064968904  0.066069461            3 
  705000   0.98248648   -3.8553699     549.6176  0.064966619  0.066036819            4 
  706000   0.97879278   -3.8671273    549.29873  0.064836961  0.066003844            5 
  707000   0.94717921   -3.8655164    551.53589  0.065008945  0.065971665            3 
  708000   0.96260231   -3.8662506     551.1842  0.064875729  0.065938823            3 
  709000    0.9881249   -3.8750521    550.89754  0.064750534  0.065905854            3 
  710000   0.96319843   -3.8598811    552.63019  0.064862698  0.065874081            2 
  711000   0.96986833   -3.8319194    553.93272  0.064924135  0.065841264            2 
  712000   0.97395125   -3.8586497     550.2723   0.06440453   0.06580752            2 
  713000     0.952809   -3.8837959    553.53242  0.064695234  0.065773335            3 
  714000   0.96501324   -3.8636886    550.77875  0.064283234  0.065738926            7 
  715000    0.9805921   -3.8825239    553.42227   0.06450143  0.065703789            4 
  716000   0.97060443   -3.8749454    553.30999  0.064398276   0.06566931            2 
  717000   0.96645997   -3.8730256    554.25853  0.064418704  0.065634553            2 
  718000   0.95987103   -3.8512943    556.37133  0.064574202   0.06560026            3 
  719000    0.9625891   -3.8900137    555.21078  0.064349881   0.06556588            6 
  720000   0.96643326   -3.8777907    554.08179  0.064129836  0.065530736            5 
  721000   0.94795355   -3.8826854    556.83702  0.064359341  0.065496897            4 
  722000   0.96502139    -3.894127    553.96157  0.063938316  0.065462796            4 
  723000   0.96415237   -3.8693193    559.31199  0.064466573   0.06542889            4 
  724000   0.96290321   -3.8858957    559.47049  0.064395775  0.065395372            3 
  725000   0.95872702   -3.8701054    559.50331  0.064310725  0.065362937            5 
  726000   0.96113276   -3.8574973    562.73142  0.064592679   0.06533011            3 
  727000   0.95949354   -3.8824467    561.59778  0.064373886  0.065298064            2 
  728000   0.95084624   -3.8735202    561.09246  0.064227617   0.06526558            3 
  729000    0.9668362    -3.871009    562.37116  0.064285684  0.065232874            4 
  730000   0.98168346   -3.8864509    563.40404  0.064315529  0.065200773            2 
  731000   0.94629702   -3.8772762    564.17451  0.064315379  0.065168896            3 
  732000   0.97692933   -3.8988786    564.08595  0.064217435  0.065137448            9 
  733000   0.94695245   -3.8717424    563.66125  0.064081543  0.065106215            4 
  734000   0.96300102   -3.8909014    563.99958   0.06403265  0.065075659            4 
  735000   0.96685569   -3.8657929     563.6803  0.063909331  0.065044496            3 
  736000   0.96288826   -3.8855411     567.1639  0.064216927  0.065014123            3 
  737000   0.97058964   -3.8647419    569.46972  0.064390515  0.064983412            4 
  738000    0.9612343   -3.8781326    568.73668  0.064220492   0.06495332            2 
  739000    0.9555037   -3.8651426    570.00581  0.064276704  0.064922839            2 
  740000   0.95313004   -3.8721233     569.9681  0.064185597  0.064892876            2 
  741000   0.96939019   -3.8881634    571.66293  0.064289578  0.064862665            2 
  742000   0.93918007   -3.9116475    569.69307  0.063981702  0.064831586            2 
  743000   0.97122328   -3.8806809    569.95702  0.063925193  0.064801102            3 
  744000   0.95515584   -3.8960542    572.02516  0.064070918  0.064770189           11 
  745000   0.96057036    -3.876678    569.91876  0.063749301  0.064739753            3 
  746000   0.94619655   -3.8935365    570.72582  0.063754001  0.064709191            3 
  747000    0.9370919   -3.8631677    573.73551  0.064004407  0.064678097            2 
  748000   0.98919808   -3.8643722    573.60667  0.063904486  0.064647591            2 
  749000   0.96012235   -3.8818227     574.2739  0.063893402  0.064616872            4 
  750000   0.94989482   -3.8534574    574.20391  0.063800434  0.064586261            2 
  751000   0.95635897   -3.8754481    574.78198  0.063779625  0.064555106            1 
  752000   0.95770621   -3.8816448     576.1696  0.063848582  0.064524756            2 
  753000   0.96863661   -3.8747083    576.44907  0.063794717  0.064493592            3 
  754000   0.96352006   -3.9183425    574.38971  0.063482505  0.064462789            2 
  755000   0.95369886   -3.9037685    574.19572  0.063377011  0.064431727            4 
  756000    0.9766864   -3.9195318      576.616  0.063559965  0.064400584            4 
  757000   0.96335812   -3.9170081    577.91269  0.063618746   0.06436905            3 
  758000   0.94872156   -3.9064026    580.67746   0.06383877  0.064338638            5 
  759000   0.95124793   -3.8925557    578.11046  0.063472821  0.064307679            5 
  760000   0.95335812   -3.9109666    578.52919  0.063435218  0.064276451            3 
  761000   0.95803657   -3.8888484    578.77339  0.063378601  0.064244717            4 
  762000   0.95366554   -3.9138189    576.55143  0.063052431  0.064212784            2 
  763000   0.94040848   -3.8875386    579.19278  0.063258277  0.064181243            2 
  764000   0.94492928   -3.9370927    576.80683   0.06291523  0.064150232            3 
  765000    0.9214975   -3.9122609    580.84779   0.06327318  0.064118653            2 
  766000   0.95751888   -3.8760741     581.0475  0.063212304  0.064087015            2 
  767000   0.92495615   -3.9205603    580.22485  0.063040509  0.064055177            2 
  768000   0.95271942   -3.8932581    580.77024  0.063017605  0.064022853            3 
  769000   0.96415896   -3.9096077    581.18944  0.062981084  0.063990839            3 
  770000   0.94878194   -3.8864688    583.41396  0.063140039  0.063958666            3 
  771000   0.96894968   -3.8880365    584.31738  0.063155791  0.063926662            3 
  772000   0.94949301   -3.9297607    580.94021  0.062709436  0.063894475            4 
  773000   0.95590275   -3.9039811    583.98053  0.062956072  0.063861975            2 
  774000   0.94360589   -3.8884616    585.11032  0.062996374  0.063830099            1 
  775000   0.95627819   -3.9275946    584.67443  0.062868218  0.063797652            4 
  776000    0.9455372   -3.9117465    585.55065  0.062881298  0.063764849            4 
  777000   0.93816178   -3.8995534    584.63421  0.062702081  0.063731994            3 
  778000   0.95282326   -3.9171847    585.53535  0.062718011  0.063699802            1 
  779000   0.92835246   -3.9102733    586.35628  0.062725319  0.063667674            5 
  780000   0.95212057   -3.9289227    587.18184  0.062733103  0.063635295            3 
  781000   0.93959966   -3.8886956    589.57221  0.062907833  0.063603208            3 
  782000   0.93985735   -3.9377744    588.54755  0.062718196  0.063571068            5 
  783000   0.93939736   -3.9196683    588.05486   0.06258566  0.063539407            5 
  784000    0.9226982    -3.891451    589.68083  0.062678659   0.06350869            2 
  785000   0.94608012   -3.9184178    591.35113  0.062776128   0.06347765            3 
  786000    0.9299093   -3.9154408    591.98608  0.062763579  0.063446151            2 
  787000   0.92679627   -3.8941903     594.8894  0.062991254  0.063414829            5 
  788000   0.93870721   -3.8958791    592.70399  0.062680202  0.063383701            4 
  789000   0.92174342   -3.9195588    594.85145  0.062827572  0.063353587            4 
  790000   0.95124546   -3.9198399    592.63674  0.062514424   0.06332337            2 
  791000   0.92987213   -3.9489113    594.82189  0.062665602  0.063292849            3 
  792000   0.93508622   -3.9027952    596.44295  0.062757044  0.063262833            2 
  793000   0.94853653   -3.8955177    597.59116  0.062798567  0.063233153            1 
  794000   0.96192922   -3.9461454    594.63727  0.062409453  0.063202891            4 
  795000   0.92944469    -3.904762    597.43346  0.062624053  0.063171602            2 
  796000    0.9399589   -3.9377991    596.02075  0.062397482  0.063139934            4 
  797000   0.94171802   -3.8833562    596.60492  0.062380272  0.063108564            5 
  798000   0.93700806   -3.9354867    595.20143  0.062155537  0.063077497            3 
  799000   0.91990375   -3.9017575     597.1408  0.062280017  0.063046306            2 
  800000   0.93244636   -3.9138094    597.15785  0.062203943  0.063015423            1 
  801000   0.91448669   -3.9355214    599.25058  0.062344006  0.062984657            3 
  802000   0.91843803   -3.9429592    598.38138  0.062175954  0.062953366            3 
  803000   0.90384877   -3.9080022     601.3258  0.062404089  0.062922904            4 
  804000   0.93713193   -3.9270745    602.37987  0.062435724   0.06289258            6 
  805000   0.92930591   -3.9304484    599.68863  0.062079568  0.062862089            3 
  806000   0.93294099    -3.951749    599.80468  0.062014545  0.062831231            4 
  807000   0.92006838   -3.9247228    603.38266  0.062307172  0.062800705           10 
  808000   0.90673766   -3.9155421    604.38565  0.062333503  0.062770479            2 
  809000   0.93795699    -3.921284    605.51513  0.062372798  0.062740174            2 
  810000   0.93536985   -3.9298645    603.97277  0.062137117  0.062710102            2 
  811000   0.93683751   -3.9398339    604.75127  0.062140492   0.06268042            4 
  812000   0.94513709   -3.9177549    605.44086  0.062134735  0.062651289            5 
  813000   0.94240006    -3.920398    604.55399  0.061967404  0.062621461            2 
  814000   0.90487986   -3.9427123    604.76511   0.06191289  0.062591909            5 
  815000   0.93504654   -3.9372564    605.04322   0.06186536  0.062562527            2 
  816000   0.94039057   -3.9190363    608.04996  0.062096605  0.062533051            5 
  817000   0.91110201   -3.9349427    609.72655   0.06219161   0.06250406            4 
  818000   0.89621971   -3.9408911    607.77956  0.061917233  0.062474997            5 
  819000   0.93373228   -3.9513996    608.29805  0.061894389  0.062445763            2 
  820000   0.92114792   -3.9305827    609.65225   0.06195653  0.062416194            3 
  821000   0.93990561   -3.9517561    608.88438  0.061803124  0.062386967            3 
  822000   0.90734128   -3.9275763    609.92958  0.061833899   0.06235752            5 
  823000   0.93709307   -3.9189408    611.86958  0.061955202  0.062328114            5 
  824000   0.93752793   -3.9576149    611.78419  0.061871378  0.062298712            1 
  825000   0.94063804   -3.9620887    609.06991  0.061522213  0.062268501            3 
  826000   0.90666686   -3.9224234     612.6487  0.061808788  0.062238508            3 
  827000   0.93368673   -3.9271842    610.44406  0.061511896  0.062208428            3 
  828000   0.94411228   -3.9207543    612.06198  0.061600441  0.062178118            2 
  829000   0.91730419   -3.9374203    612.07996  0.061527941  0.062148263            3 
  830000   0.92950328   -3.9021718    614.43038  0.061689797  0.062118454            3 
  831000   0.92771641   -3.9338997    611.10868  0.061282459  0.062088279            5 
  832000     0.923031   -3.9646167    609.79231  0.061076954  0.062057678            6 
  833000   0.92517714   -3.9651267    614.86145  0.061510749  0.062026453            2 
  834000   0.93463619    -3.932258    614.74776  0.061425635  0.061995422            3 
  835000   0.92511379   -3.9312968    613.44059  0.061221616  0.061964867            5 
  836000   0.92775263   -3.9725001     612.4653  0.061051167    0.0619341            6 
  837000   0.91595822   -3.9345405    613.12305  0.061043712  0.061902641            5 
  838000    0.9174856   -3.9203412    614.87886  0.061145471  0.061871359            4 
  839000   0.94653585   -3.9510046    614.14512  0.060999714   0.06183978            3 
  840000   0.92069322   -3.9550017    614.00276  0.060912972  0.061808204            4 
  841000   0.92949134   -3.9418217     614.0648  0.060846691  0.061776384            4 
  842000   0.93886487   -3.9526182    613.90662  0.060758771  0.061744076            5 
  843000   0.92248491   -3.9261742    616.96778  0.060989302  0.061711898            6 
  844000   0.90415263   -3.9687443    615.14359  0.060736927  0.061679502            4 
  845000   0.93783648   -3.9451615    618.90268  0.061035767  0.061647423            4 
  846000   0.92737764   -3.9600245    616.20369  0.060697763  0.061615106            5 
  847000   0.90075269   -3.9380946    618.29832  0.060832185  0.061583243            3 
  848000    0.9101854    -3.954256    616.13448  0.060547807   0.06155114            3 
  849000   0.92122195   -3.9542057    621.49168  0.061002325  0.061519068            3 
  850000   0.89543275    -3.956442    620.04978  0.060789194  0.061487551            3 
  851000     0.905104   -3.9327549    621.94362  0.060903214  0.061455848            2 
  852000   0.91442585   -3.9234497     619.8306  0.060625058  0.061424635            5 
  853000   0.89960661    -3.969125    621.15974  0.060683835  0.061393828            4 
  854000   0.92089677    -3.945826    621.94744  0.060689641  0.061362663            3 
  855000   0.91161777   -3.9632564    621.18939  0.060544775   0.06133163            5 
  856000   0.90620479   -3.9468506    623.26411  0.060676023  0.061300698            3 
  857000   0.91607038   -3.9356644    624.66586  0.060741527  0.061269875            5 
  858000   0.92633523   -3.9532654    624.16721    0.0606223  0.061238857            6 
  859000   0.91963974   -3.9758993    625.19852  0.060651777   0.06120772            4 
  860000     0.887153   -3.9738839    623.52112  0.060418713  0.061176421            8 
  861000   0.91121724   -3.9742146    624.38476  0.060432129  0.061145144            3 
  862000   0.90726129   -3.9590401    626.53035  0.060569446  0.061114322            3 
  863000   0.90076165   -3.9205618    626.31122  0.060478102  0.061083701            2 
  864000   0.89160354   -3.9403938    626.21995  0.060399301  0.061053077            3 
  865000   0.91140506   -3.9577281    627.23373  0.060427141  0.061022853            7 
  866000   0.93151391   -3.9476272    628.59879  0.060488721  0.060993014            1 
  867000   0.91522783   -3.9536167    627.79381  0.060341581  0.060963077            5 
  868000   0.88946269     -3.96716    631.05234  0.060584902  0.060932972            4 
  869000   0.92595129   -3.9647839     630.8127  0.060492204  0.060902859            3 
  870000   0.89290657   -3.9821207    629.46323  0.060293412  0.060872764            3 
  871000   0.91247917   -3.9569207    628.23357  0.060106541  0.060842204            4 
  872000   0.89928289   -3.9309909    631.80523   0.06037894  0.060811817            2 
  873000   0.89727279   -3.9647378    630.42069  0.060177614   0.06078164            3 
  874000   0.91524998   -3.9747543    630.92831  0.060157161  0.060750773            3 
  875000   0.89800595   -3.9656834    629.46439  0.059948989  0.060720013            4 
  876000   0.89597089   -3.9926154     632.4188  0.060161606  0.060689325            3 
  877000    0.9052936    -3.972748    629.54188  0.059819639  0.060657963            4 
  878000   0.91027157   -3.9896015    632.12575  0.059996749  0.060626944            2 
  879000   0.91108785   -3.9814725    630.25296  0.059750944  0.060596473            3 
  880000   0.90723875   -3.9656594    632.70883  0.059915609  0.060566151            6 
  881000   0.90381659   -3.9638525    635.57216  0.060118441  0.060535682            4 
  882000   0.91410664   -3.9951921    634.94329  0.059990862   0.06050582            2 
  883000   0.90504008   -3.9996671    634.68652   0.05989869  0.060475473            3 
  884000   0.89264473    -3.964276    634.67065  0.059829435  0.060445355            6 
  885000   0.91279208   -3.9592177    636.25946  0.059911437   0.06041522            3 
  886000   0.88469496   -3.9875058    635.65874  0.059787316  0.060385034            7 
  887000   0.89312212   -3.9849768    638.31585  0.059969547  0.060354862            5 
  888000   0.91663508   -3.9599799    637.88402  0.059861488  0.060324783            2 
  889000   0.90146389   -4.0049905    639.09513   0.05990768  0.060295399            2 
  890000   0.89948831     -3.96798    637.99628   0.05973748  0.060265849            2 
  891000   0.92005771    -3.985866    639.42611  0.059804163  0.060236006            3 
  892000    0.9052981   -3.9879652    642.05802  0.059982999  0.060206015            4 
  893000   0.89304382   -3.9590734    640.81135  0.059799492  0.060176281            3 
  894000   0.89642571   -3.9886326    639.80143  0.059638463  0.060146795            5 
  895000   0.89674037   -3.9757419    641.18796  0.059700927  0.060117357            4 
  896000   0.89491851   -3.9519303    642.35474  0.059742814  0.060088256            6 
  897000   0.88953934   -3.9738344    640.28267  0.059483711  0.060058674            2 
  898000     0.892686   -4.0085361    642.00817  0.059577596   0.06002886            3 
  899000   0.88173837    -3.986074    643.10039  0.059612569  0.059998879            5 
  900000   0.89504927   -3.9866926    644.38226  0.059665024  0.059969099            7 
  901000   0.88263807   -3.9794922    642.89144  0.059460917  0.059939394            5 
  902000   0.88241021   -3.9815185    642.55668  0.059364068  0.059909413            4 
  903000   0.90950027   -3.9646695    642.83385  0.059323906  0.059879684            2 
  904000   0.88346312   -3.9640771    642.34661  0.059213367   0.05984995            2 
  905000   0.89089674   -4.0033301    644.67256  0.059362114  0.059820271            4 
  906000   0.87852882   -3.9772187    646.62684  0.059476347  0.059790856            4 
  907000   0.88748855   -4.0091777    645.70001  0.059325617  0.059761384            3 
  908000   0.90070954   -3.9521428    647.82153  0.059454987  0.059732112            7 
  909000   0.88603397   -3.9642307    649.27872  0.059523168  0.059702382            4 
  910000   0.88867303   -3.9981211    645.16496   0.05908104   0.05967272            2 
  911000   0.88959338   -3.9740457    646.26001  0.059116357   0.05964235            2 
  912000   0.89777021   -3.9748006    646.29645  0.059054866   0.05961204            4 
  913000   0.88296428   -3.9887118    646.46439  0.059005512  0.059582041            3 
  914000   0.87802259   -4.0196948    645.84108  0.058884125  0.059551389            6 
  915000   0.88874324   -3.9989003     646.7209    0.0588999  0.059520375            6 
  916000   0.90011214    -3.986232    648.45451  0.058993315  0.059490197            3 
  917000   0.90538834   -4.0331221    647.81593  0.058870949  0.059459566            8 
  918000   0.86857073   -4.0122423    648.30276  0.058851013  0.059429114            6 
  919000   0.85911883   -3.9939543    647.90863  0.058751236  0.059398442            4 
  920000   0.88821153   -3.9929112    647.41776  0.058642913  0.059367672            5 
  921000    0.8834427   -3.9795562    652.20734  0.059012608   0.05933684            7 
  922000   0.89130476   -3.9817378    651.04943  0.058843947  0.059306335            3 
  923000   0.86868485   -3.9908061    651.38073  0.058810106  0.059275484            6 
  924000   0.88721962   -4.0085165    651.28323  0.058737665  0.059245078            4 
  925000   0.90875723   -4.0146418    652.21885  0.058758455  0.059214957            4 
  926000   0.89531761   -4.0151751    653.81978  0.058839073  0.059185044            2 
  927000   0.88307536   -4.0121309    650.76237  0.058500752  0.059154837            4 
  928000   0.89178825    -4.004676    653.60752  0.058693204  0.059124691            4 
  929000   0.87956397   -4.0287905    652.71417   0.05854989   0.05909448            3 
  930000   0.87613399   -3.9875354    652.77719   0.05849258  0.059064324            6 
  931000    0.8805414   -3.9790664    653.09397  0.058458107  0.059033853            3 
  932000   0.88656709   -4.0191465    654.70855  0.058539748  0.059003329            4 
  933000   0.89171081   -3.9884515    655.08565  0.058510687  0.058972282            3 
  934000   0.88892319   -4.0167849    654.71441  0.058414919  0.058941779            3 
  935000   0.87504674   -4.0128238    657.14639  0.058569197  0.058911458            3 
  936000   0.89623727   -4.0126343     657.0903  0.058501629  0.058881118            4 
  937000    0.8816184   -3.9770207    656.79554   0.05841298  0.058850763            8 
  938000   0.88293382   -4.0105447    655.24466  0.058212922  0.058821121            3 
  939000   0.88332912   -4.0122447    656.86811  0.058295005  0.058791274            4 
  940000   0.86794303   -4.0108195    658.42206   0.05837075  0.058761683            4 
  941000    0.8583994   -3.9739112    658.19764  0.058288845  0.058732108            6 
  942000   0.87374173   -3.9878469     661.1229  0.058485748  0.058702861            1 
  943000   0.84952549   -4.0111362    658.25863   0.05817061  0.058673112            4 
  944000   0.87389021   -4.0117669    657.25053  0.058019998  0.058643817            3 
  945000   0.88151081   -4.0359346    658.94544  0.058108063  0.058614245            8 
  946000   0.87529749    -4.021997    662.33553  0.058345272   0.05858446            4 
  947000   0.87718513   -4.0246402    662.07165  0.058260441  0.058554809            3 
  948000   0.87859862   -4.0222072    662.72246  0.058256194  0.058525405            5 
  949000   0.85813775   -4.0438949    661.55449  0.058092245  0.058495787            5 
  950000   0.86525788   -3.9934499    663.44709  0.058197114  0.058466509            3 
  951000   0.86279108   -4.0113391    662.71981  0.058072188  0.058437136            2 
  952000   0.87063292   -4.0047184    664.77242  0.058190863   0.05840834            2 
  953000   0.88044443   -4.0347104    663.79271  0.058044134  0.058379181            3 
  954000   0.87695315   -4.0243307    664.95091  0.058084461  0.058350169            3 
  955000   0.86606117   -4.0210861    663.43478  0.057891342  0.058321132            5 
  956000   0.85783029   -4.0057244    664.88815  0.057957474  0.058291906            6 
  957000   0.85223808   -3.9993867    665.52596  0.057952452  0.058262755            5 
  958000   0.88296716   -4.0230325    664.70432  0.057820487  0.058233769            2 
  959000   0.86520005   -3.9977288    667.13832    0.0579717  0.058204643            4 
  960000    0.8864089   -4.0303536    668.98128  0.058071292   0.05817519            3 
  961000   0.85887693   -4.0472687    667.24107  0.057859961  0.058145923            6 
  962000   0.88456525   -4.0233997     665.6317  0.057660403  0.058116586            3 
  963000    0.8597654   -4.0137068    668.42302  0.057842075  0.058087399            2 
  964000   0.88118278   -4.0391167     668.3779  0.057778173  0.058058046            4 
  965000   0.87616542   -4.0303615    668.14735   0.05769839  0.058028819            4 
  966000   0.86226845   -4.0286168    667.67693  0.057598079  0.057999657            7 
  967000   0.87912814   -4.0036228    670.57287  0.057788079  0.057970736            2 
  968000   0.84542143   -4.0169428    667.56992  0.057469862  0.057941499            3 
  969000   0.86767377   -4.0295543    670.26117  0.057641999  0.057912297            2 
  970000    0.8614791   -4.0727462    668.68748  0.057447378  0.057882637            2 
  971000   0.86358152   -4.0240672    672.73342  0.057735446  0.057853176            6 
  972000   0.87318001   -4.0509538    671.77263  0.057593675  0.057824243            4 
  973000   0.86106046   -4.0463131    673.64064  0.057694471  0.057795175            5 
  974000   0.86604018   -4.0071072    671.27206  0.057432586  0.057766476            4 
  975000   0.88265701   -4.0019276    672.90968  0.057513648  0.057737829            4 
  976000   0.85962665   -4.0447891    670.66096  0.057262719  0.057708678            4 
  977000   0.86348354   -4.0612126    672.95652  0.057399908  0.057679389            3 
  978000    0.8729159   -4.0484255    672.43831  0.057297061  0.057649967            2 
  979000   0.84571172     -4.07058    673.08326  0.057293434  0.057620464            4 
  980000   0.84593807   -4.0211272    674.35013  0.057342698  0.057590941            7 
  981000   0.85799996   -4.0711484    670.00032   0.05691474  0.057561538            2 
  982000    0.8548849   -4.0195233    675.12359  0.057291547   0.05753166           12 
  983000   0.84886444   -4.0482135    675.03237  0.057225532   0.05750243            4 
  984000   0.85709915   -4.0422328    676.05801  0.057254235  0.057472825            3 
  985000   0.86044187   -4.0312174    675.65869  0.057162326   0.05744367            2 
  986000   0.83885159    -4.030951    674.99168  0.057047979  0.057414371            4 
  987000   0.85507705   -4.0358416    676.51764  0.057119017  0.057385106            3 
  988000   0.85185736   -4.0440369    675.82958  0.057003169  0.057356018            3 
  989000   0.87121811   -4.0210003    677.49655  0.057085992  0.057326804            3 
  990000   0.87589623   -4.0370276    677.70809  0.057046136  0.057297757            3 
  991000   0.86097797   -4.0537728     676.2815  0.056868609  0.057268233            9 
  992000   0.85121617   -4.0484319    680.09145  0.057131338  0.057239264            4 
  993000   0.86397537   -4.0435979    679.48924  0.057023267  0.057209784           11 
  994000   0.84850417   -4.0416161     678.2443  0.056861528  0.057180294            3 
  995000   0.85392665   -4.0832267    676.67106  0.056672618  0.057151167            9 
  996000   0.85704795   -4.0903383    677.29783  0.056668158  0.057121657            9 
  997000    0.8587862   -4.0497037     679.3702  0.056784537  0.057091964            5 
  998000   0.84263519   -4.0258863    681.86665  0.056936093  0.057062785            4 
  999000    0.8880607   -4.0476244    681.59762  0.056856658   0.05703357            8 
 1000000   0.83771492   -4.0594525    679.29011  0.056607509  0.057004235            5 
 1001000   0.86245422   -4.0494745    680.60765  0.056660644  0.056974785            5 
 1002000   0.85115321   -4.0989909    678.76674  0.056450993  0.056945092            9 
 1003000    0.8470441    -4.070364    680.85756  0.056568425  0.056915522            3 
 1004000   0.86011148    -4.045317    684.39261  0.056805496  0.056886917            9 
 1005000   0.84861781   -4.0272131      684.344  0.056744942  0.056857666           10 
 1006000   0.84844224    -4.044442    682.30646  0.056519753  0.056828511            6 
 1007000   0.86854205   -4.0649937     684.7796  0.056668288  0.056799728            5 
 1008000   0.83951555   -4.0221104    684.34358  0.056576023  0.056770854            6 
 1009000    0.8807854    -4.060641    683.80951  0.056475843  0.056741877            5 
 1010000      0.84169   -4.0771671    684.50726  0.056477497   0.05671323            6 
 1011000   0.83207291   -4.0385246    686.17493  0.056559094  0.056684564            5 
 1012000   0.84230346   -4.0717926    685.39654  0.056439109   0.05665586            6 
 1013000   0.84113165   -4.0606566    685.81392  0.056417729  0.056626764            4 
 1014000   0.85880006   -4.0511091    684.14982   0.05622533  0.056597823            3 
 1015000   0.82925248   -4.0667654    684.74859  0.056219096  0.056568194            4 
 1016000   0.84093778    -4.068935    684.07654   0.05610864  0.056538447            5 
 1017000   0.85900198   -4.0946878    683.98464  0.056045939  0.056508915            3 
 1018000   0.85368422   -4.0733627    686.01678  0.056157235  0.056479163            3 
 1019000   0.85145761   -4.0787284    687.68388  0.056238459  0.056449241            4 
 1020000   0.83916268   -4.0333031     686.2924   0.05606964  0.056419353            4 
 1021000   0.86405562   -4.0482765     687.3839  0.056103812  0.056389519            3 
 1022000   0.85569904   -4.0545977     684.3686   0.05580305  0.056359672            4 
 1023000    0.8570793   -4.0502456    687.64801  0.056015641  0.056330181            1 
 1024000   0.85427245   -4.0726516    686.61501  0.055876873  0.056300679            4 
 1025000   0.84137464   -4.0742576     687.6783  0.055908805  0.056270901            3 
 1026000   0.84104919   -4.0929299    687.33489  0.055826421  0.056241055            9 
 1027000   0.84111445   -4.0658261     686.0444  0.055667348  0.056211507            9 
 1028000   0.83903265   -4.0573627     688.4541  0.055808536  0.056181987            4 
 1029000   0.83949751   -4.0627841      691.771  0.056022919  0.056152437            3 
 1030000   0.83438341   -4.0746433    691.37454  0.055936451  0.056123213            5 
 1031000   0.84333561   -4.0540858     691.4092  0.055884998  0.056094249            5 
 1032000   0.81631296   -4.1006013    690.35694  0.055745877  0.056064745            4 
 1033000   0.84327703   -4.0824153     691.3173  0.055769385  0.056034761            3 
 1034000   0.84658881   -4.0585612    692.15447   0.05578292  0.056004778            2 
 1035000   0.85269393    -4.077393    690.35473  0.055584117  0.055975083            7 
 1036000   0.81189542   -4.0689293    693.18957  0.055758492  0.055945527            4 
 1037000   0.83077671   -4.0697499     691.1759  0.055542904  0.055915754            9 
 1038000   0.83390495   -4.0969321    692.79232  0.055619165  0.055886286            4 
 1039000   0.82838752   -4.0368079    694.87165  0.055732407  0.055857041            2 
 1040000   0.82751049   -4.0792854    692.85215  0.055516999  0.055828002            3 
 1041000   0.84716809    -4.064042    695.19732  0.055651402  0.055798715            3 
 1042000   0.83487748    -4.100134    692.63575  0.055393134  0.055769349            4 
 1043000   0.82239254   -4.0956572    692.71816  0.055346609  0.055740005            3 
 1044000   0.85186604   -4.0813515    693.83513  0.055382753  0.055710765            7 
 1045000    0.8281552   -4.1145876    695.65859  0.055475167  0.055681444            3 
 1046000   0.84881107   -4.0886863    695.07254  0.055375441  0.055652194            2 
 1047000   0.83509055   -4.1022762    693.89445  0.055228784  0.055622897            5 
 1048000   0.83747148    -4.080844     696.5075  0.055383866  0.055593339            3 
 1049000   0.84565131   -4.0770291    694.83095  0.055197883  0.055563818           10 
 1050000   0.85408455   -4.0617687    695.35114  0.055186599  0.055534134            4 
 1051000   0.83551186   -4.0699868     695.6502  0.055157802  0.055504887            4 
 1052000   0.84862387   -4.0549783    697.36698  0.055241364   0.05547542            3 
 1053000   0.84295553   -4.0769713    697.40147  0.055191632  0.055446189            3 
 1054000   0.83896181   -4.1021627    698.30829  0.055210965  0.055416873            4 
 1055000   0.82939767   -4.0862475    695.99319  0.054975765  0.055387204            6 
 1056000   0.84191404   -4.1105614    697.43239  0.055037279  0.055357881            7 
 1057000   0.82090022   -4.0684101    700.59955  0.055234906  0.055328648            4 
 1058000   0.83876944   -4.1173191    698.85419  0.055045226   0.05529969            3 
 1059000   0.82171824   -4.1106979     701.5304   0.05520384  0.055270563            5 
 1060000   0.83362787   -4.1007552    699.36534  0.054981552  0.055241316            8 
 1061000   0.83148976   -4.0724548    698.69163  0.054876817  0.055212183            5 
 1062000   0.81472909   -4.0821251    699.22327  0.054866861  0.055183047            8 
 1063000   0.84497341   -4.0995579    702.31794   0.05505785  0.055154148            3 
 1064000   0.82164832   -4.0798437    701.64494  0.054953395  0.055125038            4 
 1065000   0.83887148    -4.093765    702.50364  0.054968986   0.05509634            5 
 1066000   0.83859922   -4.0838607    702.35271  0.054905622  0.055067654            8 
 1067000   0.82142726   -4.1003648    703.54628  0.054947382  0.055039546            5 
 1068000   0.83042077   -4.1074972    705.21099  0.055025826   0.05501144            3 
 1069000   0.81949937    -4.113229    702.74972  0.054782485  0.054983102            4 
 1070000   0.82473199   -4.0885183    703.34286  0.054777481   0.05495433            4 
 1071000   0.81633246   -4.1077746    705.16218  0.054867894  0.054925349            3 
 1072000   0.81817487   -4.1104671    701.78907  0.054554499  0.054896154            3 
 1073000   0.82759501   -4.0779487    702.47795  0.054557157  0.054867035            9 
 1074000   0.81720144   -4.1178447    705.52982  0.054743158  0.054837815            5 
 1075000   0.82597728   -4.0813331    704.55652  0.054616784  0.054808698            5 
 1076000   0.83023212   -4.1165891    704.83913  0.054587913  0.054779634            2 
 1077000    0.8189932   -4.1158642    705.33206  0.054575368  0.054750346            5 
 1078000   0.79878242   -4.1047355    706.18062  0.054590339  0.054721211            2 
 1079000   0.83497527   -4.1137558    705.05062  0.054452473  0.054691914            8 
 1080000   0.83112854   -4.1208193    705.22375  0.054415412  0.054662771            3 
 1081000   0.81878795   -4.1122606    705.98873  0.054424046  0.054633615            5 
 1082000   0.83058048   -4.1417673    707.71215  0.054506481  0.054604776            3 
 1083000   0.82340247   -4.1067959     708.7075   0.05453274  0.054575956            8 
 1084000   0.83147374   -4.1029738    709.01691   0.05450622  0.054546874            2 
 1085000   0.81666279   -4.0833643    707.45784  0.054336239  0.054517789            4 
 1086000   0.82876171   -4.0912524      707.866  0.054317526  0.054488776            5 
 1087000   0.81264195   -4.0941671    706.53325  0.054165382  0.054459849            6 
 1088000   0.81685479   -4.1000557     706.7256   0.05413033  0.054430321            3 
 1089000   0.82525703   -4.0857584    708.22825  0.054195611   0.05440137            5 
 1090000   0.82019019   -4.1070236    706.17314  0.053988772  0.054372511            6 
 1091000   0.81487753   -4.0933026    710.06352  0.054236444  0.054343654            3 
 1092000   0.82364499   -4.1033324    710.10633  0.054190043  0.054314615            4 
 1093000   0.81405865   -4.1090069    710.37972  0.054161308  0.054285727            5 
 1094000   0.81895359   -4.0888759    711.20934  0.054174995  0.054256978            3 
 1095000   0.83071881   -4.1351378    712.26911  0.054206173  0.054228146            4 
 1096000   0.83262925   -4.1157434    714.10542  0.054296336  0.054200086            5 
 1097000   0.81342409   -4.1325732    712.73122  0.054142451  0.054172278            2 
 1098000   0.81892328   -4.1033172    713.41514  0.054145047  0.054144206            4 
 1099000   0.81984047   -4.1276551    713.14827  0.054075544  0.054116316            6 
 1100000   0.81890449   -4.0968229    713.28208  0.054036521  0.054088399            4 
 1101000   0.82367686   -4.1042664    715.30994  0.054140928  0.054060786            7 
 1102000   0.82562026   -4.1242561    715.36955  0.054096306  0.054032889            5 
 1103000   0.79515673   -4.1303452     716.1628  0.054107192   0.05400474            3 
 1104000   0.80935486   -4.1183999    714.49598  0.053932366  0.053976672            6 
 1105000   0.83195992    -4.112545    717.81013  0.054133494  0.053948741            5 
 1106000   0.83199104   -4.1398238    715.71075  0.053926368  0.053921052            4 
 1107000   0.81923999   -4.1283339    715.19209   0.05383861  0.053893241            3 
 1108000   0.80670513   -4.1089391    717.39674  0.053955832  0.053865169            5 
 1109000   0.80113957   -4.1205776    718.28694  0.053974071  0.053837338            2 
 1110000   0.83462855   -4.1550648    714.30774  0.053626707  0.053809359            5 
 1111000   0.82085171   -4.1239817    717.48494  0.053816752  0.053781343            2 
 1112000   0.82181696   -4.1623302    716.62276  0.053703744  0.053753807            5 
 1113000   0.80833957   -4.1202276    721.30768  0.054006266  0.053726506            3 
 1114000   0.81547531   -4.1361749    719.78338  0.053843759  0.053699206            2 
 1115000   0.80639175   -4.1081809    722.68765   0.05401253    0.0536719            8 
 1116000   0.80559146   -4.1333164    718.67886  0.053664789  0.053644555            4 
 1117000   0.80626816   -4.1429429    718.82435    0.0536276  0.053617214            3 
 1118000   0.81743078   -4.1341308     720.2135  0.053683177  0.053589961            3 
 1119000   0.79289823   -4.1409252    722.07657  0.053773948  0.053562684            3 
 1120000   0.79723004   -4.1290492    721.58879  0.053689642  0.053535506            5 
 1121000   0.80000642   -4.1339521    724.10198  0.053828574   0.05350848            5 
 1122000   0.81105545   -4.1580847    722.96893  0.053696445  0.053481589            3 
 1123000   0.81343312   -4.1228829    722.67819  0.053627055  0.053454542            5 
 1124000   0.80944637   -4.1529739    722.60265  0.053573743  0.053427621            5 
 1125000   0.80658451   -4.1257764    723.35578  0.053581909  0.053400586            4 
 1126000   0.79387145   -4.1371293    723.88626  0.053573584  0.053373786            4 
 1127000   0.81760489   -4.1412127    724.21204  0.053550136   0.05334689            3 
 1128000   0.80998154   -4.1383224    725.59331  0.053604707  0.053320025            3 
 1129000   0.80908335   -4.1319444    726.12227   0.05359627  0.053293187            3 
 1130000   0.80613762   -4.1379728    724.27188   0.05341238  0.053266246            6 
 1131000   0.79373304   -4.1412208    725.20606  0.053433986  0.053239205            6 
 1132000   0.80794526   -4.1688327    726.66464  0.053494158  0.053212539            5 
 1133000   0.79940724   -4.1335682    727.92397  0.053539568  0.053186175            4 
 1134000   0.82449335   -4.1380432    729.16773  0.053583754  0.053159899            5 
 1135000   0.78808676    -4.170195    726.41187  0.053334205  0.053133516            6 
 1136000   0.79334274   -4.1445144    727.93293  0.053398835  0.053107026            8 
 1137000   0.80384324   -4.1345809    728.09379  0.053363661  0.053080975            4 
 1138000   0.78498936   -4.1673476    727.69905  0.053287863  0.053054789            5 
 1139000   0.78941648   -4.1115503    728.65249  0.053310835   0.05302871            3 
 1140000   0.78530637   -4.1626507    729.88707  0.053354318  0.053002625            2 
 1141000   0.80328091   -4.1395774    730.82826  0.053376297  0.052976525            5 
 1142000   0.78895786   -4.1749571    729.33549  0.053220628  0.052950301            6 
 1143000   0.78579295   -4.1468667    730.39761  0.053251503  0.052924039            4 
 1144000   0.79333434   -4.1618885    730.53942  0.053215284  0.052897708            6 
 1145000   0.80820053   -4.1557386    730.31659   0.05315259  0.052871297            5 
 1146000   0.78483238   -4.1250734    729.90234  0.053076086  0.052844714            5 
 1147000   0.79672285   -4.1378924    732.29735  0.053203818  0.052818157           11 
 1148000   0.78034491   -4.1606781    730.34028   0.05301541  0.052791397            6 
 1149000    0.8162367   -4.1809208    728.44154  0.052831559  0.052764582            3 
 1150000   0.79667384    -4.147786    730.09105  0.052905149  0.052737894            6 
 1151000   0.79609926   -4.1457112    729.36496  0.052806614  0.052710989            5 
 1152000   0.80466999   -4.1159863    734.01463  0.053097123  0.052684149            4 
 1153000   0.79925991   -4.1305934     730.0446  0.052764137  0.052657285            5 
 1154000   0.78976317   -4.1406264    731.64319  0.052833853  0.052630398            4 
 1155000    0.7969257   -4.1443723    730.73421  0.052722526  0.052603408            5 
 1156000   0.79795259   -4.1627034    733.62174  0.052885074  0.052576337            6 
 1157000   0.79226438   -4.1732587     729.8666  0.052568899  0.052549015            3 
 1158000   0.78932595   -4.1688776    732.98378  0.052747826  0.052521946            7 
 1159000   0.80289334   -4.1445575    731.88571  0.052623362  0.052495144            5 
 1160000   0.79062061   -4.1582767    733.15455  0.052669149  0.052468294           10 
 1161000   0.79935877   -4.1595191    732.93909  0.052608318  0.052441335            4 
 1162000   0.79513581   -4.1649134    731.93892  0.052491317  0.052414022            4 
 1163000   0.78078027   -4.1750991    732.43673  0.052481853  0.052386862            3 
 1164000   0.77659395   -4.1621132    733.05553  0.052481066  0.052359778            5 
 1165000    0.7939766   -4.1618071    733.83897  0.052492058  0.052332777            3 
 1166000   0.77538085   -4.1620301    734.01702  0.052459764  0.052305182           11 
 1167000    0.7802998   -4.1639866    734.02789  0.052415587  0.052277975            4 
 1168000   0.78408808   -4.1584537    734.83213  0.052428091  0.052250518            6 
 1169000   0.79274734     -4.14467    734.89026  0.052387387  0.052222962            7 
 1170000   0.80077418   -4.1976045    735.18864  0.052363863  0.052195367            4 
 1171000   0.79035894   -4.1587774    734.93867  0.052301357  0.052167893            6 
 1172000   0.79161218   -4.1900698    734.74025  0.052242623  0.052140655            4 
 1173000   0.79933545   -4.1803585    735.79441  0.052272976   0.05211357            2 
 1174000   0.78589418   -4.1539019    737.04239  0.052317035  0.052086355            6 
 1175000   0.79351986   -4.1716265    736.90781  0.052262965  0.052059054            4 
 1176000    0.7848555   -4.1763137    736.01936  0.052155567   0.05203151            5 
 1177000   0.78635699   -4.1702839    736.72628  0.052161306  0.052004186            3 
 1178000   0.76926629   -4.1420625    736.84421  0.052125368  0.051977196            4 
 1179000   0.77752808   -4.2162687    738.64257  0.052208268  0.051949766            5 
 1180000   0.78306075   -4.1627601    737.79186  0.052103945   0.05192253            3 
 1181000   0.79805403   -4.1779861    738.07766  0.052079993  0.051895082            6 
 1182000   0.80629095   -4.1774927    736.86513  0.051950447  0.051868121            6 
 1183000    0.7802919     -4.18191    741.96515   0.05226579  0.051841384            5 
 1184000   0.78985287   -4.2126394    739.10407  0.052020275  0.051814517            6 
 1185000   0.77085894   -4.1531711    741.13102  0.052118918  0.051787689           11 
 1186000   0.77920204   -4.1788004    738.30709  0.051876552  0.051760999            6 
 1187000   0.77372716    -4.201445    739.35452  0.051906383  0.051734243            5 
 1188000   0.77566814    -4.173548    738.80532  0.051824167  0.051707211            6 
 1189000   0.80062065   -4.1854213    739.14542  0.051804417  0.051680038            4 
 1190000   0.77615885   -4.1773547    741.78833  0.051945962  0.051653169            9 
 1191000   0.76836513   -4.2016839     739.8848  0.051769157  0.051626338            7 
 1192000   0.77800242   -4.1972153    740.81164  0.051790523  0.051599654            5 
 1193000   0.76992218    -4.186058    741.05021  0.051763775  0.051573012            5 
 1194000   0.77050841   -4.1895854     739.7821  0.051631916  0.051546093            7 
 1195000   0.77733432   -4.1703073      743.831   0.05187106  0.051519302            3 
 1196000   0.77133347   -4.1555058    742.35949   0.05172516  0.051492441            5 
 1197000   0.76489962   -4.1605234    743.20477  0.051740794  0.051465705            3 
 1198000    0.7868575   -4.2058631    740.75907  0.051527481  0.051439142            6 
 1199000    0.7639399   -4.1926944    744.28995   0.05172991  0.051411881            4 
 1200000   0.76989376     -4.19466     742.4243  0.051557243  0.051384858            4 
 1201000   0.77656125   -4.1854573    742.55125  0.051523123  0.051357895            2 
 1202000    0.7765568   -4.1836335    741.67604  0.051419581  0.051330983            3 
 1203000   0.77428704   -4.1920279    743.38005  0.051494877  0.051304142            6 
 1204000   0.77221259   -4.2090329    745.19623  0.051577812    0.0512768            7 
 1205000   0.77455029   -4.1860138    742.43062  0.051343749  0.051249563            9 
 1206000   0.78907791   -4.1994618    744.97258  0.051476823  0.051222477            2 
 1207000   0.77996076   -4.2011038    742.02531   0.05123069  0.051195299            6 
 1208000   0.77476094   -4.1766355    745.26173  0.051411543  0.051168167            6 
 1209000   0.75680803   -4.1956252    745.86256  0.051410433  0.051141005           12 
 1210000   0.76819307   -4.1994754    744.78462  0.051293707  0.051114003            5 
 1211000   0.76970452   -4.1926386    746.63671  0.051378799  0.051087163            3 
 1212000   0.77322699   -4.2135002    744.16576  0.051166513  0.051059973           10 
 1213000   0.75820124   -4.2376932    744.00423  0.051113233   0.05103261           16 
 1214000   0.75577103   -4.1934889     745.0952  0.051146019  0.051005561            8 
 1215000    0.7716067   -4.2269866    745.98198  0.051164745  0.050978183            4 
 1216000   0.78697049    -4.216715    747.47148  0.051224745  0.050951201            9 
 1217000   0.76171938   -4.1989707    748.10602  0.051226104  0.050924541            3 
 1218000   0.75888624     -4.18075    746.30849  0.051061063  0.050897867            6 
 1219000   0.77134879   -4.1892122    748.42542  0.051163892   0.05087143            4 
 1220000   0.76167749   -4.2239603    747.94594  0.051089204  0.050845021            5 
 1221000   0.77997012   -4.2041004    748.20312  0.051064914  0.050818434            9 
 1222000   0.77319694   -4.1847672    750.26645  0.051163833  0.050792303            5 
 1223000   0.77234487   -4.2074046    751.18366  0.051184496   0.05076617            7 
 1224000   0.76456553    -4.200848      750.738  0.051112336  0.050740186            3 
 1225000   0.78106848   -4.2124335    750.58621  0.051060287   0.05071398            4 
 1226000   0.75936103   -4.1992188    747.87669  0.050834468  0.050687722            5 
 1227000   0.75964318   -4.1978826    749.46407  0.050900847  0.050661531            4 
 1228000    0.7680544   -4.2401269    749.13198  0.050836861  0.050635074            7 
 1229000   0.75603274   -4.2095473    750.96212  0.050919591  0.050608417            7 
 1230000   0.75370526   -4.2066092    752.89521   0.05100916  0.050582087           13 
 1231000   0.75850507   -4.2018531    752.17877  0.050919224  0.050556111            9 
 1232000   0.74329872   -4.2135886    750.87789    0.0507899  0.050529702            5 
 1233000   0.77382803    -4.243622    754.77483  0.051012086  0.050503574            9 
 1234000   0.76650915   -4.2170284     755.2408  0.051002215  0.050477477            6 
 1235000   0.75324721   -4.2209374    751.21025  0.050688951  0.050451331            5 
 1236000   0.76830571   -4.2395097    751.87764  0.050692937  0.050425042            6 
 1237000   0.74814323   -4.2422784     751.8597  0.050650748  0.050398596            3 
 1238000    0.7435339   -4.2258375    751.59181  0.050591802  0.050372128            2 
 1239000   0.76343618   -4.2329624    754.02373  0.050714537  0.050345537            6 
 1240000   0.76028295    -4.218666    753.01223  0.050605661  0.050319315            9 
 1241000   0.75162322   -4.2133038    755.26366  0.050716067  0.050292975            5 
 1242000   0.75572332   -4.1927518    753.72942   0.05057229  0.050266404            3 
 1243000   0.76244817   -4.2265802    752.60495  0.050456218  0.050239815            6 
 1244000   0.75582313   -4.2017063    756.02217  0.050644572  0.050213564            3 
 1245000   0.75592589   -4.2524318    755.15476  0.050545834  0.050187124            5 
 1246000    0.7382064    -4.250688    754.69807  0.050474724  0.050160698            4 
 1247000   0.74226733   -4.2229517    755.55969  0.050491827  0.050134282            6 
 1248000   0.75765771   -4.2207275    754.90181  0.050407439  0.050107989            8 
 1249000   0.74239855   -4.2208462     757.0612  0.050511155  0.050081626            9 
 1250000   0.75063911   -4.2210534     755.1266  0.050341773   0.05005523            7 
 1251000   0.74525911   -4.2356125    755.45094  0.050323137  0.050028794            6 
 1252000   0.75180975   -4.2210766    756.52617  0.050354511  0.050002247            6 
 1253000   0.76389381   -4.2228648    753.23295  0.050095302  0.049975374            6 
 1254000   0.76518649    -4.256462    755.63197  0.050214778   0.04994842            9 
 1255000   0.76285988   -4.2245307    756.94948   0.05026225  0.049921859            8 
 1256000   0.75094578    -4.224352     756.2811  0.050177886  0.049895527           10 
 1257000   0.76572734   -4.2285349    756.83531  0.050174709  0.049869139            4 
 1258000   0.75788231   -4.2408722    756.66067  0.050123256  0.049842712            3 
 1259000   0.75037066   -4.2461014    757.43321  0.050134578   0.04981621            5 
 1260000    0.7580803   -4.2366345    758.26053  0.050149506  0.049789624            8 
 1261000   0.75718906   -4.2322987    757.88243   0.05008475  0.049763152            7 
 1262000   0.74673597   -4.2419073    756.49403  0.049953383  0.049736783            6 
 1263000    0.7402312   -4.2402906    758.97977  0.050077842  0.049710195            4 
 1264000   0.74487874   -4.2282762    759.32343   0.05006088  0.049683775            6 
 1265000   0.75275464   -4.2362443    759.70856  0.050046677  0.049657407            7 
 1266000   0.73784839   -4.2447792    757.58776  0.049867546  0.049631114            6 
 1267000    0.7479332   -4.2570977    760.81385  0.050040374   0.04960493           17 
 1268000   0.74287143   -4.2564813    762.01059   0.05007956  0.049579048            6 
 1269000   0.73924647   -4.2505662    761.56351  0.050010737  0.049552974           11 
 1270000   0.74587454   -4.2519868    759.93389  0.049864428  0.049526842            4 
 1271000   0.74479139   -4.2498156    759.27182  0.049781787   0.04950082            6 
 1272000   0.74647586   -4.2470916     760.0202   0.04979168  0.049474736            6 
 1273000   0.74078951   -4.2618439    762.30015  0.049901817  0.049448811            3 
 1274000    0.7465096   -4.2348636    760.10542  0.049719088  0.049422751            4 
 1275000   0.75546418   -4.2749579    758.72786  0.049590056  0.049396659            8 
 1276000   0.75864245   -4.2628882    761.50936  0.049732847   0.04937066            3 
 1277000   0.73666732    -4.212571    764.60967  0.049896219  0.049344863            6 
 1278000   0.73848023   -4.2366954    765.58907   0.04992104  0.049319179            4 
 1279000   0.75116613   -4.2702544    761.77284  0.049633362  0.049293455            9 
 1280000   0.74043894   -4.2580908    763.30381  0.049694259  0.049267374            5 
 1281000   0.75917444    -4.241434    761.41455  0.049532562  0.049241119            3 
 1282000   0.73964211    -4.272222    762.77743  0.049582516   0.04921506            8 
 1283000   0.73748884   -4.2557323    764.23388   0.04963847  0.049188964           13 
 1284000   0.74093326   -4.2439086    761.57668  0.049427355  0.049163024            6 
 1285000   0.72755003   -4.2494108    764.92712  0.049606168   0.04913699            6 
 1286000   0.73620147   -4.2575266    765.18946  0.049584594  0.049111102           13 
 1287000   0.73611895   -4.2603034    763.49903  0.049436611  0.049085053            9 
 1288000   0.73468579   -4.2615951    762.99428  0.049365572  0.049059036            4 
 1289000     0.732317   -4.2523312    766.23726  0.049536932  0.049032994            6 
 1290000   0.73445986   -4.2533306    765.77187  0.049468467  0.049007029            9 
 1291000   0.75321988   -4.2482001    764.34863   0.04933828  0.048981054            6 
 1292000   0.73132251   -4.2762603    764.91609  0.049336693  0.048955195            8 
 1293000    0.7372104   -4.2472399    765.19784  0.049316695  0.048929335            6 
 1294000    0.7354427   -4.2523219    766.96275  0.049392243  0.048903441            3 
 1295000   0.74156416   -4.2647995    765.09825  0.049234122  0.048877772            7 
 1296000   0.73162651   -4.2784509    763.63034  0.049101745  0.048852232           11 
 1297000   0.75880588   -4.2686498    768.04525  0.049347549   0.04882665            7 
 1298000   0.74947525   -4.2307109    767.49488  0.049274196  0.048801202            6 
 1299000   0.73181409   -4.2763998    766.34101  0.049162241  0.048775658            5 
 1300000   0.72343135    -4.277146    769.56077  0.049330818  0.048750038           11 
 1301000   0.74664947   -4.2736247    770.68754  0.049365074  0.048724306            4 
 1302000   0.75147744   -4.2643293    765.98129   0.04902594  0.048698714            8 
 1303000   0.73346389   -4.2553691    769.70402  0.049226402  0.048673308            4 
 1304000   0.74583404   -4.2890923     771.3698  0.049295105  0.048647751           11 
 1305000   0.73031987   -4.2676846    768.88965  0.049098956  0.048622079            5 
 1306000   0.74722558   -4.2623261    769.64643   0.04910965  0.048596456           11 
 1307000   0.72804689   -4.2618384     769.4148  0.049057307   0.04857086            5 
 1308000   0.73955912   -4.2675149     770.1728  0.049068094  0.048545168            7 
 1309000   0.72145973    -4.260425    770.62519  0.049059409  0.048519482            5 
 1310000   0.71280704   -4.2623905    771.00784    0.0490463  0.048493803            7 
 1311000   0.73735727   -4.2692467    767.52015  0.048787195  0.048468126            4 
 1312000   0.72215284   -4.2783319    770.48464  0.048938303   0.04844244            4 
 1313000   0.72519355    -4.283123    770.46226   0.04889961  0.048416739            7 
 1314000   0.71985008   -4.2504413    770.90562  0.048890514  0.048390946            5 
 1315000    0.7242158    -4.273336    770.86298  0.048850633  0.048365381            8 
 1316000   0.72840104   -4.2845629    767.87204  0.048624116  0.048339479            6 
 1317000   0.74042507   -4.2642364    771.31057  0.048804769  0.048313731           10 
 1318000   0.73659049   -4.2847887    773.16118  0.048884749  0.048288027            4 
 1319000   0.72226683   -4.2601426    773.24546  0.048853011  0.048262293            6 
 1320000   0.72412765   -4.2759172    772.85293   0.04879122  0.048236576            6 
 1321000    0.7144108   -4.2628219    773.84409  0.048816811  0.048211337           11 
 1322000   0.71447728   -4.2811633    770.60923  0.048575973  0.048185705            3 
 1323000    0.7274087   -4.2831741    772.50272  0.048658523  0.048159734            6 
 1324000    0.7351486   -4.2860721    770.95558  0.048524395  0.048133945            4 
 1325000   0.73628783   -4.2918755    773.66474   0.04865816  0.048107988            9 
 1326000   0.72555117   -4.2906618     773.9442  0.048639027  0.048082293            6 
 1327000   0.71145709   -4.3000524    773.43449  0.048570365  0.048056542            4 
 1328000   0.73384303   -4.2985797    771.97655  0.048442303  0.048030839            7 
 1329000   0.72028227   -4.3054515    772.38842  0.048431679  0.048005148           10 
 1330000   0.71662136   -4.3122006     773.0236  0.048435063  0.047979493            8 
 1331000     0.735759   -4.2914938    772.94742  0.048393903  0.047953966            7 
 1332000   0.71295924   -4.2993063     772.8873   0.04835381  0.047928198            5 
 1333000   0.72664339   -4.2867898    772.41539  0.048288034  0.047902548            5 
 1334000    0.7102417   -4.2975634    773.28165   0.04830595  0.047876664            4 
 1335000    0.7296359   -4.2877132    772.13458  0.048198164  0.047850811           16 
 1336000   0.71515338   -4.2896237    772.07831  0.048158578  0.047824931            8 
 1337000   0.71403438   -4.2602075    774.17289  0.048253109  0.047799254            8 
 1338000   0.71817259   -4.3063265    772.50731   0.04811331  0.047773309            4 
 1339000    0.7265263   -4.2879289    771.59757   0.04802076  0.047747443            3 
 1340000   0.69956132   -4.3041799    772.77611  0.048058216  0.047721354            5 
 1341000   0.72790983   -4.3130856    771.64523  0.047952102  0.047695142            3 
 1342000   0.71915598   -4.3012204    775.06005  0.048128418  0.047669032           15 
 1343000   0.71521376   -4.2929179     775.8789  0.048143391  0.047642996            5 
 1344000   0.72193611   -4.3053247    771.52455  0.047837584  0.047617004            8 
 1345000   0.71040371   -4.3016745    776.34896  0.048100927   0.04759082            6 
 1346000   0.71926266   -4.3122378    775.49298  0.048012195  0.047564741           20 
 1347000   0.71232603    -4.306882     773.5788  0.047858129  0.047538787            6 
 1348000   0.70331368   -4.3059627    775.48969  0.047940757  0.047512785           10 
 1349000   0.70840703   -4.3136672    773.33261  0.047771967  0.047486581            8 
 1350000   0.70389577    -4.313389    772.32103  0.047674138  0.047460261           10 
 1351000   0.72726982   -4.2796757    775.20729  0.047816882   0.04743437            4 
 1352000   0.70986206   -4.3408956    775.32018  0.047788473  0.047408277            4 
 1353000   0.71713633   -4.3050323    775.68519  0.047775634   0.04738202            7 
 1354000   0.70829523    -4.296193    776.89511  0.047814814  0.047356035            3 
 1355000   0.71719219   -4.3015896    775.56703  0.047697849  0.047329966           14 
 1356000   0.70018292      -4.3259    775.12359  0.047635422  0.047303898            5 
 1357000   0.72301335     -4.30428    773.17014  0.047480358  0.047277848            9 
 1358000   0.72225818   -4.3232287    775.55689  0.047591856  0.047251912            7 
 1359000   0.70945812    -4.307536    778.95857  0.047765426  0.047225958            7 
 1360000   0.69651077   -4.3100955    776.64389  0.047588474   0.04719982            5 
 1361000   0.73339735   -4.3216585    774.84308  0.047443245  0.047173764            8 
 1362000   0.70584054   -4.2992526    778.97166  0.047661017  0.047147778           11 
 1363000   0.71073719   -4.2958677    777.75566  0.047551703   0.04712194           24 
 1364000   0.71217229   -4.2772005    777.98221  0.047530683   0.04709602            8 
 1365000   0.71204767   -4.2804659    777.05582  0.047439305  0.047070057            6 
 1366000    0.7085418    -4.299857    776.91684  0.047396098  0.047043946            6 
 1367000   0.70909193    -4.315779    778.97015  0.047486598  0.047017937            8 
 1368000     0.717527   -4.3109287    778.21704  0.047406009  0.046991961            5 
 1369000    0.7114398    -4.315614     777.7468  0.047342756  0.046965975            4 
 1370000    0.7067935   -4.3269065    778.31204  0.047342581   0.04693995            5 
 1371000   0.70463618    -4.311101    780.09467  0.047416403  0.046914073           17 
 1372000   0.71404936   -4.2920974    780.27403  0.047392737  0.046887969            5 
 1373000   0.71006386   -4.3212705    777.59615  0.047195688  0.046861716            5 
 1374000    0.7170216   -4.3338972    777.39369  0.047149059  0.046835465           11 
 1375000    0.7140475   -4.3277532    776.39113  0.047054008  0.046808929            7 
 1376000   0.71186926   -4.3365434    780.04386  0.047241028  0.046782459            9 
 1377000   0.68606469   -4.3248605    778.12746  0.047090744  0.046756312            6 
 1378000   0.70612913   -4.3373876    778.27026  0.047065207  0.046730088           13 
 1379000   0.70068944   -4.3296363    779.44048  0.047101794  0.046703789            7 
 1380000   0.69238287    -4.347866    776.44101  0.046886535  0.046677497            5 
 1381000   0.70152183   -4.3168602    780.94555    0.0471244  0.046651409            8 
 1382000   0.68762989    -4.340624    781.09211  0.047099139   0.04662545            4 
 1383000   0.68397342     -4.32138    778.14083  0.046887252  0.046599423            8 
 1384000   0.69188596   -4.3372766    778.62881  0.046882756  0.046573261            6 
 1385000   0.70829006   -4.3473724    776.94385  0.046747524  0.046547153            9 
 1386000   0.70621783   -4.3231718    779.57895  0.046872231  0.046521007            6 
 1387000   0.69705685   -4.3164528    778.52795  0.046775291  0.046494838           11 
 1388000   0.72151584   -4.3501565    780.74989  0.046874993  0.046468725            4 
 1389000   0.69485687   -4.2978617    780.79847  0.046844161  0.046443024            6 
 1390000   0.68588549   -4.3168218    782.02459  0.046883968  0.046417325            6 
 1391000   0.71126201   -4.3524519    780.07799  0.046733644  0.046391699            9 
 1392000   0.68893976   -4.3217335    781.15584  0.046764598  0.046365913           15 
 1393000   0.68321763   -4.3207058    782.95464  0.046838636  0.046340327            9 
 1394000   0.69703516   -4.3349852    781.36928  0.046710263  0.046314741            8 
 1395000   0.69171995    -4.342904    780.58531  0.046629947  0.046289125            8 
 1396000    0.6853136   -4.3373022    782.25705  0.046696337   0.04626336           10 
 1397000   0.69647874   -4.3266313    782.90434  0.046701523  0.046237638            6 
 1398000   0.68777842      -4.3113    785.17672  0.046803572  0.046212294            9 
 1399000   0.69611119   -4.3331502    783.51794  0.046671309  0.046186806           11 
 1400000   0.68649144   -4.3330725    782.88745  0.046600443  0.046161183           10 
 1401000   0.68241295   -4.3341898    784.88129  0.046685778  0.046135531            7 
 1402000   0.68268143    -4.372339    782.79966  0.046528748  0.046109905            8 
 1403000    0.6913761   -4.3368403    785.21571  0.046639089  0.046084273            9 
 1404000    0.7090544   -4.3429003    783.59779  0.046509841  0.046058732            7 
 1405000   0.68792455    -4.335194    784.79655  0.046547838  0.046033252            5 
 1406000   0.68384082   -4.3249865    785.35918  0.046548078  0.046007724            9 
 1407000   0.68541717   -4.3568414     782.9009  0.046369397  0.045982106            4 
 1408000   0.67372914   -4.3600242    783.17025  0.046352406  0.045956318            9 
 1409000    0.6915864   -4.3618601    785.16379  0.046437413  0.045930616            4 
 1410000   0.69665796    -4.331742    786.29582  0.046471384  0.045904941            6 
 1411000   0.69815101   -4.3355124    786.74967  0.046465253  0.045879333            9 
 1412000   0.68703264   -4.3610485    786.00225  0.046388235  0.045853956            5 
 1413000   0.67844135   -4.3303797    785.86867  0.046347527  0.045828559           18 
 1414000   0.69405143   -4.3469977    783.27242  0.046161741  0.045803151            6 
 1415000   0.67578211   -4.3514695    784.75869  0.046216648  0.045777746            8 
 1416000   0.68954835   -4.3203522    786.78147  0.046303052  0.045752268            6 
 1417000    0.6871192   -4.3482369    784.88214  0.046158677   0.04572684           17 
 1418000   0.67330984   -4.3653399    787.68126  0.046290624   0.04570122           20 
 1419000   0.69292607   -4.3560935    785.39865  0.046123952  0.045675672           19 
 1420000   0.67950824   -4.3370825    788.53591  0.046275582  0.045650153           13 
 1421000   0.69024133   -4.3527997    785.14635  0.046044238  0.045624765           15 
 1422000   0.69461549   -4.3417951    785.26103  0.046018579  0.045599217            4 
 1423000    0.6886961   -4.3646192    787.19769  0.046099654  0.045573744            9 
 1424000   0.67605778   -4.3785925    784.80887  0.045927485  0.045548092            8 
 1425000   0.69110272   -4.3482369     785.2294  0.045919848  0.045522397            4 
 1426000   0.68051912   -4.3654277    785.55571  0.045906715  0.045496573           10 
 1427000   0.69266299   -4.3803154    783.85789  0.045775396  0.045470735            7 
 1428000   0.68082735   -4.3869201    785.44678  0.045836063  0.045444991           15 
 1429000   0.67817301   -4.3623779    785.77368  0.045823051  0.045419107            8 
 1430000   0.69451613   -4.3537256    785.61329   0.04578166  0.045393089           12 
 1431000   0.68016152   -4.3581354    784.17846  0.045666111  0.045367276            9 
 1432000   0.67428009   -4.3567096    788.61273  0.045892268  0.045341497            6 
 1433000   0.68364164   -4.3471509    788.45893  0.045851299  0.045315794            3 
 1434000   0.69644012   -4.3688656     785.5814  0.045652104  0.045289996            6 
 1435000   0.68799956   -4.3356898    786.90413  0.045697104   0.04526397            5 
 1436000   0.68440933   -4.3698279    787.26683   0.04568633  0.045238199           10 
 1437000   0.67172163    -4.384242    784.99922  0.045523035  0.045212389           15 
 1438000   0.68545924   -4.3696366    787.42798  0.045632127  0.045186516           15 
 1439000   0.67167015   -4.3567866    790.27953  0.045765551  0.045160629            6 
 1440000   0.67591205   -4.3369817    789.50864  0.045689157  0.045135062            5 
 1441000   0.68962649   -4.3901966    786.40804  0.045478142  0.045109471            8 
 1442000   0.68809481   -4.3925058    787.91511  0.045533698  0.045083752            4 
 1443000   0.67137529   -4.3919311    787.78955  0.045494892  0.045058017            9 
 1444000   0.67795384   -4.3472786    789.62873  0.045569525  0.045032258            8 
 1445000   0.67709243   -4.3936216     786.9492   0.04538346  0.045006417            6 
 1446000   0.67493451   -4.3910579    786.37976  0.045319258  0.044980325            8 
 1447000   0.66014291   -4.3740466    785.90608  0.045260659  0.044954414            5 
 1448000   0.68252253   -4.3557528    787.83882  0.045340632  0.044928547            9 
 1449000    0.6643629   -4.3877201    788.44167  0.045344011  0.044902772            7 
 1450000   0.68002321   -4.3739078    788.78191  0.045332294  0.044877103            5 
 1451000   0.67136955   -4.3759911    789.86061  0.045363003  0.044851606            5 
 1452000   0.67446943   -4.3879025    788.26142   0.04523998  0.044825968           10 
 1453000   0.66684204   -4.3653915    790.16573  0.045318062  0.044800261            9 
 1454000   0.68199702   -4.3769759    789.71032  0.045260793  0.044774591           11 
 1455000   0.64758366   -4.3952676    785.95898  0.045014833  0.044748691            8 
 1456000   0.67488677   -4.3990093     786.6676  0.045024474  0.044722927            5 
 1457000   0.67261094   -4.3926292    787.89331  0.045063676  0.044697035            5 
 1458000   0.69317562   -4.3889278    790.59748  0.045187327  0.044671155            5 
 1459000   0.67371343   -4.3761016    791.31717  0.045197462  0.044645508            5 
 1460000   0.67013424   -4.4157681    787.26967  0.044935483  0.044619817           10 
 1461000    0.6588749   -4.3848444    787.50244  0.044918004  0.044593858            9 
 1462000   0.66755666   -4.3952628    789.92318  0.045025261  0.044567831            6 
 1463000   0.66875309   -4.3857346    789.20614  0.044953642  0.044542063            5 
 1464000   0.68937359   -4.3704846    790.17972  0.044978354  0.044516276            8 
 1465000   0.66040974   -4.3997696    789.90117  0.044931807  0.044490415           14 
 1466000   0.64523835   -4.3807277    790.36577  0.044927568  0.044464399            6 
 1467000   0.67038402    -4.387469    789.76897  0.044863041  0.044438403            4 
 1468000    0.6643728   -4.3817904    790.92344  0.044898016  0.044412556            4 
 1469000   0.65780925   -4.3745712    790.32214  0.044833341  0.044386846            6 
 1470000   0.68175243   -4.3753314    790.55034  0.044815779  0.044361186            8 
 1471000   0.66313752   -4.3879795    788.83848  0.044688335  0.044335619            5 
 1472000   0.66803318   -4.3927939    788.41347  0.044633915  0.044309789           10 
 1473000   0.66942425   -4.4130051    791.73433  0.044791487  0.044283801           18 
 1474000   0.66899101   -4.3786481    792.21802  0.044788445  0.044257978           16 
 1475000    0.6628295   -4.4142213     791.6761  0.044727464   0.04423231           11 
 1476000   0.66389249   -4.3903267    790.77345  0.044646198   0.04420662           10 
 1477000   0.67056585   -4.4036623    787.71619  0.044443477  0.044180697            8 
 1478000   0.66975954   -4.4132467    788.63377  0.044465142  0.044154808            4 
 1479000   0.66192737   -4.3917957    791.05875  0.044571712  0.044129134            3 
 1480000   0.66957914   -4.4009268    793.22327  0.044663472  0.044103547           13 
 1481000   0.67415854   -4.3795255    793.40959  0.044643799  0.044077926            4 
 1482000   0.69125532   -4.3958268    791.70025  0.044517558  0.044052381            4 
 1483000   0.65588384   -4.3822678    792.55266  0.044535438  0.044026832            6 
 1484000   0.66352449   -4.4197864    792.50889   0.04450297  0.044001174            6 
 1485000   0.66752573    -4.393927    794.68559  0.044595151  0.043975446            9 
 1486000   0.65493219   -4.3975983    793.02511  0.044472022  0.043950085           11 
 1487000   0.67054513   -4.4094976    793.85285  0.044488503  0.043924613            9 
 1488000   0.65351827     -4.40971    790.57203  0.044274868  0.043899035           10 
 1489000   0.65495917   -4.4251772    792.83961   0.04437204  0.043873317            6 
 1490000   0.66419339   -4.3903081    794.81507  0.044452744   0.04384796            7 
 1491000   0.66015816   -4.4186595    793.52268  0.044350698  0.043822429           12 
 1492000   0.66177871   -4.4178428    792.21681  0.044248034   0.04379675           12 
 1493000   0.66425386   -4.4105823    792.05188  0.044209192  0.043771187            6 
 1494000   0.65901109   -4.4177815    791.36566  0.044141324  0.043745759           12 
 1495000   0.67502986    -4.433726    792.85468  0.044194798  0.043720212           14 
 1496000   0.65901607   -4.4503061    792.27929  0.044133205  0.043694646           11 
 1497000    0.6582019   -4.4166099    790.84014   0.04402361  0.043669068            7 
 1498000   0.65713814   -4.4036552    793.26513  0.044129124  0.043643678            7 
 1499000   0.67506449   -4.3722548    793.54134   0.04411504  0.043618345            5 
 1500000   0.64243419   -4.3871443    794.25493  0.044125274   0.04359314            5 
 1501000   0.65475638   -4.4050452    793.92341  0.044077471  0.043567913           14 
 1502000   0.66295307   -4.4041423    793.50554  0.044024941  0.043542685            6 
 1503000   0.64054893   -4.4236865    794.57789  0.044055106  0.043517457            5 
 1504000    0.6409838   -4.4387595    793.53264  0.043967899  0.043492125            6 
 1505000   0.64861701   -4.4206967    795.02355  0.044021238  0.043466696           19 
 1506000   0.66421399   -4.4193353    794.47943  0.043961898  0.043441474            7 
 1507000   0.65911671   -4.4181144    795.26596   0.04397622  0.043416252            8 
 1508000   0.65618629   -4.4307434    795.63243  0.043967309   0.04339094            8 
 1509000   0.65073848   -4.3979247    794.35336  0.043867537  0.043365753            7 
 1510000   0.66154883   -4.4072443    794.86745  0.043866857  0.043340692           13 
 1511000   0.65157454   -4.3999152    798.93612  0.044062217  0.043315635            8 
 1512000   0.64866439   -4.4262637     797.4018  0.043948512  0.043290488           11 
 1513000   0.63938259   -4.4074381    796.43068  0.043865977  0.043265484            5 
 1514000   0.64064405   -4.4085294    795.21445   0.04377006  0.043240436           14 
 1515000   0.63757768   -4.4358025    799.15391  0.043957861  0.043215268            9 
 1516000   0.64757619   -4.4351112    795.44976  0.043725251  0.043190212            6 
 1517000   0.62838267   -4.4399505    796.51189  0.043754773  0.043165145           10 
 1518000   0.64583723    -4.438189    796.94634  0.043749799  0.043140109            7 
 1519000   0.65184251   -4.4246632    796.77477  0.043711585  0.043115068            4 
 1520000   0.64661074   -4.4334151    797.33297  0.043713431  0.043090074            6 
 1521000   0.65425652   -4.4332592    797.23787   0.04367948   0.04306487           22 
 1522000   0.63730792   -4.4407533      797.856  0.043684626  0.043039912            7 
 1523000   0.63415327   -4.4312042    798.56809  0.043694905  0.043014868            6 
 1524000   0.64501093   -4.4503751    797.19919  0.043591382  0.042989893           12 
 1525000   0.64385869   -4.4133181    797.91864  0.043602112  0.042965078            4 
 1526000   0.65123714   -4.4411389    799.77666  0.043675003  0.042940203            6 
 1527000   0.63612082   -4.4234581    798.57015  0.043580558  0.042915306            6 
 1528000   0.63901072   -4.4178948    798.13708  0.043528418   0.04289052            9 
 1529000   0.64457765   -4.4282539    797.24846  0.043451519  0.042865726            5 
 1530000   0.63665645   -4.4208974    798.61792  0.043497708  0.042841068            5 
 1531000    0.6329913   -4.4693135    800.12827  0.043551506  0.042816232           21 
 1532000   0.63734903     -4.43698    799.30432  0.043478259  0.042791418            7 
 1533000   0.64642969   -4.4255742    798.78141  0.043421473  0.042766449           22 
 1534000   0.65947309    -4.472505    796.90216  0.043291078  0.042741641            6 
 1535000   0.64154153   -4.4497707    797.63489  0.043302654  0.042716844            6 
 1536000   0.63325371   -4.4329559    797.56038   0.04327042  0.042692021            8 
 1537000   0.63716703   -4.4513556    799.19008  0.043330627  0.042667162           10 
 1538000   0.62961163   -4.4313001    799.13622  0.043299535  0.042642296            7 
 1539000   0.62513726    -4.488165    798.68662  0.043247055  0.042617384            6 
 1540000   0.64069335   -4.4731463    796.27022  0.043088215  0.042592329           13 
 1541000   0.64941812   -4.4734095    798.24132  0.043166846  0.042567397            6 
 1542000    0.6336629   -4.4500818    799.88931  0.043227913  0.042542424           11 
 1543000   0.64382014   -4.4348993    799.64458  0.043186681  0.042517473            6 
 1544000   0.66102623   -4.4106867    802.24948  0.043299303  0.042492882            8 
 1545000   0.62647197   -4.4482541    799.67679  0.043132513  0.042468207            8 
 1546000   0.64902084   -4.4719454    801.58254  0.043207338  0.042443312            9 
 1547000   0.65742499   -4.4473926    800.33183  0.043112036  0.042418463            8 
 1548000   0.63569715    -4.454044    799.94247  0.043063225   0.04239379            7 
 1549000   0.63005313   -4.4746826    801.15279  0.043100538  0.042368996            7 
 1550000   0.64338099     -4.43975    800.11751   0.04301707  0.042344289            7 
 1551000   0.62410897   -4.4386235    800.89238  0.043030968  0.042319613           13 
 1552000   0.65037187   -4.4431408     802.4601  0.043087419   0.04229511           10 
 1553000   0.63510738   -4.4488181    802.59768  0.043067057  0.042270672            8 
 1554000   0.63052505   -4.4707181    800.73993  0.042939721  0.042246196            9 
 1555000   0.63591838   -4.4633095    800.44147  0.042896113  0.042221643           12 
 1556000   0.62371815   -4.4573641     802.2905  0.042967572  0.042197095            7 
 1557000   0.63335449   -4.4449729    803.18654  0.042987933   0.04217261           14 
 1558000   0.64578526   -4.4642009    801.99082  0.042896386   0.04214813           32 
 1559000   0.62597833   -4.4695324    801.05841   0.04281903  0.042123511            9 
 1560000   0.62578812    -4.457398    801.70674  0.042826215  0.042098958           13 
 1561000   0.62292967   -4.4403039    803.16804   0.04287679  0.042074594            6 
 1562000   0.63663656   -4.4753339     803.5645  0.042870492  0.042050307           10 
 1563000   0.63392192   -4.4664787    801.81928  0.042750015  0.042025839            7 
 1564000   0.62079998   -4.4807109    799.76387  0.042613164  0.042001244            7 
 1565000   0.62453206   -4.4609422    800.26063  0.042612387  0.041976687            7 
 1566000   0.61731382   -4.4426252    802.45271  0.042701826  0.041952206           11 
 1567000   0.63954553   -4.4682773    801.59673  0.042629054  0.041927754            8 
 1568000   0.61803191   -4.4303552    802.31452  0.042640015  0.041903354            4 
 1569000   0.63817588   -4.4802349    803.15311  0.042657378  0.041878948            9 
 1570000   0.62008906   -4.4533473    803.95825  0.042672943   0.04185447           11 
 1571000   0.62863358   -4.4666031    802.53019  0.042570029  0.041830083           12 
 1572000   0.63689939   -4.4751661    801.98966  0.042514295  0.041805621            7 
 1573000    0.6190392   -4.4808143    801.66805   0.04247023  0.041781106            4 
 1574000   0.61897545   -4.4410858     803.7272  0.042552266  0.041756737            6 
 1575000   0.61328311   -4.4754918    803.24929  0.042499963  0.041732201           10 
 1576000   0.63273762   -4.4836757    800.68085  0.042337185  0.041707574           12 
 1577000   0.60967991   -4.4875694    801.61536  0.042359721  0.041683014            4 
 1578000   0.61996837   -4.4880751    803.50376  0.042432602  0.041658533            9 
 1579000   0.63071644   -4.5011078    800.86927  0.042266692  0.041633782            6 
 1580000   0.61009688   -4.4756531    800.22053  0.042205724   0.04160922           10 
 1581000   0.61502914   -4.4848344    802.56881  0.042302805  0.041584634            7 
 1582000   0.61818458   -4.4917329    801.46385   0.04221786  0.041560041            9 
 1583000   0.62714123   -4.4758736    804.13372  0.042331739  0.041535512            9 
 1584000   0.61323426   -4.4842524    802.49428  0.042218765  0.041510959           10 
 1585000   0.63702477   -4.4577291    803.21391  0.042229964  0.041486462            5 
 1586000   0.61947958    -4.501859    801.03385   0.04208879  0.041461821           12 
 1587000   0.61475796   -4.4800565    801.68746   0.04209659  0.041437145           14 
 1588000   0.62244283   -4.4932577    803.96003  0.042189338  0.041412617           20 
 1589000   0.62419186   -4.4836327    803.07143  0.042116186  0.041388176            9 
 1590000   0.62485761   -4.4824009    803.51535  0.042112964  0.041363725           11 
 1591000   0.61366516   -4.4906895    802.01191  0.042007747  0.041339249           28 
 1592000    0.6253256   -4.4890493      804.796  0.042127094  0.041314842            7 
 1593000    0.6080873   -4.4706716    805.35704  0.042129998  0.041290528            9 
 1594000   0.61383903   -4.4541573    803.74923  0.042019512  0.041266183            7 
 1595000   0.61150269   -4.4858547    805.20936  0.042069455  0.041241764            6 
 1596000   0.61160251   -4.4851025    804.38699  0.042000156  0.041217355           12 
 1597000   0.61865305   -4.5030485    803.21087  0.041912485  0.041192855            8 
 1598000   0.60436027   -4.4867443    804.59379  0.041958374  0.041168554           10 
 1599000   0.62027258   -4.4832783    803.36467  0.041868077  0.041144258            7 
 1600000   0.61187237   -4.4997212    804.05472   0.04187785  0.041119962           10 
 1601000    0.6226092   -4.5052026    804.06351   0.04185215  0.041095706            7 
 1602000   0.60780308   -4.4935633    803.83017  0.041813887  0.041071401           13 
 1603000   0.61649834   -4.5062664    804.57763   0.04182666  0.041047283            6 
 1604000   0.61762453   -4.5009575    802.84372  0.041710501  0.041022976            9 
 1605000   0.61585574   -4.5020389    802.62553  0.041673185    0.0409986           14 
 1606000   0.59308377   -4.4984042    802.20814  0.041625578  0.040974236            8 
 1607000   0.61005486   -4.5012507    802.60227  0.041620114  0.040949883            7 
 1608000   0.61167507   -4.5015223    804.80368  0.041708317  0.040925677           14 
 1609000   0.60470739   -4.5136162    803.80971  0.041630915  0.040901543            8 
 1610000   0.60210809    -4.503247    804.71882  0.041652113  0.040877279            4 
 1611000   0.60887517   -4.4905274    805.75088  0.041679644  0.040853169           16 
 1612000    0.6198919   -4.5205904    805.35124  0.041633128  0.040828979           12 
 1613000   0.62175295   -4.5120592    806.56545  0.041670048  0.040804698           17 
 1614000   0.62677832    -4.500145    805.35448  0.041581706  0.040780594           11 
 1615000   0.60867543   -4.4986552    806.40402  0.041610114  0.040756528            9 
 1616000   0.60545289   -4.4982276    804.00375   0.04146059  0.040732377           14 
 1617000   0.60189147   -4.4985726    803.44669  0.041406241  0.040708246            9 
 1618000   0.61343748   -4.5225337    804.64264  0.041442245  0.040684035           28 
 1619000   0.60503454   -4.5152726    804.12479  0.041389993  0.040659959           10 
 1620000   0.61551065   -4.5147298    805.81616  0.041451449  0.040635755            6 
 1621000   0.60318045   -4.5112284    806.55998  0.041464116  0.040611582            5 
 1622000   0.59955032   -4.5137513    806.63335  0.041442322  0.040587498           16 
 1623000   0.61389019   -4.5048192    805.62165  0.041364841  0.040563375           13 
 1624000   0.60397221   -4.5143016    805.28181  0.041321932  0.040539174           12 
 1625000    0.6051061   -4.4976009    804.40326  0.041251449  0.040514986            7 
 1626000   0.60858251   -4.4943739    805.64129  0.041289529  0.040490834            9 
 1627000   0.61600324   -4.5272483    805.60162  0.041262119  0.040466655            8 
 1628000   0.60130137   -4.5277025    806.35358  0.041275265  0.040442499           11 
 1629000   0.61318301   -4.5259933    803.21533  0.041089386  0.040418252           11 
 1630000   0.60171165   -4.5065416    807.72256  0.041294609  0.040393943            5 
 1631000   0.60448316   -4.5420453    806.45904  0.041204733  0.040369722           15 
 1632000   0.59929767   -4.5214948    804.12087  0.041060093  0.040345535           16 
 1633000   0.60613964   -4.5378344    805.97748  0.041129694   0.04032133           26 
 1634000   0.61592294   -4.5301557    805.59368  0.041084949  0.040297055           10 
 1635000   0.60039833   -4.5133275    806.99104  0.041131042  0.040272898           14 
 1636000   0.59813536   -4.5376398     805.9948  0.041055155  0.040248754           10 
 1637000    0.6077558   -4.5463203     806.1376  0.041037345  0.040224592           16 
 1638000   0.59355773   -4.5381225    806.35752   0.04102348  0.040200309           16 
 1639000   0.59865708   -4.5384623    806.50917  0.041006161  0.040176013           16 
 1640000   0.60396128   -4.5463154    806.29389  0.040970218  0.040151825           15 
 1641000   0.57762596   -4.5294012    807.23683  0.040993136  0.040127709            9 
 1642000   0.58333976   -4.5291784    806.17997  0.040914534  0.040103564            9 
 1643000   0.59595124   -4.5160579     807.1814  0.040940424  0.040079513            9 
 1644000   0.59971087   -4.5152861    806.68511  0.040890364   0.04005544           12 
 1645000   0.61081499   -4.5162384    803.86524  0.040722657  0.040031427            9 
 1646000   0.59656536   -4.5512497    807.06252  0.040859787  0.040007332            9 
 1647000   0.61115091   -4.5472334    804.70395  0.040715642  0.039983154           16 
 1648000   0.58885555   -4.5393212    805.41215  0.040726747  0.039959032           18 
 1649000   0.58631331   -4.5233708    808.06193  0.040835958  0.039934959           16 
 1650000   0.60633875   -4.5371139    807.57767  0.040786751  0.039911063            7 
 1651000    0.5979136   -4.5209827    806.56535  0.040710951   0.03988716           12 
 1652000   0.58458506   -4.5289478    808.22842  0.040770199  0.039863274           20 
 1653000   0.60173221   -4.5335465    806.79685  0.040673364  0.039839389           10 
 1654000   0.58759978   -4.5484266    805.72089  0.040594563  0.039815413           21 
 1655000   0.58510599   -4.5365306    806.84787  0.040626781  0.039791528           12 
 1656000   0.59885865   -4.5437144    806.07684  0.040563448  0.039767455           12 
 1657000   0.59437074   -4.5425124    807.31703  0.040601339  0.039743374           22 
 1658000   0.60179583   -4.5273898    809.00031  0.040661455  0.039719541            6 
 1659000    0.6028487   -4.5568804    808.77873  0.040625815  0.039695697           12 
 1660000   0.59182163   -4.5301693     808.1232  0.040568434  0.039671866            8 
 1661000   0.58665637    -4.554095    807.59939   0.04051773  0.039647927            9 
 1662000   0.59328094   -4.5391133    807.71045   0.04049892  0.039624018           17 
 1663000   0.60162203   -4.5306069     806.3943  0.040408614  0.039600174           10 
 1664000   0.57224073   -4.5400162    809.76771  0.040553271  0.039576358            9 
 1665000   0.58888782   -4.5513539    807.37191  0.040409004  0.039552562           22 
 1666000   0.58205804   -4.5414543    807.51203  0.040391758  0.039528731           13 
 1667000   0.59526495   -4.5365519    809.13248  0.040448534  0.039504924           12 
 1668000   0.58622833   -4.5398519    805.56547  0.040246077  0.039481205            9 
 1669000   0.60615495    -4.554121    809.37858  0.040412351  0.039457494            7 
 1670000   0.59997975   -4.5538866    807.96322  0.040317526  0.039433733            8 
 1671000    0.5874273   -4.5443684     808.4279  0.040316572  0.039409932           11 
 1672000   0.59450592    -4.578977     809.5045  0.040346118  0.039386102            6 
 1673000    0.5867544   -4.5668049     806.1424  0.040154533  0.039362312           16 
 1674000   0.59801458   -4.5401138    808.45261   0.04024555  0.039338561           16 
 1675000   0.59033308   -4.5819378    805.28665  0.040064012  0.039314716           10 
 1676000   0.56661347   -4.5415018    807.88141  0.040169123   0.03929085            6 
 1677000   0.58221071   -4.5662602    809.24608  0.040212983  0.039266997           12 
 1678000   0.57482748   -4.5518704    804.68913   0.03996271  0.039243197           11 
 1679000   0.59427118   -4.5854494    807.98694  0.040102588  0.039219487           12 
 1680000   0.58034022   -4.5845318    806.37979  0.039998998  0.039195677           18 
 1681000   0.58609478   -4.5760085    808.23794  0.040067318  0.039171902            8 
 1682000    0.5786972   -4.5781268    807.59082  0.040011436  0.039148275           16 
 1683000   0.57866212   -4.5478189    810.22634  0.040118159  0.039124557           11 
 1684000   0.57943676    -4.579634    807.58057  0.039963409  0.039100839            5 
 1685000   0.58599705   -4.5601716    808.80503  0.040000249  0.039077087           10 
 1686000   0.59041113   -4.5761878    807.44845  0.039909472   0.03905346            7 
 1687000   0.58988356   -4.5804314    809.94832  0.040009302  0.039029843           21 
 1688000   0.56560555   -4.5750672    807.39106  0.039859353   0.03900633           16 
 1689000   0.59308469   -4.5588889    808.83319  0.039906907  0.038982601            6 
 1690000   0.59295417    -4.584619    807.15784  0.039800683  0.038958975            5 
 1691000   0.58257315   -4.5775913     808.3073  0.039833791   0.03893532           11 
 1692000   0.57310517   -4.5951924    809.52731  0.039870336  0.038911691            9 
 1693000   0.57447845   -4.5808492    808.11847   0.03977744  0.038888062           11 
 1694000   0.57496543   -4.5830429    806.83919  0.039691027  0.038864466            8 
 1695000    0.5780853   -4.5689686    808.75299  0.039761701  0.038840796           16 
 1696000   0.58034521   -4.5683413    810.11566  0.039805211  0.038817208            5 
 1697000   0.57491631   -4.5831034    812.42157   0.03989499  0.038793838           15 
 1698000   0.56904397   -4.5800311    810.43734  0.039774114  0.038770386           25 
 1699000   0.57153281   -4.5622098    812.33944  0.039843999  0.038746921           12 
 1700000   0.58035667    -4.564747    808.52065  0.039633365  0.038723414            9 
 1701000   0.57939007   -4.5646009    809.19103  0.039642908  0.038699888            7 
 1702000   0.58162003   -4.6134451    810.07984  0.039663133  0.038676329           12 
 1703000    0.5637773   -4.5813063    808.53301  0.039564152  0.038652809           13 
 1704000   0.56894801   -4.5978993     809.7366  0.039599795  0.038629183           14 
 1705000   0.56620834   -4.5975306     808.0092  0.039492141  0.038605616           24 
 1706000   0.58328772   -4.5725399    812.20579  0.039673983  0.038582141           14 
 1707000   0.57819945   -4.6029306    810.15555  0.039550652  0.038558706           17 
 1708000   0.57129165   -4.5609321     809.9718   0.03951853  0.038535396           11 
 1709000   0.57326093   -4.5930702    810.78075  0.039534852  0.038512146           39 
 1710000   0.58704913   -4.5718343    811.13888  0.039529185  0.038488875           10 
 1711000   0.57622274   -4.5972316    809.24632  0.039413906  0.038465544           23 
 1712000   0.57421752     -4.60678    807.72356  0.039316762  0.038442127           27 
 1713000    0.5856921   -4.6041089    812.42237  0.039522396  0.038418827           11 
 1714000   0.56686509    -4.592586    810.57646  0.039409591  0.038395437            8 
 1715000    0.5551271    -4.580626    809.27396  0.039323322   0.03837219            6 
 1716000    0.5544285   -4.6073553    810.48081  0.039359014     0.038349           20 
 1717000   0.56636078   -4.5844991    810.16263  0.039320648  0.038325714           22 
 1718000   0.57876777   -4.5873222    812.13167  0.039393271  0.038302433           15 
 1719000   0.58464285   -4.6056005    813.28257  0.039426147  0.038279354           12 
 1720000    0.5717338   -4.5931131    812.02266  0.039342183  0.038256294            9 
 1721000   0.56283323   -4.5824788    810.42343  0.039241886  0.038233143           12 
 1722000   0.55850023   -4.6067127    811.51896  0.039272114  0.038209996           15 
 1723000   0.56540654   -4.5985394    810.40498  0.039195443  0.038186829           19 
 1724000   0.56547659   -4.6044908    811.46489  0.039223941  0.038163632           11 
 1725000   0.56088095   -4.6046209    811.39908  0.039198023  0.038140394            8 
 1726000   0.56012266   -4.5968323    811.24175  0.039167717  0.038117305            7 
 1727000   0.55843942   -4.6194837      811.471  0.039156099  0.038094102           11 
 1728000   0.55213101   -4.6079674    809.50226  0.039038496  0.038070877           13 
 1729000   0.56124114   -4.5894565    812.67739  0.039168951  0.038047772           19 
 1730000   0.56318451   -4.5878145     811.6066   0.03909473   0.03802467           10 
 1731000    0.5631184   -4.6145544    811.52242  0.039068093  0.038001801           13 
 1732000   0.56871322   -4.6161504    812.16076  0.039076249  0.037978862            9 
 1733000   0.56457628   -4.6127967    810.65671  0.038981377  0.037955834           11 
 1734000   0.55625782   -4.6155252    811.10059  0.038980228  0.037932766           19 
 1735000   0.55183602   -4.6017804    811.74393  0.038988662  0.037909724            8 
 1736000   0.55227936   -4.6202645    810.48765  0.038905897  0.037886774            8 
 1737000   0.55443075   -4.5861349    813.28277  0.039017596  0.037863942           26 
 1738000   0.56186479   -4.5946286    812.27902  0.038947019  0.037841079           11 
 1739000   0.55976933   -4.5912015     811.6423  0.038894111  0.037818324           20 
 1740000   0.55665538   -4.6074316     812.9576  0.038934751  0.037795545           11 
 1741000   0.55399706   -4.6090225    812.57106  0.038893886  0.037772741           13 
 1742000   0.56226892   -4.5988866    813.67626  0.038924429  0.037749972            9 
 1743000    0.5597044   -4.6071624    814.10116  0.038922411  0.037727312            8 
 1744000   0.56388747   -4.5967321    813.59573  0.038875943  0.037704575           18 
 1745000   0.55636465   -4.6168655    813.08615  0.038829329  0.037681834           10 
 1746000   0.55917335   -4.6260845    813.47078  0.038825448  0.037659054           17 
 1747000   0.54075027   -4.6090537     813.5641  0.038807675   0.03763637           25 
 1748000   0.56721498   -4.6236568    813.46983   0.03878098  0.037613689           19 
 1749000   0.56409141   -4.6171976    812.65364  0.038719918  0.037590931           19 
 1750000   0.55807823   -4.6307204     813.6076  0.038743219  0.037568229            9 
 1751000   0.55618008   -4.6171166    812.35407  0.038661435  0.037545569           11 
 1752000   0.55244278   -4.6263493    815.27626  0.038778361   0.03752299            7 
 1753000   0.55453586    -4.615375    813.82709   0.03868735  0.037500304            7 
 1754000   0.56366838   -4.6307116    812.79413  0.038616217  0.037477671            7 
 1755000   0.53604934   -4.6079907    812.69847  0.038589671  0.037455031           12 
 1756000   0.55394572    -4.614185    816.31662  0.038739399  0.037432466           20 
 1757000   0.55231868    -4.607319    814.55575  0.038633834  0.037409913           15 
 1758000    0.5534195   -4.6091775    815.50077  0.038656654  0.037387432           12 
 1759000   0.54290424   -4.6519305    813.53054  0.038541337  0.037364893           33 
 1760000   0.55143947   -4.6147875    814.43967  0.038562484  0.037342229           26 
 1761000   0.54832101   -4.6435808    812.75548  0.038460888  0.037319641           25 
 1762000   0.55355118   -4.6414532    812.83251  0.038442703  0.037296987           13 
 1763000   0.53949517   -4.6266001    815.49355  0.038546679  0.037274381           14 
 1764000   0.54232696   -4.6273579    814.02724  0.038455557  0.037251753           13 
 1765000   0.54337161   -4.6126256    814.09568  0.038437001   0.03722924           21 
 1766000   0.54358486   -4.6137896    814.03579   0.03841241  0.037206789           15 
 1767000   0.54434929   -4.6155454    814.50693  0.038412891  0.037184308           21 
 1768000   0.54188942   -4.6358103    814.85455  0.038407548  0.037161734           13 
 1769000   0.55881049   -4.6205937    812.58651  0.038278995  0.037139142           37 
 1770000    0.5445699   -4.6380907     812.5926  0.038257655  0.037116515           32 
 1771000   0.54896556   -4.6451026    813.47797  0.038277714  0.037093844           56 
 1772000   0.54848379   -4.6370182    812.78531  0.038223538  0.037071146           15 
 1773000   0.54686086   -4.6426876    816.08664  0.038357146  0.037048586           13 
 1774000   0.53898488   -4.6326365    814.18383   0.03824614  0.037026074           21 
 1775000   0.54868097   -4.6297178    813.38632  0.038187151  0.037003568            7 
 1776000   0.53851571   -4.6437008    812.46142  0.038122251  0.036981039           10 
 1777000   0.54690367   -4.6582583    815.11049  0.038225028  0.036958426           15 
 1778000   0.55921012    -4.650029    813.66731  0.038135888  0.036935823            9 
 1779000   0.55385688   -4.6501858      811.855  0.038029558  0.036913179           19 
 1780000   0.52985469   -4.6512741    812.95595  0.038059735  0.036890532           17 
 1781000   0.55302319   -4.6254589    813.01844   0.03804129  0.036867907           28 
 1782000   0.54697025   -4.6313491    812.58607  0.037999723  0.036845412           16 
 1783000   0.54527382    -4.649115    812.47324  0.037973137   0.03682294           39 
 1784000   0.53650871   -4.6398893     811.5941  0.037910786  0.036800394           28 
 1785000   0.54376613    -4.639114    812.74328  0.037943197  0.036777874           12 
 1786000   0.53518328   -4.6597265    813.91795  0.037976761  0.036755425           29 
 1787000   0.53082345   -4.6609518    812.57886  0.037893064   0.03673288           26 
 1788000   0.53980579   -4.6441161    815.02308  0.037985788  0.036710448            7 
 1789000   0.55519123   -4.6571936     814.0319  0.037918386  0.036687998            8 
 1790000   0.53981266   -4.6487352    813.19796  0.037858378  0.036665513           12 
 1791000   0.53235465   -4.6563625    812.10321  0.037786303  0.036643105           10 
 1792000   0.54142237   -4.6350781    813.86792  0.037847281  0.036620738           18 
 1793000   0.53242674   -4.6512435    814.17123  0.037840269  0.036598369           10 
 1794000   0.54053953    -4.670317    814.61968  0.037840007  0.036575957            8 
 1795000   0.53423811   -4.6469062    813.54909  0.037769224  0.036553509            7 
 1796000   0.53630127   -4.6578714    813.45611   0.03774388   0.03653107           27 
 1797000   0.52389839   -4.6559678    813.88148  0.037742602  0.036508537           33 
 1798000   0.53432131   -4.6458218    813.49434  0.037703668  0.036486154           11 
 1799000   0.53975491   -4.6546672    815.92326  0.037795222  0.036463892           11 
 1800000    0.5320361   -4.6536943    814.03109  0.037686624  0.036441605           15 
 1801000   0.53798135   -4.6607531    814.66656  0.037695103  0.036419204           10 
 1802000   0.51857163   -4.6735045    812.76859  0.037586413  0.036396798           13 
 1803000   0.52816451   -4.6587566    811.52604  0.037508136  0.036374401           12 
 1804000   0.52950314   -4.6725075    813.97445  0.037600446   0.03635209           11 
 1805000   0.53701603   -4.6720845    812.17117  0.037496361  0.036329706           17 
 1806000   0.54039075   -4.6845331    813.41141  0.037532826  0.036307256           16 
 1807000   0.52149452   -4.6742501    812.86321  0.037486774  0.036284777           22 
 1808000   0.52433078   -4.6811856    812.38258  0.037443887  0.036262385           12 
 1809000   0.52967669   -4.6748951    811.74219  0.037393689      0.03624           13 
 1810000   0.52714936   -4.6575313    813.86421  0.037470728  0.036217711           20 
 1811000   0.51577293   -4.6711114     815.5577  0.037527963  0.036195438           18 
 1812000   0.53690412   -4.6694888    814.71592   0.03746854   0.03617327           15 
 1813000   0.52536397    -4.668953    814.85486  0.037454259  0.036151037           31 
 1814000   0.52923064   -4.6637105    813.19649  0.037357428  0.036128788           13 
 1815000   0.52131606   -4.6688756    815.98983  0.037465098  0.036106537           10 
 1816000    0.5239297    -4.662997      814.566   0.03737913  0.036084294           15 
 1817000    0.5167927   -4.6485766    813.79976  0.037323416  0.036062056           19 
 1818000   0.53442001   -4.6731846    814.02644  0.037313277  0.036039815           15 
 1819000   0.53067964    -4.658245    814.30134  0.037305357   0.03601754           13 
 1820000   0.52220647   -4.6557557     812.4585  0.037200481  0.035995312            8 
 1821000   0.53387867   -4.6864458    816.10717  0.037347024   0.03597306            9 
 1822000   0.51966157   -4.6649477    813.27419  0.037196953  0.035950852           12 
 1823000   0.53696309   -4.6842295    813.35338  0.037180169   0.03592856           19 
 1824000   0.52612164   -4.6771185    812.86678  0.037137554  0.035906251           20 
 1825000   0.53191464   -4.6704994    813.03237  0.037124766   0.03588397           19 
 1826000   0.51925708    -4.667666    815.17489  0.037202213  0.035861798            9 
 1827000   0.51581657   -4.6721511    813.04714  0.037084799  0.035839665           17 
 1828000   0.54080366   -4.6647283    814.23123  0.037118492  0.035817463           10 
 1829000   0.52008163   -4.6735291     812.6448  0.037025916  0.035795269           34 
 1830000   0.51234899   -4.6803744    812.62477  0.037004771  0.035773042           14 
 1831000   0.52893095   -4.6727098    813.50294  0.037024528  0.035750869            9 
 1832000   0.52202117    -4.684628    812.79702  0.036972208  0.035728653            8 
 1833000   0.52473435   -4.6858254    813.80257  0.036997753  0.035706409           10 
 1834000   0.53222874   -4.6824847    812.99451  0.036940863  0.035684206           17 
 1835000   0.52590361   -4.6805198    812.88046  0.036915552  0.035661982           18 
 1836000   0.53030185   -4.6909074    814.10807  0.036951165  0.035639766           13 
 1837000   0.51631011   -4.6792673    812.94642  0.036878353   0.03561752           25 
 1838000   0.51222839   -4.6936062    811.52743  0.036793953   0.03559532           21 
 1839000   0.52594937   -4.6930858    812.01098  0.036795857  0.035573105           53 
 1840000   0.51850814   -4.6876011    813.59726  0.036847702  0.035551023           19 
 1841000   0.50921041   -4.6949847    812.95174  0.036798467   0.03552886           18 
 1842000    0.5195938   -4.6865682     815.5645  0.036896693  0.035506762           18 
 1843000   0.51170389   -4.6980329    814.17253  0.036813734  0.035484755           27 
 1844000   0.52007117    -4.691795    815.63769  0.036859982    0.0354627           15 
 1845000   0.52234257   -4.7192501    812.49928  0.036698251  0.035440659           24 
 1846000   0.51625232   -4.6948591    813.59051  0.036727632    0.0354186           14 
 1847000   0.52858744    -4.703158    813.60568  0.036708432  0.035396523           19 
 1848000    0.5044445   -4.6908969     812.6424   0.03664513  0.035374544           13 
 1849000   0.51739694   -4.6981055     814.6908  0.036717631  0.035352614            9 
 1850000   0.51153442   -4.6945812    812.89803  0.036617028  0.035330717           16 
 1851000   0.51457506   -4.7106762    813.84983  0.036640097  0.035308724           11 
 1852000   0.51974113   -4.6888689    814.35767  0.036643164  0.035286741           17 
 1853000   0.51582362   -4.6841077    814.27182  0.036619528  0.035264822           21 
 1854000   0.51133336   -4.6922389     813.9607  0.036585792  0.035242918           37 
 1855000   0.51427343   -4.6990359    813.45202  0.036543217  0.035221112            9 
 1856000   0.50930663   -4.6833338    815.34112  0.036608348  0.035199339           21 
 1857000   0.51628529   -4.7046454    813.09616  0.036487891  0.035177602            9 
 1858000   0.50247831   -4.7040108    814.06437  0.036511678  0.035155808            5 
 1859000    0.5057542   -4.7032925    815.00417  0.036534166  0.035133993           13 
 1860000   0.51491659   -4.7109996    815.77854  0.036549218  0.035112183           12 
 1861000   0.52262034   -4.7159141    813.11403  0.036410265   0.03509028            8 
 1862000   0.51748862   -4.7049439    813.44155  0.036405368  0.035068442           21 
 1863000   0.51727256   -4.7185777    815.16826  0.036463064  0.035046588           29 
 1864000    0.5147193   -4.7333381    814.63434  0.036419632  0.035024793           28 
 1865000   0.51771828   -4.6959666     814.2346  0.036382243  0.035003002           23 
 1866000   0.51867043   -4.6934712    815.50874  0.036419647  0.034981364           19 
 1867000   0.51540105   -4.7031811    815.17738   0.03638535  0.034959662           21 
 1868000   0.51748897   -4.7141885    814.89583  0.036353311  0.034938001           20 
 1869000   0.49872616   -4.7169588    812.96509  0.036247775  0.034916243           11 
 1870000   0.50563482   -4.7182289     814.1191  0.036279817  0.034894549           20 
 1871000   0.50450428   -4.7297245    813.63254  0.036238756  0.034872779           27 
 1872000   0.49284236   -4.7267123    812.85697  0.036184872  0.034851063           83 
 1873000   0.51443116   -4.7146239    813.89134  0.036211574  0.034829339           34 
 1874000   0.50094148   -4.7229672       814.08   0.03620064  0.034807631           22 
 1875000    0.4995517   -4.7359528     815.5045  0.036244644  0.034785964           16 
 1876000   0.50152225   -4.7184892    812.78282  0.036104425  0.034764242            9 
 1877000   0.49825965   -4.7198436    814.79572  0.036174557  0.034742638           17 
 1878000   0.50677537   -4.7106035    813.86006  0.036113776   0.03472103           12 
 1879000   0.50781693   -4.7439332    814.14755  0.036107307   0.03469939           11 
 1880000   0.50718763   -4.7302754     815.1807  0.036133896   0.03467771           20 
 1881000   0.50973886   -4.7417431    813.28981  0.036030915  0.034655998           38 
 1882000   0.50699042   -4.7408881    815.99968   0.03613176  0.034634282           26 
 1883000   0.50706735   -4.7371999    814.37716  0.036040767  0.034612558           33 
 1884000   0.50740108   -4.7359062    813.88308  0.035999783  0.034590878           16 
 1885000   0.49295643   -4.7297867    813.54414    0.0359657  0.034569288           24 
 1886000   0.50241235   -4.7214128    814.21076  0.035976085  0.034547711            9 
 1887000   0.50444308   -4.7263931    815.30368  0.036005285  0.034526094           11 
 1888000   0.50031233   -4.7431033     813.3412  0.035899594  0.034504502           25 
 1889000   0.50860919   -4.7291942    813.78187   0.03590003  0.034482842           35 
 1890000   0.50439613   -4.7509638    814.36993  0.035906963  0.034461218           22 
 1891000   0.50489948   -4.7338962    814.61974  0.035898984  0.034439615           26 
 1892000   0.49960879    -4.733276    813.17121  0.035816209  0.034418076           58 
 1893000   0.49780576   -4.7246807    812.38163   0.03576253  0.034396534           42 
 1894000   0.49845114   -4.7431801    814.68886  0.035845163  0.034375047           37 
 1895000   0.49323927   -4.7435325    812.94587  0.035749599   0.03435349           21 
 1896000   0.49822167    -4.752784    813.61524  0.035760164  0.034331921           68 
 1897000   0.49950614   -4.7360292    812.86914  0.035708537  0.034310451           41 
 1898000   0.48763728   -4.7618112    812.17573  0.035659279  0.034288958           52 
 1899000    0.4930319   -4.7424226    812.85926  0.035670496  0.034267385           23 
 1900000   0.49043198   -4.7439699    813.97051  0.035700461  0.034245887           20 
 1901000   0.48838182    -4.745593    813.30009  0.035652292  0.034224418           22 
 1902000   0.49467584   -4.7414895    815.84123  0.035744884  0.034203061           22 
 1903000   0.49398356   -4.7448837    812.65346  0.035586507   0.03418164           13 
 1904000   0.48629437    -4.731917    812.49951  0.035561078  0.034160249           22 
 1905000   0.49854498   -4.7398286    814.90148  0.035647484  0.034138869           23 
 1906000   0.48226571   -4.7536546     813.0394  0.035547368   0.03411751           32 
 1907000   0.48620258   -4.7549812    814.53015  0.035593871  0.034096117           27 
 1908000   0.49414506   -4.7619288    813.83101  0.035544681  0.034074781           13 
 1909000   0.48950535   -4.7686463    812.88015  0.035484553  0.034053416           41 
 1910000   0.48370268   -4.7449475    814.53859  0.035538333  0.034032098           16 
 1911000   0.49710505   -4.7568086    812.56294  0.035433584  0.034010818           23 
 1912000   0.49334644   -4.7596599    814.87834  0.035515967  0.033989501           66 
 1913000   0.49034254   -4.7488591     813.6056  0.035441959  0.033968163           24 
 1914000   0.49526604   -4.7493659    813.24139  0.035407584  0.033946866           16 
 1915000   0.48969624    -4.752501    813.52873  0.035401598   0.03392556           21 
 1916000   0.47717365   -4.7662875     813.8266  0.035396077  0.033904287           44 
 1917000   0.48848387   -4.7523353     815.2107   0.03543778  0.033883063           41 
 1918000   0.47887976   -4.7693148    812.82476  0.035315639  0.033861743           73 
 1919000    0.4795354   -4.7749257     815.2805  0.035403878  0.033840418           18 
 1920000   0.48474319   -4.7674285    811.74271  0.035231888  0.033819095           39 
 1921000   0.48366771    -4.759418    815.18386  0.035362826  0.033797821           22 
 1922000   0.48052187   -4.7480148    813.55927  0.035273988   0.03377653           37 
 1923000   0.48392309   -4.7702715    813.92407  0.035271454  0.033755345           39 
 1924000   0.48623605   -4.7601022    812.06486  0.035172594  0.033734096           25 
 1925000   0.48898516   -4.7723929    813.19894  0.035203417   0.03371277           34 
 1926000   0.48817983   -4.7755558    813.32513  0.035190599   0.03369149           61 
 1927000    0.4857077   -4.7772875    813.28162  0.035170456  0.033670118           44 
 1928000    0.4823868   -4.7708648    814.11874  0.035188397  0.033648814           56 
 1929000   0.48068939   -4.7739285    812.67976   0.03510799  0.033627529           95 
 1930000   0.47771448   -4.7787336    812.18168  0.035068294  0.033606228           62 
 1931000   0.48708996   -4.7664981    812.58632  0.035067595  0.033584987           41 
 1932000   0.46464452   -4.7613603    812.95402  0.035065305   0.03356369          103 
 1933000   0.48778524   -4.7814896     813.0932  0.035053164  0.033542427          105 
 1934000   0.48887261   -4.7898583    812.34509  0.035002805  0.033521185           65 
 1935000   0.47432501   -4.7939463    812.67206  0.034998797  0.033499969          106 
 1936000   0.47601964   -4.7625729    812.24559  0.034962362  0.033478749           58 
 1937000   0.47603383   -4.7498372    813.30671  0.034989964  0.033457604          108 
 1938000   0.48505013   -4.7889926    813.09907   0.03496298  0.033436378          103 
 1939000   0.48075366   -4.7932412    810.75382  0.034844156  0.033415182           80 
 1940000   0.48317396   -4.7779948    813.76058  0.034955351  0.033394038           62 
 1941000   0.46937919   -4.7964647    812.45298  0.034881203   0.03337286           62 
 1942000   0.48420285   -4.7739567    811.63366  0.034828084  0.033351691           92 
 1943000   0.48240796   -4.7850474    814.89356  0.034949972   0.03333063           80 
 1944000   0.48644093   -4.7749429    812.04542  0.034809903  0.033309572           63 
 1945000   0.47440697   -4.8021912    811.74764  0.034779248  0.033288444           58 
 1946000   0.48312737   -4.7966209    812.29135  0.034784659  0.033267292           41 
 1947000   0.46996071    -4.771923     813.8677  0.034834262  0.033246171           53 
 1948000   0.47707032   -4.7937106     812.2949  0.034749097  0.033225102           45 
 1949000   0.48093574   -4.7855323     810.5672  0.034657397  0.033203989           75 
 1950000   0.48244341   -4.7910269    812.13514   0.03470663  0.033182876           69 
 1951000   0.47648233   -4.8000874    812.18043  0.034690775  0.033161741           61 
 1952000   0.48408482   -4.7837305    812.21684  0.034674558  0.033140734           55 
 1953000   0.47177343   -4.7927971    812.88997  0.034685525  0.033119696           63 
 1954000   0.47265761   -4.7890162    811.89745  0.034625446  0.033098599           74 
 1955000   0.47010636   -4.7816569    813.02934  0.034655982  0.033077581           36 
 1956000   0.46546007   -4.7795373    812.07366  0.034597549  0.033056595           42 
 1957000   0.47603531   -4.7954191    811.74821  0.034566011  0.033035585           33 
 1958000   0.47573632   -4.7896291    812.04084  0.034560812  0.033014579           50 
 1959000   0.47327097   -4.8047412    813.25764  0.034594931  0.032993591           24 
 1960000      0.46162   -4.8088427    811.47335  0.034501418   0.03297252           59 
 1961000   0.47274568   -4.8052317    811.56148  0.034487569  0.032951484           30 
 1962000   0.45840141    -4.808038    811.23589  0.034456162  0.032930463           20 
 1963000    0.4716089   -4.8097872    812.12528  0.034476366  0.032909378           19 
 1964000   0.46297549   -4.7954019    812.21563  0.034462645  0.032888378           26 
 1965000    0.4657425   -4.8045261    811.73173  0.034424586  0.032867377           43 
 1966000   0.46561541    -4.804581    812.07998  0.034421837  0.032846392           42 
 1967000   0.46193453    -4.805436    811.38078  0.034374715   0.03282544           66 
 1968000   0.45589408   -4.8123924    809.75322  0.034288331  0.032804426           35 
 1969000   0.45971884   -4.8184831    810.66779  0.034309624  0.032783444           59 
 1970000   0.47259187    -4.813394    811.49623  0.034327252  0.032762442           68 
 1971000   0.46402904   -4.8029892     810.7156  0.034276831  0.032741484          111 
 1972000   0.46694305   -4.8203244    809.41909  0.034204661  0.032720516          103 
 1973000   0.46428007   -4.8089456    810.18698  0.034219758  0.032699551           51 
 1974000   0.47025037   -4.8100142    810.10611  0.034199008  0.032678548           76 
 1975000   0.46372511   -4.8121205     811.2932   0.03423178  0.032657505           57 
 1976000   0.46388415   -4.8075208    810.14719  0.034166127  0.032636557           56 
 1977000   0.45628639   -4.8136988    811.56682  0.034208684  0.032615641           45 
 1978000   0.46625218   -4.8216345     810.8232  0.034160061  0.032594773           72 
 1979000   0.46541643   -4.8161088    810.98378  0.034149561    0.0325739           66 
 1980000   0.46701486   -4.8114971    812.97627  0.034216173     0.032553           89 
 1981000   0.46530787   -4.8164825    810.96938  0.034114478  0.032532116           84 
 1982000   0.46560737   -4.8179501    810.53991  0.034079209  0.032511253           88 
 1983000    0.4562197   -4.8140214    811.63968   0.03410824  0.032490403           49 
 1984000     0.464325   -4.8023782    811.33057  0.034078065  0.032469604           58 
 1985000   0.45335837   -4.8244626    812.40864  0.034106156  0.032448845           85 
 1986000   0.45984393   -4.8230478    811.51674  0.034051559  0.032428071           70 
 1987000   0.45966421   -4.8197695    809.50453   0.03395003  0.032407272          126 
 1988000   0.45983778    -4.827643    810.75447  0.033985348  0.032386465          108 
 1989000   0.45731358   -4.8201307    810.77127  0.033968965   0.03236567          120 
 1990000   0.45012374   -4.8210934    811.05891  0.033963941   0.03234492           71 
 1991000   0.45740247   -4.8128288    811.34476  0.033958846   0.03232417           29 
 1992000   0.45665533   -4.8418924    810.31194  0.033898592  0.032303405           85 
 1993000   0.45320912   -4.8308508    811.27948  0.033922039   0.03228266           55 
 1994000   0.45555853   -4.8227584    809.11296  0.033814483  0.032261913           61 
 1995000   0.45462288   -4.8395335    810.08175  0.033838001  0.032241133           88 
 1996000   0.45773073   -4.8282553    810.89328   0.03385493  0.032220381           73 
 1997000    0.4576525   -4.8224411     809.4732  0.033778718  0.032199607          129 
 1998000   0.45083958   -4.8236918    809.79149  0.033775087  0.032178876          111 
 1999000   0.45389441   -4.8314918    810.31815  0.033780146  0.032158209          112 
 2000000   0.46421424    -4.848052    810.56135   0.03377339  0.032137514          125 
 2001000   0.46109223   -4.8321232    809.90573  0.033729207  0.032116794          216 
 2002000   0.44920189   -4.8425286    811.68257  0.033786321  0.032096079          124 
 2003000   0.45380985   -4.8362542    811.09256  0.033744906  0.032075422          264 
 2004000   0.45940224   -4.8395133    810.73266  0.033713101  0.032054729          298 
 2005000   0.45732125   -4.8514619    809.40478  0.033641096  0.032034083          274 
 2006000   0.45174548   -4.8528602    811.23278  0.033700265  0.032013396          173 
 2007000   0.45186195   -4.8338373    808.98233  0.033590032  0.031992739          275 
 2008000    0.4650081   -4.8284578    808.71332   0.03356214  0.031972101          304 
 2009000   0.45839808   -4.8548273    810.50703  0.033619837  0.031951509          131 
 2010000    0.4511609   -4.8550961    809.39626  0.033557059   0.03193089          242 
 2011000    0.4377015   -4.8484821     810.0155  0.033566033  0.031910297          299 
 2012000   0.46092897   -4.8484009    811.05694  0.033592484  0.031889719          362 
Loop time of 4988.23 on 48 procs for 2000000 steps with 4000 atoms

Performance: 69283.035 tau/day, 400.943 timesteps/s
99.4% CPU use with 48 MPI tasks x no OpenMP threads

MPI task timing breakdown:
Section |  min time  |  avg time  |  max time  |%varavg| %total
---------------------------------------------------------------
Pair    | 330.61     | 363.52     | 384.41     |  55.7 |  7.29
Neigh   | 33.423     | 34.742     | 35.949     |  12.3 |  0.70
Comm    | 323.91     | 346        | 378.02     |  60.1 |  6.94
Output  | 4.2725     | 4.2742     | 4.3114     |   0.3 |  0.09
Modify  | 4187.9     | 4193.7     | 4200.2     |   4.6 | 84.07
Other   |            | 46.01      |            |       |  0.92

Nlocal:        83.3333 ave          91 max          74 min
Histogram: 1 1 4 3 10 13 2 9 3 2
Nghost:        2270.15 ave        2288 max        2255 min
Histogram: 3 5 6 8 9 4 3 6 1 3
Neighs:        15275.0 ave       16988 max       13568 min
Histogram: 2 2 3 8 9 10 6 4 2 2
FullNghs:      30550.0 ave       33739 max       27146 min
Histogram: 1 3 3 7 8 10 6 4 3 3

Total # of neighbors = 1466398
Ave neighs/atom = 366.59950
Neighbor list builds = 108073
Dangerous builds = 0

#clear
#
#next RN
#
#jump SELF
Total wall time: 1:23:11
