
units lj                  # Use reduced LJ style units
atom_style atomic         # Uncharged point particles
atom_modify map hash      # Needed for indexing of clusters etc
                          # Used to be able to find where atoms are in relation to each other.

lattice fcc 1.0 spacing 1 1 1
Lattice spacing in x,y,z = 1.5874011 1.5874011 1.5874011
region box block 0 10 0 10 0 10 units lattice
create_box 2 box
Created orthogonal box = (0.0000000 0.0000000 0.0000000) to (15.874011 15.874011 15.874011)
  3 by 4 by 4 MPI processor grid
create_atoms 1 box
Created 4000 atoms
  using lattice units in orthogonal box = (0.0000000 0.0000000 0.0000000) to (15.874011 15.874011 15.874011)
  create_atoms CPU = 0.015 seconds
set type 1 type/fraction 2 0.57 78393
Setting atom values ...
  2292 settings made for type/fraction
mass 1 1.0
mass 2 1.0
pair_style lj/cut  3.5
pair_modify tail  yes
pair_coeff 1  1  1.0  1.0   # Intearaction between 1 and 1 set with epsilon = 1 and sigma = 1
pair_coeff 1  2  1.5  0.8
pair_coeff 2  2  0.5  0.88

write_data data.0
System init for write_data ...
Neighbor list info ...
  update every 1 steps, delay 10 steps, check yes
  max neighbors/atom: 2000, page size: 100000
  master list distance cutoff = 3.8
  ghost atom cutoff = 3.8
  binsize = 1.9, bins = 9 9 9
  1 neighbor lists, perpetual/occasional/extra = 1 0 0
  (1) pair lj/cut, perpetual
      attributes: half, newton on
      pair build: half/bin/atomonly/newton
      stencil: half/bin/3d
      bin: standard
WARNING: Not all mixed pair coeffs generated from mixing. Use write_data with 'pair ij' option to store all pair coeffs. (../write_data.cpp:312)


#############################
#   M E L T   S Y S T E M   #
#############################

velocity all create 2.4 6583654 mom yes dist gaussian # Assign velocities
                                                    # Temperature 2.4, random number seed, zero linear momentum
                                                                                # Gaussian distribution

timestep 0.002   # simulation timestep
thermo 1000       # output thermodynamic data every 1000 steps bf 100

# Define a fix  in this case with index 1 applied to all
# particles in the simulation. This fix is for simulations
# in the anisotropic NPT ensemble. Note that we use the MTK
# correction.
fix 1 all npt temp 2.4 2.4 0.1 iso 5.68 5.68 0.5 mtk yes tchain 5 pchain 5 # Use NPT ensemble
                                                                         # Set temperature and pressure and damping
                                                                         # Numbers of thermostats in chain and in barostat
run 10000          # run for 10000 steps
Per MPI rank memory allocation (min/avg/max) = 3.642 | 3.644 | 3.648 Mbytes
Step Temp E_pair E_mol TotEng Press Volume 
       0          2.4   -4.8904957            0   -1.2913957   -4.1230707         4000 
    1000    2.4363009   -4.5937699            0  -0.94023212    5.6576848    3639.9997 
    2000    2.3817467   -4.6315293            0   -1.0598025    5.6804639    3623.9953 
    3000    2.4012134   -4.5842186            0  -0.98329903    5.9773842    3610.6811 
    4000     2.433067   -4.6462228            0   -0.9975346    5.4214536    3633.8038 
    5000    2.3832086   -4.6278645            0   -1.0539452    6.0377346    3601.6401 
    6000    2.3790459    -4.667469            0   -1.0997923     5.652777    3608.2502 
    7000    2.3907338   -4.5709347            0   -0.9857305    5.6482642    3645.7268 
    8000    2.3938122   -4.6584405            0     -1.06862    5.6441827    3610.9312 
    9000    2.4115468   -4.6012803            0  -0.98486453    5.9874135    3607.6825 
   10000    2.3664495   -4.5684822            0   -1.0196953    5.4315339    3670.7543 
Loop time of 2.71059 on 48 procs for 10000 steps with 4000 atoms

Performance: 637499.327 tau/day, 3689.232 timesteps/s
99.6% CPU use with 48 MPI tasks x no OpenMP threads

MPI task timing breakdown:
Section |  min time  |  avg time  |  max time  |%varavg| %total
---------------------------------------------------------------
Pair    | 1.1944     | 1.2695     | 1.4578     |   4.1 | 46.84
Neigh   | 0.21427    | 0.22366    | 0.24999    |   1.3 |  8.25
Comm    | 0.77891    | 0.92943    | 1.0786     |   6.4 | 34.29
Output  | 0.00024648 | 0.00025088 | 0.00031436 |   0.0 |  0.01
Modify  | 0.20036    | 0.27205    | 0.35044    |   9.0 | 10.04
Other   |            | 0.01565    |            |       |  0.58

Nlocal:        83.3333 ave          93 max          75 min
Histogram: 4 4 8 8 4 1 9 4 3 3
Nghost:        1735.85 ave        1772 max        1699 min
Histogram: 3 1 4 7 5 14 6 3 3 2
Neighs:        10407.7 ave       12066 max        8961 min
Histogram: 3 4 8 5 8 3 10 2 2 3

Total # of neighbors = 499570
Ave neighs/atom = 124.89250
Neighbor list builds = 906
Dangerous builds = 192

# Equilibrate just above the melting temperature to avoid step fn in T

fix 1 all npt temp 1.25 1.25 0.1 iso 5.68 5.68 0.5 mtk yes tchain 5 pchain 5
run 2000
Per MPI rank memory allocation (min/avg/max) = 3.644 | 3.646 | 3.650 Mbytes
Step Temp E_pair E_mol TotEng Press Volume 
   10000    2.3664495   -4.5684822            0   -1.0196953    5.4315339    3670.7543 
   11000    1.2349444   -6.6885563            0   -4.8366027    5.6880735    2798.7336 
   12000    1.2457732   -6.7859032            0   -4.9177105    5.6670816    2775.4212 
Loop time of 0.670773 on 48 procs for 2000 steps with 4000 atoms

Performance: 515226.392 tau/day, 2981.634 timesteps/s
99.6% CPU use with 48 MPI tasks x no OpenMP threads

MPI task timing breakdown:
Section |  min time  |  avg time  |  max time  |%varavg| %total
---------------------------------------------------------------
Pair    | 0.29036    | 0.32142    | 0.37007    |   2.8 | 47.92
Neigh   | 0.041529   | 0.043758   | 0.049571   |   0.8 |  6.52
Comm    | 0.20437    | 0.25513    | 0.28758    |   3.3 | 38.03
Output  | 5.2782e-05 | 5.4057e-05 | 7.1172e-05 |   0.0 |  0.01
Modify  | 0.040887   | 0.045527   | 0.048649   |   1.0 |  6.79
Other   |            | 0.004885   |            |       |  0.73

Nlocal:        83.3333 ave          91 max          74 min
Histogram: 1 3 3 2 11 12 3 6 4 3
Nghost:        2104.77 ave        2124 max        2084 min
Histogram: 4 1 4 7 4 7 7 5 8 1
Neighs:        13754.8 ave       15478 max       11633 min
Histogram: 1 2 3 6 7 8 8 7 4 2

Total # of neighbors = 660229
Ave neighs/atom = 165.05725
Neighbor list builds = 144
Dangerous builds = 14

#############################
# L I N E A R  Q U E N C H  #
#############################

# Define solid atoms. This closely follows ten Wolde  Ruiz-Montero and Frenkel  Faraday Discuss  1996  104  93-110
# Compute components of the per-atom q6 vector
compute q6 all orientorder/atom degrees 1 6 components 6 nnn NULL cutoff 1.3 # compute the Q6 parameter.
                                                                             # Use all neighbours within 1.3 unit cell.

# get number of connections
compute coord_number all coord/atom orientorder q6 0.5

# An atom is solid if it has 8 or more connections (of a possible 14)
variable is_solid atom c_coord_number>=8
group solid dynamic all var is_solid    # Must be dynamic to update
dynamic group solid defined

# do clustering
compute cluster solid cluster/atom 1.3 # Create a cluster where all atoms within are solid and max 1.3 units from another member

# define chunks one chunk per cluster
compute clus_chunks solid chunk/atom c_cluster nchunk every compress yes  # Says which atoms are in which chunk

# count the size of each chunk
compute size_chunks solid property/chunk clus_chunks count


# Find the maximum entry in the vector of chunk sizes
variable max_n equal max(c_size_chunks)


# Thermo style which includes this variable
# thermo_style custom step temp pe vol v_max_n

thermo ${N}  # Print the thermo information every 100 steps
thermo 1000  

# Reset the npt fix at a lower temperature (below freezing)
fix 1  all npt temp  ${temp} ${temp}  0.1  iso  5.68  5.68  0.5  mtk yes tchain  5  pchain  5
fix 1  all npt temp  0.45 ${temp}  0.1  iso  5.68  5.68  0.5  mtk yes tchain  5  pchain  5
fix 1  all npt temp  0.45 0.45  0.1  iso  5.68  5.68  0.5  mtk yes tchain  5  pchain  5

dump dmp2 all dcd ${N} traj.dcd
dump dmp2 all dcd 1000 traj.dcd


compute msd all msd com yes
variable twopoint equal c_msd[4]/6/(step*dt+1.0e-6)
fix 9 all vector 10 c_msd[4]
variable fit equal slope(f_9)/6/(10*dt)
thermo_style custom step temp pe c_msd[4] v_twopoint v_fit v_max_n

fix 1 all npt temp 1.25 ${temp} 0.1 iso 5.68 5.68 0.5 mtk yes tchain 5 pchain 5
fix 1 all npt temp 1.25 0.45 0.1 iso 5.68 5.68 0.5 mtk yes tchain 5 pchain 5
run 5000000 # 5000000  # Run for this many steps
Neighbor list info ...
  update every 1 steps, delay 10 steps, check yes
  max neighbors/atom: 2000, page size: 100000
  master list distance cutoff = 3.8
  ghost atom cutoff = 3.8
  binsize = 1.9, bins = 8 8 8
  4 neighbor lists, perpetual/occasional/extra = 1 3 0
  (1) pair lj/cut, perpetual
      attributes: half, newton on
      pair build: half/bin/atomonly/newton
      stencil: half/bin/3d
      bin: standard
  (2) compute orientorder/atom, occasional
      attributes: full, newton on
      pair build: full/bin/atomonly
      stencil: full/bin/3d
      bin: standard
  (3) compute coord/atom, occasional
      attributes: full, newton on
      pair build: full/bin/atomonly
      stencil: full/bin/3d
      bin: standard
  (4) compute cluster/atom, occasional
      attributes: full, newton on
      pair build: full/bin/atomonly
      stencil: full/bin/3d
      bin: standard
Per MPI rank memory allocation (min/avg/max) = 9.845 | 9.850 | 9.854 Mbytes
Step Temp PotEng c_msd[4] v_twopoint v_fit v_max_n 
   12000    1.2457732   -6.7859032 1.020786e-30 7.0887915e-33 8.3333333e+20            2 
   13000    1.2751846   -6.8376982   0.45705695 0.0029298521  0.037251075            4 
   14000    1.2552497   -6.7829881    0.8565114  0.005098282  0.034343148            1 
   15000    1.2615984   -6.8055041     1.309147 0.0072730385  0.035143113            2 
   16000    1.2554271   -6.7970876    1.7421227 0.0090735556  0.035567599            1 
   17000     1.255676   -6.8057166    2.2301836  0.010932272  0.036013775            1 
   18000    1.2258939   -6.8586664    2.6961887  0.012482355  0.036888068            2 
   19000      1.23543   -6.7949147    3.1206869  0.013687223   0.03715722            1 
   20000    1.2471156   -6.8424277    3.4983471  0.014576446  0.036930261            1 
   21000     1.271105   -6.8537893    3.9403897  0.015636467  0.036543179            3 
   22000    1.2666385   -6.8148252    4.4194536  0.016740354  0.036600442            4 
   23000    1.2656777   -6.8552007    4.8541732  0.017587584  0.036530368            1 
   24000    1.2401016   -6.8227356    5.2242266  0.018139675  0.036586306            3 
   25000    1.2727176   -6.8104341    5.6700262  0.018900087  0.036419205            2 
   26000    1.2290625   -6.8477534    6.0212495  0.019298876  0.036251501            1 
   27000    1.2552861   -6.8750806    6.4960619  0.020049573  0.036135495            2 
   28000    1.2459097   -6.8531866    6.9505138  0.020686053  0.036119854            2 
   29000    1.2649167   -6.8311322    7.4384531  0.021374865  0.036166026            3 
   30000    1.2521758   -6.8523296    7.7224131  0.021451147  0.036096307            1 
   31000    1.2237885   -6.8445547    8.1516334  0.021912993  0.035952475            4 
   32000    1.2432251   -6.8328597    8.6096592  0.022420987  0.035848158            1 
   33000    1.2501032   -6.8144801    9.0072269  0.022745522  0.035785529            2 
   34000    1.2386413    -6.836338    9.3564423  0.022932456  0.035650615            2 
   35000    1.2400654   -6.8123316    9.7692134  0.023260032  0.035536329            2 
   36000    1.2347648   -6.8513199    10.191976  0.023592537   0.03541562            9 
   37000    1.2405316   -6.8865668    10.578838  0.023826212    0.0353441            4 
   38000    1.2248154   -6.8249484    10.952778  0.024019249  0.035212141            2 
   39000    1.2301368   -6.8377304    11.386928  0.024331042  0.035097991            2 
   40000    1.2443349    -6.860058    11.879004  0.024747925  0.035045745           13 
   41000    1.2621402   -6.8503611    12.275142  0.024949476  0.035025826            2 
   42000     1.228178   -6.8941931    12.556086  0.024912868  0.034981171            2 
   43000    1.2371781   -6.8621105    12.940114  0.025077739  0.034881328            1 
   44000    1.2464319   -6.7993383    13.382216  0.025345106  0.034803381            1 
   45000    1.2426605   -6.8405926    13.750457  0.025463809  0.034727511            2 
   46000    1.2467927   -6.7920793    14.230558  0.025779997   0.03467443            2 
   47000    1.2477109   -6.8668698    14.629003  0.025937948  0.034637779            1 
   48000    1.2399035   -6.8241819    15.161066  0.026321295  0.034620862            2 
   49000    1.2424617   -6.8255792    15.630178  0.026581934  0.034641187            6 
   50000    1.2422241   -6.8659831    16.008147  0.026680244  0.034653409            1 
   51000    1.2252875   -6.8131976    16.474117  0.026918491  0.034668306            2 
   52000    1.2433294   -6.9060376    16.724648   0.02680232  0.034666558            2 
   53000    1.2574588   -6.8257423    17.206298  0.027053928  0.034658757            2 
   54000    1.2215783    -6.880743    17.607692  0.027172364  0.034643334            1 
   55000    1.2316249   -6.8707152    18.015039  0.027295514  0.034643197            2 
   56000    1.2340329   -6.7905625    18.576488  0.027643584  0.034658186            5 
   57000    1.2128543    -6.893699    18.876488  0.027597205  0.034677689            1 
   58000    1.2438811   -6.8020934    19.469111  0.027972861  0.034700599            3 
   59000    1.2273157    -6.856945     19.84913  0.028035494  0.034720167            2 
   60000    1.2522544   -6.8672121    20.136407  0.027967232   0.03472354            2 
   61000    1.2418459   -6.8361982    20.531379  0.028048332  0.034706252            1 
   62000     1.259654   -6.8803533    20.812486  0.027973772  0.034680283            2 
   63000    1.2425543   -6.8411455    21.214183  0.028061088  0.034651466            2 
   64000    1.2539111   -6.8383914    21.632069  0.028166756  0.034622496            4 
   65000    1.2783431   -6.8588248    22.031525  0.028245544  0.034597156            2 
   66000    1.2347162   -6.8702803    22.534612  0.028452792  0.034576158            2 
   67000    1.2350304   -6.8714167      22.8623  0.028435697   0.03455662            1 
   68000    1.2480186   -6.8783418    23.106569  0.028316874  0.034520123            2 
   69000    1.2475681   -6.8470782    23.443206  0.028313051  0.034473251            3 
   70000    1.2415669   -6.8513324    23.830457  0.028369591  0.034420236            6 
   71000    1.2379115   -6.8545587    24.247988   0.02846008  0.034371642            5 
   72000     1.217618   -6.8617008    24.686941  0.028572849  0.034322456            3 
   73000    1.2272056   -6.8400139     24.92844  0.028457123  0.034275154            2 
   74000    1.2118048   -6.8761971    25.284535  0.028473576  0.034221247            2 
   75000    1.2311444   -6.8738639    25.850355  0.028722616  0.034174129            2 
   76000    1.2190071   -6.8463038     26.09855  0.028616831  0.034131823            2 
   77000    1.2572736   -6.8201307    26.473111  0.028650553  0.034074817            1 
   78000    1.2605152   -6.9228091    26.777722  0.028608677  0.034022075            3 
   79000    1.2382748   -6.8710437    27.275779  0.028771918  0.033976853            1 
   80000    1.2439145   -6.8660852    27.563324  0.028711795  0.033936677            3 
   81000     1.213561   -6.8666904    28.156374  0.028967463    0.0338961            3 
   82000    1.2420195   -6.8353367    28.501694  0.028965136  0.033860511            2 
   83000    1.2449535   -6.8569644    28.943472  0.029059711  0.033833541            2 
   84000    1.2302051   -6.8257725    29.426264  0.029192722  0.033811083            1 
   85000    1.2461854   -6.8986449    29.560075  0.028980465  0.033782121            4 
   86000    1.2403234    -6.828616    30.171674  0.029236118    0.0337568            2 
   87000    1.2398406   -6.8587541    30.326886  0.029048741  0.033729364            4 
   88000    1.2385227   -6.8497567    30.864629  0.029227868  0.033695773            2 
   89000    1.2436682   -6.8488606    31.163749   0.02917954  0.033668478            3 
   90000       1.2353   -6.8669867     31.88748  0.029525445  0.033649957            2 
   91000    1.2490516    -6.834835    32.233013  0.029517411  0.033637456            1 
   92000     1.261171   -6.8146714    32.910678  0.029810396  0.033634661            2 
   93000    1.2277651   -6.8982188    32.920304   0.02949848   0.03362903            3 
   94000    1.2347964   -6.8953805    33.129491  0.029370116  0.033611556            2 
   95000     1.237825   -6.8713277    33.599137  0.029472927  0.033587055            2 
   96000    1.2275976   -6.9115248    33.867405  0.029398789  0.033564529            1 
   97000    1.2553318   -6.8701041    34.373678  0.029530651   0.03354441            2 
   98000    1.2523091   -6.8799345    34.844841  0.029629967  0.033521498            3 
   99000    1.2447971   -6.8750651    35.306665  0.029719415  0.033505843            3 
  100000    1.2365415   -6.8657564     35.81498  0.029845816  0.033503722            1 
  101000    1.2286514   -6.8541016    36.630887  0.030223504  0.033511622            2 
  102000    1.2559843   -6.8773752    36.799034   0.03006457  0.033519691            1 
  103000    1.2481706    -6.811496    37.386652    0.0302481  0.033531087            4 
  104000    1.2202306   -6.8400243    37.690228  0.030200503  0.033542839            2 
  105000    1.2148378   -6.8760249    38.009256  0.030166076  0.033548917            1 
  106000    1.2151452   -6.8915614    38.157173  0.029997777  0.033544293            3 
  107000    1.2070711   -6.8345518     38.71004  0.030148006  0.033536124            2 
  108000    1.2282633    -6.854802    39.005059  0.030096496  0.033531839            3 
  109000    1.2343185   -6.8639137     39.38933  0.030114167  0.033525913            2 
  110000    1.2274509   -6.8294846    39.755491  0.030117796  0.033519246            2 
  111000    1.2391771    -6.873012    40.282032  0.030241766  0.033516812            2 
  112000    1.2425749   -6.8829696    40.789226  0.030349126  0.033516915            3 
  113000     1.229616   -6.8737541    40.851882  0.030126757  0.033513596            2 
  114000    1.2327223   -6.8775993    41.173954  0.030097919  0.033503938            5 
  115000    1.2479359   -6.8680742    41.772197  0.030269708  0.033497261            2 
  116000    1.2337416   -6.8663749    42.061854  0.030216849  0.033488588            2 
  117000    1.2212057   -6.8211796    42.396964  0.030197268  0.033474023            1 
  118000    1.2254741   -6.8902492    42.764361   0.03020082   0.03346257            1 
  119000    1.2568352    -6.862057     43.02208  0.030127507  0.033449402            3 
  120000    1.2222753   -6.8488156    43.716748  0.030358852   0.03343294            2 
  121000    1.2373517   -6.8883614    43.948479  0.030267547  0.033420832            4 
  122000    1.2150322   -6.9063261    44.483239  0.030384726  0.033416412            2 
  123000    1.2162798   -6.8531794    45.168827  0.030602186  0.033412195            2 
  124000    1.2364685   -6.9008688    45.377102  0.030495364  0.033414828            2 
  125000    1.2168405   -6.9708922    45.561257  0.030374171  0.033409053            8 
  126000    1.2311053   -6.8911373     45.94408  0.030386296  0.033403175            2 
  127000    1.2127066   -6.9042761    46.621452  0.030591504  0.033403386            1 
  128000    1.2270961   -6.8994518    47.085202  0.030654428  0.033404358            4 
  129000    1.2318301   -6.8925802    47.230711  0.030510795   0.03340297            2 
  130000    1.2465874    -6.951987     47.14742  0.030222705  0.033395107            1 
  131000    1.2271007   -6.8452949    47.683784  0.030333196  0.033380742            2 
  132000    1.2464545   -6.8853316    48.158195  0.030402901  0.033363941            2 
  133000    1.2286568   -6.8744461    48.497195  0.030386714  0.033348265            3 
  134000    1.2487244   -6.8822436    49.212956  0.030605072  0.033339588            3 
  135000    1.2444426   -6.8873956    49.543952  0.030582687  0.033332381            3 
  136000    1.2116961   -6.9114141    50.091443  0.030693286  0.033334564            2 
  137000    1.2395132   -6.8691343    50.793472  0.030896272   0.03333995            2 
  138000    1.2559802   -6.8465802    51.322673  0.030991952  0.033349583            3 
  139000    1.2192023   -6.8573735     51.40115  0.030816037  0.033354661            3 
  140000    1.2334763   -6.9080836     51.92194  0.030905917  0.033358703            2 
  141000    1.2391962   -6.8697076    52.570022  0.031069753  0.033367127            3 
  142000    1.2313094   -6.9323247     52.62211   0.03088152  0.033371525            2 
  143000     1.245833   -6.8768293    53.036532   0.03090707   0.03337149            2 
  144000    1.2250429   -6.8528518    53.543219  0.030985659  0.033369516            1 
  145000    1.2151481   -6.9372948    53.642959  0.030829287  0.033369464            3 
  146000    1.2398329     -6.86593    54.363572  0.031029436  0.033368322            8 
  147000    1.2601648   -6.8968364    54.654439  0.030983242  0.033372925            2 
  148000    1.2212795   -6.9154605    55.230031   0.03109799  0.033382701            2 
  149000    1.2091313   -6.9090809     55.62963  0.031112768   0.03339202            1 
  150000    1.2381018   -6.9248909    56.194642  0.031219245  0.033403518            1 
  151000     1.225787   -6.9414803      56.6084  0.031240839  0.033419412            2 
  152000    1.2312103   -6.8524116    57.455131  0.031499524  0.033430923            2 
  153000    1.2327071   -6.9165406    57.647283  0.031398302  0.033442293            3 
  154000    1.2393011   -6.8554201    58.169285  0.031476886  0.033456775            2 
  155000    1.2418878   -6.8997822    58.267965  0.031326863   0.03346623            2 
  156000    1.2346724   -6.8704487    58.625855   0.03131723   0.03347533            5 
  157000    1.2489214   -6.8945184    58.808036  0.031214456  0.033481953            2 
  158000    1.2254492    -6.869306    59.628502  0.031449632  0.033488159            2 
  159000    1.2142225   -6.8933883    59.503756  0.031186455  0.033490524            2 
  160000    1.2165382   -6.8982556    59.897721  0.031196729  0.033489196            1 
  161000    1.2451742   -6.9177944    60.233912  0.031176973  0.033490129            3 
  162000    1.2028197   -6.9003746     60.75931  0.031254789  0.033488477            3 
  163000    1.2329388   -6.9366205    61.013769  0.031193133  0.033488751            4 
  164000    1.1895525    -6.907404    61.646678  0.031324532   0.03348878            3 
  165000    1.1988234    -6.853718    62.145596  0.031386665  0.033490625            3 
  166000     1.220524   -6.9115156    62.315568  0.031282916  0.033492853           10 
  167000    1.2447178   -6.8882362    62.867282  0.031370899  0.033493976            1 
  168000    1.2295655     -6.89775    63.080034    0.0312897  0.033494312            1 
  169000    1.2401017    -6.926733    63.441569  0.031282825   0.03349333            1 
  170000    1.2302591    -6.893185    64.006141  0.031375559  0.033490559            3 
  171000    1.2306195   -6.9036416    63.951144  0.031165275  0.033490459            3 
  172000    1.1898469   -6.8808006    64.482473  0.031241508  0.033484088            3 
  173000    1.1990257   -6.9124345    64.870899  0.031248025  0.033480964            2 
  174000    1.2095355   -6.8887353    65.445118  0.031343447  0.033475273            3 
  175000    1.2303839   -6.9088885    65.740665  0.031305079  0.033469662            4 
  176000    1.1970615   -6.9359779    66.036706   0.03126738  0.033460832            4 
  177000    1.2219792   -6.9105162    66.266619  0.031198973  0.033451998            2 
  178000    1.2090401   -6.8781862     66.99054  0.031362612  0.033446321            1 
  179000    1.2205415   -6.9067836    67.204676  0.031287093  0.033440808            3 
  180000    1.2310912   -6.8681963    67.525609  0.031261856  0.033433641            2 
  181000    1.2168454   -6.9127664    67.628676  0.031136591  0.033429063            6 
  182000     1.211301   -6.8892189    68.262116  0.031255548  0.033421224            3 
  183000    1.2341375   -6.8976265    68.666626  0.031268955  0.033413976            2 
  184000     1.217608   -6.9095119    69.023157  0.031260487   0.03340701            2 
  185000    1.2139696   -6.9437499    69.437921  0.031278343  0.033399581            3 
  186000    1.2177551   -6.9145429    69.932342  0.031331694   0.03339298            2 
  187000    1.2443351   -6.8795499    70.487047   0.03141134  0.033385579            3 
  188000    1.2140144   -6.9421865    70.750659  0.031361107  0.033381166            4 
  189000    1.2340279   -6.8668679    71.442922  0.031500406  0.033377855            3 
  190000    1.1978428   -6.8852466    71.633355  0.031418138  0.033376682            2 
  191000    1.2240611   -6.9328313    71.952129  0.031392726  0.033375098            2 
  192000    1.2256187   -6.8954232     72.45433  0.031447192  0.033368527            5 
  193000    1.2010576   -6.8947537    72.632843  0.031361331  0.033363281            4 
  194000    1.2019468   -6.8680756    73.297587  0.031485218  0.033359784            1 
  195000    1.2196046   -6.9194101    73.334508  0.031339533  0.033357736            3 
  196000    1.2265119   -6.9426946    73.650378  0.031313936   0.03335187            3 
  197000    1.2037693   -6.9414972    73.925233  0.031271249  0.033342597            2 
  198000    1.2184941   -6.8901444    74.246961  0.031248721  0.033334249            2 
  199000    1.2109081    -6.897691    75.181281  0.031482948  0.033326156            2 
  200000    1.2149574   -6.9326876    75.285703  0.031369043  0.033320165            1 
  201000    1.2001254   -6.9100517    75.747355  0.031404376  0.033312979            2 
  202000    1.2158233   -6.9409127    76.142308  0.031411843  0.033309701            3 
  203000    1.2030281   -6.8788049    76.824528  0.031537163  0.033306341            2 
  204000    1.2391098   -6.8741145    76.990216  0.031450252  0.033303777            5 
  205000    1.2141457   -6.9472731    77.186617  0.031376674  0.033298789            4 
  206000    1.1889931   -6.9378159    77.650466  0.031412001  0.033293684            1 
  207000    1.1964752   -6.9791984    77.826476  0.031331109  0.033287099            2 
  208000    1.1951337   -6.9291113    78.692252  0.031527345  0.033282498            2 
  209000    1.1929235   -6.9313777    79.235466  0.031593088  0.033278599            4 
  210000    1.1949569   -6.8890244    79.520912  0.031555917  0.033273542            1 
  211000    1.2531258   -6.8793019    79.784845  0.031510602  0.033270263            3 
  212000      1.19141   -6.8863203     80.37653  0.031594548  0.033265732            3 
  213000    1.2325388   -6.9499192    80.097355  0.031336993  0.033261333            4 
  214000    1.2186296    -6.910534     80.63189  0.031398711  0.033254354            6 
  215000    1.2008017    -6.918811    80.877111  0.031347717  0.033244871            2 
  216000    1.2171449   -6.9028884    81.119832  0.031296232  0.033233595            4 
  217000    1.2035787   -6.9374239    81.370448  0.031248252  0.033224513            3 
  218000    1.2133806   -6.9068984     81.97415  0.031335684  0.033214049            2 
  219000    1.1605805   -6.9640364    82.189492   0.03127454  0.033204591            2 
  220000    1.2208923   -6.9141541    82.439517   0.03122709  0.033195283            4 
  221000    1.2096154   -6.8903608    83.086516  0.031329757  0.033185372            1 
  222000    1.2376087    -6.918027    83.510487   0.03134778  0.033174278            3 
  223000    1.2078506   -6.9568771    83.755597  0.031298803  0.033163937            1 
  224000    1.2169463   -6.9012626     84.07598  0.031278266  0.033152554            2 
  225000    1.2062076   -6.9099987    84.165796  0.031172517  0.033140435            3 
  226000     1.238166   -6.9339987    84.785844  0.031263217  0.033128683            3 
  227000    1.2200681   -6.8572628    85.420967  0.031358652  0.033116198            2 
  228000    1.2180066   -6.9275414     85.40317  0.031214609  0.033106447            2 
  229000    1.2038763   -6.9133235    85.858334  0.031243935  0.033095611            4 
  230000    1.1953053   -6.9143081    86.207867  0.031234734  0.033084153            2 
  231000    1.2171053   -6.8895831    86.655266  0.031260919  0.033073709            5 
  232000    1.2285691   -6.8565547    87.209292  0.031325177   0.03306436            1 
  233000    1.2113514   -6.9278536    87.114585  0.031156861  0.033052489            2 
  234000    1.2102009   -6.9286605    87.762103   0.03125431  0.033040738            4 
  235000    1.2287088   -6.9230234    88.107399  0.031243759  0.033029574            1 
  236000    1.1975067   -6.9138818    88.394466  0.031212735  0.033016238            2 
  237000    1.2462418   -6.8690826    88.731997  0.031199718  0.033002919            3 
  238000    1.2068425   -6.9148067    89.020187  0.031169533   0.03298928            4 
  239000    1.2127094   -6.9484495    88.983176  0.031026212  0.032974574            2 
  240000    1.2392982   -6.8961714    89.680723   0.03113914  0.032959662            1 
  241000    1.2157126   -6.8908049    90.020311  0.031127355  0.032944677            4 
  242000    1.2175213   -6.9611156    90.299034  0.031094709  0.032931037            1 
  243000    1.2061089   -6.9178706    91.034856  0.031219086   0.03291716            6 
  244000    1.2019754   -6.9166732    91.197301  0.031146619  0.032904493            3 
  245000    1.2258642   -6.9107223    91.838548  0.031237601  0.032893169            2 
  246000     1.213194   -6.9378333    92.114749  0.031204183  0.032881965            2 
  247000     1.216681   -6.8798206     92.45457    0.0311925   0.03287103            2 
  248000    1.1963945   -6.9302245    92.888699    0.0312126  0.032862291            1 
  249000    1.2304245   -6.9192069    93.650698  0.031342268  0.032853467            3 
  250000    1.1779589    -6.889952    94.323293  0.031441098  0.032845473            7 
  251000    1.2088069    -6.917528     94.66907  0.031430634  0.032838817            2 
  252000    1.2183966   -6.9515428    94.816953  0.031354812  0.032833108            3 
  253000    1.2015411   -6.9264364    94.999864  0.031291128   0.03282758            3 
  254000    1.2303014   -6.9279307    95.348372  0.031282274  0.032820179            3 
  255000    1.2138807   -6.8800682    96.110223  0.031408569  0.032813521            1 
  256000    1.1964058   -6.9392683    96.093087  0.031280302  0.032805963            1 
  257000    1.2201962   -6.8859676    96.502598  0.031291374  0.032797523            5 
  258000    1.2056328   -6.9281631    96.578017   0.03119445   0.03278963            2 
  259000    1.2064831   -6.9123408    97.614795  0.031407592  0.032781995            1 
  260000     1.210388   -6.9103995    97.940157  0.031391076  0.032775978            2 
  261000    1.2050713   -6.9478541    98.041655   0.03130321  0.032769269            6 
  262000    1.2110058   -6.9157391    98.602503  0.031362119  0.032760792            4 
  263000    1.2082392   -6.9343592    98.921267  0.031343874  0.032754213            3 
  264000    1.2186474   -6.9158251    99.464969   0.03139677  0.032748904            3 
  265000    1.2373947   -6.9273779    99.610692  0.031324117  0.032742099            2 
  266000    1.1940258   -6.9269918    99.903806  0.031298185  0.032736686            1 
  267000    1.1925766   -6.9592988    100.24118  0.031286261  0.032731064            3 
  268000    1.2083014   -6.9233654    100.48628  0.031245735  0.032723798            2 
  269000    1.1905078   -6.9294953    101.02655  0.031296949  0.032715099            3 
  270000    1.2059256    -6.945643    101.19167  0.031231997  0.032706407            5 
  271000     1.220992   -6.9909276    100.88429   0.03102223  0.032694362            2 
  272000    1.1644978   -6.9785684    101.22234  0.031011747  0.032682972            2 
  273000     1.201356   -6.9307115     102.1635  0.031185438   0.03267242            4 
  274000    1.2032979   -6.9159085    102.72751   0.03124316  0.032663036            3 
  275000    1.2431915   -6.9699406    103.21139   0.03127618  0.032654912            2 
  276000    1.2221693   -6.9484861    103.82838   0.03134915  0.032647152            1 
  277000    1.2403712   -6.9254288    104.28986  0.031374808  0.032639777            6 
  278000    1.1982724   -6.9100123    105.02399  0.031482012  0.032633222            1 
  279000    1.1831018   -6.9588931    105.16186  0.031410352  0.032627221            1 
  280000    1.1927598   -6.9443046    104.93255  0.031229927  0.032620447            2 
  281000    1.2265376   -6.9487656    105.27431  0.031220138  0.032612604            3 
  282000    1.2093982   -6.9420225    105.22153  0.031093832   0.03260145            3 
  283000     1.212131   -6.9310936    105.55883  0.031083283  0.032591222            2 
  284000    1.1860824   -6.9525911    105.60082  0.030986156  0.032579247            3 
  285000    1.1783899   -6.9417186    106.35665  0.031098437  0.032566597            2 
  286000    1.2118763   -6.9716123    106.45251  0.031017632  0.032555412            1 
  287000     1.204718   -6.9791689    107.04656  0.031082045  0.032544019            1 
  288000    1.1978724   -6.9383451    107.53978  0.031116834  0.032533699            4 
  289000    1.2265165   -6.9778604    107.33831  0.030951069   0.03252146            2 
  290000    1.2028304    -6.957379    107.94917  0.031019877  0.032509408            2 
  291000    1.2335504   -6.9482016    108.27703  0.031007168  0.032497596            1 
  292000    1.2169721   -6.9634669    108.08525  0.030846248  0.032485413            3 
  293000    1.2286431   -6.9128162    108.99885   0.03100081  0.032473174            2 
  294000    1.1924119     -6.98014    109.12526  0.030931197  0.032461054            1 
  295000    1.2196063    -6.928808    109.27717  0.030869257  0.032447028            2 
  296000     1.207501   -6.9398892    109.73763  0.030894604   0.03243222            6 
  297000    1.2007274   -6.9141468    110.25257  0.030935064  0.032420174            2 
  298000    1.2075993   -6.9720207    110.39438   0.03087091  0.032407661            1 
  299000    1.2075988    -6.977056    110.91176  0.030911861  0.032394897            2 
  300000    1.2077741   -6.9651924    111.21085  0.030891901  0.032382571            3 
  301000    1.1799254   -6.9231754    111.80171  0.030952855   0.03236889            6 
  302000     1.208832   -6.9729189    111.53735  0.030777415  0.032355862            2 
  303000    1.2030829   -6.9773815    111.79154  0.030745749  0.032341876            6 
  304000    1.1959377   -6.9356557    112.25863   0.03077265   0.03232872            2 
  305000    1.1793343   -6.9592908    112.62472  0.030771781  0.032314673            1 
  306000    1.2288703   -6.9691621    112.92607  0.030753287  0.032300511            2 
  307000    1.2260137   -6.9209516    113.76558  0.030880993  0.032286362            2 
  308000    1.2144143   -6.9179612    113.83551  0.030799651  0.032272823            2 
  309000    1.1857548   -6.9175997    114.08765  0.030767974  0.032258294            5 
  310000    1.2062139   -6.9481159    114.41082  0.030755597  0.032244671            2 
  311000    1.1847645   -6.9678764    114.87085  0.030779971  0.032231647            1 
  312000    1.2070276   -6.8883255    115.56088   0.03086562  0.032218776            4 
  313000    1.2521867   -6.9729357    115.44338  0.030735723  0.032205307            3 
  314000    1.2116788   -6.9800972    116.01412  0.030789309  0.032191998            1 
  315000    1.2027583   -6.9517279    116.57146  0.030839011  0.032178531            3 
  316000    1.1891136   -6.9423118    116.73764  0.030785241  0.032164927            1 
  317000    1.1887946   -6.9370053    116.54086  0.030636399  0.032151202            7 
  318000    1.1793598   -6.9609209    116.79677   0.03060712  0.032136244            2 
  319000    1.1847932   -6.9910035    116.95511  0.030552536  0.032121218            1 
  320000    1.1925514   -6.9201631    117.68247  0.030646477  0.032106745            2 
  321000    1.2128369   -6.9414871    118.22373  0.030691518  0.032092535            4 
  322000    1.1915975   -6.9370612    118.58496   0.03068969  0.032079069            4 
  323000     1.198575    -6.943918    118.74513  0.030635999  0.032064014            2 
  324000    1.1890626   -6.9583584    119.21283  0.030661736  0.032048939            1 
  325000    1.2114793    -6.976925    119.25008  0.030576944  0.032034826            1 
  326000    1.2077249   -6.9601355    119.69988  0.030598128  0.032020744            7 
  327000     1.179757   -6.9525993    120.31018  0.030660088  0.032006314            6 
  328000    1.1901125   -6.9662013    120.73499   0.03067454   0.03199179            5 
  329000    1.2117191   -6.9481093     120.7251  0.030578799  0.031976778            2 
  330000    1.2113675   -6.9532753    121.27784  0.030625718  0.031962553            1 
  331000    1.2055877   -6.9897158    121.12773  0.030495401  0.031947669            3 
  332000    1.2219964   -6.9478788    122.32908  0.030705089  0.031933692            2 
  333000    1.2198586   -6.9808882    121.65686  0.030444659  0.031918905            4 
  334000    1.2348446   -6.8937141     122.5846  0.030584981  0.031904717            2 
  335000    1.1703706   -6.9432048    122.93711  0.030581371  0.031890996            3 
  336000    1.1959758    -6.911678    123.24925  0.030567771    0.0318775            2 
  337000    1.1937621   -6.9788775    123.53352  0.030547359  0.031864278            2 
  338000    1.1853778   -6.9681882    124.31121   0.03064872  0.031853181            3 
  339000    1.1736062   -6.9788298    124.83627  0.030687382  0.031841935            6 
  340000     1.212982   -6.9496664    125.28997  0.030708327  0.031829771            2 
  341000     1.202693   -6.9909871    125.92027  0.030772304  0.031819026            3 
  342000    1.2120383   -6.9824765    125.56413  0.030595549  0.031807302            7 
  343000    1.2163478   -6.9631243    125.83164   0.03057134  0.031795737            3 
  344000    1.1892814   -6.9746878    126.67974  0.030687922  0.031784727            3 
  345000      1.22699   -6.9762187    127.03254  0.030684188  0.031773348            2 
  346000    1.2122099   -6.9619733    127.09616  0.030610829  0.031763353            2 
  347000    1.2182711   -6.9608265    127.88206  0.030711349  0.031753381            2 
  348000     1.196901   -7.0009868     127.9433  0.030637764  0.031743416            1 
  349000    1.1735154   -6.9810427    128.14586  0.030598342  0.031733168            2 
  350000    1.1826553   -6.9794417    128.18717  0.030520756  0.031722465            2 
  351000    1.1830682    -7.013786    128.62121  0.030536849  0.031710995            3 
  352000    1.1841472   -6.9863002    129.09825  0.030563033  0.031700397            1 
  353000     1.199081   -6.9629455    129.33312  0.030531899  0.031690172            3 
  354000    1.1968767   -6.9525855    130.25092  0.030661705  0.031679711            5 
  355000    1.1961673    -6.939433    131.28508  0.030818095  0.031670542            2 
  356000    1.2034182   -6.9472633     131.1808  0.030707116  0.031661898            3 
  357000    1.2042082   -6.9723086    131.07292  0.030595919  0.031652082            2 
  358000    1.1893415   -6.9785959    131.80412   0.03068066  0.031642221            2 
  359000    1.2088598   -6.9705191    131.72192  0.030576118  0.031633279            4 
  360000    1.1873108    -6.954683    132.44424  0.030658388  0.031624425            8 
  361000    1.1894392   -6.9970991     132.8283  0.030662119  0.031616936            3 
  362000    1.2154991   -6.9521746    133.34259  0.030695809  0.031608904            2 
  363000    1.1953728   -6.9625948    133.67028  0.030686474  0.031600855            4 
  364000     1.188337   -6.9905226    134.39529  0.030768153  0.031593203            3 
  365000    1.2029786   -6.9480268    135.07554  0.030839164  0.031586581            4 
  366000    1.2062191   -6.9639346    135.01389  0.030740866  0.031580619            4 
  367000    1.1902311   -6.9553675     135.6028  0.030790826  0.031574344            3 
  368000    1.2231341   -6.9813754     135.5751  0.030700884  0.031567835            6 
  369000    1.1902907   -7.0000921    136.03042  0.030720509  0.031561734            4 
  370000    1.2049804   -6.9979953    136.40625  0.030722129   0.03155575            1 
  371000    1.2037363   -6.9364715    137.13488  0.030802984  0.031549715            3 
  372000     1.206247   -6.9962196    137.40495  0.030780678  0.031544297            3 
  373000     1.200839   -6.9609291    137.93719  0.030817066  0.031539156            2 
  374000    1.1779965   -6.9460639    138.54977  0.030871161  0.031533254            2 
  375000      1.17723   -6.9579821    138.67728  0.030817174   0.03152803            2 
  376000    1.1874816   -7.0005838    138.62614  0.030723879  0.031521665            4 
  377000     1.202578   -6.9676964    139.02248  0.030729992  0.031515481            1 
  378000    1.1855317   -6.9432396    139.65295  0.030787687  0.031509808            3 
  379000    1.1945547   -7.0297543    139.50367  0.030673631  0.031503282            6 
  380000    1.2110559    -6.961313    139.74034  0.030644812  0.031495293            2 
  381000    1.1997356   -6.9829582     140.1244  0.030648382  0.031488473            2 
  382000    1.1638528   -7.0126221    139.97939  0.030536515  0.031481568            5 
  383000    1.1576086   -6.9117309    140.99341  0.030677417  0.031473852            3 
  384000    1.1768844   -6.9978421    140.91984  0.030581563  0.031465931            1 
  385000    1.1799333   -6.9369704    141.12783  0.030547149  0.031456744            3 
  386000    1.1844933   -6.9450845    141.33186   0.03051206  0.031447939            1 
  387000    1.1671234   -7.0221187    141.42866   0.03045406  0.031438461            1 
  388000    1.1655457   -7.0216447    141.94411  0.030486278  0.031429718            3 
  389000    1.1775745    -6.975089    142.39887  0.030505328  0.031420044            3 
  390000    1.1660076   -6.9608052    143.18619   0.03059534  0.031411364            2 
  391000    1.2055255   -6.9803218    142.82049  0.030439149   0.03140351            2 
  392000     1.180167   -6.9821318    143.49974  0.030505896  0.031394674            1 
  393000    1.1797393   -6.9528969    144.35473  0.030609571  0.031386295            8 
  394000    1.2015183   -6.9562056     144.7295  0.030611145  0.031378253            2 
  395000     1.201528   -7.0090456    144.71976  0.030531595  0.031371161            2 
  396000    1.2102592   -6.9859449    145.48015   0.03061451  0.031363716            5 
  397000    1.1936395    -6.976783    145.37024  0.030514325  0.031356353            4 
  398000    1.1884207   -6.9596559    146.53466  0.030681461  0.031349649            3 
  399000    1.1763794   -6.9851468    146.38535  0.030573382  0.031343226            3 
  400000    1.2072531   -6.9937071    146.98173  0.030621194  0.031336273            2 
  401000    1.1860862   -6.9879972     147.1462   0.03057901  0.031330949            3 
  402000    1.2122972   -6.9408406     147.8558  0.030650041  0.031324653            2 
  403000    1.1764095   -6.9701895    148.08009  0.030620365  0.031319076            3 
  404000    1.1968937   -6.9613364    148.00363  0.030528802  0.031313244            3 
  405000    1.1939985   -6.9741387    148.78489  0.030614175  0.031307167            2 
  406000    1.1876894   -6.9771542    149.04537  0.030592235  0.031301134            1 
  407000    1.1672115   -7.0127761    149.28847  0.030566844  0.031295764            1 
  408000    1.1896273   -6.9999377    149.79496  0.030595376  0.031291266            2 
  409000    1.1626302     -7.01141    149.86199  0.030534228  0.031286029            4 
  410000    1.1795179   -6.9746642    150.71228  0.030632577  0.031280628            3 
  411000    1.1528183    -6.967826    150.80732  0.030577315  0.031275591            1 
  412000    1.1995213   -6.9452756    151.10772  0.030563858  0.031269257            3 
  413000    1.1908996   -6.9711929    151.56576  0.030582276   0.03126319            2 
  414000    1.1921933   -7.0177047    152.23715  0.030643548  0.031257722            2 
  415000    1.1782011   -6.9996156    152.57481  0.030637511  0.031252377            3 
  416000    1.1838281    -6.965081    153.40234  0.030729635    0.0312472            2 
  417000    1.1672336   -7.0355994     153.2725  0.030629995  0.031242961            2 
  418000    1.1589344   -6.9812598    154.12147   0.03072597  0.031238759            3 
  419000    1.1857319   -6.9815729    154.13247  0.030654827  0.031234244            2 
  420000    1.1749824    -7.007585    153.95554  0.030546735  0.031229447            3 
  421000    1.1801919   -6.9413654     155.1993  0.030720368  0.031224517            2 
  422000    1.1687349    -7.014149    154.71396   0.03055173  0.031220337            2 
  423000    1.2078647   -7.0058339    155.27432  0.030589897  0.031214975            3 
  424000    1.1901892   -6.9912596    155.71307  0.030603984  0.031210105            2 
  425000    1.1892473   -6.9647494    155.79266  0.030547581  0.031204519            2 
  426000    1.1688168   -6.9418394    157.19783  0.030750749  0.031199749            2 
  427000    1.2119643   -7.0268664     156.3671  0.030516607  0.031194745            6 
  428000    1.2207108   -6.9696257    157.04008  0.030576339  0.031189867            1 
  429000    1.2071925    -7.026764    157.28155  0.030551971  0.031184594            5 
  430000    1.1931349   -6.9893013    157.95118  0.030610693  0.031179096            1 
  431000    1.1759272    -6.994799    157.85264   0.03052062   0.03117296            1 
  432000    1.2183151   -6.9973945    157.79863   0.03043955  0.031166111            4 
  433000    1.1885168   -6.9774253    158.57598  0.030518856  0.031160044            5 
  434000    1.1880233   -6.9828775     158.5441  0.030442416  0.031153583            3 
  435000    1.1659139   -7.0198125    159.10779  0.030480419  0.031146838            1 
  436000    1.1521931   -7.0461931    158.99103  0.030388193  0.031139693            4 
  437000     1.167588   -6.9894508    160.49033  0.030604563  0.031132905            3 
  438000    1.1476179   -7.0251348    160.46651  0.030530158  0.031127231            2 
  439000    1.2021815   -6.9662399    160.40941  0.030449775  0.031121576            3 
  440000    1.1964245   -6.9831542    161.31596  0.030552266  0.031115209            1 
  441000    1.1605208   -7.0035064    161.58285  0.030533419  0.031109298            2 
  442000    1.1575093   -7.0225753    161.14761  0.030382279  0.031102828            2 
  443000    1.2358314   -7.0023438    161.82714  0.030441523  0.031096049            2 
  444000    1.1721724   -7.0416225    161.84247  0.030375839  0.031089615            1 
  445000    1.1872761   -6.9894614     162.2967   0.03039264  0.031083126            2 
  446000    1.1589232   -7.0421694    162.91944  0.030440853  0.031076829            3 
  447000    1.1701271   -6.9931587     163.1177  0.030409713  0.031069679            1 
  448000    1.1715071   -7.0038913    163.37858  0.030390361  0.031063249            2 
  449000    1.1677022   -6.9902732    164.17553  0.030470588  0.031056997            5 
  450000    1.2062351    -6.993718    164.27214  0.030420767  0.031050742            2 
  451000    1.1883477   -6.9934396     164.7265  0.030437269   0.03104466            1 
  452000    1.1637398    -7.012088    164.54913  0.030337228  0.031037698            4 
  453000    1.2048422   -7.0176302    164.99485  0.030352254  0.031030953            4 
  454000    1.1742441   -7.0166768    165.67083  0.030409478     0.031024            1 
  455000    1.1896354   -6.9978438     165.9538  0.030394468  0.031017538            5 
  456000    1.1654669    -7.050534    165.66689  0.030275381  0.031010587            5 
  457000    1.1979279   -7.0160087    166.36259  0.030335994  0.031004268            1 
  458000    1.1769703   -7.0194115    166.84903  0.030358266  0.030997525            3 
  459000    1.1942812   -6.9912464    167.08217  0.030334454  0.030991691            1 
  460000    1.2057436   -7.0243968    167.23699  0.030296556  0.030985823            2 
  461000    1.1880887   -7.0241904    167.91629  0.030353632  0.030979171            3 
  462000    1.1916886   -7.0512454    167.18051  0.030155215  0.030971603            5 
  463000    1.1702254    -7.005065     168.4409  0.030316936  0.030964147            2 
  464000    1.1541894   -6.9953296    168.54668  0.030270597  0.030956819            2 
  465000    1.1867635   -6.9867467    168.92622  0.030273516  0.030949193            2 
  466000    1.1751471   -7.0278199    168.83903  0.030192959  0.030941802            3 
  467000     1.188167   -7.0109653    169.64618  0.030272338  0.030934116            2 
  468000     1.173811   -7.0065054    169.55329  0.030191112   0.03092609            2 
  469000    1.1978007   -7.0641879     169.3945  0.030098525  0.030918534            5 
  470000    1.1647776   -7.0707083    170.21564  0.030180079  0.030911227            2 
  471000    1.1948404   -7.0329783    170.49086  0.030164695   0.03090407            2 
  472000    1.1611961    -7.033074    170.86878  0.030167511  0.030896481            3 
  473000    1.1756435    -6.978328    171.63532  0.030238781  0.030888818            5 
  474000    1.1720096    -7.031655    171.06528  0.030074769  0.030880424            4 
  475000    1.1777042   -7.0396409    171.55543  0.030097444  0.030872608            3 
  476000    1.1612261   -6.9965452    171.92853  0.030099533  0.030865012            4 
  477000    1.1583967   -7.0395214    172.28195  0.030098175  0.030856557            4 
  478000    1.1647829   -7.0032245    172.93107  0.030148373  0.030848719            2 
  479000    1.1799617   -7.0701035    172.96662  0.030091618  0.030841752            2 
  480000    1.1652022   -7.0424157    173.98334  0.030205441  0.030835296            3 
  481000    1.1990088   -7.0437802    174.20353  0.030180791  0.030828566            4 
  482000    1.1570027   -7.0480495     174.7044  0.030204771  0.030822175            2 
  483000     1.201712   -7.0320401    175.14924  0.030218986  0.030815696            2 
  484000     1.170278   -7.0394039    175.28457   0.03017985  0.030809763            5 
  485000    1.1555669   -7.0867434    175.58647  0.030169497  0.030803845            4 
  486000    1.1957214   -7.0334537    176.35793    0.0302397  0.030798514            2 
  487000     1.170532   -7.0668568    176.98166  0.030284336  0.030793649            3 
  488000    1.1846524   -6.9850618    178.21871  0.030433523  0.030789647            3 
  489000     1.170085   -7.0366056    178.54323  0.030426589  0.030786055            6 
  490000    1.1586666   -7.0560063    178.13989    0.0302959  0.030782134            3 
  491000     1.182097   -7.0059714    179.80175   0.03051625  0.030778327            2 
  492000       1.1667   -7.0618554    178.98072  0.030315163  0.030774532            2 
  493000    1.1813401   -7.0499373     179.4317  0.030329902  0.030770504            4 
  494000    1.1789837   -7.0359013     179.5289  0.030284902   0.03076591            5 
  495000    1.1601899   -7.0496299    180.34013  0.030360292  0.030761508            5 
  496000    1.1609265   -6.9793797    180.89969  0.030393093  0.030757709            4 
  497000    1.1757661   -7.0334215    181.03626  0.030354838  0.030753738            2 
  498000    1.2006656   -6.9911981    181.69628  0.030404331  0.030749906            3 
  499000    1.1665739   -7.0084111    182.01106  0.030395969  0.030746766            2 
  500000    1.1669121   -7.0046118    182.41418  0.030402363  0.030743384            2 
  501000    1.1727126   -7.0687976    182.31559  0.030325281  0.030739028            6 
  502000    1.1566799    -7.015029    182.61074  0.030313868  0.030735023            2 
  503000    1.1733593   -7.0078892    183.04065  0.030324827  0.030730903            3 
  504000    1.1746482    -6.971677    184.31653  0.030475617  0.030727269            2 
  505000    1.1928878   -7.0746502    183.62232  0.030300713  0.030724156            2 
  506000    1.1901335   -7.0369333    184.81273   0.03043688  0.030720609            1 
  507000    1.1822396   -7.0396512    184.39538  0.030308249  0.030717392            4 
  508000    1.1510436   -6.9812218    184.99548  0.030347027  0.030714273            2 
  509000    1.1845687   -7.0264433    185.87596  0.030431559  0.030711536            1 
  510000    1.1877197   -7.0184844    186.39534  0.030456755   0.03070846            2 
  511000    1.1666215   -7.0656351    186.14715  0.030356678  0.030705867            5 
  512000    1.1499525   -6.9839672    187.86742  0.030577379  0.030703478            2 
  513000    1.1638434   -7.0274916     187.5129  0.030460185  0.030701509            2 
  514000    1.1791095   -7.0685737    187.50213  0.030399178   0.03069912            2 
  515000    1.1885901   -7.0288309    188.07928  0.030433541   0.03069719            2 
  516000    1.1798859   -7.0770271    187.86176  0.030339431  0.030694565            2 
  517000    1.1756527   -7.0154672    189.36317  0.030522754   0.03069212            2 
  518000      1.16098   -7.0471641    189.68087  0.030514941  0.030690314            1 
  519000    1.1791763   -7.0502825    189.78632  0.030473077  0.030688302            3 
  520000    1.1628755   -7.0580478    190.15985  0.030474335  0.030686934            5 
  521000     1.175216   -7.0225399    191.10516  0.030567044  0.030685215            2 
  522000    1.1584689   -7.0438553    190.84178   0.03046644  0.030683648            2 
  523000    1.1521633   -7.0592868    191.42901  0.030501754  0.030681486            2 
  524000    1.1640981   -7.0556832     191.3871   0.03043688  0.030679404            3 
  525000    1.1714263   -7.0218918    191.68675  0.030426469  0.030677672            6 
  526000    1.1697346   -7.0405743    192.42591  0.030485727  0.030676117            3 
  527000    1.1912819   -7.1055761    191.57974  0.030294076  0.030673978            3 
  528000    1.1950888   -7.0858817    192.86028  0.030438806  0.030671694            5 
  529000    1.1700732   -7.0440505    193.43718  0.030472146  0.030669986            1 
  530000    1.1890576   -7.0216095     193.9469  0.030494795   0.03066823            5 
  531000    1.1790885   -7.0674064    194.29428  0.030491883  0.030666949            3 
  532000     1.159005   -6.9958378    195.59158  0.030637779  0.030665841            1 
  533000    1.1883377   -7.0802963    194.49817  0.030409344  0.030664457            5 
  534000    1.1934561    -7.092826    194.37479  0.030333145  0.030662159            2 
  535000    1.1745339   -7.0404475    195.39696  0.030435663  0.030659924            1 
  536000    1.1687034   -7.0362186    195.53481  0.030400313  0.030657861            3 
  537000    1.1632195   -7.0162911    196.36415  0.030472401  0.030655762            2 
  538000    1.1723894   -7.0230584    196.67169  0.030463397   0.03065425            2 
  539000    1.1825224   -7.0428795    196.99216  0.030456426  0.030652682            6 
  540000    1.1816533   -7.0248194    197.77767  0.030521246  0.030650968            1 
  541000    1.1595655   -7.0287533    197.93509  0.030489078  0.030649713            3 
  542000    1.1751855   -7.0063429    198.62984  0.030539644  0.030648334            3 
  543000     1.185785    -7.054863    198.68831  0.030492374  0.030647198            1 
  544000    1.1421637   -7.0375318    198.43185  0.030397036  0.030645611            3 
  545000    1.1676205   -7.0516749    199.21467  0.030460959  0.030643562            2 
  546000    1.1622496   -7.0363812    199.82679  0.030498594  0.030641283            4 
  547000    1.1794879   -7.0487425    199.51579  0.030395459  0.030639205            2 
  548000    1.1528264   -7.0507927    200.40512   0.03047523   0.03063741            3 
  549000    1.1685663   -7.0454872    200.57422  0.030445388  0.030636117            3 
  550000    1.1502586   -7.0295233    200.79144  0.030422945  0.030634363            1 
  551000     1.198132    -7.058722    200.88981   0.03038261  0.030632712            3 
  552000    1.1579447   -7.0842232    200.82039  0.030317088  0.030631189            5 
  553000    1.1566054   -7.0726968    201.63376  0.030384834  0.030629151            2 
  554000    1.1755227   -7.0507385    201.58523  0.030322687  0.030626606            2 
  555000     1.175627    -7.073779    202.17471  0.030356563  0.030624412            4 
  556000    1.1599982   -7.0677041    202.38347  0.030333254  0.030621702            2 
  557000    1.1656318   -7.0298534    203.62456  0.030464477  0.030619484            2 
  558000    1.1485905   -7.0157222    203.97629  0.030462409  0.030617582            2 
  559000    1.1808222   -7.0162712    203.94621  0.030403431  0.030615808            2 
  560000     1.158823   -7.0596145     204.6691  0.030456711  0.030613536            2 
  561000    1.1566728   -7.0885971     204.6242  0.030395751  0.030611686            4 
  562000     1.163993   -7.0553233    204.82807  0.030371897  0.030609223            3 
  563000    1.1682468   -7.0250674    205.35516  0.030395968  0.030607223            4 
  564000    1.1439171   -7.0644088    205.24321  0.030325533  0.030605421            1 
  565000    1.1572047   -7.0325906    206.21939   0.03041584  0.030603086            2 
  566000    1.1775831   -7.0475747    206.40291  0.030389121  0.030600529            2 
  567000    1.1432789   -7.0673056     207.1998  0.030452645   0.03059773            2 
  568000    1.1846043   -7.0473953    206.46612  0.030291391  0.030595651            2 
  569000    1.1540483   -7.0468648    206.49152  0.030241874  0.030592524            4 
  570000    1.1598503   -7.0490602    207.47068   0.03033197  0.030589787            3 
  571000     1.176446   -7.0867424    207.48933  0.030281572   0.03058687            5 
  572000    1.1450694   -7.0374199    208.43881  0.030366959  0.030583771            5 
  573000    1.1936466   -7.0633035    208.97917   0.03039255  0.030580966            4 
  574000    1.1446662   -7.0591678    209.25929  0.030380268  0.030578315            1 
  575000    1.1756596   -7.0831158    208.96495  0.030284776  0.030575613            5 
  576000    1.1445922    -7.052854    209.63986   0.03032984  0.030572836            2 
  577000    1.1747218    -7.053426    210.22893  0.030362353  0.030570081            2 
  578000    1.1608709   -7.0455269    210.67254   0.03037378  0.030567985            1 
  579000    1.1571683   -7.0667596    210.34816  0.030274634  0.030565775            3 
  580000    1.1550633   -7.0985941    210.78353  0.030284989  0.030563199            2 
  581000    1.1733011   -7.0678572    211.58038  0.030347157   0.03056069            4 
  582000    1.1608199   -7.0915133    211.65323  0.030305446  0.030557827            2 
  583000    1.1548867   -7.0514827    212.31818  0.030348511  0.030555503            2 
  584000    1.1622259   -7.0345485    211.99585  0.030250549  0.030552542            2 
  585000    1.1706367   -7.0807168     211.8881   0.03018349  0.030549522            2 
  586000    1.1527821   -7.0466387    212.33411  0.030195408  0.030546342            2 
  587000    1.1656501   -7.0516796    212.74661  0.030202528   0.03054293            2 
  588000    1.1636493    -7.037545    214.20901  0.030358419  0.030539445            4 
  589000    1.1406837   -7.0694443    213.08065  0.030147234   0.03053594            3 
  590000    1.1916025   -7.0513822    213.94288   0.03021792  0.030532762            2 
  591000     1.137684   -7.0527278    214.70578  0.030274363  0.030529587            4 
  592000    1.1558927   -7.0660392    214.44591  0.030186643  0.030526807            1 
  593000    1.1508341   -7.0929703    215.31148  0.030257376  0.030523286            5 
  594000    1.1694465   -7.0437581    215.89383  0.030288135  0.030520765            4 
  595000    1.1502623   -7.1066201    216.28363  0.030291825  0.030517863            1 
  596000    1.1417359   -7.0547737    216.40421  0.030257859  0.030515256            1 
  597000    1.1589875   -7.0807241    217.26412  0.030327208  0.030513018            2 
  598000     1.145917    -7.064372    217.77194   0.03034726  0.030510699            3 
  599000    1.1430852   -7.1141408    217.41193  0.030246513  0.030508092            4 
  600000    1.1623974   -7.0915526    217.87605  0.030260562  0.030504946            2 
  601000    1.1576063   -7.1377666    217.48618  0.030156154  0.030501889            2 
  602000    1.1698071   -7.0834804    218.14086  0.030196686  0.030498754            2 
  603000    1.1447028    -7.090326    218.26582  0.030163878  0.030495876            2 
  604000    1.1286255   -7.1177131    219.33667  0.030261682  0.030492793            7 
  605000    1.1694663   -7.0770339    219.79402  0.030274658  0.030490156            3 
  606000     1.158718   -7.0818804    219.90384  0.030239803  0.030487394            3 
  607000     1.165799   -7.1062122    219.95576  0.030197112   0.03048501            4 
  608000    1.1556404   -7.1201011    220.05081  0.030160473  0.030482776            2 
  609000    1.1717507   -7.1113194    220.67259   0.03019603  0.030480499            4 
  610000    1.1534148   -7.0688331    221.32379  0.030235491  0.030477686            4 
  611000    1.1648623   -7.0838568    221.78965  0.030249544  0.030474903            3 
  612000    1.1651633   -7.0577541    222.48939  0.030295397  0.030472445            2 
  613000     1.155627   -7.1190811    221.96704  0.030174964  0.030470052            4 
  614000    1.1404568   -7.0711665    221.97062  0.030126306   0.03046696            4 
  615000    1.1249926   -7.0522627      222.269   0.03011775  0.030463629            2 
  616000    1.1637457   -7.1191796    221.90648  0.030019816  0.030459541            5 
  617000    1.1468599   -7.0673636    223.38564  0.030170941  0.030455715            2 
  618000     1.137778   -7.0548657    223.98023  0.030202296  0.030452454            4 
  619000    1.1500125   -7.0645385    223.16742  0.030044079  0.030448946            2 
  620000    1.1700904   -7.0751646    222.23771   0.02987066  0.030444902            4 
  621000    1.1343966   -7.0621308    223.86109  0.030040405  0.030440826            3 
  622000    1.1473874   -7.0557462    224.77448   0.03011448   0.03043675            2 
  623000    1.1270311   -7.1296541    224.51247  0.030031096  0.030433015            4 
  624000    1.1632552    -7.049911    224.64018  0.030000024  0.030428696            3 
  625000    1.1541298   -7.0937144    224.79884  0.029973178  0.030424013            3 
  626000    1.1501454   -7.0512409    225.93092  0.030076001  0.030419111            4 
  627000     1.127007   -7.1084974    226.01394  0.030039067  0.030414732            3 
  628000    1.1613895    -7.109075     225.9679  0.029985125   0.03040972            1 
  629000    1.1543408   -7.0925203    226.11276  0.029956646  0.030405081            2 
  630000    1.1583407   -7.1107193    225.60295   0.02984166  0.030400046            4 
  631000    1.1565975   -7.1015311     226.0415  0.029852284  0.030394379            2 
  632000    1.1625403   -7.0447035    226.55807  0.029873164  0.030388779            2 
  633000    1.1647785   -7.0811515    226.73179   0.02984884  0.030383185            2 
  634000    1.1346364   -7.0453203    227.28978  0.029875102  0.030377457            2 
  635000    1.1748964   -7.0690618    227.24333   0.02982196  0.030371755            3 
  636000    1.1405061   -7.1038746     227.1296  0.029760168   0.03036583            3 
  637000    1.1597875   -7.1107431    227.60696  0.029775897   0.03035957            2 
  638000    1.1427634   -7.0634975    229.06105  0.029919155   0.03035339            3 
  639000    1.1593662   -7.0987465    228.05841  0.029741577  0.030347658            2 
  640000    1.1444633   -7.1662803     228.0105  0.029688867  0.030341666            4 
  641000    1.1473401    -7.114315    227.84988  0.029621669  0.030334885            4 
  642000    1.1311249   -7.1255115    228.84522  0.029704727  0.030328167            2 
  643000    1.1379596   -7.1253405     227.7291   0.02951388  0.030321236            3 
  644000     1.150294   -7.0852082    229.11582  0.029647493  0.030314461            1 
  645000    1.1538994   -7.1114871    229.56293  0.029659294  0.030307532            2 
  646000     1.141151   -7.0658545    230.64958  0.029753558  0.030300769            6 
  647000     1.137161    -7.062701    229.83476  0.029602622  0.030293989            2 
  648000    1.1506647   -7.0811372    231.35269  0.029752147  0.030287271            2 
  649000    1.1469295   -7.0958046    230.77453  0.029632066  0.030280373            2 
  650000    1.1355889   -7.1246932    230.65985  0.029571776  0.030273137            2 
  651000    1.1499786   -7.0863198    231.69167  0.029658432   0.03026637            3 
  652000    1.1419262   -7.1068483    231.89665  0.029639143   0.03025949            3 
  653000    1.1522492   -7.1366353    232.26098  0.029640248   0.03025293            2 
  654000     1.160553   -7.1257918    232.07636  0.029571402  0.030246317            5 
  655000    1.1469912    -7.090394    232.17708  0.029539069  0.030239145            1 
  656000    1.1342585   -7.0924691    232.51756  0.029537291  0.030231858            3 
  657000    1.1609133   -7.1122421    232.38386  0.029475376  0.030224295            1 
  658000    1.1237424   -7.0916236    232.83223  0.029487364  0.030217166            2 
  659000    1.1333592   -7.1190336     234.1098  0.029604173  0.030210132            4 
  660000    1.1584852   -7.0664033    234.57736  0.029618354  0.030203517            3 
  661000     1.145782   -7.0839392     235.7758  0.029724634  0.030196579            4 
  662000    1.1431611   -7.0292266    236.07007  0.029716776  0.030190069            3 
  663000    1.1549399   -7.1016797    235.80127  0.029638168  0.030183774            4 
  664000    1.1393747    -7.077964    235.70621  0.029581603  0.030177193            2 
  665000    1.1476951   -7.0968861    235.72109  0.029538983  0.030171002            5 
  666000    1.1470622   -7.1015562    236.59384  0.029603833  0.030164287            3 
  667000    1.1453639    -7.080873    236.67957  0.029570161  0.030157851            2 
  668000    1.1475148   -7.1032476    237.13469  0.029582671  0.030151711            2 
  669000    1.1706537   -7.1512366    236.88067   0.02950681  0.030144876            3 
  670000    1.1678073   -7.0791811    237.79386  0.029576351  0.030138131            3 
  671000    1.1525909   -7.1154256     237.4977  0.029495492  0.030130856            2 
  672000    1.1495651   -7.1071449    237.49211  0.029450906  0.030123545            3 
  673000    1.1345557   -7.1578601    236.76402  0.029316991  0.030116023            2 
  674000    1.1683276   -7.1210101    237.94456  0.029419456   0.03010828            5 
  675000    1.1647157   -7.1514817    238.34875  0.029425771   0.03010114            3 
  676000    1.1478237   -7.0969366    239.22526  0.029490293  0.030094301            3 
  677000    1.1346072    -7.078965    239.34453  0.029461414   0.03008735            6 
  678000     1.116889   -7.1176365    239.73545  0.029466009  0.030080263            4 
  679000    1.1313602   -7.1289498    239.44546  0.029387022  0.030073093            5 
  680000    1.1436005   -7.1141256    241.56747  0.029603856  0.030066029            5 
  681000    1.1320195   -7.1742638    239.92296  0.029359148  0.030059182            3 
  682000    1.1317656   -7.1503616    240.96816  0.029443812  0.030051757            4 
  683000    1.1290192   -7.1397415     241.5599  0.029472901   0.03004485            5 
  684000    1.1561181   -7.1297698    241.28454  0.029396264  0.030038326            2 
  685000    1.1570544   -7.0845906    242.74728    0.0295313   0.03003154            4 
  686000     1.155114   -7.0824838    243.39129  0.029566483  0.030025074            4 
  687000    1.1609255   -7.1356978    242.73204  0.029443479  0.030018633            2 
  688000    1.1576152   -7.1409506    242.84882  0.029414828  0.030011839            2 
  689000    1.1746555   -7.1024488    243.94978  0.029505295  0.030005537            2 
  690000    1.1293516   -7.1007829    244.24247  0.029497883  0.029999228            3 
  691000    1.1417332   -7.1128171     244.5742    0.0294952  0.029993249            2 
  692000    1.1314618   -7.1038705    245.05238  0.029510162   0.02998734            2 
  693000    1.1244671   -7.1151623    245.54428  0.029526729  0.029980823            4 
  694000    1.1349448   -7.1402733      244.729  0.029386288  0.029974239            4 
  695000    1.1453316   -7.1312984    244.89689  0.029364136    0.0299677            5 
  696000    1.1550117   -7.1636336    245.88425  0.029440163  0.029961364            4 
  697000      1.10851    -7.063832    246.39269  0.029458714  0.029955225            6 
  698000    1.1189642   -7.1176948    246.90001  0.029477078  0.029949069            3 
  699000    1.1346453   -7.1134027    245.25077  0.029238289  0.029942442            3 
  700000    1.1540121   -7.0833706    247.07992  0.029414276  0.029935802            2 
  701000    1.1384366    -7.138006    246.57548  0.029312349  0.029929074            3 
  702000    1.1634683   -7.0379717    247.88302  0.029425809  0.029922491            6 
  703000    1.1472676   -7.1188969    246.64353  0.029237023  0.029915468            3 
  704000      1.13048   -7.0874018    247.78632  0.029330767  0.029908382            1 
  705000    1.1503068   -7.1316281    247.17577  0.029216994  0.029901477            5 
  706000    1.1483307   -7.1219276    248.02318  0.029275635  0.029894062            4 
  707000    1.1315789   -7.1215677    248.45301  0.029284891  0.029886267            2 
  708000    1.1472758   -7.1521831    247.90463  0.029178982   0.02987857            3 
  709000    1.1380924   -7.0862862    249.40356  0.029314006  0.029871565            5 
  710000    1.1238589    -7.093523    250.05043  0.029348642  0.029864733            2 
  711000    1.1280308   -7.1251377    248.97889  0.029181773  0.029857346            1 
  712000    1.1436296   -7.1335874    250.05389  0.029266607  0.029849787            3 
  713000    1.1447115   -7.1117557    249.83815  0.029200345  0.029842206            2 
  714000    1.1427599   -7.1518289     249.8827  0.029164648  0.029834473            2 
  715000    1.0937295    -7.172682    248.98355  0.029019062  0.029826271            3 
  716000    1.1364296   -7.1553177    250.23196  0.029123831  0.029817769            2 
  717000    1.1316564   -7.1353815    249.77773   0.02903042   0.02980912            5 
  718000    1.1315455   -7.1465014    250.27432  0.029047623  0.029800548            6 
  719000    1.1547037   -7.1609812    250.19617  0.028998165  0.029791857            3 
  720000    1.1289952   -7.1502811    250.37972  0.028979134  0.029783287            4 
  721000    1.1375853   -7.1455193     251.1214  0.029024665  0.029774908            5 
  722000     1.118321   -7.1203431    251.31021  0.029006256  0.029766127            6 
  723000    1.1564552   -7.1208833    251.56328  0.028995306  0.029757559            4 
  724000    1.1343411   -7.1195792    252.79081  0.029096548  0.029749148            2 
  725000    1.1180389   -7.1021932    252.70944  0.029047062   0.02974104            2 
  726000    1.1367998   -7.1386637     252.2098  0.028949701  0.029732688            4 
  727000    1.1694792   -7.1423869    252.97326  0.028997393  0.029724283            5 
  728000    1.1395991   -7.1674919    252.19109  0.028868028  0.029715468            5 
  729000    1.1190494   -7.1226517    253.93499  0.029027776   0.02970659            8 
  730000    1.1600917   -7.1892847    252.32149  0.028803823  0.029697862            2 
  731000    1.1544621   -7.1385324    254.04379  0.028960761  0.029689039            3 
  732000    1.1308705    -7.100577    254.37832  0.028959281  0.029680655            2 
  733000     1.141783   -7.1154942    255.37722  0.029033335  0.029672471            3 
  734000    1.1539838   -7.1527956     254.3382  0.028875817  0.029663999            2 
  735000    1.1272225   -7.1287818    254.76002  0.028884356  0.029655341            4 
  736000    1.1525746   -7.1423744    254.33518  0.028797009  0.029646201            2 
  737000     1.135545   -7.1271265    255.23702  0.028859907  0.029637178            2 
  738000     1.152535   -7.0959558    256.17405  0.028926609  0.029627991            2 
  739000    1.1264892   -7.1445229    255.19164  0.028776685  0.029619186            3 
  740000    1.1397924   -7.0947324    256.41804  0.028875905   0.02961024            2 
  741000     1.137049   -7.1457719    256.46156  0.028841831  0.029600992            3 
  742000    1.1423118   -7.0908515    256.78964  0.028839807  0.029591757            2 
  743000    1.1184351   -7.1257982     256.4586  0.028763862  0.029582655            2 
  744000    1.1536059    -7.134439     257.4045  0.028831149  0.029573557            2 
  745000    1.1440748   -7.1701869    256.91211  0.028737373  0.029564659            2 
  746000    1.1349876   -7.1570669     257.5142  0.028766108   0.02955535            4 
  747000    1.1326749   -7.1192587    257.90839  0.028771574    0.0295462            3 
  748000    1.1555923   -7.1464456    258.12002  0.028756686  0.029537142            4 
  749000    1.1121615   -7.1338564    259.05758  0.028822605  0.029528189            9 
  750000    1.1095298   -7.1512449    258.98659  0.028776288  0.029519411            2 
  751000    1.1182591   -7.1280315    259.27981  0.028770507   0.02951062            2 
  752000    1.1094287   -7.1345198    258.97321  0.028698272  0.029501801            3 
  753000    1.1407678   -7.1534011    259.50608  0.028719133  0.029492805            1 
  754000    1.1148344   -7.1130187    259.61274  0.028692832   0.02948387            5 
  755000    1.1124868   -7.1791928    259.83093   0.02867891  0.029474723            3 
  756000    1.1215569   -7.1034682    260.36164  0.028699476  0.029465516            2 
  757000    1.1256393   -7.1153595    260.67926  0.028696527   0.02945623            4 
  758000    1.1223035   -7.1828074       260.12  0.028597185   0.02944646            4 
  759000     1.108508   -7.1280232    261.33871  0.028693315  0.029436847            4 
  760000    1.1244462    -7.196326    259.87637  0.028495216  0.029427322            4 
  761000    1.1447706   -7.2116304    260.20007  0.028493218  0.029417617            2 
  762000    1.1302729   -7.1838276    260.95677  0.028538579  0.029408353            1 
  763000    1.1287333   -7.1536468    261.63733  0.028575506  0.029398994            1 
  764000    1.1319572   -7.1012371    262.43154  0.028624732  0.029389809            2 
  765000    1.1278159   -7.1135419    262.82587  0.028630269  0.029380723            3 
  766000    1.1342419   -7.1817125    261.92312  0.028494682  0.029370905            3 
  767000    1.1322281   -7.1691202    263.18325  0.028594442  0.029361197            2 
  768000    1.1314552   -7.1543263    263.33804  0.028574006  0.029351651            2 
  769000    1.1493463   -7.1999183    263.34041  0.028537106  0.029341884            7 
  770000    1.0923742   -7.1492009     263.0947  0.028473452  0.029332205            2 
  771000    1.1259441   -7.1811423    263.67953  0.028499733   0.02932258            2 
  772000    1.1365986   -7.1494681    263.33697  0.028425839   0.02931282            6 
  773000    1.1192127   -7.1558031    264.52633  0.028517285  0.029302856            3 
  774000    1.1435819   -7.1685592    264.48639   0.02847614  0.029292932            2 
  775000    1.1115111   -7.2050042     263.2435  0.028305752  0.029283094            5 
  776000    1.1744017   -7.1538634    263.98939  0.028349376  0.029273214            4 
  777000    1.1226294   -7.1705714    265.23637   0.02844663  0.029263561            3 
  778000     1.144006   -7.1531072    264.76897  0.028360001  0.029253722            3 
  779000    1.1172902   -7.1470834    265.67556  0.028420578  0.029243853            6 
  780000    1.1413388   -7.1698695    266.04128  0.028423214  0.029234244            4 
  781000    1.1163172   -7.1481439    266.30287  0.028414732  0.029224896            3 
  782000    1.1258813   -7.2009527    265.36496  0.028278448  0.029214974            2 
  783000     1.126429   -7.1447155    266.62228  0.028376147  0.029204917            1 
  784000    1.1087572   -7.1637728    266.57866  0.028335317  0.029195199            4 
  785000     1.147827   -7.1854073    266.54727  0.028295889  0.029185066            2 
  786000    1.1232833   -7.1594779    266.67492  0.028273422  0.029174774            4 
  787000    1.1399782   -7.1709785    266.92208  0.028263668  0.029164277            3 
  788000    1.1250798   -7.1185379    267.52156  0.028291197  0.029154045            6 
  789000    1.1195368   -7.1540528    268.66836  0.028376464  0.029144212            4 
  790000    1.1069173   -7.1720148     268.5994   0.02833327  0.029134132            2 
  791000    1.1269525   -7.1546278    268.40329   0.02827679  0.029124312            7 
  792000    1.1495557   -7.1935198    268.63733  0.028265713   0.02911426            2 
  793000    1.1277605   -7.1451777    269.79508  0.028351732  0.029104473            8 
  794000    1.1256702   -7.1562968    269.76452  0.028312816  0.029094763            5 
  795000    1.1143975   -7.1122918     270.8407  0.028390011   0.02908527            3 
  796000    1.1315904   -7.1282068     270.1922  0.028286453  0.029075735            3 
  797000    1.1165827   -7.2037996     270.4759  0.028280626  0.029066207            4 
  798000     1.140122   -7.1398331    270.72436  0.028271132  0.029056868            3 
  799000     1.132893   -7.1273625    270.59846  0.028222618  0.029047362            3 
  800000    1.1316202   -7.2022067    271.39335  0.028270141  0.029037767           10 
  801000    1.0962037   -7.2065631    271.12712   0.02820715  0.029028067            4 
  802000     1.107954   -7.1550307    272.22541  0.028286098  0.029018558            3 
  803000    1.1221777   -7.1666986    272.95619  0.028326711  0.029009111            2 
  804000    1.1190066    -7.153919    273.07091   0.02830337  0.028999598            3 
  805000    1.1203004    -7.163862    272.76763  0.028236814  0.028990034            2 
  806000    1.1033245    -7.187066    273.33842  0.028260796  0.028980557            3 
  807000    1.1369913   -7.1673354    273.28201  0.028219952  0.028971336            3 
  808000    1.1232738   -7.1977205    273.38601  0.028195752  0.028962111            4 
  809000    1.1264207   -7.1510926    273.76178  0.028199606   0.02895304            2 
  810000    1.1002853   -7.1491071    274.59535  0.028250551  0.028943423            3 
  811000    1.1319764    -7.178925    273.70517  0.028124247  0.028933979            5 
  812000    1.1106906   -7.1963595    274.03244  0.028123197  0.028924157            2 
  813000    1.1096705   -7.2054242     274.8169  0.028169014  0.028914334            3 
  814000     1.125321   -7.1874585    274.26577  0.028077986   0.02890454            4 
  815000    1.1426412   -7.1786695    274.99244  0.028117837  0.028895086            4 
  816000    1.1254346   -7.1589205    275.80238  0.028166092  0.028885456            1 
  817000    1.0985524   -7.1858754    276.56556  0.028209461  0.028876183            4 
  818000    1.1239602   -7.1444194    275.91396  0.028108594  0.028866761            3 
  819000    1.1199653    -7.219233    276.06735  0.028089881  0.028857332            4 
  820000    1.1190058   -7.1667127    276.94049  0.028144358  0.028847847            5 
  821000    1.1212443   -7.1789755    276.61075  0.028076608  0.028838018            3 
  822000    1.1386808   -7.1987139    276.71349  0.028052868  0.028828354            7 
  823000    1.1047128   -7.1957603    276.61441   0.02800875  0.028818433            5 
  824000    1.1038417   -7.1660662    277.67107  0.028081622   0.02880847            3 
  825000    1.1098243    -7.173919    276.96823  0.027976589  0.028798787            4 
  826000    1.1235919   -7.1795526    278.34291  0.028081408  0.028789367            4 
  827000     1.133337   -7.1467917    277.75021  0.027987728  0.028779684            2 
  828000    1.1177993   -7.2367578    277.24132  0.027902709  0.028769867            3 
  829000    1.1246126   -7.1954076    278.02767  0.027948097  0.028759884            4 
  830000    1.1090074   -7.1524387     277.9405  0.027905673  0.028750087            4 
  831000    1.1272059   -7.1527026    278.75542  0.027953812  0.028740343            4 
  832000    1.1212774   -7.1642025     279.8086  0.028025701  0.028730476            1 
  833000    1.1264986   -7.1317826    279.36738  0.027947918  0.028720582            6 
  834000    1.1226339   -7.1565561    279.54817  0.027932471  0.028710606            2 
  835000    1.1047693   -7.1998803    279.60102  0.027904294   0.02870076            3 
  836000    1.1105548   -7.1664163    279.87434   0.02789816  0.028691003            2 
  837000    1.0841449   -7.1558058    279.74772  0.027852222  0.028681226            1 
  838000    1.1461611   -7.1815025    280.82067  0.027925683  0.028671422            2 
  839000    1.1127217   -7.2066431    280.65269  0.027875714  0.028661556            2 
  840000    1.1289699   -7.1901057    280.74938  0.027852121  0.028651723            2 
  841000    1.1148633   -7.1416463    282.25349  0.027968043   0.02864184            5 
  842000    1.1008929   -7.1619731    282.99873  0.028008583  0.028632339            5 
  843000     1.104938   -7.1861327    282.40652  0.027916817   0.02862294            4 
  844000    1.1269102   -7.1664332     282.4504  0.027888073  0.028613447            3 
  845000    1.1103835   -7.2174137    282.13156  0.027823625  0.028604078            4 
  846000    1.1231615   -7.1791103    283.32635  0.027908426  0.028594507            2 
  847000    1.0995345   -7.1499095    283.89903  0.027931821  0.028585078            2 
  848000    1.1268818   -7.2180496    282.97235  0.027807818  0.028575698            3 
  849000    1.1046715   -7.2338821    283.29798  0.027807026  0.028566089            2 
  850000    1.0991796   -7.1919987    284.69456  0.027911232  0.028556747            3 
  851000    1.1099954   -7.1829259    284.32045  0.027841799  0.028547585            3 
  852000    1.1218677   -7.1765757    285.10349  0.027885709  0.028538082            2 
  853000    1.0837462   -7.1575335    285.72751  0.027913981  0.028528639            3 
  854000    1.1234987   -7.1784958    285.71941  0.027880504  0.028519426            5 
  855000    1.1020537   -7.1890882    285.92872  0.027868296  0.028510141            1 
  856000    1.0870313    -7.265463    285.96283  0.027839061  0.028500733            2 
  857000    1.1208871   -7.2002662     285.8685  0.027797403  0.028491647            2 
  858000    1.1208402   -7.1732069    286.68489  0.027844298  0.028482718            3 
  859000    1.1088855   -7.1731967    286.72088  0.027815374  0.028473888            3 
  860000    1.1396687   -7.1984681    287.56475  0.027864801  0.028464966            3 
  861000    1.1117201   -7.1831623     287.6313  0.027838879  0.028455826            4 
  862000    1.0986626   -7.1972083    287.15413  0.027760453  0.028446357            3 
  863000    1.1097366   -7.2186836    287.01938  0.027715274  0.028437112            4 
  864000    1.1148897   -7.2022303    287.19998  0.027700615   0.02842796            3 
  865000    1.1062157   -7.2180636    287.47373  0.027694964  0.028418746            3 
  866000     1.078151   -7.1721538    289.12099  0.027821496  0.028409383            2 
  867000    1.0748289   -7.2150332    287.63212  0.027646302  0.028400072            3 
  868000     1.090583   -7.2343378    288.82776  0.027729239  0.028390632            3 
  869000    1.1186095   -7.1831517       288.88   0.02770234  0.028381367            7 
  870000    1.1112416   -7.2443215    288.12524  0.027598203  0.028372018            2 
  871000    1.1060505   -7.1762454     289.8643  0.027732903  0.028363096            2 
  872000    1.0971828   -7.1760779    289.76153  0.027691278  0.028353982            7 
  873000    1.1341918   -7.2028794    289.01889  0.027588668  0.028344534            4 
  874000    1.1009148   -7.1177799    291.21059  0.027766075  0.028335564            8 
  875000       1.1041   -7.1579956     290.5076  0.027667391  0.028326865            3 
  876000    1.1167116   -7.1814941    290.20291  0.027606821  0.028317839            3 
  877000    1.1059387   -7.1782869    291.21429  0.027671445  0.028308531            1 
  878000    1.1248913   -7.2103701     291.2503  0.027643347  0.028299195            2 
  879000    1.1007115   -7.1955034    290.86329  0.027575208  0.028289675            3 
  880000    1.1005454    -7.229435    291.05209  0.027561751  0.028280175            7 
  881000    1.1338962   -7.2642298    291.05309  0.027530561  0.028270534            8 
  882000    1.0807216   -7.2219629    291.60254   0.02755126  0.028260784            2 
  883000    1.1040172   -7.2073079    291.95403  0.027553231  0.028251011            3 
  884000     1.105676   -7.2328592     292.1684   0.02754227  0.028241336            3 
  885000    1.1243228   -7.2256799    293.24079  0.027612127  0.028231582            2 
  886000    1.1128634   -7.2243139    292.20242  0.027483297  0.028221607            3 
  887000    1.1184115    -7.233183    291.77075  0.027411758  0.028211594            2 
  888000    1.1274266   -7.2448448     292.0504  0.027407132  0.028201743            2 
  889000    1.0965753   -7.2122151    294.38991  0.027595605  0.028192083            8 
  890000     1.117739   -7.1680915    293.57372  0.027488176  0.028182619            3 
  891000    1.0901895   -7.2210725    293.05942  0.027409224  0.028173089            2 
  892000    1.0878183   -7.2461291     292.5529  0.027331176   0.02816303            3 
  893000    1.1261616   -7.2498915    293.39446  0.027379103  0.028152932            3 
  894000    1.0950017   -7.1959857    294.86199  0.027485271   0.02814326            2 
  895000    1.1357699   -7.2355132    293.86286  0.027361532  0.028133427            8 
  896000    1.0872609    -7.173309    295.22636  0.027457809  0.028123616            5 
  897000    1.1161591   -7.1898293    294.61357  0.027370269  0.028113556            3 
  898000    1.1067416   -7.2144103    295.07299  0.027382423  0.028103663            4 
  899000    1.1080514    -7.196105    294.74275  0.027321352  0.028093823            3 
  900000    1.1036359   -7.2146828    295.47882   0.02735915  0.028083862            6 
  901000    1.1089224   -7.2246513    295.72691   0.02735173  0.028073799            2 
  902000    1.0820117   -7.1820352    295.68679  0.027317701  0.028063902            3 
  903000    1.0846996    -7.204294    295.90007  0.027307131  0.028053937            3 
  904000    1.0736875   -7.2245927    295.48303   0.02723848  0.028043735            5 
  905000    1.1123103   -7.1995179    297.10976  0.027358173  0.028033466            4 
  906000    1.1140776   -7.2070902    295.66085  0.027194707  0.028023598            2 
  907000    1.1021385   -7.2409488    296.45095  0.027237316  0.028013244            3 
  908000    1.1109055   -7.2421721    297.22754  0.027278592  0.028002975            2 
  909000    1.1182554   -7.2202821    296.37857  0.027170753  0.027992893            3 
  910000    1.1064843    -7.191859    297.11324  0.027208172  0.027982764            2 
  911000    1.0835359   -7.1968193     297.0783  0.027175109  0.027972572            6 
  912000    1.0880228   -7.2213062    298.15131  0.027243358  0.027962539            3 
  913000    1.1072555   -7.2004641    298.08472   0.02720744  0.027952407            2 
  914000    1.1037341   -7.1908764    298.02861  0.027172558  0.027942342            2 
  915000    1.1205116   -7.1727828     299.7238  0.027297249   0.02793261            3 
  916000    1.1062603   -7.2109639    299.77878  0.027272451  0.027923119            2 
  917000    1.1209733   -7.1968233    300.07208  0.027269364  0.027913688            1 
  918000    1.1156998   -7.2149666    299.55069  0.027192328  0.027903829            3 
  919000    1.0969896    -7.234145    299.80562  0.027185856  0.027893707            3 
  920000    1.0982522   -7.2415705     300.0362  0.027177192  0.027883533            2 
  921000    1.1105476   -7.2422524    299.73294  0.027120245   0.02787339            4 
  922000    1.0992268   -7.2477981    299.76728  0.027093933   0.02786336            5 
  923000      1.10075   -7.2426423    299.88534  0.027075239  0.027853305            3 
  924000    1.1009132   -7.2361396    300.22776  0.027076818  0.027842807            4 
  925000    1.0898252   -7.2507178    299.67739  0.026997963  0.027832387            4 
  926000    1.0999937   -7.2516108     299.6699  0.026968134  0.027821923            6 
  927000     1.095348   -7.2321451    300.34907  0.027000096  0.027811251            2 
  928000    1.1177233     -7.26935    300.27064  0.026963958  0.027800625            4 
  929000    1.1021801   -7.2771554    299.84589  0.026896832  0.027790106            3 
  930000    1.1016359   -7.2682054    300.48233   0.02692494  0.027779365           11 
  931000    1.1171791   -7.2415051    300.79155  0.026923698  0.027768718            3 
  932000    1.1179108   -7.2610998    300.44977   0.02686425  0.027758114            4 
  933000    1.0744887   -7.2601826    301.43876  0.026923791  0.027747288            8 
  934000    1.0948651   -7.2160151    302.68454  0.027006115  0.027736577            3 
  935000    1.1135297   -7.2149818    302.78806  0.026986458  0.027726085            1 
  936000    1.0728418   -7.2047442    302.59393  0.026940343  0.027715865            5 
  937000    1.1255702   -7.1996928    302.00541   0.02685925  0.027705538            3 
  938000     1.104355     -7.21783    303.11212  0.026928938  0.027695273            7 
  939000    1.0859356   -7.2298457    304.48037  0.027021687  0.027685266            2 
  940000    1.1058377   -7.1976313    304.39927  0.026985751  0.027675179            2 
  941000    1.0763975   -7.1899927     303.9301  0.026915525  0.027664989            2 
  942000    1.1004172   -7.2193478     303.5986  0.026857626  0.027654659            7 
  943000    1.1154679   -7.2186547     304.0289  0.026867171  0.027644222            6 
  944000    1.1033665   -7.1847877    304.88559  0.026914336  0.027633842            8 
  945000    1.1004096   -7.1917442    305.29705  0.026922139  0.027623398            3 
  946000    1.1327771   -7.2237948    304.52856  0.026825983  0.027613016            2 
  947000    1.1270792   -7.2263561    304.49848  0.026795009  0.027602536            4 
  948000    1.1360826   -7.2524465    305.41412  0.026847233  0.027591934            4 
  949000     1.078538   -7.2021334    306.10506  0.026879616  0.027581399            2 
  950000    1.0962737   -7.2375977    305.02641  0.026756703  0.027570684            4 
  951000    1.1058559   -7.2417736    305.32983  0.026755155  0.027559787            2 
  952000    1.1121806   -7.2076206    305.41472  0.026734482   0.02754909            5 
  953000    1.1039541   -7.2118047    306.15743  0.026771373  0.027538366            3 
  954000    1.1045213     -7.22036    306.12193   0.02674021  0.027527786            4 
  955000    1.0818657   -7.1725334    307.24635  0.026810327  0.027517481            2 
  956000     1.119884   -7.1849758    306.81825  0.026744966  0.027507058            3 
  957000    1.1020938   -7.2422637    306.93206   0.02672693  0.027496711            4 
  958000    1.1053211   -7.1977192    308.12825  0.026803084  0.027486495            3 
  959000    1.0859225   -7.2185416    307.98616  0.026762787  0.027476444            3 
  960000    1.0850309   -7.2298944    308.18008  0.026751743  0.027466422            3 
  961000    1.0803583   -7.2454996    307.97474  0.026706099  0.027456294            6 
  962000    1.0945468   -7.2297964    309.16279  0.026781253  0.027446076            6 
  963000    1.0984815   -7.1653244    309.81789  0.026810133  0.027436125            2 
  964000    1.0873247   -7.2175716    309.43997  0.026749652   0.02742629            2 
  965000    1.0879209   -7.2622216    309.04774   0.02668806  0.027416171            5 
  966000    1.1121163   -7.2374917    309.37923  0.026689029  0.027405908            3 
  967000    1.0767975   -7.2252191    309.22279  0.026647948  0.027395537            2 
  968000    1.0919717   -7.2418322    309.84172  0.026673702  0.027385434            5 
  969000     1.098926   -7.2284462    310.94048  0.026740668  0.027375396            2 
  970000    1.1009868   -7.2776196    310.64408  0.026687636  0.027365243            9 
  971000     1.085822   -7.2025675    311.81271  0.026760445    0.0273552            3 
  972000    1.0918187   -7.2223287    310.56087  0.026625589  0.027345408            2 
  973000    1.1133455   -7.2739921    310.98287  0.026634367  0.027335449            2 
  974000    1.0882041   -7.2605765    311.53108  0.026653926  0.027325264            2 
  975000    1.1133931   -7.2834234    311.52593  0.026626148  0.027315332            4 
  976000    1.1039471    -7.241476    312.90514  0.026716627  0.027305508            4 
  977000    1.1104568   -7.2206093    312.63093  0.026665893  0.027295702            2 
  978000    1.0918845   -7.2107112    313.56566  0.026718273  0.027286129            4 
  979000    1.0847976   -7.2652841    312.73339  0.026620139  0.027276655            2 
  980000    1.0790875   -7.2493985     312.7363  0.026593223  0.027266876            2 
  981000    1.1007357   -7.2395232    313.89372  0.026664435   0.02725719            3 
  982000    1.1068611   -7.2620248    312.94363  0.026556656  0.027247308            2 
  983000    1.0756782   -7.2172129    315.04829  0.026708061  0.027237421            3 
  984000    1.0985972   -7.2905623    313.12442   0.02651799  0.027227888            3 
  985000    1.1170901   -7.2665226    314.22671  0.026584324  0.027218083            4 
  986000    1.0791289   -7.2338072    315.15306  0.026635654  0.027208434            2 
  987000    1.0945564   -7.2035822     315.8038   0.02666361  0.027198922            3 
  988000    1.0709768   -7.2475121    315.05763  0.026573687  0.027189259            3 
  989000    1.0682526   -7.2570696    314.84919  0.026529254  0.027179384            4 
  990000    1.0986467   -7.2069524    315.26276  0.026537269  0.027169432            3 
  991000    1.1076974   -7.2654564    314.69608  0.026462839  0.027159498            2 
  992000    1.0707648   -7.2448379    314.91468  0.026454526  0.027149591            3 
  993000     1.107157   -7.2976257    315.23961  0.026455154  0.027139705            3 
  994000     1.124456   -7.1974601    317.18384  0.026591536  0.027129846            5 
  995000    1.0804603   -7.2370916     317.2859  0.026573358  0.027120167            1 
  996000    1.1178457   -7.1936204    316.59606   0.02648896  0.027110501            3 
  997000    1.0803989   -7.2472026    316.51653  0.026455745    0.0271006            2 
  998000    1.0921286    -7.233336    316.52083  0.026429595  0.027090775            5 
  999000    1.1119027   -7.2377392    316.95822  0.026439624  0.027080815            3 
 1000000    1.0798511   -7.2369957    316.56307  0.026380256  0.027070904            3 
 1001000    1.0679239   -7.2197973    317.59874  0.026440122  0.027060925            1 
 1002000    1.0859036   -7.2568454    317.55634  0.026410208  0.027050879            4 
 1003000    1.1068729   -7.2474875    317.20808  0.026354941  0.027040786            7 
 1004000    1.0999745   -7.3052757    316.73597  0.026289506  0.027030569            3 
 1005000    1.0708113   -7.2296796    318.50297  0.026409865  0.027020464            6 
 1006000    1.1093527    -7.220241    318.21613  0.026359851  0.027010617            2 
 1007000    1.0708229    -7.244336    318.56945  0.026362914  0.027000535            3 
 1008000    1.0842112   -7.2110444    319.09587   0.02638028  0.026990589            4 
 1009000     1.102544   -7.2711305     319.1016  0.026354608  0.026980625            3 
 1010000    1.0933286   -7.2179591    319.64099  0.026373019  0.026970565            3 
 1011000     1.108021   -7.2451596    319.47735  0.026333444   0.02696068            2 
 1012000    1.1027041   -7.2291785    319.19646  0.026284294  0.026950563            3 
 1013000    1.0696992   -7.2586291    319.72797   0.02630207  0.026940377            2 
 1014000    1.0866682   -7.2428789     319.4379  0.026252293  0.026930181            3 
 1015000    1.1041786   -7.2545952    320.47002  0.026311167  0.026919918            7 
 1016000     1.087672   -7.2625414     319.3169   0.02619069   0.02690974            2 
 1017000    1.0655886    -7.226113    320.91735  0.026296079  0.026899519            6 
 1018000    1.0844592    -7.233262    320.31933  0.026221294   0.02688925            3 
 1019000    1.0820684   -7.2361024    319.98367  0.026168112  0.026878754            2 
 1020000    1.0861914    -7.307844    320.05945  0.026148648  0.026868328            3 
 1021000     1.100654   -7.2855725    319.96203  0.026115086  0.026857657            4 
 1022000    1.0673487   -7.2559882    319.99932  0.026092573  0.026847085            4 
 1023000     1.096352   -7.2885045    320.26597  0.026088789  0.026836544            4 
 1024000       1.0766   -7.2833344    321.03809  0.026126147  0.026826006            6 
 1025000    1.0898251   -7.2464444    321.10613   0.02610619  0.026815395            3 
 1026000    1.0736475   -7.2662871     321.8282  0.026139393  0.026805048            1 
 1027000     1.081031   -7.2282963    322.37936  0.026158663  0.026794643            3 
 1028000    1.0767702   -7.2784649    321.74022  0.026081405  0.026784264            4 
 1029000    1.0946419   -7.2437406    322.76511   0.02613906  0.026774023            3 
 1030000    1.0891152   -7.2524189    322.55345  0.026096558   0.02676377            2 
 1031000    1.0674972   -7.2491655    322.65845  0.026079733  0.026753459            4 
 1032000    1.0776313   -7.2585266    323.30879  0.026106976  0.026743188            3 
 1033000    1.0961155   -7.2461971    323.90592  0.026129874  0.026733093            5 
 1034000    1.0808704   -7.2512958    323.90956  0.026104897  0.026723108            2 
 1035000    1.0465784   -7.2762361    323.75389  0.026067141  0.026713056            7 
 1036000    1.0772805    -7.260687    324.14863  0.026073731  0.026702803            7 
 1037000    1.1135842   -7.3142278    323.98824  0.026035699  0.026692765            4 
 1038000    1.1047014   -7.2641382    324.78027  0.026074203  0.026682777            2 
 1039000    1.1017336   -7.3020488    324.31097  0.026011467  0.026672667            2 
 1040000    1.0903213   -7.2532245    325.00784  0.026042295  0.026662485            8 
 1041000    1.0862743   -7.3057337    324.24546  0.025956249  0.026652488            3 
 1042000    1.0712283   -7.3010953    325.50578  0.026032132  0.026642482            2 
 1043000    1.0887292   -7.2704496    325.27981  0.025989119  0.026632593            5 
 1044000    1.0916944   -7.3253508    324.76405  0.025923057  0.026622714            2 
 1045000    1.0779889    -7.236592    326.51003  0.026037482  0.026612743            3 
 1046000    1.0813784    -7.233234    326.38817  0.026002881  0.026602918            3 
 1047000    1.0856409   -7.2514943    327.05969  0.026031494  0.026593013            2 
 1048000     1.079292   -7.2979156    326.20967  0.025939064  0.026583051            4 
 1049000    1.0885334   -7.2310179    327.20758  0.025993612  0.026573178            5 
 1050000    1.0867754   -7.2930275    326.43825  0.025907797  0.026563235            3 
 1051000    1.0704167   -7.3036828    327.09288  0.025935052  0.026553261            1 
 1052000    1.0793705   -7.2549894    327.47605  0.025940752  0.026543399            2 
 1053000    1.1005321   -7.2223524    329.67613  0.026090229  0.026533446            5 
 1054000    1.0873296   -7.2565234    327.70821  0.025909884  0.026523811            2 
 1055000    1.0660927   -7.2364186    328.68913  0.025962806   0.02651417            4 
 1056000    1.0737387   -7.2703359    327.99016  0.025883062  0.026504453            2 
 1057000    1.0486257   -7.2629908    328.17641  0.025873259  0.026494696            6 
 1058000    1.0813507   -7.2520342    330.73824  0.026050586  0.026485005            3 
 1059000    1.0905914   -7.2732513    328.62709  0.025859859   0.02647516            8 
 1060000     1.105237   -7.2391881    329.83957  0.025930784  0.026465634            5 
 1061000     1.099446   -7.3364023    328.93118  0.025834996  0.026455858            2 
 1062000    1.0913603   -7.2613951    330.50764  0.025934372  0.026445859            4 
 1063000    1.0811863   -7.3194241    329.46386  0.025828148  0.026435938            4 
 1064000    1.0703169   -7.2998028    329.96164   0.02584286  0.026426047            3 
 1065000    1.0893435   -7.3119328    329.08402  0.025749923  0.026415947            4 
 1066000    1.0903504   -7.3057411    329.58052  0.025764581  0.026405787            5 
 1067000    1.0700036   -7.3035525    329.00605  0.025695568  0.026395611            2 
 1068000    1.0601998   -7.2780483      329.405  0.025702637  0.026385417            2 
 1069000    1.0919892   -7.3048492    328.80945  0.025632168  0.026375173            2 
 1070000    1.0766692   -7.2559667    330.44514  0.025735602  0.026364882            3 
 1071000    1.0718604   -7.2694722     331.3558  0.025782431  0.026354812            4 
 1072000    1.0851517   -7.2491844     332.1494  0.025820071  0.026344984            3 
 1073000    1.0797596   -7.2968919    330.72424  0.025685324  0.026334999            4 
 1074000    1.0801162   -7.3204073    331.25243  0.025702392  0.026324959            2 
 1075000    1.0639941   -7.3115645    331.51124  0.025698546  0.026314963            3 
 1076000    1.0745299   -7.2847037    332.01844  0.025713944  0.026305119            2 
 1077000    1.0866536   -7.2520845    334.22026  0.025860435   0.02629541            5 
 1078000    1.0594239   -7.3301364    331.39976   0.02561841  0.026285682            1 
 1079000    1.1015031   -7.2917966    332.18302  0.025655161  0.026275828            5 
 1080000    1.0807463   -7.3087065    332.45549  0.025652429  0.026265962            2 
 1081000    1.0812527   -7.3466864    331.68661  0.025569427  0.026255879            6 
 1082000    1.0781654    -7.252947    333.57605  0.025691316  0.026246033            5 
 1083000    1.0576928    -7.272787    333.28817  0.025645443  0.026236275            2 
 1084000    1.0890007    -7.261295    333.47519  0.025636162  0.026226418            7 
 1085000    1.0528325    -7.322545    333.75915  0.025634343  0.026216332           18 
 1086000    1.0992579   -7.2586312    334.32237  0.025653957  0.026206339            2 
 1087000    1.0794102   -7.3800934    333.21657  0.025545582  0.026196091            7 
 1088000    1.0758976   -7.2788074    334.17957  0.025595861  0.026185962            3 
 1089000    1.0555781   -7.2605153    334.55868  0.025601368   0.02617591            4 
 1090000    1.0735884   -7.3166478    333.67707  0.025510479  0.026165985            2 
 1091000    1.0922923   -7.2842369    334.86602  0.025577912  0.026155877            9 
 1092000    1.0874553    -7.279876    335.27058  0.025585362  0.026145996            2 
 1093000    1.0546095   -7.2769028    334.95364  0.025537789  0.026136027            3 
 1094000    1.0863906   -7.2675907    335.19842  0.025533091  0.026126212            2 
 1095000    1.0818281   -7.2986192    335.02255  0.025496389    0.0261164            3 
 1096000    1.0775933    -7.272067    336.47083  0.025583245  0.026106697            3 
 1097000     1.061207    -7.273167    336.24573  0.025542823  0.026096961            3 
 1098000    1.0861382   -7.3131511    336.78836  0.025560744  0.026087017            2 
 1099000    1.0795689   -7.3195435      336.301  0.025500531  0.026077012            5 
 1100000    1.0692799   -7.3307342    337.08152  0.025536479  0.026067108            2 
 1101000    1.0640184   -7.2562358    338.15149   0.02559427  0.026057241            2 
 1102000    1.0895293   -7.2705325    338.09247  0.025566582  0.026047743            3 
 1103000    1.0646563   -7.2576489     338.3098  0.025559822  0.026038265            2 
 1104000    1.0835797   -7.2830324    338.27679  0.025534178  0.026028605            3 
 1105000    1.0883484   -7.3337631    337.55384  0.025456549  0.026018924            3 
 1106000    1.0791969   -7.2904256    338.47786  0.025503154  0.026009114            7 
 1107000    1.0490993    -7.391218    337.16666   0.02538141  0.025999119            5 
 1108000    1.0725483    -7.296422    339.08812  0.025503018  0.025989379            4 
 1109000    1.0597309   -7.3329493    337.32779  0.025347745  0.025979641            2 
 1110000    1.0835054   -7.2980857    339.01348  0.025451463  0.025969925            4 
 1111000    1.0572706   -7.2815823    339.88235  0.025493725  0.025960205            4 
 1112000    1.0740877   -7.3126875     338.5243  0.025369028   0.02595022            5 
 1113000    1.0765595   -7.3201579    339.13124  0.025391677  0.025940289            3 
 1114000    1.0680323   -7.2922437    338.72411  0.025338429  0.025930444            2 
 1115000    1.0717096   -7.2904996    340.23643  0.025428732  0.025920632            4 
 1116000    1.0816863   -7.3315135    339.01293  0.025314586  0.025910768            2 
 1117000    1.0719473   -7.3081024    339.20448  0.025306213  0.025901056            5 
 1118000    1.0775929   -7.3333453    340.03939   0.02534581  0.025891117            3 
 1119000    1.0610285   -7.2847111    340.91026  0.025388015  0.025881168            4 
 1120000    1.0747886   -7.2480034    341.49146  0.025408591   0.02587165            3 
 1121000    1.0898042   -7.2911413    341.52421  0.025388359  0.025862197            6 
 1122000    1.0621305    -7.248756    342.34856  0.025426957  0.025852542            2 
 1123000    1.0649831   -7.2892178    341.38087  0.025332507  0.025843144            3 
 1124000    1.0647476   -7.2742002    342.65177  0.025404194  0.025833676            2 
 1125000    1.0649831   -7.2872087    342.53088  0.025372658  0.025824194            5 
 1126000    1.0613118   -7.2846385    342.03662  0.025313545  0.025814598            5 
 1127000    1.1020652   -7.3080918    342.32949   0.02531274  0.025804773            4 
 1128000    1.0767294    -7.318408    341.71208  0.025244687  0.025794868            6 
 1129000    1.0692054   -7.2989909    342.76363  0.025299943  0.025784955            5 
 1130000     1.073642   -7.3140875    342.33629  0.025246039   0.02577518            5 
 1131000     1.074726   -7.3011219     342.3889  0.025227594  0.025765168            2 
 1132000    1.0580436   -7.3007875    342.07758  0.025182389   0.02575534            2 
 1133000    1.0684035    -7.315981    342.76065  0.025210404  0.025745399           14 
 1134000    1.0353618   -7.2979757     343.9231  0.025273596  0.025735613            5 
 1135000     1.062667   -7.3302358    343.06823  0.025188563  0.025725608            3 
 1136000    1.0506704   -7.3276091    342.82431  0.025148497  0.025715698            5 
 1137000    1.0782363    -7.314654    343.73102  0.025192834  0.025705881            4 
 1138000    1.0593917    -7.308982    343.42787  0.025148497  0.025695975            6 
 1139000    1.0678171   -7.3070521    343.23215  0.025112097  0.025686026            7 
 1140000    1.0817902    -7.296836     343.7646  0.025128992  0.025675966            2 
 1141000    1.0702998   -7.3238892    344.38703  0.025152427  0.025665962            3 
 1142000    1.0596791   -7.3488679    342.91112  0.025022703  0.025655938            4 
 1143000    1.1034813   -7.2883367     343.8259  0.025067505   0.02564596            4 
 1144000    1.0634882   -7.2980408    345.47247  0.025165536  0.025636171            4 
 1145000    1.0622216   -7.3106691     345.9127  0.025175596  0.025626372            2 
 1146000      1.08807   -7.3013599    345.23978  0.025104696  0.025616717            6 
 1147000    1.0814407   -7.3327261    344.31354  0.025015514  0.025607046            5 
 1148000    1.0671914   -7.3389594    344.99115  0.025042912  0.025597314            7 
 1149000    1.0651488   -7.3510941    344.48374  0.024984315  0.025587446            3 
 1150000     1.069272   -7.3641478     344.9923  0.024999442  0.025577393            4 
 1151000    1.0620439   -7.3151079    346.04501  0.025053939  0.025567348            5 
 1152000    1.0737837   -7.3340409    346.17355   0.02504149  0.025557487            6 
 1153000    1.0484985   -7.3227672     346.0762  0.025012735  0.025547519            2 
 1154000    1.0295164   -7.2911985    346.72792  0.025038123  0.025537533            9 
 1155000    1.0826775   -7.3252311    345.92037   0.02495818  0.025527575            3 
 1156000    1.0637533   -7.2953947    347.53873  0.025053253  0.025517628            6 
 1157000    1.0782136   -7.3212535    345.89178  0.024912977  0.025507668            3 
 1158000    1.0538503   -7.2922063    347.41887  0.025001358  0.025497747            3 
 1159000    1.0498291   -7.3044916    348.32644  0.025045042   0.02548779            6 
 1160000    1.0684164   -7.3430728    347.76874  0.024983386  0.025477935            3 
 1161000    1.0759643   -7.3314162    346.38583  0.024862606  0.025468074            3 
 1162000    1.0622683   -7.3000155    346.97747   0.02488364  0.025457955            5 
 1163000    1.0702756   -7.2841521    348.94023  0.025002883  0.025447955            4 
 1164000    1.0493342   -7.2796298    346.92293   0.02483698  0.025437856            3 
 1165000    1.0766078   -7.3204598    347.27415  0.024840783   0.02542774            2 
 1166000    1.0629863   -7.3453255    346.40701  0.024757505  0.025417551            3 
 1167000    1.0627183   -7.3384915    347.75672   0.02483267  0.025407306            2 
 1168000    1.0540836   -7.3247403     348.5864  0.024870605  0.025397235            3 
 1169000    1.0815782   -7.3484043    347.37375  0.024762885  0.025387059            3 
 1170000    1.0442627   -7.2756252    349.60708  0.024900789  0.025376968            1 
 1171000    1.0819225   -7.2909401    349.09978  0.024843423   0.02536687            1 
 1172000    1.0792727   -7.2906452    349.52644  0.024852563  0.025356949            2 
 1173000    1.0906428   -7.2905648    349.37629  0.024820708  0.025347164            4 
 1174000    1.0658543   -7.3232876     350.0902  0.024850241  0.025337373            5 
 1175000    1.0719059    -7.323762    350.33524  0.024846471  0.025327481            4 
 1176000    1.0341019    -7.329192    349.86791  0.024792227  0.025317612            2 
 1177000    1.0604615   -7.3141539    351.25211  0.024869167  0.025307986            2 
 1178000    1.0672383   -7.3248759     351.1627   0.02484173  0.025298293            2 
 1179000    1.0437706   -7.2941502    352.72443  0.024931045  0.025288853            2 
 1180000    1.0716538    -7.294125    352.12824  0.024867814  0.025279389            4 
 1181000    1.0744205   -7.3259449    351.74662  0.024819829  0.025269896            2 
 1182000     1.067814   -7.3052536    352.63283  0.024861311  0.025260317            1 
 1183000    1.0653749   -7.3101483    352.33011  0.024818971  0.025250887            6 
 1184000    1.0584161   -7.3084329    353.38828  0.024872486  0.025241329            3 
 1185000    1.0567114   -7.3509877    351.82436  0.024741516  0.025231675            2 
 1186000    1.0687642   -7.3431295    351.52638  0.024699718  0.025222098            5 
 1187000    1.0740516   -7.3560434    352.04276  0.024715162  0.025212492            2 
 1188000    1.0567078   -7.3218394    353.05312   0.02476523  0.025203017            4 
 1189000    1.0411285   -7.3104428    353.98002  0.024809365  0.025193467            2 
 1190000    1.0470704   -7.3234167    354.14061  0.024799763  0.025184003            4 
 1191000    1.0420969   -7.3176227    354.40424  0.024797386  0.025174438            7 
 1192000    1.0403483   -7.3359897    353.67715  0.024725751  0.025164891            3 
 1193000    1.0541243   -7.3213725    354.18352  0.024740396  0.025155577            5 
 1194000    1.0602792    -7.331062    353.98435  0.024705776  0.025146221            6 
 1195000    1.0754603   -7.3544743    354.20548  0.024700522   0.02513684            2 
 1196000    1.0726696   -7.3817498    353.62979  0.024639757  0.025127263            3 
 1197000    1.0623038   -7.3578998    354.44739  0.024676092   0.02511773            2 
 1198000    1.0643059   -7.3453596    355.34591  0.024717996  0.025108274            6 
 1199000    1.0599527   -7.3074447    355.78212  0.024727698  0.025099098            6 
 1200000    1.0741667   -7.3424535    354.14153  0.024593162  0.025089768           10 
 1201000    1.0672151   -7.3532218     354.1138   0.02457076  0.025080226            4 
 1202000    1.0772786    -7.353886    355.57046  0.024651308  0.025070737            2 
 1203000    1.0334531   -7.3351713     356.5355  0.024697666  0.025061312            3 
 1204000     1.054812   -7.3252442     355.0844  0.024576717  0.025051892            4 
 1205000    1.0457408   -7.3220812     356.8737  0.024680063    0.0250426           10 
 1206000    1.0485904   -7.3610142    356.16807   0.02461084  0.025033438            2 
 1207000     1.067296   -7.3450073    356.64075  0.024623084   0.02502408            1 
 1208000    1.0463654   -7.3498442     357.3109  0.024648931   0.02501475            8 
 1209000    1.0605353   -7.2934304    356.85787  0.024597316   0.02500534            4 
 1210000    1.0467398   -7.3287654    356.67811  0.024564608  0.024996022            2 
 1211000    1.0613705   -7.3669197    357.89064  0.024627762   0.02498676            4 
 1212000    1.0675413   -7.3402171    357.61427   0.02458844  0.024977496            4 
 1213000     1.069454   -7.3488676    358.18597  0.024607445  0.024968222            3 
 1214000    1.0528789   -7.3277664    357.92885  0.024569526  0.024958747            2 
 1215000    1.0523954   -7.3539075     357.5685  0.024524588  0.024949421            3 
 1216000    1.0524642   -7.3484715    357.90285  0.024527334   0.02493986            2 
 1217000    1.0463976   -7.3238572    358.41642  0.024542346  0.024930514            5 
 1218000    1.0599015   -7.3448526    358.61483  0.024535771  0.024921167            3 
 1219000    1.0469367   -7.3176837    358.97093  0.024539987   0.02491172            3 
 1220000    1.0502926   -7.3779729    357.65665  0.024430099  0.024902259            9 
 1221000    1.0436162   -7.3850713    357.91279  0.024427572   0.02489265            3 
 1222000    1.0749077   -7.3464861    359.49935  0.024515777  0.024883178            4 
 1223000    1.0705072   -7.3520966    359.17315  0.024473504  0.024873734            6 
 1224000    1.0670878    -7.358916    358.74706  0.024424501  0.024864344            5 
 1225000    1.0515166   -7.3665912     359.7006  0.024469429  0.024855033            3 
 1226000     1.065077   -7.3278946    359.61936  0.024443948  0.024845822            4 
 1227000    1.0395887   -7.3223568    361.04113  0.024520588  0.024836526            5 
 1228000    1.0519391   -7.3490351    359.57475   0.02440111  0.024827262            3 
 1229000    1.0672307   -7.3250996    360.88028  0.024469777  0.024818102            4 
 1230000    1.0620418   -7.3750508    360.23966  0.024406481  0.024808904            3 
 1231000    1.0496132   -7.3290977    361.48085  0.024470677   0.02479969            3 
 1232000    1.0569666   -7.3501041    360.42346  0.024379292  0.024790377            4 
 1233000    1.0528253   -7.3602967    360.67763  0.024376698  0.024781074            2 
 1234000    1.0523494    -7.359736    361.22047  0.024393603  0.024771661            5 
 1235000    1.0356013   -7.3301313    361.19015  0.024371805  0.024762228            6 
 1236000    1.0653272   -7.3818476    360.68405  0.024317964  0.024752827            4 
 1237000    1.0435178   -7.3557835    361.99166  0.024386396   0.02474358            3 
 1238000    1.0551665   -7.3548669    362.17865  0.024379284  0.024734294            3 
 1239000     1.033036   -7.3505545    362.86749  0.024405939  0.024725246            3 
 1240000    1.0454186   -7.3480529    361.98211  0.024326754  0.024716224            3 
 1241000    1.0495955   -7.3088509    363.49808   0.02440895  0.024707094            2 
 1242000    1.0515249   -7.3489204    362.63212  0.024331194  0.024697903            3 
 1243000     1.046424   -7.3187588    363.09319  0.024342531  0.024688789            5 
 1244000    1.0527717   -7.3513863    362.67058  0.024294653  0.024679596            3 
 1245000    1.0629191   -7.3483913     362.6133  0.024271305   0.02467025            2 
 1246000    1.0501966    -7.347777    362.68171  0.024256401  0.024660962            3 
 1247000    1.0714628    -7.362195    362.86866  0.024249442  0.024651587            6 
 1248000    1.0387437   -7.3047936    364.83632    0.0243614  0.024642171            4 
 1249000    1.0666333   -7.3786605    362.43118  0.024181424  0.024632693            4 
 1250000    1.0394494   -7.3422893     364.7838   0.02431892  0.024623223            4 
 1251000    1.0609899   -7.3471277    363.45536  0.024210989  0.024613859            4 
 1252000    1.0618468   -7.3195866    364.69889   0.02427442  0.024604693            3 
 1253000    1.0468376   -7.3685224    365.05754    0.0242789  0.024595508            4 
 1254000    1.0557802   -7.3358162     364.9855  0.024254752  0.024586269            1 
 1255000    1.0437155   -7.3555811    365.15009  0.024246354  0.024577063            6 
 1256000    1.0712453   -7.3789994    365.87499  0.024275145   0.02456789            3 
 1257000    1.0506362   -7.3885558    365.46272  0.024228502  0.024558627            8 
 1258000    1.0582902   -7.3752646    365.37838  0.024203655  0.024549464            4 
 1259000    1.0545452   -7.3151215    366.21861  0.024240046    0.0245403            4 
 1260000    1.0426117   -7.3855439    366.30724  0.024226669  0.024531146            5 
 1261000    1.0324242   -7.3586888    365.74431  0.024170256  0.024521994            2 
 1262000    1.0730714    -7.390339    366.11484  0.024175571  0.024512616            3 
 1263000    1.0390861   -7.3717759    367.03261  0.024216984  0.024503352            3 
 1264000    1.0412725   -7.3639216    366.67889  0.024174505  0.024494173            3 
 1265000    1.0454664   -7.3487325    367.10168  0.024183247  0.024485071            2 
 1266000    1.0581139   -7.3521387    367.99953  0.024223244  0.024476132            4 
 1267000    1.0432503   -7.3451444    368.52583  0.024238742  0.024467209            7 
 1268000    1.0280339   -7.3373734    369.10688  0.024257813  0.024458347            6 
 1269000    1.0363605    -7.366833    367.52225  0.024134637  0.024449439           10 
 1270000    1.0593895   -7.3995108      367.419  0.024108859  0.024440338            3 
 1271000    1.0532021   -7.3960407    367.27741  0.024080606  0.024431194            2 
 1272000    1.0496336   -7.3876894    367.84003  0.024098534   0.02442202            2 
 1273000    1.0335822   -7.3643994    367.25115  0.024041055  0.024412899            3 
 1274000    1.0443005    -7.394818    368.03033  0.024073151  0.024403736            3 
 1275000    1.0430568    -7.368753    368.34149  0.024074607  0.024394596            4 
 1276000    1.0484627   -7.3967023    367.92605  0.024028608   0.02438551            4 
 1277000    1.0548127   -7.3590553    368.87845  0.024071943  0.024376472            3 
 1278000    1.0525998   -7.3660178    369.32428  0.024082178  0.024367619            5 
 1279000    1.0449943   -7.3514077    370.52144   0.02414135  0.024358778            5 
 1280000    1.0447987   -7.3632282    369.75251  0.024072429  0.024349989            5 
 1281000    1.0621566   -7.3957022    369.16374  0.024015335  0.024341006            2 
 1282000    1.0638719   -7.3741807    370.22849  0.024065815  0.024332065            3 
 1283000    1.0399308   -7.3616323    370.14837  0.024041853  0.024323127            4 
 1284000     1.049659   -7.3953254    369.80716  0.024000984  0.024314116            3 
 1285000    1.0330694   -7.3852063    370.26067  0.024011716  0.024305103            4 
 1286000     1.059052   -7.3612069    371.36314  0.024064486  0.024296278            3 
 1287000    1.0600608    -7.374849     371.0698  0.024026793  0.024287395            3 
 1288000    1.0433575   -7.3663402    371.06419  0.024007776   0.02427855            4 
 1289000    1.0229336   -7.3976859    370.72167  0.023967007  0.024269747            3 
 1290000    1.0582261   -7.3862993    371.56306  0.024002782  0.024260861            5 
 1291000    1.0471311   -7.3492144    371.25556  0.023964341  0.024251904           11 
 1292000    1.0507813   -7.4154849    371.10894  0.023936335  0.024243019            7 
 1293000    1.0512771   -7.3669224    373.23509  0.024054853  0.024234211            2 
 1294000    1.0550428   -7.3672256    372.21454  0.023970539  0.024225395            5 
 1295000    1.0556409   -7.3831442    373.37332  0.024026597  0.024216479            4 
 1296000    1.0422786   -7.4033317    372.77261  0.023969432  0.024207698            2 
 1297000    1.0690688   -7.3787016    373.47999  0.023996401  0.024198925            4 
 1298000    1.0461876   -7.4163916     373.1955   0.02395965   0.02419022            7 
 1299000    1.0633805   -7.3795787    374.66869  0.024035713  0.024181612            6 
 1300000    1.0369693   -7.3795453    374.41148  0.024000736  0.024173101            5 
 1301000    1.0363946   -7.3974085    373.44014  0.023920071  0.024164657            2 
 1302000    1.0281708   -7.4102439     374.2755  0.023955165  0.024156132            3 
 1303000    1.0328007   -7.3697493    374.94549   0.02397963  0.024147764            2 
 1304000    1.0288563   -7.4166245    374.52103  0.023934115  0.024139318           17 
 1305000    1.0572835   -7.3979162    373.84861  0.023872836  0.024130787            2 
 1306000    1.0392599   -7.3722515    374.80169  0.023915371  0.024122229            3 
 1307000    1.0398586   -7.3794504    375.85432  0.023964188  0.024113637            3 
 1308000    1.0452627   -7.4189378    375.96628  0.023952999  0.024105313            4 
 1309000    1.0227293   -7.4263077    375.15375  0.023882973  0.024096912            5 
 1310000    1.0399638   -7.4302803    376.32729  0.023939395  0.024088508            2 
 1311000    1.0312183   -7.4090967    377.24515  0.023979478  0.024080163            8 
 1312000    1.0426226   -7.4126091    375.80643  0.023869819  0.024071986            5 
 1313000    1.0246555   -7.4119559    377.32495  0.023948017  0.024063672            3 
 1314000    1.0374846   -7.4191531    376.68348   0.02388911  0.024055346            3 
 1315000    1.0596032   -7.3353223    378.16821  0.023965032   0.02404701            4 
 1316000    1.0468721   -7.3856663    377.14554  0.023882063  0.024038797            3 
 1317000    1.0463343   -7.4046947    377.44388  0.023882807  0.024030546            5 
 1318000     1.050212   -7.4075568    376.74843  0.023820715  0.024022124            5 
 1319000    1.0452681   -7.3938018    378.98972  0.023944258  0.024013741            6 
 1320000    1.0421607   -7.4337088    378.07692  0.023868492  0.024005472            4 
 1321000    1.0506514   -7.3979631    379.63938  0.023948989   0.02399728            3 
 1322000    1.0485147   -7.4002934     379.5685  0.023926406  0.023989163            2 
 1323000     1.046277   -7.3984475    379.75856  0.023920292  0.023980981            5 
 1324000    1.0366618   -7.4238842    379.17789  0.023865678  0.023972946            2 
 1325000    1.0594092   -7.4093172     378.7637  0.023821616  0.023964894            9 
 1326000    1.0375822   -7.3752609    379.74846  0.023865539  0.023956889            3 
 1327000    1.0351974   -7.3969518    380.81559  0.023914569  0.023948987            2 
 1328000    1.0419787   -7.4054361    380.22643   0.02385959  0.023940958           10 
 1329000    1.0320609   -7.4162407    379.05788  0.023768364  0.023932852           10 
 1330000    1.0406142    -7.379525    380.86888  0.023863965  0.023924857            5 
 1331000    1.0511416   -7.3835473    380.19795  0.023804029  0.023916966            5 
 1332000    1.0428048   -7.3668201     381.4324  0.023863388  0.023909223            3 
 1333000    1.0161067   -7.4054502    381.27489  0.023835639  0.023901318            2 
 1334000    1.0297295   -7.4209503    380.94819  0.023797363  0.023893268            3 
 1335000     1.036394   -7.4041073    381.62751  0.023821942   0.02388535            6 
 1336000    1.0274472   -7.3747229     382.2212  0.023841143   0.02387749            3 
 1337000    1.0504889   -7.3850605    382.86318  0.023863325  0.023869638            2 
 1338000     1.014661   -7.3913534    382.23609  0.023806433  0.023861725           13 
 1339000     1.037715   -7.3955576    383.17719  0.023847223  0.023853873            3 
 1340000    1.0482873   -7.4184052    381.76278  0.023741467  0.023845865            3 
 1341000    1.0607953     -7.37034    383.19448  0.023812732  0.023837878            7 
 1342000    1.0181107   -7.3273201    384.22628  0.023859058   0.02383007            4 
 1343000   0.99901108   -7.4096175    384.13832  0.023835835  0.023822208            8 
 1344000    1.0619713   -7.3824873    383.56671  0.023782658  0.023814345            4 
 1345000    1.0520295   -7.4275278    382.33483  0.023688651  0.023806514            5 
 1346000    1.0341726   -7.4206251    383.17559  0.023723105  0.023798683            2 
 1347000    1.0008412   -7.3653821    383.21446  0.023707898   0.02379085            6 
 1348000    1.0307132    -7.438414      383.606  0.023714515   0.02378299            5 
 1349000    1.0462478    -7.368351    384.02105  0.023722576  0.023775131            4 
 1350000    1.0266036   -7.4379291    384.17793  0.023714687  0.023767282            9 
 1351000    1.0147338   -7.3883349    383.76773  0.023671831  0.023759317            3 
 1352000    1.0439639    -7.443494    384.96295  0.023727992  0.023751391            3 
 1353000    1.0349195   -7.4138511    384.52654  0.023683576    0.0237435            4 
 1354000    1.0112904   -7.3940057    386.54262  0.023790166  0.023735788            2 
 1355000    1.0176618   -7.4446967     385.5272   0.02371016  0.023728153            2 
 1356000    1.0179278   -7.4332985    385.76856  0.023707507  0.023720322            4 
 1357000    1.0337055   -7.4322949    385.93935  0.023700525  0.023712517            3 
 1358000    1.0111844   -7.3994303    385.45562  0.023653388   0.02370482            2 
 1359000    1.0433006   -7.4563037    386.54888  0.023703022  0.023697205            3 
 1360000      1.03324   -7.3940589    386.49154   0.02368208  0.023689672            5 
 1361000    1.0336853   -7.4262811    386.14369   0.02364338     0.023682            4 
 1362000    1.0457599   -7.4709701    386.65065  0.023657039   0.02367429            4 
 1363000    1.0204321   -7.4047863    388.43272  0.023748638  0.023666742            4 
 1364000    1.0374497   -7.4095328    387.73489  0.023688593  0.023659213            6 
 1365000    1.0287306   -7.4125468    387.55188  0.023660066  0.023651775            5 
 1366000    1.0390979    -7.446915    387.38093  0.023632316   0.02364426            2 
 1367000    1.0238885   -7.3821076    389.28629  0.023731181  0.023636968            4 
 1368000    1.0459128   -7.4112285    388.14205   0.02364413  0.023629583            2 
 1369000    1.0289073   -7.4125079    389.08645  0.023684347   0.02362212            6 
 1370000    1.0350106   -7.4062429    389.84783  0.023713372   0.02361471            3 
 1371000    1.0178101   -7.4031697    389.20013  0.023656706  0.023607101            3 
 1372000     1.017449   -7.4346696    389.82296  0.023677293  0.023599594            6 
 1373000    1.0423899   -7.4130049    389.09256  0.023615717  0.023592201            6 
 1374000    1.0554779   -7.3953972    389.35292  0.023614321  0.023584778            3 
 1375000    1.0261735   -7.4155928    390.48711  0.023665885  0.023577402            6 
 1376000    1.0315596   -7.4484172    390.45716  0.023646872  0.023569995            4 
 1377000    1.0264674   -7.4551323    389.64985  0.023580843    0.0235626            3 
 1378000    1.0081816   -7.3724943    391.52182  0.023676936    0.0235552            3 
 1379000    1.0359806   -7.3906323    390.70639   0.02361049  0.023547843            4 
 1380000      1.01533    -7.432853    390.95943  0.023608661  0.023540469            3 
 1381000    1.0206145    -7.452103    389.95982  0.023531247  0.023533133           17 
 1382000    1.0531488   -7.4185997    392.13564   0.02364542  0.023525758            2 
 1383000     1.021462   -7.4542309    391.58051  0.023594873   0.02351831            2 
 1384000    1.0272045   -7.4348376    392.32515  0.023622661  0.023510842            3 
 1385000    1.0367523   -7.4018107    392.84737  0.023637026  0.023503507            3 
 1386000    1.0143382   -7.4233453    392.32185  0.023588375   0.02349618            3 
 1387000    1.0193988   -7.4445944    391.66199  0.023531723  0.023488743            5 
 1388000    1.0275499   -7.3905846    392.30595  0.023553431   0.02348142            6 
 1389000    1.0669103   -7.4053754    394.04555  0.023640842  0.023474062            5 
 1390000    1.0100622   -7.4055217    392.72694  0.023544781  0.023466838           12 
 1391000    1.0129073   -7.4579201     392.0743  0.023488755  0.023459493            6 
 1392000    1.0340352   -7.3971935    393.55204  0.023560347  0.023452148            2 
 1393000    1.0223166   -7.4241978     392.7585  0.023495962  0.023444792           10 
 1394000    1.0442727   -7.4275554    392.27179  0.023450012   0.02343733            3 
 1395000     1.037629   -7.3967092     392.9913  0.023476183   0.02342996            3 
 1396000    1.0362327   -7.4461591    392.51452  0.023430905  0.023422534            4 
 1397000    1.0480404   -7.4518386    393.16446  0.023452903  0.023415133            4 
 1398000    1.0205886   -7.4354755    394.69526  0.023527376  0.023407625            5 
 1399000    1.0125376   -7.4140582    393.30645  0.023427832  0.023400055            3 
 1400000    1.0234235   -7.4842441    392.71999   0.02337619  0.023392575            3 
 1401000    1.0272011   -7.4800851    393.45335  0.023403126   0.02338505            6 
 1402000    1.0184968   -7.4276123     394.3617  0.023440424  0.023377582            5 
 1403000    1.0346477   -7.4687618    393.78442  0.023389429  0.023370285            3 
 1404000    1.0161684   -7.4219287    395.28331  0.023461735  0.023362906            3 
 1405000    1.0297392   -7.4350756    394.38558   0.02339179   0.02335557            6 
 1406000    1.0454439   -7.4274059    394.53321  0.023383903  0.023348154            3 
 1407000    1.0467659   -7.4168112    395.07768  0.023399531  0.023340781            7 
 1408000      1.03018   -7.4078577    396.34937  0.023458178   0.02333337            8 
 1409000     1.038064    -7.416516    396.61427  0.023457196  0.023326011            2 
 1410000    1.0459361    -7.440514    395.20487  0.023357262  0.023318679            7 
 1411000    1.0249882   -7.4387042    396.10313  0.023393759  0.023311374            2 
 1412000    1.0188323   -7.4584757    395.24734  0.023326684  0.023303988            5 
 1413000    1.0383828   -7.4562706    395.49508  0.023324786  0.023296494            3 
 1414000    1.0337376   -7.4162695    396.99254  0.023396543  0.023289051            5 
 1415000    1.0004386   -7.4332596    395.41515  0.023287111  0.023281659            5 
 1416000    1.0361306   -7.4181286    395.99196  0.023304612  0.023274202            2 
 1417000    1.0570604   -7.4433914    396.32797  0.023307926  0.023266819            3 
 1418000    1.0298037   -7.4601701    396.47363  0.023300049  0.023259367            7 
 1419000    1.0120103   -7.4718805    396.60459  0.023291319  0.023251976            4 
 1420000    1.0208275   -7.4763269    397.12272  0.023305324  0.023244608            5 
 1421000    1.0318412   -7.4573094    397.53405  0.023313046  0.023237284            3 
 1422000    1.0349355   -7.4677489    397.68903  0.023305733  0.023229952            5 
 1423000     1.019858   -7.4485651    399.53041   0.02339719   0.02322276            3 
 1424000    1.0309744   -7.4357313      398.941  0.023346267  0.023215672            8 
 1425000    1.0180316   -7.4663018    397.46077   0.02324332  0.023208565            3 
 1426000    1.0296971   -7.4540401    399.03627   0.02331909  0.023201465            4 
 1427000    1.0096324   -7.4311123    399.91045  0.023353799  0.023194361            5 
 1428000    1.0368729   -7.4127594    400.07408  0.023346994  0.023187276            6 
 1429000    1.0270651   -7.4152967    399.60661  0.023303395  0.023180267            7 
 1430000    1.0232122   -7.4252811    400.78202  0.023355595  0.023173164            6 
 1431000    1.0420324   -7.4603777    400.57622   0.02332729  0.023166109            3 
 1432000    1.0189799   -7.4543393    399.42824  0.023244195  0.023158981            4 
 1433000    1.0262512   -7.4448771    399.91873  0.023256497  0.023151892            3 
 1434000    1.0174004   -7.4404104    399.60092  0.023221811  0.023144849            3 
 1435000    1.0296565    -7.419962    401.73043  0.023329293  0.023137725            6 
 1436000    1.0397334   -7.4493145    401.08785  0.023275758  0.023130708            4 
 1437000      1.03192   -7.4408299    400.30504  0.023214164   0.02312359            7 
 1438000    1.0431294   -7.4886826    400.93965  0.023234797  0.023116388            2 
 1439000    1.0000593   -7.4763903    399.91314  0.023159204  0.023109032            3 
 1440000    1.0204968   -7.4716095    400.34986  0.023168395  0.023101856           11 
 1441000    1.0404633   -7.4445496    401.39982  0.023213036   0.02309468            4 
 1442000    1.0405672   -7.4170534    402.08915  0.023236775  0.023087568            4 
 1443000    1.0357695   -7.4841073    399.89755  0.023094107  0.023080428            4 
 1444000    1.0193285   -7.4135861    402.44125   0.02322491  0.023073317            5 
 1445000    1.0319951   -7.4568713    401.92325  0.023178965  0.023066191            5 
 1446000   0.99112019   -7.3981862    403.48712  0.023253061  0.023059098            2 
 1447000    1.0179811   -7.4314698    402.88536  0.023202336  0.023052036            4 
 1448000   0.99582515    -7.439352    402.68466  0.023174762   0.02304496            3 
 1449000    1.0335593   -7.4694327    401.99976  0.023119379  0.023037872            6 
 1450000    1.0151436   -7.4300171    403.45392  0.023187007  0.023030698            4 
 1451000    1.0194771    -7.461977    403.18169  0.023155392  0.023023537            4 
 1452000    1.0450941   -7.4555971    402.84416  0.023120074  0.023016321            6 
 1453000    1.0014194   -7.4857316    402.53862  0.023086638   0.02300901            4 
 1454000    1.0230336   -7.4709732    402.99595  0.023096971  0.023001818            5 
 1455000     1.013917   -7.4867125    401.63687  0.023003257  0.022994527            5 
 1456000   0.99413473   -7.4483183    403.24903  0.023079729  0.022987234            4 
 1457000    1.0147228   -7.4110887    402.27538  0.023008201  0.022979987            5 
 1458000    1.0174995   -7.4394015    402.71511  0.023017553    0.0229726            4 
 1459000     1.007392   -7.4983777    402.47056  0.022987809   0.02296526            4 
 1460000     1.018523    -7.441347    403.17605  0.023012332  0.022957759            3 
 1461000    1.0199546   -7.3972018    405.57725  0.023133542  0.022950404            3 
 1462000    1.0112201   -7.4066077    404.48977  0.023055733  0.022943221            4 
 1463000    1.0048075   -7.4548381    405.11539  0.023075609  0.022936097            2 
 1464000    1.0095183   -7.4351783    405.25306  0.023067683  0.022928815            6 
 1465000    1.0110584    -7.425349    404.67288  0.023018935  0.022921634            4 
 1466000    1.0218258   -7.4300951    405.39008  0.023044002  0.022914396            5 
 1467000   0.99731014   -7.4779934    405.22046  0.023018658  0.022907025            3 
 1468000    1.0258672   -7.4668502    404.16392  0.022943002  0.022899682            3 
 1469000    1.0321959    -7.460559    405.82063  0.023021366  0.022892504            2 
 1470000    1.0241975   -7.4383462    405.20849  0.022971003  0.022885389            3 
 1471000   0.99551154   -7.4497494    405.52282  0.022973194  0.022878225            4 
 1472000    1.0102733   -7.4811853    406.52901   0.02301455  0.022870951            4 
 1473000    1.0305351   -7.4831676    406.21558  0.022981194  0.022863812            3 
 1474000    1.0037566   -7.4629644    406.50717  0.022982088  0.022856613            6 
 1475000    1.0231947    -7.452296     406.6533  0.022974763  0.022849515            3 
 1476000    1.0063331   -7.4986271    405.77962   0.02290987  0.022842375            3 
 1477000    1.0221034   -7.4538274    406.96624  0.022961309  0.022835117            3 
 1478000    1.0014868   -7.4761524     408.2135  0.023016097  0.022828026            3 
 1479000    1.0304749   -7.4517994    406.81838  0.022921928  0.022820917            4 
 1480000     1.014659   -7.4672954    407.91699  0.022968299  0.022813798            4 
 1481000    1.0057523   -7.4891062    406.22655  0.022857672  0.022806587            2 
 1482000     1.013097   -7.4859234    407.10392  0.022891583  0.022799278            4 
 1483000    1.0305331   -7.4643684    408.20727  0.022938147  0.022791982            4 
 1484000    1.0164953   -7.4712314    406.67454  0.022836621  0.022784665            3 
 1485000   0.98991324   -7.4662316    407.33783  0.022858464  0.022777357            4 
 1486000    1.0056288   -7.4955807    407.55123  0.022855049  0.022770111            5 
 1487000    1.0416131   -7.4685123    408.85621  0.022912812  0.022762934            2 
 1488000    1.0144387   -7.4682953     407.5529  0.022824423  0.022755796            9 
 1489000     1.028382   -7.4555218       407.73  0.022819006  0.022748451            3 
 1490000   0.98746749   -7.4780408     407.3391  0.022781829  0.022741001            2 
 1491000    1.0110298   -7.4781927    408.52679   0.02283293  0.022733654            7 
 1492000    1.0193839   -7.4636578    409.03921  0.022846247  0.022726335            8 
 1493000    1.0240602   -7.4784575    408.62771  0.022807977  0.022719003            6 
 1494000    1.0139383   -7.4703758    409.29459  0.022829908  0.022711676            4 
 1495000    1.0007225   -7.4788314    408.65237  0.022778839  0.022704408            5 
 1496000    1.0126992    -7.434982    409.36118  0.022803096  0.022697202            2 
 1497000   0.98930108   -7.4660501    409.69674  0.022806543  0.022689981            3 
 1498000    1.0074816   -7.5222663     409.4361  0.022776819   0.02268279            5 
 1499000   0.99848103   -7.4822077     409.5046  0.022765433  0.022675622            7 
 1500000    1.0131753   -7.4610128    410.60806  0.022811559  0.022668485            3 
 1501000    1.0113969   -7.4997916    410.32248  0.022780506  0.022661396            4 
 1502000    1.0265525   -7.5240366    409.58001  0.022724146  0.022654275            9 
 1503000    1.0061676   -7.4651873    410.95587  0.022785311   0.02264721            2 
 1504000    1.0136424   -7.5346705    410.29327  0.022733448  0.022640013            4 
 1505000    1.0138202   -7.4603631    411.53058  0.022786854  0.022632838            5 
 1506000    1.0104931   -7.5000561     410.6301  0.022721896  0.022625777            4 
 1507000    1.0056401   -7.5096585    409.36736  0.022636992  0.022618507            3 
 1508000     1.020021   -7.4930525    411.44308  0.022736686  0.022611386            5 
 1509000    1.0029181   -7.5372104     411.6753  0.022734443  0.022604213            3 
 1510000    1.0052715   -7.5510691    410.09249  0.022632036  0.022596994           11 
 1511000     1.013633   -7.4962711    412.02557  0.022723669   0.02258988           11 
 1512000    1.0039236   -7.4821826    413.11039   0.02276843  0.022582787            2 
 1513000    1.0048112   -7.4856126     412.7471  0.022733372  0.022575749            4 
 1514000    1.0168328   -7.4940407    412.78007  0.022720171  0.022568705            7 
 1515000    1.0184722   -7.4924608    412.54543  0.022692268  0.022561724            3 
 1516000   0.99893842   -7.4926123    412.90174  0.022696886  0.022554634            3 
 1517000     1.000732   -7.4433992    414.42431  0.022765563  0.022547703            3 
 1518000    0.9960206   -7.5135904    414.02847  0.022728835  0.022540692            4 
 1519000    1.0397039   -7.5082212    412.42815  0.022626078  0.022533703            3 
 1520000     1.008824   -7.4654657     414.5753  0.022728909   0.02252675            3 
 1521000     1.021002   -7.4605563    415.17637  0.022746897  0.022519964            4 
 1522000    1.0026148    -7.480998    414.36625  0.022687596  0.022513118            7 
 1523000    1.0124212   -7.4824683    415.79276  0.022750753  0.022506169            5 
 1524000    1.0060932   -7.4927028    414.42872  0.022661238  0.022499089            2 
 1525000    1.0022032   -7.5247877    412.81967  0.022558452  0.022492039            4 
 1526000    1.0152061   -7.4956602    415.25588  0.022676708  0.022485055            5 
 1527000    1.0213209   -7.4772227    414.15948  0.022602023  0.022478004            5 
 1528000   0.99844309   -7.5139585    413.23403   0.02253676  0.022470846            5 
 1529000    1.0045948   -7.5131011    414.29978  0.022580106  0.022463637           17 
 1530000   0.96728741   -7.4968175    414.76733  0.022590813  0.022456396            2 
 1531000   0.99855392   -7.4915682    414.64648  0.022569479  0.022449239            3 
 1532000   0.99842939   -7.4719974    414.45542  0.022544355  0.022442128            4 
 1533000    1.0023234   -7.5029376     414.2048  0.022516025  0.022434971           16 
 1534000    1.0156888    -7.511045    414.30248  0.022506653  0.022427831            8 
 1535000    1.0238561   -7.4797312    414.35988  0.022495107  0.022420576            4 
 1536000   0.98409893   -7.5058945    413.39761  0.022428256  0.022413399            4 
 1537000   0.99766058   -7.5163153    414.76858  0.022487995    0.0224062            3 
 1538000    1.0036385   -7.5016726    414.99795  0.022485802  0.022399001            4 
 1539000   0.99692869    -7.510458    413.90813  0.022412179  0.022391739            5 
 1540000    1.0003804   -7.4799771    414.85083  0.022448638  0.022384505            6 
 1541000    1.0027396   -7.4952382    415.15536  0.022450538  0.022377183           11 
 1542000    1.0044403   -7.4588746    416.20466  0.022492686  0.022369927            5 
 1543000   0.99833835   -7.4755694    416.96146  0.022518981  0.022362762            3 
 1544000   0.99315902   -7.5194843    416.10747  0.022458305   0.02235557            5 
 1545000   0.98260175    -7.524621    416.15008  0.022446067  0.022348377            6 
 1546000    1.0243313    -7.467078    416.71728  0.022462122  0.022341186           18 
 1547000    1.0156979    -7.536011    416.41051  0.022431077  0.022334094            4 
 1548000    1.0077418    -7.461797    418.61951  0.022535503  0.022327053            4 
 1549000    1.0048302   -7.5096155    417.10699  0.022439584  0.022320016            6 
 1550000   0.99905872   -7.5411423    417.51735  0.022447169  0.022312795           13 
 1551000    1.0225398   -7.5132945    419.19002  0.022522567   0.02230573            8 
 1552000   0.99889744   -7.4750558     418.8057   0.02248742  0.022298685            4 
 1553000   0.99526009   -7.5202786    418.82509   0.02247398  0.022291726            6 
 1554000   0.99811679   -7.4733336    420.11819  0.022528861  0.022284717            7 
 1555000    1.0016928   -7.4891126    417.89126   0.02239503  0.022277749            7 
 1556000    1.0131198   -7.4734206    419.42993  0.022463043  0.022270705            9 
 1557000   0.99097145   -7.4951712     419.5165  0.022453249  0.022263637            3 
 1558000    1.0295491   -7.4841275     419.4587  0.022435746  0.022256589            3 
 1559000    1.0236768   -7.5023942    418.11004  0.022349264  0.022249545            5 
 1560000   0.99272253   -7.5189175    419.37433  0.022402475  0.022242452            4 
 1561000    1.0343709   -7.5340829    418.79662  0.022357283  0.022235243            4 
 1562000   0.98441968   -7.5398132    418.52179  0.022328307  0.022228059            7 
 1563000    1.0095376   -7.4952107    418.27598  0.022300916  0.022221016            4 
 1564000    1.0085049   -7.4718382    420.43644  0.022401771  0.022214056            5 
 1565000   0.99428912   -7.4943932     419.7893  0.022352998    0.0222071            6 
 1566000    1.0033702   -7.5317688    419.59161  0.022328204  0.022200193            2 
 1567000    1.0075661   -7.5334816     420.0641  0.022339082  0.022193154            4 
 1568000     1.003023    -7.520676    419.60807  0.022300599  0.022186124            6 
 1569000    1.0144304   -7.5155891    419.97241  0.022305737  0.022179042            4 
 1570000    1.0014423   -7.5208523    420.76646  0.022333676   0.02217212            5 
 1571000   0.99897904   -7.4983954    421.18651  0.022341741  0.022165131            9 
 1572000   0.99539499   -7.4962912    421.85754  0.022363101  0.022158131            7 
 1573000   0.98622326   -7.5216026    420.54582  0.022279393  0.022151111            7 
 1574000   0.99109863   -7.5014893    420.57923  0.022267007  0.022144004            5 
 1575000   0.99429822   -7.4890067    421.11761  0.022281355  0.022136893            7 
 1576000   0.99013082   -7.5010615    419.67627  0.022191004  0.022129754            3 
 1577000    1.0146211   -7.4707512    420.87132  0.022240082  0.022122716            3 
 1578000    1.0099926   -7.5246785    420.80279   0.02222237  0.022115637            5 
 1579000   0.97925417   -7.4795928    420.83779  0.022210143  0.022108428            4 
 1580000   0.99173419   -7.5149614    419.38491  0.022119457  0.022101172            2 
 1581000    1.0150881   -7.5353897    420.67399  0.022173413  0.022093887           10 
 1582000   0.99102956   -7.5216341    420.90312  0.022171466  0.022086648            3 
 1583000   0.99782565   -7.4952224    420.88001  0.022156244  0.022079387            6 
 1584000   0.99145034   -7.5258234    420.50779  0.022122674  0.022072092            3 
 1585000    1.0154318   -7.5413763    421.24691  0.022147577  0.022064826            4 
 1586000   0.98627085   -7.5197541    420.25442  0.022081464  0.022057482            9 
 1587000    1.0002411   -7.5615713    419.74918   0.02204102  0.022050237            7 
 1588000   0.99835096   -7.5465078    422.72742  0.022183429   0.02204294            4 
 1589000    1.0032488    -7.510886    422.17898  0.022140706  0.022035694            2 
 1590000   0.99572182   -7.5245421    422.25511  0.022130771  0.022028487            4 
 1591000    1.0178114   -7.5484607    422.35297  0.022121987  0.022021337            4 
 1592000   0.98340893   -7.5340287    423.31869  0.022158642  0.022014134            5 
 1593000    1.0068356   -7.5507705    421.99222  0.022075341  0.022007012            4 
 1594000   0.98474408   -7.5440383     422.7744  0.022102384  0.021999803            4 
 1595000    1.0010478   -7.5442043    422.13599  0.022055172  0.021992583            2 
 1596000   0.99796576    -7.578608    422.85843  0.022079074  0.021985319            6 
 1597000    1.0076743   -7.4898533    423.97751  0.022123644  0.021978199            2 
 1598000   0.99972817   -7.5391271    422.57206  0.022036507  0.021971068            2 
 1599000    1.0018923   -7.5285742    424.16355  0.022105668  0.021963868            5 
 1600000    1.0114665    -7.531317     424.7158  0.022120614  0.021956669            7 
 1601000     1.022681   -7.5301332    423.07963  0.022021634  0.021949578           12 
 1602000   0.98485955   -7.4938637    424.81739  0.022098283  0.021942485            5 
 1603000    0.9842771   -7.5533601    424.11966  0.022048225  0.021935412            4 
 1604000    1.0137153   -7.5595511    424.00118  0.022028324  0.021928253            4 
 1605000   0.98735902   -7.5098863    426.53428   0.02214612  0.021921224            8 
 1606000   0.99074418   -7.4977718    426.87916  0.022150226  0.021914286            2 
 1607000   0.96068559   -7.5498291    425.18673  0.022048679  0.021907319            3 
 1608000    1.0089244   -7.5369941    425.01775   0.02202621  0.021900247            3 
 1609000   0.98174143   -7.5216773    425.37484  0.022031015  0.021893244            3 
 1610000   0.97260149   -7.5666452     425.3672  0.022016936  0.021886237            3 
 1611000   0.99758981   -7.4903711     426.0121  0.022036629  0.021879302            7 
 1612000     1.010518   -7.5179674    427.59529  0.022104802  0.021872389            7 
 1613000   0.97974328   -7.4966791    427.63001  0.022092892   0.02186547            3 
 1614000   0.99899771   -7.5474652    425.78211  0.021983793  0.021858605            4 
 1615000   0.98951599   -7.5367938    425.64067  0.021962883  0.021851598            5 
 1616000   0.98359742   -7.5260679    427.83424  0.022062409  0.021844643            8 
 1617000   0.98656535   -7.5212606    427.69363  0.022041519  0.021837629            8 
 1618000   0.97262084   -7.5374975    426.64711  0.021973996  0.021830636            4 
 1619000   0.98918243   -7.6110549    425.93624  0.021923834  0.021823578           11 
 1620000    1.0256273   -7.5487933    426.33257  0.021930688  0.021816502            3 
 1621000    1.0035994    -7.525355    427.36763  0.021970369  0.021809531            5 
 1622000    1.0090336   -7.5231373    426.03173   0.02188819   0.02180246            8 
 1623000   0.96235216   -7.5141233    427.86893  0.021969035  0.021795464            9 
 1624000    1.0024967   -7.5305813    427.20128  0.021921248  0.021788474            2 
 1625000    1.0044151   -7.5143108    428.57551  0.021978232  0.021781495            4 
 1626000    1.0086586   -7.5124846    427.85357  0.021927715  0.021774461            4 
 1627000   0.97343036   -7.5331432    428.69905  0.021957542  0.021767308            4 
 1628000   0.99361423   -7.5187643    427.57809  0.021886675  0.021760123            3 
 1629000   0.96533204   -7.5367922    427.59166  0.021873934  0.021753029            4 
 1630000   0.98393487   -7.5804966    427.71009  0.021866569  0.021745983            3 
 1631000    0.9933887   -7.5275503    428.66139  0.021901767  0.021738877            3 
 1632000   0.99737274   -7.5604081    427.56855  0.021832544  0.021731747            6 
 1633000    1.0050924   -7.5210516    429.38302  0.021911769  0.021724676            5 
 1634000   0.99956399   -7.5139321    429.35111  0.021896731  0.021717675            5 
 1635000   0.98825375   -7.5270598    429.14805  0.021872989  0.021710631            6 
 1636000   0.99112324   -7.5772961    428.26585  0.021814683  0.021703625           14 
 1637000   0.98091293   -7.5251999     429.0112  0.021839299   0.02169657            5 
 1638000   0.99327043   -7.5461757     428.3986  0.021794801  0.021689511            7 
 1639000   0.98328681   -7.5353897    430.56888  0.021891849  0.021682517            3 
 1640000   0.97816374   -7.5593369    430.41998  0.021870934  0.021675547            4 
 1641000   0.99798617   -7.5119627     431.0175   0.02188795  0.021668722            4 
 1642000   0.96163958   -7.5713807    428.81484  0.021762832  0.021661787            5 
 1643000   0.97940151   -7.5234434    432.03733  0.021913031  0.021654817            2 
 1644000   0.98891822   -7.5359549    432.12689  0.021904242   0.02164783            3 
 1645000   0.96269971   -7.5403927    430.86946  0.021827227  0.021640911            3 
 1646000    0.9812462    -7.524294    431.12739  0.021827024  0.021633964            6 
 1647000   0.99731902   -7.5587775    431.77729  0.021846655  0.021627104            2 
 1648000    1.0073719     -7.55838    430.66315   0.02177706  0.021620285            3 
 1649000   0.99848453   -7.5083218    431.51089  0.021806695  0.021613382            5 
 1650000   0.98316204   -7.5372339    431.72279  0.021804181  0.021606514            3 
 1651000   0.99914739   -7.5213597    431.03094  0.021756054  0.021599702            5 
 1652000    1.0075169   -7.5651378    430.68888  0.021725629   0.02159281           11 
 1653000   0.98958742   -7.5452516    431.34093  0.021745359  0.021585956            5 
 1654000    1.0127803   -7.5140676    431.81753  0.021756224  0.021579075            4 
 1655000   0.97614418   -7.5351755    432.38521  0.021771662  0.021572174            5 
 1656000   0.95829359   -7.5535819    432.36855  0.021757677  0.021565233            4 
 1657000   0.99502743   -7.5669089     431.7375  0.021712809  0.021558244            3 
 1658000   0.99249732   -7.5478404    431.78177  0.021701939  0.021551219            8 
 1659000   0.97165114   -7.5615089    431.55867  0.021677651  0.021544205            6 
 1660000   0.98710208   -7.6162731    430.60014  0.021616473  0.021537077            5 
 1661000   0.97813411   -7.5952033    430.81154  0.021614065  0.021529923            7 
 1662000   0.98770609   -7.5700673    432.06198  0.021663758  0.021522757            8 
 1663000    1.0046529   -7.6303716    431.23939   0.02160951  0.021515614            4 
 1664000   0.97820436   -7.6022322    431.59697  0.021614432  0.021508479            7 
 1665000   0.99328748   -7.5546788     432.5991  0.021651606  0.021501429            2 
 1666000    0.9823542   -7.5411956    432.79046  0.021648182  0.021494445            5 
 1667000    0.9830375   -7.5472184    433.63327  0.021677328  0.021487553            2 
 1668000   0.99716696   -7.6003089    432.14242  0.021589849  0.021480502            8 
 1669000   0.99300301     -7.55176    432.97573  0.021618521  0.021473556            3 
 1670000    1.0293577   -7.5419491    434.36456  0.021674878  0.021466656            5 
 1671000   0.96043048     -7.55247    433.66174  0.021626857  0.021459724            4 
 1672000   0.96897782   -7.5394041    434.30701  0.021646083  0.021452827            3 
 1673000    1.0033166   -7.5179981    434.97883  0.021666609  0.021445956            6 
 1674000   0.99733868   -7.5334112    434.71139  0.021640352  0.021439146           11 
 1675000   0.97622241    -7.588787    433.29053  0.021556743  0.021432262           10 
 1676000   0.96663235   -7.5500916    433.69356   0.02156392  0.021425316            6 
 1677000   0.98500185   -7.5384183    434.60598  0.021596401  0.021418365            5 
 1678000   0.99568983   -7.5803042    434.12529  0.021559659  0.021411453            4 
 1679000   0.99126772   -7.5376021    435.62742  0.021621373  0.021404495           12 
 1680000   0.97640593   -7.5670532    434.52659  0.021553898  0.021397577            6 
 1681000   0.98066167   -7.5660113    434.93175  0.021561162  0.021390618           16 
 1682000    0.9769653   -7.5746811    434.28219  0.021516161  0.021383691            7 
 1683000   0.98241715   -7.5601082    435.07927  0.021542843  0.021376845            7 
 1684000   0.98312459   -7.5770252    435.20308  0.021536178  0.021370105            4 
 1685000   0.97086127   -7.5640087    434.39839    0.0214836  0.021363251            5 
 1686000   0.97451053    -7.564796    436.65192  0.021582242  0.021356334            4 
 1687000    1.0028753   -7.5464124    435.76765  0.021525768  0.021349546            2 
 1688000    1.0055448   -7.5760084    436.18221  0.021533482  0.021342765            5 
 1689000   0.97916575   -7.5866306     435.9667    0.0215101  0.021336025            2 
 1690000    0.9736744   -7.5639116    436.28678  0.021513155  0.021329202            4 
 1691000   0.97342647   -7.5574721    437.59728  0.021565015  0.021322387            2 
 1692000    0.9852348   -7.5959264    435.98154  0.021472692  0.021315576            4 
 1693000   0.96181924   -7.5990648    436.25211  0.021473327  0.021308635            5 
 1694000   0.97464268   -7.5858814    436.58006  0.021476784  0.021301731            4 
 1695000   0.98763155   -7.6160324    435.84414  0.021427932  0.021294816            8 
 1696000   0.98553526   -7.6109148    435.24597  0.021385907   0.02128792            4 
 1697000   0.97161882   -7.5831751    437.78546  0.021498009  0.021281024            5 
 1698000   0.99509254   -7.5998297    437.24027  0.021458592  0.021274178            6 
 1699000   0.97660531   -7.5877311    436.20646  0.021395255  0.021267364            9 
 1700000   0.96657198   -7.5458483    439.54292  0.021546222  0.021260543            6 
 1701000   0.97770984   -7.5159821    439.60872  0.021536778  0.021253822            5 
 1702000   0.98358931   -7.5068382    440.29434  0.021557694  0.021247095            5 
 1703000   0.96091134   -7.5580416    438.37253  0.021450995  0.021240456           12 
 1704000   0.98657691   -7.5287744    440.92622  0.021563293  0.021233778            6 
 1705000   0.98453562   -7.5931844    438.07474  0.021411277  0.021227149            3 
 1706000   0.95940569   -7.5787676    439.27728  0.021457468  0.021220341            4 
 1707000   0.97805121   -7.5637828    439.03196  0.021432921  0.021213723            5 
 1708000   0.98421854   -7.5652942    441.24489  0.021528342  0.021207049            6 
 1709000   0.97663298   -7.6082115    438.96779   0.02140471  0.021200381            6 
 1710000   0.97133401   -7.5766252    439.53204   0.02141969  0.021193678            7 
 1711000   0.97594938   -7.5738026    440.72602  0.021465323  0.021187084            7 
 1712000   0.99193686   -7.5731178    440.35865  0.021434903   0.02118042            4 
 1713000   0.98052975   -7.6496615     438.1467  0.021314784  0.021173574            4 
 1714000   0.98831452   -7.5420387    440.23115  0.021403693  0.021166867           13 
 1715000   0.98242394   -7.5612408    440.25437  0.021392341  0.021160188            5 
 1716000   0.96656677   -7.5834249    441.14423  0.021423088  0.021153541            8 
 1717000   0.99431948   -7.6069195    440.06447  0.021358205  0.021146831            3 
 1718000   0.98668614   -7.5723182    440.80772  0.021381826  0.021140143            5 
 1719000   0.98163932   -7.5730035    442.01006  0.021427674  0.021133465            2 
 1720000   0.96216199    -7.552399    440.83001  0.021358043   0.02112695            3 
 1721000    1.0047415   -7.5976135    441.09425  0.021358428   0.02112026            3 
 1722000   0.96867811    -7.609466     440.0502  0.021295499  0.021113538            2 
 1723000   0.98270706   -7.5802921    441.36305  0.021346636  0.021106816           17 
 1724000   0.96215478   -7.6274074    440.96599  0.021315061  0.021100138            5 
 1725000   0.98419538   -7.5909318    441.38231  0.021322817  0.021093395            6 
 1726000   0.97920075   -7.5586013    441.68235  0.021324949  0.021086518            6 
 1727000   0.95914452    -7.538224    442.20839  0.021337984  0.021079776            4 
 1728000   0.96390604   -7.5679565    441.02068  0.021268359  0.021072948            6 
 1729000   0.97979511   -7.5614649    441.38619  0.021273674   0.02106619           10 
 1730000   0.94822189   -7.5239545    442.92852  0.021335671  0.021059466            7 
 1731000   0.98776971   -7.5597182    441.89683  0.021273677  0.021052618            6 
 1732000   0.97996676    -7.601424    442.60684  0.021295556  0.021045751            5 
 1733000    1.0043057   -7.5983846    441.06245  0.021209004  0.021038924            3 
 1734000   0.96962763   -7.6325132    441.67857  0.021226383  0.021032099            9 
 1735000   0.98218982   -7.5662987    442.56079  0.021256522  0.021025371            9 
 1736000    0.9662524   -7.5849126    442.06451  0.021220455  0.021018542            5 
 1737000   0.98909592   -7.6125929    441.47993  0.021180192  0.021011667            2 
 1738000   0.98034426   -7.5685064    442.20009  0.021202536   0.02100482            9 
 1739000   0.99023389   -7.5588803    443.01011   0.02122916  0.020998128            9 
 1740000   0.98319962    -7.550114    443.08335  0.021220467  0.020991414            7 
 1741000   0.93101356   -7.5893398    443.36463  0.021221742  0.020984711            2 
 1742000   0.97725588   -7.5630075    442.77133  0.021181177  0.020977893            6 
 1743000   0.98150623    -7.596516    443.61754  0.021209483  0.020971102            4 
 1744000   0.97180613   -7.5925614    444.62929  0.021245665  0.020964329            3 
 1745000   0.95590556   -7.5802035    444.75474  0.021239481  0.020957732            6 
 1746000    0.9652098   -7.6245833    442.82548  0.021135237  0.020950997            7 
 1747000   0.96309411   -7.5946226    443.52595  0.021156552  0.020944231            4 
 1748000    0.9983278   -7.6327755     443.3511  0.021136113  0.020937425           16 
 1749000   0.95622038   -7.6400154    443.16709  0.021115261  0.020930578            3 
 1750000   0.95836285    -7.620765    443.48096  0.021118141  0.020923763            4 
 1751000    0.9720972   -7.5941511    443.88626  0.021125369  0.020916906            4 
 1752000   0.96290183   -7.6348391    442.27345  0.021036599  0.020910099            9 
 1753000    0.9580222   -7.6194612     443.1958  0.021068445  0.020903301            3 
 1754000   0.98676917   -7.5985023    444.11028   0.02109988  0.020896494            5 
 1755000    0.9383682   -7.5800334    444.58003  0.021110163  0.020889623            5 
 1756000   0.97863237   -7.6064444    444.39517  0.021089368   0.02088287            3 
 1757000   0.98493312   -7.6057015    444.38286  0.021076782  0.020876114            3 
 1758000    0.9697575   -7.6134516    443.07418  0.021002758  0.020869323            2 
 1759000   0.97083022   -7.5682346    444.58623  0.021062452  0.020862541            5 
 1760000    0.9706137   -7.5508554    444.31987  0.021037873  0.020855786            4 
 1761000    0.9692931   -7.5697511    446.51241  0.021129681  0.020849162            2 
 1762000   0.97058576   -7.6176829    445.13499  0.021052544  0.020842393            8 
 1763000   0.96376728   -7.5948109    445.00432  0.021034426  0.020835611            4 
 1764000   0.96927921   -7.6199265    445.18076  0.021030837  0.020828906            5 
 1765000   0.97626927   -7.5893434    445.66633  0.021041848  0.020822228            3 
 1766000   0.97749864   -7.6005626    445.29361  0.021012345  0.020815462            3 
 1767000   0.98145475   -7.6307016    445.71402   0.02102028  0.020808677            4 
 1768000   0.97566524   -7.6503511    444.47611  0.020950043  0.020801911           11 
 1769000   0.98094574   -7.6088349    445.45843  0.020984475  0.020795187           10 
 1770000   0.96731642   -7.6239131    446.51163  0.021022205  0.020788422            9 
 1771000   0.97367308   -7.6040799    447.65613  0.021064189  0.020781688           10 
 1772000   0.96659769    -7.579883    446.20745  0.020984173  0.020775032            9 
 1773000   0.97658011   -7.6156961    446.63258  0.020992319  0.020768383            8 
 1774000   0.95331599   -7.6300298    447.01566  0.020998481  0.020761656           10 
 1775000   0.94934337   -7.6102232    447.52622  0.021010621  0.020754977            5 
 1776000   0.96889493   -7.6462963    446.11831  0.020932728  0.020748208            4 
 1777000   0.96643415   -7.6229273    447.32184  0.020977389  0.020741504            2 
 1778000   0.96247636    -7.607466    447.04327  0.020952534  0.020734868            4 
 1779000   0.97094529   -7.5745521     447.8927  0.020980546  0.020728247            5 
 1780000    0.9691012   -7.6015386    447.95274   0.02097157  0.020721632            3 
 1781000   0.96206991   -7.5844717    448.75865  0.020997504  0.020715124            4 
 1782000   0.96941907   -7.6021616    448.61164  0.020978846  0.020708555            3 
 1783000   0.95244107   -7.6296625    447.16307  0.020899377  0.020701975            3 
 1784000   0.97474501   -7.6185435    447.26603  0.020892471   0.02069539            6 
 1785000   0.97718714   -7.5662512    449.84046  0.021000955  0.020688866            3 
 1786000   0.95647597   -7.6403906    447.69497   0.02088909  0.020682212            5 
 1787000   0.97853505   -7.6281144    448.39262  0.020909934  0.020675524           15 
 1788000   0.97523308   -7.6360968    447.96488  0.020878304  0.020668879            9 
 1789000   0.97687205   -7.6267833    447.65197  0.020852058  0.020662191            9 
 1790000    0.9402651   -7.5948001    448.10009   0.02086127  0.020655433            3 
 1791000   0.95545189    -7.643335    448.25165  0.020856675  0.020648762           22 
 1792000   0.97959925   -7.6404835    448.47937  0.020855626  0.020642056            6 
 1793000   0.98256959   -7.6102906    448.83928  0.020860721  0.020635347            4 
 1794000   0.96408918   -7.6156861    450.24838  0.020914548  0.020628666            2 
 1795000    0.9832872   -7.6126073    449.19588  0.020854034  0.020622004            6 
 1796000   0.96928914   -7.6207638     449.5089  0.020856946  0.020615282            3 
 1797000   0.94096614   -7.6024396    450.56925  0.020894512  0.020608574            6 
 1798000     0.988401   -7.6201579    448.77736  0.020799841  0.020601913            4 
 1799000   0.98070837   -7.6352006    449.58607   0.02082574  0.020595108            5 
 1800000   0.96408426   -7.6183731    448.91309  0.020783014  0.020588324            6 
 1801000   0.96978184   -7.6568959     448.1985  0.020738409  0.020581511           10 
 1802000   0.95695883   -7.6362262    448.38937  0.020735727  0.020574622            5 
 1803000   0.97431437   -7.6579391    449.48366  0.020774804  0.020567795            7 
 1804000   0.95553597   -7.6586205    448.53266  0.020719358  0.020560997            6 
 1805000   0.95495185    -7.608488    450.71735  0.020808742  0.020554212            3 
 1806000   0.97833863    -7.618962    450.07214  0.020767449  0.020547407            4 
 1807000   0.95530005   -7.5962404    449.28386  0.020719602  0.020540542            3 
 1808000   0.98168434   -7.6265551    450.69563  0.020773213  0.020533784            4 
 1809000   0.94945414   -7.6459383     451.4074  0.020794518  0.020527085            5 
 1810000   0.97090022   -7.6644572    450.33621  0.020733712  0.020520206            3 
 1811000   0.94687113   -7.6509217    449.43338  0.020680719  0.020513372            9 
 1812000   0.97341284   -7.6643016    449.70448  0.020681773  0.020506518            6 
 1813000   0.98205282   -7.6581071    449.03801  0.020639732  0.020499593            3 
 1814000   0.96894177   -7.6564955     449.1706  0.020634445  0.020492587            9 
 1815000   0.95945553   -7.6971987     448.3914    0.0205873  0.020485581            6 
 1816000   0.96481078   -7.6160805    449.58152  0.020630576  0.020478654            8 
 1817000   0.98634131   -7.6296172    450.67667  0.020669449  0.020471833            5 
 1818000   0.97988514    -7.619936    450.07689  0.020630587  0.020464969            2 
 1819000   0.95632546    -7.657942    449.30159  0.020583727  0.020458044            5 
 1820000   0.96079151   -7.6263308    449.94091   0.02060169  0.020451034            3 
 1821000   0.97855419   -7.6277272    450.53322  0.020617482  0.020444034            4 
 1822000   0.93929543   -7.6392063    450.97267  0.020626266  0.020437119            6 
 1823000   0.95984025   -7.6138258    451.36437  0.020632856  0.020430213           12 
 1824000   0.93745042   -7.6216942    451.24828  0.020616241  0.020423352            5 
 1825000   0.95811757   -7.5941139    451.03677  0.020595286  0.020416533            7 
 1826000   0.96120136   -7.6259049    451.13989  0.020588714  0.020409666            8 
 1827000   0.97988503   -7.6125754    451.31858  0.020585595  0.020402815            2 
 1828000   0.95860086   -7.6501716     450.2986  0.020527835  0.020395942            3 
 1829000   0.97480034    -7.666656    452.56816  0.020620018   0.02038902            9 
 1830000    0.9486139   -7.6030943    452.09937  0.020587403   0.02038212            3 
 1831000   0.97375085   -7.5928357    453.41303  0.020635947  0.020375364            3 
 1832000   0.93901901   -7.6289911    451.58034  0.020541318  0.020368608            7 
 1833000   0.95064957   -7.6198864    452.09268  0.020553404    0.0203618           10 
 1834000   0.97971865   -7.6051611    452.09622  0.020542358  0.020354994            6 
 1835000   0.96646175   -7.6501839    451.49577  0.020503895  0.020348144            7 
 1836000   0.94466361   -7.6455798    452.34626   0.02053133   0.02034135            4 
 1837000   0.94645272   -7.6299225    453.06272  0.020552655  0.020334596            9 
 1838000   0.94475125   -7.6512439    454.37915  0.020601159  0.020327789           16 
 1839000   0.94540105   -7.6344943    452.79024  0.020517955  0.020321002            4 
 1840000   0.96518749   -7.6380832    452.32951  0.020485938  0.020314262            8 
 1841000   0.96235337   -7.6715564    453.60726  0.020532648  0.020307543            6 
 1842000   0.94964824   -7.6522625     453.4033  0.020512274  0.020300832           11 
 1843000   0.94466661    -7.628722    455.11805  0.020578678  0.020294127            4 
 1844000   0.92683477   -7.6632592    453.45575  0.020492396  0.020287418            4 
 1845000    0.9602839   -7.6522999    455.14779  0.020557714  0.020280662            7 
 1846000   0.94627778   -7.6219102     454.4492  0.020515042  0.020273929            2 
 1847000   0.95723174    -7.655753     454.3535  0.020499616  0.020267124            9 
 1848000   0.95545621    -7.611114     454.0075  0.020472921  0.020260458            6 
 1849000   0.95292171   -7.6374336    453.57973   0.02044257  0.020253791            5 
 1850000   0.96227788   -7.6123184     455.4224  0.020514523  0.020247131            5 
 1851000   0.93251334   -7.6138583    454.89539  0.020479713  0.020240441            5 
 1852000   0.95646844   -7.6668759    454.40721  0.020446689  0.020233764            7 
 1853000   0.93983014    -7.652601     454.3911   0.02043493   0.02022705           16 
 1854000   0.95507432   -7.6272786     455.3769  0.020468217   0.02022033            4 
 1855000   0.97096917   -7.6344856    455.48347  0.020461971   0.02021359            7 
 1856000   0.94829295   -7.6162963    456.04689  0.020476243  0.020206902           11 
 1857000    0.9451231   -7.6356678    456.04684  0.020465215  0.020200206            7 
 1858000   0.94088337   -7.6924233    455.41279  0.020425762  0.020193478            4 
 1859000   0.95887436   -7.7004343    454.93319  0.020393275  0.020186735           12 
 1860000   0.94860237   -7.6808422    454.48842  0.020362385  0.020179986            4 
 1861000    0.9539181   -7.6651159    456.10622  0.020423886  0.020173206            4 
 1862000   0.95871657   -7.6700544    456.24768  0.020419248  0.020166589            5 
 1863000   0.96137589   -7.6492369    456.01882  0.020398051   0.02016001            5 
 1864000   0.96685937   -7.6712415    455.92782  0.020383039  0.020153444            8 
 1865000   0.95595068    -7.698189    455.72805  0.020363184   0.02014679            8 
 1866000   0.95440698   -7.6455191    457.23687  0.020419653  0.020140139            4 
 1867000    0.9568429   -7.6642946    456.71182   0.02038528  0.020133498            7 
 1868000   0.94198603   -7.6774605    456.65917  0.020372019  0.020126821            4 
 1869000   0.96940823   -7.6715293    455.97336  0.020330541  0.020120091            7 
 1870000    0.9559315   -7.6706106     456.5409   0.02034496  0.020113396            6 
 1871000    0.9541111   -7.6545437     456.9828  0.020353768  0.020106771            7 
 1872000   0.96494295   -7.6671842    456.53908  0.020323143  0.020100105            2 
 1873000   0.93512348   -7.6632995    457.05599   0.02033529  0.020093442            3 
 1874000   0.96790939   -7.6498614    457.72585  0.020354227  0.020086738            8 
 1875000   0.97360656   -7.6758905    457.00815  0.020311474  0.020080069            4 
 1876000   0.96128513   -7.6575002    456.94176  0.020297697  0.020073413            5 
 1877000   0.96413603   -7.6563194    457.19249  0.020298015   0.02006677            4 
 1878000   0.95334549   -7.6759955    457.30589  0.020292239  0.020060026           13 
 1879000   0.95350193     -7.68275    457.66591  0.020297406  0.020053363            7 
 1880000   0.93380006   -7.6765635    457.58655  0.020283092  0.020046782            7 
 1881000   0.95494111   -7.6392265    459.11376  0.020339968  0.020040225            4 
 1882000   0.93717717   -7.6483093    457.94001  0.020277188  0.020033669            7 
 1883000   0.95774186   -7.6722329    458.34064  0.020284149  0.020027148            4 
 1884000   0.93873847    -7.649109    457.86753  0.020252456  0.020020603            4 
 1885000   0.94776404   -7.6318288    458.97658  0.020290742  0.020014141            3 
 1886000   0.94899894   -7.6580867    459.23903   0.02029158  0.020007591            3 
 1887000   0.93632297   -7.6683063    458.84698  0.020263513   0.02000103            8 
 1888000   0.95399539   -7.6506489     457.7717  0.020205318  0.019994429            5 
 1889000   0.96695617   -7.6450278     459.4289   0.02026773  0.019987864            7 
 1890000   0.95320276   -7.6452492    458.27471  0.020206116    0.0199812           14 
 1891000    0.9359723   -7.6528883    457.87282   0.02017772  0.019974585           11 
 1892000   0.96136077   -7.6508531    459.98774  0.020260207  0.019968031            5 
 1893000   0.95600561   -7.6911976     458.9782  0.020205063  0.019961477            3 
 1894000   0.93001173   -7.6380458     460.8781  0.020277988  0.019954957            7 
 1895000   0.93515703    -7.649106    459.56884  0.020209712  0.019948447            5 
 1896000   0.95985278   -7.6456105    460.72286  0.020249774  0.019941993            8 
 1897000   0.97183937   -7.7004324    458.52378  0.020142496  0.019935429            9 
 1898000   0.95424645   -7.7064287    460.31416  0.020210492  0.019928835           18 
 1899000   0.94690381   -7.7093428    459.64095  0.020170307  0.019922201           21 
 1900000   0.94392886   -7.6710033    458.87787  0.020126223  0.019915562            7 
 1901000   0.93261788   -7.7022616    459.30368  0.020134301  0.019908934            7 
 1902000   0.95543245    -7.642776    461.83392  0.020234574  0.019902343            3 
 1903000   0.94649085   -7.7104074    459.16844  0.020107219  0.019895741            5 
 1904000   0.95546923   -7.6857787    460.59659  0.020159165  0.019889085            2 
 1905000   0.93069373   -7.6507277    459.89031  0.020117686  0.019882485            3 
 1906000   0.94767828   -7.6795496    460.11696  0.020117041  0.019875849            3 
 1907000   0.94655121   -7.6891307    459.64101  0.020085693  0.019869257           10 
 1908000   0.93410767   -7.7144313     458.3988  0.020020912  0.019862545            7 
 1909000   0.94894553   -7.6858131    460.35558  0.020095843  0.019855814           14 
 1910000   0.95697147   -7.6711848    461.43621   0.02013247  0.019849207           14 
 1911000   0.93254048   -7.6494794    461.90941   0.02014257  0.019842643            7 
 1912000   0.92454212   -7.6846218    459.98984  0.020048372  0.019835968            3 
 1913000   0.93434919   -7.6690675     460.7548  0.020071215  0.019829325            8 
 1914000   0.95064915   -7.7170185    460.27243  0.020039726   0.01982264            4 
 1915000   0.96219321   -7.7309939    459.20761  0.019982925  0.019815895            5 
 1916000   0.95290833   -7.6688651    460.49039  0.020028288  0.019809136           10 
 1917000   0.93010804   -7.6673907    460.76454  0.020029757  0.019802477            5 
 1918000   0.96090732   -7.6801236    460.25034  0.019996974  0.019795816            4 
 1919000   0.93272341   -7.6904692    460.57901  0.020000826  0.019789017           12 
 1920000   0.95905471   -7.6737906    462.26448  0.020063562  0.019782251            9 
 1921000   0.94172245   -7.6722038    460.56594  0.019979435  0.019775539            9 
 1922000   0.92965633   -7.6798911    461.12554  0.019993303  0.019768913            8 
 1923000   0.96357943   -7.6854112     462.6952  0.020050928  0.019762283            2 
 1924000   0.94136229   -7.7042322    461.40394  0.019984578  0.019755627            5 
 1925000      0.93488   -7.6894283    461.33124  0.019971049   0.01974901           11 
 1926000   0.94564295   -7.6994606    462.32286  0.020003585  0.019742347            6 
 1927000   0.94836196   -7.6697886    462.06597  0.019982095  0.019735725            5 
 1928000   0.93103486   -7.6601712     462.2591  0.019980079  0.019729136            4 
 1929000    0.9483371   -7.6758439    462.37399  0.019974684  0.019722472            5 
 1930000   0.93230608   -7.6469389    463.08502  0.019995036  0.019715885            4 
 1931000   0.94232026   -7.6620869    463.72404  0.020012258  0.019709265            7 
 1932000   0.94359567   -7.6825599    462.98963  0.019970222  0.019702646           11 
 1933000   0.93306769   -7.6681984    462.06517  0.019920037  0.019695978            5 
 1934000   0.94616354   -7.6670922     462.8781  0.019944765  0.019689351            8 
 1935000   0.94218048   -7.7140959    460.41233  0.019828266  0.019682694            7 
 1936000   0.95449231   -7.7204983    462.17301  0.019893811  0.019675961           14 
 1937000   0.92594749   -7.6842814    462.82406   0.01991155  0.019669288            4 
 1938000   0.93816549   -7.7236004    462.14554  0.019872099  0.019662662           11 
 1939000   0.93580872   -7.6986582    462.64921  0.019883497  0.019656017            3 
 1940000   0.93655144     -7.67874    463.20968  0.019897323  0.019649418            5 
 1941000   0.95032852   -7.7189042    462.79933  0.019869454  0.019642812            4 
 1942000   0.94420346   -7.7527891    463.03984  0.019869543  0.019636219            5 
 1943000   0.93781462   -7.6758434    463.88139  0.019895411  0.019629564           10 
 1944000   0.95258918   -7.6974345    463.48951  0.019868377   0.01962302            6 
 1945000   0.92759915   -7.6903344    465.07507  0.019926096  0.019616477           10 
 1946000   0.94540578   -7.6910277    464.88483   0.01990771  0.019609959            3 
 1947000   0.92278531   -7.6800816    463.68908  0.019846306   0.01960343            7 
 1948000   0.94549485     -7.71994    463.92056   0.01984602  0.019596882            2 
 1949000   0.93869559   -7.6668499    466.00798  0.019925089  0.019590368            5 
 1950000   0.93649177   -7.6754771    465.10399  0.019876239  0.019583926            2 
 1951000   0.94392706   -7.6430546     465.8199   0.01989663  0.019577455            5 
 1952000   0.93215841   -7.7075522    464.55767  0.019832551  0.019570969            7 
 1953000   0.93642187    -7.680325    465.11407  0.019846137  0.019564452            3 
 1954000   0.94480644   -7.7184234    464.93755  0.019828452  0.019557939            8 
 1955000   0.94603696   -7.6713741    465.19922  0.019829464  0.019551395            4 
 1956000   0.96840958   -7.7211448      465.745  0.019842578  0.019544881            7 
 1957000   0.96366808   -7.7216113    464.25816  0.019769126  0.019538282            9 
 1958000   0.93823415    -7.694431    463.77141  0.019738313  0.019531647            6 
 1959000    0.9589935     -7.70647    464.65915  0.019766001  0.019525034            5 
 1960000   0.93524564   -7.7466736    463.60667  0.019711168   0.01951843            4 
 1961000   0.91990504   -7.6827475    465.08278  0.019763844   0.01951181            6 
 1962000   0.91183054   -7.6949261    463.08973  0.019669119  0.019505149            2 
 1963000   0.93611539   -7.7196718    464.06376  0.019700448  0.019498458            4 
 1964000    0.9371568   -7.7458465    464.28622  0.019699856  0.019491794            5 
 1965000   0.92420983     -7.71387    464.21639   0.01968687  0.019485228           11 
 1966000   0.92539807   -7.6999325    465.35063  0.019724933  0.019478565            5 
 1967000   0.93509849   -7.6941705    465.86464  0.019736682   0.01947192            5 
 1968000   0.92111542   -7.6701027    465.17453  0.019697431   0.01946535           10 
 1969000   0.94742324   -7.7210386    464.94762  0.019677824  0.019458717            7 
 1970000   0.92834962   -7.6791606    466.72847  0.019743167  0.019452151            6 
 1971000    0.9331884    -7.711137    465.56877  0.019684119  0.019445564            4 
 1972000   0.93070326   -7.7381812    464.00929  0.019608236  0.019438933            4 
 1973000   0.93147052   -7.7099512    464.93804  0.019637525  0.019432269            7 
 1974000     0.925662   -7.7147556    465.73794  0.019661345  0.019425665           10 
 1975000   0.93011365   -7.7039924    466.72082  0.019692862  0.019419066            7 
 1976000    0.9350472    -7.714434    466.86339  0.019688908  0.019412501            4 
 1977000   0.93139294   -7.7235271    466.39745  0.019659309  0.019405888            4 
 1978000   0.92236044   -7.6752914    466.69724     0.019662  0.019399295            4 
 1979000   0.92828957   -7.6817261    465.65509  0.019608181  0.019392806            6 
 1980000   0.93964749   -7.6869518    467.36789  0.019670366   0.01938623            6 
 1981000   0.93700237   -7.6961693    466.80337  0.019636689  0.019379652            7 
 1982000   0.94212347     -7.72359    467.12078  0.019640127  0.019373056            4 
 1983000   0.94175663   -7.7255459    465.61744  0.019567047  0.019366368            5 
 1984000   0.91966022   -7.7101844    466.21908  0.019582455  0.019359783            8 
 1985000   0.93191417   -7.7206522    466.57621  0.019587582  0.019353165            6 
 1986000   0.93599076   -7.7040581    468.09957   0.01964164  0.019346568            3 
 1987000   0.92757675   -7.7254611    466.72901  0.019574275  0.019339995            8 
 1988000   0.93345039   -7.7130558    466.48095  0.019554031  0.019333413            9 
 1989000     0.935158   -7.7320504    466.02833  0.019525236  0.019326823            7 
 1990000   0.92811478    -7.712198     466.0091  0.019514619  0.019320208            4 
 1991000    0.9557783   -7.7369249    466.48023  0.019524537  0.019313556            3 
 1992000   0.94024182   -7.7494899    466.40693  0.019511669  0.019306882            4 
 1993000   0.92222543   -7.7244309    467.56393  0.019550256  0.019300291            4 
 1994000   0.94308744   -7.7307503    467.80428  0.019550496  0.019293678            6 
 1995000   0.92684895    -7.733839     468.4583  0.019568016  0.019287123            5 
 1996000   0.91322762   -7.6955227    468.06823  0.019541927  0.019280551            8 
 1997000   0.93184866   -7.7426016    467.24817  0.019497921  0.019274061           13 
 1998000   0.92770043   -7.7056429    467.98518  0.019518902  0.019267513            7 
 1999000   0.93315698   -7.7005707    469.20729  0.019560084  0.019261053            6 
 2000000   0.95288419   -7.7170425    468.31998  0.019513333  0.019254595            5 
 2001000    0.9239917    -7.714512    469.21673  0.019540927  0.019248137            7 
 2002000   0.92757888   -7.6953413    468.73876  0.019511271  0.019241667            4 
 2003000   0.95884854   -7.6984417    470.13361  0.019559561  0.019235174            5 
 2004000   0.91398085   -7.7203692    468.76016  0.019492688    0.0192287            4 
 2005000   0.92848952   -7.7188268    469.76254  0.019524628  0.019222319           16 
 2006000   0.92793164   -7.7461387    468.46294  0.019460906   0.01921587            3 
 2007000   0.92055239   -7.7497538    469.63842  0.019500017  0.019209396            6 
 2008000    0.9419952   -7.7170849     469.0601  0.019466306  0.019202892            4 
 2009000   0.94259214   -7.7752162    468.02852  0.019413826  0.019196385            5 
 2010000   0.91911788   -7.7453899    468.75513  0.019434292  0.019189855            8 
 2011000   0.92228698   -7.6821936    469.03809  0.019436354  0.019183344           11 
 2012000   0.92065723   -7.7560255    470.75726  0.019497898  0.019176903            8 
 2013000   0.91237122   -7.7162536    471.39739  0.019514712  0.019170438            8 
 2014000   0.91091166    -7.727677    470.77936  0.019479451  0.019164054            3 
 2015000   0.92043873   -7.7350906    471.42057  0.019496302  0.019157613            7 
 2016000   0.93508409   -7.6848877    471.43794  0.019487349  0.019151235            2 
 2017000   0.92504096    -7.700953    471.49839  0.019480185  0.019144845            5 
 2018000   0.92745783   -7.6922827    472.03877  0.019492847  0.019138522            5 
 2019000   0.96388476   -7.7095172    472.44035  0.019499767  0.019132167           10 
 2020000   0.91154772    -7.705454    471.26456  0.019441607  0.019125804            5 
 2021000   0.96449869   -7.7302608    471.04176  0.019422801  0.019119452            6 
 2022000    0.9301743   -7.7103959    471.62784  0.019437349  0.019113077            5 
 2023000   0.91967425   -7.7373216    470.37801  0.019376257  0.019106703            7 
 2024000   0.92891256   -7.7374935     470.2081  0.019359688   0.01910026            3 
 2025000   0.92368226   -7.7034852    471.27194  0.019393907  0.019093876            3 
 2026000   0.93933189   -7.7356834    471.69381  0.019401687  0.019087499            5 
 2027000   0.90647633   -7.7464923    471.97488   0.01940367  0.019081091            3 
 2028000   0.93325129   -7.7186813    470.85804   0.01934821  0.019074625           14 
 2029000   0.92788728   -7.7325037     472.6518  0.019412346  0.019068085           11 
 2030000    0.9386007   -7.7345086    470.53489  0.019315882  0.019061631            6 
 2031000   0.93515925   -7.7527969    471.85563  0.019360563  0.019055184           12 
 2032000   0.94239968    -7.760649    470.24267  0.019284886  0.019048698            7 
 2033000   0.93840681   -7.7535513    470.90795   0.01930267  0.019042198            7 
 2034000   0.94166164   -7.7626465    470.79671  0.019288623  0.019035676            8 
 2035000   0.93682115   -7.7367187     471.6461  0.019313927  0.019029162            3 
 2036000   0.92960485   -7.6917538    471.97229  0.019317792  0.019022738            4 
 2037000   0.91441396   -7.7039104    471.58107  0.019292303  0.019016336            4 
 2038000   0.91685932   -7.7185427    472.32335  0.019313189  0.019009858            7 
 2039000   0.91514961   -7.7484748     472.1824  0.019297957  0.019003402            5 
 2040000   0.95218871   -7.7694765    471.65839  0.019267091  0.018996931            9 
 2041000   0.92472753   -7.7381329    472.52432  0.019293007  0.018990488            3 
 2042000    0.9037561    -7.743093    472.70367  0.019290878   0.01898406            8 
 2043000   0.94917372   -7.7311517    472.96377  0.019292045  0.018977647            6 
 2044000   0.91088072   -7.7538744    474.00473  0.019325046  0.018971198            4 
 2045000   0.93949614   -7.7382988    472.57641  0.019257392  0.018964806            7 
 2046000   0.89783786   -7.7336871    471.63978  0.019209832  0.018958368            8 
 2047000   0.91325763   -7.7800603    471.80213  0.019207056   0.01895186            5 
 2048000   0.92774243   -7.7348241      471.988  0.019205241  0.018945363           16 
 2049000   0.93409644   -7.7718864    471.01825  0.019156428  0.018938806            7 
 2050000   0.92547123   -7.7500512    472.23437  0.019196519  0.018932308            4 
 2051000   0.94599979   -7.7272122    472.53431  0.019199346  0.018925817            4 
 2052000   0.92565813   -7.7331387    473.23425  0.019218415  0.018919308           16 
 2053000   0.91406297   -7.7385438    472.49031  0.019178857  0.018912797           10 
 2054000   0.93921393   -7.7779814    472.45315  0.019168011  0.018906231           12 
 2055000   0.88848102   -7.7530361    472.00668  0.019140579  0.018899619            5 
 2056000    0.9320356   -7.7752524    471.47746  0.019109819  0.018892997            9 
 2057000   0.92623308   -7.8168722    470.71584  0.019069674  0.018886359            9 
 2058000   0.93251588   -7.7815603    471.13226   0.01907727   0.01887972            4 
 2059000   0.94332908    -7.798791    471.96785  0.019101823  0.018873059            7 
 2060000   0.91209733   -7.7643733    471.72732   0.01908282  0.018866416            8 
 2061000   0.90745945   -7.7847614    471.59598  0.019068251  0.018859789            8 
 2062000   0.91880871   -7.7330172    472.89481  0.019111494  0.018853168           14 
 2063000   0.96181188   -7.7645163    470.56993  0.019008318  0.018846562            5 
 2064000   0.92962649   -7.7407269     472.4538   0.01907517  0.018839929            9 
 2065000   0.91501168   -7.7609469     472.3631  0.019062272  0.018833324            7 
 2066000   0.93274807   -7.7318726     472.9739  0.019077682  0.018826711            6 
 2067000   0.92170437   -7.7507319    471.33622  0.019002428  0.018820109            5 
 2068000   0.91621045   -7.7376283    473.76237  0.019091004  0.018813501           11 
 2069000   0.91753651   -7.7591226    473.55687    0.0190735  0.018806887            3 
 2070000   0.91846586   -7.7529952    472.16831  0.019008386  0.018800301           10 
 2071000   0.93176455   -7.7371519    472.90695  0.019028929  0.018793698            5 
 2072000   0.91804315   -7.7518769    471.75122  0.018973263  0.018787082            4 
 2073000   0.90975693   -7.7657322    470.99713  0.018933797  0.018780451            5 
 2074000   0.93035768   -7.7533342    472.07369  0.018967924  0.018773891            8 
 2075000   0.90777917   -7.7520347    472.69462   0.01898372  0.018767307            6 
 2076000   0.92654325   -7.7367346    474.36169  0.019041494  0.018760743            4 
 2077000   0.92730722   -7.7433156    473.28824  0.018989257  0.018754221            4 
 2078000   0.93343569   -7.7433465    473.36246  0.018983095  0.018747692            9 
 2079000   0.91467708   -7.7436367    475.32614  0.019052675  0.018741202            7 
 2080000   0.92542635   -7.7483642    474.45609  0.019008657  0.018734726            9 
 2081000    0.9372445   -7.7479526    473.59664  0.018965106  0.018728224            5 
 2082000   0.92253959     -7.71488    474.20414  0.018980313  0.018721718            9 
 2083000   0.92145024   -7.7207054    474.03484  0.018964428    0.0187152            6 
 2084000   0.94164961   -7.7575875    473.90422  0.018950105  0.018708645           11 
 2085000   0.92925411   -7.7633639    474.48083  0.018964062  0.018702098           13 
 2086000   0.91301466   -7.7889968      474.123  0.018940676  0.018695593           19 
 2087000   0.92643872   -7.7819355    475.12977    0.0189718  0.018689049           12 
 2088000   0.91593807   -7.7433022    474.62162  0.018942434  0.018682484            6 
 2089000   0.88825817   -7.7928418    473.82646  0.018901646  0.018675962            6 
 2090000    0.9193065   -7.7665174    475.33573   0.01895278  0.018669404            5 
 2091000   0.91812457   -7.7557041    474.11281  0.018894979  0.018662784            5 
 2092000   0.93127645   -7.7830072    474.26782  0.018892122  0.018656266            7 
 2093000   0.93229956   -7.7499037    474.31679  0.018885045  0.018649704           15 
 2094000    0.9133554   -7.7888809    474.46394  0.018881882  0.018643181            5 
 2095000   0.92250438   -7.7541584    475.03883  0.018895737  0.018636701            6 
 2096000   0.92070721   -7.7658017    475.42482  0.018902068   0.01863019            3 
 2097000    0.9185268   -7.7706242    475.47329  0.018894981  0.018623735            7 
 2098000   0.90128004   -7.7941434    474.56972  0.018850084  0.018617242            3 
 2099000   0.91034345   -7.7808038    474.91344   0.01885475   0.01861078           18 
 2100000   0.90810289   -7.7657755    475.74718  0.018878856  0.018604326            8 
 2101000   0.92702309   -7.7791321    475.23288  0.018849472  0.018597864           15 
 2102000     0.927009   -7.7794423    475.84205  0.018864655  0.018591364           10 
 2103000   0.91507236   -7.7890892    475.70463  0.018850239  0.018584799            6 
 2104000   0.91271447   -7.8345406    474.20091  0.018781722  0.018578258           16 
 2105000   0.91108032   -7.7788312    476.08016  0.018847196  0.018571733           34 
 2106000    0.9185913   -7.8158768    474.72596  0.018784661  0.018565176           28 
 2107000   0.92504585   -7.8399896    475.48467  0.018805753  0.018558625           25 
 2108000   0.90030552   -7.7746855    476.81247  0.018849323   0.01855211           36 
 2109000   0.90814731   -7.7847951    475.78193  0.018799665  0.018545586           24 
 2110000   0.90945554   -7.7924768    475.50375  0.018779769  0.018539025           20 
 2111000   0.91370936   -7.8061228    474.85344  0.018745201  0.018532453           11 
 2112000   0.92827566   -7.7748241    476.69043  0.018808808  0.018525899            6 
 2113000   0.88974565   -7.7700605    476.64779  0.018798225  0.018519391           12 
 2114000   0.89647455   -7.7636646    475.70821  0.018752295  0.018512886           23 
 2115000   0.91039447   -7.7710595    476.38715  0.018770179  0.018506417            2 
 2116000   0.92436786   -7.7841182    477.93521  0.018822275  0.018499979            5 
 2117000   0.90128271   -7.7849301    476.66268  0.018763292  0.018493582            5 
 2118000   0.90832701   -7.7823976    477.42804  0.018784547  0.018487127            7 
 2119000   0.93756485   -7.7533888    478.25772  0.018808311  0.018480684            4 
 2120000   0.90914342    -7.774072    477.05138  0.018752019   0.01847433            5 
 2121000   0.92886196   -7.7808537    476.73832  0.018730879  0.018467976            6 
 2122000   0.89890656   -7.7915469    478.19691  0.018779332  0.018461547            5 
 2123000    0.9089436   -7.7636265    478.63934  0.018787853  0.018455151           14 
 2124000   0.92506789   -7.7689972    478.07382   0.01875682  0.018448782           10 
 2125000   0.90687689   -7.8059172    477.46506   0.01872412  0.018442321            7 
 2126000   0.90995407   -7.8022454    477.35184  0.018710875  0.018435832            6 
 2127000   0.92883661   -7.7791499    477.84726  0.018721488  0.018429348            9 
 2128000   0.91153614   -7.7800068    477.81207  0.018711312  0.018422878            4 
 2129000    0.9123927   -7.7920203    478.07172  0.018712687  0.018416429            6 
 2130000   0.89975635   -7.7996982    477.70318  0.018689483  0.018409948           14 
 2131000   0.90642403    -7.773947    478.51204  0.018712343  0.018403489            6 
 2132000   0.91390228   -7.7679302    478.93892  0.018720252  0.018397035           10 
 2133000   0.89585227   -7.8009568     478.3828  0.018689749  0.018390608            5 
 2134000   0.91318278   -7.8002326     478.4942   0.01868534  0.018384143           13 
 2135000   0.89796772   -7.8007904    477.14708  0.018624008  0.018377679            4 
 2136000   0.89852857   -7.7820073    478.97148  0.018686466  0.018371271           10 
 2137000     0.906426   -7.7948503    478.27288  0.018650479  0.018364927            9 
 2138000    0.9049677   -7.8387211     475.8907  0.018548905  0.018358473            7 
 2139000   0.92224985   -7.8328192    477.29593  0.018594979  0.018351968           10 
 2140000    0.9306536   -7.8171141    476.72033  0.018563876   0.01834541            6 
 2141000   0.89027063   -7.7732316    477.07402  0.018568972  0.018338898            8 
 2142000   0.88269449    -7.801175    479.05961  0.018637551  0.018332362           11 
 2143000   0.88392745   -7.8081464    478.08729  0.018591044  0.018325888            5 
 2144000   0.91357235   -7.7951247    479.04691  0.018619671  0.018319439            6 
 2145000    0.9237217   -7.7821433    478.14447  0.018575931  0.018312998            4 
 2146000   0.90382407   -7.8026415    479.23726   0.01860971  0.018306543            7 
 2147000    0.9078688   -7.7756945    478.55229  0.018574456  0.018300114            6 
 2148000    0.9048069   -7.8041776    478.05263  0.018546424  0.018293683            4 
 2149000   0.92548368   -7.8118781    478.32189  0.018548235  0.018287249            5 
 2150000   0.87137025   -7.7909049    479.84161  0.018598512  0.018280786            9 
 2151000   0.90549243   -7.7965862    477.68442  0.018506292  0.018274254            8 
 2152000     0.902943   -7.8053066    478.00947   0.01851028  0.018267725            7 
 2153000    0.9073798   -7.7638063    478.83875   0.01853378  0.018261257            6 
 2154000   0.90596152   -7.7894204     479.3751  0.018545926  0.018254759            3 
 2155000   0.89575814   -7.7952182     479.4045  0.018538457  0.018248267           11 
 2156000   0.88737753   -7.8001012    478.91357  0.018510883  0.018241782            5 
 2157000   0.89708909    -7.797785    479.29449  0.018517018  0.018235297            4 
 2158000   0.89511874   -7.8075382    478.44894  0.018475785  0.018228834            3 
 2159000   0.88931341   -7.7993317    478.66853  0.018475704  0.018222311            7 
 2160000   0.90437261   -7.7842086    478.58621  0.018463974  0.018215838            2 
 2161000   0.90069302   -7.8213219     478.3932  0.018447987  0.018209376            7 
 2162000   0.89933462   -7.8409433    478.84947  0.018457041  0.018202846            9 
 2163000   0.90316068    -7.796626    479.43329     0.018471  0.018196309            5 
 2164000   0.88890273   -7.8266295    479.27711  0.018456451  0.018189765            8 
 2165000   0.89485882   -7.8138191    478.67644  0.018424805  0.018183214            7 
 2166000   0.91066967   -7.8154884    478.87489  0.018423934   0.01817668            7 
 2167000   0.91924767    -7.817915    480.71943  0.018486365   0.01817017            6 
 2168000    0.9298402   -7.8375584    479.31767  0.018423957  0.018163661            5 
 2169000   0.89781658   -7.7849112    479.69023  0.018429777  0.018157164            3 
 2170000    0.9041256   -7.7902476    480.51678  0.018453025  0.018150712           12 
 2171000   0.89548066   -7.8491589    479.34866  0.018399688  0.018144245            7 
 2172000   0.87901606   -7.8364517     479.1767  0.018384619  0.018137772           15 
 2173000   0.91036487   -7.7941311    480.25364  0.018417458  0.018131331            8 
 2174000    0.9185584    -7.799896    479.32946  0.018373561  0.018124872            6 
 2175000   0.91056469   -7.8027281    480.87677  0.018424397  0.018118389           15 
 2176000   0.89887476   -7.7949126    479.37915  0.018358576  0.018111891            5 
 2177000   0.89570989   -7.7908407    479.79055  0.018365892   0.01810536            5 
 2178000   0.91350318   -7.8004461    480.58986  0.018388042  0.018098872           12 
 2179000   0.89766933   -7.8332786    480.07402  0.018359875  0.018092409            8 
 2180000   0.91384402   -7.7937663    481.04795  0.018388683  0.018085938            6 
 2181000   0.90511899   -7.7708937    480.68146  0.018366249  0.018079475            5 
 2182000   0.90825102   -7.8167172    479.36327  0.018307488  0.018073006            8 
 2183000     0.904045    -7.806298    481.61456  0.018385042  0.018066558            9 
 2184000   0.87312922   -7.8123297    479.48674  0.018295434  0.018060111            4 
 2185000   0.90077449   -7.8098586    479.72545  0.018296165  0.018053682            6 
 2186000   0.89216501   -7.7893545    480.71933  0.018325683  0.018047233            6 
 2187000   0.91348116   -7.7902563    480.81588  0.018320983   0.01804077            8 
 2188000   0.89649908   -7.8258725    480.61577  0.018304988  0.018034298            3 
 2189000   0.89721802   -7.8174764     480.4874  0.018291739  0.018027771            3 
 2190000   0.90410412   -7.8095646    480.76297  0.018293873  0.018021251           12 
 2191000   0.90034909    -7.804088    479.80356  0.018249032  0.018014734            6 
 2192000   0.90541197   -7.8143795    480.03461  0.018249491  0.018008221            4 
 2193000    0.9291681   -7.8346937    480.14382  0.018245319  0.018001756           13 
 2194000   0.90959802   -7.8233787    480.17468  0.018238175  0.017995243            7 
 2195000   0.90923552   -7.7626504    482.89687  0.018333214  0.017988777            8 
 2196000   0.89591096    -7.835066     480.9971  0.018252774  0.017982294           11 
 2197000   0.92037006   -7.7993353    479.85544  0.018201162  0.017975836            4 
 2198000   0.89947184   -7.7912176    482.08101   0.01827726   0.01796937            8 
 2199000   0.90223407   -7.8254249    480.76998  0.018219265  0.017962924            9 
 2200000   0.87823135   -7.8412198    481.01311  0.018220194  0.017956437            7 
 2201000   0.89933983   -7.8340685    480.59101  0.018195934  0.017949968            9 
 2202000   0.88420296   -7.8095343    480.63951  0.018189506   0.01794344            6 
 2203000   0.89208472   -7.8703023    480.14107  0.018162395  0.017936905            9 
 2204000   0.89587106   -7.8546196    480.01094  0.018149234  0.017930348           24 
 2205000   0.90274244   -7.8391827    480.34408  0.018153593  0.017923812           19 
 2206000   0.90377234   -7.8355192    480.53337  0.018152515  0.017917263           20 
 2207000    0.8901597   -7.8001112    480.68069  0.018149852  0.017910758            7 
 2208000   0.90323268   -7.8134154    480.63009  0.018139723   0.01790425            6 
 2209000   0.89267855   -7.8296306    481.18188  0.018152327  0.017897711           20 
 2210000   0.90432157   -7.8145553     480.8262  0.018130701   0.01789119            8 
 2211000   0.89220176   -7.8398554    481.04082   0.01813059  0.017884682           13 
 2212000   0.91262779   -7.8922344    480.60507  0.018105978  0.017878146           25 
 2213000   0.90164766   -7.8704546    479.80771   0.01806777  0.017871601           14 
 2214000   0.87493523   -7.8493908    481.76656  0.018133339  0.017865038           37 
 2215000   0.88255087   -7.8882671    480.22748  0.018067249  0.017858496           18 
 2216000   0.89320095    -7.866686    481.17448  0.018094708  0.017851916           24 
 2217000   0.89229239   -7.8441802    481.16631  0.018086239  0.017845379           43 
 2218000   0.89902219   -7.8752625    479.97139   0.01803319    0.0178388           52 
 2219000   0.89092362    -7.851233    481.17143   0.01807013  0.017832225           35 
 2220000   0.87477521   -7.8641896    481.61348  0.018078584  0.017825684           41 
 2221000   0.88513289   -7.8269355      481.219  0.018055643  0.017819145           16 
 2222000   0.89511838   -7.8239594    482.67543  0.018102139  0.017812656           15 
 2223000   0.90760612   -7.8127343    483.05664  0.018108286  0.017806185           26 
 2224000   0.90181036   -7.7965577    482.65687  0.018085165  0.017799731           33 
 2225000   0.90151282   -7.8419961    481.39749  0.018029869  0.017793252           36 
 2226000   0.90526832   -7.8306568    481.30582  0.018018337  0.017786749           32 
 2227000   0.88764882   -7.8210843    481.96057  0.018034747   0.01778028            9 
 2228000   0.90170424   -7.8102608    480.90388  0.017987129  0.017773781            6 
 2229000   0.88976927   -7.8030551    482.09089  0.018023437  0.017767277            8 
 2230000   0.89442679   -7.8145992    482.76942  0.018040711  0.017760825            4 
 2231000   0.89849324   -7.8088563    482.83849  0.018035204   0.01775434            7 
 2232000   0.88449499   -7.8454079    482.82185  0.018026503  0.017747847            7 
 2233000   0.87901864   -7.7908313    482.20615  0.017995453  0.017741347            9 
 2234000   0.90010713   -7.8211994    482.74847  0.018007627  0.017734899            8 
 2235000   0.88042284   -7.8586643    482.69552  0.017997596  0.017728467            7 
 2236000    0.9068236   -7.8385733    483.42431  0.018016708  0.017721977            6 
 2237000    0.9198134   -7.7921984    482.36584  0.017969224  0.017715521           10 
 2238000    0.9059221   -7.8806422    482.15885  0.017953487   0.01770906            8 
 2239000   0.89439666   -7.8302047    482.95656  0.017975159  0.017702574           10 
 2240000   0.89265074   -7.8457655    482.56951  0.017952735  0.017696151            6 
 2241000    0.8862158   -7.8162941    483.47322  0.017978329  0.017689709            7 
 2242000    0.9051873   -7.8463795    483.23224  0.017961353  0.017683244            8 
 2243000   0.89778167   -7.8301393    482.74754  0.017935337  0.017676808            6 
 2244000   0.89446603   -7.8528465     484.2021  0.017981361  0.017670378           14 
 2245000   0.90412791    -7.848175    482.89992  0.017925016  0.017663941            8 
 2246000   0.90015108   -7.8670051    482.71995  0.017910357  0.017657511           14 
 2247000   0.89842879   -7.8735682    482.01316  0.017876174  0.017651028           13 
 2248000   0.90198765   -7.8440901    483.82605  0.017935426  0.017644541            9 
 2249000   0.90037181   -7.8294676    484.02777  0.017934926  0.017638078            5 
 2250000   0.88064406   -7.7994882    483.75748  0.017916944  0.017631699           11 
 2251000    0.8934344   -7.8303884    484.53693   0.01793784  0.017625284           13 
 2252000   0.89215562   -7.8342698    483.44985  0.017889648  0.017618863           10 
 2253000   0.88643399   -7.8215212    484.93901  0.017936788  0.017612444           17 
 2254000   0.90791287   -7.8098949    482.88851  0.017853021  0.017605999            7 
 2255000   0.89522027   -7.8564637    484.22833  0.017894617  0.017599534           16 
 2256000   0.90215759   -7.8528104    484.63366  0.017901657  0.017593138            5 
 2257000    0.9021023   -7.8377308    484.44957  0.017886929  0.017586754           11 
 2258000   0.90107993   -7.8601529    484.52404  0.017881755   0.01758038            9 
 2259000   0.88701418    -7.854175    484.22754  0.017862902  0.017573948            6 
 2260000   0.90652573   -7.8846981     483.7565  0.017837629  0.017567485            4 
 2261000   0.89772802   -7.8475578    483.29085  0.017812578  0.017561027            6 
 2262000   0.87564972   -7.8782769    483.08546  0.017797136  0.017554575            5 
 2263000   0.88869659   -7.8836606    482.17822  0.017755863  0.017548119            7 
 2264000   0.87770018   -7.8463588    483.96871  0.017813925  0.017541647            9 
 2265000   0.87866679   -7.8469755    483.98925  0.017806816  0.017535193            4 
 2266000   0.87517551   -7.8365146    485.12087  0.017840573  0.017528798            8 
 2267000   0.87892616   -7.8423908    484.53372   0.01781112  0.017522361           11 
 2268000   0.89008222   -7.8314857    484.97168  0.017819359  0.017515936            5 
 2269000   0.88758078   -7.8647179    483.30697  0.017750366  0.017509464            3 
 2270000   0.89279183   -7.8600255    483.12945   0.01773603  0.017503014            5 
 2271000   0.87610005    -7.871117    483.84581  0.017754507  0.017496536            9 
 2272000   0.90210437   -7.8614553    483.17904  0.017722236  0.017490075            9 
 2273000   0.86114835    -7.858048    484.30032  0.017755548  0.017483578            9 
 2274000   0.86220064   -7.8688103     484.1952  0.017743887  0.017477104            7 
 2275000   0.89826839   -7.8730608    485.04576  0.017767244  0.017470682            7 
 2276000   0.90157782   -7.8721711    484.28334  0.017731522  0.017464248            8 
 2277000   0.89947792   -7.8761962    484.68674  0.017738499  0.017457863            7 
 2278000   0.90590834   -7.8586223    485.02439  0.017743064  0.017451442            9 
 2279000   0.88674098   -7.8639405    484.18076   0.01770443  0.017445051            7 
 2280000   0.88182609   -7.8606729    484.32499  0.017701937  0.017438615            8 
 2281000   0.87561982   -7.8528903    485.64273  0.017742318  0.017432197            8 
 2282000   0.87947509   -7.8838963    485.07879  0.017713949  0.017425797            8 
 2283000   0.87396209   -7.8673832    484.71324  0.017692847  0.017419375            7 
 2284000   0.90573485   -7.8890363    484.42008  0.017674404  0.017412957            9 
 2285000   0.89147686    -7.855663    485.15645  0.017693525  0.017406552           11 
 2286000   0.88134892   -7.8851699    485.80331  0.017709365  0.017400141            5 
 2287000   0.89649064   -7.8867156    484.55832  0.017656257  0.017393735            8 
 2288000   0.88099485   -7.8839599     484.6867  0.017653216  0.017387316            9 
 2289000   0.88667977    -7.895308    484.31068  0.017631814  0.017380874            4 
 2290000   0.89416619     -7.87968    484.59766  0.017634558  0.017374409            9 
 2291000   0.87683445   -7.9155367    483.46281  0.017585582  0.017367971           11 
 2292000   0.87650922   -7.8749631    484.27666  0.017607499  0.017361484           11 
 2293000    0.8900543   -7.8930683    485.31593   0.01763759  0.017355031           10 
 2294000   0.87086929   -7.8588763    485.77801  0.017646687  0.017348602            6 
 2295000   0.88264488   -7.9194745    485.30486  0.017621818  0.017342155            7 
 2296000   0.88908558   -7.9153821     484.8614  0.017598047  0.017335746           13 
 2297000   0.86577006   -7.8931934    486.84486  0.017662344   0.01732938           19 
 2298000   0.89559601   -7.8703019    486.75931  0.017651556   0.01732299           23 
 2299000   0.88247765   -7.8925105    485.35258  0.017592888  0.017316608           34 
 2300000    0.8781948   -7.8981987    485.73827  0.017599213  0.017310232           10 
 2301000   0.88953455   -7.8859013    484.93687   0.01756254  0.017303871            9 
 2302000   0.86940738   -7.8935087    485.48082  0.017574602  0.017297479           26 
 2303000    0.9018491   -7.8682282    485.77972  0.017577787   0.01729107           13 
 2304000   0.88846252   -7.8756295    485.89713  0.017574404  0.017284704           17 
 2305000   0.87631544   -7.8577219    487.24506  0.017615512  0.017278296           13 
 2306000   0.88565834   -7.8435237    486.56212  0.017583193  0.017271951            6 
 2307000   0.89123506   -7.8732285    486.55956  0.017575479  0.017265617            9 
 2308000   0.88622386   -7.9151738    485.31145  0.017522799  0.017259232           14 
 2309000   0.87325735   -7.8878675     485.6598  0.017527783  0.017252849            9 
 2310000   0.88767559   -7.8923587    484.90961  0.017493132  0.017246468           11 
 2311000   0.87018331   -7.8772016    486.03498  0.017526142  0.017240055           11 
 2312000   0.87561832   -7.8750481    486.36915  0.017530606  0.017233679            9 
 2313000   0.87172202   -7.8755029    485.30309  0.017484619   0.01722727            9 
 2314000   0.89592075   -7.8301444    488.47993   0.01759147   0.01722089            6 
 2315000   0.86762386   -7.8856123    485.85421  0.017489352  0.017214513            7 
 2316000   0.87847245   -7.9003967     485.9715  0.017486021  0.017208155            5 
 2317000   0.86950255   -7.8787155    486.36414  0.017492596  0.017201734            9 
 2318000   0.88563637   -7.8632972    486.92529  0.017505223  0.017195373            9 
 2319000    0.8711332   -7.8952494    485.53945  0.017447874  0.017188989           10 
 2320000   0.88771062   -7.8787375    486.61884  0.017479125  0.017182613           15 
 2321000   0.91097478   -7.8470888    487.36831  0.017498503  0.017176245           14 
 2322000   0.89532232   -7.8976421    485.76908  0.017433573    0.0171699            6 
 2323000   0.87437469   -7.9140291    486.03544  0.017435624  0.017163524           11 
 2324000   0.86567378   -7.8617865    487.33841  0.017474842  0.017157161            6 
 2325000   0.88138056   -7.8677478    487.38587  0.017469028  0.017150885           11 
 2326000   0.88698449   -7.8761184    486.78721  0.017440069  0.017144601            9 
 2327000   0.87756557   -7.8760694    486.61486  0.017426402  0.017138267            3 
 2328000   0.88225319   -7.8927666    487.02197   0.01743349  0.017131931           17 
 2329000   0.86510428   -7.9021533      486.165  0.017395341  0.017125539           23 
 2330000    0.8822276   -7.8693229     488.0017  0.017453566  0.017119152           12 
 2331000   0.87106708   -7.8421182    488.22857  0.017454189  0.017112825            6 
 2332000   0.87046852   -7.9005003    486.41984   0.01738207  0.017106506            7 
 2333000   0.88159568   -7.8624257    488.39184  0.017445058  0.017100202            8 
 2334000   0.87864629   -7.8844645    487.07787  0.017390669  0.017093847            8 
 2335000   0.87276798   -7.8710689    488.05846  0.017418218  0.017087529           15 
 2336000   0.87637414   -7.8726226    487.69272  0.017397714  0.017081184           13 
 2337000   0.87778332   -7.8630722    488.02717  0.017402196  0.017074845            5 
 2338000    0.8988592   -7.8849103    486.88541  0.017354057  0.017068511           11 
 2339000   0.87351723   -7.8759178    488.53971  0.017405576  0.017062191            5 
 2340000   0.88168669    -7.894046    487.06367  0.017345572  0.017055819           10 
 2341000   0.87314655   -7.9242436    487.40423  0.017350286   0.01704944            9 
 2342000   0.88599709   -7.8641245    488.75152  0.017390817  0.017043117            7 
 2343000   0.90476657   -7.8799783    487.21758  0.017328837  0.017036829            4 
 2344000   0.89351671   -7.9111789    488.98615   0.01738432  0.017030531            2 
 2345000   0.88591411   -7.9187039     487.8546  0.017336695   0.01702421           12 
 2346000   0.85585154   -7.8973566    488.51828   0.01735288  0.017017861           24 
 2347000   0.88208299   -7.9035119    487.13066  0.017296217  0.017011499            4 
 2348000   0.86688564   -7.8974709    487.70111  0.017309097  0.017005154           11 
 2349000    0.8680238   -7.8970253    487.27077  0.017286461  0.016998836            6 
 2350000   0.85747163   -7.8739832    488.10767  0.017308783  0.016992517            8 
 2351000   0.89387575   -7.9230649    486.71968  0.017252222  0.016986179           19 
 2352000   0.87083769   -7.8990236    489.28059  0.017335622   0.01697985            5 
 2353000   0.85878853    -7.936061     487.0789   0.01725028  0.016973497            5 
 2354000   0.87264202   -7.9476416    486.87651  0.017235787  0.016967143            7 
 2355000   0.87749749   -7.9033511    487.33752  0.017244781  0.016960744            5 
 2356000   0.86848457    -7.854066    488.26223  0.017270169  0.016954425           13 
 2357000   0.87735766   -7.8666788    488.77872  0.017281103  0.016948095           11 
 2358000   0.86895298   -7.8770174    487.62506  0.017233003  0.016941814            5 
 2359000   0.88220159   -7.8575301    488.48972  0.017256243  0.016935551            5 
 2360000    0.8581049   -7.8682644    489.11112  0.017270873  0.016929238            6 
 2361000   0.86667947   -7.8859037    487.77817   0.01721651  0.016922939           14 
 2362000   0.89530234   -7.8548593     489.9229  0.017284889   0.01691662            6 
 2363000   0.87359873   -7.9086452    486.22611  0.017147204  0.016910314            6 
 2364000   0.86989415   -7.8732644    489.36471  0.017250589  0.016904027           10 
 2365000   0.89660689   -7.9209883    488.69417  0.017219668  0.016897704            5 
 2366000   0.89838616   -7.8929196    487.13061  0.017157319  0.016891364            5 
 2367000   0.88396789   -7.9055432    486.68676  0.017134444  0.016885021           12 
 2368000   0.84761968   -7.9096839    487.77157  0.017165385   0.01687864           24 
 2369000   0.88491492   -7.9233965    488.60988  0.017187628  0.016872276           15 
 2370000   0.87578897   -7.9491429    487.57443  0.017143967  0.016865903            5 
 2371000   0.87883754   -7.9058603    488.25194  0.017160549  0.016859532           13 
 2372000   0.87829367   -7.8972203    489.46855  0.017196056  0.016853172           20 
 2373000   0.87444395   -7.8783151    488.36016  0.017149886  0.016846835            6 
 2374000   0.87351586   -7.9093983    488.29729  0.017140455  0.016840512            9 
 2375000   0.87738206   -7.9038879    488.08586   0.01712582  0.016834154           17 
 2376000   0.87633716   -7.9081206    488.22476  0.017123484  0.016827751           17 
 2377000   0.87003038   -7.9375752    487.00801  0.017073622  0.016821344           12 
 2378000   0.88935118   -7.9445848    486.98592  0.017065669  0.016814929           37 
 2379000   0.87802033   -7.9397985    488.39374  0.017107809    0.0168085           26 
 2380000   0.86393567   -7.9524195    486.73738  0.017042626  0.016802078           39 
 2381000   0.88124067   -7.9364894      488.091  0.017082843  0.016795646           27 
 2382000   0.88433147    -7.957019    488.43367   0.01708766  0.016789239           46 
 2383000   0.87241335   -7.9579051    487.85981  0.017060421   0.01678285           47 
 2384000   0.86896273   -7.9484095    488.00535  0.017058352  0.016776486           28 
 2385000   0.85202722   -7.9498874    489.89709  0.017117299  0.016770144           38 
 2386000   0.85962125   -7.9299125    487.95189  0.017042187  0.016763825           40 
 2387000   0.87366524   -7.9196752    488.61446  0.017058178  0.016757513           50 
 2388000   0.87265499    -7.958835    488.19395  0.017036361   0.01675121           40 
 2389000   0.90169674   -7.9286878    489.79609  0.017085115  0.016744896           27 
 2390000   0.88257612   -7.9339116    488.77071  0.017042214  0.016738562           25 
 2391000   0.87032448   -7.9368155    488.46226  0.017024336  0.016732207            9 
 2392000   0.86078483   -7.9038139    490.82691    0.0170996  0.016725879           13 
 2393000   0.88351008   -7.9530379    487.63336  0.016981243  0.016719547           38 
 2394000   0.87998948   -7.9554627    488.40228  0.017000915  0.016713224            9 
 2395000   0.87635596    -7.951884     488.6487   0.01700239  0.016706859           10 
 2396000   0.86854385   -7.9439868    488.43369  0.016987816  0.016700477           10 
 2397000    0.8755716   -7.9121262    488.66582  0.016988799  0.016694144           13 
 2398000     0.869163   -7.9220116    489.10467  0.016996965  0.016687817           13 
 2399000   0.86161579   -7.9031007    488.74817  0.016977496  0.016681559           10 
 2400000   0.87501217   -7.9082861    489.24586  0.016987704  0.016675302           12 
 2401000   0.87959533   -7.8977911    489.06883  0.016974484  0.016669063            5 
 2402000   0.86784194   -7.9052787    490.77404  0.017026577  0.016662788            8 
 2403000   0.84239694     -7.92971    488.97648  0.016957154   0.01665652           11 
 2404000    0.8609505   -7.8949283    490.78446  0.017012773  0.016650229            7 
 2405000   0.86462038    -7.893216    490.04811  0.016980184   0.01664397            5 
 2406000   0.85256458   -7.9151524    489.50602  0.016954351  0.016637754            7 
 2407000    0.8774324   -7.9162854    490.10306  0.016967977  0.016631501           10 
 2408000    0.8853842   -7.8919708    489.62592  0.016944418  0.016625231            5 
 2409000   0.87207017   -7.9104972    490.17315  0.016956315  0.016618941            6 
 2410000   0.88696922   -7.9182959    490.19937  0.016950186  0.016612659           13 
 2411000   0.84510407   -7.8904958    490.47251  0.016952596  0.016606406            3 
 2412000   0.88127852   -7.8928047    489.05218  0.016896496  0.016600176            6 
 2413000    0.8872607   -7.9369803    488.88936  0.016883871  0.016593941            5 
 2414000     0.867655    -7.937322    490.25168  0.016923905  0.016587683            6 
 2415000   0.87340939   -7.9323438    489.51404  0.016891444  0.016581396           10 
 2416000   0.85970328   -7.9015528    491.11148  0.016939552  0.016575132           11 
 2417000   0.88756067    -7.940021      490.335  0.016905772  0.016568876            8 
 2418000   0.85813491   -7.9409741    489.86263    0.0168825  0.016562624            9 
 2419000   0.86344368   -7.9351423    490.77888  0.016907086  0.016556355            7 
 2420000   0.84679012   -7.9240083    490.36605  0.016885883  0.016550089            6 
 2421000   0.86533268   -7.9136768    490.76592  0.016892672  0.016543812           12 
 2422000   0.85990678   -7.9530645    488.91362  0.016821966   0.01653753           13 
 2423000   0.86512897    -7.938083    489.76706  0.016844375  0.016531278           12 
 2424000   0.85860555   -7.9381841    489.55715   0.01683021  0.016525035            7 
 2425000    0.8376747   -7.9230686    490.64989  0.016860821  0.016518797            8 
 2426000    0.8653487   -7.9531652    489.20028  0.016804077  0.016512515            5 
 2427000   0.87024315    -7.946092    489.73496  0.016815512  0.016506222            7 
 2428000   0.86901162   -7.9342973    489.74934   0.01680908  0.016499954            8 
 2429000   0.88092769   -7.9579741     489.9642  0.016809531  0.016493705            8 
 2430000   0.85070628    -7.910582    492.33614  0.016883955  0.016487453           18 
 2431000   0.85780894    -7.953524    491.21907  0.016838718  0.016481248           26 
 2432000   0.87506705   -7.9684982     489.7835  0.016782603  0.016475016            5 
 2433000   0.87313569   -7.9217049    489.83913  0.016777611  0.016468775           18 
 2434000    0.8648434   -7.8944333    491.74958  0.016836126   0.01646257            5 
 2435000   0.86296701   -7.9727674     489.4337  0.016749955  0.016456358           17 
 2436000   0.83762892   -7.9801792    490.63055  0.016784023  0.016450084           23 
 2437000   0.84905028   -7.9513185    491.16798  0.016795513  0.016443834            8 
 2438000    0.8795677   -7.9537689     490.8664  0.016778316  0.016437601           36 
 2439000   0.84470824   -7.9601974    489.81889  0.016735646  0.016431308           54 
 2440000   0.88268082   -7.9574208    491.33606  0.016780603  0.016425033           70 
 2441000   0.86445958   -7.9274027    490.07302   0.01673061  0.016418778           36 
 2442000   0.86948131   -7.9313933    490.87055  0.016750974  0.016412522           36 
 2443000   0.85592235   -7.9469135    490.50631  0.016731693   0.01640626           73 
 2444000   0.87426897   -7.9345063    491.76064  0.016767616  0.016400008           96 
 2445000   0.86723324   -7.9266115     491.6673  0.016757577  0.016393783           73 
 2446000   0.86204852   -7.9285954    491.28298  0.016737632  0.016387552           73 
 2447000   0.85825362   -7.9220274    491.13343  0.016725699  0.016381314          124 
 2448000   0.86340633   -7.9770224    489.13247  0.016650751  0.016375012           75 
 2449000   0.86100125   -7.9636514    489.29312  0.016649419  0.016368738           87 
 2450000   0.86609041   -7.9690124    489.92724  0.016664192  0.016362424           99 
 2451000   0.84314042   -7.9643074    489.77122  0.016652088  0.016356136           81 
 2452000   0.84032288   -7.9631262      489.353  0.016631083  0.016349859           70 
 2453000   0.86879765   -7.9569284    491.91259  0.016711258  0.016343565           58 
 2454000   0.84299747   -7.9349021    490.70049  0.016663288   0.01633727          140 
 2455000   0.87755501   -7.9314362    491.14729  0.016671666  0.016330993          118 
 2456000   0.86619517   -7.9935422    489.99814  0.016625887  0.016324709           72 
 2457000   0.83804769   -7.9906577    490.44141  0.016634154  0.016318419          121 
 2458000   0.85261868   -7.9734947    491.13933  0.016651049  0.016312111          128 
 2459000    0.8630067   -7.9445609    490.05826   0.01660764  0.016305829          126 
 2460000   0.85681542   -7.9540527    491.18192  0.016638954  0.016299591          178 
 2461000   0.84850745   -7.9609481    491.74168  0.016651147  0.016293323          185 
 2462000   0.86453652   -7.9884091    490.39126  0.016598675  0.016287056          188 
 2463000    0.8495062   -7.9799906    490.08497  0.016581573  0.016280746          210 
 2464000   0.83437106   -7.9975034    490.66873  0.016594586  0.016274427          217 
 2465000   0.84902811   -7.9765678    490.83152  0.016593358   0.01626814          231 
 2466000    0.8440494     -7.98554    490.36496  0.016570862  0.016261838          282 
 2467000   0.84746627   -8.0241506     489.7746  0.016544203  0.016255536          236 
 2468000   0.84448323   -7.9942547    490.51065  0.016562353  0.016249209          260 
 2469000   0.85254445   -7.9962063    490.34011  0.016549889  0.016242882          225 
 2470000   0.85235015   -7.9949502    490.69665  0.016555218  0.016236573          237 
 2471000   0.86541394   -8.0005378    490.99729  0.016558657  0.016230291          197 
 2472000   0.85288119   -7.9763116    491.55844  0.016570875  0.016223989          214 
 2473000   0.86534765   -8.0277488    489.37763  0.016490687  0.016217722          216 
 2474000   0.86772458   -8.0102566    490.28272  0.016514508  0.016211445          210 
 2475000   0.86518964   -8.0423029    490.27573    0.0165076  0.016205134          277 
 2476000   0.83303452    -8.050255    489.56043  0.016476859   0.01619877          251 
 2477000   0.85964753   -7.9976945    490.17256  0.016490801  0.016192403          225 
 2478000   0.85682321   -8.0080247    490.10926  0.016482017   0.01618607          260 
 2479000   0.84362526   -8.0073855    489.71418  0.016462088  0.016179751          271 
 2480000   0.84436834    -8.005387    490.38098  0.016477856  0.016173396          257 
 2481000   0.85608564   -7.9825043    489.77668  0.016450916  0.016167076          265 
 2482000   0.83818638   -8.0474448    489.35496  0.016430129  0.016160723          290 
 2483000   0.83425681   -8.0278224    488.80248   0.01640497   0.01615439          264 
 2484000   0.85239556   -8.0329872    489.19451  0.016411517   0.01614805          260 
 2485000   0.85712573   -8.0387928    490.38193  0.016444733  0.016141712          283 
 2486000   0.86075042   -8.0409042    488.67767  0.016380989  0.016135373          307 
 2487000   0.84917952     -8.02211    489.07886  0.016387845  0.016129077          280 
 2488000   0.85694156   -8.0437956    490.08679  0.016415018  0.016122733          283 
 2489000   0.85903069   -8.0684442    488.75416  0.016363806  0.016116391          292 
 2490000   0.86521193   -8.0547022    489.87557  0.016394765  0.016110057          296 
 2491000   0.85186531   -8.0363189    489.56739  0.016377873  0.016103729          289 
 2492000   0.87199864   -8.0685443    489.22239  0.016359764  0.016097385          295 
 2493000   0.84746673   -8.0672346    489.18193   0.01635185  0.016091027          317 
 2494000    0.8577693   -8.0517296    489.88745  0.016368867  0.016084707          279 
 2495000   0.85251616   -8.0251043    490.76278  0.016391542  0.016078389          272 
 2496000    0.8645407   -8.0318284    490.25606  0.016368058  0.016072063          282 
 2497000   0.86003303   -8.0405894    490.61001  0.016373315  0.016065743          348 
 2498000   0.85819461   -8.0325114    489.95574  0.016344934  0.016059408          352 
 2499000     0.844457   -8.0147689    490.59711  0.016359781  0.016053083          341 
 2500000   0.84343141   -8.0469997    489.76982  0.016325661  0.016046761          342 
 2501000   0.86166233   -8.0379119     490.9254  0.016357637  0.016040472          348 
 2502000   0.85697128   -8.0273168    490.51581  0.016337457  0.016034192          417 
 2503000   0.84987316   -8.0611385    490.78034  0.016339737  0.016027895          412 
 2504000   0.85925558   -8.0702173    490.08843  0.016310185  0.016021588          422 
 2505000   0.85275496   -8.0566308    490.45111  0.016315739  0.016015296          374 
 2506000   0.84961928   -8.0692883    489.07516  0.016263473   0.01600896          466 
 2507000   0.83020753   -8.0728046    488.98462  0.016253976  0.016002591          448 
 2508000   0.83485382   -8.0734219    488.14331  0.016219541  0.015996219          463 
 2509000   0.85980136   -8.0605155    489.53346  0.016259249  0.015989866          469 
 2510000   0.83723331   -8.0507027     490.2678  0.016277152  0.015983522          508 
 2511000    0.8692857    -8.078516    490.24908  0.016270048  0.015977156          464 
 2512000   0.84682439   -8.0887571    488.69777  0.016212107  0.015970777          519 
 2513000   0.85514416   -8.1036796    487.64658  0.016170798  0.015964368          476 
 2514000   0.84438985   -8.1155082     488.0195  0.016176727  0.015957969          518 
 2515000     0.858857   -8.0789231    489.13403  0.016207224  0.015951564          506 
 2516000   0.85264186   -8.0667534    489.96718  0.016228378  0.015945132          566 
 2517000   0.84013518   -8.1270148    489.32811  0.016200772  0.015938718          569 
 2518000   0.85210092    -8.121647    488.16861  0.016155964  0.015932301          608 
 2519000   0.83166153   -8.0984627    488.64537  0.016165323  0.015925911          609 
 2520000   0.85255022   -8.1194589    489.03949  0.016171941  0.015919482          683 
 2521000   0.83532853   -8.1571163    487.73255  0.016122324  0.015913035          684 
 2522000   0.85651291    -8.144614    488.91096  0.016154869  0.015906621          757 
 2523000   0.86735005   -8.1544904    489.86578  0.016180003  0.015900183          795 
 2524000   0.86103926   -8.1364301    488.96423  0.016143827  0.015893794          771 
 2525000   0.85111811   -8.1484456    489.55342  0.016156879  0.015887359          898 
 2526000   0.85682239   -8.1328239    488.12542  0.016103372  0.015880898          980 
 2527000   0.86569703   -8.1945318    487.85927  0.016088223  0.015874422          951 
 2528000   0.85980556   -8.1559442      487.519  0.016070642   0.01586796          990 
 2529000    0.8329437   -8.1481155    487.75809  0.016072166  0.015861475         1019 
 2530000   0.85593362   -8.1711866    487.19813  0.016047369  0.015854976         1042 
 2531000   0.84551835   -8.2212024    487.40043   0.01604769  0.015848425         1085 
 2532000   0.85438053   -8.2071101    485.31805  0.015972816   0.01584182         1043 
 2533000   0.84399192   -8.2308928    486.81578  0.016015784  0.015835205         1099 
 2534000   0.86574492   -8.2484447    485.86771  0.015978286  0.015828561         1296 
 2535000   0.86838306   -8.1866375     487.3316  0.016020105  0.015821944         1138 
 2536000   0.84540219   -8.2325601    486.98699  0.016002464  0.015815317         1200 
 2537000   0.82416857   -8.2690133    485.06835  0.015933135  0.015808642         1301 
 2538000   0.85384301   -8.2471144    485.70894   0.01594789  0.015801954         1297 
 2539000    0.8677362    -8.240828    486.71251  0.015974547  0.015795276         1315 
 2540000   0.85730572   -8.2653274    485.06229  0.015914117  0.015788584         1493 
 2541000   0.85872584   -8.2781166    486.70708  0.015961796  0.015781893         1375 
 2542000    0.8386339   -8.2864055    484.37173  0.015878958  0.015775189         1539 
 2543000   0.86393463    -8.301877    484.02207  0.015861255  0.015768462         1624 
 2544000   0.85216252   -8.3314756    483.41803  0.015835234  0.015761691         1665 
 2545000   0.85302752   -8.3499583     484.0714  0.015850406  0.015754903         1764 
 2546000   0.85142449   -8.3338151    484.31083  0.015852017  0.015748092         1769 
 2547000   0.84119303   -8.3860286    481.96731  0.015769118  0.015741238         1816 
 2548000   0.85464047   -8.3751756    483.63093  0.015817338  0.015734354         1904 
 2549000   0.83785521    -8.404909    482.61835  0.015778029  0.015727439         2006 
 2550000   0.86452026   -8.4196564    481.75282  0.015743556  0.015720523         2193 
 2551000   0.82785282    -8.430478    481.36081  0.015724579   0.01571356         2321 
 2552000   0.82255586   -8.4547914    481.22304  0.015713918  0.015706581         2380 
 2553000   0.84793574   -8.4888619    479.26534  0.015643861  0.015699574         2390 
 2554000   0.85222168   -8.4921759    481.19521  0.015700705    0.0156925         2656 
 2555000   0.83035854   -8.5150647    480.44427  0.015670067  0.015685403         2744 
 2556000   0.84066588     -8.51018    478.70009  0.015607071  0.015678279         2792 
 2557000   0.82589406   -8.5258728    480.23042  0.015650842  0.015671154         2785 
 2558000   0.85831034   -8.5442591    480.53648  0.015654694  0.015664008         2877 
 2559000   0.83171743   -8.5610561    479.07171  0.015600876  0.015656846         2884 
 2560000   0.84600595   -8.5579598     478.6655  0.015581559   0.01564964         2981 
 2561000   0.85214213   -8.5797402    478.17241   0.01555943  0.015642429         3030 
 2562000   0.84718062   -8.5813549    477.93725  0.015545708   0.01563519         3044 
 2563000   0.84895106   -8.6068513    477.09916  0.015512393  0.015627937         3129 
 2564000   0.84673179   -8.6125798    476.87866  0.015499176  0.015620663         3149 
 2565000   0.85111092   -8.6367555    477.52842  0.015514244  0.015613367         3252 
 2566000   0.83600702    -8.652633     476.6279  0.015478952  0.015606046         3269 
 2567000   0.85015864     -8.65308     477.9131  0.015514644   0.01559871         3366 
 2568000   0.84049432   -8.6507235      477.064  0.015481049  0.015591384         3262 
 2569000   0.86310895    -8.666963    476.90664  0.015469918  0.015584033         3412 
 2570000   0.82870434   -8.6998916    476.20682  0.015441207  0.015576674         3395 
 2571000   0.85351942   -8.6732202     476.0111  0.015428857  0.015569308         3413 
 2572000   0.83060087   -8.6765522    474.93461   0.01538798  0.015561946         3502 
 2573000   0.83356678   -8.6904796    474.72787  0.015375304  0.015554535         3526 
 2574000   0.83222868   -8.7149372    475.43126  0.015392102  0.015547121         3552 
 2575000    0.8502903   -8.7268855    475.43035  0.015386095  0.015539717         3558 
 2576000   0.84000978    -8.719621    474.33023  0.015344534  0.015532304         3573 
 2577000   0.85148418   -8.6846424    474.62661  0.015348164  0.015524885         3547 
 2578000   0.85146056   -8.7310446    474.55998  0.015340056  0.015517484         3531 
 2579000   0.84677508   -8.7114927    474.81584  0.015342376  0.015510081         3522 
 2580000   0.81958722   -8.7124614    475.15598  0.015347415  0.015502679         3532 
 2581000   0.83836077   -8.6891272    475.52614  0.015353421  0.015495261         3510 
 2582000   0.83703003   -8.7131967    475.03722  0.015331695  0.015487855         3556 
 2583000   0.84477714   -8.7134782    476.02993  0.015357786  0.015480443         3607 
 2584000   0.85057925   -8.7366658    474.75921  0.015310862  0.015473025         3603 
 2585000   0.83696297   -8.7469884    473.59004  0.015267248  0.015465617         3592 
 2586000   0.85739988    -8.748187    474.58092  0.015293275  0.015458226         3649 
 2587000   0.84281197   -8.7224913    474.90795  0.015297898  0.015450819         3593 
 2588000   0.84432703   -8.7585776    474.93209  0.015292764  0.015443414         3638 
 2589000   0.85046888   -8.7725422    474.37945  0.015269069  0.015436002         3637 
 2590000    0.8593054   -8.7305193    473.96249  0.015249758  0.015428593         3582 
 2591000   0.82838832   -8.7867618    473.51935   0.01522962  0.015421164         3664 
 2592000    0.8342188   -8.6992604    475.27708  0.015280256  0.015413731         3639 
 2593000   0.84355006   -8.7545211    473.87164  0.015229195  0.015406294         3651 
 2594000   0.84465848   -8.7635023    473.54017  0.015212676   0.01539887         3712 
 2595000   0.82778156   -8.7294693    475.11124  0.015257265  0.015391425         3649 
 2596000   0.83029617   -8.7853505    473.65092  0.015204511  0.015383986         3725 
 2597000   0.82707347   -8.7677404    473.41266  0.015191011  0.015376538         3686 
 2598000   0.81874885   -8.7695799    474.10699  0.015207435  0.015369103         3662 
 2599000   0.82484174   -8.7665222    473.53553   0.01518326  0.015361656         3667 
 2600000   0.82113816   -8.7670438    474.07933   0.01519485  0.015354204         3662 
 2601000   0.82778324   -8.7632673    474.65686  0.015207512   0.01534677         3607 
 2602000    0.8578359   -8.7834193    472.76515  0.015141082  0.015339315         3676 
 2603000   0.83995021   -8.7830283    472.50722  0.015127008  0.015331883         3675 
 2604000   0.85288047   -8.7707843    473.15835  0.015142036  0.015324431         3693 
 2605000   0.82476942   -8.7865862    473.01328  0.015131583  0.015316982         3720 
 2606000   0.82785096    -8.769936     472.7593  0.015117655  0.015309537         3685 
 2607000   0.84901276   -8.7744795    473.80034  0.015145133  0.015302101         3675 
 2608000    0.8373497   -8.8022036    473.33795  0.015124551  0.015294675         3715 
 2609000   0.84608685   -8.7876161    473.96778  0.015138871  0.015287249         3659 
 2610000   0.83658862   -8.7746725    473.61392  0.015121773  0.015279816         3699 
 2611000   0.83904137   -8.7628409    473.17426  0.015101949  0.015272386         3706 
 2612000   0.82753096   -8.7768758    472.53048  0.015075628   0.01526497         3638 
 2613000   0.84068052   -8.7800781    473.52291  0.015101509  0.015257553         3665 
 2614000   0.82651181   -8.7800872    473.39161  0.015091546  0.015250145         3707 
 2615000   0.82028848   -8.7581935    473.01774   0.01507386   0.01524274         3614 
 2616000   0.81342183   -8.7902739     472.4745  0.015050793  0.015235314         3712 
 2617000   0.82529627    -8.806432    472.77107  0.015054486  0.015227889         3755 
 2618000   0.84568564   -8.7989654    473.45936  0.015070644  0.015220475         3680 
 2619000   0.82586277   -8.7881542    472.67265  0.015039858  0.015213072         3683 
 2620000   0.83385366   -8.7844959    474.71382   0.01509904  0.015205674         3647 
 2621000   0.85185415   -8.7753306    473.31872  0.015048923  0.015198281         3638 
 2622000     0.833814   -8.8007499    472.15127  0.015006079  0.015190889         3690 
 2623000   0.83924969   -8.7901434    471.96602  0.014994473  0.015183495         3746 
 2624000   0.82229446   -8.8028328     473.9919  0.015053096  0.015176099         3704 
 2625000   0.82866229   -8.7775449    472.90171  0.015012753  0.015168696         3738 
 2626000   0.81682742   -8.7833826    473.70868  0.015032644  0.015161294         3680 
 2627000   0.85095477   -8.7911743    473.25596   0.01501256  0.015153903         3717 
 2628000   0.84090473   -8.8101101    472.79506  0.014992233  0.015146521         3695 
 2629000    0.8365457   -8.8064601    472.60322   0.01498045  0.015139146         3674 
 2630000   0.82251057   -8.7966825    474.44084   0.01503298  0.015131755         3741 
 2631000   0.83411992   -8.8048754    472.31454  0.014959918  0.015124372         3686 
 2632000   0.85570519   -8.7821468    472.95634  0.014974555  0.015116997         3725 
 2633000   0.83747562   -8.8171977    471.82208  0.014932969  0.015109612         3724 
 2634000    0.8075432   -8.7844453    473.17232  0.014970018  0.015102243         3623 
 2635000   0.84153161   -8.8214344    472.05616  0.014929037  0.015094875         3718 
 2636000   0.83504595   -8.8033316    473.13053  0.014957338  0.015087498         3722 
 2637000   0.82041842   -8.8260511    472.24444  0.014923665   0.01508014         3686 
 2638000   0.83288209   -8.7806046    472.11206  0.014913826  0.015072785         3670 
 2639000   0.83738872   -8.8049127    474.13167  0.014971949  0.015065427         3669 
 2640000   0.84087757   -8.8008268    472.72994  0.014922031  0.015058078         3703 
 2641000   0.81989067   -8.8167572    472.35345  0.014904501  0.015050716         3708 
 2642000   0.84987076   -8.8287942    471.54806  0.014873456  0.015043355         3759 
 2643000   0.83915704   -8.8005299    472.68142  0.014903564  0.015036001         3715 
 2644000   0.82487494   -8.8140698    472.07559  0.014878832  0.015028654         3712 
 2645000   0.82539392    -8.815183    472.87488  0.014898389  0.015021304         3711 
 2646000   0.81257957   -8.7972877    473.70024  0.014918753  0.015013966         3702 
 2647000   0.82281943   -8.8205838    472.96105  0.014889846  0.015006622         3712 
 2648000   0.83969483   -8.8370378    472.81342  0.014879577  0.014999279         3711 
 2649000    0.8233948   -8.7987669    472.97259  0.014878967  0.014991932         3767 
 2650000   0.84085545   -8.8322248    472.91225  0.014871454  0.014984592         3734 
 2651000   0.84099142   -8.8043666     472.7549  0.014860898  0.014977252         3733 
 2652000   0.82727693   -8.8409355    471.78993  0.014824973  0.014969917         3738 
 2653000   0.84575183   -8.8494057    471.15048  0.014799299  0.014962578         3774 
 2654000   0.83538015   -8.8384003    472.39287  0.014832733  0.014955255         3723 
 2655000   0.82627265   -8.8149064    472.57567  0.014832884  0.014947927         3736 
 2656000   0.82030671   -8.8143701    473.35104  0.014851627  0.014940603         3733 
 2657000   0.82004384   -8.8123878    473.19678  0.014841199  0.014933285         3734 
 2658000   0.82971689   -8.8572536    471.44995  0.014780849  0.014925963         3730 
 2659000   0.82266149   -8.8161078    472.33532  0.014803037  0.014918644         3718 
 2660000   0.82501783   -8.8403114    472.44209  0.014800817  0.014911323         3722 
 2661000   0.83067758   -8.8303298    473.84211  0.014839099  0.014904005         3784 
 2662000   0.82296354   -8.8361965    471.67778  0.014765771  0.014896684         3787 
 2663000   0.82023269   -8.8329037    472.27219  0.014778827  0.014889374         3783 
 2664000   0.83148691   -8.8397831    472.48294  0.014779872  0.014882065         3757 
 2665000   0.83613238   -8.8523525    471.62759  0.014747579  0.014874747         3753 
 2666000   0.83832466   -8.8326877    471.63788  0.014742369  0.014867444         3754 
 2667000   0.83663729   -8.8163717    472.14903  0.014752813  0.014860151         3732 
 2668000   0.81756218   -8.8387929    471.99242  0.014742392   0.01485285         3776 
 2669000   0.81773711   -8.8256986    472.33007  0.014747411  0.014845542         3695 
 2670000   0.81909055   -8.8570197    470.95686  0.014699028   0.01483824         3736 
 2671000   0.82353741   -8.8308806    472.54848  0.014743182  0.014830931         3768 
 2672000   0.81689281   -8.8136263    472.89479  0.014748465  0.014823634         3706 
 2673000   0.82807363   -8.8607671    471.77833  0.014708141  0.014816341         3753 
 2674000   0.81086873    -8.819103    472.90684   0.01473781  0.014809052         3740 
 2675000   0.82421755    -8.837833     472.3351  0.014714489  0.014801772         3741 
 2676000   0.81526555   -8.8583972    471.67186  0.014688337   0.01479449         3728 
 2677000   0.81033362   -8.8313683    472.25448  0.014700986  0.014787218         3723 
 2678000   0.84230463   -8.8554194    471.80361  0.014681467  0.014779936         3736 
 2679000   0.83854083   -8.8411045    472.40289  0.014694628  0.014772685         3700 
 2680000   0.80870008   -8.8637407    471.08034  0.014648021  0.014765432         3714 
 2681000   0.82653466   -8.8613497    471.50817  0.014655855  0.014758179         3711 
 2682000   0.84331528   -8.8081597    472.24021  0.014673136  0.014750924         3694 
 2683000   0.82303879   -8.8539151    471.90507  0.014657258  0.014743673         3731 
 2684000   0.82900966   -8.8696773    471.01381  0.014624125  0.014736421         3719 
 2685000   0.82139135   -8.8288468    472.15719  0.014654165  0.014729166         3713 
 2686000    0.8343545   -8.8671264    470.29123  0.014590818  0.014721923         3755 
 2687000   0.81924473   -8.8474168    471.11634  0.014610977  0.014714681         3763 
 2688000   0.84578601   -8.8446375    471.93704  0.014630985  0.014707436         3779 
 2689000   0.82426414   -8.8387703    472.24375  0.014635049   0.01470019         3745 
 2690000   0.81156977   -8.8485672     471.2611  0.014599167  0.014692946         3735 
 2691000   0.82133199    -8.861031    471.85711  0.014612198  0.014685714         3753 
 2692000   0.82158982   -8.8271816    472.34392   0.01462184  0.014678492         3699 
 2693000    0.8092025   -8.8589415    472.14875  0.014610371   0.01467127         3795 
 2694000   0.82647526   -8.8633791    471.77732  0.014593458  0.014664054         3764 
 2695000   0.81061627    -8.870097     471.3584   0.01457509   0.01465684         3752 
 2696000   0.81496926    -8.847069    472.34182  0.014600081  0.014649623         3786 
 2697000   0.81670111   -8.8390785    473.12588  0.014618894  0.014642411         3746 
 2698000   0.81033133   -8.8726941    471.01574  0.014548299  0.014635197         3760 
 2699000   0.80521427   -8.8556588    471.06459  0.014544417  0.014627983         3736 
 2700000   0.80268421   -8.8609315    471.76639  0.014560691  0.014620771         3735 
 2701000   0.83026579   -8.8376473    472.27425  0.014570969  0.014613579         3781 
 2702000   0.79919658   -8.8488451    470.88796  0.014522821  0.014606369         3740 
 2703000   0.82833591   -8.8543457    472.02916  0.014552632  0.014599167         3765 
 2704000   0.80627357   -8.8460804    471.61183  0.014534388  0.014591959         3777 
 2705000   0.83387391   -8.8476967    472.04804  0.014542454  0.014584767         3729 
 2706000   0.80339524   -8.8628953    472.03068  0.014536545  0.014577578         3759 
 2707000   0.81114413   -8.8668487    471.87684  0.014526439  0.014570398         3768 
 2708000   0.80982978    -8.835109    471.82524  0.014519487  0.014563213         3789 
 2709000   0.81339795   -8.8837734    472.02312  0.014520214  0.014556044         3789 
 2710000    0.8190602   -8.8649193    472.01816  0.014514704  0.014548868         3755 
 2711000   0.81271608   -8.8641697    472.04167  0.014510072  0.014541687         3799 
 2712000   0.80908881   -8.8583713    470.97978  0.014472093  0.014534517         3813 
 2713000   0.82727395   -8.8347155    472.07068  0.014500267  0.014527349         3755 
 2714000   0.81739342   -8.8750444    471.22004  0.014468805   0.01452018         3762 
 2715000   0.81702583   -8.8804261    471.18793   0.01446249  0.014513017         3784 
 2716000   0.81241341   -8.8565976    472.10356  0.014485259  0.014505856         3788 
 2717000   0.79992865   -8.8685374    470.88793  0.014442643  0.014498702         3793 
 2718000   0.82276784   -8.8906332    471.20041   0.01444691  0.014491544         3808 
 2719000   0.81624469   -8.8784195    470.93083  0.014433334  0.014484406         3793 
 2720000   0.81746857   -8.8644858    472.02097  0.014461427  0.014477262         3800 
 2721000   0.82157346   -8.8729157    471.47545  0.014439405  0.014470117         3792 
 2722000   0.84271647   -8.8632325     471.7824  0.014443497  0.014462981         3758 
 2723000   0.83241482   -8.8578351     471.7266  0.014436486  0.014455843         3761 
 2724000   0.82429388   -8.8664056    471.26911   0.01441719  0.014448713         3792 
 2725000   0.82968321   -8.9007118    472.55793  0.014451313  0.014441578         3831 
 2726000   0.82609049   -8.8590238     470.7482  0.014390688  0.014434447         3829 
 2727000   0.82273638    -8.906084    470.80097  0.014387024  0.014427337         3827 
 2728000    0.8076347   -8.8861215    470.66209  0.014377508  0.014420204         3801 
 2729000   0.81860888   -8.8715695    470.80199  0.014376511  0.014413087         3795 
 2730000   0.81285394   -8.8701648    471.41344   0.01438991  0.014405987         3786 
 2731000   0.79793086   -8.8841964    471.18406  0.014377641  0.014398883         3844 
 2732000   0.83067062   -8.8649858    471.61767  0.014385605  0.014391775         3786 
 2733000   0.82529562   -8.8907687    470.45197  0.014344797  0.014384672         3789 
 2734000   0.82291715   -8.9028929    470.51672  0.014341524   0.01437757         3792 
 2735000   0.81341869   -8.8905136    470.47035  0.014334867   0.01437047         3799 
 2736000   0.81258629   -8.8690506     471.1438   0.01435014  0.014363384         3757 
 2737000    0.8187108   -8.8865397    470.64268  0.014329639  0.014356309         3815 
 2738000   0.80237415   -8.8978228    471.44747    0.0143489  0.014349218         3811 
 2739000   0.81218601    -8.871055    470.81061  0.014324285   0.01434213         3803 
 2740000   0.80984566   -8.9111285    470.47847  0.014308956  0.014335051         3825 
 2741000   0.82261251   -8.8795862    471.90198  0.014347014  0.014327962         3815 
 2742000   0.82032741   -8.8906515    471.30297  0.014323577  0.014320889         3806 
 2743000   0.81383838   -8.8930907    471.24693  0.014316652  0.014313824         3770 
 2744000   0.80775571   -8.9028434    470.50273  0.014288834  0.014306754         3805 
 2745000   0.82174047   -8.9121383    470.72367  0.014290336  0.014299694         3826 
 2746000   0.80726648   -8.8944551    471.33488  0.014303681  0.014292617         3794 
 2747000   0.81487368   -8.9053254    470.90414  0.014285407  0.014285555         3804 
 2748000   0.80556912   -8.8952055    471.57829  0.014300652  0.014278506         3821 
 2749000   0.81355219   -8.9007052    471.02357  0.014278634  0.014271457         3800 
 2750000   0.83154108   -8.8947564    471.52659  0.014288685  0.014264405         3778 
 2751000   0.81759353   -8.8814639    472.13417  0.014301895  0.014257354         3801 
 2752000   0.80710518   -8.8507276    471.73538  0.014284623  0.014250322         3830 
 2753000   0.80707248   -8.9041736    471.02832  0.014258031  0.014243289         3850 
 2754000    0.8047814    -8.892264    471.57723  0.014269463  0.014236254         3780 
 2755000   0.80863202   -8.9045686    471.11134  0.014250192  0.014229225         3793 
 2756000    0.8177245   -8.8663355    470.84833  0.014237069  0.014222201         3784 
 2757000   0.82725681   -8.8937404    470.42675  0.014219162   0.01421519         3804 
 2758000   0.81828553    -8.882575    471.07637  0.014233635   0.01420818         3787 
 2759000   0.81058602   -8.8653167    471.17108  0.014231336  0.014201164         3787 
 2760000   0.81813191   -8.9058183    471.25696  0.014228773  0.014194165         3835 
 2761000   0.81626433   -8.9098646    469.83741  0.014180774  0.014187165         3793 
 2762000   0.80653521   -8.8695476    470.84385  0.014206006   0.01418016         3791 
 2763000   0.81248281   -8.9084179    471.34751  0.014216055  0.014173169         3823 
 2764000   0.80570582   -8.8768529     471.8949  0.014227415  0.014166172         3785 
 2765000   0.82062494   -8.8872843    471.80336  0.014219511  0.014159189         3806 
 2766000   0.80383195   -8.8710134    470.12554  0.014163821  0.014152211         3779 
 2767000   0.81333563   -8.8916456    471.16339  0.014189959  0.014145222         3820 
 2768000   0.78925028   -8.9063192    471.07712  0.014182235  0.014138229         3752 
 2769000   0.82016869   -8.8832932    471.11317  0.014178198  0.014131248         3799 
 2770000   0.80984806   -8.9087116    471.18481  0.014175235  0.014124282         3818 
 2771000   0.83139943   -8.9041176    471.65596  0.014184289  0.014117311         3822 
 2772000   0.82103095   -8.8957411    470.71555  0.014150901  0.014110344         3772 
 2773000   0.81105117   -8.9199729    470.05526  0.014125954  0.014103377         3798 
 2774000   0.79530242   -8.9188325     470.8611   0.01414507  0.014096418         3823 
 2775000   0.80189491   -8.9003537    470.74601  0.014136517  0.014089465         3791 
 2776000   0.81626424   -8.8967651    470.40363  0.014121146  0.014082513         3823 
 2777000   0.80874232   -8.9159261     470.4574  0.014117675  0.014075559         3784 
 2778000   0.81018399   -8.9052426    470.72035  0.014120481  0.014068606         3837 
 2779000   0.80415668   -8.9117239    470.41293  0.014106181  0.014061671         3816 
 2780000   0.79819464   -8.9078309    471.68137   0.01413913  0.014054733         3830 
 2781000   0.81005586   -8.9298664    470.88233  0.014110102  0.014047791         3795 
 2782000   0.81140432   -8.9416797    470.95284  0.014107142  0.014040855         3866 
 2783000   0.81181058   -8.9043572    471.80512  0.014127594  0.014033929         3828 
 2784000   0.79233518   -8.8952357    470.32261  0.014078143  0.014026994         3787 
 2785000   0.79506323   -8.8953778    470.80327  0.014087471  0.014020061         3839 
 2786000   0.79838275   -8.8913135     470.8291  0.014083187  0.014013127         3847 
 2787000   0.79634796   -8.9107516    470.55261  0.014069866  0.014006203         3844 
 2788000   0.78677985   -8.9090697    471.65164   0.01409767  0.013999276         3831 
 2789000    0.8041987   -8.9293916    470.30697  0.014052437   0.01399235         3828 
 2790000    0.7950316   -8.8991287    470.45782  0.014051906  0.013985442         3791 
 2791000   0.80763459   -8.8916303    470.64518  0.014052466  0.013978527         3818 
 2792000   0.80738053   -8.9115953    470.53803  0.014044234  0.013971608         3850 
 2793000   0.79252096    -8.900235    469.35312  0.014003852  0.013964698         3790 
 2794000   0.82228042   -8.8861872    471.21765  0.014054451  0.013957793         3773 
 2795000   0.80247211    -8.889565    471.55578  0.014059504  0.013950896         3798 
 2796000   0.80070293   -8.8886924    470.08872  0.014010751  0.013944004         3814 
 2797000   0.81153413   -8.9242278    470.79505  0.014026786  0.013937107         3804 
 2798000   0.80170691   -8.8768568    470.43124  0.014010938   0.01393023         3835 
 2799000    0.8026456   -8.9143782    470.74586  0.014015299  0.013923345         3830 
 2800000   0.80779211   -8.9316032    469.78699  0.013981756  0.013916467         3844 
 2801000   0.78512384   -8.9086757    471.48512  0.014027285  0.013909591         3839 
 2802000    0.7975649    -8.911979    469.56452  0.013965159  0.013902719         3831 
 2803000   0.80848426    -8.936809    470.19544  0.013978934  0.013895838         3804 
 2804000   0.80534139   -8.9338176    471.31598  0.014007251  0.013888984         3787 
 2805000   0.81606999   -8.9281927    470.17012  0.013968215  0.013882128         3783 
 2806000   0.80137541   -8.9370981    470.28182  0.013966554  0.013875262         3830 
 2807000   0.80827862   -8.9160119    469.91934  0.013950817  0.013868403         3796 
 2808000   0.80729904   -8.9505336    469.74615   0.01394071   0.01386154         3826 
 2809000   0.79495402   -8.9355014    469.71751  0.013934897  0.013854689         3786 
 2810000   0.79332832   -8.9241224    470.05348  0.013939902  0.013847844         3841 
 2811000   0.80512634   -8.9189996     470.3019  0.013942307  0.013840997         3798 
 2812000   0.80577042    -8.902311    470.15001  0.013932848  0.013834155         3814 
 2813000   0.81717606   -8.9194533    470.59363  0.013941037  0.013827325         3812 
 2814000   0.77830781   -8.9136018    471.36123  0.013958814  0.013820486         3830 
 2815000   0.79067411   -8.9020742     470.9391  0.013941359  0.013813649         3791 
 2816000   0.79481376   -8.9201923    469.41352  0.013891262  0.013806823         3799 
 2817000   0.81135271   -8.9360128    470.50724  0.013918685  0.013799993         3860 
 2818000   0.79273859   -8.9268634    469.67921   0.01388926  0.013793168         3801 
 2819000   0.80236849   -8.9290741    471.34891  0.013933691  0.013786345         3775 
 2820000   0.80899949   -8.9323528    469.65439  0.013878676  0.013779532         3801 
 2821000   0.80968257   -8.8825702    469.97847  0.013883329  0.013772729         3815 
 2822000     0.805762   -8.8956522    470.41108  0.013891185  0.013765923         3806 
 2823000   0.81178002   -8.9305823    470.35618  0.013884643  0.013759118         3824 
 2824000   0.80168136   -8.9236009    470.04402  0.013870515  0.013752327         3804 
 2825000   0.79259725   -8.9126207    469.77631  0.013857708  0.013745544         3810 
 2826000   0.80156744   -8.9087268    469.93915  0.013857606  0.013738765         3821 
 2827000   0.81633924   -8.9323778    469.34796  0.013835278  0.013731985         3799 
 2828000   0.80670048   -8.9058283    471.13469  0.013883035  0.013725213         3800 
 2829000    0.7892051   -8.9099944    470.24033  0.013851783  0.013718432         3810 
 2830000   0.79519481   -8.9195658    469.17995  0.013815664  0.013711658         3858 
 2831000   0.81312249   -8.9452011    470.34791  0.013845164  0.013704887         3854 
 2832000   0.80643381    -8.907713    470.93298  0.013857491  0.013698113         3836 
 2833000   0.79452893   -8.9408853    471.10916  0.013857782  0.013691341         3805 
 2834000   0.80414451   -8.9226041    470.55096  0.013836478  0.013684573         3825 
 2835000   0.80979917   -8.9217695    470.37515   0.01382643  0.013677811         3808 
 2836000   0.79185168   -8.9312178    470.48007  0.013824638  0.013671048         3836 
 2837000   0.79305242   -8.9238898    471.23244  0.013841865  0.013664291         3841 
 2838000   0.79475185   -8.9155242    470.26789  0.013808665  0.013657537         3823 
 2839000   0.77937999   -8.9443153      469.597  0.013784108  0.013650781         3815 
 2840000   0.81761913   -8.9117347     469.2112  0.013767934  0.013644042         3832 
 2841000   0.80779683   -8.9255442    471.46021  0.013829057  0.013637291         3819 
 2842000   0.79889353   -8.9198932    469.86551  0.013777431  0.013630554         3827 
 2843000   0.79821107   -8.8944419    470.97746  0.013805178  0.013623826         3784 
 2844000   0.78710687   -8.9178138    470.49411  0.013786161  0.013617099         3803 
 2845000   0.79534969   -8.9187397    469.77398  0.013760222  0.013610384         3841 
 2846000   0.79448244   -8.9210668    470.51212  0.013777001  0.013603663         3846 
 2847000   0.80487392   -8.9360355    470.78941  0.013780278  0.013596947         3812 
 2848000   0.80900006   -8.9175338    470.48031  0.013766395   0.01359024         3832 
 2849000   0.77865265    -8.930305    470.14491  0.013751752   0.01358353         3843 
 2850000   0.78911249    -8.952653    469.91608  0.013740236  0.013576814         3843 
 2851000   0.81555206   -8.9450613    470.10697  0.013740996  0.013570102         3856 
 2852000    0.8031932   -8.9309246    470.47962  0.013747067  0.013563411         3881 
 2853000   0.77049305   -8.9136703    470.84078  0.013752798   0.01355672         3794 
 2854000   0.77714824   -8.9470095    469.64337  0.013713016  0.013550024         3823 
 2855000    0.7801193   -8.9323654    470.63211  0.013737073  0.013543349         3839 
 2856000   0.80617927   -8.9281919    469.98842  0.013713481  0.013536657         3845 
 2857000   0.77361119   -8.9263281    469.26391  0.013687548  0.013529971         3833 
 2858000   0.78950479   -8.9422931    470.47139  0.013717967  0.013523294         3855 
 2859000   0.79042681   -8.9259377    469.40313  0.013682031  0.013516611         3841 
 2860000   0.79984402   -8.8927523    470.18424  0.013700007   0.01350994         3811 
 2861000   0.79120338   -8.9515885    469.56636  0.013677221  0.013503279         3856 
 2862000   0.80567897   -8.9577467    468.59239  0.013644083  0.013496611         3825 
 2863000   0.80017121   -8.9544737    470.49513    0.0136947   0.01348995         3847 
 2864000   0.78917032   -8.9494348    470.33139  0.013685155  0.013483292         3798 
 2865000    0.8007156   -8.9269229    470.22465  0.013677273  0.013476638         3809 
 2866000   0.78446065   -8.9262849    470.24053  0.013672962  0.013469982         3807 
 2867000   0.77295656   -8.9657935    469.32142  0.013641478  0.013463327         3840 
 2868000   0.80511744   -8.9378348     470.3939  0.013667884  0.013456684         3821 
 2869000   0.78882134   -8.8967833    470.39852  0.013663254  0.013450035         3822 
 2870000   0.81314638   -8.9433734    470.13497  0.013650841  0.013443393         3836 
 2871000   0.78451269   -8.9301898    468.37276  0.013594937  0.013436756         3835 
 2872000   0.79430631   -8.9367998     469.9996  0.013637407  0.013430117         3839 
 2873000   0.80150276   -8.9321748    470.62887  0.013650913  0.013423485         3868 
 2874000   0.79339199    -8.939555      469.527  0.013614214  0.013416858         3825 
 2875000   0.78850301   -8.9353015    470.71182  0.013643821  0.013410243         3841 
 2876000   0.78426809   -8.9362634    469.57491  0.013606134  0.013403622         3839 
 2877000   0.80722454   -8.9279397     469.8265  0.013608693  0.013397003         3836 
 2878000   0.79123636   -8.9187789    470.79738  0.013632076  0.013390395         3832 
 2879000   0.80487577   -8.9376772    469.72931  0.013596425  0.013383795         3839 
 2880000   0.78422866   -8.9293016    469.82699  0.013594531  0.013377181         3849 
 2881000    0.7849796   -8.9287112     469.8354  0.013590055   0.01337057         3835 
 2882000   0.78326871   -8.9549767    470.07123  0.013592159  0.013363968         3818 
 2883000   0.77548072    -8.944221    470.26585   0.01359307  0.013357364         3829 
 2884000   0.80598075   -8.9418153    470.31826  0.013589871   0.01335077         3861 
 2885000   0.77841004   -8.9454834    470.31771  0.013585145  0.013344179         3829 
 2886000   0.79157011   -8.9554385     470.4148  0.013583241  0.013337596         3845 
 2887000   0.80040172   -8.9362616    470.06622  0.013568474  0.013331022         3828 
 2888000    0.7965244   -8.9169126    469.66982  0.013552338  0.013324438         3838 
 2889000   0.78960733   -8.9205928     470.9087  0.013583382  0.013317858         3834 
 2890000    0.7860814   -8.9316456    469.76283  0.013545641  0.013311291         3889 
 2891000    0.7756517     -8.93586    469.63401  0.013537242  0.013304712         3862 
 2892000   0.80574766   -8.9325864    470.28163  0.013551223  0.013298141         3846 
 2893000   0.77638221   -8.9635152    468.90554    0.0135069  0.013291584         3864 
 2894000   0.77060569   -8.9550856    469.34083  0.013514767  0.013285022         3851 
 2895000     0.781021   -8.9541828    468.62491  0.013489491  0.013278468         3861 
 2896000   0.78127356   -8.9567067    468.82733  0.013490658   0.01327192         3856 
 2897000   0.78915431   -8.9371394    469.28601  0.013499195  0.013265379         3859 
 2898000   0.78491155   -8.9345647    470.55132  0.013530921   0.01325884         3823 
 2899000   0.78148955   -8.9266883    469.56351  0.013497859  0.013252307         3851 
 2900000   0.80471772   -8.9488052    470.29676  0.013514275  0.013245772         3856 
 2901000   0.76989197   -8.9498591     469.2889  0.013480665  0.013239252         3807 
 2902000   0.79382458   -8.9493798    470.20592  0.013502353  0.013232736         3776 
 2903000   0.78766987   -8.9273867    470.44007  0.013504423  0.013226218         3812 
 2904000   0.78568867   -8.9564788    469.95718  0.013485915    0.0132197         3819 
 2905000   0.77987361   -8.9323857    470.19442  0.013488079  0.013213194         3800 
 2906000   0.80021003   -8.9714444    469.94863  0.013476389  0.013206689         3855 
 2907000   0.80824001   -8.9700366    468.93212  0.013442613  0.013200182         3851 
 2908000   0.78558821   -8.9455997    470.22023  0.013474903  0.013193685         3801 
 2909000   0.78557122   -8.9530289    470.08586  0.013466422  0.013187185         3875 
 2910000   0.78450924   -8.9403613    469.79037  0.013453333  0.013180699         3866 
 2911000   0.78353563   -8.9380572    469.63551  0.013444278  0.013174207         3838 
 2912000   0.77291862   -8.9558255    469.19161  0.013426958  0.013167719         3849 
 2913000   0.77252892   -8.9503683    470.20953  0.013451468  0.013161241         3809 
 2914000   0.77533771    -8.955689    469.85479  0.013436708  0.013154773         3839 
 2915000   0.79667427    -8.956173    470.29572  0.013444703  0.013148306         3849 
 2916000    0.7873684   -8.9574314    468.64325  0.013392868  0.013141834         3823 
 2917000   0.76256003   -8.9458284    469.64064  0.013416771  0.013135375         3819 
 2918000   0.77292864   -8.9490592    469.14754   0.01339809  0.013128912         3827 
 2919000    0.7784839   -8.9606317    468.81049  0.013383878  0.013122453         3861 
 2920000   0.78387894   -8.9464665    469.50022  0.013398979   0.01311599         3849 
 2921000    0.7997278   -8.9499102    469.33577    0.0133897  0.013109538         3836 
 2922000   0.77236403   -8.9560694    468.79538  0.013369706  0.013103083         3826 
 2923000   0.79043683   -8.9341431     469.3171  0.013380006  0.013096644         3818 
 2924000    0.7851682   -8.9511066    469.35197  0.013376424  0.013090202         3829 
 2925000   0.77511562   -8.9661392      470.047  0.013391652  0.013083772         3823 
 2926000   0.78550581   -8.9686541    469.36476  0.013367645  0.013077337         3867 
 2927000   0.77670344   -8.9559533     469.8357  0.013376486   0.01307091         3834 
 2928000   0.78630594   -8.9539744    469.85092  0.013372351  0.013064491         3855 
 2929000   0.78210192   -8.9418515    469.90912  0.013369441  0.013058077         3816 
 2930000   0.76893217   -8.9517177    470.59106  0.013384274  0.013051665         3818 
 2931000   0.79543726   -8.9593484    469.53186  0.013349592  0.013045252         3831 
 2932000   0.78103444   -8.9332397    470.21526  0.013364463   0.01303885         3854 
 2933000   0.79321554   -8.9449314    470.06586  0.013355661  0.013032448         3823 
 2934000   0.77478209   -8.9361904    469.92164  0.013347013  0.013026053         3821 
 2935000   0.77557913   -8.9422026    469.03026  0.013317157  0.013019653         3836 
 2936000   0.77357751    -8.960878    469.99691  0.013340058  0.013013263         3871 
 2937000   0.77596954   -8.9238445    470.34257  0.013345323  0.013006871         3850 
 2938000   0.77714916   -8.9676952    469.37857  0.013313438  0.013000491         3874 
 2939000   0.77860588   -8.9460791    470.09672  0.013329271  0.012994104         3839 
 2940000   0.75744303   -8.9485284    470.05507  0.013323556  0.012987725         3837 
 2941000   0.77859379   -8.9606933    468.44973  0.013273539  0.012981355         3850 
 2942000   0.77100281   -8.9635242    468.84396  0.013280194  0.012974981         3864 
 2943000   0.75902559   -8.9456395    469.79728  0.013302675  0.012968612         3836 
 2944000   0.77361344   -8.9884296    468.81553  0.013270367   0.01296225         3860 
 2945000   0.76840152   -8.9486177    469.97904  0.013298784  0.012955881         3849 
 2946000   0.79996186   -8.9483666    469.39914  0.013277867  0.012949522         3799 
 2947000   0.78652112   -8.9433238    470.54354  0.013305722  0.012943164         3848 
 2948000    0.7885165   -8.9407997    470.01449  0.013286253  0.012936806         3868 
 2949000   0.78555898   -8.9683558    469.15561  0.013257477  0.012930457         3865 
 2950000   0.78050571   -8.9449533    469.00134  0.013248625  0.012924111         3848 
 2951000   0.79191878   -8.9717361     470.3453  0.013282088  0.012917766         3879 
 2952000   0.78477462   -8.9755722    468.94087  0.013237942  0.012911425         3877 
 2953000    0.7750873    -8.979404    468.95362  0.013233819  0.012905081         3877 
 2954000   0.78850139   -8.9651399    468.70214  0.013222245  0.012898758         3860 
 2955000   0.77223876   -8.9548238    469.57366  0.013242348  0.012892426         3865 
 2956000   0.79127562   -8.9694745     468.6034  0.013210515  0.012886094         3852 
 2957000   0.77949272   -8.9814217    469.67659  0.013236292  0.012879775         3863 
 2958000     0.792282   -8.9646613    468.80057  0.013207138  0.012873456         3879 
 2959000   0.77090266   -8.9347029    469.70966  0.013228277  0.012867142         3852 
 2960000   0.78636252   -9.0197299    469.43524  0.013216082  0.012860836         3876 
 2961000   0.78503222   -8.9755689    468.94045  0.013197694  0.012854529         3845 
 2962000   0.78364908   -8.9734363    468.91826  0.013192614  0.012848228         3869 
 2963000   0.77723045   -8.9606783    469.65896  0.013208993  0.012841923         3855 
 2964000   0.77875966   -8.9482366    469.48278  0.013199583  0.012835623         3848 
 2965000   0.77625973   -8.9597128    468.38321  0.013164227  0.012829328         3859 
 2966000    0.7639721   -8.9696557      469.903  0.013202489  0.012823041         3800 
 2967000   0.78713694   -8.9624457    469.06442  0.013174486  0.012816759         3822 
 2968000   0.79066692   -8.9658069    468.43502  0.013152376  0.012810483         3814 
 2969000   0.76007699   -8.9353416    469.16758  0.013168507  0.012804201         3811 
 2970000   0.77074658   -8.9897656    468.22553  0.013137641  0.012797928         3837 
 2971000   0.77098007   -8.9909152    468.66857  0.013145646  0.012791656         3873 
 2972000   0.77645504   -8.9685181    470.41604  0.013190221  0.012785389         3843 
 2973000   0.78065589   -8.9458039    470.16154  0.013178651  0.012779121         3835 
 2974000   0.80104612    -8.973551    468.95527  0.013140419  0.012772864         3858 
 2975000   0.77140289     -8.97579    468.95942  0.013136118  0.012766598         3880 
 2976000   0.78315697   -9.0163519    468.15965  0.013109309  0.012760332         3848 
 2977000   0.78188758   -8.9469226    469.31871   0.01313735  0.012754082         3853 
 2978000    0.7852134   -8.9849425    468.70416  0.013115742  0.012747831         3864 
 2979000   0.77986875    -8.971546    469.10621  0.013122586  0.012741581         3832 
 2980000   0.76971747   -8.9609981    469.99931  0.013143157   0.01273534         3850 
 2981000   0.76211292    -8.956298    469.78988  0.013132894  0.012729102         3852 
 2982000   0.78401334   -8.9938685    468.77842  0.013100224  0.012722861         3849 
 2983000   0.77551443   -8.9695231      469.619  0.013119315  0.012716636         3845 
 2984000    0.7695534   -8.9563898    468.96857  0.013096754  0.012710403         3835 
 2985000   0.77555896   -8.9750457    468.48331  0.013078819  0.012704176         3838 
 2986000   0.78372926   -8.9869294    468.87763  0.013085444  0.012697951         3840 
 2987000   0.77010394   -8.9720171    468.59084  0.013073062  0.012691727         3873 
 2988000   0.75941103   -8.9791626    469.35373  0.013089964  0.012685514         3836 
 2989000   0.78947284   -8.9791207    469.38489  0.013086453   0.01267931         3843 
 2990000    0.7699106   -8.9713281    470.54323   0.01311436  0.012673106         3850 
 2991000   0.76378572   -8.9716918    468.59178  0.013055605  0.012666902         3875 
 2992000    0.7909978   -8.9679894    468.76297   0.01305601  0.012660704         3834 
 2993000   0.79083879   -8.9656674    470.07063  0.013088056  0.012654515         3858 
 2994000    0.7760974   -8.9783278    469.67125  0.013072569  0.012648327         3877 
 2995000   0.76911715   -8.9495374     469.3481  0.013059213  0.012642134         3847 
 2996000    0.7653991   -8.9666286    469.34042   0.01305464  0.012635945         3848 
 2997000   0.77441083   -8.9628873    469.10746  0.013043807  0.012629768         3839 
 2998000   0.78614108   -8.9946598    468.60944  0.013025613  0.012623588         3851 
 2999000   0.77238944   -8.9781736    468.32991  0.013013502  0.012617417         3841 
 3000000    0.7826157   -8.9907017    468.34686  0.013009635  0.012611251         3858 
 3001000   0.77765086   -8.9903857    469.85099  0.013047067  0.012605089         3844 
 3002000   0.77483018   -9.0079014    469.06011  0.013020767  0.012598924         3881 
 3003000   0.74959468   -8.9968892      469.087  0.013017177  0.012592753         3836 
 3004000   0.78002985   -8.9944884    468.19904  0.012988211  0.012586595         3875 
 3005000   0.76473366   -8.9974588    468.96929  0.013005249  0.012580447         3869 
 3006000   0.76001061   -8.9751234    469.12527  0.013005247  0.012574286         3872 
 3007000   0.77105147   -8.9542556    468.77398  0.012991187  0.012568142         3892 
 3008000   0.75901595   -8.9870279    468.07235   0.01296743     0.012562         3869 
 3009000   0.76329709    -8.982474    468.69547  0.012980377  0.012555862         3859 
 3010000    0.7810258   -8.9818777    469.34393  0.012994018  0.012549723         3877 
 3011000   0.75063213   -9.0090142    468.61684  0.012969579  0.012543588         3872 
 3012000   0.75518556   -8.9782923    469.79238  0.012997797  0.012537462         3868 
 3013000    0.7646381   -8.9978541    468.48975  0.012957455  0.012531339         3879 
 3014000   0.76416545   -8.9845135    469.74324  0.012987814  0.012525227         3875 
 3015000   0.78459108   -8.9813925    469.99505  0.012990466  0.012519108         3888 
 3016000   0.78558297   -8.9789057    469.71631  0.012978457  0.012512999         3850 
 3017000    0.7668529    -8.975387    469.89146  0.012978993  0.012506898         3873 
 3018000   0.76195886   -8.9989191    469.40148  0.012961163  0.012500798         3867 
 3019000   0.77976098   -8.9839524    467.97408  0.012917469  0.012494698         3900 
 3020000   0.77122757   -8.9885681    469.34633  0.012951058    0.0124886         3887 
 3021000    0.7668527   -8.9769736    469.36922  0.012947402  0.012482514         3865 
 3022000   0.77620589   -8.9852053     468.2672  0.012912729  0.012476425         3899 
 3023000   0.76521439   -8.9805352    468.49927  0.012914855  0.012470333         3861 
 3024000   0.77565499    -9.001188    468.89114  0.012921383  0.012464258         3885 
 3025000    0.7713058   -8.9633468    469.56111  0.012935568   0.01245818         3861 
 3026000    0.7825273   -8.9968574     468.5256  0.012902776  0.012452108         3885 
 3027000   0.76216598   -8.9990727    469.23603  0.012918071  0.012446047         3885 
 3028000   0.78147252   -9.0047882    468.74805  0.012900376  0.012439987         3898 
 3029000    0.7670372   -8.9927927    469.09283  0.012905602  0.012433933         3850 
 3030000   0.76266888   -8.9755325    469.65143  0.012916706  0.012427884         3874 
 3031000   0.75401293   -9.0055339    469.54721  0.012909579  0.012421837         3868 
 3032000   0.76897862   -8.9891782    469.03401  0.012891216  0.012415786         3850 
 3033000   0.74779236   -8.9812449    468.65435  0.012876534  0.012409742         3863 
 3034000   0.76414043   -9.0029761    469.91891  0.012907024    0.0124037         3875 
 3035000   0.76951907   -8.9782831    468.87131  0.012874006  0.012397651         3894 
 3036000   0.76503636   -9.0042562    467.29353  0.012826458  0.012391604         3878 
 3037000   0.76570199   -8.9943026    468.41246  0.012852938  0.012385567         3895 
 3038000   0.77191466   -8.9861676       468.58  0.012853303  0.012379532         3873 
 3039000   0.76527363   -8.9871276    469.09317  0.012863145  0.012373503         3866 
 3040000   0.76576447   -8.9902316    468.30858  0.012837406  0.012367467         3880 
 3041000   0.75398289   -9.0047626    468.75735  0.012845483  0.012361435         3861 
 3042000   0.74931331   -9.0014926    468.96355  0.012846908  0.012355412         3888 
 3043000   0.76075243    -8.983596    469.32689  0.012852637  0.012349387         3889 
 3044000   0.78377394   -9.0069284     468.3472  0.012821594  0.012343372         3874 
 3045000   0.78099869   -8.9843322    469.06554  0.012837043  0.012337362         3879 
 3046000   0.77141014   -8.9910572    468.15326   0.01280787  0.012331355         3879 
 3047000    0.7711119    -8.990445    468.42888  0.012811204  0.012325349         3880 
 3048000   0.76413519    -8.987834    468.67608   0.01281376  0.012319347         3878 
 3049000   0.76458874   -8.9908614    468.99115  0.012818168  0.012313343         3911 
 3050000   0.78564882   -8.9973516    469.42987  0.012825953  0.012307348         3870 
 3051000   0.76109851   -8.9965882    468.30379  0.012790992  0.012301358         3889 
 3052000   0.78182125   -9.0092308    469.08073  0.012808015  0.012295367         3881 
 3053000   0.76652119   -9.0173197     468.4447  0.012786459   0.01228938         3890 
 3054000   0.75904246   -8.9813453    469.51808  0.012811561    0.0122834         3864 
 3055000   0.75978885    -9.005724    469.10927  0.012796216  0.012277422         3881 
 3056000   0.75431244   -8.9738755     468.9476   0.01278762  0.012271451         3883 
 3057000   0.75976236   -9.0050197    469.06533  0.012786646  0.012265487         3890 
 3058000   0.76353188   -8.9819855    469.63913  0.012798101  0.012259519         3868 
 3059000   0.75560073   -9.0045767    468.50416  0.012762999  0.012253558         3896 
 3060000   0.76886365   -9.0034087    469.08352  0.012774606  0.012247602         3880 
 3061000   0.75880837   -8.9975018    469.66628  0.012786298  0.012241652         3901 
 3062000   0.74235287   -8.9901974    468.93023   0.01276209    0.0122357         3862 
 3063000   0.75687492    -8.994298    468.02012  0.012733163  0.012229754         3865 
 3064000   0.76246503   -8.9947007    468.70258  0.012747568  0.012223817         3885 
 3065000    0.7659678   -8.9951574    467.91813  0.012722081   0.01221787         3868 
 3066000   0.75941652   -9.0058049      468.393  0.012730838   0.01221193         3874 
 3067000   0.77704414   -9.0291043    467.79045  0.012710315  0.012206001         3881 
 3068000   0.75896449   -9.0133335    468.48471   0.01272503  0.012200069         3891 
 3069000   0.76780866   -8.9867424    469.31698  0.012743483  0.012194145         3896 
 3070000   0.77099425   -9.0181266    468.32605  0.012712433  0.012188222         3911 
 3071000   0.75555036   -9.0192572    469.26611  0.012733803  0.012182306         3889 
 3072000   0.76466828   -9.0030465    468.47769  0.012708271  0.012176395         3851 
 3073000    0.7624696   -9.0012766    468.16132  0.012695556  0.012170485         3870 
 3074000   0.77696349   -9.0202317    468.36776  0.012697022  0.012164584         3873 
 3075000   0.76563621   -9.0406151    468.59285  0.012698993  0.012158682         3858 
 3076000   0.75946829   -9.0191886    469.07572  0.012707946  0.012152777         3892 
 3077000   0.74153109   -8.9844428    469.44045  0.012713694  0.012146882         3902 
 3078000   0.77010346   -9.0043675    468.74462  0.012690725  0.012140986         3895 
 3079000   0.75695013   -9.0074871    467.78221  0.012660556  0.012135093         3895 
 3080000   0.76389182   -9.0330115    467.77333  0.012656205  0.012129198         3862 
 3081000   0.75996928   -8.9973379    469.21502  0.012691091   0.01212331         3904 
 3082000   0.77244192   -9.0241073     468.6972  0.012672972  0.012117425         3882 
 3083000   0.73989734    -9.019036    468.09401  0.012652557  0.012111543         3876 
 3084000   0.75918406   -9.0094139    469.04065  0.012674034  0.012105663         3851 
 3085000   0.75424468   -9.0000817    469.22943  0.012675025  0.012099792         3875 
 3086000   0.76542147    -8.993389    467.99582  0.012637606   0.01209392         3870 
 3087000   0.74073421   -9.0227312    468.77739   0.01265461   0.01208805         3840 
 3088000   0.77303677   -8.9956684    468.89781  0.012653762  0.012082185         3857 
 3089000   0.75025928   -8.9765329     468.5884  0.012641319  0.012076326         3874 
 3090000   0.76132751   -8.9996534    468.54608  0.012636086  0.012070472         3874 
 3091000   0.75963288   -9.0175362    468.44558  0.012629289  0.012064624         3868 
 3092000   0.75890136   -9.0119475    468.57384  0.012628661   0.01205878         3891 
 3093000   0.75278283   -9.0013677    468.44322  0.012621059  0.012052933         3888 
 3094000   0.75771266   -9.0148656    468.50244  0.012618575  0.012047094         3869 
 3095000    0.7759695   -9.0076563    468.90471  0.012625329  0.012041261         3884 
 3096000   0.75563591   -9.0073674    468.85483  0.012619908  0.012035428         3887 
 3097000   0.76611804   -9.0121513    468.88792  0.012616724  0.012029601         3860 
 3098000   0.76243813   -9.0146234    467.98901  0.012588471  0.012023779         3881 
 3099000   0.74031125   -9.0369578     468.1095  0.012587649  0.012017955         3883 
 3100000   0.74895299   -9.0334283    468.43048  0.012592217  0.012012133         3901 
 3101000   0.74431786   -8.9938597     468.6422  0.012593846   0.01200632         3873 
 3102000   0.76433491   -9.0161668    467.61089  0.012562081  0.012000507         3841 
 3103000   0.75704145   -9.0098982    469.08939  0.012597738  0.011994698         3866 
 3104000    0.7638146   -9.0245745    468.44846  0.012576473   0.01198889         3883 
 3105000   0.75776285   -9.0057877     468.3572  0.012569973  0.011983092         3884 
 3106000   0.75305397   -9.0068841    468.69669  0.012575035  0.011977294         3883 
 3107000   0.75099996   -9.0133178    467.86293  0.012548625  0.011971491         3889 
 3108000   0.75725952   -9.0055498    468.22254  0.012554229  0.011965696         3862 
 3109000   0.75678921   -9.0072246    468.92189  0.012568937  0.011959908         3853 
 3110000   0.75323041   -9.0011247    468.86479  0.012563365  0.011954118         3888 
 3111000   0.75413192   -9.0142561    468.82481  0.012558256  0.011948331         3880 
 3112000    0.7362583   -9.0145059    468.57525  0.012547538  0.011942549         3867 
 3113000   0.75922965   -9.0106421    469.25932  0.012561819  0.011936779         3873 
 3114000   0.73935358   -9.0005588    469.06877  0.012552686  0.011931009         3872 
 3115000   0.75226723   -9.0077621    468.45996  0.012532369   0.01192524         3864 
 3116000   0.74171749   -9.0344119    467.99418  0.012515891  0.011919475         3891 
 3117000   0.74978481   -8.9970902    468.42939  0.012523511  0.011913718         3853 
 3118000   0.73198796   -9.0128715    468.65603  0.012525551  0.011907963         3886 
 3119000   0.77098754   -9.0185634    467.49679  0.012490563   0.01190221         3896 
 3120000   0.75439892    -9.033303    468.41206  0.012511006  0.011896457         3877 
 3121000    0.7633326   -9.0181975    467.11051  0.012472245  0.011890705         3895 
 3122000   0.74605446   -9.0292544    467.40972  0.012476236   0.01188496         3842 
 3123000   0.77022161    -9.038872     467.4366  0.012472959  0.011879216         3879 
 3124000   0.75196896   -9.0193917    467.71876  0.012476493   0.01187349         3888 
 3125000   0.75959906   -9.0171143    469.40584  0.012517489  0.011867764         3884 
 3126000   0.75173905   -9.0069049    468.97203   0.01250192  0.011862031         3874 
 3127000   0.74334586   -9.0065675    468.03919  0.012473062  0.011856313         3888 
 3128000   0.73729956   -9.0026267    468.17973  0.012472819  0.011850599         3878 
 3129000   0.76402565   -9.0326406    468.87591  0.012487374   0.01184488         3892 
 3130000   0.74118426   -9.0186803    467.99605  0.012459959  0.011839167         3866 
 3131000   0.75111733   -9.0215734    467.19179  0.012434573  0.011833459         3891 
 3132000   0.76270219   -9.0540445    468.30469  0.012460214  0.011827756         3867 
 3133000   0.73964987   -9.0188029    468.65542  0.012465566  0.011822054         3926 
 3134000   0.73935995   -9.0197989    468.21578  0.012449898   0.01181635         3890 
 3135000   0.72940517   -9.0205119    469.43789  0.012478413  0.011810646         3895 
 3136000   0.75780619    -9.011424    468.93394  0.012461042  0.011804959         3883 
 3137000    0.7611064   -9.0498318    468.38187  0.012442404   0.01179928         3865 
 3138000   0.75007983   -9.0082144    467.94882  0.012426939  0.011793597         3875 
 3139000   0.76507343   -9.0117685    468.73292  0.012443796  0.011787923         3877 
 3140000   0.74094187     -9.03103    467.69473  0.012412281  0.011782252         3874 
 3141000   0.73635344   -8.9878469    468.74434  0.012436176   0.01177658         3848 
 3142000   0.72951603   -9.0200217    468.96525  0.012438077  0.011770917         3891 
 3143000   0.74722262   -9.0018724    468.35027  0.012417814  0.011765254         3891 
 3144000   0.75295719   -9.0068718    468.63065  0.012421296  0.011759585         3850 
 3145000   0.73915173   -9.0643892     467.2261   0.01238013  0.011753922         3896 
 3146000   0.74905586   -9.0137469     468.4736  0.012409239  0.011748258         3861 
 3147000   0.75400254   -9.0227758     469.1905   0.01242428    0.0117426         3903 
 3148000   0.76257979   -9.0214255     468.2654  0.012395844  0.011736948         3892 
 3149000   0.73954863    -9.010957    468.25862  0.012391728  0.011731301         3866 
 3150000   0.72948177   -9.0353819    467.28567  0.012362055  0.011725654         3896 
 3151000   0.74415646   -9.0130268    468.47335  0.012389542  0.011720008         3891 
 3152000   0.73270038   -9.0404386    468.30585  0.012381183  0.011714361         3876 
 3153000   0.73257049   -9.0202135    468.30434  0.012377216  0.011708719         3861 
 3154000   0.75205187   -9.0248208    468.48259  0.012378001  0.011703088         3861 
 3155000   0.75881284   -9.0264871    468.14346   0.01236512  0.011697461         3875 
 3156000   0.73128456    -9.040851    468.12133  0.012360618  0.011691829         3888 
 3157000   0.75021543   -9.0061283     469.2305  0.012385981  0.011686205         3863 
 3158000   0.75377638   -9.0191682    468.85632  0.012372185  0.011680583         3875 
 3159000   0.75268212   -9.0296434    468.33077  0.012354405   0.01167497         3904 
 3160000   0.74665709   -9.0182511    469.34815  0.012377325  0.011669356         3884 
 3161000   0.75347669   -9.0181141    469.61157  0.012380354  0.011663748         3867 
 3162000    0.7446928   -9.0418852    467.79253  0.012328498  0.011658144         3891 
 3163000   0.72278849    -9.034908    468.55928  0.012344801  0.011652542         3887 
 3164000   0.74301926   -9.0197403    468.88493  0.012349477  0.011646945         3897 
 3165000   0.74498358    -9.016378    467.96092  0.012321246  0.011641345         3899 
 3166000   0.76460811   -9.0301063    467.51869  0.012305714  0.011635747         3880 
 3167000    0.7385591   -9.0484317     467.1475  0.012292061  0.011630151         3871 
 3168000   0.73290359   -9.0409602    467.55908  0.012299008   0.01162456         3884 
 3169000   0.73695294   -9.0060232    468.34284  0.012315737   0.01161898         3883 
 3170000   0.74491401   -9.0259786     468.2759  0.012310092  0.011613398         3884 
 3171000    0.7464667   -9.0388232     468.7923  0.012319781  0.011607821         3882 
 3172000   0.73524344   -9.0262181    468.36998  0.012304802  0.011602247         3887 
 3173000   0.73971809   -9.0376298    468.17652  0.012295843  0.011596684         3884 
 3174000   0.74245954   -9.0543342    467.00308   0.01226116   0.01159112         3893 
 3175000   0.73434613   -9.0344231    468.09547   0.01228597  0.011585558         3896 
 3176000   0.74460747   -9.0482629    468.29137  0.012287242  0.011579995         3897 
 3177000   0.74100989   -9.0131163     468.0074  0.012275926  0.011574438         3863 
 3178000   0.75411384    -9.031393    468.53446  0.012285884  0.011568884         3898 
 3179000   0.73265579   -9.0266733    468.01491    0.0122684  0.011563334         3896 
 3180000   0.74582062   -9.0453139    468.07805  0.012266196  0.011557793         3889 
 3181000   0.74283724   -9.0398777    468.32288  0.012268754  0.011552246         3869 
 3182000     0.732739     -9.05664    468.04742  0.012257684  0.011546705         3851 
 3183000   0.74452767   -9.0247643    466.97219  0.012225683  0.011541173         3874 
 3184000    0.7481231   -9.0287099    468.85743  0.012271185  0.011535636         3900 
 3185000   0.74124908   -9.0572173    468.14151    0.0122486  0.011530098         3872 
 3186000   0.73184012    -9.047966    467.30147  0.012222784  0.011524567         3883 
 3187000   0.74900703   -9.0395304    468.07825   0.01223926  0.011519045         3885 
 3188000    0.7356739   -9.0320393    468.24624  0.012239812  0.011513525         3913 
 3189000    0.7291371   -9.0355484    468.77142  0.012249697  0.011508009         3897 
 3190000   0.73088094   -9.0573125    467.49022  0.012212388  0.011502488         3883 
 3191000   0.72447624   -9.0358344    468.28711  0.012229372  0.011496976         3885 
 3192000   0.73499952   -9.0336787    468.48494  0.012230705  0.011491471         3909 
 3193000   0.74156942   -9.0178204     468.0868  0.012216484  0.011485964         3887 
 3194000   0.72415566   -9.0301461    467.77875  0.012204622  0.011480465         3868 
 3195000   0.74340693   -9.0363285    467.77285  0.012200648  0.011474971         3899 
 3196000   0.74858988   -9.0337675    466.97695  0.012176078  0.011469476         3889 
 3197000   0.73370453   -9.0287332     468.8706   0.01222163  0.011463979         3878 
 3198000   0.74960283   -9.0264511    468.19621  0.012200235  0.011458492         3862 
 3199000   0.75004063   -9.0402366    469.04128  0.012218435   0.01145301         3911 
 3200000   0.73164514   -9.0258968    468.89872  0.012210904  0.011447531         3883 
 3201000   0.74977975   -9.0427947    468.46907  0.012195904  0.011442065         3844 
 3202000   0.74693703   -9.0543505     467.4026   0.01216434  0.011436597         3892 
 3203000    0.7452139   -9.0457577    467.55932   0.01216462  0.011431134         3853 
 3204000   0.75811884   -9.0411495    467.57187  0.012161149  0.011425661         3888 
 3205000   0.72952316   -9.0394575    468.49871  0.012181454  0.011420198         3862 
 3206000   0.72918019   -9.0540839    467.21493  0.012144285  0.011414734         3886 
 3207000   0.73727629   -9.0359744    467.88735  0.012157971  0.011409274         3868 
 3208000   0.72770433   -9.0491852    467.68364  0.012148889  0.011403813         3862 
 3209000   0.73513753   -9.0464157    467.74256  0.012146633  0.011398361         3880 
 3210000   0.72617058    -9.053173    467.51051  0.012136825  0.011392909         3890 
 3211000   0.73067446   -9.0295944    467.97907  0.012145206  0.011387459         3886 
 3212000    0.7411252   -9.0504286    467.38162  0.012125924   0.01138201         3896 
 3213000   0.72224643   -9.0357194    468.01767  0.012138647  0.011376566         3853 
 3214000   0.73403156   -9.0362918    467.40047  0.012118867  0.011371136         3870 
 3215000   0.72299656   -9.0356145    467.37838  0.012114525  0.011365705         3853 
 3216000    0.7405853    -9.044876    467.06713  0.012102693  0.011360273         3861 
 3217000   0.73100833   -9.0465788    467.27491  0.012104313   0.01135484         3890 
 3218000   0.74042753   -9.0698722    466.95042  0.012092149  0.011349408         3893 
 3219000   0.75075263   -9.0442261    467.62618  0.012105886  0.011343983         3870 
 3220000   0.74304914   -9.0289341    467.76045  0.012105602  0.011338563         3854 
 3221000   0.74167103   -9.0658631    467.02652  0.012082855  0.011333141         3916 
 3222000   0.74086076   -9.0557359    467.28624  0.012085823  0.011327731         3883 
 3223000    0.7415109    -9.034809     468.3058  0.012108434  0.011322323         3899 
 3224000   0.72522903   -9.0258768    467.63231   0.01208727  0.011316915         3898 
 3225000    0.7410091   -9.0735699    467.69827  0.012085227  0.011311509         3887 
 3226000   0.73939332   -9.0493328    468.25352  0.012095823  0.011306103         3912 
 3227000   0.75964751   -9.0641831    466.78026   0.01205403  0.011300692         3897 
 3228000   0.72356932   -9.0505561    467.40587  0.012066446  0.011295296         3908 
 3229000    0.7360162   -9.0541565    467.57181  0.012066992  0.011289895         3919 
 3230000   0.74661544   -9.0600448    466.86635  0.012045056  0.011284503         3884 
 3231000   0.74082906   -9.0283605     467.0182  0.012045244  0.011279111         3897 
 3232000   0.73758028     -9.06026    467.29725  0.012048712  0.011273723         3898 
 3233000   0.73956596   -9.0603971    467.21059  0.012042752  0.011268339         3872 
 3234000   0.72920676   -9.0611478    467.87393  0.012056121  0.011262955         3880 
 3235000   0.74585536   -9.0492621    467.64539  0.012046507  0.011257581         3878 
 3236000   0.73304254   -9.0702404    468.06349  0.012053551  0.011252207         3896 
 3237000   0.73986985   -9.0587852    468.14765  0.012051994  0.011246836         3870 
 3238000   0.71859394   -9.0470954    468.46153   0.01205635  0.011241466         3885 
 3239000   0.73884814   -9.0397998    468.46202   0.01205264  0.011236107         3888 
 3240000   0.76388537    -9.059106    466.35609  0.011994755  0.011230748         3906 
 3241000   0.74680332   -9.0751423    466.91838  0.012005512  0.011225389         3912 
 3242000   0.73511107   -9.0615726    467.10429  0.012006588  0.011220037         3918 
 3243000   0.74470557   -9.0467763    468.63813    0.0120423  0.011214684         3893 
 3244000   0.72126954   -9.0616647    468.54051   0.01203608  0.011209341         3882 
 3245000   0.73016157   -9.0614516    467.61436  0.012008586  0.011203995         3890 
 3246000    0.7270238   -9.0725362    467.73171    0.0120079  0.011198652         3900 
 3247000   0.74886784   -9.0690583    466.88373  0.011982438  0.011193306         3921 
 3248000   0.72664823   -9.0642605    467.56597  0.011996253  0.011187966         3887 
 3249000   0.73845282   -9.0690635    467.24384  0.011984299  0.011182628         3893 
 3250000   0.73058192   -9.0659815    467.03751  0.011975321  0.011177303         3877 
 3251000   0.72491496   -9.0805377    466.90998  0.011968368  0.011171974         3905 
 3252000   0.71421924   -9.0584906    466.85808  0.011963358  0.011166645         3871 
 3253000   0.71757692   -9.0674358    466.62423   0.01195369  0.011161321         3896 
 3254000   0.72623346   -9.0333037    467.53198  0.011973263     0.011156         3851 
 3255000   0.73137211   -9.0905641    466.31864  0.011938521  0.011150686         3886 
 3256000   0.73822545   -9.0644402     467.8043  0.011972878  0.011145376         3907 
 3257000   0.73198941   -9.0605008    467.81363  0.011969441  0.011140071         3903 
 3258000   0.75316826   -9.0753172    467.51069  0.011958018  0.011134766         3903 
 3259000    0.7371592   -9.0586585    467.43763  0.011952481   0.01112946         3929 
 3260000   0.73059429   -9.0776222    467.16342  0.011941805  0.011124163         3913 
 3261000   0.72694198   -9.0795988    467.24662  0.011940269  0.011118874         3904 
 3262000    0.7259358    -9.079821    466.35268  0.011913772  0.011113587         3895 
 3263000   0.72084614   -9.0757972    467.04761  0.011927868  0.011108302         3915 
 3264000   0.74357494    -9.085145     466.8315  0.011918696  0.011103016         3906 
 3265000   0.73359138   -9.0569429    467.78397  0.011939356  0.011097733         3918 
 3266000   0.72889573   -9.0378858    467.48535  0.011928081  0.011092459         3886 
 3267000   0.72482198   -9.0851256    467.69933  0.011929888  0.011087184         3896 
 3268000   0.72276012   -9.0445455    467.09426  0.011910808  0.011081915         3901 
 3269000   0.72753849    -9.059634    466.92217  0.011902778  0.011076652         3896 
 3270000   0.71298111   -9.0657471    467.12406  0.011904283  0.011071386         3916 
 3271000    0.7225503   -9.0661082    467.05423  0.011898864  0.011066133         3920 
 3272000   0.72320282   -9.0679054      466.943  0.011892395  0.011060876         3906 
 3273000   0.71432258   -9.0402303    467.76728  0.011909749  0.011055618         3919 
 3274000   0.72937672   -9.0532692    466.67939  0.011878421  0.011050364         3921 
 3275000   0.73355407   -9.0763247    467.08009   0.01188499  0.011045107         3897 
 3276000   0.73624877   -9.0683543     467.5673  0.011893755  0.011039861         3912 
 3277000   0.73157676   -9.0561111      467.077  0.011877657  0.011034609         3902 
 3278000   0.71051782   -9.0624305       467.17  0.011876398  0.011029365         3928 
 3279000   0.74551739   -9.0479373    468.20933   0.01189919  0.011024125         3902 
 3280000   0.74399619   -9.0672999    466.34009  0.011848071   0.01101889         3904 
 3281000   0.73405048   -9.0483256    468.03703   0.01188756  0.011013658         3928 
 3282000   0.74675892   -9.0772133    466.94399  0.011856185  0.011008429         3932 
 3283000   0.71212898   -9.0645163    467.53171  0.011867492  0.011003204         3911 
 3284000   0.72712737   -9.0677809    467.44103  0.011861577  0.010997974         3912 
 3285000   0.72405388   -9.0710332    466.44371  0.011832666   0.01099275         3907 
 3286000   0.72326197   -9.0725245    467.31741  0.011851223  0.010987531         3921 
 3287000   0.73648858   -9.0377523    466.38153   0.01182389  0.010982317         3905 
 3288000   0.72639294   -9.0460305    466.65129  0.011827131  0.010977108         3888 
 3289000   0.72169482   -9.0690181    466.93856  0.011830814  0.010971895         3904 
 3290000   0.71943688    -9.076476    466.78664   0.01182337  0.010966689         3929 
 3291000   0.72356707   -9.0745992    467.96448  0.011849602  0.010961481         3904 
 3292000   0.71764807   -9.0721243     467.0054  0.011821724   0.01095628         3891 
 3293000   0.72609724   -9.0465133    468.97796  0.011868052  0.010951087         3915 
 3294000   0.73607947   -9.0688049    466.76647  0.011808502  0.010945894         3888 
 3295000   0.73175626   -9.0821996    466.91434  0.011808658  0.010940698         3909 
 3296000   0.73901629   -9.0603571     467.4123  0.011817665  0.010935508         3894 
 3297000     0.716895   -9.0728931    467.09338   0.01180602  0.010930321         3902 
 3298000   0.70930206   -9.0659397    467.11908   0.01180309  0.010925136         3916 
 3299000   0.72441573   -9.0903217    466.81025  0.011791711  0.010919951         3899 
 3300000   0.72684943   -9.0691557      466.928  0.011791111  0.010914768         3908 
 3301000   0.71209448   -9.0490041    467.85346  0.011810902  0.010909599         3899 
 3302000   0.71834301   -9.0473541    467.38046  0.011795388  0.010904427         3893 
 3303000   0.72121171   -9.0437999    466.62687  0.011772804  0.010899256         3898 
 3304000   0.72642937   -9.0712209    467.07485   0.01178054  0.010894086         3892 
 3305000   0.73325055   -9.0809571    466.61032  0.011765263   0.01088892         3906 
 3306000   0.72259568   -9.0749944    466.88975  0.011768747  0.010883761         3900 
 3307000   0.71558489   -9.0593808    468.11163  0.011795979  0.010878599         3883 
 3308000   0.71905072   -9.0794607    466.95629  0.011763308   0.01087345         3889 
 3309000   0.71743141   -9.0755338    466.89734  0.011758269  0.010868302         3894 
 3310000   0.73979447   -9.0818866    467.05739  0.011758746  0.010863154         3908 
 3311000   0.69527963   -9.0777058    466.78308  0.011748291  0.010858012         3914 
 3312000   0.71032293   -9.0655422    466.60765  0.011740329  0.010852871         3903 
 3313000   0.73464525   -9.0980191    466.96791  0.011745847  0.010847734         3924 
 3314000   0.71172211   -9.0951304     467.4345  0.011754036  0.010842595         3918 
 3315000   0.71918641   -9.0705791    467.16235  0.011743649  0.010837463         3915 
 3316000   0.71468629   -9.0890871    466.72151  0.011729029  0.010832331         3916 
 3317000   0.70879708   -9.0730275    466.83457  0.011728333  0.010827205         3921 
 3318000   0.72648785   -9.0718341    466.65883  0.011720384  0.010822079         3913 
 3319000   0.72497908   -9.0708665    467.47512  0.011737348   0.01081696         3920 
 3320000   0.71963993   -9.0796749     465.3788  0.011681195  0.010811848         3908 
 3321000   0.73309455   -9.0825277    466.84648  0.011714506  0.010806735         3910 
 3322000   0.70800833   -9.0812176    466.19334  0.011694595  0.010801622         3910 
 3323000    0.7240437   -9.0750297    467.37113  0.011720612  0.010796512         3901 
 3324000   0.72225835   -9.0890628    466.67447  0.011699621  0.010791405         3932 
 3325000    0.7321795   -9.0756663    467.38101   0.01171381  0.010786308         3912 
 3326000   0.72823928   -9.0744704    467.03345   0.01170158  0.010781213         3924 
 3327000   0.71708074   -9.0928413    466.37098  0.011681469  0.010776125         3923 
 3328000   0.73180389   -9.0624364    466.67004  0.011685448   0.01077103         3914 
 3329000   0.71811071   -9.0741211    467.57917  0.011704695  0.010765935         3924 
 3330000   0.71614883   -9.0746194    466.69728  0.011679111  0.010760852         3911 
 3331000   0.72611776   -9.0752981    466.22329  0.011663747  0.010755766         3919 
 3332000   0.71382885   -9.0888702    467.45697  0.011691101  0.010750695         3881 
 3333000   0.72266659   -9.0831206      467.664  0.011692769  0.010745615         3907 
 3334000   0.72624119   -9.0841645    467.00209  0.011672718  0.010740539         3904 
 3335000   0.72713128   -9.0939566    467.45873  0.011680628  0.010735469         3912 
 3336000   0.70446662   -9.1023492    466.68757  0.011657863    0.0107304         3904 
 3337000   0.70755015   -9.0857481    466.52509  0.011650312  0.010725333         3897 
 3338000   0.70487928    -9.073622    465.57336  0.011623062  0.010720272         3903 
 3339000   0.71002291   -9.0950822    466.65839   0.01164666  0.010715216         3921 
 3340000   0.71351781   -9.0827336    466.88679  0.011648872  0.010710162         3897 
 3341000   0.70544177   -9.1063782    466.43116  0.011634021  0.010705111         3915 
 3342000   0.71127015   -9.0800911    467.17013  0.011648966  0.010700061         3915 
 3343000    0.7160376   -9.0929888    466.49786  0.011628723  0.010695016         3914 
 3344000   0.70971396   -9.0705535    467.47582  0.011649617   0.01068997         3901 
 3345000   0.71600358   -9.1024455    466.63529  0.011625194   0.01068493         3920 
 3346000   0.72479344   -9.0745265    467.07005  0.011632548  0.010679891         3903 
 3347000    0.7119209   -9.0910169    466.54542   0.01161601  0.010674855         3929 
 3348000   0.71254821   -9.0694383    466.92309  0.011621941  0.010669823         3911 
 3349000   0.73502931   -9.0790293    466.11453  0.011598351  0.010664799         3916 
 3350000   0.71770742   -9.0900273    466.07463  0.011593896  0.010659775         3921 
 3351000   0.70975731   -9.0762458    466.93563  0.011611848  0.010654751         3913 
 3352000   0.70736416   -9.0936587    466.87677   0.01160692  0.010649732         3904 
 3353000   0.70912223   -9.0876291    467.06046  0.011608024  0.010644719         3893 
 3354000   0.72195949   -9.0779794    467.27447   0.01160988  0.010639707         3916 
 3355000   0.69878531   -9.0869877    466.47126   0.01158647  0.010634695         3896 
 3356000   0.71562948   -9.0730219    466.14643  0.011574951  0.010629688         3906 
 3357000   0.70285865   -9.0750773    467.18564    0.0115973  0.010624682         3914 
 3358000   0.71651528   -9.1099171    467.18331  0.011593789  0.010619689         3887 
 3359000    0.7040542   -9.0980371    466.78459  0.011580445   0.01061469         3916 
 3360000   0.70956269   -9.0763613     467.0771  0.011584253  0.010609687         3892 
 3361000   0.71530082   -9.0938845     467.6395  0.011594751  0.010604693         3923 
 3362000   0.71143202    -9.089801    466.46647  0.011562227  0.010599696         3906 
 3363000   0.70980974    -9.092739    466.32587  0.011555305  0.010594707         3904 
 3364000   0.70393607   -9.0944098    466.68448  0.011560753  0.010589719         3913 
 3365000   0.72546285   -9.0796971    466.59812  0.011555179  0.010584735         3897 
 3366000   0.71887616   -9.0807434    466.98969   0.01156144  0.010579755         3904 
 3367000   0.70816974   -9.0933414    466.34171  0.011541969  0.010574777         3913 
 3368000   0.70148484   -9.0942301    466.22585  0.011535675  0.010569805         3898 
 3369000   0.70326417   -9.0669922    467.08512  0.011553505  0.010564831         3906 
 3370000   0.71585347   -9.0859723    466.77022   0.01154229  0.010559861         3895 
 3371000   0.71653709   -9.0683825    466.64097  0.011535671  0.010554892         3922 
 3372000   0.72483594    -9.069556     466.8884  0.011538365  0.010549931         3903 
 3373000   0.69525097   -9.1090395    466.59227  0.011527628  0.010544972         3905 
 3374000   0.72086168   -9.0944425    466.77881  0.011528819  0.010540011         3885 
 3375000    0.7058721   -9.0849602     466.9766  0.011530286  0.010535058         3911 
 3376000   0.72225911   -9.0833384    466.71892   0.01152051  0.010530103         3877 
 3377000   0.72395405   -9.1028281    465.82137   0.01149495  0.010525152         3921 
 3378000   0.70748055   -9.0874598    465.83963  0.011491998  0.010520211         3918 
 3379000   0.70175008    -9.090309    465.94949  0.011491306  0.010515267         3913 
 3380000   0.70505951   -9.0846862    466.50827  0.011501683  0.010510332         3907 
 3381000   0.70488078   -9.1092712    466.17829  0.011490148  0.010505391         3927 
 3382000   0.70803987   -9.0950393    465.33904  0.011466071   0.01050046         3933 
 3383000   0.71963021   -9.0894211    466.53754  0.011492205  0.010495531         3921 
 3384000   0.70695703   -9.0858839    467.52219  0.011513056  0.010490608         3902 
 3385000   0.73486415   -9.1331749    464.86254  0.011444179  0.010485684         3936 
 3386000   0.71974048   -9.0847004     466.2632  0.011475271  0.010480767         3918 
 3387000   0.71225047   -9.1180723    464.99011   0.01144056  0.010475843         3912 
 3388000   0.71790783   -9.0870303    466.54471  0.011475421  0.010470924         3908 
 3389000   0.71298408   -9.0970335    466.45517  0.011469833   0.01046601         3914 
 3390000   0.69272738   -9.1080092    466.47716   0.01146699  0.010461096         3908 
 3391000   0.70877278   -9.1129135    466.72214  0.011469629  0.010456196         3908 
 3392000   0.72249041    -9.106184    466.19818  0.011453375  0.010451298         3913 
 3393000   0.71233239   -9.1070501    465.43728  0.011431311  0.010446399         3897 
 3394000    0.7113144   -9.1110698    466.03334  0.011442579  0.010441501         3897 
 3395000   0.71565189    -9.091884    466.76519  0.011457172  0.010436614         3929 
 3396000   0.71351787   -9.1085605    466.47705  0.011446728  0.010431717         3917 
 3397000   0.69259287   -9.1266341     466.0897  0.011433856  0.010426826         3888 
 3398000   0.70148013   -9.0870264    467.14659   0.01145641  0.010421934         3905 
 3399000   0.71511159   -9.1010687    466.44966  0.011435953  0.010417052         3916 
 3400000   0.70882581   -9.0923758    465.36937  0.011406112  0.010412174         3903 
 3401000   0.71653915    -9.082261    465.80805  0.011413507  0.010407298         3910 
 3402000    0.6754162   -9.0951394    466.05815  0.011416278  0.010402424         3898 
 3403000   0.70676547    -9.098136    465.93754   0.01140997  0.010397558         3920 
 3404000   0.70540499   -9.1078727    466.53612  0.011421272  0.010392694         3902 
 3405000   0.70173049   -9.0875227    466.13762  0.011408165  0.010387826         3906 
 3406000   0.71758805   -9.1116589     465.7901  0.011396313  0.010382971         3898 
 3407000    0.7127633    -9.111046    465.65752  0.011389725  0.010378111         3913 
 3408000   0.70163398   -9.1074414    466.26279  0.011401183  0.010373263         3898 
 3409000   0.71615236   -9.0993179    466.96712  0.011415056  0.010368412         3902 
 3410000   0.71654062   -9.0926831    465.65635  0.011379676  0.010363558         3913 
 3411000   0.71643618    -9.112324    465.93139  0.011383059  0.010358714         3916 
 3412000    0.7175873   -9.1032527    466.12055  0.011384343   0.01035387         3913 
 3413000   0.68507824   -9.0750289    466.34536  0.011386497  0.010349031         3914 
 3414000   0.71149116   -9.1177483    465.39853   0.01136005  0.010344195         3934 
 3415000   0.67622571   -9.0993337    466.14585   0.01137496  0.010339359         3900 
 3416000   0.70569572   -9.1182118    465.62561  0.011358938  0.010334522         3911 
 3417000   0.71282065   -9.1030599    466.24766  0.011370785   0.01032969         3918 
 3418000   0.70589792   -9.0790858    466.22367  0.011366873  0.010324865         3875 
 3419000   0.71352619   -9.1030615    466.44963  0.011369056  0.010320038         3906 
 3420000   0.70637162   -9.0655579    466.97704  0.011378583  0.010315217         3880 
 3421000   0.71089373   -9.0926852    465.93324   0.01134983  0.010310397         3892 
 3422000   0.70839223    -9.121439    465.83789  0.011344192  0.010305584         3884 
 3423000   0.70489284   -9.0996942    465.79232  0.011339768  0.010300771         3892 
 3424000   0.68922439   -9.1220316    466.41476  0.011351605  0.010295965         3885 
 3425000   0.70962837   -9.1048408     466.0943  0.011340494  0.010291158         3908 
 3426000   0.70680722   -9.1084509    466.59768  0.011349428  0.010286362         3936 
 3427000   0.70045013   -9.1071261    466.35822  0.011340293  0.010281561         3911 
 3428000   0.69439583   -9.1259323    465.90994  0.011326088  0.010276761         3909 
 3429000   0.69435704   -9.1026837    465.76229  0.011319196  0.010271969         3917 
 3430000   0.70873952   -9.1143487    465.41927  0.011307562  0.010267183         3913 
 3431000   0.72755306   -9.0974242    465.99974  0.011318366  0.010262394         3913 
 3432000   0.69800802   -9.1138662    465.64886  0.011306548  0.010257609         3909 
 3433000   0.71806557   -9.0823081    466.38932  0.011321228  0.010252824         3933 
 3434000   0.68448989   -9.0819573    466.15425  0.011312227  0.010248043         3926 
 3435000   0.71293193   -9.0935872    466.40456  0.011315006  0.010243264         3919 
 3436000   0.71549048   -9.1251096    465.56722  0.011291405  0.010238485         3909 
 3437000   0.70513124   -9.1050768     465.7334  0.011292149  0.010233716         3907 
 3438000    0.6941425   -9.1359634    465.71427  0.011288401  0.010228945         3906 
 3439000   0.70066557    -9.112733     465.8967  0.011289539   0.01022418         3909 
 3440000   0.68847079   -9.1134367    466.31748  0.011296451  0.010219416         3918 
 3441000   0.69389618   -9.1093942    464.64252  0.011252604  0.010214653         3902 
 3442000   0.69587357   -9.1137172    465.83452  0.011278194  0.010209894         3914 
 3443000   0.69752737   -9.1256451    466.36364  0.011287725  0.010205143         3912 
 3444000   0.70180518   -9.1291234    466.91691  0.011297835  0.010200388         3918 
 3445000   0.71706197   -9.1213882    464.98217  0.011247754  0.010195639         3913 
 3446000   0.69517159   -9.1251179    465.13371  0.011248155  0.010190887         3934 
 3447000   0.68523931   -9.1035492    465.93274  0.011264209  0.010186145         3922 
 3448000   0.69507135    -9.112549    466.25749  0.011268791  0.010181403         3930 
 3449000   0.69421699   -9.1179721    465.34706  0.011243526  0.010176669         3908 
 3450000    0.6847452   -9.1216618    465.13151  0.011235061  0.010171932         3916 
 3451000   0.70484795   -9.0784703    466.23007  0.011258333  0.010167203         3911 
 3452000   0.71578313   -9.0958678    465.82077   0.01124519  0.010162474         3926 
 3453000   0.70155647    -9.087897    465.96839  0.011245496  0.010157747         3930 
 3454000   0.68968293   -9.1110539    465.91209  0.011240882  0.010153021         3912 
 3455000   0.70036471    -9.120231    465.57906  0.011229596  0.010148298         3923 
 3456000   0.70486101   -9.1306767    465.80259  0.011231737   0.01014358         3927 
 3457000   0.70659371   -9.0889553    465.89394   0.01123069  0.010138865         3924 
 3458000   0.70515784   -9.1128281    465.51377  0.011218281  0.010134154         3936 
 3459000   0.71464484   -9.1181969    465.70332  0.011219604  0.010129447         3908 
 3460000   0.71517644   -9.1166534    465.98525  0.011223152   0.01012474         3939 
 3461000   0.68843623   -9.1309616     466.0314   0.01122102  0.010120032         3894 
 3462000   0.68610448   -9.0892261    465.99748  0.011216962  0.010115332         3893 
 3463000   0.69726244    -9.121027    466.76505  0.011232194  0.010110633         3930 
 3464000   0.69310614   -9.1206631    466.44219  0.011221184  0.010105934         3927 
 3465000   0.68745605   -9.1149093    466.72042  0.011224637   0.01010124         3910 
 3466000   0.68559278   -9.1188672    465.88663  0.011201352  0.010096546         3933 
 3467000    0.7035167   -9.1368592    466.08883  0.011202981  0.010091861         3912 
 3468000   0.69308645   -9.1062114    465.36507  0.011182359  0.010087177         3920 
 3469000   0.69386765    -9.099443    466.44691  0.011205124  0.010082496         3896 
 3470000   0.68357208   -9.1274889    466.36341   0.01119989  0.010077821         3923 
 3471000   0.69687978   -9.1295621      466.151  0.011191564  0.010073142         3908 
 3472000   0.68975396   -9.1138215    465.67339  0.011176877  0.010068476         3912 
 3473000    0.7161773   -9.1270293    465.07553  0.011159313  0.010063809         3925 
 3474000   0.70105366   -9.1154668    466.10469  0.011180788  0.010059145         3914 
 3475000   0.68245238   -9.1000489    465.76877  0.011169515  0.010054479         3913 
 3476000   0.69401298   -9.1344036    465.70152  0.011164689  0.010049816         3918 
 3477000   0.70206481   -9.1237067    466.20335  0.011173506  0.010045157         3920 
 3478000     0.700878   -9.1390432    464.72106  0.011134777  0.010040495         3915 
 3479000   0.68818525    -9.109119     465.7224  0.011155562  0.010035841         3922 
 3480000   0.69093234   -9.1391833    465.45875  0.011146043   0.01003119         3916 
 3481000    0.6935188   -9.1156028    465.74118  0.011149602  0.010026538         3904 
 3482000   0.69196457   -9.0932335    465.28541  0.011135492  0.010021889         3913 
 3483000   0.68858586   -9.1150043    466.42896  0.011159655  0.010017246         3914 
 3484000   0.68244004   -9.1477852    465.26249  0.011128552  0.010012599         3935 
 3485000   0.70805746   -9.1310116    465.16773  0.011123093  0.010007961         3909 
 3486000   0.71324083   -9.1294158    465.67709  0.011132078  0.010003326         3930 
 3487000   0.69992317   -9.1068035    466.16997  0.011140665   0.00999869         3929 
 3488000   0.69126198   -9.1229063    465.89729  0.011130956 0.0099940602         3915 
 3489000   0.68873876   -9.1224826    465.02121  0.011106841   0.00998944         3908 
 3490000   0.70194758   -9.1221658    465.84604  0.011123353  0.009984812         3905 
 3491000   0.69372707   -9.1365621    464.83228  0.011095968  0.009980191         3920 
 3492000   0.69830546   -9.1155314    465.78066  0.011115422 0.0099755688         3909 
 3493000   0.69670022   -9.1133805    465.56366  0.011107063 0.0099709574         3901 
 3494000   0.68532199   -9.1242063    465.08098  0.011092372 0.0099663413         3929 
 3495000   0.68390988   -9.1381786    465.89743  0.011108665 0.0099617316         3934 
 3496000   0.69592901   -9.1199334    466.50667   0.01112001 0.0099571207         3929 
 3497000   0.68745404    -9.098829    466.76553  0.011122999 0.0099525173         3915 
 3498000   0.68171033   -9.1300851    465.30054  0.011084918 0.0099479177         3900 
 3499000   0.69099776   -9.1178832    465.30755  0.011081917 0.0099433209         3909 
 3500000   0.70530181   -9.1121176    466.26848  0.011101631 0.0099387258         3930 
 3501000    0.7056676   -9.1308932     464.8958  0.011065786 0.0099341367         3914 
 3502000   0.68629505   -9.1344426    465.02239  0.011065638 0.0099295415         3910 
 3503000   0.70134272   -9.1286769    465.10895  0.011064539 0.0099249512         3923 
 3504000   0.67749243   -9.1390693     465.8294  0.011078515 0.0099203678         3913 
 3505000   0.69094499    -9.119594     465.4791  0.011067026 0.0099157871         3917 
 3506000   0.68291715   -9.1336029    465.82158  0.011072009 0.0099112088         3908 
 3507000    0.6963551   -9.1296746     464.9974  0.011049268 0.0099066363         3916 
 3508000   0.68280318    -9.142264    465.82995  0.011065896 0.0099020628         3911 
 3509000   0.69328608   -9.1024389    466.16944  0.011070804 0.0098974959         3919 
 3510000   0.69968534   -9.1260691    465.70459  0.011056614 0.0098929265         3924 
 3511000   0.68536139    -9.133406    465.70365  0.011053443 0.0098883578         3929 
 3512000   0.69965233   -9.1439547    464.77965  0.011028371 0.0098837954         3920 
 3513000   0.69632653   -9.1205916    465.89329  0.011051648  0.009879237         3917 
 3514000   0.69696046   -9.1365911     465.4484  0.011037953 0.0098746802         3916 
 3515000    0.6928177   -9.1433251    464.88143  0.011021371 0.0098701246         3923 
 3516000   0.69839108   -9.1184753    465.46848   0.01103215  0.009865577         3903 
 3517000     0.697904    -9.108129    465.26577   0.01102421 0.0098610242         3916 
 3518000   0.69380015    -9.109284    465.27499  0.011021295  0.009856482         3913 
 3519000   0.68406271   -9.1253489    464.84888  0.011008072 0.0098519399         3897 
 3520000   0.69925837   -9.1218922     465.4695  0.011019638 0.0098473989         3920 
 3521000   0.69456361   -9.1288825    465.98798  0.011028779 0.0098428585         3896 
 3522000   0.70185169   -9.1409336    465.74405  0.011019876  0.009838323         3918 
 3523000   0.69767999   -9.1265476    466.12902  0.011025854 0.0098337884         3925 
 3524000    0.6744251   -9.1304616    465.73743  0.011013465 0.0098292555         3895 
 3525000   0.70237381   -9.1417764    465.33065  0.011000725 0.0098247267         3935 
 3526000   0.68627191   -9.1208161    464.62986  0.010981042 0.0098201963         3899 
 3527000   0.69085905   -9.1212921    465.48647  0.010998168 0.0098156699         3913 
 3528000   0.68524599   -9.1277228    466.05321  0.011008437  0.009811148         3916 
 3529000   0.67538797    -9.122934    465.63061  0.010995339 0.0098066322         3918 
 3530000   0.69356346   -9.1294655     466.0709  0.011002618 0.0098021115         3927 
 3531000   0.68791679   -9.1300176    465.79356  0.010992957 0.0097975959         3921 
 3532000   0.70106179    -9.150102    465.63737  0.010986159 0.0097930835         3926 
 3533000   0.68745546   -9.1419526     466.0294  0.010992296 0.0097885742         3938 
 3534000   0.71242727   -9.1300905    466.58958  0.011002395 0.0097840671         3901 
 3535000   0.68370905   -9.1396813    465.24548  0.010967597 0.0097795707         3929 
 3536000   0.68770384   -9.1385495    465.28366  0.010965395  0.009775069         3909 
 3537000   0.69698992   -9.1476593    465.09937  0.010957953 0.0097705734         3931 
 3538000   0.67178757   -9.1423656    465.68223  0.010968585 0.0097660768         3934 
 3539000    0.6696524   -9.1269284    465.61635  0.010963934 0.0097615831         3914 
 3540000   0.68019127   -9.1207156    466.03455  0.010970682 0.0097570931         3904 
 3541000   0.67632269   -9.1445991     465.0071  0.010943404 0.0097526118         3928 
 3542000   0.68183479   -9.1555279    465.33869  0.010948115 0.0097481268         3928 
 3543000   0.69604052   -9.1457694    465.38195  0.010946043 0.0097436466         3931 
 3544000   0.68554488   -9.1486506    464.77966  0.010928792 0.0097391678         3907 
 3545000   0.68523195   -9.1275059    464.94479  0.010929591  0.009734688         3933 
 3546000   0.68806026   -9.1548915    465.28041  0.010934396 0.0097302145         3921 
 3547000   0.67559609   -9.1365274    465.24771  0.010930545 0.0097257489         3929 
 3548000   0.67713951    -9.146437    465.64964  0.010936904 0.0097212817         3921 
 3549000   0.68391581   -9.1282212    465.41512  0.010928316 0.0097168224         3907 
 3550000   0.69074252    -9.144892    465.79144  0.010934071 0.0097123616         3927 
 3551000   0.69170619   -9.1408416    465.76764  0.010930434 0.0097079007         3916 
 3552000   0.67646892   -9.1496556    464.95872  0.010908378 0.0097034476         3929 
 3553000    0.6804398   -9.1481625     466.7455  0.010947216 0.0096989961         3916 
 3554000   0.67705466   -9.1271406    465.34094  0.010911202 0.0096945475         3900 
 3555000   0.68737147   -9.1388887    464.63616  0.010891612 0.0096900953         3932 
 3556000   0.69374335   -9.1531775    464.96131  0.010896169 0.0096856495         3913 
 3557000   0.67388948   -9.1368927    465.35699  0.010902375 0.0096812063         3940 
 3558000   0.68897141   -9.1243127    465.09646  0.010893209 0.0096767671         3919 
 3559000   0.69295308   -9.1519321    464.62313  0.010879065 0.0096723292         3925 
 3560000   0.68798063   -9.1392495    465.48399  0.010896161 0.0096678912         3917 
 3561000   0.68106386   -9.1513784    465.18967  0.010886213 0.0096634594         3912 
 3562000   0.67951915   -9.1239119    464.73256  0.010872463 0.0096590283         3928 
 3563000   0.69417069   -9.1372346    464.84218  0.010871976 0.0096545975         3918 
 3564000   0.69125711   -9.1476106    465.38553   0.01088163 0.0096501732         3907 
 3565000   0.67791833   -9.1552594     465.2182  0.010874666 0.0096457496         3939 
 3566000   0.66342083   -9.1506064    464.81887  0.010862284 0.0096413254         3940 
 3567000   0.67417174   -9.1618863    464.84681  0.010859892 0.0096369019         3924 
 3568000   0.67915843   -9.1494888    464.17448  0.010841145 0.0096324873         3917 
 3569000   0.69356787    -9.121611    465.52043  0.010869535 0.0096280732         3916 
 3570000    0.6829017   -9.1276159    465.03853  0.010855241 0.0096236661         3892 
 3571000   0.67497627   -9.1438001    465.46896  0.010862246 0.0096192566         3921 
 3572000   0.66734366   -9.1346836    464.97317  0.010847638 0.0096148491         3923 
 3573000   0.67580395   -9.1611466     465.8812   0.01086578 0.0096104502         3920 
 3574000   0.68293019    -9.132046    465.77348  0.010860228 0.0096060506         3906 
 3575000   0.67682125   -9.1340525    465.94737  0.010861244 0.0096016543         3896 
 3576000   0.67463969   -9.1288618    465.95106  0.010858293 0.0095972632         3906 
 3577000    0.6887957   -9.1461793    464.94074   0.01083172 0.0095928713         3921 
 3578000   0.68153796   -9.1479881     465.1265  0.010833019  0.009588488         3939 
 3579000   0.67900331   -9.1450569    465.36704  0.010835593 0.0095841085         3932 
 3580000   0.67826047   -9.1396483    464.78218  0.010818952 0.0095797311         3924 
 3581000   0.67404715   -9.1652043    465.19668  0.010825577 0.0095753521         3918 
 3582000    0.6839925   -9.1613423    464.51022  0.010806584 0.0095709764         3929 
 3583000   0.68465752   -9.1201937    464.89355  0.010812484  0.009566604         3914 
 3584000   0.68874182   -9.1707462    465.40136  0.010821274 0.0095622319         3918 
 3585000   0.66857636    -9.173925    464.49273  0.010797135 0.0095578598         3921 
 3586000   0.69102545   -9.1746471    464.53908  0.010795201   0.00955349         3923 
 3587000   0.67893169   -9.1387276     464.7939  0.010798111 0.0095491239         3931 
 3588000   0.67845704   -9.1311793    464.63244  0.010791352 0.0095447545         3928 
 3589000   0.68115262   -9.1260969    465.52503   0.01080907 0.0095403935         3924 
 3590000   0.68425117   -9.1562381    465.54259  0.010806467  0.009536039         3914 
 3591000   0.66327877    -9.159959    464.27546  0.010774052 0.0095316798         3918 
 3592000   0.67109367   -9.1280753    466.37142  0.010819678 0.0095273269         3924 
 3593000   0.67099487    -9.165656    464.99053   0.01078464 0.0095229784         3923 
 3594000   0.67435725   -9.1602725    465.63904  0.010796676 0.0095186325         3932 
 3595000   0.66875719   -9.1529483    465.18465   0.01078314 0.0095142904         3935 
 3596000   0.67339338   -9.1540123    465.23394  0.010781283 0.0095099537         3928 
 3597000   0.67047985   -9.1521927    464.48041  0.010760829 0.0095056128         3925 
 3598000   0.67088399   -9.1628656     464.6509  0.010761787 0.0095012742         3908 
 3599000   0.66256313   -9.1622408    464.70626  0.010760078 0.0094969378         3929 
 3600000   0.68375716   -9.1466417    465.62995  0.010778471 0.0094926043         3919 
 3601000    0.6671368   -9.1548436    464.91516  0.010758936 0.0094882727         3918 
 3602000   0.67027501   -9.1433539    465.49543  0.010769374 0.0094839468         3931 
 3603000   0.68226187   -9.1732033    464.99123  0.010754724 0.0094796203         3932 
 3604000   0.68816523   -9.1711338    465.60685  0.010765974 0.0094752985         3943 
 3605000   0.67486258   -9.1697574    464.93176  0.010747382 0.0094709793         3931 
 3606000   0.67342738   -9.1620748    466.10038  0.010771408 0.0094666588         3927 
 3607000      0.67031   -9.1610429    464.48011  0.010730989 0.0094623421         3939 
 3608000   0.66484894   -9.1454951    465.76641  0.010757724 0.0094580296         3936 
 3609000   0.67586309   -9.1303005    464.87612  0.010734186 0.0094537215         3943 
 3610000   0.66992672   -9.1486811    465.59425   0.01074779 0.0094494212         3931 
 3611000   0.66560769   -9.1529454    464.95997  0.010730176  0.009445122         3930 
 3612000   0.68824495   -9.1501578    464.96208  0.010727254 0.0094408227         3923 
 3613000   0.68516627   -9.1673487    464.23924  0.010707612 0.0094365263         3929 
 3614000   0.67650325   -9.1425628    464.13301    0.0107022 0.0094322362         3931 
 3615000   0.68491554    -9.158164    464.41217  0.010705675 0.0094279422         3926 
 3616000    0.6684545   -9.1352424    464.31628  0.010700504 0.0094236514         3938 
 3617000   0.68276856    -9.169643    463.91474  0.010688295 0.0094193623         3925 
 3618000   0.67704806    -9.149874    464.69459  0.010703303 0.0094150722         3928 
 3619000   0.67673511   -9.1632435    463.79818  0.010679704 0.0094107871         3925 
 3620000   0.67596185    -9.161375    464.06693   0.01068294  0.009406505         3928 
 3621000   0.67103576   -9.1518913    464.34011  0.010686277 0.0094022247         3905 
 3622000   0.66716531   -9.1699018    464.34505   0.01068344 0.0093979471         3922 
 3623000   0.68129415   -9.1343466     465.1213  0.010698346 0.0093936734         3928 
 3624000   0.66452814   -9.1425658    464.97299  0.010691984  0.009389402         3927 
 3625000   0.66889075   -9.1593782    465.08198   0.01069154 0.0093851334         3935 
 3626000   0.65723989    -9.181855    463.73857  0.010657717 0.0093808643         3918 
 3627000   0.66068528   -9.1553063    465.29363  0.010690507  0.009376598         3929 
 3628000   0.66696958   -9.1564765    465.05971  0.010682187 0.0093723333         3941 
 3629000    0.6676388   -9.1738824    464.55218  0.010667589 0.0093680775         3926 
 3630000   0.65743073   -9.1681205    464.71425  0.010668371 0.0093638216         3915 
 3631000   0.66667021   -9.1728973    465.25477  0.010677838 0.0093595685         3923 
 3632000   0.67186361    -9.160893    464.56199  0.010659003 0.0093553168         3939 
 3633000   0.67523798   -9.1509201    465.13141   0.01066913 0.0093510685         3931 
 3634000   0.67489401   -9.1606351    465.40845  0.010672547  0.009346825         3933 
 3635000   0.67882127   -9.1588523    465.16774  0.010664093 0.0093425802         3937 
 3636000   0.66086728    -9.143657    465.16239  0.010661037 0.0093383403         3913 
 3637000   0.66567676   -9.1602852    464.40223  0.010640689 0.0093341042         3932 
 3638000    0.6631245   -9.1526275    464.57423  0.010641704 0.0093298743         3932 
 3639000   0.66722313   -9.1580061    464.83842   0.01064483 0.0093256445         3948 
 3640000   0.67480679    -9.136683    464.84251  0.010641999 0.0093214168         3929 
 3641000   0.67674763   -9.1542667    464.31261  0.010626948 0.0093171866         3924 
 3642000   0.65734276   -9.1679571    464.67797   0.01063239 0.0093129643         3932 
 3643000   0.64910347   -9.1710404    464.85342  0.010633485 0.0093087405         3925 
 3644000   0.66621065    -9.200689    464.01495  0.010611392  0.009304513         3916 
 3645000   0.68083565   -9.1548207    464.47441  0.010618985 0.0093002932         3921 
 3646000   0.67548103   -9.1554382    464.37186  0.010613729  0.009296078         3922 
 3647000   0.66643818   -9.1547105    464.20372  0.010606976 0.0092918644         3941 
 3648000   0.67176975   -9.1564604    464.74411  0.010616413 0.0092876496         3930 
 3649000   0.66729779   -9.1658038    464.52128  0.010608415 0.0092834436         3915 
 3650000     0.665732   -9.1779807    464.49216  0.010604844 0.0092792425         3931 
 3651000   0.65556539    -9.171493    464.18954  0.010595032 0.0092750368         3946 
 3652000   0.66585529   -9.1484445    465.09941  0.010612893 0.0092708356         3925 
 3653000   0.65274538   -9.1642595    465.10165  0.010610038 0.0092666372         3935 
 3654000    0.6674416   -9.1454938    464.75596  0.010599251 0.0092624433         3915 
 3655000   0.67246822   -9.1775382    464.26391  0.010585133 0.0092582512         3932 
 3656000   0.66610338   -9.1522489    464.47261  0.010586994 0.0092540636         3942 
 3657000   0.66124889   -9.1321354     465.5157  0.010607868  0.009249878         3926 
 3658000   0.66627534   -9.1819596    464.69677  0.010586312 0.0092456954         3945 
 3659000    0.6535903   -9.1711103    465.81082  0.010608792 0.0092415084         3941 
 3660000   0.65899829   -9.1577534    464.82571  0.010583463 0.0092373265         3940 
 3661000   0.65639778   -9.1640109    464.66283  0.010576865 0.0092331475         3943 
 3662000   0.67456148   -9.1496105    464.10131  0.010561199 0.0092289735         3927 
 3663000   0.66975536   -9.1707158    464.43924  0.010566003 0.0092247967         3944 
 3664000   0.66417405   -9.1785413    463.80409  0.010548674 0.0092206226         3940 
 3665000   0.66219882   -9.1703674    464.29363  0.010556927 0.0092164574         3933 
 3666000   0.65505049   -9.1762082     465.0983  0.010572338 0.0092122924         3920 
 3667000   0.65679892   -9.1689684    463.68397  0.010537314 0.0092081256         3920 
 3668000   0.66261636   -9.1641252    463.94614  0.010540398 0.0092039616         3937 
 3669000   0.65414794   -9.1442239    465.72928  0.010578025 0.0091998096         3940 
 3670000   0.66676835   -9.1854538    464.42151  0.010545447 0.0091956539         3927 
 3671000   0.66012101   -9.1766831    464.96823  0.010554986 0.0091915009         3934 
 3672000   0.65741623   -9.1593735    464.55287  0.010542685 0.0091873551         3909 
 3673000   0.66728662   -9.1677448    464.01459  0.010527602 0.0091832103         3926 
 3674000   0.68007731   -9.1714363    464.83231  0.010543284 0.0091790666         3936 
 3675000   0.66311843   -9.1694332    464.74492  0.010538434 0.0091749242         3944 
 3676000   0.67015338   -9.1707947    463.66491  0.010511083 0.0091707879         3933 
 3677000   0.67353228   -9.1671035    464.10234  0.010518138  0.009166655         3941 
 3678000   0.64461451   -9.1581296    464.64474  0.010527568 0.0091625187         3923 
 3679000    0.6622041   -9.1857842    464.35081  0.010518049  0.009158386         3925 
 3680000   0.67064121   -9.1682281    465.36049  0.010538055 0.0091542598         3929 
 3681000   0.65702989   -9.1572359    464.57532  0.010517417  0.009150131         3927 
 3682000   0.67389947   -9.1682449    464.43596  0.010511406 0.0091460053         3939 
 3683000   0.65786474   -9.1650991     464.4701  0.010509324 0.0091418807         3941 
 3684000   0.68355968   -9.1521678    464.11975  0.010498547 0.0091377661         3914 
 3685000   0.66477028   -9.1712282    464.51566  0.010504651 0.0091336506         3936 
 3686000    0.6580062   -9.1891525    464.05688  0.010491429 0.0091295362         3940 
 3687000    0.6674063   -9.1879782    463.76877  0.010482071 0.0091254198         3927 
 3688000   0.67673852   -9.1648532    464.06637  0.010485954 0.0091213099         3919 
 3689000   0.67445181   -9.1853585    464.33731  0.010489232 0.0091172053         3922 
 3690000   0.65600308   -9.1775292    464.37482  0.010487236    0.0091131         3936 
 3691000   0.67189634   -9.1682052    464.37579  0.010484417 0.0091089943         3945 
 3692000   0.66124466   -9.1698212     464.2208  0.010478079 0.0091048935         3939 
 3693000   0.65924878   -9.1701328    464.05898   0.01047159 0.0091007949         3953 
 3694000   0.65075095   -9.1734446    463.44112  0.010454817 0.0090966997         3939 
 3695000   0.67252155   -9.1853464    463.25336  0.010447753 0.0090926091         3935 
 3696000   0.66774392   -9.1518512    464.02008  0.010462213 0.0090885211         3940 
 3697000   0.66285101   -9.1750584    464.35678  0.010466973 0.0090844337         3918 
 3698000   0.66388609   -9.1696513    465.10181  0.010480931 0.0090803513         3915 
 3699000   0.65591638   -9.1618371    464.98571  0.010475482 0.0090762698         3922 
 3700000   0.67119039   -9.1769089     464.7639  0.010467655  0.009072189         3925 
 3701000   0.66004997    -9.176938    464.16433  0.010451327 0.0090681125         3931 
 3702000   0.65303967   -9.1814684    464.83064  0.010463503 0.0090640367         3949 
 3703000   0.66972376   -9.1688195    463.95365  0.010440941 0.0090599624         3953 
 3704000   0.66221632   -9.1752405    464.10713  0.010441575 0.0090558923         3935 
 3705000   0.65350999   -9.1906394    464.17788  0.010440348 0.0090518223         3926 
 3706000   0.63929323   -9.1673284    464.85741  0.010452811 0.0090477603         3936 
 3707000   0.66960764   -9.1586437    465.02466  0.010453751  0.009043699         3929 
 3708000   0.66123188   -9.1951808    464.83584  0.010446688  0.009039637         3945 
 3709000   0.64886027   -9.1471357    465.26469  0.010453507 0.0090355766         3941 
 3710000   0.65822424   -9.1857744    464.44262  0.010432224   0.00903152         3939 
 3711000    0.6813487   -9.1702497    464.88875  0.010439431 0.0090274637         3930 
 3712000   0.65932115   -9.1646577    464.53617  0.010428704 0.0090234129         3938 
 3713000   0.65083979   -9.1935342    464.26893  0.010419897 0.0090193656         3948 
 3714000    0.6655726   -9.1675472    463.93488  0.010409596 0.0090153184         3928 
 3715000   0.65062933    -9.197652    463.80616  0.010403907  0.009011274         3932 
 3716000   0.65822451   -9.1799771    463.94904  0.010404311 0.0090072301         3942 
 3717000   0.66588532   -9.1740232    463.56496  0.010392901 0.0090031914         3947 
 3718000    0.6560911   -9.1896475    464.30297  0.010406647 0.0089991555         3918 
 3719000   0.64967502   -9.1405603    464.60786  0.010410681  0.008995123         3921 
 3720000   0.65637396    -9.178973      464.242  0.010399686  0.008991093         3922 
 3721000   0.64979556   -9.1734927    464.29905  0.010398169  0.008987064         3951 
 3722000   0.64494593   -9.1954304    464.95991  0.010410172 0.0089830356         3931 
 3723000   0.64649192   -9.1808371    464.22601  0.010390948 0.0089790112         3943 
 3724000   0.64658985   -9.1843731     464.2648  0.010389026 0.0089749949         3929 
 3725000   0.63928002   -9.1966782    464.97172  0.010402052 0.0089709754         3915 
 3726000   0.66338483   -9.1859806    464.78953  0.010395185  0.008966965         3932 
 3727000   0.65951205   -9.1847272    464.27257  0.010380837  0.008962954         3933 
 3728000   0.65013812   -9.1694031    464.19358  0.010376287  0.008958947         3930 
 3729000   0.66343501   -9.1545958    464.15211  0.010372578 0.0089549401         3931 
 3730000    0.6599585   -9.1914922    464.35242  0.010374272 0.0089509335         3929 
 3731000   0.65763032    -9.204284    463.92316  0.010361904 0.0089469312         3940 
 3732000   0.65384457   -9.1749271    464.98867   0.01038292 0.0089429312         3924 
 3733000   0.66082135   -9.1791493    465.12284  0.010383133 0.0089389298         3944 
 3734000    0.6464522   -9.2061008    463.99177   0.01035511 0.0089349316         3941 
 3735000   0.65030097   -9.1574007    464.47483  0.010363115 0.0089309352         3925 
 3736000   0.63983728   -9.1706288    464.30837  0.010356629 0.0089269482         3930 
 3737000   0.65614103    -9.180665    464.95542  0.010368286  0.008922959         3927 
 3738000   0.65601457   -9.1889103     463.9456     0.010343 0.0089189702         3939 
 3739000   0.66234998   -9.1770696     463.7366  0.010335575 0.0089149828         3927 
 3740000   0.65835046   -9.1853977    464.15982  0.010342242 0.0089109971         3944 
 3741000   0.66462539   -9.1953203    465.40947  0.010367314 0.0089070159         3918 
 3742000   0.65063058   -9.1852885    464.47839  0.010343809 0.0089030379         3939 
 3743000   0.66273725   -9.1805562    464.58765  0.010343478 0.0088990614         3942 
 3744000   0.66629332   -9.1841974    464.37848  0.010336059 0.0088950872         3931 
 3745000    0.6635974   -9.2071133    464.21812  0.010329731 0.0088911159         3930 
 3746000   0.65119234   -9.1793812    465.21521  0.010349155 0.0088871461         3937 
 3747000   0.65748233   -9.1802729    465.31262  0.010348559 0.0088831833         3944 
 3748000   0.64795863   -9.1961767    464.49836  0.010327694 0.0088792168         3942 
 3749000   0.64582647    -9.209516    463.98515  0.010313531 0.0088752569         3932 
 3750000   0.66215477   -9.1847814    463.97547  0.010310566 0.0088712962         3919 
 3751000   0.65869758    -9.204248    463.97986  0.010307915 0.0088673401         3940 
 3752000   0.64441606   -9.1766767    464.06984  0.010307166 0.0088633835         3933 
 3753000   0.65241512   -9.1864946    464.18408  0.010306956 0.0088594294         3951 
 3754000   0.65384387   -9.1908286    464.34032  0.010307679 0.0088554806         3946 
 3755000   0.65626451   -9.1874889    463.84124  0.010293858 0.0088515295         3955 
 3756000    0.6406093   -9.1708278    464.14617  0.010297883 0.0088475871         3929 
 3757000   0.65121114   -9.1943735    464.86723  0.010311135 0.0088436463         3937 
 3758000   0.63990451   -9.2000752    463.98121  0.010288744 0.0088397011         3934 
 3759000       0.6437   -9.1960438    463.76005  0.010281104 0.0088357596         3933 
 3760000   0.65226272   -9.1894626    464.38768   0.01029228 0.0088318234         3941 
 3761000   0.63626216   -9.1778117    463.62508  0.010272647 0.0088278905         3945 
 3762000   0.65489665   -9.1997998    464.12235  0.010280931 0.0088239582         3932 
 3763000   0.64483987   -9.1897172     465.0128  0.010297918 0.0088200301         3913 
 3764000   0.65724524   -9.1857724    465.29351  0.010301397 0.0088161004         3945 
 3765000   0.65288338   -9.1846849    464.82876  0.010288375 0.0088121747         3931 
 3766000   0.65365563   -9.2133595    463.67747  0.010260167 0.0088082534         3937 
 3767000   0.64218978   -9.1853892    463.80893  0.010260351 0.0088043318         3938 
 3768000   0.64632419   -9.1917881    463.86579  0.010258886 0.0088004112         3938 
 3769000   0.66795577   -9.1843323    464.25918  0.010264862 0.0087964926         3937 
 3770000   0.65550765   -9.2246948    463.17797   0.01023824 0.0087925756         3948 
 3771000   0.65468646   -9.1982299    464.11513  0.010256235 0.0087886597         3951 
 3772000   0.65837793    -9.199516    463.22316   0.01023381 0.0087847441         3935 
 3773000   0.65270004   -9.1953127    464.24407  0.010253646 0.0087808348         3935 
 3774000   0.64741004   -9.2026306    463.96844  0.010244843  0.008776925         3933 
 3775000    0.6406039   -9.1960053    464.75969  0.010259596 0.0087730144         3926 
 3776000   0.65082222   -9.2093485    463.99351   0.01023997  0.008769109         3927 
 3777000   0.65833187   -9.1948334    463.72069  0.010231239 0.0087652092         3921 
 3778000   0.65426569   -9.1679272    463.76776  0.010229569 0.0087613111         3925 
 3779000   0.64464301   -9.2288152    463.32635  0.010217129 0.0087574154         3943 
 3780000   0.64074983   -9.2007882    463.83004   0.01022553 0.0087535168         3949 
 3781000    0.6573683    -9.182556    464.22616  0.010231556 0.0087496246         3930 
 3782000   0.65131263   -9.1813387    464.07237  0.010225462 0.0087457365         3934 
 3783000   0.64028312   -9.2048878     463.0866  0.010201044 0.0087418486         3942 
 3784000   0.63490417   -9.1902729    463.43961  0.010206123 0.0087379621         3943 
 3785000   0.64012508    -9.170743      463.628  0.010207574 0.0087340755         3942 
 3786000   0.65211286   -9.2141715    463.86239  0.010210037 0.0087301958         3935 
 3787000   0.64156674   -9.1734132     464.4487  0.010220243 0.0087263213         3927 
 3788000   0.64297785   -9.1978451    462.98223  0.010185283 0.0087224483         3927 
 3789000    0.6429798   -9.2014513    463.28239  0.010189197 0.0087185729         3936 
 3790000   0.65069458   -9.2038592     463.9894  0.010202054 0.0087147032         3943 
 3791000   0.65183589   -9.1873585    464.70282  0.010215045 0.0087108324         3922 
 3792000   0.63425288   -9.2054512    464.19878  0.010201274 0.0087069663         3936 
 3793000   0.64791407   -9.2202884    462.97278  0.010171649  0.008703106         3934 
 3794000   0.65022053   -9.2060607    463.68947   0.01018471 0.0086992434         3919 
 3795000   0.65698906   -9.2238572    463.44348  0.010176624 0.0086953826         3935 
 3796000    0.6510363   -9.1884033    463.85061  0.010182881 0.0086915261         3916 
 3797000   0.65567288   -9.2110372    464.21973  0.010188301 0.0086876759         3938 
 3798000   0.64783982   -9.1769235    464.37921  0.010189117 0.0086838254         3928 
 3799000   0.64585932   -9.1991173    463.86843  0.010175231 0.0086799778         3920 
 3800000   0.63382072    -9.180211    463.93028   0.01017391 0.0086761335         3924 
 3801000   0.64478897   -9.2128164    462.77441  0.010145892  0.008672284         3923 
 3802000   0.65019004   -9.2280224    462.87148  0.010145351 0.0086684401         3947 
 3803000   0.64844967   -9.2081854    464.29247   0.01017382 0.0086645974         3942 
 3804000   0.63447975   -9.2036359    463.62919  0.010156616 0.0086607622         3921 
 3805000   0.63690416   -9.2057301    463.57203  0.010152695 0.0086569258         3923 
 3806000    0.6329458   -9.2110959    464.05185  0.010160533 0.0086530909         3948 
 3807000   0.65042496   -9.2166313    463.11556  0.010137369 0.0086492625         3942 
 3808000   0.64872234   -9.1983017    462.99366  0.010132039 0.0086454293         3934 
 3809000   0.65982088    -9.211926    464.06753  0.010152873 0.0086416019         3917 
 3810000   0.65173428   -9.2006336     462.4271  0.010114329  0.008637776         3936 
 3811000   0.63009725   -9.2040306    463.93503  0.010144648 0.0086339554         3945 
 3812000   0.64475198   -9.2093842    464.97988  0.010164828 0.0086301351         3951 
 3813000   0.64526792   -9.2035964    463.25522  0.010124469 0.0086263129         3935 
 3814000   0.63625495   -9.1914427    463.89187  0.010135725 0.0086224977         3929 
 3815000   0.64060966    -9.207846    464.17652  0.010139286 0.0086186825         3935 
 3816000   0.63833869   -9.2164454    463.87248   0.01012999 0.0086148736         3936 
 3817000   0.65004525   -9.2082168    462.98184  0.010107891 0.0086110653         3919 
 3818000   0.65522989   -9.2264915    463.30687  0.010112338 0.0086072585         3935 
 3819000    0.6469567   -9.2133586     464.5098  0.010135939 0.0086034553         3926 
 3820000    0.6456878   -9.2048507    464.11497  0.010124672 0.0085996547         3943 
 3821000   0.62892201   -9.2040567    464.32367  0.010126574 0.0085958544         3934 
 3822000   0.64083883   -9.1900085    464.07435  0.010118488 0.0085920616         3927 
 3823000   0.64743111   -9.1819781    463.83247  0.010110569 0.0085882665         3947 
 3824000   0.63640868     -9.20782    463.37583  0.010097974 0.0085844765         3925 
 3825000   0.63798213   -9.2219539    463.18306  0.010091134 0.0085806873         3947 
 3826000   0.62036763   -9.1709935    463.80494  0.010102042 0.0085768969         3945 
 3827000   0.63108605   -9.2132874    463.65703  0.010096181 0.0085731087         3936 
 3828000   0.63752881   -9.1982967    464.01512  0.010101339 0.0085693228         3944 
 3829000   0.63238819   -9.2229509    464.31877   0.01010531 0.0085655408         3931 
 3830000   0.63118641   -9.2033223    463.37465  0.010082129 0.0085617609         3930 
 3831000   0.64036326   -9.2079405    463.43325  0.010080772  0.008557987         3924 
 3832000   0.64362928   -9.2195004    463.19239  0.010072903 0.0085542143         3942 
 3833000   0.63401495   -9.2125428    463.78388  0.010083135  0.008550446         3945 
 3834000   0.65450892   -9.2133464    463.99348  0.010085061 0.0085466762         3939 
 3835000    0.6457486   -9.2362084    462.90174  0.010058708 0.0085429114         3932 
 3836000   0.63529242    -9.213408    463.91888  0.010078182 0.0085391439         3932 
 3837000   0.63285151   -9.2115728    463.90118  0.010075171 0.0085353773         3935 
 3838000   0.64387474   -9.1991218    463.13371  0.010055882 0.0085316174         3915 
 3839000   0.62523054   -9.2225592    464.22308   0.01007691  0.008527856         3934 
 3840000   0.63236761   -9.2137748    463.09904  0.010049892 0.0085240961         3935 
 3841000   0.63591707   -9.2134761    464.58532  0.010079522 0.0085203407         3947 
 3842000   0.65193314   -9.2202972    463.58541   0.01005521 0.0085165872         3937 
 3843000   0.63527986   -9.2232705    463.41219  0.010048837 0.0085128359         3942 
 3844000   0.65196951   -9.2198452    463.20247  0.010041677 0.0085090883         3943 
 3845000   0.63921891   -9.2199285    463.16305  0.010038211 0.0085053396         3931 
 3846000   0.62111709   -9.1810561    463.48845  0.010042652 0.0085015978         3941 
 3847000   0.63082343   -9.1935875    464.20108  0.010055478  0.008497857         3926 
 3848000    0.6287234    -9.232544    462.92377  0.010025203 0.0084941175         3932 
 3849000   0.62901617   -9.1981103    463.64902    0.0100383 0.0084903812         3926 
 3850000   0.61895059   -9.2218506    463.58917  0.010034398 0.0084866458         3922 
 3851000   0.63929595   -9.1969405    463.51096    0.0100301 0.0084829174         3925 
 3852000   0.62865181   -9.2226856    463.02003  0.010016875 0.0084791866         3922 
 3853000   0.62481637   -9.2172551     462.7939  0.010009385 0.0084754592         3934 
 3854000   0.63722342   -9.2227529    463.73402  0.010027115 0.0084717305         3938 
 3855000   0.62869539   -9.2153516    463.26019  0.010014271 0.0084680053         3931 
 3856000   0.64778077   -9.2205159      463.027  0.010006635 0.0084642855         3954 
 3857000   0.63447758    -9.205207    464.38689  0.010033422 0.0084605676         3940 
 3858000   0.64088516   -9.2237048    462.67368 0.0099938155 0.0084568501         3911 
 3859000   0.63527792   -9.2228975    463.63143  0.010011908 0.0084531372         3915 
 3860000   0.62622541    -9.192131    463.82425  0.010013477 0.0084494261         3931 
 3861000    0.6173726   -9.2057777    463.00576 0.0099932176 0.0084457171         3942 
 3862000   0.64493624   -9.2286153    462.68353  0.009983677 0.0084420077         3949 
 3863000    0.6488594   -9.2225046    463.64656  0.010001867 0.0084383027         3956 
 3864000   0.63941331   -9.2151851    463.53115 0.0099967898 0.0084345984         3930 
 3865000   0.64449793    -9.221379    463.36698 0.0099906635 0.0084308976         3937 
 3866000   0.62316686   -9.2272052    464.05108  0.010002825 0.0084271986         3928 
 3867000   0.63590683   -9.2147347    463.53059 0.0099890222  0.008423503         3936 
 3868000   0.63832799   -9.2095045    463.70489 0.0099901951 0.0084198069         3924 
 3869000   0.63462293   -9.2040903    463.24267 0.0099776573 0.0084161135         3939 
 3870000   0.63146098   -9.2064316    463.37491 0.0099779266 0.0084124227         3949 
 3871000    0.6289845    -9.221431    463.36147 0.0099750597 0.0084087322         3946 
 3872000   0.62988477    -9.239436    462.55578 0.0099551434 0.0084050447         3954 
 3873000   0.63938736   -9.2333097    463.03325 0.0099628463 0.0084013582         3931 
 3874000   0.62638179   -9.2152739    463.42913 0.0099687904 0.0083976778         3943 
 3875000   0.62108528   -9.2081384    464.17487 0.0099822553 0.0083939963         3937 
 3876000   0.64289042   -9.2336439    463.58831  0.009967069 0.0083903209         3938 
 3877000   0.61562914   -9.2147842    463.71567 0.0099672357 0.0083866436         3945 
 3878000   0.62224093   -9.2189522    462.89259 0.0099469785 0.0083829721         3929 
 3879000    0.6344194   -9.2382846    463.19406 0.0099508906 0.0083792987         3948 
 3880000   0.62444987    -9.225745     463.1379 0.0099471199 0.0083756278         3940 
 3881000   0.62521865   -9.2155733    463.77316 0.0099581972 0.0083719612         3933 
 3882000   0.63208911   -9.2228574     463.1721 0.0099427292 0.0083682968         3950 
 3883000   0.62393332    -9.218312    463.20191 0.0099408084 0.0083646364         3936 
 3884000   0.63122655   -9.2181548    464.03966 0.0099562234 0.0083609769         3918 
 3885000    0.6298629   -9.2292709    463.11361 0.0099337968  0.008357319         3924 
 3886000   0.64030181   -9.2324624    463.54267 0.0099404415 0.0083536644         3934 
 3887000   0.62647426    -9.236346     463.0767 0.0099278942 0.0083500097         3950 
 3888000   0.62705279   -9.2149901    463.34563 0.0099311049 0.0083463596         3930 
 3889000   0.61629066   -9.2440179    462.24629 0.0099049946 0.0083427123         3944 
 3890000   0.62544021   -9.2202941    464.18122 0.0099438993 0.0083390692         3942 
 3891000   0.63383196   -9.2074583    463.46077 0.0099259138 0.0083354297         3932 
 3892000   0.62760631   -9.2120869    462.73799 0.0099078877 0.0083317851         3913 
 3893000   0.63091183    -9.230351    463.13663  0.009913876  0.008328145         3944 
 3894000   0.62507184   -9.2271567    463.60613 0.0099213775 0.0083245048         3937 
 3895000    0.6310713   -9.2251883    463.75452 0.0099220052 0.0083208707         3942 
 3896000   0.62547893   -9.2293934    462.44325 0.0098914112 0.0083172323         3941 
 3897000   0.62654047   -9.2314672    462.85801 0.0098977422 0.0083135987         3945 
 3898000   0.62567658     -9.22624    462.34466 0.0098842283 0.0083099662         3932 
 3899000   0.62764795   -9.2345261    463.61934 0.0099089368 0.0083063402         3935 
 3900000   0.61962195   -9.2330283     463.6739 0.0099075619  0.008302715         3948 
 3901000   0.64210022   -9.2366478    462.85058 0.0098874344 0.0082990933         3937 
 3902000   0.63886434   -9.2450663    463.57562 0.0099003848 0.0082954695         3937 
 3903000   0.62105984     -9.21634    463.38575 0.0098937943 0.0082918501         3942 
 3904000   0.62817867   -9.2305761    463.53291 0.0098944013 0.0082882295         3924 
 3905000   0.63515101    -9.238028    463.66072 0.0098945949 0.0082846141         3937 
 3906000   0.63659346    -9.232293    463.37451 0.0098859557 0.0082809977         3937 
 3907000   0.63487856   -9.2372791    462.80193 0.0098712125 0.0082773882         3943 
 3908000   0.62414373   -9.2330387    463.02092 0.0098733564 0.0082737815         3920 
 3909000   0.63090136   -9.2322568    463.48373 0.0098806968  0.008270172         3935 
 3910000    0.6410156    -9.250139    463.00832 0.0098680374 0.0082665673         3940 
 3911000    0.6343826   -9.2166722    463.84491   0.00988334  0.008262963         3942 
 3912000   0.62544637   -9.2438041    461.96465 0.0098407603  0.008259359         3947 
 3913000   0.63106369   -9.2254158    462.28969 0.0098451675 0.0082557568         3947 
 3914000   0.61874294   -9.2507065    462.24598 0.0098417216 0.0082521574         3940 
 3915000   0.62175198   -9.2300594    462.71437 0.0098491778 0.0082485588         3943 
 3916000   0.61900233   -9.2292724     463.3546  0.009860287 0.0082449619         3931 
 3917000   0.63068292   -9.2466594    463.18168 0.0098540906 0.0082413692         3939 
 3918000   0.63902661   -9.2340413    463.13547 0.0098505928 0.0082377803         3944 
 3919000   0.61774785   -9.2074256    462.91644 0.0098434218  0.008234192         3935 
 3920000   0.62011302   -9.2171307    463.05665 0.0098438914 0.0082306055         3941 
 3921000   0.62710745   -9.2531504    463.29642 0.0098464767 0.0082270221         3951 
 3922000   0.62020413   -9.2397783    462.54909 0.0098280872 0.0082234403         3935 
 3923000   0.63786274   -9.2404637    462.86873 0.0098323716 0.0082198602         3947 
 3924000    0.6190223   -9.2089766    462.14081 0.0098144073 0.0082162807         3923 
 3925000   0.62782738   -9.2205122    463.65938 0.0098441482 0.0082127041         3939 
 3926000   0.61943598   -9.2194779    463.00448 0.0098277398 0.0082091327         3935 
 3927000   0.63016644   -9.2316271    462.71631  0.009819122  0.008205558         3941 
 3928000   0.63035939    -9.234239     463.0558 0.0098238247 0.0082019879         3942 
 3929000   0.61809087   -9.2329064    462.35888 0.0098065428 0.0081984206         3942 
 3930000   0.61669138   -9.2387125    462.83758  0.009814198 0.0081948542         3943 
 3931000    0.6319916   -9.2502581    463.52355 0.0098262433 0.0081912909         3943 
 3932000   0.61844983   -9.2388083    463.11523 0.0098150905 0.0081877318         3958 
 3933000   0.62520161   -9.2343243    462.58732 0.0098014095  0.008184174         3919 
 3934000   0.60420803    -9.219354     462.4139 0.0097952444 0.0081806202         3917 
 3935000   0.62400375   -9.2309069    463.33363 0.0098122327 0.0081770641         3924 
 3936000    0.6252215   -9.2336667    463.03366 0.0098033888 0.0081735143         3930 
 3937000   0.62061326   -9.2297189    463.64292 0.0098137948 0.0081699647         3942 
 3938000   0.63344913     -9.23816    462.91654 0.0097959314 0.0081664158         3925 
 3939000   0.61503256   -9.2445547    462.93796 0.0097938977 0.0081628684         3932 
 3940000   0.61946408   -9.2329154    462.80255  0.009788548 0.0081593208         3932 
 3941000   0.61961032   -9.2363267    462.89092 0.0097879327 0.0081557819         3935 
 3942000   0.61262422   -9.2290193    462.96769 0.0097870727 0.0081522417         3942 
 3943000   0.62015898   -9.2373982    463.05201 0.0097863727 0.0081487056         3941 
 3944000   0.63172284   -9.2340634    463.62171 0.0097959285 0.0081451677         3939 
 3945000   0.62026356   -9.2467271    462.13179 0.0097619728 0.0081416324         3936 
 3946000   0.60919171   -9.2382068    462.74966 0.0097725473 0.0081381021         3950 
 3947000   0.61188091   -9.2429024    462.58062 0.0097665024 0.0081345698         3935 
 3948000   0.61481321   -9.2291703    463.63008 0.0097861804 0.0081310428         3943 
 3949000    0.6147738   -9.2427807    462.85527 0.0097673518 0.0081275168         3937 
 3950000   0.61034876   -9.2408637    462.96607 0.0097672167 0.0081239938         3940 
 3951000   0.62087079   -9.2438616    463.54749 0.0097770078 0.0081204678         3942 
 3952000   0.61424432   -9.2332817    462.82598 0.0097593198 0.0081169486         3931 
 3953000   0.61628274   -9.2462262    463.24799 0.0097657473 0.0081134316         3926 
 3954000   0.60901034   -9.2359548    463.44485 0.0097674264  0.008109917         3947 
 3955000   0.61353529   -9.2510212     463.4039 0.0097640939 0.0081064042         3913 
 3956000   0.61645827   -9.2436746     463.0395 0.0097539498 0.0081028943         3935 
 3957000   0.61663887   -9.2594665    462.81374 0.0097467303 0.0080993853         3943 
 3958000   0.61649968   -9.2367628    462.93374 0.0097467943 0.0080958761         3942 
 3959000   0.60875545   -9.2636534    463.39231 0.0097539849 0.0080923707         3946 
 3960000   0.62716849   -9.2419177    462.83721 0.0097398403 0.0080888648         3944 
 3961000   0.62414877   -9.2643311    463.39385 0.0097490922  0.008085363         3940 
 3962000   0.61875528   -9.2347764    463.09152 0.0097402726 0.0080818633         3924 
 3963000   0.61171786   -9.2393099    463.85463 0.0097538613 0.0080783654         3930 
 3964000     0.614782   -9.2552724    462.36176 0.0097200169 0.0080748684         3952 
 3965000    0.6167779   -9.2695733    462.75643 0.0097258602 0.0080713725         3942 
 3966000   0.61547502    -9.237642    463.19556 0.0097326349 0.0080678795         3939 
 3967000   0.61248621   -9.2405875    463.64679 0.0097396604 0.0080643895         3933 
 3968000   0.61612497   -9.2485303    462.96161 0.0097228161 0.0080609041         3940 
 3969000    0.6184142   -9.2567435    462.82891 0.0097175802 0.0080574188         3950 
 3970000   0.61050696   -9.2360133    463.18629 0.0097226341 0.0080539363         3942 
 3971000   0.61145255   -9.2596306    462.79349 0.0097119425 0.0080504554         3955 
 3972000   0.59526547   -9.2272625    462.79702 0.0097095715  0.008046976         3929 
 3973000   0.61025398   -9.2548567    462.94786 0.0097102916 0.0080435013         3934 
 3974000   0.61103168   -9.2534764    463.34327 0.0097161398 0.0080400292         3949 
 3975000   0.61344917   -9.2492086    463.28312 0.0097124344 0.0080365527         3949 
 3976000   0.62701719   -9.2571481    462.96525 0.0097033294 0.0080330839         3935 
 3977000   0.60944831    -9.236461    463.38265 0.0097096357 0.0080296157         3940 
 3978000   0.61319732   -9.2529576    462.91377 0.0096973723 0.0080261492         3929 
 3979000   0.61423982   -9.2514997    462.73564 0.0096912046 0.0080226823         3939 
 3980000   0.63155783   -9.2575917    462.64298 0.0096868296 0.0080192183         3941 
 3981000   0.62423272   -9.2350372    462.27308 0.0096766532 0.0080157564         3932 
 3982000   0.61475741   -9.2653014    461.95812 0.0096676319 0.0080122938         3939 
 3983000    0.6114443   -9.2518672     463.1057 0.0096892146  0.008008834         3938 
 3984000   0.62792368   -9.2540389    463.20051 0.0096887657 0.0080053764         3934 
 3985000   0.61941824   -9.2729316    462.58042 0.0096733673 0.0080019223         3932 
 3986000   0.62186394   -9.2613876    462.75064 0.0096744991 0.0079984672         3918 
 3987000   0.61294128   -9.2568623    462.68962 0.0096707973 0.0079950148         3925 
 3988000   0.61780259   -9.2395147    462.73578 0.0096693367 0.0079915655         3944 
 3989000   0.62191104   -9.2624959    462.42112 0.0096603393 0.0079881176         3946 
 3990000    0.6202969   -9.2340559    462.89947 0.0096679088 0.0079846744         3946 
 3991000   0.62634088    -9.241475    462.79596 0.0096633251 0.0079812358         3949 
 3992000   0.62172819   -9.2536801    462.59641 0.0096567387 0.0079777967         3954 
 3993000   0.60376207   -9.2724493    462.91978  0.009661069  0.007974358         3953 
 3994000   0.61169445   -9.2454079    463.41061  0.009668891 0.0079709206         3954 
 3995000   0.61247529   -9.2332123    463.58429 0.0096700936 0.0079674872         3937 
 3996000   0.61168508   -9.2573666    462.51203 0.0096453125 0.0079640578         3930 
 3997000   0.61225872   -9.2426468    462.60792 0.0096448986 0.0079606254         3943 
 3998000   0.61892596   -9.2543572    463.40448 0.0096590895 0.0079571995         3951 
 3999000   0.61587012   -9.2610725    463.28265 0.0096541353 0.0079537731         3938 
 4000000   0.62354708   -9.2644946    462.48934 0.0096351945 0.0079503473         3941 
 4001000   0.61190887   -9.2505121    462.80741 0.0096394112 0.0079469247         3946 
 4002000   0.60852141   -9.2742099    462.90218 0.0096389759 0.0079435052         3937 
 4003000   0.61310896   -9.2437861    462.18163 0.0096215677 0.0079400866         3930 
 4004000   0.60792091   -9.2652064    462.61376 0.0096281585 0.0079366671         3941 
 4005000    0.6085293   -9.2765151     462.0267 0.0096135393  0.007933253         3933 
 4006000   0.60742141   -9.2599055    462.53345 0.0096216809 0.0079298389         3938 
 4007000   0.60121846    -9.263656    462.82882 0.0096254225 0.0079264302         3934 
 4008000   0.61868876   -9.2664269    462.92371  0.009624994 0.0079230228         3939 
 4009000   0.61108657     -9.25803    462.81881 0.0096204126 0.0079196156         3941 
 4010000   0.61338836   -9.2630832    462.51537 0.0096117076 0.0079162096         3938 
 4011000   0.63203925   -9.2677903    461.60918  0.009590484 0.0079128072         3932 
 4012000   0.60589953    -9.262338    463.06258 0.0096182823 0.0079094038         3951 
 4013000   0.60247644   -9.2598298    462.79948 0.0096104219 0.0079060059         3939 
 4014000    0.6083131   -9.2464462    463.15307 0.0096153684 0.0079026088         3962 
 4015000   0.61118076   -9.2552312     463.5799 0.0096218327 0.0078992157         3949 
 4016000   0.61265431   -9.2603921    462.83788 0.0096040397 0.0078958223         3943 
 4017000   0.61145652   -9.2676415    462.93054  0.009603571  0.007892433         3934 
 4018000   0.60197294   -9.2460095    463.01203  0.009602871 0.0078890417         3948 
 4019000   0.61479066   -9.2655824     462.1898 0.0095834328 0.0078856571         3942 
 4020000   0.61638902   -9.2746842    462.20043 0.0095812693 0.0078822735         3939 
 4021000   0.60884932   -9.2493061    462.35493 0.0095820884 0.0078788894         3937 
 4022000   0.59724018   -9.2599554    461.96827 0.0095716947 0.0078755064         3952 
 4023000   0.59423792   -9.2563647    462.57652 0.0095819149 0.0078721258         3951 
 4024000   0.59851908   -9.2541416     462.0864 0.0095693837 0.0078687532         3934 
 4025000   0.61477181   -9.2866409    462.33611 0.0095721762 0.0078653807         3952 
 4026000   0.60705202   -9.2747342    462.08296 0.0095645586 0.0078620069         3948 
 4027000   0.60922935   -9.2515733    462.26889 0.0095660312 0.0078586338         3944 
 4028000    0.6018314   -9.2477289    462.15398  0.009561279 0.0078552641         3945 
 4029000   0.61222013   -9.2723619    461.50243 0.0095454296  0.007851896         3930 
 4030000   0.59098331   -9.2528574    461.68613 0.0095468596 0.0078485316         3938 
 4031000   0.60113631    -9.256517    462.90502 0.0095696896 0.0078451677         3943 
 4032000   0.61230482   -9.2654043    461.95292 0.0095476381 0.0078418056         3944 
 4033000   0.60795027    -9.265852    462.06103 0.0095475045 0.0078384499         3936 
 4034000   0.60346047   -9.2571349    462.16989 0.0095473867 0.0078350919         3938 
 4035000   0.59465715   -9.2705834    462.82481 0.0095585463 0.0078317349         3933 
 4036000   0.61227147   -9.2718198    462.76783 0.0095550014   0.00782838         3945 
 4037000   0.59786041   -9.2684472    462.78969 0.0095530858 0.0078250276         3954 
 4038000   0.62082916   -9.2699013    462.06287 0.0095357205 0.0078216777         3939 
 4039000   0.61222769   -9.2411156    463.05112 0.0095537492 0.0078183295         3936 
 4040000   0.60717942   -9.2562596    462.12914 0.0095323667  0.007814982         3947 
 4041000   0.60785379   -9.2691886    462.08759  0.009529151 0.0078116366         3960 
 4042000   0.59179422   -9.2663076    462.71941 0.0095398196 0.0078082955         3949 
 4043000   0.60986723   -9.2714616    462.25294 0.0095278453 0.0078049587         3956 
 4044000   0.62262477   -9.2670177    462.10653 0.0095224721 0.0078016206         3948 
 4045000    0.6062153    -9.264576    462.44996 0.0095271932 0.0077982825         3941 
 4046000   0.60486376   -9.2696608    461.95427  0.009514629 0.0077949465         3948 
 4047000   0.60466629   -9.2894758    462.02953 0.0095138277 0.0077916116         3949 
 4048000   0.59800915   -9.2680901    462.64619 0.0095241723 0.0077882794         3942 
 4049000   0.61449281   -9.2574577    462.61344 0.0095211459   0.00778495         3931 
 4050000   0.60513174    -9.254934    462.69791 0.0095205331 0.0077816256         3939 
 4051000   0.59926246   -9.2821948    462.59918  0.009516152 0.0077782963         3943 
 4052000   0.60884516   -9.2597938    462.25183 0.0095066598 0.0077749713         3951 
 4053000   0.59962132   -9.2590013    462.34412 0.0095062118 0.0077716489         3950 
 4054000   0.59793306   -9.2672538    462.51764 0.0095074337   0.00776833         3947 
 4055000   0.60942823    -9.259078    461.96022 0.0094936337 0.0077650116         3946 
 4056000   0.59067486   -9.2736448    461.97049 0.0094915041 0.0077616967         3956 
 4057000   0.60940552   -9.2799667    462.88835  0.009508018 0.0077583821         3953 
 4058000   0.59346974   -9.2626552     461.9307 0.0094860092  0.007755071         3946 
 4059000   0.59832628   -9.2724624    462.18786 0.0094889518 0.0077517594         3941 
 4060000   0.58948151   -9.2667023    462.88516  0.009500927 0.0077484482         3950 
 4061000   0.60413088   -9.2563466    462.58077 0.0094923413 0.0077451409         3946 
 4062000   0.60606133   -9.2639579    461.94895 0.0094770424 0.0077418324         3951 
 4063000   0.59780942   -9.2737175    462.35374 0.0094830121 0.0077385271         3951 
 4064000   0.59433968   -9.2695289    462.41317 0.0094818973 0.0077352248         3962 
 4065000   0.59643907   -9.2796991    462.44567 0.0094802311 0.0077319233         3949 
 4066000   0.60454672   -9.2707227    462.96975 0.0094886406 0.0077286203         3953 
 4067000   0.61361496   -9.2752112    462.44082 0.0094754696 0.0077253236         3941 
 4068000   0.60622762   -9.2798366    461.62092 0.0094563447 0.0077220269         3932 
 4069000   0.59037251   -9.2917838    461.84529 0.0094586158 0.0077187327         3945 
 4070000   0.60874822   -9.2738253    462.02134 0.0094598964 0.0077154426         3953 
 4071000    0.5919585   -9.2609547    462.90936 0.0094757504 0.0077121535         3954 
 4072000   0.60488785   -9.2644835    462.45279 0.0094640797 0.0077088682         3943 
 4073000   0.60218557   -9.2740183    462.18816 0.0094563417  0.007705583         3955 
 4074000    0.5869357   -9.2693151     461.9471 0.0094490898  0.007702299         3949 
 4075000   0.60336597   -9.2632753    461.98347 0.0094475147  0.007699016         3947 
 4076000   0.60169353   -9.2806779    461.62746 0.0094379182 0.0076957364         3948 
 4077000   0.60560879   -9.2701833    462.23786 0.0094480798 0.0076924605         3944 
 4078000    0.5866236   -9.2623723    462.88441 0.0094589753  0.007689185         3945 
 4079000   0.59370892   -9.2623266    461.86595 0.0094358493 0.0076859109         3944 
 4080000     0.602149    -9.270199    461.69311 0.0094300063 0.0076826387         3955 
 4081000   0.59486406    -9.284473     461.6336 0.0094264803 0.0076793687         3940 
 4082000   0.59709112   -9.2815812    462.55547  0.009442991    0.0076761         3950 
 4083000   0.58806448   -9.2848731    462.62702 0.0094421384 0.0076728319         3958 
 4084000   0.59841442   -9.2732503    462.12133  0.009429508 0.0076695718         3949 
 4085000    0.6132094   -9.2688327    462.77042 0.0094404411 0.0076663085         3934 
 4086000   0.59744136   -9.2841962    462.49118 0.0094324355 0.0076630498         3955 
 4087000   0.60174348   -9.2853031     462.6648 0.0094336677 0.0076597882         3943 
 4088000   0.60129405    -9.277336    461.56407 0.0094089219 0.0076565329         3944 
 4089000   0.59543519   -9.2655817    462.31268 0.0094218773 0.0076532791         3949 
 4090000   0.59613643   -9.2812027    461.34168 0.0093997897 0.0076500307         3958 
 4091000   0.60566454   -9.2843484    462.17225 0.0094144107 0.0076467795         3953 
 4092000   0.59681509   -9.2793743    462.20078 0.0094126909 0.0076435278         3942 
 4093000   0.59860599   -9.2861095    462.36811 0.0094137982 0.0076402829         3947 
 4094000   0.59729597   -9.2713598    461.60015  0.009395867 0.0076370352         3947 
 4095000   0.58251286   -9.2744245     461.6106  0.009393785 0.0076337919         3940 
 4096000   0.59406733   -9.2846081    462.21348 0.0094037573 0.0076305497         3949 
 4097000   0.58143487   -9.2733217     461.8672 0.0093944186 0.0076273095         3951 
 4098000   0.60293877   -9.2757812    462.55205 0.0094060527 0.0076240729         3955 
 4099000   0.59750796   -9.2796626    461.87449 0.0093899832 0.0076208375         3957 
 4100000   0.59487183   -9.2822901    462.15074 0.0093933078  0.007617604         3956 
 4101000   0.58869766   -9.2738869    461.80241 0.0093839391 0.0076143725         3954 
 4102000   0.59560024   -9.2636685    462.34894 0.0093927544 0.0076111403         3918 
 4103000   0.60247019   -9.2820777    462.42607 0.0093920316 0.0076079127         3955 
 4104000   0.59830182   -9.2800901    461.40323 0.0093689739 0.0076046855         3952 
 4105000   0.60043689   -9.2716766     462.7694 0.0093944254 0.0076014613         3941 
 4106000   0.60193592   -9.2789734    461.74142 0.0093712743 0.0075982417         3944 
 4107000   0.60077635   -9.2959643    462.12028 0.0093766796 0.0075950184         3943 
 4108000   0.59995791   -9.2724955    462.27347 0.0093775046  0.007591798         3959 
 4109000   0.60380053   -9.2896283     462.5028 0.0093798734 0.0075885798         3932 
 4110000   0.60287407   -9.2825357    462.41195 0.0093757491 0.0075853647         3957 
 4111000   0.59990171   -9.2670579     461.5444 0.0093558827 0.0075821502         3937 
 4112000    0.5881557   -9.2849384    461.93448 0.0093615127 0.0075789393         3954 
 4113000   0.59736124   -9.3015141     461.7785 0.0093560762  0.007575729         3946 
 4114000    0.5978804   -9.2724552    462.33785 0.0093651323 0.0075725195         3937 
 4115000     0.588805   -9.2541287    462.47321 0.0093655976 0.0075693152         3940 
 4116000   0.59465704   -9.2717214    461.71037 0.0093478775 0.0075661091         3943 
 4117000   0.59759378   -9.2893477    461.86451  0.009348727 0.0075629033         3955 
 4118000    0.5998566    -9.299856    461.45857 0.0093382421 0.0075597013         3951 
 4119000    0.5953707   -9.2850984    461.97586 0.0093464404 0.0075565012         3952 
 4120000   0.58698841   -9.2923101    461.49551 0.0093344561 0.0075532996         3955 
 4121000   0.59329908   -9.2866564    462.60718 0.0093546707 0.0075501024         3950 
 4122000   0.59569555   -9.2649657    462.16045   0.00934337 0.0075469067         3949 
 4123000   0.59406456   -9.2665219    462.31643 0.0093442564 0.0075437149         3945 
 4124000   0.58728253    -9.287451    462.25695 0.0093407887 0.0075405243         3937 
 4125000   0.59551878   -9.2985087     462.0935 0.0093352221 0.0075373329         3950 
 4126000   0.58957991   -9.2897692      461.272 0.0093163678 0.0075341439         3951 
 4127000   0.59977062   -9.2881413    462.10961 0.0093310236 0.0075309566         3939 
 4128000   0.59180816   -9.2785132    461.73946 0.0093212908 0.0075277702         3945 
 4129000   0.59968137   -9.2836768    461.71071  0.009318453 0.0075245865         3940 
 4130000   0.58847608   -9.2890617    461.45665 0.0093110703 0.0075214062         3950 
 4131000   0.60396447   -9.2963788    461.37335 0.0093071361 0.0075182306         3944 
 4132000   0.58399057   -9.2851583    461.32421 0.0093038927 0.0075150534         3941 
 4133000   0.58139679   -9.2769912    461.93498 0.0093139564 0.0075118786         3947 
 4134000   0.59294733   -9.2888675    461.69291 0.0093068236 0.0075087071         3939 
 4135000   0.58461845   -9.3014419    462.31819 0.0093171743 0.0075055362         3950 
 4136000    0.5846618   -9.3087881    461.87409 0.0093059737 0.0075023667         3946 
 4137000    0.6020052   -9.2906822     461.4967 0.0092961224 0.0074991964         3942 
 4138000   0.60122193   -9.2936364    461.42209 0.0092923733 0.0074960285         3946 
 4139000   0.59153776   -9.2954317    461.73527 0.0092964338 0.0074928651         3951 
 4140000    0.5954615   -9.2728538    462.89692 0.0093175708 0.0074897055         3939 
 4141000   0.57984132    -9.291013    460.90974 0.0092753308 0.0074865454         3943 
 4142000   0.59515566   -9.2913675    461.21275 0.0092791878 0.0074833857         3952 
 4143000   0.58651786   -9.3009141    461.43666 0.0092814518  0.007480231         3948 
 4144000    0.5989917   -9.2980041    462.25595 0.0092956876  0.007477078         3955 
 4145000   0.58700005   -9.2855023    461.85702 0.0092854245 0.0074739243         3954 
 4146000   0.59881195   -9.2846566    462.40374 0.0092941739 0.0074707719         3943 
 4147000   0.59453775   -9.2950886    461.75665 0.0092789295 0.0074676212         3959 
 4148000   0.57742503   -9.2859152      461.444 0.0092704115 0.0074644734         3952 
 4149000   0.59150204   -9.2823387    461.88876 0.0092771101 0.0074613267         3941 
 4150000   0.59135035   -9.2840646    461.92285 0.0092755592 0.0074581831         3953 
 4151000   0.58728499   -9.2873106    461.90284 0.0092729229 0.0074550378         3940 
 4152000   0.59511364   -9.2924347    461.84337  0.009269496 0.0074518958         3956 
 4153000   0.60591271   -9.2894742    461.47453 0.0092598629  0.007448755         3965 
 4154000   0.58532401   -9.2897188    461.50146 0.0092581741 0.0074456148         3941 
 4155000   0.58470171   -9.2798246    461.55281 0.0092569758 0.0074424771         3940 
 4156000   0.59239936   -9.3064014    461.59729 0.0092556402 0.0074393415         3959 
 4157000   0.59569495   -9.2906287    461.86433 0.0092587669  0.007436209         3961 
 4158000   0.58330307   -9.2841927    461.14021 0.0092420275 0.0074330775         3966 
 4159000   0.59252717   -9.2831172    461.69557 0.0092509331 0.0074299479         3945 
 4160000   0.57884766   -9.3052651    460.68264 0.0092284183 0.0074268217         3954 
 4161000   0.59667605   -9.2891291    462.12824 0.0092551517 0.0074236939         3947 
 4162000   0.58720884   -9.2879559    461.35535  0.009237453 0.0074205723         3955 
 4163000    0.5773954   -9.2903747    462.14743 0.0092510896 0.0074174535         3961 
 4164000   0.58803577   -9.3010725    461.32185 0.0092323456   0.00741433         3945 
 4165000   0.58448084   -9.2897375    461.41341 0.0092319609 0.0074112137         3944 
 4166000   0.58776411   -9.2921387    461.57367 0.0092329507  0.007408101         3943 
 4167000   0.60279674    -9.294848     461.5912 0.0092310855 0.0074049865         3952 
 4168000      0.58598   -9.3005654    461.96959 0.0092364362 0.0074018753         3959 
 4169000   0.60011571   -9.3050452    461.05494 0.0092159379 0.0073987637         3957 
 4170000   0.58630951   -9.3013469    461.73637 0.0092273455 0.0073956529         3938 
 4171000   0.58304205   -9.3042782    460.92806 0.0092089838 0.0073925486         3929 
 4172000   0.58286724    -9.305447    462.14334 0.0092310511  0.007389443         3957 
 4173000   0.57076301    -9.306716    460.69724 0.0091999609 0.0073863374         3957 
 4174000    0.5733011   -9.2816484    461.35434 0.0092108756 0.0073832348         3950 
 4175000    0.5875593   -9.2780047    461.98366 0.0092212307 0.0073801346         3948 
 4176000   0.59335046   -9.3030154    461.99409 0.0092192308 0.0073770358         3959 
 4177000   0.56953209   -9.2959938    462.23805 0.0092218908 0.0073739391         3961 
 4178000   0.58952746   -9.2935481    462.69214 0.0092287406 0.0073708424         3942 
 4179000   0.58808632   -9.3053419    461.72542 0.0092072549 0.0073677458         3957 
 4180000   0.58853502   -9.2901596    461.30594 0.0091966895 0.0073646525         3944 
 4181000   0.57386625   -9.2930111    461.93106 0.0092069492   0.00736156         3963 
 4182000   0.58911121   -9.3049027    462.06764 0.0092074692 0.0073584708         3960 
 4183000   0.57835332   -9.2916748    461.80346 0.0092000051  0.007355382         3951 
 4184000    0.5752402   -9.2954269    461.73552 0.0091964531 0.0073522986         3952 
 4185000   0.57726631   -9.3054734    461.01732 0.0091799545  0.007349215         3952 
 4186000   0.58802532   -9.2931316    461.71609 0.0091916724 0.0073461323         3945 
 4187000   0.58889915   -9.3050715    461.60427 0.0091872515 0.0073430493         3941 
 4188000   0.56986799   -9.3110738     462.5716  0.009204306 0.0073399695         3941 
 4189000   0.57436209   -9.3159035    460.73465 0.0091655656 0.0073368931         3932 
 4190000   0.56539591   -9.2863633    461.59675 0.0091805242 0.0073338179         3946 
 4191000   0.57692384   -9.2864911    461.45643 0.0091755434 0.0073307445         3949 
 4192000   0.57439813   -9.2868101     460.6288  0.009156902 0.0073276749         3953 
 4193000   0.57911883   -9.3011635    461.49153 0.0091718644 0.0073246065         3952 
 4194000   0.57040488   -9.2972324    462.65545 0.0091928042 0.0073215402         3955 
 4195000    0.5724192   -9.3072013     461.1752 0.0091612078 0.0073184725         3954 
 4196000   0.59039877   -9.3271716    462.03963 0.0091761923 0.0073154096         3967 
 4197000   0.56815822   -9.2979442    460.98638 0.0091530932 0.0073123457         3942 
 4198000   0.58211693   -9.2981349    461.19865 0.0091551264 0.0073092856         3952 
 4199000   0.57219659   -9.3147988    462.27359 0.0091742795 0.0073062262         3951 
 4200000   0.59178661   -9.3133788    461.55274 0.0091577924 0.0073031699         3953 
 4201000    0.5803808   -9.3016631    461.25107 0.0091496285 0.0073001171         3949 
 4202000   0.58009521   -9.2953087    461.18235 0.0091460881 0.0072970609         3953 
 4203000   0.58931504   -9.2937152    461.71042 0.0091543822 0.0072940072         3944 
 4204000   0.57303203   -9.2967675    461.17891 0.0091416688 0.0072909566         3955 
 4205000   0.57177855   -9.3114124    461.66808 0.0091491891 0.0072879098         3948 
 4206000   0.57661901   -9.2982149    461.14236 0.0091365976 0.0072848646         3952 
 4207000   0.58099525   -9.2868149    461.72407 0.0091459486 0.0072818194         3950 
 4208000   0.57562657   -9.2936383    462.13897 0.0091519917 0.0072787762         3968 
 4209000   0.58040561   -9.2982134    461.74354 0.0091419882  0.007275735         3965 
 4210000   0.57040598   -9.3165124      461.316  0.009131354  0.007272697         3958 
 4211000   0.56820288   -9.3094122    461.04246 0.0091237723 0.0072696571         3959 
 4212000   0.56908818   -9.3307946    461.78219 0.0091362416 0.0072666189         3960 
 4213000   0.57843781   -9.2939237    461.56884 0.0091298529 0.0072635848         3939 
 4214000   0.58682057   -9.3078284    461.60076 0.0091283175 0.0072605522         3943 
 4215000   0.58758668   -9.3049868    461.52984 0.0091247496 0.0072575197         3954 
 4216000    0.5811604   -9.3127975     461.3819 0.0091196612 0.0072544878         3944 
 4217000   0.57277288   -9.2978182    461.31451  0.009116167 0.0072514591         3955 
 4218000   0.57893193   -9.2992343    461.65721 0.0091207762 0.0072484324         3946 
 4219000   0.57449746   -9.3043778     461.9781 0.0091249527 0.0072454086         3945 
 4220000   0.56922731    -9.308839      460.859 0.0091006912 0.0072423859         3954 
 4221000   0.57213765   -9.3073984    461.05244 0.0091023541 0.0072393638         3945 
 4222000    0.5677674   -9.3170966    461.65161 0.0091120246 0.0072363431         3952 
 4223000   0.57354334   -9.3033001    461.24932 0.0091019284 0.0072333261         3960 
 4224000   0.57984034    -9.293238    461.02797 0.0090954067 0.0072303085         3945 
 4225000   0.57793368   -9.3094933    461.35166 0.0090996383 0.0072272931         3942 
 4226000   0.56974966   -9.3146951    460.83564 0.0090873094 0.0072242802         3958 
 4227000   0.57737608   -9.3113271    460.34807 0.0090755474 0.0072212666         3943 
 4228000   0.57868611   -9.2788772    461.48514 0.0090958124 0.0072182575         3960 
 4229000   0.58878485   -9.3049341    461.52554 0.0090944578 0.0072152484         3957 
 4230000    0.5819217   -9.3016635     461.0031 0.0090820153 0.0072122418         3949 
 4231000   0.58306916   -9.3048969    461.77199 0.0090950129 0.0072092396         3939 
 4232000   0.56604891    -9.313705    461.34065 0.0090843701 0.0072062388         3949 
 4233000   0.58506235   -9.2939439    461.63842  0.009088086 0.0072032402         3957 
 4234000   0.57265458   -9.3037415    461.73494 0.0090878393 0.0072002418         3951 
 4235000   0.58651052   -9.3059174    461.44683 0.0090800242 0.0071972417         3942 
 4236000   0.58444128    -9.305567    461.67466 0.0090823626 0.0071942474         3943 
 4237000   0.57454277   -9.3070768    460.46419 0.0090564117 0.0071912517         3964 
 4238000   0.57780955   -9.3227356    460.98517 0.0090645189 0.0071882612         3966 
 4239000    0.5727151   -9.3207347    461.50857 0.0090726699 0.0071852696         3951 
 4240000   0.57381981   -9.3066581    461.51939 0.0090707427 0.0071822843         3965 
 4241000   0.57068766   -9.3011191    461.19841 0.0090622968 0.0071792953         3955 
 4242000   0.56483475   -9.3173189     461.1679 0.0090595611 0.0071763084         3952 
 4243000    0.5618906   -9.3097985    460.80555 0.0090503092 0.0071733254         3934 
 4244000   0.56802245   -9.2964506    460.48247  0.009041833 0.0071703419         3951 
 4245000   0.57532354   -9.3253982    460.73716 0.0090447029 0.0071673598         3943 
 4246000    0.5770785    -9.323516    461.20966 0.0090518461 0.0071643795         3955 
 4247000   0.57596754   -9.3008817    461.52087 0.0090558211 0.0071614025         3950 
 4248000   0.57720431   -9.3039111    461.23148 0.0090480124 0.0071584288         3944 
 4249000   0.57716138   -9.3079368    460.98523 0.0090410534 0.0071554544         3946 
 4250000   0.57783931   -9.3222226    461.23798 0.0090438819 0.0071524816         3956 
 4251000   0.56776935   -9.3230169    461.24213 0.0090418357 0.0071495107         3957 
 4252000    0.5712531   -9.3151308    461.43903 0.0090435682 0.0071465425         3947 
 4253000   0.56010054   -9.3108014    461.98562 0.0090521517 0.0071435759         3948 
 4254000   0.56746511    -9.329164    461.34267 0.0090374289 0.0071406093         3961 
 4255000   0.55073656   -9.3331427    461.80345 0.0090443293 0.0071376464         3939 
 4256000   0.57078186    -9.293761    461.14899 0.0090293897 0.0071346845         3947 
 4257000   0.57440441   -9.3132768    461.74674   0.00903897 0.0071317225         3956 
 4258000   0.56927004   -9.3297587      460.773 0.0090177901 0.0071287629         3957 
 4259000   0.57592915   -9.3005128    462.58689  0.009051164 0.0071258064         3954 
 4260000   0.56893963   -9.3008258    461.51745 0.0090281191 0.0071228531         3943 
 4261000   0.56358448   -9.3263466    460.68086  0.009009639 0.0071198986         3949 
 4262000   0.57874917   -9.3091742    460.79874 0.0090098299  0.007116947         3963 
 4263000   0.58018983   -9.3172603      461.344 0.0090183752  0.007113995         3955 
 4264000      0.57973    -9.325637    461.25462 0.0090145134 0.0071110457         3968 
 4265000    0.5582564   -9.3340305    461.24128  0.009012139 0.0071080978         3957 
 4266000   0.56598772   -9.3036096    461.32999 0.0090117595 0.0071051518         3961 
 4267000   0.55744578   -9.3236115    461.36989 0.0090104267 0.0071022075         3942 
 4268000   0.55947799   -9.3218788    460.95876 0.0090002882 0.0070992624         3950 
 4269000    0.5791846   -9.3144772    461.28919 0.0090046301 0.0070963206         3951 
 4270000   0.57532797   -9.3205986    461.39987 0.0090046813  0.007093382         3953 
 4271000    0.5611394   -9.3297102    460.93698 0.0089935414 0.0070904451         3955 
 4272000   0.56234076   -9.3164334    461.35367 0.0089995645 0.0070875081         3948 
 4273000   0.56343976    -9.325993    461.08075 0.0089921358 0.0070845727         3954 
 4274000   0.54498841   -9.3186496    461.68294 0.0090017731 0.0070816399         3950 
 4275000   0.56731708   -9.3049392     461.3918 0.0089939923 0.0070787065         3944 
 4276000   0.56991757   -9.3138824    461.25219  0.008989168 0.0070757749         3953 
 4277000   0.57686463   -9.3148744    461.71649 0.0089961128  0.007072849         3952 
 4278000   0.56696974   -9.3158242    461.43593 0.0089885447 0.0070699227         3959 
 4279000   0.55613382   -9.3290277    460.83577  0.008974756 0.0070669952         3949 
 4280000   0.58485811   -9.3141389     460.9278 0.0089744509 0.0070640713         3957 
 4281000   0.56486543   -9.3326397    460.53278 0.0089646652 0.0070611516         3941 
 4282000    0.5631566   -9.3115172    461.13103 0.0089742144 0.0070582319         3948 
 4283000   0.57324668   -9.3016304    461.48508 0.0089790077 0.0070553123         3936 
 4284000   0.56478699   -9.3308569    460.92801 0.0089660754 0.0070523947         3956 
 4285000   0.56408983   -9.3144144     460.4463 0.0089546148 0.0070494794         3954 
 4286000   0.57821977   -9.3030594    461.56127 0.0089742042 0.0070465653         3952 
 4287000    0.5674791   -9.2954896    462.11065 0.0089827901 0.0070436563         3951 
 4288000    0.5658712   -9.3065956    461.69854 0.0089726861 0.0070407477         3936 
 4289000   0.56119676   -9.3176841    461.30051 0.0089628607 0.0070378376         3960 
 4290000   0.56171194   -9.3292147    460.85998 0.0089522141 0.0070349287         3955 
 4291000     0.567583   -9.3202874    460.66866 0.0089464123 0.0070320224         3953 
 4292000   0.56604916   -9.3218562    461.24276 0.0089554746 0.0070291178         3943 
 4293000   0.57811763   -9.3109242    461.57714 0.0089598792 0.0070262179         3942 
 4294000   0.56604833   -9.3114985    460.86542 0.0089439803 0.0070233182         3945 
 4295000    0.5617857    -9.317022    462.12982 0.0089664304 0.0070204205         3953 
 4296000   0.56522418   -9.3347667    461.37547 0.0089497105 0.0070175232         3955 
 4297000   0.57196437   -9.3387576    461.38168 0.0089477481 0.0070146291         3960 
 4298000   0.57264776    -9.302644    460.86953 0.0089357362 0.0070117342         3956 
 4299000   0.55923741   -9.3415875    460.67215 0.0089298315 0.0070088417         3954 
 4300000    0.5662878   -9.3426261    460.60133 0.0089263825   0.00700595         3944 
 4301000     0.563346   -9.3341978    460.35133 0.0089194631 0.0070030609         3953 
 4302000   0.57719724   -9.3175705     460.7221  0.008924572 0.0070001724         3947 
 4303000    0.5612025   -9.3226997    461.21363 0.0089320169 0.0069972869         3945 
 4304000   0.56234675   -9.3372572     461.5859 0.0089371495 0.0069944011         3948 
 4305000   0.55993928   -9.3213565    460.61147 0.0089162112 0.0069915174         3948 
 4306000   0.55731847    -9.304423    461.30832 0.0089276266 0.0069886378         3953 
 4307000   0.56229692   -9.3144056    460.05984 0.0089013977 0.0069857574         3948 
 4308000   0.56405368   -9.3449909    460.99262 0.0089173751 0.0069828792         3964 
 4309000   0.55206443   -9.3380271    460.16008 0.0088992048 0.0069800021         3966 
 4310000   0.57260772   -9.3180867    461.77991 0.0089284591 0.0069771267         3963 
 4311000   0.56566991   -9.3400306    460.81637 0.0089077626  0.006974254         3942 
 4312000   0.55522916   -9.3397173    460.89639 0.0089072432 0.0069713808         3963 
 4313000   0.55642324   -9.3411278    460.53754 0.0088982445 0.0069685124         3957 
 4314000   0.56435513   -9.3420734    461.03418 0.0089057755 0.0069656438         3960 
 4315000    0.5554629   -9.3315938    460.35081 0.0088905139 0.0069627765         3961 
 4316000   0.56999484   -9.3462357    460.38116 0.0088890399 0.0069599131         3960 
 4317000   0.56521205   -9.3333745    460.43009 0.0088879254 0.0069570497         3953 
 4318000   0.56878953   -9.3327939    460.64793 0.0088900712 0.0069541884         3951 
 4319000   0.55724374   -9.3224651    460.86991 0.0088922958 0.0069513264         3946 
 4320000   0.54959765   -9.3352253    460.87325 0.0088903018 0.0069484685         3967 
 4321000   0.56913921   -9.3325974    460.67349 0.0088843919  0.006945613         3962 
 4322000   0.56772952   -9.3379008    460.78051 0.0088843999 0.0069427587         3972 
 4323000   0.56101683   -9.3252368    460.34207  0.008873893 0.0069399064         3944 
 4324000   0.55611883   -9.3247999    461.13407 0.0088871043 0.0069370531         3956 
 4325000   0.56346625   -9.3156644    461.10846  0.008884556 0.0069342028         3954 
 4326000    0.5503434   -9.3306257    461.12425 0.0088828064 0.0069313553         3952 
 4327000   0.56284429   -9.3474671    460.51819 0.0088690816  0.006928507         3964 
 4328000   0.55892083   -9.3223416    461.15243 0.0088792442 0.0069256608         3955 
 4329000   0.56682475   -9.3272936    460.70945 0.0088686658 0.0069228173         3946 
 4330000   0.56808071   -9.3394708    460.77854 0.0088679472 0.0069199745         3955 
 4331000   0.54961017   -9.3539814    460.55859 0.0088616675 0.0069171317         3959 
 4332000   0.56687659   -9.3555437    461.10076 0.0088700516 0.0069142909         3959 
 4333000   0.56964578   -9.3325003    460.51822 0.0088568009 0.0069114504         3945 
 4334000   0.56005554   -9.3179607    461.10895 0.0088661158 0.0069086145         3946 
 4335000   0.55593471   -9.3404555    460.54173 0.0088531667 0.0069057773         3941 
 4336000   0.56147389   -9.3414548    460.95427 0.0088590535 0.0069029441         3962 
 4337000   0.55918107   -9.3498803    460.44455 0.0088472168  0.006900112         3973 
 4338000   0.55839028   -9.3200343    460.40034 0.0088443281 0.0068972809         3953 
 4339000   0.56505062   -9.3357815    460.22238 0.0088388718 0.0068944528         3949 
 4340000   0.55331007   -9.3364249    460.06469 0.0088338075 0.0068916268         3952 
 4341000   0.55528842   -9.3307578    460.83479  0.008846556 0.0068888015         3950 
 4342000   0.55709465   -9.3211603    461.47002   0.00885671 0.0068859787         3952 
 4343000   0.54880749   -9.3529716    460.03429 0.0088271221 0.0068831555         3945 
 4344000   0.56797555   -9.3463101     460.5685 0.0088353381 0.0068803321         3944 
 4345000   0.56833205   -9.3335408    460.44539 0.0088309434 0.0068775113         3950 
 4346000   0.55366177   -9.3258853    461.50718 0.0088492711 0.0068746943         3941 
 4347000   0.55757097   -9.3392027    460.65537 0.0088309057 0.0068718773         3957 
 4348000   0.56452792   -9.3207555    460.79838 0.0088316156 0.0068690637         3951 
 4349000   0.56635901    -9.337166    460.84918 0.0088305584 0.0068662497         3933 
 4350000   0.55479097   -9.3355329    460.69661 0.0088256056 0.0068634351         3951 
 4351000   0.55884995   -9.3355004    460.70228 0.0088236857 0.0068606229         3936 
 4352000   0.54830036   -9.3551309     460.8293 0.0088240905 0.0068578124         3958 
 4353000   0.56514118   -9.3216844    461.29038 0.0088308901 0.0068550034         3963 
 4354000   0.56029743   -9.3294165    461.07946  0.008824825 0.0068521976         3946 
 4355000   0.56547277     -9.31996    460.71252 0.0088157773 0.0068493926         3949 
 4356000   0.55115056   -9.3304183    460.12228 0.0088024617 0.0068465894         3947 
 4357000   0.54341887   -9.3434243     460.0861 0.0087997495  0.006843787         3967 
 4358000   0.55225928   -9.3421381     460.2361 0.0088005986 0.0068409859         3951 
 4359000   0.55211222   -9.3443443    461.11645 0.0088154097 0.0068381864         3938 
 4360000   0.55028822   -9.3387728    460.20904 0.0087960443 0.0068353893         3958 
 4361000   0.55782751   -9.3414924    460.29399 0.0087956506 0.0068325953         3944 
 4362000   0.55622971   -9.3403424    460.41786 0.0087960007 0.0068298007         3949 
 4363000    0.5410535   -9.3407337    460.85866 0.0088024039 0.0068270083         3951 
 4364000   0.54549105   -9.3528047    460.95132 0.0088021563 0.0068242171         3964 
 4365000   0.55695508   -9.3341307    460.30708 0.0087878404 0.0068214275         3948 
 4366000   0.54967768   -9.3503074    460.20721 0.0087839213 0.0068186387         3954 
 4367000   0.55328612    -9.348924    460.07784 0.0087794412 0.0068158499         3950 
 4368000    0.5514787   -9.3311608    460.88951 0.0087929165 0.0068130659         3948 
 4369000   0.55053078   -9.3418441    460.78314  0.008788875  0.006810284         3935 
 4370000    0.5460251   -9.3387554    459.81594 0.0087684199 0.0068075035         3941 
 4371000   0.55023028    -9.351975    460.19141 0.0087735722 0.0068047233         3954 
 4372000   0.54260945    -9.349888     460.7025 0.0087813071 0.0068019441         3955 
 4373000   0.56031065   -9.3357542    460.70252 0.0087792995 0.0067991653         3948 
 4374000   0.53706514   -9.3326277    460.20803 0.0087678714 0.0067963886         3945 
 4375000   0.54455243   -9.3328675    460.51274 0.0087716712 0.0067936144         3954 
 4376000   0.55257919   -9.3381961    460.98593 0.0087786779 0.0067908408         3933 
 4377000   0.53350988   -9.3163175     460.8385 0.0087738653 0.0067880694         3948 
 4378000   0.55458812   -9.3313766    461.17798 0.0087783231 0.0067853007         3950 
 4379000   0.54915778   -9.3488937    460.90851 0.0087711904 0.0067825335         3960 
 4380000   0.54308877   -9.3415454    461.07989 0.0087724484 0.0067797664         3957 
 4381000   0.54053789   -9.3379343    460.82957 0.0087656846 0.0067770021         3954 
 4382000   0.54575416   -9.3518809    460.51865 0.0087577715 0.0067742407         3949 
 4383000   0.53842079   -9.3459133    460.17764 0.0087492897 0.0067714791         3949 
 4384000   0.57223042   -9.3749892    460.28848 0.0087494008 0.0067687206         3951 
 4385000   0.54005477   -9.3475156    460.48819  0.008751201 0.0067659615         3947 
 4386000   0.53426321   -9.3438547    460.42671 0.0087480375 0.0067632027         3967 
 4387000   0.54767773   -9.3401146    461.16018 0.0087599761 0.0067604451         3945 
 4388000   0.55328705   -9.3324701    460.61183 0.0087475659 0.0067576912         3947 
 4389000    0.5555825   -9.3439704    460.15363  0.008736873 0.0067549378         3962 
 4390000   0.55698836   -9.3426479    460.23313  0.008736392 0.0067521883         3960 
 4391000   0.55491404   -9.3604984    460.97946 0.0087485664 0.0067494395         3956 
 4392000    0.5466418    -9.349363    460.16688 0.0087311567 0.0067466889         3957 
 4393000   0.54928316    -9.363159    460.40348 0.0087336573 0.0067439426         3950 
 4394000   0.54718802   -9.3403808    460.91962 0.0087414584 0.0067412002         3968 
 4395000   0.54514368   -9.3399017     460.3319 0.0087283258 0.0067384577         3953 
 4396000   0.56025133    -9.353287    460.96007 0.0087382481 0.0067357153         3965 
 4397000   0.54343107   -9.3352026    460.36257  0.008724937 0.0067329755         3952 
 4398000   0.55545296   -9.3579466    460.47951 0.0087251689 0.0067302364         3964 
 4399000   0.54704866   -9.3444141    461.04074 0.0087338172 0.0067274987         3948 
 4400000   0.54032207   -9.3525411     460.6936 0.0087252576 0.0067247631         3965 
 4401000   0.53699104   -9.3448712    459.89157 0.0087080885 0.0067220292         3948 
 4402000   0.55236907   -9.3624748    460.23445 0.0087126013 0.0067192979         3970 
 4403000   0.53338951   -9.3496579    460.17161 0.0087094332  0.006716568         3954 
 4404000   0.53835065   -9.3431579     458.8873 0.0086831535 0.0067138375         3954 
 4405000   0.53093556   -9.3564513    460.16492 0.0087053523 0.0067111091         3960 
 4406000   0.54929412   -9.3472182    461.11293 0.0087213067 0.0067083843         3960 
 4407000   0.54505897   -9.3366112    461.02055 0.0087175809 0.0067056586         3949 
 4408000   0.54310852   -9.3446538    460.39845 0.0087038425 0.0067029363         3963 
 4409000   0.55457765    -9.367943    460.27595  0.008699553 0.0067002117         3957 
 4410000   0.54580634   -9.3590222    460.07503 0.0086937837 0.0066974901         3958 
 4411000   0.55920636   -9.3535315    459.53198 0.0086815533 0.0066947691         3953 
 4412000   0.54985066   -9.3606218    460.75753 0.0087027337 0.0066920503         3947 
 4413000   0.54705816   -9.3761086    459.94441 0.0086854069 0.0066893314         3957 
 4414000   0.53280834   -9.3685476    460.56829 0.0086952177  0.006686617         3955 
 4415000   0.55599517    -9.350363    459.99755 0.0086824755 0.0066839038         3946 
 4416000   0.54279098   -9.3454368    460.63206  0.008692483 0.0066811908         3961 
 4417000   0.54337965   -9.3507576    460.32921 0.0086848014 0.0066784797         3944 
 4418000   0.55051007   -9.3494664    460.14514 0.0086793636 0.0066757696         3939 
 4419000    0.5431548   -9.3695861      459.721  0.008669401 0.0066730605         3943 
 4420000   0.54190739   -9.3652043    459.96768 0.0086720905 0.0066703533         3951 
 4421000   0.54319564   -9.3480776    460.19154 0.0086743485 0.0066676487         3947 
 4422000   0.55198492   -9.3698165    460.09765 0.0086706176 0.0066649464         3957 
 4423000   0.54463396   -9.3591541     460.7184 0.0086803526 0.0066622442         3953 
 4424000   0.55108326   -9.3543221    459.99269 0.0086647206 0.0066595432         3957 
 4425000   0.54084801   -9.3608255    460.20852 0.0086668272 0.0066568438         3954 
 4426000   0.54565663   -9.3698729    460.24783 0.0086656091  0.006654145         3952 
 4427000   0.55471761   -9.3801715    459.39331 0.0086475663 0.0066514473         3957 
 4428000   0.53531157   -9.3598008    459.58608 0.0086492413 0.0066487528         3941 
 4429000   0.53883156   -9.3470865     460.7017 0.0086682791 0.0066460616         3954 
 4430000   0.54137852   -9.3515463    460.24129 0.0086576616 0.0066433704         3945 
 4431000   0.55127067   -9.3673175    459.84414 0.0086482385 0.0066406793         3958 
 4432000   0.55606362   -9.3473085    460.34398 0.0086556855 0.0066379917         3949 
 4433000   0.54840042   -9.3566077    460.43776 0.0086554959 0.0066353056         3965 
 4434000   0.54305839   -9.3537729     460.4103 0.0086530278  0.006632619         3959 
 4435000   0.55034106   -9.3552978    460.01219 0.0086435962 0.0066299344         3954 
 4436000   0.54049679   -9.3523171    459.72345 0.0086362236 0.0066272532         3956 
 4437000   0.52773879   -9.3534481    460.28996  0.008644917 0.0066245726         3952 
 4438000   0.54177519    -9.374931    460.65086 0.0086497457 0.0066218925         3957 
 4439000   0.54114735   -9.3505144    460.02839 0.0086361116 0.0066192147         3951 
 4440000   0.53696964   -9.3556489    460.68482 0.0086464868 0.0066165369         3950 
 4441000   0.55244991   -9.3480181    460.33841 0.0086380396 0.0066138602         3968 
 4442000   0.53736344   -9.3753189    459.91828 0.0086282133 0.0066111865         3966 
 4443000   0.53611405   -9.3755333      459.469 0.0086178446 0.0066085138         3961 
 4444000   0.53756162   -9.3533888    460.49633 0.0086351698 0.0066058419         3946 
 4445000   0.54363149    -9.362035    460.49644 0.0086332291 0.0066031715         3954 
 4446000   0.53890982   -9.3491154     460.1178 0.0086241902 0.0066005033         3957 
 4447000   0.54622451    -9.364569    459.84946 0.0086172224 0.0065978372         3950 
 4448000    0.5435049   -9.3622703    460.19204 0.0086217034 0.0065951716         3951 
 4449000   0.53297719   -9.3741468    460.19614 0.0086198423 0.0065925075         3961 
 4450000   0.52498879   -9.3549391    459.98067 0.0086138702 0.0065898435         3955 
 4451000   0.53607142   -9.3684996    460.13828 0.0086148857 0.0065871815         3959 
 4452000   0.53533874    -9.367565    460.28878 0.0086157679 0.0065845241         3965 
 4453000   0.54126708   -9.3621243    459.94412 0.0086073831 0.0065818647         3959 
 4454000   0.52585814   -9.3646107    459.80524  0.008602852 0.0065792089         3952 
 4455000   0.54083568    -9.367263    460.15298 0.0086074257 0.0065765518         3950 
 4456000    0.5461096   -9.3610183    460.07339 0.0086040057 0.0065738982         3960 
 4457000    0.5400605   -9.3702239    460.37215 0.0086076611 0.0065712472         3961 
 4458000   0.54079313   -9.3424629    460.64033 0.0086107434 0.0065685979         3953 
 4459000   0.53493267   -9.3803803     460.5961 0.0086079857 0.0065659492         3966 
 4460000   0.53687101   -9.3657579    459.70371 0.0085893817 0.0065633015         3955 
 4461000   0.54134754   -9.3542817    459.97437 0.0085925124 0.0065606557         3960 
 4462000   0.53465414   -9.3674482    458.94279 0.0085713206 0.0065580097         3956 
 4463000   0.53436447   -9.3674465    460.14269 0.0085918047 0.0065553652         3946 
 4464000   0.52877657   -9.3770493    459.74263 0.0085824116 0.0065527215         3939 
 4465000   0.54899121   -9.3655849    459.84146  0.008582334 0.0065500815         3950 
 4466000   0.53578345   -9.3574224    459.41323 0.0085724218 0.0065474422         3948 
 4467000   0.53777946   -9.3767715    460.08315 0.0085830004 0.0065448044         3951 
 4468000    0.5303688   -9.3681291    460.33869 0.0085858454 0.0065421691         3948 
 4469000   0.54190892   -9.3637469    459.70071 0.0085720279 0.0065395329         3954 
 4470000    0.5438498   -9.3625878    460.12899 0.0085780945 0.0065368994         3952 
 4471000   0.53164959   -9.3578449    459.38933 0.0085623896  0.006534269         3950 
 4472000   0.53716772   -9.3627847    460.21691 0.0085758964 0.0065316392         3964 
 4473000    0.5454018   -9.3791952    459.26064 0.0085561637 0.0065290108         3957 
 4474000   0.53762331    -9.371975    459.87484 0.0085656913 0.0065263839         3952 
 4475000   0.53347867   -9.3592864    460.54806  0.008576314  0.006523759         3938 
 4476000   0.52715968   -9.3690903    460.07981 0.0085656802 0.0065211353         3960 
 4477000   0.52700764   -9.3595216    459.76161  0.008557844 0.0065185127         3960 
 4478000   0.52664082   -9.3551359    460.52854 0.0085702052 0.0065158913         3964 
 4479000   0.53716279   -9.3863142    459.21064 0.0085437716 0.0065132702         3958 
 4480000   0.53779039   -9.3782993    459.94486  0.008555522 0.0065106512         3965 
 4481000   0.53171643   -9.3711823    459.46576 0.0085447028  0.006508034         3961 
 4482000   0.53689017    -9.370329    459.65085 0.0085462377 0.0065054204         3945 
 4483000   0.53538699   -9.3655449    460.22735 0.0085550478 0.0065028057         3954 
 4484000   0.53057496   -9.3819947    460.36374 0.0085556747 0.0065001919         3955 
 4485000   0.52995777   -9.3700212    459.94676 0.0085460193  0.006497581         3957 
 4486000   0.53931838   -9.3712734    459.81953 0.0085417509 0.0064949688         3951 
 4487000   0.53395487    -9.365282    459.56735 0.0085351637 0.0064923596         3952 
 4488000   0.53530262   -9.3744621    459.75625 0.0085367694 0.0064897516         3949 
 4489000   0.54099934   -9.3765659    460.58831 0.0085503139 0.0064871469         3959 
 4490000    0.5358283   -9.3571595    459.47282 0.0085277063 0.0064845412         3955 
 4491000   0.53649148   -9.3756801    460.01951 0.0085359517  0.006481938         3952 
 4492000   0.52824363    -9.368649     459.7941 0.0085298697 0.0064793366         3954 
 4493000    0.5276017   -9.3769557    460.23243 0.0085361011 0.0064767371         3952 
 4494000   0.53424375   -9.3598415    460.47065 0.0085386191 0.0064741394         3950 
 4495000   0.52435534   -9.3561922    459.84517 0.0085251237 0.0064715424         3958 
 4496000   0.53977985   -9.3725791     460.2781 0.0085312518 0.0064689468         3971 
 4497000   0.54382474   -9.3624166    459.66651 0.0085180214 0.0064663514         3963 
 4498000   0.54954956   -9.3800824    460.06376 0.0085234874 0.0064637582         3951 
 4499000   0.52807964   -9.3751895    459.49616 0.0085110794  0.006461166         3957 
 4500000   0.53367649   -9.3785966    459.85035 0.0085157472  0.006458574         3946 
 4501000   0.52694142   -9.3724525    459.81623 0.0085132236  0.006455984         3961 
 4502000   0.50949762   -9.3717194    459.55959  0.008506582 0.0064533968         3946 
 4503000   0.53437891   -9.3658182    460.92896 0.0085300348 0.0064508097         3943 
 4504000   0.51841767   -9.3862718    459.28141 0.0084976578 0.0064482243         3955 
 4505000   0.54038831   -9.3787535    459.80266 0.0085054135 0.0064456392         3947 
 4506000   0.52822671   -9.3628381     459.1861 0.0084921234 0.0064430562         3960 
 4507000   0.52828595   -9.3707778    460.28063 0.0085104768 0.0064404746         3946 
 4508000   0.52793158   -9.3699513    459.91592 0.0085018471 0.0064378955         3951 
 4509000   0.52888757    -9.384511    459.01352 0.0084832838 0.0064353141         3950 
 4510000   0.53057173   -9.3910449    459.43859 0.0084892571 0.0064327353         3968 
 4511000   0.54221365    -9.381527    459.89988 0.0084958966 0.0064301577         3958 
 4512000   0.53499917   -9.3873928    458.76171 0.0084729927 0.0064275824         3953 
 4513000    0.5205095   -9.3633483    459.62816 0.0084871142 0.0064250085         3959 
 4514000   0.52874947   -9.3658863    460.39036 0.0084993051 0.0064224389         3943 
 4515000   0.52103485   -9.3586072    459.72552 0.0084851517 0.0064198684         3943 
 4516000   0.52529468   -9.3620087    460.21176 0.0084922453 0.0064173011         3950 
 4517000     0.537871   -9.3608853    460.49201 0.0084955355 0.0064147342         3965 
 4518000   0.53360916   -9.3721935    459.95855 0.0084838157 0.0064121692         3949 
 4519000   0.53682774   -9.3807489    459.92434 0.0084813075 0.0064096044         3948 
 4520000   0.52447038   -9.3683448    459.58901 0.0084732488 0.0064070395         3940 
 4521000   0.53006545   -9.3852347    459.49574 0.0084696554 0.0064044766         3951 
 4522000   0.51869646   -9.3871422    459.52414 0.0084683057 0.0064019161         3954 
 4523000   0.53658183   -9.3899106    460.44117 0.0084833291  0.006399355         3963 
 4524000   0.51837688   -9.3743374    459.76265 0.0084689553 0.0063967957         3957 
 4525000   0.52931333   -9.3740649    459.61367 0.0084643401 0.0063942401         3966 
 4526000   0.52782543   -9.3980225    459.70441 0.0084641408 0.0063916863         3957 
 4527000   0.53763314   -9.3933126    460.27331 0.0084727434  0.006389134         3955 
 4528000   0.52107003   -9.3707781     459.8213 0.0084625534 0.0063865823         3958 
 4529000   0.53330769   -9.3819486    459.78347 0.0084599888 0.0063840301         3964 
 4530000   0.53382432    -9.371633    459.73175 0.0084571698 0.0063814806         3945 
 4531000   0.51901608   -9.3898115    460.21003 0.0084640998 0.0063789321         3953 
 4532000   0.53546442   -9.3823559    460.04106 0.0084591251 0.0063763855         3940 
 4533000   0.53032086   -9.3838261    459.02692 0.0084386154 0.0063738409         3952 
 4534000   0.52205233   -9.3809674    459.66387 0.0084484612 0.0063712946         3964 
 4535000   0.52532968   -9.3891227    459.45441 0.0084427492  0.006368754         3962 
 4536000   0.52437691   -9.3768777    459.89038 0.0084488974 0.0063662103         3945 
 4537000   0.52417281   -9.3778692    459.14001 0.0084332526 0.0063636729         3949 
 4538000   0.52389092   -9.3944418    459.81462 0.0084437825 0.0063611371         3957 
 4539000   0.52096007   -9.3894234    459.45946 0.0084354017    0.0063586         3960 
 4540000   0.52683258   -9.3934441    459.89946   0.00844162 0.0063560662         3956 
 4541000   0.52436768   -9.3803308    459.87693 0.0084393476 0.0063535321         3957 
 4542000   0.51693392   -9.3867757    459.48963 0.0084303836     0.006351         3954 
 4543000   0.53941344   -9.3768982    460.50993 0.0084472436 0.0063484694         3955 
 4544000   0.52308849   -9.3814057    459.58737 0.0084284656 0.0063459406         3950 
 4545000    0.5312753   -9.3735367    458.87083 0.0084134732 0.0063434106         3954 
 4546000     0.522021   -9.3791622    459.39466 0.0084212248 0.0063408831         3952 
 4547000   0.52574936   -9.3964698    459.10697 0.0084141003 0.0063383585         3958 
 4548000   0.52324257   -9.3684324    459.07403 0.0084116468 0.0063358314         3951 
 4549000   0.53048957   -9.3839823    459.49248 0.0084174632 0.0063333088         3951 
 4550000   0.53294385   -9.3809839    459.67786 0.0084190084 0.0063307868         3962 
 4551000   0.52498955   -9.3886085    459.52358 0.0084143334 0.0063282655         3952 
 4552000   0.53273179   -9.3888859    459.87068 0.0084188394 0.0063257473         3958 
 4553000   0.51770727   -9.3928285    460.21794 0.0084233461 0.0063232308         3957 
 4554000   0.51738793   -9.3812457    458.83637 0.0083962152 0.0063207155         3958 
 4555000   0.53393806   -9.3926652    459.47562 0.0084060669 0.0063182009         3954 
 4556000   0.51932615   -9.3853681    459.44389 0.0084036415 0.0063156892         3951 
 4557000   0.52081599   -9.3904446    459.47631 0.0084023904 0.0063131778         3947 
 4558000   0.51448767   -9.3878828    460.02709 0.0084106167 0.0063106685         3956 
 4559000   0.52545731   -9.3821494    459.10556 0.0083919273 0.0063081576         3956 
 4560000   0.51656605   -9.3813569    460.07327 0.0084077718 0.0063056498         3959 
 4561000   0.52026183   -9.3866818    458.84626 0.0083835098 0.0063031412         3952 
 4562000   0.50825688   -9.4116124    459.55446 0.0083946086 0.0063006333         3949 
 4563000   0.52044633   -9.3834371    458.91695 0.0083811263 0.0062981304         3955 
 4564000   0.52864666   -9.3941736       458.97 0.0083802585 0.0062956264         3939 
 4565000   0.52320279   -9.4008739    459.00722 0.0083791023 0.0062931243         3959 
 4566000   0.51604785   -9.3892339     459.5766 0.0083876588 0.0062906243         3962 
 4567000   0.52779183    -9.391752    459.59251 0.0083861125 0.0062881278         3958 
 4568000    0.5126295   -9.3915489    459.00033 0.0083734736 0.0062856306         3946 
 4569000   0.51409884   -9.4008935    459.50094 0.0083807715 0.0062831355         3953 
 4570000   0.52303318   -9.3924465    459.26937 0.0083747151 0.0062806405         3965 
 4571000   0.51281613   -9.3884253    459.35798 0.0083744983  0.006278147         3962 
 4572000   0.51627989   -9.3882095    459.17442 0.0083693208 0.0062756563         3958 
 4573000   0.52468812   -9.3959164    459.21094 0.0083681562 0.0062731668         3955 
 4574000   0.53787957   -9.3920451    459.26234 0.0083672632 0.0062706748         3957 
 4575000   0.52004159   -9.3977657    459.52212 0.0083701662 0.0062681878         3945 
 4576000   0.52349071   -9.3911312    459.10594 0.0083607579 0.0062657018         3953 
 4577000   0.52825501   -9.3991341    459.71557 0.0083700307  0.006263219         3956 
 4578000   0.52470788   -9.3833023    459.50403 0.0083643518 0.0062607349         3946 
 4579000   0.52535368   -9.3810187    459.64218 0.0083650394 0.0062582525         3950 
 4580000   0.52522061   -9.3960188    459.17606 0.0083547318 0.0062557724         3948 
 4581000   0.53671821   -9.3874952    460.10624  0.008369829 0.0062532934         3959 
 4582000   0.51288111   -9.3887138    459.70961 0.0083607887 0.0062508159         3943 
 4583000   0.51195846   -9.3941252    459.39539 0.0083532509 0.0062483382         3953 
 4584000   0.51800049   -9.3920447    459.75945  0.008358047 0.0062458597         3946 
 4585000   0.52812168   -9.3908132    458.56429 0.0083345018 0.0062433838         3955 
 4586000   0.52600895   -9.4062102     459.4678 0.0083491023 0.0062409108         3961 
 4587000   0.52567337   -9.4091048    458.38327 0.0083275793  0.006238438         3954 
 4588000    0.5076136   -9.3856445    459.41547 0.0083445124 0.0062359665         3953 
 4589000   0.51309188   -9.4003799    459.08224 0.0083366426 0.0062334967         3959 
 4590000   0.52235053   -9.3808023    459.71129 0.0083462471 0.0062310281         3950 
 4591000   0.52179729   -9.3909877    459.78326 0.0083457354 0.0062285624         3956 
 4592000   0.51883544   -9.4021057    458.49573 0.0083205525 0.0062260966         3961 
 4593000   0.51128269   -9.4051262    459.20331 0.0083315791 0.0062236318         3944 
 4594000   0.52219219   -9.3987986    459.45857 0.0083343958  0.006221168         3950 
 4595000    0.5154757   -9.3842371    459.66388 0.0083363054 0.0062187061         3968 
 4596000   0.51556268   -9.3995764    459.69191 0.0083349999 0.0062162464         3951 
 4597000   0.51930993   -9.3973712    460.04995 0.0083396771 0.0062137884         3952 
 4598000   0.52291491   -9.3932038    459.22825  0.008322971  0.006211329         3966 
 4599000   0.51124036   -9.3936984    459.32866 0.0083229808 0.0062088725         3951 
 4600000   0.52597354   -9.4041023    459.78445 0.0083294284 0.0062064189         3952 
 4601000   0.50740755   -9.4064742    458.64503 0.0083069809 0.0062039639         3953 
 4602000   0.51081178   -9.3862888    459.22151 0.0083156148 0.0062015124         3961 
 4603000   0.51260822   -9.4058803    459.38042 0.0083166851  0.006199061         3953 
 4604000   0.51101024   -9.4041422    459.51006 0.0083172253  0.006196612         3956 
 4605000   0.51739844   -9.4115624    458.69756 0.0083007158 0.0061941627         3943 
 4606000   0.51017457   -9.3887552    459.48563 0.0083131718 0.0061917156         3943 
 4607000   0.51372903    -9.395268    459.14197  0.008305151 0.0061892694         3959 
 4608000   0.51613813   -9.4136123    458.98012 0.0083004218 0.0061868248         3950 
 4609000   0.51387054   -9.4127678    459.58482 0.0083095541 0.0061843818         3949 
 4610000   0.51490682   -9.3994969    459.36074  0.008303701 0.0061819402         3962 
 4611000   0.50928422   -9.3966073    459.31528 0.0083010786 0.0061795032         3946 
 4612000   0.51620106   -9.4184237    458.81619 0.0082902607  0.006177065         3957 
 4613000   0.52185858   -9.4019562      459.838 0.0083069224 0.0061746271         3951 
 4614000    0.5121593   -9.4139506    459.05521 0.0082909841 0.0061721919         3979 
 4615000   0.51055834   -9.3945191     459.2492 0.0082926906 0.0061697577         3943 
 4616000   0.51362896   -9.4057965    458.76796  0.008282206 0.0061673241         3950 
 4617000   0.51417574   -9.4108725    458.70971 0.0082793609 0.0061648924         3961 
 4618000   0.51458752   -9.4113878    458.79523 0.0082791113 0.0061624622         3959 
 4619000    0.5213695   -9.3915948     458.4436 0.0082709749 0.0061600328         3957 
 4620000    0.5270163   -9.3972055    458.69674 0.0082737507 0.0061576041         3960 
 4621000   0.51404466   -9.3892269    459.00116   0.00827745 0.0061551768         3963 
 4622000   0.51218514   -9.4175904    458.95123 0.0082747589 0.0061527508         3968 
 4623000   0.50528513   -9.3889205    458.79916 0.0082702279 0.0061503252         3955 
 4624000   0.50524682    -9.419374    459.10915 0.0082740259 0.0061479014         3954 
 4625000   0.52499812   -9.4106515    459.09771 0.0082720309 0.0061454781         3966 
 4626000   0.50293629   -9.4080424     458.5038  0.008259544  0.006143058         3951 
 4627000   0.51972367   -9.4006338    458.58136 0.0082591556 0.0061406378         3954 
 4628000   0.51320275   -9.4078592    459.52801 0.0082744167 0.0061382227         3951 
 4629000   0.50846444   -9.4076869    459.14563 0.0082657455 0.0061358072         3964 
 4630000   0.51527279   -9.4197608    458.51457  0.008252602 0.0061333924         3968 
 4631000    0.5017464   -9.3984742    458.90721 0.0082578855 0.0061309788         3945 
 4632000   0.50910285   -9.4218043    458.76288 0.0082535061 0.0061285666         3960 
 4633000   0.50618404   -9.4104513    458.80598 0.0082524998 0.0061261542         3962 
 4634000   0.50902527   -9.4046182    459.47974 0.0082628352 0.0061237455         3951 
 4635000    0.5117997   -9.4115001    459.05726 0.0082534567 0.0061213373         3948 
 4636000   0.50692031   -9.4221206    459.92675 0.0082673056 0.0061189302         3956 
 4637000   0.51204892   -9.4176433     459.7773  0.008262837 0.0061165228         3958 
 4638000   0.50327545   -9.3933742    458.74144 0.0082424437 0.0061141179         3960 
 4639000   0.50224077   -9.4173041      459.186 0.0082486528 0.0061117152         3955 
 4640000   0.51391137   -9.3986231    459.14618 0.0082461598 0.0061093136         3958 
 4641000   0.51448764   -9.4044337    458.39594 0.0082309118 0.0061069128         3948 
 4642000   0.51065669    -9.408488    459.32306 0.0082457823 0.0061045143         3959 
 4643000    0.5068133   -9.4191898    459.52248 0.0082475856 0.0061021167         3958 
 4644000   0.49956321   -9.4133937     459.7172 0.0082493038 0.0060997197         3966 
 4645000   0.49829812   -9.4097672    459.29985 0.0082400404 0.0060973249         3954 
 4646000     0.509014   -9.3978502    458.43706 0.0082227914 0.0060949288         3961 
 4647000   0.50513776   -9.4093768    459.60835 0.0082420261  0.006092534         3961 
 4648000   0.50897689   -9.4067027    459.35358 0.0082356853 0.0060901422         3949 
 4649000   0.50926107   -9.4170012    458.85691  0.008225011 0.0060877508         3956 
 4650000    0.5063052   -9.4025669     459.5206 0.0082351363 0.0060853597         3951 
 4651000    0.5002141    -9.392848    459.96011 0.0082412404 0.0060829722         3968 
 4652000   0.50875824   -9.4084329    459.12091 0.0082244358 0.0060805854         3952 
 4653000   0.52036979   -9.4108263    459.10307 0.0082223488 0.0060781986         3962 
 4654000    0.5179641   -9.3971755    458.70631 0.0082134777 0.0060758141         3953 
 4655000   0.49789117   -9.4147387    457.84724 0.0081963343 0.0060734311         3954 
 4656000   0.51044592   -9.4221346    459.23797 0.0082194654 0.0060710491         3962 
 4657000    0.5082295   -9.4102861    459.17587 0.0082165893 0.0060686676         3962 
 4658000    0.5108379   -9.4034461    459.37298 0.0082183516 0.0060662876         3961 
 4659000   0.51043732   -9.4103126    458.78338 0.0082060416 0.0060639087         3952 
 4660000   0.51319581   -9.3999666    458.77753 0.0082041761  0.006061533         3966 
 4661000    0.5026405   -9.4121311    459.20207 0.0082100063 0.0060591588         3954 
 4662000   0.50960483   -9.4063669    458.81314  0.008201293 0.0060567841         3963 
 4663000   0.50546759   -9.3971242    458.69724 0.0081974631 0.0060544098         3962 
 4664000   0.50016879   -9.4161119    458.96549 0.0082004983 0.0060520389         3951 
 4665000   0.48765357   -9.4059799    458.84812 0.0081966439 0.0060496684         3954 
 4666000   0.51279877   -9.4183099    459.35553 0.0082039494 0.0060473008         3954 
 4667000   0.50190587   -9.4149084    459.54668 0.0082056046  0.006044932         3953 
 4668000   0.51518123   -9.4008837    459.38478 0.0082009566 0.0060425673         3952 
 4669000   0.51203958   -9.4085788    458.92261 0.0081909511 0.0060402025         3965 
 4670000   0.49976627   -9.4227952    458.65533 0.0081844277 0.0060378385         3950 
 4671000   0.49919127    -9.415489    459.23561  0.008193028 0.0060354743         3954 
 4672000   0.50845193   -9.3952429    459.32994 0.0081929569  0.006033113         3946 
 4673000   0.49833712   -9.3990221     458.7707 0.0081812308 0.0060307531         3954 
 4674000    0.5010946   -9.4056265    458.94978 0.0081826734 0.0060283953         3961 
 4675000   0.49408487   -9.4142191    458.77428 0.0081777946 0.0060260382         3948 
 4676000   0.50246753   -9.4214989    458.79461 0.0081764081 0.0060236824         3956 
 4677000   0.50082687   -9.3996041    459.81426 0.0081928276 0.0060213272         3958 
 4678000   0.48129575    -9.418829    459.32276 0.0081823209 0.0060189721         3948 
 4679000   0.50410274   -9.4063937    459.16011 0.0081776752 0.0060166191         3949 
 4680000   0.51530408   -9.4278366    458.34471 0.0081614086 0.0060142678         3965 
 4681000   0.49875425   -9.4231672    458.64757 0.0081650568 0.0060119173         3952 
 4682000   0.51580648   -9.4015779    459.31409  0.008175176 0.0060095671         3957 
 4683000   0.50485207   -9.4085664    458.47714 0.0081585369 0.0060072191         3955 
 4684000   0.50740451   -9.4295561    458.39413 0.0081553183 0.0060048731         3953 
 4685000   0.51274409   -9.4170083    458.79877 0.0081607749  0.006002528         3953 
 4686000   0.50965671   -9.4195215    459.29341 0.0081678299 0.0060001834         3948 
 4687000   0.49597598   -9.4070094    459.32896 0.0081667193 0.0059978402         3966 
 4688000   0.50219568   -9.4189219    458.76998 0.0081550409  0.005995499         3963 
 4689000   0.50192702   -9.4195265    458.62327 0.0081506944 0.0059931592         3953 
 4690000   0.49617507   -9.3973757     459.3423 0.0081617324 0.0059908203         3966 
 4691000   0.49509669   -9.4182176    458.65748 0.0081478271 0.0059884821         3966 
 4692000   0.49701915   -9.4173213     458.6736 0.0081463768 0.0059861447         3953 
 4693000   0.50457657   -9.4169426    458.90911 0.0081488229 0.0059838089         3945 
 4694000   0.50965252   -9.4331619    459.15639 0.0081514769 0.0059814746         3960 
 4695000   0.48841565   -9.4221496    458.33615 0.0081351819 0.0059791418         3961 
 4696000   0.49851996   -9.4203712    458.51864  0.008136688 0.0059768107         3965 
 4697000   0.50109491   -9.4208106    459.31676 0.0081491157 0.0059744803         3954 
 4698000   0.49795064    -9.418029    458.81734 0.0081385224 0.0059721488         3958 
 4699000   0.51031372   -9.4090921    458.80209 0.0081365199 0.0059698206         3957 
 4700000   0.50013514   -9.4215194    457.94325 0.0081195611 0.0059674934         3959 
 4701000   0.50410108   -9.4222235    458.56121 0.0081287883  0.005965166         3961 
 4702000    0.4998018   -9.4025314     459.3222 0.0081405466 0.0059628404         3957 
 4703000   0.49614764    -9.430743      458.995 0.0081330179 0.0059605148         3960 
 4704000   0.50564342   -9.4308655    457.95479 0.0081128613 0.0059581936         3953 
 4705000   0.49360091   -9.4254732    458.61531 0.0081228358 0.0059558734         3973 
 4706000   0.50445771   -9.4358774    458.80524  0.008124473 0.0059535539         3944 
 4707000   0.50323931   -9.4311847    458.43316 0.0081161595 0.0059512362         3946 
 4708000   0.50138948   -9.4351224    458.47262 0.0081151342 0.0059489185         3953 
 4709000   0.49938276   -9.4149884    458.87211 0.0081204805 0.0059466006         3951 
 4710000   0.48499729    -9.430727     458.9977 0.0081209785 0.0059442851         3953 
 4711000   0.50726813   -9.4139902     458.3223 0.0081073074  0.005941972         3958 
 4712000   0.50047468   -9.4306404    459.11077 0.0081195312 0.0059396607         3957 
 4713000    0.4987706   -9.4106252     458.2867 0.0081032374 0.0059373501         3963 
 4714000   0.48817636   -9.4275397    458.50059 0.0081052996 0.0059350413         3963 
 4715000   0.50156337   -9.4113326    459.48327 0.0081209485 0.0059327326         3962 
 4716000   0.50287246   -9.4305071    458.73219 0.0081059548 0.0059304255         3957 
 4717000   0.50053917   -9.4386235    458.60712 0.0081020267 0.0059281214         3960 
 4718000   0.48464643   -9.4398054    458.66362 0.0081013073 0.0059258147         3953 
 4719000   0.49971867   -9.4201424    458.90168 0.0081037946 0.0059235113         3954 
 4720000   0.49772347   -9.4201686    459.20621 0.0081074543 0.0059212074         3961 
 4721000   0.50606376    -9.433375    459.32876 0.0081079001 0.0059189075         3952 
 4722000    0.4980873   -9.4145115    458.98522 0.0081001204 0.0059166085         3967 
 4723000   0.50347475   -9.4147088    458.39245 0.0080879465 0.0059143106         3964 
 4724000   0.50126884   -9.4204872    459.21666 0.0081007737  0.005912015         3957 
 4725000     0.496758    -9.435084    458.22304 0.0080815351  0.005909719         3969 
 4726000   0.50391475   -9.4468131    458.41339 0.0080831815 0.0059074259         3969 
 4727000   0.48712611   -9.4321353    458.94471 0.0080908383 0.0059051326         3956 
 4728000   0.48938492   -9.4117377    459.26213 0.0080947217 0.0059028406         3956 
 4729000   0.48635492   -9.4137965    458.94355 0.0080873959 0.0059005501         3962 
 4730000   0.49339058   -9.4264684    458.71714 0.0080816972 0.0058982608         3961 
 4731000   0.49373716   -9.4367215    458.63184 0.0080784866 0.0058959715         3968 
 4732000   0.49977186   -9.4316912    458.90623 0.0080816115 0.0058936833         3966 
 4733000    0.4928562   -9.4177659    459.18982 0.0080848971 0.0058913983         3959 
 4734000   0.49115001   -9.4158404    458.29343 0.0080674101 0.0058891134         3957 
 4735000   0.49121233    -9.432238    458.29584 0.0080657486 0.0058868296         3965 
 4736000   0.49719728   -9.4199344    458.32599 0.0080645762  0.005884547         3963 
 4737000   0.50045299    -9.437185    458.39395 0.0080640691 0.0058822658         3958 
 4738000   0.48895298   -9.4289196    457.79743 0.0080518755 0.0058799864         3970 
 4739000   0.48339759   -9.4237914    458.68611 0.0080658035 0.0058777064         3956 
 4740000   0.49536942   -9.4293658    459.03545 0.0080702436 0.0058754282         3963 
 4741000   0.50547557   -9.4361898    458.69007 0.0080624705  0.005873151         3970 
 4742000   0.50188458   -9.4209357    458.91586 0.0080647381 0.0058708742         3960 
 4743000   0.49759854    -9.432218    458.62233 0.0080578805 0.0058685994         3962 
 4744000   0.48670334   -9.4265586    458.38933 0.0080520891 0.0058663263         3954 
 4745000   0.49558305   -9.4370952    457.75671 0.0080392818 0.0058640531         3949 
 4746000    0.4889709   -9.4295505    458.45367 0.0080498256 0.0058617834         3958 
 4747000   0.49189374   -9.4171983    458.84275 0.0080549601 0.0058595144         3951 
 4748000   0.50206585   -9.4243963    458.82152  0.008052891 0.0058572459         3961 
 4749000   0.50418692   -9.4421495    459.04978 0.0080552007 0.0058549782         3953 
 4750000   0.49412366   -9.4108067     458.4877 0.0080436439 0.0058527129         3956 
 4751000   0.48751745   -9.4317585     458.5218 0.0080425489 0.0058504477         3954 
 4752000    0.4931372   -9.4301861     458.7714 0.0080452336 0.0058481837         3953 
 4753000   0.48446214   -9.4439762    458.04901 0.0080308754 0.0058459194         3953 
 4754000   0.48847957   -9.4470301    458.45747  0.008036346 0.0058436564         3960 
 4755000   0.50040632    -9.445521    458.79656 0.0080405987 0.0058413946         3958 
 4756000   0.49053579   -9.4324486    458.02689  0.008025422 0.0058391359         3966 
 4757000    0.4928581   -9.4214055    457.66771 0.0080174429 0.0058368768         3964 
 4758000   0.48565301   -9.4206181    458.01947 0.0080219186 0.0058346204         3961 
 4759000   0.49980124   -9.4385749    457.84545 0.0080171859 0.0058323665         3960 
 4760000   0.50243491   -9.4473306    458.44842 0.0080260578 0.0058301129         3953 
 4761000   0.48922289   -9.4357185    458.05365 0.0080174621 0.0058278578         3965 
 4762000   0.49457232   -9.4416303    459.20979 0.0080360105 0.0058256072         3954 
 4763000   0.48102312   -9.4357556    458.00389 0.0080132251 0.0058233566         3954 
 4764000   0.48186809   -9.4295747    458.52189  0.008020604 0.0058211081         3967 
 4765000   0.49506163   -9.4500837    458.03076 0.0080103316 0.0058188584         3963 
 4766000   0.48586634   -9.4347637    458.47369 0.0080163955 0.0058166096         3960 
 4767000   0.48663095   -9.4323267    458.73123  0.008019216  0.005814364         3959 
 4768000   0.47482202   -9.4364039    458.69177 0.0080168445   0.00581212         3967 
 4769000   0.49214217   -9.4447543    458.46867 0.0080112649 0.0058098753         3957 
 4770000   0.48988007   -9.4329962    457.60188 0.0079944423 0.0058076336         3951 
 4771000   0.50331417    -9.442734    458.83978 0.0080143887 0.0058053941         3961 
 4772000   0.48333632   -9.4406011     458.8322 0.0080125768 0.0058031545         3964 
 4773000   0.48752808    -9.440173     458.2214  0.008000234 0.0058009151         3957 
 4774000   0.47980195   -9.4312665    458.42551  0.008002121 0.0057986769         3958 
 4775000   0.48286056   -9.4417027    458.27108   0.00799775 0.0057964405         3961 
 4776000   0.48743227   -9.4240294    458.02179 0.0079917258 0.0057942046         3945 
 4777000   0.48772248   -9.4370303    457.94557 0.0079887232 0.0057919698         3960 
 4778000   0.49180866   -9.4397038    457.94941 0.0079871182  0.005789736         3961 
 4779000   0.48934922   -9.4344178     458.0851  0.007987813 0.0057875031         3965 
 4780000   0.48214204   -9.4405753    458.61772 0.0079954274 0.0057852709         3967 
 4781000   0.48213035   -9.4364903    458.47801 0.0079913201 0.0057830421         3960 
 4782000   0.48245192   -9.4312982    458.05607 0.0079822959 0.0057808114         3975 
 4783000    0.4883221   -9.4377517    458.41985 0.0079869651 0.0057785846         3957 
 4784000   0.47314821   -9.4384647    457.80731 0.0079746257  0.005776358         3949 
 4785000   0.48728816   -9.4456682    458.20397 0.0079798672 0.0057741332         3960 
 4786000   0.49355367   -9.4538455    458.58848 0.0079848949 0.0057719085         3963 
 4787000   0.48645868   -9.4497576    458.33999 0.0079789011 0.0057696861         3951 
 4788000   0.49223454   -9.4374348    458.70078 0.0079835139 0.0057674644         3955 
 4789000   0.49746726   -9.4484385    457.90753 0.0079680437 0.0057652436         3976 
 4790000   0.47906349   -9.4377148    458.75075 0.0079810499 0.0057630257         3972 
 4791000   0.47446295   -9.4458464    458.59436 0.0079766639 0.0057608076         3963 
 4792000   0.48978836   -9.4311051    458.96818    0.0079815 0.0057585894         3952 
 4793000   0.47198924   -9.4451659     458.3095 0.0079683827 0.0057563738         3947 
 4794000   0.48267545   -9.4489562    458.62192 0.0079721512 0.0057541592         3964 
 4795000   0.48235694   -9.4376923    458.33784 0.0079655516 0.0057519464         3963 
 4796000   0.48874445   -9.4257405    458.53897 0.0079673855 0.0057497344         3961 
 4797000   0.48268245   -9.4322651     458.3136 0.0079618094 0.0057475234         3968 
 4798000   0.48249605   -9.4334389    457.78178 0.0079509133 0.0057453115         3970 
 4799000   0.48706663   -9.4358683    457.81825 0.0079498898 0.0057431014         3962 
 4800000   0.47194042   -9.4384485    458.24426 0.0079556294 0.0057408928         3962 
 4801000   0.47165232   -9.4614616    459.25675 0.0079715468 0.0057386866         3963 
 4802000   0.47619634   -9.4345908    458.85294 0.0079628791 0.0057364813         3963 
 4803000   0.48259374   -9.4412326    458.33805 0.0079522877 0.0057342774         3955 
 4804000   0.47778433   -9.4450923    458.17434 0.0079477924 0.0057320747         3955 
 4805000   0.48768937   -9.4446777    457.70103 0.0079379298 0.0057298733         3951 
 4806000   0.49613816    -9.449176    458.28073 0.0079463298  0.005727673         3958 
 4807000   0.48808383    -9.453014    457.74582 0.0079354036 0.0057254755         3969 
 4808000   0.48459827   -9.4334068    458.03542 0.0079387726 0.0057232765         3948 
 4809000   0.47846347   -9.4410419    458.44995  0.007944305 0.0057210782         3967 
 4810000   0.48675656   -9.4490859    458.51689 0.0079438131 0.0057188813         3958 
 4811000   0.47757743    -9.448256      457.961 0.0079325331 0.0057166847         3960 
 4812000   0.47408811   -9.4556508    458.22268 0.0079354164 0.0057144909         3950 
 4813000   0.48769816   -9.4343538    458.43936 0.0079375193 0.0057122986         3960 
 4814000   0.49871997   -9.4412058    458.19361 0.0079316162 0.0057101072         3961 
 4815000   0.48380527   -9.4527171     457.9179 0.0079251974 0.0057079162         3957 
 4816000   0.48419723    -9.454102    458.27912  0.007929802 0.0057057277         3957 
 4817000   0.49934121   -9.4542499    459.03007 0.0079411472 0.0057035384         3963 
 4818000   0.48249055   -9.4496804    458.31756 0.0079271752 0.0057013518         3960 
 4819000   0.48121031   -9.4435711    457.60112  0.007913141 0.0056991639         3956 
 4820000   0.49278669   -9.4405789    458.37648 0.0079249046  0.005696979         3961 
 4821000   0.47660159   -9.4418216    457.57039 0.0079093271 0.0056947958         3962 
 4822000   0.48510781   -9.4390659    457.69162 0.0079097819 0.0056926129         3955 
 4823000   0.47617844   -9.4387376    458.79251 0.0079271634 0.0056904321         3963 
 4824000   0.48297841   -9.4398838    458.17702 0.0079148878 0.0056882513         3963 
 4825000    0.4798704    -9.444121    458.98629 0.0079272244 0.0056860732         3956 
 4826000   0.47949257    -9.439988    458.28959 0.0079135515 0.0056838946         3962 
 4827000    0.4762096   -9.4620106    457.71132 0.0079019287  0.005681716         3962 
 4828000   0.46962329   -9.4573307    458.00218 0.0079053124 0.0056795406         3959 
 4829000   0.47338302   -9.4499773    457.85158 0.0079010765 0.0056773657         3959 
 4830000   0.48930194   -9.4555845    457.25309 0.0078891147 0.0056751925         3962 
 4831000   0.47516495   -9.4499274    458.04242 0.0079010974 0.0056730203         3960 
 4832000   0.47755937   -9.4444834    458.01626 0.0078990111 0.0056708491         3958 
 4833000   0.47746864   -9.4513249    457.71147 0.0078921214 0.0056686788         3962 
 4834000   0.47322066   -9.4629383    458.46389 0.0079034596 0.0056665092         3971 
 4835000   0.46705175   -9.4525281    458.43174 0.0079012709 0.0056643417         3954 
 4836000   0.46584519   -9.4614022    458.04178 0.0078929173 0.0056621745         3963 
 4837000   0.47358437   -9.4611367     458.3167 0.0078960221 0.0056600083         3956 
 4838000   0.47988015   -9.4515146    458.07243 0.0078901824 0.0056578457         3972 
 4839000   0.47050991   -9.4593129    457.52318 0.0078790931 0.0056556822         3963 
 4840000   0.48467641   -9.4669318    457.88606 0.0078837132 0.0056535198         3962 
 4841000   0.47741549   -9.4589262    457.75383 0.0078798085 0.0056513589         3972 
 4842000    0.4898387   -9.4489014    457.81294 0.0078791983 0.0056491982         3954 
 4843000   0.47449046   -9.4518309      457.734  0.007876213 0.0056470411         3959 
 4844000   0.49411471   -9.4463797    458.25068 0.0078834758 0.0056448833         3962 
 4845000   0.47991199   -9.4426722    458.34083 0.0078833992 0.0056427264         3958 
 4846000   0.47889943   -9.4274155    457.94331 0.0078749366 0.0056405707         3969 
 4847000   0.47504946   -9.4489665    457.99254 0.0078741582 0.0056384172         3967 
 4848000   0.47009475   -9.4677716    458.27648 0.0078774147  0.005636265         3957 
 4849000   0.48054709    -9.454986    457.66737 0.0078653223 0.0056341117         3964 
 4850000   0.48036462   -9.4610451    457.64494 0.0078633151 0.0056319599         3963 
 4851000   0.48130661   -9.4434443    458.46231 0.0078757354 0.0056298102         3963 
 4852000   0.48304172   -9.4555516    457.75541 0.0078619712 0.0056276618         3966 
 4853000   0.47006801   -9.4608809    458.41378 0.0078716564 0.0056255146         3968 
 4854000   0.47881607   -9.4586659    457.78901 0.0078593086 0.0056233691         3967 
 4855000   0.47385595   -9.4469156    458.35848 0.0078674644 0.0056212252         3959 
 4856000   0.47631242   -9.4794808    458.30819 0.0078649813 0.0056190807         3961 
 4857000   0.46863904   -9.4617153    457.17761 0.0078439643 0.0056169375         3961 
 4858000   0.48075832   -9.4524424    457.91478 0.0078549948 0.0056147938         3971 
 4859000   0.47592786   -9.4546121    458.39507 0.0078616154 0.0056126523         3963 
 4860000   0.47692224   -9.4583613     458.4178 0.0078603874 0.0056105117         3969 
 4861000   0.47650129    -9.449678    458.04925 0.0078524523 0.0056083733         3958 
 4862000     0.472684   -9.4457615    458.22859 0.0078539111 0.0056062364         3962 
 4863000   0.46854398   -9.4525936    458.17673 0.0078514074    0.0056041         3968 
 4864000   0.46293324   -9.4532895    458.26927 0.0078513786 0.0056019659         3967 
 4865000    0.4750886   -9.4519014    458.50899 0.0078538709 0.0055998315         3965 
 4866000   0.47649829   -9.4585777    457.66829 0.0078378594 0.0055977005         3963 
 4867000   0.47769257   -9.4500086    457.22649 0.0078286845 0.0055955678         3963 
 4868000   0.47117519   -9.4660327    458.13341 0.0078426015  0.005593437         3964 
 4869000   0.47897688   -9.4423464     458.1124 0.0078406312 0.0055913067         3958 
 4870000   0.45735853   -9.4566056     457.8558 0.0078346303 0.0055891774         3960 
 4871000   0.47487455   -9.4610908    458.44089 0.0078430318 0.0055870499         3967 
 4872000   0.47920016   -9.4503572    458.06177 0.0078349373 0.0055849246         3956 
 4873000   0.48610017      -9.4382    458.76184 0.0078453013  0.005582799         3959 
 4874000   0.46589621   -9.4609232    457.45536 0.0078213541 0.0055806753         3956 
 4875000   0.47290733   -9.4648778    457.15498 0.0078146151 0.0055785518         3965 
 4876000   0.46578297   -9.4727613    458.01661 0.0078277381 0.0055764314         3958 
 4877000   0.47110638   -9.4530926    456.89534 0.0078069739 0.0055743098         3951 
 4878000   0.47683043   -9.4610968    458.25829 0.0078286573 0.0055721888         3965 
 4879000   0.47681949   -9.4661297    457.99069 0.0078224822 0.0055700692         3953 
 4880000   0.48325772     -9.45571    457.22255 0.0078077621 0.0055679504         3948 
 4881000   0.47341378    -9.461971    457.14962 0.0078049173 0.0055658333         3962 
 4882000   0.46714018   -9.4631451    457.81326 0.0078146467  0.005563719         3955 
 4883000   0.46768671   -9.4521689    457.92355 0.0078149285 0.0055616045         3962 
 4884000    0.4681065   -9.4455465    458.10072 0.0078163514 0.0055594915         3963 
 4885000   0.45912715   -9.4627355    458.47347   0.00782111 0.0055573767         3959 
 4886000   0.47285519   -9.4501923    458.31482 0.0078168035 0.0055552646         3963 
 4887000   0.46522964   -9.4605351    456.89572 0.0077910054 0.0055531539         3958 
 4888000   0.46149037   -9.4473322    457.66348 0.0078025006 0.0055510445         3959 
 4889000   0.47818208   -9.4625144    457.57407 0.0077993807 0.0055489361         3970 
 4890000   0.46550127   -9.4674272    457.24279 0.0077921403 0.0055468281         3967 
 4891000   0.46872079   -9.4544478    457.84577 0.0078008207 0.0055447202         3965 
 4892000   0.46864288   -9.4561093     457.9147 0.0078004003 0.0055426138         3950 
 4893000   0.46208686   -9.4619455     458.3429 0.0078060988 0.0055405078         3953 
 4894000   0.46866434   -9.4603673    457.85604 0.0077962138  0.005538404         3956 
 4895000   0.46412133   -9.4801773    457.41326 0.0077870831 0.0055362999         3956 
 4896000   0.47966832   -9.4772714    457.81057  0.007792255 0.0055341975         3960 
 4897000   0.47231034   -9.4598648    457.76078 0.0077898166 0.0055320974         3958 
 4898000   0.47046261   -9.4567897    458.18922 0.0077955155 0.0055299978         3955 
 4899000   0.47167466   -9.4666846    457.58735 0.0077836862 0.0055278996         3954 
 4900000   0.45588315   -9.4654487    458.04336 0.0077898531 0.0055258028         3964 
 4901000   0.45920649   -9.4672309    457.27903 0.0077752675 0.0055237075         3961 
 4902000   0.46680392   -9.4669061     457.7727 0.0077820736 0.0055216131         3956 
 4903000   0.45297979   -9.4684822    457.39445 0.0077740576 0.0055195193         3950 
 4904000   0.47294592   -9.4738539    457.53197 0.0077748092 0.0055174261         3962 
 4905000   0.46471606   -9.4642517    457.60482 0.0077744617 0.0055153342         3969 
 4906000   0.46172568   -9.4744437    457.72107 0.0077748517  0.005513243         3955 
 4907000   0.45771689   -9.4612234    458.26809  0.007782557 0.0055111523         3964 
 4908000   0.46055204    -9.468887    457.26656 0.0077639663  0.005509063         3957 
 4909000   0.46914724   -9.4557861    458.00632 0.0077749427 0.0055069757         3955 
 4910000   0.46167396   -9.4554353    457.75203 0.0077690433 0.0055048886         3965 
 4911000   0.46269346   -9.4573929    457.41682 0.0077617732 0.0055028043         3966 
 4912000   0.47937573   -9.4746903    458.25377 0.0077743921 0.0055007217         3952 
 4913000   0.47471116   -9.4639954    457.75985 0.0077644319 0.0054986386         3950 
 4914000   0.47245788   -9.4548533    458.13987 0.0077692965 0.0054965562         3958 
 4915000   0.46465561    -9.451421    457.25695 0.0077527459  0.005494475         3964 
 4916000   0.46136846   -9.4724383     457.7222 0.0077590554 0.0054923943         3974 
 4917000   0.46597004   -9.4628385    457.41523 0.0077522749 0.0054903143         3971 
 4918000   0.47051818   -9.4726187    458.22021 0.0077643387 0.0054882365         3967 
 4919000   0.45789667   -9.4757535    458.16266 0.0077617853 0.0054861575         3968 
 4920000   0.45343963    -9.470771    457.21998 0.0077442409 0.0054840795         3967 
 4921000   0.47858031   -9.4810391    457.88613 0.0077539479 0.0054820045         3953 
 4922000   0.46596749   -9.4655061    457.49093 0.0077456814 0.0054799304         3958 
 4923000   0.45539641   -9.4607793    458.19624 0.0077560471 0.0054778584         3958 
 4924000   0.46333046   -9.4798565    457.66996 0.0077455653 0.0054757874         3954 
 4925000    0.4612129   -9.4693376    458.29871 0.0077546313 0.0054737155         3946 
 4926000   0.47392123   -9.4605224    457.40365 0.0077379152 0.0054716454         3965 
 4927000    0.4583441   -9.4675808    457.82869 0.0077435338 0.0054695772         3966 
 4928000   0.45545545   -9.4693398    457.88837 0.0077429717 0.0054675093         3963 
 4929000   0.46181109   -9.4607298    457.58063 0.0077361978 0.0054654435         3953 
 4930000   0.46931465   -9.4632298    457.45996  0.007732589 0.0054633789         3965 
 4931000   0.46984162   -9.4694053    457.49056 0.0077315379 0.0054613153         3961 
 4932000   0.46417279   -9.4727236    457.64038 0.0077325017  0.005459253         3956 
 4933000   0.44627546   -9.4647905     457.5286 0.0077290459 0.0054571911         3952 
 4934000   0.46543988   -9.4703831    457.33969 0.0077242889 0.0054551287         3966 
 4935000   0.46029527   -9.4885784    457.64308 0.0077278467 0.0054530678         3949 
 4936000   0.46263724   -9.4783239    456.60744 0.0077087967 0.0054510088         3966 
 4937000   0.46423488   -9.4762197    457.53354 0.0077228671 0.0054489507         3954 
 4938000   0.46189532   -9.4627552    457.43381 0.0077196201 0.0054468928         3955 
 4939000   0.46333192   -9.4733099    457.89903 0.0077259066 0.0054448377         3956 
 4940000   0.45327272   -9.4815658    457.09909 0.0077108483  0.005442782         3959 
 4941000   0.46790946   -9.4810709    457.63109 0.0077182602 0.0054407277         3948 
 4942000   0.45516092   -9.4720314    458.07769 0.0077242293 0.0054386754         3956 
 4943000   0.47056449   -9.4781221    457.74091 0.0077169888 0.0054366225         3958 
 4944000   0.46560045    -9.479669    457.74188 0.0077154443  0.005434571         3964 
 4945000    0.4628873   -9.4691654    457.08219 0.0077027669  0.005432521         3964 
 4946000   0.44820013   -9.4617964    457.79354 0.0077131949 0.0054304721         3963 
 4947000   0.46017987   -9.4815742    458.49169 0.0077233961 0.0054284255         3955 
 4948000    0.4672912     -9.48044    457.62934 0.0077073117 0.0054263783         3955 
 4949000   0.45471745   -9.4808606    458.35393 0.0077179554 0.0054243318         3957 
 4950000   0.47299849   -9.4765492    457.11865 0.0076956001 0.0054222889         3961 
 4951000   0.46350926   -9.4786042    457.71398 0.0077040662 0.0054202452         3963 
 4952000   0.44546351   -9.4914355    457.49783 0.0076988729 0.0054182041         3973 
 4953000   0.45156809   -9.4740399    457.49864 0.0076973323  0.005416163         3958 
 4954000   0.46972716   -9.4757133    456.97976 0.0076870502 0.0054141236         3958 
 4955000    0.4597907   -9.4666753    458.49091 0.0077109133 0.0054120858         3965 
 4956000   0.46017988   -9.4685197    457.78852 0.0076975471 0.0054100485         3961 
 4957000   0.46266803   -9.4628851    458.25449 0.0077038278 0.0054080136         3960 
 4958000   0.45824996   -9.4631276    457.39071 0.0076877557  0.005405978         3965 
 4959000   0.44635722   -9.4805143    457.74867 0.0076922208 0.0054039434         3965 
 4960000    0.4543782   -9.4766598    456.62598 0.0076718075 0.0054019097         3961 
 4961000   0.45779711   -9.4975184      457.542 0.0076856481 0.0053998762         3944 
 4962000   0.46264031   -9.4726774    457.67949 0.0076864081 0.0053978447         3964 
 4963000   0.46032546   -9.4765684    457.34079 0.0076791723 0.0053958132         3955 
 4964000   0.44891889    -9.481431    458.43648 0.0076960194 0.0053937822         3957 
 4965000   0.46263363   -9.4921867     457.3577 0.0076763629 0.0053917537         3966 
 4966000   0.45288752    -9.487158    456.60428 0.0076621741 0.0053897254         3961 
 4967000   0.46253737   -9.4850282    457.52891 0.0076761444 0.0053876989         3965 
 4968000   0.46583297   -9.4849832    458.17006 0.0076853539 0.0053856729         3960 
 4969000   0.44765041   -9.4840618    457.09184 0.0076657248 0.0053836487         3966 
 4970000   0.46313359   -9.4888132    456.74229 0.0076583215 0.0053816256         3953 
 4971000   0.45694635   -9.4735494    457.37019 0.0076673069 0.0053796028         3952 
 4972000   0.46932374   -9.4881391    457.39848  0.007666239 0.0053775815         3963 
 4973000   0.46052954   -9.4749991    456.67871 0.0076526361 0.0053755627         3947 
 4974000    0.4520414    -9.485485    457.56054 0.0076658716 0.0053735441         3963 
 4975000   0.44796427   -9.4795015     457.5575 0.0076642798 0.0053715249         3960 
 4976000   0.45914365   -9.4847529    457.08486 0.0076548242 0.0053695071         3956 
 4977000   0.45016832   -9.4807727    457.17343 0.0076547691  0.005367491         3954 
 4978000    0.4494687   -9.4855925    457.45076  0.007657874  0.005365476         3965 
 4979000   0.45177524   -9.4824642    457.62967 0.0076593304 0.0053634627         3961 
 4980000   0.45712965   -9.5070406    456.52217 0.0076392599 0.0053614492         3966 
 4981000   0.45934307   -9.4860969    457.27804  0.007650372 0.0053594365         3964 
 4982000   0.45142516   -9.4908395    456.95936 0.0076435059 0.0053574253         3967 
 4983000   0.44332554   -9.4715445    457.23507 0.0076465829 0.0053554157         3963 
 4984000   0.44494364    -9.470736    457.66977  0.007652317 0.0053534075         3961 
 4985000   0.46162116   -9.4713116    457.49981 0.0076479407    0.0053514         3952 
 4986000   0.45545008   -9.4890641    457.38525  0.007644492 0.0053493933         3962 
 4987000   0.44964185   -9.4770147    457.49183 0.0076447401 0.0053473878         3967 
 4988000   0.45787444   -9.4833115    457.14852  0.007637472 0.0053453818         3963 
 4989000   0.44985195   -9.4778417    457.65662  0.007644428 0.0053433766         3963 
 4990000   0.44661458   -9.4832917      457.387 0.0076383935 0.0053413753         3954 
 4991000   0.44992669   -9.4863049    456.82921 0.0076275498 0.0053393724         3961 
 4992000   0.44722105   -9.4883708    457.06293 0.0076299233 0.0053373709         3956 
 4993000   0.45050088   -9.4885085    457.51635 0.0076359628 0.0053353704         3959 
 4994000   0.44934684   -9.4843915    456.82733 0.0076229364 0.0053333714         3955 
 4995000   0.45413172    -9.484837     456.9304 0.0076231298 0.0053313737         3962 
 4996000   0.45091555   -9.4760195     456.5265 0.0076148669 0.0053293766         3961 
 4997000   0.45054414   -9.4688099    457.11405 0.0076231414 0.0053273786         3967 
 4998000   0.45962643   -9.4870598    457.20445 0.0076231234  0.005325384         3966 
 4999000   0.45685241   -9.4745002    457.53145 0.0076270496 0.0053233907         3953 
 5000000   0.45285617    -9.476281    457.25667 0.0076209444 0.0053213974         3959 
 5001000   0.44928874   -9.4790075    458.07227 0.0076330112 0.0053194062         3953 
 5002000   0.44294889   -9.4743813    457.64858 0.0076244266  0.005317416         3954 
 5003000   0.45378133    -9.491644    457.13966 0.0076144258 0.0053154275         3956 
 5004000    0.4463341   -9.4876213    457.49931 0.0076188933 0.0053134373         3960 
 5005000   0.43738272   -9.4899237    457.22327  0.007612775 0.0053114504         3957 
 5006000   0.45789311   -9.4969006    456.27185 0.0075954163 0.0053094632         3966 
 5007000    0.4491826   -9.4896992    457.00869 0.0076061629 0.0053074753         3964 
 5008000   0.44940497   -9.4860613    456.39604 0.0075944495 0.0053054912         3968 
 5009000   0.44742673   -9.4848958    457.59822 0.0076129338 0.0053035078         3965 
 5010000   0.44918511   -9.4782882    456.95292 0.0076006806 0.0053015258         3966 
 5011000   0.44797239   -9.4893032    457.31901 0.0076052519 0.0052995445         3963 
 5012000   0.44296374   -9.4941669    457.43169 0.0076056081 0.0052975636         3967 
Loop time of 13358.6 on 48 procs for 5000000 steps with 4000 atoms

Performance: 64677.573 tau/day, 374.292 timesteps/s
99.4% CPU use with 48 MPI tasks x no OpenMP threads

MPI task timing breakdown:
Section |  min time  |  avg time  |  max time  |%varavg| %total
---------------------------------------------------------------
Pair    | 974.59     | 1070.9     | 1192.8     | 162.6 |  8.02
Neigh   | 95.221     | 99.136     | 102.76     |  17.5 |  0.74
Comm    | 819.32     | 952.52     | 1058.1     | 177.0 |  7.13
Output  | 18.521     | 18.529     | 18.637     |   0.4 |  0.14
Modify  | 11045      | 11092      | 11136      |  19.6 | 83.03
Other   |            | 125.9      |            |       |  0.94

Nlocal:        83.3333 ave          90 max          71 min
Histogram: 1 0 0 0 5 9 15 15 2 1
Nghost:        2463.88 ave        2484 max        2447 min
Histogram: 3 5 5 4 12 6 5 5 0 3
Neighs:        17082.2 ave       19275 max       13423 min
Histogram: 1 0 1 5 10 6 7 6 6 6
FullNghs:      34162.8 ave       37207 max       28287 min
Histogram: 1 0 0 0 3 11 9 21 1 2

Total # of neighbors = 1639812
Ave neighs/atom = 409.95300
Neighbor list builds = 265778
Dangerous builds = 0

#clear
#
#next RN
#
#jump SELF
Total wall time: 3:42:42
