
units lj                  # Use reduced LJ style units
atom_style atomic         # Uncharged point particles
atom_modify map hash      # Needed for indexing of clusters etc
                          # Used to be able to find where atoms are in relation to each other.

lattice fcc 1.0 spacing 1 1 1
Lattice spacing in x,y,z = 1.5874011 1.5874011 1.5874011
region box block 0 10 0 10 0 10 units lattice
create_box 2 box
Created orthogonal box = (0.0000000 0.0000000 0.0000000) to (15.874011 15.874011 15.874011)
  3 by 4 by 4 MPI processor grid
create_atoms 1 box
Created 4000 atoms
  using lattice units in orthogonal box = (0.0000000 0.0000000 0.0000000) to (15.874011 15.874011 15.874011)
  create_atoms CPU = 0.002 seconds
set type 1 type/fraction 2 0.41 78393
Setting atom values ...
  1648 settings made for type/fraction
mass 1 1.0
mass 2 1.0
pair_style lj/cut  3.5
pair_modify tail  yes
pair_coeff 1  1  1.0  1.0   # Intearaction between 1 and 1 set with epsilon = 1 and sigma = 1
pair_coeff 1  2  1.5  0.8
pair_coeff 2  2  0.5  0.88

write_data data.0
System init for write_data ...
Neighbor list info ...
  update every 1 steps, delay 10 steps, check yes
  max neighbors/atom: 2000, page size: 100000
  master list distance cutoff = 3.8
  ghost atom cutoff = 3.8
  binsize = 1.9, bins = 9 9 9
  1 neighbor lists, perpetual/occasional/extra = 1 0 0
  (1) pair lj/cut, perpetual
      attributes: half, newton on
      pair build: half/bin/atomonly/newton
      stencil: half/bin/3d
      bin: standard
WARNING: Not all mixed pair coeffs generated from mixing. Use write_data with 'pair ij' option to store all pair coeffs. (../write_data.cpp:312)


#############################
#   M E L T   S Y S T E M   #
#############################

velocity all create 2.4 5833274 mom yes dist gaussian # Assign velocities
                                                    # Temperature 2.4, random number seed, zero linear momentum
                                                                                # Gaussian distribution

timestep 0.002   # simulation timestep
thermo 1000       # output thermodynamic data every 1000 steps bf 100

# Define a fix  in this case with index 1 applied to all
# particles in the simulation. This fix is for simulations
# in the anisotropic NPT ensemble. Note that we use the MTK
# correction.
fix 1 all npt temp 2.4 2.4 0.1 iso 5.68 5.68 0.5 mtk yes tchain 5 pchain 5 # Use NPT ensemble
                                                                         # Set temperature and pressure and damping
                                                                         # Numbers of thermostats in chain and in barostat
run 10000          # run for 10000 steps
Per MPI rank memory allocation (min/avg/max) = 3.642 | 3.644 | 3.648 Mbytes
Step Temp E_pair E_mol TotEng Press Volume 
       0          2.4   -5.8082674            0   -2.2091674   -4.1765581         4000 
    1000     2.412916   -4.9911398            0   -1.3726705    5.6524932    3889.2553 
    2000    2.3803107   -5.0526428            0   -1.4830693    5.5814222    3871.8799 
    3000    2.4113059   -5.0403592            0   -1.4243046    5.6258734    3868.6895 
    4000    2.4209218    -5.064325            0   -1.4338501    5.7675191    3843.2618 
    5000    2.3849093   -5.0185713            0   -1.4421016    5.2613586    3902.2302 
    6000    2.3570161   -5.0186894            0   -1.4840491     5.610344    3875.1059 
    7000    2.3892749   -5.0106422            0   -1.4276259    5.4602936    3890.6105 
    8000    2.4378433   -4.9621378            0    -1.306287    5.8899502    3886.8447 
    9000    2.4335285   -5.0145239            0   -1.3651437    5.6528982    3882.5923 
   10000    2.3892613   -5.0315825            0   -1.4485865    5.7165214    3866.8374 
Loop time of 2.50889 on 48 procs for 10000 steps with 4000 atoms

Performance: 688749.498 tau/day, 3985.819 timesteps/s
99.6% CPU use with 48 MPI tasks x no OpenMP threads

MPI task timing breakdown:
Section |  min time  |  avg time  |  max time  |%varavg| %total
---------------------------------------------------------------
Pair    | 1.121      | 1.1854     | 1.3086     |   2.7 | 47.25
Neigh   | 0.20809    | 0.21621    | 0.23913    |   1.0 |  8.62
Comm    | 0.74262    | 0.85068    | 0.91152    |   4.1 | 33.91
Output  | 0.00023956 | 0.0002436  | 0.00033244 |   0.0 |  0.01
Modify  | 0.1975     | 0.24095    | 0.28151    |   4.6 |  9.60
Other   |            | 0.01542    |            |       |  0.61

Nlocal:        83.3333 ave          93 max          75 min
Histogram: 1 6 5 8 7 8 6 2 4 1
Nghost:        1688.29 ave        1714 max        1666 min
Histogram: 5 3 4 5 8 10 5 5 1 2
Neighs:        9866.92 ave       11246 max        8663 min
Histogram: 3 3 7 7 9 4 7 4 1 3

Total # of neighbors = 473612
Ave neighs/atom = 118.40300
Neighbor list builds = 904
Dangerous builds = 198

# Equilibrate just above the melting temperature to avoid step fn in T

fix 1 all npt temp 1.25 1.25 0.1 iso 5.68 5.68 0.5 mtk yes tchain 5 pchain 5
run 2000
Per MPI rank memory allocation (min/avg/max) = 3.643 | 3.645 | 3.649 Mbytes
Step Temp E_pair E_mol TotEng Press Volume 
   10000    2.3892613   -5.0315825            0   -1.4485865    5.7165214    3866.8374 
   11000    1.2522463   -7.0117407            0   -5.1338408    5.9351913    3063.9189 
   12000    1.2145581   -7.0601456            0   -5.2387639    5.9635839    3048.9734 
Loop time of 0.600475 on 48 procs for 2000 steps with 4000 atoms

Performance: 575544.571 tau/day, 3330.698 timesteps/s
99.7% CPU use with 48 MPI tasks x no OpenMP threads

MPI task timing breakdown:
Section |  min time  |  avg time  |  max time  |%varavg| %total
---------------------------------------------------------------
Pair    | 0.26846    | 0.29238    | 0.32772    |   2.4 | 48.69
Neigh   | 0.038564   | 0.041421   | 0.046776   |   0.7 |  6.90
Comm    | 0.18284    | 0.22061    | 0.24633    |   2.9 | 36.74
Output  | 4.8125e-05 | 4.9922e-05 | 6.508e-05  |   0.0 |  0.01
Modify  | 0.03646    | 0.041466   | 0.045444   |   1.2 |  6.91
Other   |            | 0.004554   |            |       |  0.76

Nlocal:        83.3333 ave          93 max          74 min
Histogram: 1 3 4 8 8 8 8 5 2 1
Nghost:        1967.83 ave        1996 max        1945 min
Histogram: 3 5 1 11 13 6 2 3 3 1
Neighs:        12532.7 ave       14122 max       11041 min
Histogram: 3 3 7 5 5 10 5 4 5 1

Total # of neighbors = 601569
Ave neighs/atom = 150.39225
Neighbor list builds = 143
Dangerous builds = 10

#############################
# L I N E A R  Q U E N C H  #
#############################

# Define solid atoms. This closely follows ten Wolde  Ruiz-Montero and Frenkel  Faraday Discuss  1996  104  93-110
# Compute components of the per-atom q6 vector
compute q6 all orientorder/atom degrees 1 6 components 6 nnn NULL cutoff 1.3 # compute the Q6 parameter.
                                                                             # Use all neighbours within 1.3 unit cell.

# get number of connections
compute coord_number all coord/atom orientorder q6 0.5

# An atom is solid if it has 8 or more connections (of a possible 14)
variable is_solid atom c_coord_number>=8
group solid dynamic all var is_solid    # Must be dynamic to update
dynamic group solid defined

# do clustering
compute cluster solid cluster/atom 1.3 # Create a cluster where all atoms within are solid and max 1.3 units from another member

# define chunks one chunk per cluster
compute clus_chunks solid chunk/atom c_cluster nchunk every compress yes  # Says which atoms are in which chunk

# count the size of each chunk
compute size_chunks solid property/chunk clus_chunks count


# Find the maximum entry in the vector of chunk sizes
variable max_n equal max(c_size_chunks)


# Thermo style which includes this variable
# thermo_style custom step temp pe vol v_max_n

thermo ${N}  # Print the thermo information every 100 steps
thermo 1000  

# Reset the npt fix at a lower temperature (below freezing)
fix 1  all npt temp  ${temp} ${temp}  0.1  iso  5.68  5.68  0.5  mtk yes tchain  5  pchain  5
fix 1  all npt temp  0.45 ${temp}  0.1  iso  5.68  5.68  0.5  mtk yes tchain  5  pchain  5
fix 1  all npt temp  0.45 0.45  0.1  iso  5.68  5.68  0.5  mtk yes tchain  5  pchain  5

dump dmp2 all dcd ${N} traj.dcd
dump dmp2 all dcd 1000 traj.dcd


compute msd all msd com yes
variable twopoint equal c_msd[4]/6/(step*dt+1.0e-6)
fix 9 all vector 10 c_msd[4]
variable fit equal slope(f_9)/6/(10*dt)
thermo_style custom step temp pe c_msd[4] v_twopoint v_fit v_max_n

fix 1 all npt temp 1.25 ${temp} 0.1 iso 5.68 5.68 0.5 mtk yes tchain 5 pchain 5
fix 1 all npt temp 1.25 0.45 0.1 iso 5.68 5.68 0.5 mtk yes tchain 5 pchain 5
run 5000000 # 5000000  # Run for this many steps
Neighbor list info ...
  update every 1 steps, delay 10 steps, check yes
  max neighbors/atom: 2000, page size: 100000
  master list distance cutoff = 3.8
  ghost atom cutoff = 3.8
  binsize = 1.9, bins = 8 8 8
  4 neighbor lists, perpetual/occasional/extra = 1 3 0
  (1) pair lj/cut, perpetual
      attributes: half, newton on
      pair build: half/bin/atomonly/newton
      stencil: half/bin/3d
      bin: standard
  (2) compute orientorder/atom, occasional
      attributes: full, newton on
      pair build: full/bin/atomonly
      stencil: full/bin/3d
      bin: standard
  (3) compute coord/atom, occasional
      attributes: full, newton on
      pair build: full/bin/atomonly
      stencil: full/bin/3d
      bin: standard
  (4) compute cluster/atom, occasional
      attributes: full, newton on
      pair build: full/bin/atomonly
      stencil: full/bin/3d
      bin: standard
Per MPI rank memory allocation (min/avg/max) = 9.825 | 9.831 | 9.836 Mbytes
Step Temp PotEng c_msd[4] v_twopoint v_fit v_max_n 
   12000    1.2145581   -7.0601456 1.9595305e-30 1.360785e-32 8.3333333e+20            3 
   13000    1.2555906   -7.1323396   0.46799572 0.0029999724  0.037919982            2 
   14000    1.2689246   -7.1148221   0.88740816 0.0052821912  0.036834398            3 
   15000    1.2250415   -7.1249461    1.2968354 0.0072046408    0.0351623            1 
   16000    1.2707795   -7.1167132    1.6930636 0.0088180395  0.034682532            1 
   17000    1.2297132   -7.1305467    2.1489601  0.010534118  0.034424047            1 
   18000    1.2626791   -7.1011104    2.6203261  0.012131139  0.035104375            1 
   19000     1.266411   -7.0878744     3.053482  0.013392464  0.035649355            1 
   20000    1.2624667   -7.1308087    3.4706687  0.014461119  0.035879994            3 
   21000    1.2298056   -7.1105874    3.9116547  0.015522439  0.036031431            1 
   22000    1.2372427   -7.1372788    4.3224725  0.016373001  0.035943242            3 
   23000    1.2604587   -7.1208105    4.7189911  0.017097793  0.035892041            1 
   24000    1.2546356   -7.1054227    5.1710521  0.017955042  0.035911407            3 
   25000    1.2446972   -7.1156494    5.6712926  0.018904308  0.035991887            1 
   26000    1.2639155   -7.1041208    6.1246031  0.019630138  0.036117774            1 
   27000    1.2417196   -7.0991206    6.5241355   0.02013622   0.03618647            2 
   28000    1.2446848   -7.1270743    6.8345835  0.020341022  0.036094138            3 
   29000    1.2399348   -7.1149401    7.2836873  0.020930135  0.035936836            2 
   30000    1.2335222   -7.1222969    7.7801351  0.021611486  0.035905121            3 
   31000    1.2209468    -7.073676    8.3039011  0.022322314  0.035978126            1 
   32000     1.257691   -7.1422664    8.7776894  0.022858566  0.036111481            1 
   33000    1.2606218   -7.0877386    9.0728635  0.022911271  0.036137408            1 
   34000    1.2599398    -7.136937     9.445458  0.023150632  0.036053173            1 
   35000    1.2591892   -7.1206501    9.9894495  0.023784403   0.03601944            2 
   36000    1.2598518   -7.0767447    10.453746  0.024198486  0.036054634            2 
   37000    1.2416857   -7.0600224    10.865757  0.024472426  0.036080603            3 
   38000    1.2438888   -7.1303236    11.250191  0.024671472  0.036086906            2 
   39000    1.2432897   -7.1051777    11.787815  0.025187639  0.036097844            3 
   40000    1.2570719   -7.1462269    12.094453  0.025196776  0.036115274            2 
   41000    1.2112483   -7.0719379    12.778036  0.025971617  0.036142487            1 
   42000    1.2544515   -7.1185388    13.077662  0.025947741  0.036211779            1 
   43000    1.2490433   -7.1557693    13.419462  0.026006709  0.036222146            3 
   44000    1.2445235   -7.1313654    13.891482  0.026309625  0.036224451            3 
   45000    1.2449914   -7.1169949    14.430428  0.026723015  0.036246116            2 
   46000    1.2427426   -7.1061578    14.875018  0.026947496  0.036293497            2 
   47000    1.2749614   -7.1339423    15.206067  0.026961111  0.036306758            2 
   48000    1.2413391    -7.092379    15.698274  0.027253948  0.036313818            2 
   49000    1.2246623   -7.0773777    16.247768  0.027632258  0.036330981            2 
   50000    1.2391075   -7.1474975    16.508189  0.027513648   0.03632834            1 
   51000     1.227215   -7.1664903     16.95115  0.027697958  0.036338059            1 
   52000    1.2400582   -7.0905196    17.530044  0.028093019  0.036338823            1 
   53000    1.2783989   -7.0944589    17.847561  0.028062203  0.036345642            3 
   54000    1.2337614   -7.0938182    18.334165  0.028293464  0.036347886            1 
   55000    1.2399904   -7.0577204    18.780454  0.028455234  0.036367692            2 
   56000    1.2373541   -7.0733386    19.326822  0.028760152  0.036391599            2 
   57000    1.2540761   -7.1067039    19.629189  0.028697644    0.0364103            3 
   58000    1.2243907   -7.1348181    19.868255  0.028546343   0.03640839            1 
   59000    1.2406951   -7.1375214    20.309078  0.028685139  0.036388568            1 
   60000    1.2308909   -7.1391647    20.745212  0.028812794  0.036354608            1 
   61000     1.231321   -7.1924749    21.027868  0.028726595  0.036315494            3 
   62000    1.2581029   -7.1498259    21.408007  0.028774203  0.036251198            1 
   63000    1.2207635   -7.1320682     21.70469  0.028709908   0.03617775            2 
   64000     1.210358   -7.1320345    22.229887  0.028945165  0.036104777            1 
   65000    1.2231588    -7.175844    22.683423  0.029081311  0.036051056            1 
   66000    1.2383388   -7.1470374    23.196543  0.029288564  0.036007356            1 
   67000    1.2361478   -7.1647953     23.48269  0.029207325  0.035968355            1 
   68000    1.2367533   -7.1288051     23.97457    0.0293806  0.035923612            1 
   69000    1.2564301   -7.0879296    24.524127   0.02961851  0.035889232            1 
   70000    1.2391283   -7.1814108    24.770984  0.029489267  0.035858307            1 
   71000     1.233324   -7.1359004    25.164055  0.029535276  0.035827389            1 
   72000    1.2532774   -7.1480196    25.592854  0.029621358  0.035794716            1 
   73000    1.2275006    -7.163933    26.087186  0.029779892   0.03576313            1 
   74000    1.2360342   -7.1347778    26.615202  0.029972074  0.035752779            1 
   75000    1.2227032   -7.1449806    27.064505  0.030071672  0.035743548            2 
   76000    1.2375946    -7.179596    27.344749  0.029983277  0.035733885            1 
   77000    1.2310139      -7.1632    27.604974  0.029875512  0.035709586            2 
   78000    1.2524799   -7.1530508    28.001594  0.029916233   0.03567624            2 
   79000    1.2176123   -7.1351591    28.570151   0.03013729  0.035643483            4 
   80000     1.241397   -7.1233929    28.845932  0.030047846  0.035616715            1 
   81000      1.23531   -7.1369051    29.247488  0.030090008  0.035579597            1 
   82000    1.2410673   -7.1793554    29.720026  0.030203278  0.035546966            1 
   83000    1.2470518   -7.1244762    30.111245  0.030232173  0.035517126            1 
   84000     1.250408   -7.1731095    30.468221  0.030226409  0.035486987            1 
   85000    1.2401742   -7.1476627    31.001711  0.030393834  0.035455426            2 
   86000    1.2479419   -7.1272158    31.619723  0.030639266  0.035443496            1 
   87000    1.2237645   -7.0990981    32.064618  0.030713235  0.035441925            2 
   88000    1.2673928   -7.1035697    32.438198   0.03071799  0.035431764            2 
   89000    1.2491466   -7.1667764    32.865441  0.030772885  0.035430617            3 
   90000    1.2266402   -7.0776882    33.349656  0.030879311  0.035423007            1 
   91000    1.2463599   -7.1216113    33.599136  0.030768439  0.035415928            1 
   92000    1.2457414   -7.1766191    33.991906   0.03078977  0.035402085            1 
   93000    1.2550292   -7.1032797    34.509013  0.030922054  0.035392547            1 
   94000    1.2540961   -7.1496644    34.878119  0.030920318  0.035384475            1 
   95000    1.2504222   -7.1410688    35.188148  0.030866796   0.03537369            1 
   96000    1.2094453   -7.1563635    35.719988  0.031006934  0.035362745            2 
   97000    1.2380497   -7.1155423    36.033616  0.030956715  0.035345568            1 
   98000    1.2355086   -7.1350474    36.368807  0.030925856  0.035324968            2 
   99000     1.211719   -7.1938312    36.739765  0.030925728  0.035301202            2 
  100000    1.2328801   -7.1692335    37.110845  0.030925704  0.035279635            2 
  101000    1.2105641   -7.1770513    37.696069  0.031102367  0.035268197            1 
  102000    1.2621747   -7.2246292    38.045117  0.031082612  0.035256283            2 
  103000    1.2320721   -7.1770271    38.236142   0.03093539   0.03523767            2 
  104000    1.2421023   -7.2114572    38.758505  0.031056494  0.035214596            1 
  105000    1.2350577   -7.1544685    39.100726  0.031032322  0.035191182            2 
  106000    1.2479822   -7.1548024    39.587894  0.031122558  0.035170222            3 
  107000    1.2476397   -7.1387734     39.87092  0.031052118  0.035145512            1 
  108000    1.2383982   -7.1588202    40.233804  0.031044601  0.035120002            4 
  109000    1.2530943   -7.1481294    40.709369   0.03112337  0.035093868            3 
  110000    1.2481908   -7.1527969    41.078013  0.031119706  0.035069058            3 
  111000    1.2425514   -7.1159033    41.319796  0.031020868  0.035043465            2 
  112000    1.2297345   -7.1415832    41.801052  0.031101973  0.035011799            2 
  113000    1.2330597   -7.1487244    42.087892  0.031038268  0.034977735            1 
  114000    1.2569267   -7.2029968     42.48267  0.031054583  0.034945372            1 
  115000    1.2291333   -7.1633294     43.18906   0.03129642  0.034918865            1 
  116000     1.226981   -7.1631288    43.556787  0.031290795  0.034899948            1 
  117000    1.2424904   -7.1497643     44.22788  0.031501339  0.034886816            1 
  118000    1.2196122   -7.1392252    44.831835    0.0316609  0.034883541            7 
  119000    1.2295872   -7.1307545    45.146608  0.031615272  0.034887252            1 
  120000    1.2498196   -7.1308568    45.675717  0.031719247  0.034888408            2 
  121000     1.226911   -7.2044453    45.924369  0.031628353  0.034890374            1 
  122000    1.2177503   -7.1423647    46.233371  0.031580171   0.03488272            2 
  123000    1.2065786   -7.1610211    46.563565   0.03154713  0.034874991            1 
  124000    1.2300127   -7.1902867    47.020492  0.031599793  0.034862373            3 
  125000    1.2338886   -7.1465987    47.473494  0.031648996  0.034852038            3 
  126000    1.2414652   -7.0919596    48.074109  0.031795045  0.034847389            1 
  127000    1.2039514    -7.130567    48.289199  0.031685826  0.034844371            1 
  128000    1.2318148   -7.2188368    48.553809  0.031610553  0.034833235            2 
  129000    1.2429116    -7.191718    49.041458  0.031680528   0.03482765            2 
  130000    1.2122996   -7.1444919     49.34164  0.031629257  0.034816803            1 
  131000    1.2126621   -7.1546509    49.837604   0.03170331   0.03480598            6 
  132000    1.2079199   -7.1366853    50.295305  0.031752086  0.034798025            1 
  133000    1.2274902   -7.1405382    50.769327  0.031810355  0.034793087            1 
  134000    1.2288783   -7.1392909    51.160138  0.031816006   0.03477964            1 
  135000    1.2441272   -7.1911699      51.2924  0.031661975  0.034771502            1 
  136000    1.2375407   -7.1408963    51.983182   0.03185244  0.034760939            1 
  137000    1.2080887   -7.1570301    52.280729   0.03180093  0.034752102            1 
  138000    1.2222904   -7.1651476    52.477044  0.031689036    0.0347441            1 
  139000     1.201707   -7.1652874    52.960598  0.031750958  0.034732582            1 
  140000    1.2587067   -7.1503906    53.397122  0.031784001  0.034718019            2 
  141000    1.2603712   -7.1684396    53.662769  0.031715584  0.034702315            1 
  142000    1.2316312   -7.1758309    54.126945  0.031764639  0.034690897            1 
  143000    1.2276787   -7.2162912    54.724125  0.031890516  0.034682081            3 
  144000    1.2273305   -7.1407999      55.2951  0.031999479  0.034678182            1 
  145000    1.2435052    -7.124836    55.850913  0.032098226  0.034674177            2 
  146000    1.2226978   -7.1736918    56.057334  0.031996195  0.034670067            1 
  147000    1.2103418   -7.1952062    56.255335   0.03189078  0.034661735            2 
  148000    1.2530979   -7.1848622    56.701164  0.031926331  0.034652155            2 
  149000    1.2397266   -7.0986548     57.17411  0.031976572  0.034641356            1 
  150000    1.2113037   -7.1294854    57.303069  0.031835038  0.034630339            1 
  151000    1.2277539   -7.1460018    57.561001  0.031766557  0.034617792            1 
  152000      1.21945   -7.1922518    57.937441  0.031763948   0.03459873            2 
  153000    1.2299256   -7.1792913    58.045101  0.031614979  0.034576872            1 
  154000    1.2229286   -7.1364753    58.721115  0.031775495  0.034556643            1 
  155000    1.2429199   -7.1037921    59.448607  0.031961616  0.034537772            2 
  156000     1.244017   -7.1383906    59.652124  0.031865451  0.034521583            1 
  157000    1.1992865   -7.1460228    59.905439  0.031796942   0.03450346            2 
  158000    1.2227366   -7.1557166    60.405159  0.031859261  0.034485877            1 
  159000    1.2158965   -7.1798708    60.666756  0.031795994  0.034467858            1 
  160000    1.1953236   -7.1981861    60.905273  0.031721496  0.034449375            2 
  161000    1.2114812   -7.1822212    61.325529  0.031741992  0.034431596            2 
  162000    1.2361636   -7.1121972    61.949524  0.031867039  0.034411731            1 
  163000     1.217259   -7.2125132    62.049117  0.031722452  0.034391118            1 
  164000    1.2180626   -7.2109968    62.185499  0.031598322   0.03437086            2 
  165000    1.2135468   -7.1750215    62.671904  0.031652477  0.034349528            1 
  166000    1.2077635   -7.1583448    63.185064  0.031719409  0.034329116            1 
  167000    1.2256593   -7.1706798    63.376546  0.031625023  0.034309391            1 
  168000    1.2416964   -7.1468635    63.939569  0.031716056  0.034289245            2 
  169000    1.2495554   -7.1706519    64.121703  0.031618197  0.034268503            1 
  170000    1.2424447   -7.1636281    64.638808   0.03168569  0.034247891            3 
  171000    1.2667323    -7.166461     64.94667  0.031650424  0.034226381            1 
  172000    1.2061032   -7.1716248    65.411766  0.031691747  0.034206544            2 
  173000    1.2562373    -7.148464    65.852513  0.031720864  0.034189241            1 
  174000    1.2208201   -7.1840814    65.830167  0.031527858  0.034167272            2 
  175000    1.2296582   -7.1639088    66.286631  0.031565062  0.034145964       -1e+20 
  176000    1.2225778    -7.182884    66.919328  0.031685288  0.034123858            1 
  177000     1.197648   -7.1780832    67.110416  0.031596241  0.034102734            1 
  178000    1.1884966   -7.2158631    67.484084  0.031593672  0.034080882            1 
  179000    1.2186615   -7.1858996    67.747129  0.031539632  0.034058809            2 
  180000    1.2396827   -7.1511585    68.513949  0.031719421  0.034036387            2 
  181000    1.2625465   -7.1464094    68.817575  0.031683966  0.034014964            1 
  182000    1.2081851   -7.1542058    69.258773  0.031711892  0.033996322            2 
  183000    1.2363336   -7.1738346    69.582108  0.031685841  0.033977496            2 
  184000    1.2328062   -7.1712297    69.779352  0.031602967  0.033958555            1 
  185000    1.2413638   -7.1702333    70.331663  0.031680929   0.03394123            1 
  186000     1.228093   -7.1759827    70.728167  0.031688247  0.033925881            1 
  187000    1.2292165   -7.1909348    71.165854  0.031713838  0.033910484            1 
  188000    1.2165578   -7.1831082    71.514512  0.031699695  0.033896834            1 
  189000    1.2065025   -7.1975629    71.888683   0.03169695  0.033879787            3 
  190000    1.2226544   -7.1140925    72.601009  0.031842548   0.03386474            2 
  191000    1.1964513   -7.1973532    72.843837  0.031781779  0.033849865            3 
  192000    1.2333446   -7.1804958    72.913428  0.031646453  0.033834894            1 
  193000    1.2281095   -7.1895712    73.316561  0.031656546  0.033819448            3 
  194000    1.1986379    -7.232468    73.758798  0.031683332  0.033802541            2 
  195000    1.2239285   -7.1906239    74.350458    0.0317737  0.033788692            2 
  196000    1.2302765   -7.2032605    74.344621  0.031609107  0.033773732            5 
  197000    1.2022686   -7.2085092    75.053501   0.03174852  0.033757265            3 
  198000    1.2278233   -7.2329946    75.361923  0.031717981  0.033743118            2 
  199000    1.2166745   -7.2202862    75.567329   0.03164461  0.033729811            2 
  200000    1.2208213   -7.1898439     76.61995  0.031924979  0.033717683            1 
  201000     1.215425   -7.1840798    77.185791  0.032000742  0.033710695            2 
  202000    1.2395331   -7.1493428     77.80078  0.032096031  0.033706278            1 
  203000    1.1817305   -7.1807507    78.072496  0.032049465  0.033702328            2 
  204000    1.2162858   -7.2029942    78.198789   0.03194395  0.033696386            2 
  205000    1.2283758   -7.1913709    78.512241  0.031915545  0.033689549            2 
  206000    1.2172377   -7.1243191    79.202162  0.032039709   0.03368283            1 
  207000    1.2056579   -7.1357004     79.34718  0.031943309  0.033675288            1 
  208000    1.2170697   -7.1764256    79.907845  0.032014361   0.03366949            1 
  209000    1.1920016   -7.1743063     80.17409   0.03196734  0.033663933            1 
  210000     1.208291   -7.1540276    80.549691  0.031964163  0.033657492            1 
  211000    1.2056656   -7.1764616    81.128633  0.032041324  0.033651184            2 
  212000    1.2293681   -7.1897841    81.215953   0.03192451  0.033642727            1 
  213000    1.2242207   -7.1993854    81.537984   0.03190062  0.033635049            3 
  214000    1.2126021   -7.1926855    82.064355  0.031956524  0.033627746            1 
  215000    1.1935083   -7.1755108    82.368312  0.031925702  0.033621609            2 
  216000    1.1843849    -7.167262    82.926141   0.03199311  0.033614472            2 
  217000    1.2175568   -7.1870379    83.281128     0.031982  0.033606606            4 
  218000    1.2378939   -7.1910386    84.031531  0.032122145  0.033601161            1 
  219000    1.2170726   -7.2063954    83.991628  0.031960285  0.033594227            1 
  220000    1.2297393   -7.1596029    84.573805  0.032035532  0.033585457            3 
  221000    1.2423025   -7.1754429    84.779477  0.031968129   0.03357817            3 
  222000    1.2035133   -7.1590388    85.244302  0.031998612  0.033570908            2 
  223000    1.2174851    -7.206983     85.87856  0.032092138  0.033565358            2 
  224000    1.1972745   -7.1828712    86.098605  0.032030731  0.033562431            3 
  225000    1.2222774   -7.2328081    86.420726  0.032007676  0.033558602            1 
  226000    1.2004049   -7.1795105    86.975477  0.032070604  0.033553805            7 
  227000    1.1994363   -7.2225874    87.283351  0.032042346   0.03354919            1 
  228000    1.2286525   -7.2114961    87.657505  0.032038562  0.033545379            1 
  229000    1.1875529   -7.1733567    88.379054  0.032161228  0.033540266            2 
  230000    1.2074371   -7.1979896    88.473061  0.032055457  0.033535255            1 
  231000    1.2081878   -7.1618853    88.885772  0.032065574  0.033529335            2 
  232000    1.2052655   -7.2164215    88.985906  0.031963328  0.033522281            1 
  233000     1.221105   -7.2085824    89.551078  0.032028282  0.033516061            1 
  234000    1.2326301     -7.24276     89.98763  0.032046877  0.033509086            2 
  235000    1.2170807   -7.2070077     90.27391  0.032012025  0.033502649            2 
  236000     1.217736   -7.1969081     90.74842  0.032043933  0.033496186            3 
  237000    1.1914259   -7.2101507    90.984752  0.031991825  0.033489603            1 
  238000    1.2097221   -7.1923265    91.565315  0.032060685  0.033484116            3 
  239000    1.2063683   -7.2379979    92.029523  0.032088397  0.033479522            2 
  240000    1.2255214   -7.1958244    92.698122  0.032186848  0.033475372            2 
  241000    1.2052975   -7.1618097    92.948125  0.032139739  0.033471604            1 
  242000    1.2293205   -7.2045788    93.265879   0.03211635  0.033467699            1 
  243000    1.2070355   -7.2137449    93.567863  0.032087745  0.033464047            1 
  244000    1.2172204   -7.2000325    94.198642  0.032171667  0.033461191            1 
  245000    1.2354411   -7.1720975    93.846145  0.031920458  0.033456525            1 
  246000    1.2226896   -7.1574211     94.86894  0.032137175   0.03345077            4 
  247000    1.2083266   -7.1795936     95.22066  0.032125729   0.03344672            2 
  248000    1.2324147   -7.2123034    95.511766  0.032094007  0.033441524            1 
  249000    1.2227717   -7.1410465    95.991047  0.032125518  0.033436617            1 
  250000    1.2127137   -7.1784292    96.446708  0.032148903  0.033432671            2 
  251000    1.2338132   -7.1988245    96.813031  0.032142441  0.033428367            1 
  252000    1.2281656   -7.2042268    97.152389  0.032127113  0.033423638            1 
  253000    1.2057915    -7.220099    97.808239  0.032216152   0.03342023            2 
  254000    1.2109362   -7.2603692    97.486474  0.031983751  0.033416674            4 
  255000    1.1937539   -7.1833227    98.405086  0.032158525  0.033411414            2 
  256000    1.2029038   -7.2153635    98.430355  0.032041131  0.033405356            1 
  257000    1.1776004   -7.2157079    98.630585  0.031981383  0.033398793            2 
  258000    1.1908319   -7.1972525    99.127862  0.032018043   0.03339233            2 
  259000    1.2166909   -7.2536812    99.499347  0.032013947  0.033385582            2 
  260000    1.2067628   -7.2358676    99.974923  0.032043245  0.033380007            1 
  261000    1.2194618   -7.2187323    100.13766  0.031972434  0.033373493            1 
  262000     1.177519   -7.1913003    101.23812   0.03220042   0.03336853            2 
  263000    1.2109665   -7.2075396    101.08188   0.03202848  0.033363301            1 
  264000    1.1857107   -7.2012173    101.52965  0.032048501  0.033355377            1 
  265000    1.2195063   -7.2262631    101.66294  0.031969478  0.033348193            1 
  266000    1.2084435    -7.246539      102.092  0.031983708  0.033341964            2 
  267000    1.1936377   -7.2365759    102.62986   0.03203179  0.033335737            2 
  268000    1.2059388     -7.21246    103.50944  0.032185771  0.033330476            2 
  269000    1.2071815     -7.18601    103.46182  0.032051368  0.033325807            2 
  270000     1.197276   -7.2052557    103.84932  0.032052261  0.033320862            2 
  271000    1.2040869    -7.195154    104.37877  0.032096791  0.033314434            1 
  272000    1.2280005   -7.2392519    104.49275  0.032013709  0.033307506            1 
  273000    1.2105845   -7.1934419    104.81662  0.031995307  0.033300283            3 
  274000    1.2322684   -7.2138099    105.59926  0.032116563  0.033293004            2 
  275000    1.2005715   -7.2260427    105.39727  0.031938567   0.03328547            1 
  276000    1.1859843   -7.1582815    106.48572  0.032151485  0.033278664            2 
  277000    1.2264168   -7.1993022    106.54189  0.032052313  0.033273568            1 
  278000    1.1891804   -7.2400914    106.59178  0.031951972  0.033267598            2 
  279000    1.2324832    -7.241474    107.12965  0.031998102  0.033260412            1 
  280000    1.2313826   -7.1744559    107.82178  0.032089816  0.033253981            2 
  281000    1.2404357   -7.2451898    107.99163  0.032025987   0.03324788            3 
  282000    1.2012624   -7.2544937    108.61795  0.032097503  0.033242355            1 
  283000    1.2200918   -7.2149378     109.0814  0.032120554  0.033239466            4 
  284000    1.1921151   -7.2208193    109.14074  0.032024866  0.033234774            1 
  285000    1.2251838   -7.2406151    109.96514  0.032153549  0.033230653            4 
  286000    1.1940711   -7.2154927    110.19787  0.032108937  0.033226581            1 
  287000    1.2185395   -7.1949495    110.45918  0.032072932   0.03322257            3 
  288000     1.197108   -7.1982591    111.25779  0.032192647  0.033219551            2 
  289000    1.2037732   -7.1608492     111.3892  0.032119146  0.033215743            3 
  290000    1.2253257   -7.2533874    111.63744  0.032079724  0.033210539            1 
  291000    1.1988391   -7.2385755    112.16526  0.032120635  0.033206518            1 
  292000    1.1966833   -7.1893637     112.9283  0.032228397  0.033201934            1 
  293000    1.1824811   -7.2317199    112.90407  0.032111511  0.033198286            1 
  294000    1.2267234   -7.2167135     113.5483  0.032184892  0.033194834            1 
  295000    1.2084996   -7.2361002    113.59341  0.032088533  0.033191108            1 
  296000    1.1997161   -7.2004887    114.08895  0.032119638  0.033188282            3 
  297000    1.2247676   -7.2288097    114.37363  0.032091367  0.033183528            2 
  298000    1.1911065   -7.2083284    114.71702  0.032079704  0.033179512            2 
  299000    1.1924995   -7.1966195    115.60777  0.032220673  0.033176385            1 
  300000    1.1854534   -7.2124021     116.0522  0.032236721  0.033173527            1 
  301000    1.2117251   -7.2175786    116.49627  0.032252565  0.033171395            2 
  302000    1.2154933   -7.2106112    117.11226  0.032315744  0.033170463            3 
  303000    1.2228328   -7.2525148    117.45051  0.032302122  0.033169075            2 
  304000    1.2092615   -7.2161079    117.58972  0.032234024  0.033167846            2 
  305000    1.2174594   -7.1862144    118.16746  0.032286192  0.033167923            2 
  306000    1.2139438   -7.1939937    118.27011  0.032208635  0.033167253            1 
  307000    1.2114059   -7.2217636      119.269  0.032374864  0.033167547            3 
  308000    1.2154233   -7.2019111    119.61358  0.032362983  0.033167445            3 
  309000    1.2217755   -7.1633354    120.24708  0.032429093  0.033167329            1 
  310000    1.1885302   -7.2000863    119.85825  0.032219959  0.033166408            2 
  311000    1.2168327   -7.2079816    120.80285  0.032369468  0.033164801            2 
  312000     1.241495   -7.1751917    121.01788  0.032323153  0.033163606            2 
  313000    1.1978681   -7.1927353    121.36578  0.032312507  0.033162343            2 
  314000    1.1734177   -7.2293413    121.15567  0.032153839  0.033158284            2 
  315000    1.1885582   -7.2346889     121.5094  0.032145343  0.033154238            2 
  316000    1.2146218   -7.2458673    121.45871  0.032030251  0.033150328            1 
  317000    1.2156473   -7.2289276    122.46642  0.032194115  0.033146179            2 
  318000    1.2172163   -7.2528014    122.16277  0.032013305  0.033140151            2 
  319000    1.2150597   -7.2069661    122.96846  0.032123423  0.033135428            2 
  320000    1.2073026   -7.2491793     123.0088  0.032033541  0.033130352            2 
  321000    1.2054563   -7.2255417    123.33668  0.032018868  0.033124399            2 
  322000    1.1834917   -7.2393155    123.11392  0.031861781  0.033117599            2 
  323000    1.2093459   -7.2103213    123.51676  0.031867068  0.033109606            2 
  324000    1.1701729   -7.2659758    123.79622  0.031840592  0.033100771            2 
  325000    1.2161649   -7.2121373    124.63555  0.031957834  0.033092907            3 
  326000    1.1918655   -7.2332866    124.41959  0.031804599  0.033085383            2 
  327000    1.1822929   -7.2273738    125.11323  0.031884106  0.033076654            4 
  328000    1.2195254   -7.1887269    125.25156  0.031822043   0.03306771            1 
  329000    1.1756551   -7.1953308    125.98112  0.031910113  0.033059335            3 
  330000    1.2202273    -7.275272    125.81759   0.03177212  0.033050181            2 
  331000    1.1953526    -7.198187    126.56384  0.031864008  0.033040513            4 
  332000    1.2037931   -7.2128108    127.19359  0.031926101  0.033031748            3 
  333000    1.2088229   -7.2192754    127.45531  0.031895723  0.033022851            2 
  334000    1.1920751   -7.2054896    127.30628  0.031763044  0.033013465            1 
  335000    1.1905899    -7.265424    127.65356  0.031754618  0.033003221            3 
  336000    1.1912448   -7.2509653    127.83712  0.031705634  0.032993041            3 
  337000    1.1959812   -7.2075382    128.61956  0.031805034  0.032983823            2 
  338000    1.1879957   -7.2607389    128.60607  0.031707612  0.032974317            1 
  339000    1.2216084   -7.2433939    129.09109  0.031733307  0.032963745            2 
  340000    1.2255009   -7.1883736    129.52524  0.031746383  0.032953295            1 
  341000    1.1961184   -7.2194575    129.74352  0.031706628  0.032943254            2 
  342000    1.1565181   -7.2566722    129.60327  0.031579743  0.032932555            2 
  343000    1.1803797   -7.2904575    129.98436  0.031580264  0.032921392            3 
  344000    1.1858011    -7.241642    130.61464  0.031641143  0.032910507            1 
  345000    1.2254896   -7.1914709    131.25921  0.031705124  0.032900723            1 
  346000    1.1834217   -7.2486917    131.36216  0.031638285  0.032890935            2 
  347000     1.214831   -7.2298783    132.27015  0.031765165  0.032881645            2 
  348000    1.2149133   -7.2250269    132.29869  0.031680722  0.032871665            1 
  349000    1.2047242   -7.2682554    132.30565  0.031591607  0.032862001       -1e+20 
  350000    1.2244982   -7.2269945    132.89212   0.03164098  0.032851437            1 
  351000    1.1960159   -7.2127781    133.23095   0.03163128  0.032841079            1 
  352000    1.1803507   -7.2052785      133.492   0.03160322  0.032830161            1 
  353000    1.1730742   -7.1805423     133.8865  0.031606823   0.03281889            1 
  354000    1.1773708   -7.2237608    134.14384  0.031578116  0.032806712            3 
  355000    1.2119573   -7.1784889    134.08729  0.031475889  0.032794902            1 
  356000    1.2152866   -7.2470662    134.73989  0.031540236  0.032782567            1 
  357000     1.209349   -7.2095319    134.57706  0.031413879  0.032770217            1 
  358000    1.1774021   -7.2200048    135.29679  0.031493665  0.032758721            3 
  359000    1.2225114   -7.2469057    135.68598  0.031496282  0.032746457            2 
  360000    1.1797163   -7.2490128    135.70484  0.031413157  0.032733209            3 
  361000    1.1984657   -7.2348996    135.85568   0.03136096  0.032720866            2 
  362000     1.181884   -7.2252865    136.28021  0.031372056  0.032708119            2 
  363000    1.1896307    -7.232412     137.2876  0.031516895  0.032695528            1 
  364000    1.2084174   -7.2597247    137.33728  0.031441684  0.032683754            3 
  365000    1.1919768   -7.2906148    137.59304  0.031413936  0.032672238            2 
  366000     1.206373   -7.2214085    138.06838  0.031436335  0.032659976            1 
  367000    1.2120218   -7.2254486    139.27502  0.031624663  0.032648551            1 
  368000    1.2071194   -7.2718661    138.22971  0.031302017  0.032637025            3 
  369000    1.1849752   -7.1900073    139.09128  0.031411762  0.032624233            1 
  370000    1.1981459   -7.2508165    139.17098  0.031344816  0.032612417            1 
  371000    1.1739647    -7.224836    139.90921  0.031426148  0.032600074            1 
  372000    1.1901796   -7.2643424    139.64713  0.031282958   0.03258867            1 
  373000     1.161507   -7.2244783    140.56339  0.031403796  0.032577344            1 
  374000    1.2007222   -7.2294424    140.87732  0.031389778  0.032565041            1 
  375000    1.1950425    -7.245356    140.63282  0.031251738  0.032552692            1 
  376000    1.1804797   -7.2285796    141.07581  0.031266803  0.032539494            3 
  377000    1.1888983   -7.2696007    141.33085  0.031240241  0.032526063            1 
  378000    1.2015836   -7.2608475    141.84102  0.031270066  0.032512202            2 
  379000    1.1863978   -7.2737723    142.08069  0.031240258  0.032499063            2 
  380000    1.1791434   -7.2458317    142.08119  0.031158156   0.03248519            2 
  381000    1.1975343   -7.2248661    142.91929  0.031259687  0.032472323            3 
  382000    1.1913531   -7.2231479    143.37196  0.031276606  0.032460552            2 
  383000     1.202134   -7.2766597    143.37754  0.031196157  0.032448339            2 
  384000    1.2174365   -7.2573656    144.24794  0.031303805  0.032436071            1 
  385000    1.1777083   -7.2172505    144.54745  0.031287327  0.032424532            1 
  386000    1.1953704   -7.2826708    144.57261  0.031211703  0.032412005            1 
  387000    1.1783367   -7.2621652    144.86312  0.031193609  0.032399404            4 
  388000     1.190765   -7.2508678    145.32012  0.031211367  0.032385928            2 
  389000    1.1967197   -7.2464353    145.88334  0.031251786  0.032373306            2 
  390000    1.1868703   -7.2875219    145.84977   0.03116448  0.032360526            3 
  391000    1.1767668   -7.2715096    146.55876  0.031235881  0.032348002            3 
  392000    1.1758553   -7.1968216    147.29134  0.031311935  0.032335579            1 
  393000    1.1747348   -7.2550932    147.19343  0.031211498  0.032323132            5 
  394000    1.2020812   -7.2661628    147.89828  0.031281362  0.032311471            1 
  395000    1.1675099   -7.2771209     148.0183  0.031227489  0.032299833            1 
  396000    1.1736217   -7.2880001    148.24763  0.031196891  0.032288164            3 
  397000    1.1930911   -7.2748516    148.68119  0.031209317  0.032276825            1 
  398000    1.2047344   -7.2533161    148.99484  0.031196574   0.03226575            2 
  399000    1.1913832   -7.2499947    149.58506  0.031241658  0.032254871            4 
  400000    1.2048171    -7.236338    149.47292  0.031140191  0.032244022            1 
  401000    1.1811718   -7.2611973    149.90589  0.031152513  0.032232481            2 
  402000    1.1937106    -7.249983    150.58538  0.031215874   0.03222165            1 
  403000    1.2066369   -7.2157357    151.15502  0.031256207  0.032210772            1 
  404000    1.1945546    -7.293398    150.83473  0.031112775   0.03220016            2 
  405000     1.189095   -7.2196098    151.50945  0.031174784  0.032188672            1 
  406000    1.1794777   -7.2716104    151.76376  0.031150197  0.032176605            1 
  407000    1.2038756   -7.2448111    152.03615  0.031129432  0.032165277            2 
  408000    1.2195826   -7.2267973     152.7914  0.031207394  0.032154814            2 
  409000    1.1707427    -7.284591    152.87446  0.031148016  0.032144641            1 
  410000     1.219159   -7.2389527    153.31954  0.031162507  0.032134583            1 
  411000    1.1962707   -7.2465502     153.5273  0.031128811  0.032123979            2 
  412000    1.1855435   -7.2681404    153.48144   0.03104398  0.032113132            2 
  413000    1.2060436   -7.2586711    154.20772  0.031115359  0.032102638            1 
  414000    1.1770863   -7.2338551    154.60177   0.03111952  0.032092399            3 
  415000     1.200565   -7.2390072    155.44395  0.031213644  0.032081991            2 
  416000    1.1880316   -7.3130138    154.77393  0.031004392  0.032071739            3 
  417000    1.1719857    -7.314944    155.29049  0.031033272  0.032060844            1 
  418000    1.1838963   -7.2732004    155.63689  0.031028087  0.032049718            2 
  419000     1.183817   -7.2566866    156.47414  0.031120552  0.032038908            1 
  420000    1.1613798    -7.282264    155.91688  0.030935889  0.032028241            1 
  421000    1.1471901   -7.2393159    156.50728  0.030979271  0.032015939            4 
  422000    1.1528932    -7.265813    156.80498  0.030964649  0.032003914            1 
  423000    1.1806691   -7.2683143     157.2925   0.03098749  0.031991662            3 
  424000     1.187335   -7.2659831    156.92685   0.03084254  0.031979232            2 
  425000    1.1912185   -7.2812068    157.18764  0.030821105  0.031966505            1 
  426000    1.1663789    -7.233275    158.11474  0.030930113  0.031954392            1 
  427000    1.1881967    -7.259511    158.55937  0.030944452  0.031942955            2 
  428000    1.2054881   -7.2211272    158.70469  0.030900446  0.031931095            2 
  429000    1.1810975   -7.2943469    159.34286  0.030952382  0.031919316            2 
  430000    1.1805972   -7.2730251    159.02107  0.030818037  0.031907669            1 
  431000    1.1777018   -7.3094008     159.5416  0.030847177  0.031895785            4 
  432000    1.2149257   -7.2669785    160.50024  0.030960694  0.031884267            4 
  433000    1.1666013   -7.3042337    160.58125  0.030904782  0.031872729            1 
  434000    1.1983572   -7.2445833    160.80549  0.030876631  0.031860928            5 
  435000    1.2012122    -7.231939    161.45583  0.030930236  0.031849622            2 
  436000    1.1796366   -7.2410975    161.33377  0.030835966  0.031838546            2 
  437000    1.1905116   -7.2554965    162.58368  0.031003752   0.03182755            5 
  438000    1.2089219   -7.2255224    162.83647  0.030981064  0.031817269            6 
  439000    1.1748288   -7.2677406    163.77445  0.031088543  0.031808289            1 
  440000    1.1805116   -7.2828693    163.25657  0.030919804  0.031799056            1 
  441000    1.1887461   -7.2722704    163.31236  0.030860233   0.03178916            4 
  442000    1.1615265   -7.2782444    163.44883  0.030816144  0.031778743            2 
  443000    1.1684995   -7.2928171    163.56428  0.030768299   0.03176773            1 
  444000     1.177392   -7.2738386    164.57597  0.030888883  0.031756891            3 
  445000    1.1674831   -7.3292528    164.78595  0.030858792  0.031746747            2 
  446000    1.1730019   -7.2799381    164.81356  0.030794761  0.031736577            1 
  447000     1.212116   -7.2937888    165.33241  0.030822597  0.031726356            1 
  448000    1.1953975   -7.2656553    165.96612  0.030871675  0.031716142            1 
  449000    1.1965222   -7.2524266    167.02556  0.030999548  0.031707195            1 
  450000     1.184502   -7.2559316    167.06128  0.030937274  0.031698892            1 
  451000    1.1960477   -7.2848013    166.93261  0.030844902  0.031690023            1 
  452000    1.2055418   -7.2769684    167.52642   0.03088614   0.03168084            2 
  453000    1.1843442   -7.2631217    168.22511  0.030946489  0.031672043            1 
  454000    1.1949246   -7.2662985    168.57351  0.030942275  0.031663873            1 
  455000    1.1621003   -7.2297246    168.98499  0.030949632  0.031654987            2 
  456000    1.2100658   -7.3099091    169.11146  0.030904873  0.031646189            1 
  457000    1.1960753   -7.2716069    168.99541  0.030816086  0.031636936            2 
  458000    1.1904955   -7.2412228    169.62071  0.030862574   0.03162809            1 
  459000    1.1568539   -7.2705002    169.80638  0.030829046  0.031618919            1 
  460000    1.1698533   -7.3317024    169.91051   0.03078089  0.031609542            2 
  461000    1.1515511   -7.3425613    170.53653  0.030827284  0.031600096            2 
  462000    1.2146338    -7.319976    170.83058  0.030813596  0.031590275            3 
  463000    1.1599338   -7.2936692    171.13494  0.030801825  0.031581152            1 
  464000    1.1832445   -7.2939339    171.49459  0.030800034  0.031571809            2 
  465000    1.2221482   -7.2869797    171.41574  0.030719666  0.031562383            1 
  466000     1.183188    -7.307875    172.40405  0.030830482   0.03155265            2 
  467000    1.1728094   -7.2827999    172.64923  0.030808214  0.031543351            2 
  468000    1.1536575   -7.2746808    172.41814  0.030701236   0.03153323            1 
  469000    1.1632012   -7.2591843    172.77243  0.030698726   0.03152291            2 
  470000    1.1782604   -7.3014111      172.984  0.030670923  0.031512498            1 
  471000    1.1648778   -7.3221392    172.99404   0.03060758  0.031501868            1 
  472000    1.1753942   -7.3091127      173.057  0.030553848  0.031490452            1 
  473000    1.1577326   -7.3005716    173.40214  0.030550059  0.031479377            1 
  474000    1.1655254   -7.2708718    174.96899  0.030761074   0.03146827            2 
  475000    1.1940194   -7.3110225    174.27825  0.030575131  0.031457535            1 
  476000    1.1879733   -7.3020912    174.92064  0.030623361  0.031446884            2 
  477000    1.1464993   -7.3143898    175.02616  0.030577596   0.03143667            1 
  478000    1.1884619   -7.2750919    175.68247  0.030628046  0.031425881            2 
  479000     1.197192   -7.2874718    176.42104  0.030692596   0.03141537            1 
  480000    1.1717105    -7.284096    176.88331  0.030708908  0.031405582            2 
  481000    1.1727504   -7.2967998    176.45434  0.030570745  0.031395741            2 
  482000    1.1574728   -7.3204902    176.33001  0.030485824  0.031385162            1 
  483000     1.187847   -7.2809698    177.52912  0.030629594  0.031374627            1 
  484000    1.1605158   -7.2811811    177.76666  0.030607208  0.031364671            1 
  485000    1.1893653   -7.3142636    177.27878  0.030460272  0.031354035            1 
  486000     1.170524   -7.2476611     178.8057  0.030659413  0.031344095            1 
  487000    1.1315164   -7.3034672     178.0462  0.030466496  0.031334034            3 
  488000    1.1646466   -7.2808423    178.50546   0.03048249  0.031323069            1 
  489000    1.2114017   -7.2994534    178.76152  0.030463791  0.031312529            3 
  490000    1.1677566   -7.3244589      179.198  0.030475851  0.031301768            1 
  491000    1.1750425   -7.2702445    179.60096  0.030482173   0.03129119            1 
  492000    1.1871179   -7.3131359    180.27045  0.030533613  0.031280924            1 
  493000    1.2026052   -7.3029498    180.21785  0.030462788  0.031270431            2 
  494000    1.1900454   -7.2839081    180.62304  0.030469473  0.031259842            2 
  495000    1.1740902   -7.3022274    180.92386  0.030458562    0.0312496            2 
  496000    1.1809697    -7.298255    181.21032  0.030445283  0.031239787            2 
  497000    1.1963918   -7.3167634    181.22352  0.030386238  0.031229681            1 
  498000    1.1379732   -7.3070215    182.12933  0.030476796  0.031220089            1 
  499000    1.1754818   -7.3053554    182.59841  0.030494057  0.031210399            2 
  500000    1.1900005   -7.2559354    183.09591  0.030515984  0.031201598            1 
  501000    1.1703952   -7.2731333    183.96674  0.030599924  0.031193386            2 
  502000    1.1995119   -7.3117324    183.56676   0.03047257  0.031184746            2 
  503000    1.1607967   -7.3102543    183.94836  0.030475208  0.031174906            1 
  504000    1.1433598   -7.3160093    184.47129  0.030501205  0.031165256            2 
  505000    1.1741098   -7.3389521    184.56628  0.030456481   0.03115589            3 
  506000    1.1857454   -7.2845724    185.18418  0.030498053  0.031147034            2 
  507000    1.1659723   -7.2888651    185.68537  0.030520278  0.031138453            1 
  508000    1.1663525   -7.3054623    185.84403  0.030486226  0.031129942            1 
  509000    1.1752992   -7.2772387    186.68112  0.030563379   0.03112156            1 
  510000    1.1753735   -7.3069362    186.49474  0.030472996  0.031113328            2 
  511000    1.1370579   -7.3197454    187.32161  0.030548208  0.031105883            5 
  512000    1.1834104   -7.3082673    187.95399   0.03059147  0.031098737            1 
  513000    1.1728074   -7.3417491    188.16388  0.030565933  0.031091079            3 
  514000    1.1814022   -7.3112707    188.75799  0.030602786  0.031084466            4 
  515000    1.1693897   -7.3117143     189.3714  0.030642621   0.03107792            1 
  516000    1.1735108   -7.3188967    189.89617  0.030667986  0.031071913            4 
  517000    1.1625427   -7.3170732    189.96174  0.030619236  0.031065177            1 
  518000    1.1490481   -7.3399206    189.60877  0.030503342  0.031058562            1 
  519000    1.1395701   -7.2784294    191.00591  0.030668901  0.031052447            3 
  520000    1.1898594   -7.3081689    191.13672  0.030630884  0.031046192            1 
  521000    1.1761978   -7.3098387    191.23027  0.030587055  0.031039573            1 
  522000    1.1651241    -7.346171    191.29774   0.03053923  0.031032797            2 
  523000    1.1920084   -7.3190617    192.06789  0.030603552  0.031026097            1 
  524000    1.1858349   -7.3261215    191.97904  0.030531018  0.031019385            1 
  525000     1.168741   -7.2896122    192.85279  0.030611554  0.031012547            1 
  526000    1.1431566   -7.3122016    192.81856  0.030547934  0.031005738            2 
  527000    1.1689911   -7.3158345    193.48644  0.030595579  0.030999176            1 
  528000    1.1732038   -7.3185014     193.4184  0.030526894  0.030992746            5 
  529000    1.1746081    -7.333472    193.67745  0.030509996   0.03098618            1 
  530000    1.1498527   -7.3273671    194.11564  0.030521326  0.030978969            1 
  531000    1.1586043   -7.3451755     194.7297  0.030560217  0.030972232            1 
  532000    1.1675164   -7.3161052    194.62058  0.030485679  0.030966157            4 
  533000    1.1641386   -7.2903134    195.99038  0.030642648  0.030959928            1 
  534000    1.1784901   -7.2388302    195.99215  0.030585542  0.030954325            1 
  535000     1.161344   -7.3534477    196.13815  0.030551113  0.030948399            2 
  536000    1.1546388   -7.3647775    196.11056  0.030489826  0.030942327            2 
  537000    1.1836227   -7.3120246    196.92809  0.030559914  0.030936457            1 
  538000    1.1761332   -7.2947151    197.41942  0.030579215   0.03093023            1 
  539000    1.1504655    -7.308333     197.7699  0.030576669  0.030924749            2 
  540000    1.1563471   -7.2892933    197.58442  0.030491423  0.030918914            2 
  541000    1.1841663   -7.3295623    198.28102  0.030542363  0.030913031            3 
  542000    1.1686957   -7.3091759    199.04895  0.030604081  0.030907021            2 
  543000    1.1612836   -7.3238204    199.57928   0.03062911  0.030901238            1 
  544000    1.1749724   -7.2874544    199.18656  0.030512647   0.03089559            2 
  545000    1.1596308   -7.3349958    200.22151   0.03061491   0.03089034            3 
  546000    1.1728666   -7.3276138    200.21132  0.030557283  0.030884588            5 
  547000    1.1409304   -7.3119901    201.28737  0.030665351  0.030879008            1 
  548000    1.1602237   -7.3137234     200.9094  0.030551916  0.030873849            1 
  549000    1.1804155   -7.3332426    201.15496  0.030533539  0.030868502            1 
  550000    1.1542733   -7.2934534     201.5681  0.030540622  0.030862892            3 
  551000     1.152258   -7.3064372     201.3031  0.030445114  0.030857587            3 
  552000    1.1510576   -7.2999515    201.97392  0.030491232  0.030851695            1 
  553000    1.1465784   -7.2700468    202.93028   0.03058021  0.030846145            2 
  554000    1.1935837   -7.3009109    203.09986   0.03055052  0.030840879            2 
  555000    1.1538723   -7.3366448    203.43782  0.030546219  0.030835429            3 
  556000    1.1699584   -7.3404349    202.80623  0.030396617  0.030829966            2 
  557000    1.1265616    -7.347405    203.49171  0.030444601  0.030824074            2 
  558000    1.1742574   -7.3478324    204.16536  0.030490645  0.030818752            5 
  559000    1.1895403   -7.2872993     205.3227  0.030608632  0.030813814            2 
  560000    1.1468492   -7.3779052    205.10853  0.030522102  0.030808856            3 
  561000    1.1550831   -7.3052501    205.73023  0.030560045   0.03080359            2 
  562000    1.1610092   -7.3226788    206.01958  0.030548574  0.030799056            1 
  563000    1.1403181   -7.3384487    206.29169  0.030534589  0.030794773            1 
  564000    1.1615487   -7.3283419    206.67759  0.030537469   0.03078996            2 
  565000    1.1569254   -7.2951305    207.25881  0.030569146  0.030785002            1 
  566000    1.1450053   -7.3314855    206.74773   0.03043989  0.030779747            2 
  567000    1.1404044    -7.296554    207.02514  0.030426976  0.030774729            1 
  568000    1.1365716   -7.2531944    208.73061  0.030623622  0.030769497            5 
  569000    1.1739405   -7.3483042    208.06083  0.030471709  0.030764304            1 
  570000    1.1537498   -7.3343703    208.75834  0.030520225  0.030759205            2 
  571000    1.1658972   -7.3211777    209.01015  0.030503525   0.03075419            2 
  572000    1.1544447   -7.3286969    209.19806  0.030477573  0.030749137            1 
  573000    1.1639609   -7.3530749    208.70612  0.030352839  0.030743952            2 
  574000    1.1605298   -7.2810819    210.33027  0.030535753  0.030738529            1 
  575000     1.185376   -7.3607046    209.64129  0.030382795   0.03073306            1 
  576000    1.1682754   -7.3387313    209.83003  0.030357354  0.030726948            1 
  577000    1.1665071   -7.2907802    210.38153  0.030384392  0.030721132            3 
  578000    1.1636214   -7.3253436    210.65434  0.030371156  0.030714894            2 
  579000    1.1758531   -7.3547994    210.63425   0.03031581  0.030708576            3 
  580000     1.180158   -7.3435719    210.22198  0.030204307  0.030702058            1 
  581000    1.1530871   -7.3389269    211.93392  0.030397866   0.03069579            1 
  582000    1.1492781   -7.3422431    212.30092  0.030398185  0.030689778            2 
  583000    1.1466556   -7.3833869    212.03928  0.030308645    0.0306834            1 
  584000    1.1562632   -7.3096672    212.25291   0.03028723   0.03067718            2 
  585000    1.1706078   -7.3196637    212.76595  0.030308539  0.030670995            1 
  586000    1.1497669    -7.337858    213.07152  0.030300273   0.03066443            1 
  587000    1.1328054    -7.338073     213.2018  0.030267149  0.030658368            1 
  588000    1.1662719   -7.3283434    213.53172  0.030262432   0.03065248            1 
  589000    1.1726996   -7.3114914     214.2915  0.030318548  0.030646448            1 
  590000     1.120293    -7.332734    214.25498  0.030262003  0.030640271            3 
  591000    1.1557375   -7.3258358    215.38262    0.0303698  0.030633761            3 
  592000    1.1516559   -7.3358066     214.7269  0.030226196   0.03062716            1 
  593000    1.1504739   -7.3805401    214.45967  0.030137671  0.030620126            1 
  594000    1.1761048   -7.3778247    215.29299  0.030203842   0.03061356            2 
  595000    1.1474902   -7.3527816    215.02942  0.030116166  0.030607296            2 
  596000    1.1649618   -7.3279502    216.31902  0.030245948  0.030600524            2 
  597000    1.1525721   -7.3241156    216.29512  0.030191948  0.030593585            2 
  598000    1.1387308   -7.3640063     216.0577  0.030108375  0.030586146            1 
  599000    1.1531359   -7.2820648    216.65294  0.030140922  0.030578502            5 
  600000    1.1496252   -7.3642834    215.95453  0.029993685  0.030571207            2 
  601000    1.1694627   -7.3420765    217.55021  0.030165032  0.030563904            1 
  602000    1.1363248    -7.343143    216.71566  0.029999399  0.030556862            3 
  603000    1.1584317    -7.374102    217.31696  0.030032747  0.030549449            1 
  604000    1.1546061   -7.3308504    217.43163  0.029998845  0.030541935            2 
  605000    1.1580425    -7.306195    217.98105  0.030024938   0.03053431            1 
  606000    1.1615011   -7.3232323    218.94434  0.030107857  0.030526739            3 
  607000     1.170619   -7.3230981    219.01256  0.030067622  0.030519422            4 
  608000    1.1490645   -7.3244827    219.21867  0.030046419  0.030511708            6 
  609000    1.1372411   -7.3515017    219.36203  0.030016698  0.030503862            1 
  610000    1.1682946   -7.3914984    218.55126   0.02985673   0.03049552            1 
  611000    1.1618172     -7.35148    219.35928  0.029918068  0.030486859            2 
  612000    1.1221575   -7.3811016    219.44522  0.029880885  0.030478097            3 
  613000    1.1302431   -7.3207475    220.17715  0.029931641  0.030468653            4 
  614000     1.136061   -7.3409289    219.85623  0.029839336  0.030459453            1 
  615000    1.1408101   -7.3232499    220.51387  0.029879928  0.030450208            1 
  616000    1.1527286   -7.3503832    219.66775  0.029716958  0.030440732            5 
  617000     1.132131   -7.3473576    221.34267  0.029895012  0.030431882            2 
  618000    1.1591202   -7.3126994    221.03336   0.02980493  0.030423055            2 
  619000    1.1496515   -7.3865046    220.61665   0.02970068  0.030414076            1 
  620000    1.1344476   -7.3530994     221.7256  0.029801828  0.030404953            4 
  621000     1.178869   -7.3588907    220.88573  0.029641134  0.030395582            1 
  622000    1.1542829    -7.360029    221.44939  0.029668997  0.030386054            3 
  623000    1.1462282   -7.3785807     222.0807  0.029705819   0.03037638            1 
  624000    1.1633315   -7.3571585    223.02546  0.029784383  0.030367307            2 
  625000    1.1502421   -7.3286936    223.84275    0.0298457   0.03035812            2 
  626000    1.1520063   -7.3508782    223.12881  0.029702983  0.030348083            2 
  627000    1.1556739   -7.3401038    223.71395   0.02973338  0.030338249            2 
  628000    1.1492411   -7.3945783    222.69236  0.029550472  0.030328391            1 
  629000    1.1458983   -7.3628313    223.95941  0.029671358  0.030318596            2 
  630000    1.1353902   -7.3301746    223.71347  0.029591728  0.030309039            1 
  631000     1.184747   -7.3174979    225.03108  0.029718843  0.030299679            2 
  632000    1.1706964   -7.3583391     225.0353  0.029672376   0.03029049            1 
  633000    1.1325491   -7.4039111    224.63609  0.029572944  0.030280948            2 
  634000    1.1568353   -7.3377644    224.97143  0.029570377  0.030271365            1 
  635000    1.1584074   -7.3474094    225.90746  0.029646648  0.030261912            2 
  636000    1.1318765   -7.3637179    226.40937  0.029665798  0.030252852            3 
  637000    1.1290965   -7.3322096    226.75133  0.029663963  0.030243511            2 
  638000     1.145994   -7.2890058     227.1575   0.02967052  0.030234838            1 
  639000    1.1202664   -7.3513352     226.6441  0.029557134  0.030225617            1 
  640000    1.1181418   -7.3514419    227.68524  0.029646515  0.030216365            2 
  641000    1.1744604   -7.3786218    227.66478  0.029597605  0.030207682            2 
  642000     1.135054   -7.3952465    228.51384  0.029661713  0.030198711            1 
  643000      1.15249   -7.4206983    228.14178  0.029567364   0.03018958            2 
  644000     1.166983   -7.3577021    229.65684    0.0297175  0.030180523            1 
  645000    1.1753412   -7.3226761    229.51232  0.029652754  0.030171987            1 
  646000    1.1511729   -7.3301405    229.67679  0.029628068  0.030163931            1 
  647000    1.1528908   -7.3388431    230.26367  0.029657866   0.03015546            1 
  648000     1.153286   -7.3520408    229.49453  0.029513185  0.030147005            2 
  649000    1.1773391   -7.3423996    230.89965  0.029648131   0.03013803            2 
  650000     1.129074   -7.3836424    230.62063  0.029566748  0.030129425            2 
  651000    1.1346637   -7.3730007    231.39089   0.02961993  0.030120899            2 
  652000    1.1255451    -7.326545    232.78948  0.029753256  0.030112843            1 
  653000    1.1307555   -7.3560312    232.53281  0.029674937  0.030104635            1 
  654000    1.1506978   -7.3792827    232.36304   0.02960793  0.030096655            1 
  655000     1.170454   -7.3730695    232.02703  0.029519979   0.03008865            3 
  656000    1.1599408   -7.3352018    233.39554  0.029648824  0.030081068            1 
  657000    1.1627641   -7.3805645    233.28243   0.02958935  0.030073267            2 
  658000    1.1262264   -7.3473033    233.18276  0.029531757  0.030065462            2 
  659000    1.1613848   -7.3744659    234.28765  0.029626663  0.030057651            5 
  660000    1.1537108   -7.4032569    234.25971  0.029578246  0.030049499            1 
  661000    1.1540555   -7.3590241    234.40094  0.029551304  0.030041477            2 
  662000    1.1388303   -7.3401212    235.92972  0.029699108  0.030034063            2 
  663000    1.1400287   -7.3369434    236.34524   0.02970654  0.030026912            2 
  664000    1.1247857    -7.331517    236.28985   0.02965485   0.03001953            1 
  665000    1.1781464   -7.3771234    236.90845  0.029687776  0.030012785            3 
  666000    1.1420101   -7.3795938    237.18854  0.029678245  0.030005647            2 
  667000    1.1635526    -7.346783    238.03377  0.029739352  0.029998858            2 
  668000    1.1317742   -7.3630632     237.5761  0.029637737   0.02999228            2 
  669000    1.1502137   -7.3618495    238.06578  0.029654432  0.029985437            2 
  670000    1.1323472   -7.3605629    238.44496  0.029657334  0.029978698            4 
  671000    1.1387262   -7.3068042    239.49571  0.029743631  0.029972413            1 
  672000    1.1625484   -7.3374447    239.76217  0.029732412  0.029966201            2 
  673000    1.1328417   -7.3489073    239.88791  0.029703803  0.029959489            1 
  674000    1.1431203   -7.3701991    239.31694  0.029589138  0.029952746            2 
  675000    1.1322276   -7.3616018    240.09624  0.029641511   0.02994596            2 
  676000    1.1104595   -7.3961979    239.55706  0.029531196  0.029938907            1 
  677000    1.1311327   -7.3625125    240.69481  0.029627623  0.029931757            1 
  678000    1.1294961   -7.4021165    240.55001  0.029566127  0.029924841            1 
  679000    1.1482518   -7.4159518    241.21924  0.029604718  0.029917751            1 
  680000    1.1384094   -7.3514433    242.41681  0.029707943  0.029911315            1 
  681000    1.1384025   -7.3648719    242.40472  0.029662839  0.029905309            2 
  682000    1.1256388   -7.3512481    243.25797  0.029723604  0.029899272            1 
  683000    1.1500299   -7.3668526    243.22607  0.029676192  0.029893001            3 
  684000    1.0995636   -7.3707877    243.73004  0.029694206  0.029886764            2 
  685000    1.1479722   -7.3913402    243.78614  0.029657681   0.02988074            1 
  686000       1.1287   -7.3700664    243.69653  0.029603562  0.029875106            1 
  687000    1.1469059   -7.3894837    244.13125  0.029613203   0.02986899            1 
  688000    1.1622503   -7.3157235    245.38205  0.029721663  0.029862815            2 
  689000    1.1339024    -7.416925     243.6527  0.029469364  0.029856514            2 
  690000    1.1413802   -7.3845344    244.78443  0.029563337  0.029850141            2 
  691000    1.1188332   -7.4104907    245.21828  0.029572875  0.029844014            1 
  692000    1.1832934   -7.3802346     246.2009   0.02964847  0.029838153            1 
  693000     1.144554   -7.3762664    246.39987  0.029629613  0.029832608            4 
  694000    1.1603556    -7.414403    245.90137  0.029527062  0.029826623            2 
  695000    1.1219323   -7.3802591    246.82324  0.029595112  0.029820258            2 
  696000    1.1341631   -7.3809373     246.5411   0.02951881  0.029813758            1 
  697000    1.1399953    -7.343378    247.46381  0.029586778  0.029807681            2 
  698000    1.1160451   -7.3178342    249.22681  0.029754872  0.029801904            2 
  699000    1.1307443    -7.368401     249.0556  0.029691894  0.029796441            2 
  700000    1.1508522   -7.3853279    248.63732   0.02959968   0.02979066            2 
  701000     1.123346   -7.3560942      248.704  0.029565383  0.029784937            3 
  702000    1.1287316   -7.3565361    249.64068  0.029634458  0.029779381            3 
  703000     1.162261    -7.350234     249.6576   0.02959431   0.02977404            2 
  704000    1.1310236    -7.338865    249.88848  0.029579603   0.02976873            1 
  705000    1.1009553   -7.3987324    249.82177   0.02952976  0.029763074            2 
  706000    1.1270122   -7.3692358    249.73647  0.029477865  0.029756843            1 
  707000    1.1436775   -7.4001693    250.45558  0.029520931  0.029750496            2 
  708000    1.1161343   -7.4299222    250.11812  0.029439515  0.029743924            1 
  709000    1.1418905   -7.3838285    250.52866  0.029446246  0.029737656            2 
  710000    1.1255196    -7.351339    251.63262  0.029534345   0.02973137            2 
  711000    1.1456516   -7.3665598    251.13504  0.029434486  0.029725294            1 
  712000    1.1274253   -7.3720649     252.3595  0.029536458  0.029719183            2 
  713000    1.1266221   -7.3727846    252.23595  0.029480593  0.029713004            1 
  714000    1.1089227   -7.3814908    252.27437  0.029443787  0.029706237            2 
  715000     1.146522   -7.3497062    253.42594  0.029536823  0.029700127            3 
  716000    1.1249239   -7.3596643    253.01623  0.029447885  0.029693736            2 
  717000    1.1433533   -7.3435909    253.74896  0.029491976  0.029687844            2 
  718000    1.1354506   -7.3796627    254.60641  0.029550419  0.029682352            2 
  719000    1.1367536   -7.3788786    253.76688  0.029412017  0.029676266            2 
  720000    1.1484151   -7.4444665    254.44096  0.029449185    0.0296699            2 
  721000    1.1220573   -7.4257059    254.43979  0.029408205  0.029663736            1 
  722000    1.1302352   -7.3942055    254.18685  0.029338279  0.029657472            1 
  723000    1.1320631   -7.4062636    254.93322  0.029383727  0.029650876            5 
  724000    1.1275177   -7.3461895    256.76404  0.029553872  0.029644521            3 
  725000    1.1655561   -7.4171703    254.93268  0.029302607  0.029638273            2 
  726000    1.1162702   -7.4040491    255.48842  0.029326036  0.029631847            1 
  727000     1.146032   -7.3862411    256.01147  0.029345652  0.029625071            3 
  728000    1.1259049   -7.3845243      256.505  0.029361836  0.029618459            1 
  729000    1.1348112   -7.3922549    256.42964  0.029312944  0.029611524            1 
  730000    1.1363583   -7.3459947    256.49494  0.029280244  0.029604695            1 
  731000    1.1552989   -7.4081226    256.27775  0.029215429  0.029597873            6 
  732000    1.1580105   -7.4324215    257.49784  0.029314417  0.029591213            3 
  733000    1.1253628   -7.3372732    258.64153  0.029404449   0.02958473            2 
  734000    1.1199274   -7.3947847     257.7945  0.029268222  0.029578218            2 
  735000    1.1350198   -7.4196398    257.61072  0.029207565  0.029571304            3 
  736000    1.1371831   -7.4291009    256.83372  0.029079905  0.029564303            2 
  737000    1.1478863   -7.4099584    257.89218  0.029160129   0.02955721       -1e+20 
  738000     1.145009   -7.3683111    258.20201  0.029155602  0.029550092            2 
  739000    1.1528583   -7.4284744    258.95057   0.02920056  0.029542959            1 
  740000    1.1325148   -7.3862277    259.13503  0.029181872  0.029535751            2 
  741000    1.1479716   -7.3986211    260.01331  0.029241263  0.029528758            2 
  742000    1.1331378    -7.426757    259.71836  0.029168728  0.029521986            2 
  743000    1.1269125   -7.3601304    260.32144   0.02919711  0.029515039            3 
  744000    1.1554205   -7.3741657    260.00807  0.029122768  0.029507966            1 
  745000    1.1199049   -7.4170784    260.61144  0.029151168  0.029500907            1 
  746000    1.1377298   -7.4118557    261.03528  0.029159437  0.029493829            2 
  747000    1.1702438    -7.403918    261.50622  0.029172938  0.029486661            1 
  748000    1.1376349   -7.4144625    260.79695  0.029054919  0.029479285            1 
  749000    1.1631757   -7.3264954    263.21589  0.029285257  0.029472537       -1e+20 
  750000     1.157795   -7.3636372    262.68819  0.029187577   0.02946591            1 
  751000    1.1237344   -7.3841657    262.09851  0.029083279  0.029458956            2 
  752000     1.136104   -7.4016371    262.58935  0.029098997  0.029451705            1 
  753000    1.1247311   -7.3889554    262.60852  0.029062474  0.029444428            2 
  754000    1.1557428   -7.4042383     263.9927  0.029176912  0.029437492            2 
  755000    1.1367101   -7.3837076     264.4274  0.029186248  0.029430545            3 
  756000    1.1391097   -7.3882639    263.96536   0.02909671  0.029423949            2 
  757000    1.1143904   -7.3867418    263.90872  0.029052039  0.029417041            1 
  758000    1.1260777   -7.3987239    264.90515  0.029123258  0.029409995            3 
  759000    1.1319894   -7.4138215    264.14947  0.029001918  0.029402871            6 
  760000    1.1269471   -7.3861747    264.21011  0.028970407  0.029395723            2 
  761000    1.1257424   -7.4081951    265.56687   0.02908091  0.029388604            1 
  762000    1.1196452   -7.3881034    266.84635  0.029182671  0.029381644            1 
  763000    1.1343188   -7.4457124    265.31916  0.028977627  0.029374487            2 
  764000    1.1438382    -7.375075     267.4663  0.029173898  0.029367577            1 
  765000    1.1229425   -7.3981165    266.67782  0.029049871   0.02936085            2 
  766000    1.1217233   -7.4190017    266.87616  0.029033524  0.029353821            3 
  767000    1.1047536   -7.4023092    267.66378  0.029081246  0.029346999            2 
  768000     1.127955   -7.4090336    267.95755  0.029075255  0.029339832            2 
  769000    1.1086063   -7.3770604    267.22403  0.028957957  0.029332467            1 
  770000     1.128888   -7.4060307    268.91601  0.029103464  0.029325506            2 
  771000    1.1512064   -7.4058278    268.43585  0.029013819  0.029318968            2 
  772000     1.139621   -7.4038703      268.578   0.02899158  0.029312263            2 
  773000    1.1306828   -7.4176058    268.56729  0.028952921  0.029305601            4 
  774000    1.1246176   -7.4215284     269.5464   0.02902093  0.029298624            1 
  775000    1.1111635   -7.3683109    270.64635  0.029101758  0.029291715            1 
  776000    1.1499804   -7.4055379     269.6907  0.028961631  0.029285001            1 
  777000    1.1331028   -7.4393095    269.87885  0.028944535  0.029277944            1 
  778000    1.1037408   -7.4376183    270.40867  0.028964081  0.029270746            4 
  779000    1.1197788   -7.4274039    270.58852   0.02894614  0.029263962            2 
  780000    1.1066181   -7.3834914    271.73769  0.029031805  0.029257416            2 
  781000    1.1486221   -7.3853646    271.96628  0.029019023  0.029250588            4 
  782000    1.1181362   -7.4256452     271.3258  0.028913662  0.029243893            2 
  783000     1.116536   -7.3834859    272.85566  0.029039555  0.029237403            3 
  784000    1.1065107   -7.3584983    274.09504  0.029134251  0.029230982            1 
  785000    1.1109301   -7.3900736    273.41171  0.029024597  0.029224722            1 
  786000    1.1156547   -7.4174022    274.04933  0.029055272  0.029218734            1 
  787000    1.1368981   -7.4307592    273.12007  0.028919957  0.029212412            2 
  788000    1.1476985   -7.4027158    274.06915  0.028983624  0.029205778            2 
  789000    1.1225212   -7.4261744    273.50925  0.028887754   0.02919915            2 
  790000    1.1061299   -7.4200516    273.98987  0.028901885  0.029192188            1 
  791000    1.1298924   -7.4060346     274.8788  0.028958997  0.029185664            2 
  792000    1.1336067   -7.4176023    274.50056  0.028882634  0.029178839            1 
  793000    1.1337037    -7.400806    275.29518  0.028929716  0.029172068            1 
  794000    1.1111073    -7.426253    275.20672  0.028883996   0.02916512            1 
  795000    1.1208113   -7.4308012    275.74162  0.028903734  0.029158146            3 
  796000    1.0980462    -7.422025     275.6825  0.028861233  0.029151181            4 
  797000     1.132016   -7.3499287    276.87705  0.028949922  0.029144452            2 
  798000     1.130504   -7.3846657    276.16259  0.028839035  0.029137586            4 
  799000    1.0866024   -7.4054691    277.00094  0.028890378   0.02913066            1 
  800000    1.1612387   -7.4123111    277.06332  0.028860763  0.029123524            1 
  801000    1.1282148   -7.4093585    277.49423  0.028869562  0.029116487            2 
  802000     1.108411   -7.3596986    277.34627  0.028818191  0.029109467            2 
  803000    1.1400177   -7.4080184    277.95924  0.028845916  0.029102869            1 
  804000     1.127227   -7.3852644    277.97694  0.028811872  0.029095979            3 
  805000    1.1260183   -7.4589917     278.0555  0.028784213  0.029089093            1 
  806000    1.1389807   -7.4095538    278.29319  0.028773076  0.029082143            1 
  807000    1.1134233   -7.3892759    279.60769  0.028873161  0.029075383            1 
  808000    1.1117342   -7.4146949    279.56668  0.028833197  0.029068832            2 
  809000    1.1337093   -7.4464168    280.05644  0.028848006   0.02906207            2 
  810000    1.1299317   -7.4462668    279.64716  0.028770284  0.029055485            1 
  811000    1.0962068   -7.4325072    279.92403  0.028763259  0.029048758            3 
  812000    1.1090113   -7.3952505    281.19426  0.028858196  0.029042147            2 
  813000    1.1041899   -7.4275329    280.62999  0.028764862  0.029035655            2 
  814000    1.1672487   -7.4143975    282.37404  0.028908071  0.029028882            4 
  815000    1.1283105   -7.4349412    281.48424   0.02878162  0.029022247            2 
  816000    1.1333552   -7.4208405    281.52947  0.028750967  0.029015766            2 
  817000      1.12399   -7.3843998    282.15741  0.028779826  0.029009354            3 
  818000    1.1298185   -7.4320074    281.77707  0.028705896  0.029002882            3 
  819000    1.1221654   -7.3892163    283.01073  0.028796371  0.028995962            3 
  820000    1.1028786   -7.3527835    282.62177  0.028721725  0.028988845            1 
  821000    1.1303032    -7.435211    282.66305  0.028690931  0.028981976            1 
  822000     1.140896    -7.443426    283.03661  0.028693898  0.028975062            2 
  823000    1.1276493   -7.4024976    282.33789  0.028588284  0.028967468            2 
  824000    1.1275083   -7.3918569    283.67345  0.028688658  0.028960423            2 
  825000    1.1174141   -7.4185971    284.06325  0.028693258  0.028953417            1 
  826000     1.139489   -7.4208512    283.92925  0.028645001  0.028946168            3 
  827000    1.1188404   -7.3943345    284.31831  0.028649568  0.028938865            2 
  828000    1.1253564   -7.4116235    284.78263  0.028661698  0.028931808            4 
  829000    1.1135107   -7.4145591    285.40749  0.028689937  0.028925035            3 
  830000    1.1242828   -7.4244555    284.40565  0.028554784  0.028917863            1 
  831000    1.1323797   -7.4395162     284.9301  0.028573014  0.028911074            1 
  832000    1.0982686   -7.4071344    286.17599   0.02866346  0.028904385            1 
  833000    1.1250401   -7.4497746    286.31297  0.028642754  0.028897466            1 
  834000    1.1037621   -7.4003358    287.10672  0.028687722  0.028890853            3 
  835000    1.0984356   -7.4144947    288.24572  0.028767038  0.028884469            1 
  836000    1.1184344   -7.4456994     287.2027  0.028628658    0.0288781            3 
  837000    1.1047104   -7.4266459    287.47252  0.028621318   0.02887184            1 
  838000    1.1280293   -7.4593434    288.11859  0.028651411  0.028865431            2 
  839000    1.1319287   -7.3830813    290.33295  0.028837202    0.0288593            2 
  840000     1.148929   -7.4830054    288.93326  0.028664014  0.028853456            2 
  841000    1.1113416   -7.3930574    290.08407  0.028743962  0.028847652            1 
  842000    1.0893996   -7.4505736    289.36773  0.028638928  0.028841752            2 
  843000    1.1228224   -7.4406916    290.42401  0.028709372  0.028835922            1 
  844000    1.1220872   -7.4530394    290.44035   0.02867697  0.028830141            2 
  845000    1.1072566   -7.4178265    291.26432  0.028724292  0.028824484            2 
  846000    1.1003884   -7.4384775    291.82076  0.028745149  0.028818941            2 
  847000    1.1182481   -7.4399497    291.67925   0.02869729  0.028813292            1 
  848000     1.086134    -7.460843    291.66941  0.028662481  0.028807623            3 
  849000    1.1105431   -7.4495729    292.29021  0.028689656  0.028801664            1 
  850000    1.1418687   -7.4250789    293.49651  0.028774168  0.028796126       -1e+20 
  851000    1.1075016   -7.4470088    293.07113    0.0286987  0.028790179            2 
  852000    1.0967504   -7.4568852    292.37722  0.028597146  0.028784246            2 
  853000    1.1161341   -7.4066032    294.43225  0.028764386  0.028778468            1 
  854000    1.1073576   -7.4694808    292.39579  0.028531986  0.028772382            2 
  855000    1.1023264    -7.438323     294.1659   0.02867114  0.028766187            1 
  856000    1.1197432    -7.357294    295.83997   0.02880062  0.028760602            2 
  857000    1.1258117   -7.4381657    294.34493  0.028621638  0.028754751            1 
  858000    1.1066534   -7.3999232    294.80547   0.02863301  0.028748866            1 
  859000    1.1050067   -7.4106713    295.16627  0.028634679  0.028743016            1 
  860000    1.1092299   -7.4152553    295.76404  0.028659306  0.028737184            2 
  861000    1.1079909   -7.4710633    294.29158  0.028483505   0.02873091            1 
  862000    1.1154844   -7.4497983    295.40325  0.028557932  0.028724698            1 
  863000    1.1172292   -7.4657764    295.83575  0.028566604   0.02871847            2 
  864000    1.1106586   -7.3822807    296.75259   0.02862197  0.028712782            3 
  865000    1.0869648    -7.421145     297.9081  0.028700202  0.028707084            1 
  866000    1.1107309   -7.4294984    296.74076   0.02855473  0.028701536            1 
  867000    1.1393863   -7.4625872    297.47437  0.028592308  0.028695694            3 
  868000    1.1120468   -7.4481506    297.31866  0.028544418  0.028689757            3 
  869000    1.1048555   -7.4745104    297.61327  0.028539823  0.028683629            1 
  870000    1.1340675   -7.4371544    297.83076   0.02852785   0.02867763            2 
  871000    1.1124516   -7.4322916    297.55578  0.028468789   0.02867159            2 
  872000    1.1153719   -7.4824208    298.03229  0.028481679  0.028665305            1 
  873000    1.1256513   -7.4710578    298.26053  0.028470841  0.028659016            1 
  874000    1.0957267   -7.4650398    298.09225   0.02842222  0.028652736            1 
  875000    1.1269116   -7.4498194    299.59742  0.028533088  0.028646526            1 
  876000    1.1071157   -7.4414534    298.16643  0.028364387  0.028640257            2 
  877000     1.098354   -7.4118249     300.1408   0.02851965  0.028634018            2 
  878000    1.0955125   -7.4468309    298.76763  0.028356837  0.028627835            3 
  879000    1.1026699   -7.4362099      300.366  0.028476109  0.028621601            4 
  880000    1.0976526   -7.4384134    300.38933  0.028445959  0.028614914            2 
  881000    1.1018085    -7.425126    300.17181  0.028393096  0.028608463            1 
  882000    1.1476288      -7.4285    300.49242  0.028391196  0.028602241            2 
  883000    1.0932203   -7.4742781     300.9053  0.028398009  0.028596031            4 
  884000    1.1328896   -7.4333322    301.61043  0.028432355  0.028589604            3 
  885000    1.1214779   -7.4271165    301.16447  0.028358236    0.0285832            2 
  886000    1.1075895   -7.4583195    301.45829  0.028353865    0.0285765            2 
  887000    1.1047391   -7.4077933    302.59062  0.028428281  0.028569862            2 
  888000    1.1024095   -7.4484416    302.40223  0.028378588  0.028563347            1 
  889000    1.1116629   -7.4835723    302.12176  0.028320375  0.028556573            2 
  890000     1.096526   -7.4553413    302.70431  0.028343101  0.028549644            2 
  891000    1.1164086   -7.4536296    301.76177  0.028223136   0.02854282            1 
  892000    1.1062346   -7.4335568    302.98063  0.028305365  0.028536088            9 
  893000    1.1150343   -7.4700366    302.92668  0.028268634  0.028529345            2 
  894000    1.0972408   -7.4238927    303.83863   0.02832202  0.028522513            1 
  895000    1.0983877   -7.4853177     302.8356  0.028196983  0.028515651            2 
  896000    1.0948782   -7.4071348    305.17324  0.028382928  0.028509018            3 
  897000    1.1061427   -7.4306074    304.49939  0.028288684  0.028502536            1 
  898000     1.104323   -7.4493045    305.17717  0.028320079  0.028495905            3 
  899000    1.0775322   -7.4469419    303.96342  0.028176067   0.02848916            1 
  900000    1.1180509   -7.4502133    305.31295  0.028269717  0.028482477            2 
  901000    1.0999304   -7.4436188    305.46529  0.028252432  0.028475469            2 
  902000    1.1196354    -7.452078    305.62295  0.028235675  0.028468778            1 
  903000    1.0666895   -7.4584155    305.22323  0.028167518  0.028461929            4 
  904000    1.1212242   -7.4350676     305.7729   0.02818703  0.028454783            2 
  905000    1.1125244   -7.4415847    306.28526  0.028203062  0.028447927            2 
  906000     1.114704   -7.4736776    307.11712  0.028248448  0.028441008            1 
  907000     1.119313   -7.4527167    306.60388  0.028170147  0.028434192            1 
  908000      1.12325    -7.448854    307.62712  0.028233032  0.028427531            2 
  909000    1.1169268   -7.4525763    307.73097  0.028211493  0.028421013            2 
  910000    1.0867107   -7.4908038    307.04351  0.028117537  0.028414075            7 
  911000    1.0963954   -7.4499736     308.6948  0.028237724   0.02840737            2 
  912000    1.1113154   -7.4232943    308.85082  0.028221018   0.02840095            2 
  913000    1.1386932   -7.4566505    308.08226  0.028119958  0.028394241            1 
  914000    1.0870614   -7.4441585    309.06478  0.028178773  0.028387576            2 
  915000    1.0871679   -7.4656357    308.89828  0.028132812  0.028380671            2 
  916000    1.0897243   -7.4991438    308.95441  0.028107206  0.028373573            1 
  917000    1.1029636   -7.4505075    310.17306  0.028187301  0.028366575            1 
  918000    1.1014601   -7.4588983    309.13305  0.028062187  0.028359717            1 
  919000    1.1212044   -7.4328354    310.35403  0.028142367  0.028352743            3 
  920000    1.0984249   -7.4650276    310.07823  0.028086796   0.02834557            2 
  921000    1.0969208   -7.4724633     309.4594  0.028000307  0.028338307            2 
  922000    1.1078783   -7.4483031    310.93068  0.028102918  0.028331375            1 
  923000    1.1151141   -7.4222413     311.1202  0.028089581  0.028324101            4 
  924000    1.1163976   -7.4603909    310.51051  0.028004194  0.028316795            2 
  925000    1.0984044   -7.4659165    309.46197  0.027879457  0.028309509            2 
  926000    1.1389849   -7.4571204    311.02005  0.027989566  0.028301993            2 
  927000    1.1181149   -7.4414181    311.98411  0.028046037  0.028294262            2 
  928000    1.1189834   -7.4237045    311.20496  0.027945848   0.02828675            2 
  929000     1.096135   -7.4796321    309.86357  0.027795441  0.028279163            1 
  930000    1.1044703    -7.446232    311.27691  0.027892196  0.028271167            1 
  931000    1.1056703    -7.468622    310.77951  0.027817714  0.028263271            1 
  932000    1.0961221   -7.4660976    311.41025  0.027844264   0.02825547            1 
  933000    1.0981554   -7.4599616     311.4542  0.027818345  0.028247511            2 
  934000    1.1054775   -7.4715836    312.67036   0.02789707   0.02823934            1 
  935000    1.1116283   -7.5338744    310.96027  0.027714819   0.02823125            3 
  936000    1.1068463   -7.4527038    313.16523  0.027881519  0.028223445            2 
  937000    1.1069772   -7.4634252    313.46601  0.027878514   0.02821566            2 
  938000    1.1037674     -7.43779    312.46102  0.027759508  0.028207684            1 
  939000    1.0945476   -7.4461667    312.70006  0.027751159  0.028199745            2 
  940000    1.0902501   -7.4830135    312.99983  0.027748212  0.028191705            2 
  941000    1.1015745   -7.4170123    314.59493  0.027859983  0.028183569            1 
  942000     1.105621   -7.4547144    314.17272  0.027793057  0.028175606            4 
  943000    1.0960946   -7.4874196    313.95393   0.02774425  0.028167466            1 
  944000     1.130319   -7.4485904    314.24916  0.027740922  0.028159308            3 
  945000    1.1239103   -7.4423055    314.48157  0.027732061  0.028151133            3 
  946000    1.0851732    -7.495286    314.91238  0.027740696  0.028142947            1 
  947000    1.0937077   -7.4996529    314.55259  0.027679742  0.028134742            2 
  948000    1.1032313    -7.462041    314.85106  0.027676781  0.028126561            3 
  949000    1.0823432   -7.4569103     314.8111  0.027644107  0.028118381            1 
  950000    1.0849155    -7.483124    315.63955   0.02768768   0.02811044            2 
  951000    1.1029414    -7.484588    316.93289  0.027771897  0.028102321            2 
  952000    1.0821289   -7.4495339    316.22314  0.027680597  0.028094388            1 
  953000    1.1140767   -7.4404966     317.5233  0.027765241  0.028086361            2 
  954000    1.0947674   -7.4844867    316.38362  0.027636585  0.028078337            2 
  955000    1.0859446   -7.5053472    314.98614  0.027485702  0.028069824            1 
  956000     1.114397   -7.4580082    317.26216  0.027655349  0.028061262            2 
  957000    1.0881778   -7.4939587    316.17185  0.027531509   0.02805264            3 
  958000    1.0923916   -7.4818115    317.19383  0.027591669  0.028044209            1 
  959000    1.0840547   -7.5072013    317.43398  0.027583766  0.028035617            2 
  960000    1.0927745   -7.4817516    317.52373  0.027562824  0.028027194            3 
  961000    1.1256532    -7.469663    318.13983  0.027587568  0.028018756            3 
  962000    1.1218352   -7.4532472    317.46005  0.027500005  0.028010442            1 
  963000    1.1301739   -7.4609835    318.67433  0.027576526  0.028002067            1 
  964000    1.0810657   -7.5039557    318.41175   0.02752522  0.027993755            2 
  965000    1.0966027   -7.4685347    319.11855  0.027557733  0.027985394            6 
  966000    1.1008478   -7.4866703    319.29325  0.027544277  0.027976929            1 
  967000    1.0812623   -7.4155403    320.77906  0.027643835  0.027968723            2 
  968000    1.1124484   -7.4755078    319.78373  0.027529591   0.02796016            1 
  969000    1.0785817   -7.4707489    318.96565  0.027430827  0.027951495            1 
  970000    1.0943309   -7.4962412    319.17447  0.027420487   0.02794269            1 
  971000    1.1030971   -7.5111567    320.06237  0.027468449  0.027933874            1 
  972000    1.0897683   -7.4842679    319.85391  0.027422318  0.027925109            1 
  973000    1.0855436   -7.4121357    321.01927  0.027493942  0.027916615            1 
  974000    1.1085808   -7.4542948    320.54112  0.027424805  0.027908073            1 
  975000    1.1149116   -7.4706335     320.8908  0.027426564  0.027899492            1 
  976000    1.1124237    -7.519965    319.92267  0.027315802  0.027891099            1 
  977000    1.0679254   -7.5093412    322.16676  0.027479252  0.027882505            1 
  978000    1.1160322   -7.4962824    321.06546  0.027357316  0.027873823            1 
  979000    1.0960303   -7.4771037    322.80941  0.027477819  0.027865205            2 
  980000    1.1012357   -7.4839688    321.68833   0.02735445  0.027856759            3 
  981000    1.0865589   -7.5051256    322.54585  0.027399409  0.027848038            5 
  982000    1.1175921   -7.5273369     321.7354  0.027302733  0.027839449            4 
  983000    1.0939431   -7.4577663    323.57261  0.027430706  0.027831125            1 
  984000    1.0718889   -7.4898782    322.55388  0.027316555  0.027822682            2 
  985000    1.0785262   -7.4777313    321.90024  0.027233523   0.02781398            1 
  986000    1.1179713   -7.4848521    323.22165  0.027317584  0.027805211            2 
  987000    1.1077725   -7.4647874    324.53915  0.027401144  0.027796654            2 
  988000    1.1070459   -7.4828011    324.02752  0.027330256  0.027788214            4 
  989000    1.0804928   -7.4188789     324.7686  0.027365066  0.027779675            1 
  990000     1.079069   -7.4990333    324.09228  0.027280495  0.027771144            3 
  991000    1.0906535   -7.4482185    325.32345  0.027356496  0.027762876            2 
  992000     1.092924   -7.4569668    325.10166  0.027310287  0.027754692            4 
  993000    1.0860749   -7.5076076    325.94858  0.027353858  0.027746404            3 
  994000    1.1033996   -7.4773413    325.02393   0.02724882  0.027737836            1 
  995000    1.1132144   -7.5089599    325.18101  0.027234591  0.027729335            1 
  996000    1.0864352   -7.5091908    325.87178  0.027265042  0.027720759            1 
  997000    1.0874982   -7.5251012    326.20647   0.02726567  0.027712096            1 
  998000    1.1085381   -7.4702036     325.3911  0.027170265  0.027703566            1 
  999000     1.087373   -7.4808787    326.08411  0.027200877  0.027694808            1 
 1000000     1.113353   -7.4991632    326.60926  0.027217439  0.027686152            2 
 1001000    1.0825861   -7.4597564    327.14704  0.027235018  0.027677403            2 
 1002000    1.1003537    -7.471344    326.85472  0.027183526  0.027668585            2 
 1003000    1.0944168   -7.4562305    327.84338  0.027238566  0.027659799            1 
 1004000    1.0631071   -7.4443769      327.865   0.02721323  0.027651111            1 
 1005000     1.092886   -7.4885547    328.15807  0.027210453  0.027642508            3 
 1006000    1.1082095   -7.4848502    328.60518  0.027220442  0.027634084            2 
 1007000    1.0961551    -7.472589    328.98125  0.027224532  0.027625793            2 
 1008000    1.1127742   -7.4709793    330.12723  0.027292264   0.02761756            5 
 1009000    1.0649729   -7.4530641     329.1707  0.027186216  0.027609204            2 
 1010000    1.0716003   -7.4702366    329.20238  0.027161912  0.027600832            2 
 1011000    1.0922678   -7.4830837    329.72785  0.027178359   0.02759244            3 
 1012000    1.0560893   -7.5315027    330.72963  0.027233994  0.027583972            1 
 1013000    1.0923899   -7.4895479    329.54934  0.027110015  0.027575721            2 
 1014000    1.0964964   -7.4708259    331.10297  0.027210961  0.027567394            1 
 1015000    1.0994288   -7.4454439    332.23235  0.027276876  0.027559101            2 
 1016000     1.098496   -7.5206537    330.73427  0.027127154   0.02755079            1 
 1017000    1.1016037   -7.4730543    331.83591   0.02719075  0.027542419            5 
 1018000    1.1086903   -7.5143199    330.46896  0.027052141  0.027533881            1 
 1019000    1.0792478   -7.4740383    331.19628  0.027085073  0.027525287            3 
 1020000    1.1008719   -7.4663154    332.32479  0.027150718  0.027516882            2 
 1021000    1.1015984    -7.512639    332.63274   0.02714926  0.027508726            2 
 1022000    1.0920583   -7.5087065    331.94296  0.027066452  0.027500295            1 
 1023000    1.0837268   -7.4847087     332.7807  0.027108236  0.027491872            2 
 1024000    1.0770583   -7.4625946    333.60326  0.027148703  0.027483625            1 
 1025000     1.077827   -7.4868817    332.92845  0.027067353  0.027475311            2 
 1026000    1.0714763   -7.4944297    333.77582  0.027109797  0.027467026            2 
 1027000    1.0765589   -7.5184662    333.25969   0.02704152  0.027458547            3 
 1028000    1.0910812   -7.5144597    332.85832  0.026982678  0.027449951            1 
 1029000     1.091716   -7.4827828    333.15635  0.026980592  0.027441295            2 
 1030000    1.0792735   -7.4819275    333.85119  0.027010614  0.027432603            1 
 1031000    1.0754108    -7.509443    332.87978  0.026905899  0.027423978            3 
 1032000    1.0623135   -7.4535875    335.15916  0.027063886  0.027415393            1 
 1033000    1.1093891    -7.527534    334.09999  0.026952242  0.027406673            2 
 1034000      1.05445   -7.5201564    333.75043  0.026898003  0.027397975            1 
 1035000    1.0754753   -7.4862119    333.97736  0.026890287  0.027389149            3 
 1036000    1.1043357    -7.518459    334.92552  0.026940598  0.027380673            1 
 1037000    1.0941061   -7.5125113    334.53773  0.026883456  0.027371896            2 
 1038000    1.0809219   -7.5264292    334.87582    0.0268847  0.027363268            1 
 1039000    1.0797479   -7.5009975    335.00198  0.026868943  0.027354735            4 
 1040000     1.072917   -7.4918701    335.70445  0.026899395  0.027346241            3 
 1041000    1.0819433   -7.5225545    335.79516  0.026880816  0.027337786            2 
 1042000    1.0531223   -7.5322452    336.82299  0.026937219    0.0273294            2 
 1043000    1.0726193   -7.4915338    337.12852  0.026935803   0.02732097            3 
 1044000    1.0953769   -7.5046526    336.93243  0.026894351  0.027312641            1 
 1045000    1.0801951   -7.4910123    338.15335  0.026965977  0.027304438            2 
 1046000    1.0783007   -7.5219815    337.83995  0.026915228  0.027296326            2 
 1047000    1.0965694   -7.5087097    337.51954   0.02686402  0.027288131            1 
 1048000    1.0749638    -7.523602      338.499  0.026916269  0.027279688            3 
 1049000    1.0667431   -7.5147837    338.02598  0.026853033  0.027271367            1 
 1050000    1.0757828   -7.5233091    338.97911  0.026903104  0.027262941            2 
 1051000     1.067276   -7.5140853    338.41325  0.026832639  0.027254594            1 
 1052000    1.0864214   -7.5194069    339.27794  0.026875629  0.027246445            3 
 1053000    1.0884325   -7.4945539    339.11244  0.026837008  0.027238216            3 
 1054000    1.0904403   -7.4942496    340.31314  0.026906479  0.027229902            2 
 1055000    1.0947744   -7.4802278    339.55021  0.026820711   0.02722167            2 
 1056000    1.0883047   -7.4871047    339.49554  0.026790999  0.027213194            2 
 1057000      1.05732    -7.481866    340.17953  0.026819579  0.027204939            2 
 1058000    1.0775969   -7.4992337    339.81855  0.026765797  0.027196539            1 
 1059000    1.0699216   -7.4902194     340.3734  0.026784183  0.027187949            2 
 1060000    1.0840507   -7.4948975    340.08236  0.026736034  0.027179408            2 
 1061000     1.073109   -7.4885158    340.41006  0.026736574  0.027170995            2 
 1062000    1.0658312   -7.4878402    341.20632   0.02677388  0.027162626            1 
 1063000    1.0752386   -7.4821288    341.38799  0.026762934  0.027154424            2 
 1064000    1.1004098   -7.4815363    342.54476   0.02682838  0.027146277            4 
 1065000    1.0775043   -7.5147298    341.39487  0.026713213  0.027138091            1 
 1066000    1.0837913    -7.506761    342.12129  0.026744942  0.027129896            4 
 1067000     1.088572   -7.5377925    341.75218  0.026691048  0.027121829            2 
 1068000    1.0698357   -7.5399245    343.33017  0.026789183  0.027113609            2 
 1069000    1.0661736   -7.5367754    342.77336  0.026720717    0.0271053            2 
 1070000    1.1016109   -7.4896824    343.31088  0.026737607  0.027097033            3 
 1071000    1.0852786   -7.5208753    343.74827  0.026746676  0.027088847            2 
 1072000    1.0768185   -7.5391516    343.41027   0.02669545  0.027080552            5 
 1073000    1.0635068   -7.5261841    343.56593   0.02668266  0.027072413            1 
 1074000    1.0580257   -7.4827054    344.43017  0.026724873  0.027064068            2 
 1075000    1.0992295   -7.4956032    343.50474  0.026628275  0.027055819            1 
 1076000    1.0355359   -7.5201855    344.30524  0.026665524  0.027047335            4 
 1077000    1.0841296   -7.5307516    344.12422  0.026626758  0.027038918            1 
 1078000    1.0810053   -7.4797625    345.61393  0.026717218  0.027030555            3 
 1079000    1.1062121   -7.5085598    345.09978  0.026652748  0.027022461            2 
 1080000    1.0577675   -7.4949917     346.1701  0.026710656  0.027014153            2 
 1081000    1.0763441   -7.5639692    345.34929  0.026622671  0.027005944       -1e+20 
 1082000    1.0869931   -7.5079308    346.72366  0.026703917  0.026997641            1 
 1083000    1.0990034   -7.5326424    345.71226  0.026601436  0.026989624            1 
 1084000     1.068401   -7.5232401    346.41127  0.026630633  0.026981392            2 
 1085000    1.0968547   -7.5490428    345.79226  0.026558545  0.026973108            1 
 1086000    1.0693259   -7.5181871    346.68646  0.026602706  0.026964737            1 
 1087000    1.0565371   -7.5154079    346.90744  0.026595173  0.026956421            2 
 1088000    1.0810068   -7.5632294    346.09284  0.026508336  0.026948139            4 
 1089000     1.066619   -7.5404895    346.97598  0.026551575  0.026939753            4 
 1090000    1.0753748   -7.5431124    347.03884  0.026532022  0.026931363            3 
 1091000    1.0651379   -7.5565287    347.80064   0.02656589  0.026922962            2 
 1092000     1.085051   -7.5304524     347.3685  0.026508585  0.026914539            2 
 1093000    1.0476435   -7.5406489    347.62586  0.026503954  0.026906208            1 
 1094000    1.0794641   -7.5586152    347.14259  0.026442915  0.026897939            1 
 1095000    1.0633871   -7.5601515    347.14448   0.02641891  0.026889551            2 
 1096000    1.0702129    -7.504445    348.86046  0.026525279  0.026881098            1 
 1097000    1.0824199   -7.5124527    349.90502  0.026580448  0.026872737            2 
 1098000     1.084699   -7.5576221    347.53044   0.02637602  0.026864225            3 
 1099000    1.0799306   -7.5584917    348.52177  0.026427189  0.026855663            4 
 1100000    1.0853935   -7.5359428    348.44149  0.026397082   0.02684689            2 
 1101000    1.0977747   -7.5025842    349.17613  0.026428711  0.026838308            1 
 1102000    1.0796908     -7.52532    349.23818  0.026409421  0.026829615            1 
 1103000    1.1148902   -7.5395389     348.0838  0.026298262  0.026820902            2 
 1104000    1.0619605   -7.5317734    349.31237  0.026367177  0.026812244            2 
 1105000    1.1093858   -7.4838241    351.33441  0.026495808  0.026803533            1 
 1106000    1.0765055   -7.5489254    349.50138  0.026333739   0.02679517            1 
 1107000    1.0777924   -7.5034141    351.64814  0.026471555  0.026786686            4 
 1108000    1.0860379    -7.509287    351.09262  0.026405883  0.026778408            2 
 1109000    1.0792616   -7.5382836    351.50171  0.026412813  0.026770051            5 
 1110000    1.0692582    -7.529475    351.36004  0.026378381  0.026761788            1 
 1111000     1.077227   -7.5218956    352.52173  0.026441774  0.026753334            3 
 1112000    1.0438268   -7.5422268    351.98916  0.026378085  0.026744943            3 
 1113000    1.0642417   -7.5565977    352.08185  0.026361324   0.02673661            3 
 1114000    1.0702487   -7.5091021    352.47592   0.02636714  0.026728407            5 
 1115000    1.0587017   -7.5587443    352.63823  0.026355623  0.026720103            3 
 1116000    1.0665239   -7.5238606    353.33533   0.02638406   0.02671196            2 
 1117000    1.0813776   -7.5261414    353.62191   0.02638182   0.02670386            2 
 1118000    1.0574896   -7.5385428    352.99183  0.026311258  0.026695757            3 
 1119000    1.0611114   -7.5528915    354.08703  0.026369306  0.026687744            3 
 1120000    1.0694743   -7.5368398    354.98731  0.026412746  0.026679834            3 
 1121000    1.0652773   -7.5642539     354.4389  0.026348417  0.026672007            7 
 1122000    1.0659604   -7.5916481    355.73974  0.026421549  0.026664211            2 
 1123000    1.0801578   -7.5443527    355.49941  0.026380188  0.026656388            1 
 1124000    1.0624624   -7.5401956     355.5961  0.026363887   0.02664857            2 
 1125000    1.0738462   -7.5578816     356.4235  0.026401741  0.026640918            2 
 1126000    1.0929912   -7.5237677    357.27241   0.02644112  0.026633127            2 
 1127000    1.0626698   -7.5382163    356.28023  0.026344294   0.02662528            1 
 1128000    1.0710938   -7.5824424    356.59785  0.026344404  0.026617481            2 
 1129000    1.0692236    -7.547341    357.46127    0.0263848  0.026609674            4 
 1130000    1.0387175   -7.5501068    356.82486  0.026314518  0.026602064            1 
 1131000    1.0729952   -7.5359476    356.90957  0.026297493  0.026594368            3 
 1132000    1.0830092   -7.5473982    357.99203  0.026353948  0.026586613            3 
 1133000    1.0624989   -7.5435469     357.8651  0.026321352  0.026579084            2 
 1134000     1.082314   -7.5185701    358.42716  0.026339444  0.026571528            3 
 1135000    1.0515921   -7.5215432    359.38199  0.026386343  0.026563933            5 
 1136000    1.0526087   -7.5359374    359.67642  0.026384714  0.026556651            3 
 1137000    1.0469826   -7.5668217     358.5219  0.026276891  0.026549273            4 
 1138000    1.0498086   -7.5317214    359.40863  0.026318734  0.026541745            1 
 1139000     1.089378   -7.5648607    359.11074  0.026273833  0.026534314            2 
 1140000    1.0526384   -7.5301973    359.79249   0.02630062  0.026526824            1 
 1141000     1.081725   -7.5136059    359.32507  0.026243432   0.02651919            1 
 1142000    1.0465561   -7.5427104    360.52453  0.026307978  0.026511661            2 
 1143000    1.0619416    -7.510408    360.81683  0.026306273  0.026504042            3 
 1144000    1.0534058   -7.4857788     361.7328      0.02635  0.026496611            3 
 1145000    1.0450615   -7.5378874    361.21654  0.026289413  0.026488969            3 
 1146000    1.0633506   -7.5301909    361.01319  0.026251686  0.026481383            3 
 1147000    1.0524616   -7.5227957    362.29377  0.026321838  0.026473971            1 
 1148000    1.0594311   -7.5190395    362.79106  0.026335007  0.026466632            6 
 1149000    1.0769989   -7.5577813    361.48545  0.026217395  0.026459069            1 
 1150000    1.0858264   -7.5483806    362.51282  0.026269045  0.026451234            1 
 1151000    1.0626967   -7.5289284    362.26205  0.026228066  0.026443563            2 
 1152000     1.068726   -7.4975247    362.83553  0.026246783  0.026435858            2 
 1153000    1.0842391   -7.5566988     362.3405  0.026188241  0.026428221            2 
 1154000     1.080827   -7.5302056    363.00535  0.026213558  0.026420585            2 
 1155000    1.0597114   -7.5817207     362.2617  0.026137208  0.026412796            3 
 1156000    1.0705909   -7.5372047    363.17945  0.026180756  0.026404979            3 
 1157000    1.0601647    -7.566791    362.97057  0.026143083  0.026397367            3 
 1158000    1.0715862   -7.5028379    365.77196  0.026322104  0.026389904            7 
 1159000    1.0943301   -7.5384946    363.62538  0.026145052  0.026382293            2 
 1160000    1.0625994   -7.5484949    364.09711  0.026156401  0.026374678            1 
 1161000    1.0568426   -7.5123314    363.98112  0.026125547  0.026366983            2 
 1162000    1.0691774    -7.586861    363.33356  0.026056624  0.026359207            2 
 1163000    1.0671623   -7.5985445    362.81007  0.025996709  0.026351364            2 
 1164000    1.0795885   -7.5189605    364.57879  0.026101002  0.026343514            1 
 1165000    1.0602386   -7.5451456    365.08719  0.026114964  0.026335812            1 
 1166000     1.064789   -7.5426599    365.78345  0.026142328  0.026328038            4 
 1167000    1.0893336   -7.5186942    366.12563  0.026144361  0.026320454            5 
 1168000    1.0695789   -7.5587818    363.82071  0.025957528  0.026312781            3 
 1169000    1.0560442   -7.5414145    365.78944  0.026075666   0.02630489            3 
 1170000    1.0758515   -7.5573403    365.36451  0.026023113  0.026297107            1 
 1171000     1.074103   -7.5445063    365.43744   0.02600608  0.026289187            1 
 1172000     1.081452   -7.5639836    366.15522  0.026034927  0.026281377            2 
 1173000     1.063929   -7.5848066    364.97764  0.025929074  0.026273387            1 
 1174000    1.0333903    -7.531143    366.65564  0.026026096  0.026265536            2 
 1175000    1.0658118   -7.5651934     366.3643  0.025983284  0.026257468            6 
 1176000    1.0685257   -7.5250057    367.41154  0.026035398  0.026249578            1 
 1177000    1.0712795    -7.561372     365.7891  0.025898407  0.026241568            1 
 1178000    1.0380336   -7.5789007    366.68925    0.0259401  0.026233317            6 
 1179000    1.0561996   -7.5321238    366.09553  0.025876133  0.026225088            3 
 1180000    1.0545436   -7.5458358    367.57266  0.025958521  0.026217116            1 
 1181000    1.0522648   -7.5373667    368.38529  0.025993882  0.026209082            3 
 1182000    1.0608987   -7.5971984    367.68802  0.025922731   0.02620111            4 
 1183000    1.0493289   -7.5451551    368.39439  0.025950577  0.026193023            2 
 1184000    1.0675694    -7.547143    367.82356  0.025888482  0.026185061            1 
 1185000    1.0626249   -7.5676466    367.35504  0.025833688   0.02617716            1 
 1186000    1.0553541   -7.5643401    367.63823  0.025831804  0.026168959            1 
 1187000    1.0634436    -7.529357    367.96765  0.025833169  0.026160869            1 
 1188000    1.0586056   -7.5945661    368.26967  0.025832608  0.026152735            1 
 1189000    1.0518534   -7.5721841    369.19278   0.02587558  0.026144628            4 
 1190000    1.0378103    -7.564106    369.18278  0.025853136  0.026136521            1 
 1191000     1.055875   -7.5427259    369.80236  0.025874781  0.026128407            2 
 1192000    1.0554253   -7.5773635    369.39648  0.025824698  0.026120322            4 
 1193000    1.0705116   -7.5443124    369.83589  0.025833745  0.026112333            2 
 1194000    1.0693712   -7.5551899    370.04436  0.025826658  0.026104211            1 
 1195000    1.0519699   -7.5899082    369.91414  0.025795965  0.026096133            2 
 1196000    1.0656455   -7.5557082    371.46601  0.025882526  0.026088282            1 
 1197000    1.0800215   -7.5858298    370.23292  0.025775057  0.026080349            2 
 1198000    1.0346804   -7.5409878    370.35467  0.025762011  0.026072164            1 
 1199000    1.0663577   -7.5876783    370.58709  0.025756679  0.026064013            1 
 1200000    1.0811356   -7.5566625    371.19525  0.025777448  0.026055873            1 
 1201000    1.0576452   -7.5886759    370.64427  0.025717754  0.026047776            2 
 1202000    1.0587974   -7.5914582    370.20087  0.025665617  0.026039547            2 
 1203000    1.0731488   -7.5907955    371.37894  0.025725889  0.026031357            3 
 1204000    1.0796388   -7.5830609    371.15945  0.025689331  0.026023262            1 
 1205000     1.052633   -7.6072112    372.12012  0.025734448  0.026015114            2 
 1206000    1.0547832   -7.5981015    370.81607  0.025623001  0.026006899            1 
 1207000    1.0638806   -7.5343726    372.23408  0.025699674  0.025998888            3 
 1208000    1.0721017   -7.5894548    372.57806  0.025702129  0.025990883            2 
 1209000    1.0624392   -7.5696064    373.95903  0.025776057   0.02598278            2 
 1210000    1.0349739   -7.5948301    373.41836  0.025717518  0.025974923            1 
 1211000    1.0541001   -7.5845603    373.12267  0.025675934  0.025966908            2 
 1212000    1.0435336    -7.601597     373.1471  0.025656429  0.025958883            1 
 1213000     1.055509   -7.5955889    374.34689  0.025717703  0.025950933            3 
 1214000    1.0910595   -7.5981775    373.28197  0.025623419  0.025942823            2 
 1215000    1.0778512   -7.5561108    374.21747  0.025666493  0.025934904            1 
 1216000     1.068453   -7.5649494    374.57657  0.025669996  0.025927066            1 
 1217000    1.0625604   -7.5423121    375.41158  0.025706079  0.025919137            2 
 1218000    1.0444776   -7.5457465    375.53729  0.025693575  0.025911218            1 
 1219000    1.0542369   -7.5910054    373.82363  0.025555348  0.025903328            3 
 1220000    1.0642521    -7.596447     375.2761  0.025633614  0.025895245            5 
 1221000     1.072584    -7.616119    375.71606  0.025642647  0.025887325            4 
 1222000    1.0663961   -7.6065876    375.22114  0.025587912   0.02587923            2 
 1223000    1.0516593   -7.5726326    375.89539  0.025612932  0.025871281            2 
 1224000    1.0361349   -7.5678067    376.14194  0.025608792  0.025863365            1 
 1225000    1.0609177   -7.5563437     375.7271  0.025559666  0.025855496            1 
 1226000    1.0722974   -7.5835215    377.30509  0.025646078  0.025847637            1 
 1227000    1.0560911   -7.5940835    376.59091  0.025576672  0.025839883            2 
 1228000    1.0642384    -7.580492    376.80413  0.025570313  0.025831957            2 
 1229000    1.0675219   -7.5564912    377.44577  0.025593014  0.025824177            1 
 1230000    1.0499386   -7.5543878    378.09717  0.025616339  0.025816454            1 
 1231000    1.0705935   -7.5566313    377.84052  0.025578156  0.025808742            2 
 1232000    1.0634324   -7.6013961    377.28292  0.025519678  0.025800747            2 
 1233000    1.0554115   -7.5814386    378.86919   0.02560619  0.025792842            1 
 1234000    1.0544372    -7.583539    379.64263  0.025637671  0.025785115            2 
 1235000    1.0477579   -7.5509056    379.97252  0.025639172  0.025777466            1 
 1236000    1.0554932   -7.5862084    378.77885  0.025537948  0.025769827            2 
 1237000    1.0608521   -7.5520529    379.60424  0.025572908  0.025762249            1 
 1238000    1.0513317   -7.6246689    379.04446   0.02551457  0.025754574            2 
 1239000     1.050119   -7.5841435    379.18047  0.025503125  0.025747038            1 
 1240000    1.0541181   -7.5600077    379.74513  0.025520506  0.025739397            2 
 1241000    1.0524218   -7.6326328    379.67471  0.025495213  0.025731639            1 
 1242000     1.044056   -7.5727858    380.08765  0.025502392  0.025723993            1 
 1243000    1.0522551   -7.6554426    380.10792  0.025483234  0.025716211            4 
 1244000    1.0365496    -7.584876    380.84944  0.025512422  0.025708524            2 
 1245000    1.0496539   -7.5885113    380.76987  0.025486604  0.025701033            1 
 1246000     1.028189   -7.5887036    381.41609   0.02550937  0.025693385            3 
 1247000    1.0583807   -7.6470799    380.79083  0.025447129  0.025685795            9 
 1248000    1.0394572   -7.5702918    382.86197  0.025565035  0.025678378            2 
 1249000     1.046028   -7.5946705    381.32953  0.025442322  0.025670899            1 
 1250000    1.0355522   -7.5531718    382.43973  0.025495982  0.025663435            2 
 1251000    1.0355733   -7.6026533    382.63384  0.025488532  0.025656088            1 
 1252000    1.0655774    -7.549615    383.59072  0.025531863  0.025648647            1 
 1253000    1.0555578   -7.5751564    384.28164  0.025557438  0.025641237            2 
 1254000    1.0542492   -7.5648206    383.12411  0.025460135  0.025633943            1 
 1255000    1.0465418   -7.5790181     384.2114  0.025512045  0.025626478            1 
 1256000     1.045947   -7.5777643    383.60873  0.025451747  0.025619048            3 
 1257000    1.0302251   -7.6039526    384.22342   0.02547225  0.025611595            2 
 1258000     1.047425   -7.5855475    385.36711  0.025527763  0.025604249            2 
 1259000    1.0440055   -7.6098166    383.52625   0.02538564  0.025596763            2 
 1260000    1.0725573   -7.5929702    384.93341  0.025458559   0.02558933            2 
 1261000    1.0522741   -7.5751293      384.125  0.025384946  0.025581914            2 
 1262000    1.0410408   -7.5712956    385.06214  0.025426713  0.025574457            2 
 1263000    1.0520379   -7.5971278    384.14243  0.025345898  0.025566913            1 
 1264000    1.0653201   -7.6106323     383.2796  0.025268961  0.025559297            1 
 1265000    1.0624556   -7.5646864    385.32499  0.025383728  0.025551712            3 
 1266000    1.0362117   -7.5946572    385.90375  0.025401774  0.025544103            2 
 1267000    1.0494374   -7.6081483    384.78146   0.02530791  0.025536563            1 
 1268000    1.0562484   -7.5926038    385.10418   0.02530916  0.025529055            5 
 1269000    1.0680233   -7.5960345    386.06355  0.025352216   0.02552143            2 
 1270000    1.0572345   -7.6218021    385.61408  0.025302761  0.025513836            2 
 1271000    1.0484459   -7.6175267    385.17953  0.025254362  0.025505895            2 
 1272000    1.0617458   -7.6210939     385.2061  0.025236249  0.025497824            1 
 1273000     1.054123   -7.6231343    385.52007  0.025236978  0.025489835            1 
 1274000     1.063655   -7.6260924    385.31938  0.025204041  0.025481812            2 
 1275000    1.0527875   -7.5838006    386.08574  0.025234362  0.025474118            2 
 1276000    1.0531355   -7.5817495    386.60314  0.025248376  0.025466325            1 
 1277000    1.0498886   -7.5757816    387.29994  0.025274076  0.025458546            2 
 1278000    1.0339707   -7.6185327    386.57639   0.02520712  0.025450728            1 
 1279000    1.0522536    -7.610454    387.72712  0.025262387  0.025442911            3 
 1280000    1.0614782    -7.577412    388.34936  0.025283162  0.025435175            8 
 1281000    1.0481591   -7.5765986      388.391  0.025266133  0.025427536            1 
 1282000    1.0340783   -7.6261873    387.28751  0.025174695  0.025419767            1 
 1283000    1.0451492   -7.5904683    387.30903  0.025156471  0.025412082            3 
 1284000    1.0609484   -7.6514959    387.38103  0.025141551  0.025404259            2 
 1285000    1.0347764   -7.5781989    388.66921  0.025205526  0.025396268            3 
 1286000    1.0545548   -7.6383587    388.18318  0.025154431  0.025388318            3 
 1287000    1.0446731    -7.631074    388.74736  0.025171417  0.025380423            2 
 1288000    1.0545357   -7.5622699    388.69429   0.02514844  0.025372627            4 
 1289000     1.046657   -7.6173813    389.42309  0.025176047  0.025364916            2 
 1290000    1.0507181   -7.6370042    388.54982  0.025100118  0.025357167            3 
 1291000     1.040708   -7.5831854    389.68007  0.025153632  0.025349437            2 
 1292000    1.0452952   -7.6425752     388.4219  0.025053012  0.025341733            1 
 1293000    1.0375716   -7.6054574     389.0524  0.025074272  0.025334001            2 
 1294000    1.0599387   -7.5960653    390.96212   0.02517788  0.025326244            1 
 1295000    1.0651138   -7.6126549    390.37895  0.025120911  0.025318491            2 
 1296000    1.0589266   -7.6115783    390.98487  0.025140488  0.025310836            2 
 1297000    1.0556426   -7.6310048    389.63054  0.025034088  0.025303093            5 
 1298000    1.0484849   -7.6347008    391.59674  0.025141034  0.025295362            4 
 1299000    1.0104002   -7.5815631    391.68174  0.025127132  0.025287629            1 
 1300000    1.0559229   -7.6255322     390.4414  0.025028295  0.025279938            5 
 1301000    1.0465901   -7.5830108     392.4096  0.025135127  0.025272429            4 
 1302000    1.0372564   -7.6134767    391.97951  0.025088294  0.025264897            2 
 1303000    1.0350743   -7.6211484    391.35972  0.025029401  0.025257171            3 
 1304000    1.0357727   -7.6262388    392.52546  0.025084705   0.02524938            1 
 1305000    1.0377991   -7.6157331    392.73927  0.025079136  0.025241651            2 
 1306000    1.0356582   -7.6146158    392.25693  0.025029156  0.025233947            1 
 1307000    1.0452005   -7.6320274    391.89131  0.024986694  0.025226207            2 
 1308000    1.0444042    -7.619674    393.75003  0.025086011  0.025218527            2 
 1309000    1.0308828   -7.6105647    393.32468  0.025039768  0.025210855            2 
 1310000    1.0187063   -7.6270521     393.5383  0.025034243  0.025203239            2 
 1311000    1.0685132   -7.5910461    393.54879  0.025015814  0.025195634            1 
 1312000    1.0496015   -7.6373507    392.98775  0.024961112  0.025188137            1 
 1313000    1.0680973   -7.6056844    394.51023   0.02503873  0.025180552            1 
 1314000     1.041555   -7.5995109    394.56809  0.025023344  0.025172876            1 
 1315000    1.0327592   -7.6180716    394.30239  0.024987477  0.025165294            5 
 1316000    1.0208992   -7.6343328    394.52896  0.024982837  0.025157706            1 
 1317000    1.0407439    -7.565984    395.89208  0.025050119  0.025150056            1 
 1318000    1.0334753   -7.5990995    395.31847  0.024994845  0.025142625            1 
 1319000    1.0497912   -7.6857485    393.05063  0.024832615  0.025135069            2 
 1320000    1.0381196   -7.6374831    395.88911     0.024993  0.025127395            2 
 1321000    1.0364276   -7.5917416     395.0678  0.024922268  0.025119837            3 
 1322000    1.0371481   -7.6393514    395.95112  0.024959097  0.025112253            2 
 1323000     1.027641   -7.6156228    396.08527  0.024948682  0.025104593            2 
 1324000     1.034752   -7.6463858    394.92436   0.02485677  0.025096899            1 
 1325000    1.0468146   -7.6128765    395.15649  0.024852609   0.02508922            2 
 1326000    1.0341064   -7.6374082    396.82255  0.024938572  0.025081586            2 
 1327000    1.0197117   -7.6168222    396.44312  0.024895951  0.025074006            3 
 1328000     1.038101   -7.6084316    396.52496  0.024882339   0.02506639            2 
 1329000    1.0211686   -7.5507554    398.21516  0.024969599  0.025058801            2 
 1330000    1.0476747   -7.6094728    395.85881  0.024803184  0.025051272            1 
 1331000    1.0211661   -7.5952775     396.8713   0.02484794  0.025043791            1 
 1332000    1.0451467   -7.6246897    396.59477  0.024811985   0.02503612            3 
 1333000    1.0278822   -7.6113479    397.87152  0.024873188  0.025028542            1 
 1334000    1.0211348   -7.6338422    397.33257  0.024820875  0.025020778            4 
 1335000    1.0275585    -7.582092    399.14416  0.024915366  0.025013056            5 
 1336000    1.0378398   -7.6303093    398.03315  0.024827417  0.025005379            2 
 1337000    1.0516967     -7.63946    397.99333  0.024806365  0.024997667            2 
 1338000    1.0484455   -7.6071107    398.78531  0.024837152  0.024990012            2 
 1339000    1.0278315   -7.6485484     397.9063  0.024763897  0.024982353            3 
 1340000    1.0282905   -7.6391133    399.51353  0.024845369  0.024974705            1 
 1341000    1.0269659   -7.6238193    398.98909  0.024794251  0.024967125            2 
 1342000    1.0508915   -7.6436594    400.14148  0.024847335  0.024959589            2 
 1343000    1.0539206    -7.674819    397.95572  0.024693207  0.024952011            2 
 1344000    1.0415977   -7.6163817    399.92475  0.024796922  0.024944423            3 
 1345000    1.0373212   -7.6266296    400.38068  0.024806734  0.024936925            1 
 1346000     1.019936   -7.6312961    400.01599  0.024765725  0.024929526            2 
 1347000    1.0444112   -7.6393873    399.98932  0.024745689  0.024921856            3 
 1348000     1.062223   -7.6336896    401.47074  0.024818913  0.024914349            4 
 1349000    1.0633416   -7.6229936    401.71027  0.024815312  0.024906973            2 
 1350000    1.0565681   -7.6783753    400.71981  0.024735791  0.024899518            1 
 1351000     1.035291    -7.590751    402.21046  0.024809429  0.024892074            3 
 1352000     1.033107   -7.6286725    402.21373   0.02479128  0.024884655            3 
 1353000    1.0362138   -7.6758694    400.97909  0.024696914  0.024877225            2 
 1354000    1.0337157   -7.6371476    402.46986  0.024770425  0.024869742            2 
 1355000    1.0133311   -7.6622818     402.0894  0.024728745  0.024862217            2 
 1356000    1.0266293   -7.6179576    403.01936   0.02476766   0.02485472            4 
 1357000    1.0512353    -7.646147    401.85994  0.024678208  0.024847362            1 
 1358000    1.0457885   -7.6816798    401.77631  0.024654904  0.024839876            3 
 1359000    1.0284215   -7.6656579    402.01715   0.02465153  0.024832464            3 
 1360000    1.0256331   -7.6394565    402.84846  0.024684342  0.024825113            1 
 1361000    1.0391366   -7.6171481    404.15901  0.024746449  0.024817915            2 
 1362000    1.0358455   -7.6315241    405.22192  0.024793314  0.024810865            1 
 1363000    1.0507334   -7.6006356    405.69301  0.024803926  0.024803814            2 
 1364000      1.04036   -7.6700821    403.85165  0.024673244   0.02479654            2 
 1365000    1.0158426   -7.6446131    404.77809  0.024711727  0.024789301            1 
 1366000    1.0301396   -7.6324017    406.15661  0.024777734  0.024782155            2 
 1367000    1.0101968    -7.602236    405.86399   0.02474177  0.024774958            1 
 1368000     1.049064   -7.6471205    405.39827  0.024695314  0.024767767            5 
 1369000    1.0485075   -7.6516908    406.02182  0.024715231  0.024760599            1 
 1370000    1.0299616   -7.6329002    405.53788  0.024667754  0.024753426            2 
 1371000     1.027403   -7.6653448     405.3355   0.02463746  0.024746293            1 
 1372000    1.0422481   -7.6634233    405.79486  0.024647404  0.024739062            8 
 1373000    1.0162121    -7.663476    405.60258  0.024617782  0.024731717            1 
 1374000    1.0392516   -7.6535551    405.69686  0.024605584  0.024724331            1 
 1375000    1.0266428   -7.6426366    406.44881  0.024633261   0.02471705            1 
 1376000    1.0495545   -7.6596357    407.85134  0.024700299  0.024709787            2 
 1377000    1.0254276   -7.6405513    407.77131  0.024677518  0.024702648            1 
 1378000    1.0297445   -7.6434986    407.75107  0.024658386  0.024695646            4 
 1379000    1.0377746   -7.6302125    408.44976  0.024682727  0.024688754            2 
 1380000    1.0259287   -7.6273432    407.50075  0.024607533  0.024681835            3 
 1381000    1.0152245   -7.6273972    408.19242  0.024631452  0.024674853            3 
 1382000    1.0421532   -7.6446314    408.40478  0.024626434  0.024667898            2 
 1383000    1.0474184   -7.6384996    409.51313  0.024675411  0.024660873            2 
 1384000    1.0498945   -7.6218932    410.20093  0.024698996    0.0246541            1 
 1385000    1.0234819   -7.6456774    410.16939  0.024679265  0.024647323            2 
 1386000    1.0251873   -7.6360059    410.10991  0.024657883  0.024640479            1 
 1387000    1.0165753   -7.6282303    409.35149  0.024594538  0.024633708            1 
 1388000    1.0307694   -7.6867241    409.01447  0.024556585  0.024626851            5 
 1389000    1.0406512   -7.6204382    411.72985  0.024701815  0.024620028            1 
 1390000    1.0483312   -7.6559726    409.72844  0.024564055  0.024613255            2 
 1391000    1.0342495   -7.6448273    411.22673  0.024636157  0.024606552            3 
 1392000    1.0305334   -7.6172887    412.22556  0.024678254  0.024599693            1 
 1393000    1.0325154   -7.6485019    411.72371  0.024630516  0.024592854            3 
 1394000    1.0306331   -7.6258103    410.96192  0.024567307  0.024585932            1 
 1395000    1.0002668   -7.6491386     411.4319  0.024577771  0.024579092            3 
 1396000    1.0395641   -7.6726905    410.96982  0.024532582  0.024572229            2 
 1397000    1.0269546   -7.6496687    411.72301   0.02455995  0.024565561            1 
 1398000    1.0369202   -7.6371628    412.50208  0.024588822  0.024558789            1 
 1399000    1.0224332   -7.6467447    413.86642  0.024652515  0.024552092            2 
 1400000    1.0312166   -7.6255808    413.78645  0.024630146  0.024545423            3 
 1401000     1.026924   -7.6410256      412.949  0.024562753  0.024538842            2 
 1402000    1.0404404   -7.6406105    413.47633  0.024576577  0.024532122            3 
 1403000    1.0293935   -7.6830128    412.65187  0.024510089  0.024525526            2 
 1404000    1.0337912   -7.6348562    414.73686  0.024616385  0.024518941            2 
 1405000    1.0540604   -7.6169505    414.89377  0.024608171  0.024512397            2 
 1406000     1.035736   -7.6254627    414.94822  0.024593896  0.024505875            2 
 1407000    1.0445283     -7.62442    416.11965  0.024645798   0.02449938            3 
 1408000    1.0227795    -7.670408    414.10151  0.024508849  0.024492856            2 
 1409000    1.0651309   -7.6858073    415.27646  0.024560945  0.024486239            2 
 1410000    1.0311315   -7.6138815    417.14739  0.024654101  0.024479771            1 
 1411000    1.0256834   -7.6301394    416.06298  0.024572584  0.024473254            1 
 1412000    1.0435712   -7.6429888    416.03594  0.024553585  0.024466819            3 
 1413000    1.0193515   -7.6483307    415.66081  0.024514084  0.024460299            1 
 1414000    1.0483897   -7.6501847    416.32317  0.024535783  0.024453788            1 
 1415000    1.0290049    -7.642524    416.56685  0.024532794   0.02444728            2 
 1416000    1.0184951   -7.6842149    416.40706  0.024506065   0.02444071            2 
 1417000    1.0504734   -7.6438448    417.33714  0.024543469  0.024434133            1 
 1418000    1.0112777   -7.6578575    415.99703  0.024447404   0.02442759            2 
 1419000    1.0502342   -7.6754486    416.71242  0.024472188  0.024421131            2 
 1420000     1.032228   -7.6662932    418.12229  0.024537693  0.024414564            2 
 1421000    1.0254706   -7.6997151    417.81629   0.02450248  0.024408044            2 
 1422000    1.0227765   -7.6443374    418.35668  0.024516917  0.024401547            2 
 1423000    1.0263102   -7.6414297    417.42331  0.024445029  0.024395061            2 
 1424000    1.0251719   -7.5875094    419.20495  0.024532125  0.024388565            2 
 1425000    1.0009542   -7.6715778    417.42376  0.024410746  0.024382166            2 
 1426000    1.0255642   -7.6128372    418.96011   0.02448341  0.024375588            3 
 1427000   0.99568259   -7.6333956    418.79169  0.024456417   0.02436912            5 
 1428000    1.0362523   -7.6519044    418.90008  0.024445616  0.024362529            1 
 1429000    1.0367254   -7.6087097    419.25954  0.024449472  0.024355947            4 
 1430000    1.0080527   -7.6832152    419.47886  0.024445155  0.024349328            1 
 1431000    1.0318617    -7.695531     418.2526  0.024356662  0.024342664            3 
 1432000    1.0178458   -7.6940865    418.99065  0.024382603  0.024335826            3 
 1433000    1.0504219   -7.6826493    419.87855  0.024417222  0.024329075            2 
 1434000    1.0226047   -7.6638837    420.21413  0.024419696   0.02432241            2 
 1435000    1.0026774   -7.6505114    420.07268  0.024394465  0.024315889            2 
 1436000    1.0030995   -7.6496151    420.14988  0.024381957  0.024309352            2 
 1437000    1.0311606   -7.7058533    420.55266  0.024388347  0.024302744            2 
 1438000    1.0471439   -7.6638479    420.30852  0.024357239  0.024296148            5 
 1439000     1.031076   -7.6728079    420.86144  0.024372333  0.024289525            5 
 1440000    1.0140395   -7.6982396    419.23992  0.024261569  0.024282934            2 
 1441000    1.0133197   -7.6770455    420.70238  0.024329307  0.024276363            3 
 1442000   0.99910445   -7.6705767    419.93736  0.024268224  0.024269774            2 
 1443000    1.0208159   -7.6745716    421.80611  0.024359327  0.024263242            1 
 1444000    1.0171475   -7.6601352    421.77258  0.024340523  0.024256744            2 
 1445000    1.0039345   -7.7198525    421.22298  0.024291983  0.024250216            2 
 1446000    1.0210943   -7.6658669    420.67883  0.024243824  0.024243587            2 
 1447000   0.99651014   -7.6866567    422.24417  0.024317218  0.024237133            2 
 1448000    1.0401845   -7.6747754    423.21218  0.024356134  0.024230582            3 
 1449000    1.0212336   -7.6937605     422.8601  0.024319076  0.024224162            3 
 1450000    1.0027144   -7.7053834    421.68138  0.024234562   0.02421767            1 
 1451000    1.0319246    -7.666182    424.29604  0.024368024  0.024211239            2 
 1452000    1.0340991   -7.6424554    425.65728  0.024429366  0.024204929            1 
 1453000    1.0139446    -7.648926    424.33774  0.024336874   0.02419874            1 
 1454000    1.0181024   -7.6228928    425.62684  0.024394019  0.024192559            3 
 1455000    1.0279851    -7.686376    425.19275  0.024352391   0.02418642            1 
 1456000    1.0231162   -7.6703355    425.61785  0.024359996  0.024180303            3 
 1457000    1.0375906   -7.6625877    425.35265  0.024328108  0.024174127            2 
 1458000    1.0375778   -7.6691537    425.34056  0.024310731  0.024167961            2 
 1459000    1.0492812   -7.6855778    424.83556  0.024265225   0.02416163            2 
 1460000    1.0176328   -7.6899215    424.66957  0.024239131  0.024155297            2 
 1461000    1.0175237   -7.6731808    424.98226  0.024240375   0.02414889            3 
 1462000    1.0294194   -7.7006064    425.26561  0.024239946  0.024142448            2 
 1463000    1.0283279   -7.6958073    425.06957  0.024212211  0.024135901            2 
 1464000    1.0089539   -7.6292614    426.05845  0.024251961  0.024129366            1 
 1465000    1.0055123   -7.6723019    425.61524  0.024210196  0.024122895            3 
 1466000    1.0108925   -7.6550786    425.65398  0.024195884  0.024116319            3 
 1467000    1.0145134   -7.6666867    426.90861   0.02425066  0.024109755            3 
 1468000    1.0127528   -7.6377431    426.55447  0.024214036  0.024103236            2 
 1469000    1.0468459   -7.6699452    427.09408  0.024228165  0.024096788            1 
 1470000    1.0198237   -7.6636611    427.21408  0.024218485  0.024090404            2 
 1471000    1.0472993   -7.6741054    426.95998  0.024187626  0.024083983            1 
 1472000    1.0036754   -7.6626446    427.09669  0.024178934   0.02407758            2 
 1473000    1.0132007   -7.6855406    427.14596  0.024165307  0.024071104            4 
 1474000    1.0202317   -7.7187712    426.99219  0.024140219  0.024064599            4 
 1475000    1.0210305   -7.7157396    427.01474  0.024125126  0.024058111            2 
 1476000     1.017931    -7.671719    427.67004  0.024145779    0.0240516            1 
 1477000    1.0289136   -7.7050351    427.20489  0.024103187  0.024045033            3 
 1478000    1.0341088   -7.6691904    427.71536  0.024115661  0.024038499            2 
 1479000   0.99668791   -7.6820933    427.77714  0.024102836  0.024031947            1 
 1480000    1.0274469   -7.6783065    428.38501  0.024120778  0.024025422            1 
 1481000    1.0074632   -7.7308289    427.77314  0.024070062  0.024018971            2 
 1482000    1.0381416   -7.6620836    428.86792   0.02411538  0.024012474            3 
 1483000    1.0482447   -7.6307718    429.65952  0.024143601  0.024006028            4 
 1484000    1.0195359    -7.665849    429.52814  0.024119954  0.023999619            2 
 1485000    1.0292862   -7.6571252    430.04908  0.024132945  0.023993207            1 
 1486000    1.0022738   -7.6931673    429.71078  0.024097733  0.023986842            2 
 1487000    1.0384108   -7.6972261    430.11549  0.024104208  0.023980432            1 
 1488000    1.0106277   -7.6956355    431.29034  0.024153805  0.023974002            1 
 1489000    1.0059669   -7.6588396    430.48701  0.024092624  0.023967669            1 
 1490000    1.0048758    -7.712972    428.93906   0.02398988  0.023961289            3 
 1491000    1.0319572   -7.6673418    431.11382   0.02409534  0.023954901            2 
 1492000   0.99221981   -7.6682338    431.90212   0.02412322  0.023948613            2 
 1493000    1.0010136   -7.6668818    430.79857  0.024045466  0.023942348            2 
 1494000    1.0197205   -7.6594605    431.23308  0.024053608  0.023936018            2 
 1495000     1.024581   -7.6917387    431.26711  0.024039415  0.023929699            3 
 1496000     1.017713   -7.6743581    432.79584  0.024108503  0.023923339            2 
 1497000     1.004906   -7.6992887    432.66225  0.024084962  0.023917175            2 
 1498000    1.0124124   -7.7338197    431.83075  0.024022628  0.023910872            1 
 1499000   0.99082619   -7.7044268    432.06284  0.024019504  0.023904531            2 
 1500000    1.0052746   -7.6705475    433.08074  0.024060041  0.023898217            3 
 1501000    1.0022402   -7.6819732    432.72771  0.024024412  0.023892009            1 
 1502000    1.0167374   -7.6761547    433.01276  0.024024232  0.023885865            3 
 1503000    1.0164872   -7.7041569    432.41777  0.023975259  0.023879605            3 
 1504000    1.0158291   -7.7131363    432.95648  0.023989166  0.023873319            1 
 1505000    1.0113027   -7.7151819    433.79385  0.024019593  0.023867048            2 
 1506000    1.0007104    -7.746971    430.50974   0.02382192  0.023860647            2 
 1507000    1.0081085   -7.7511005    432.95731  0.023941457  0.023854129            1 
 1508000    1.0228462   -7.7098984    433.14834  0.023936137  0.023847625            4 
 1509000    1.0353134   -7.7040186    434.84962  0.024014227  0.023841229            2 
 1510000    1.0173833   -7.6909581    434.26016  0.023965793  0.023834861            2 
 1511000    1.0125803   -7.7208548    433.88634  0.023929315  0.023828508            3 
 1512000    1.0004636   -7.6507236    435.24039  0.023988117  0.023822153            2 
 1513000     1.018199   -7.6955771    435.43938  0.023983222   0.02381582            2 
 1514000   0.99459574    -7.663477    435.75766    0.0239849  0.023809721            2 
 1515000    1.0123892    -7.698255    436.54476  0.024012363  0.023803695            4 
 1516000    1.0329188   -7.7137005    435.85333  0.023958516  0.023797577            2 
 1517000    1.0187796   -7.7184119    436.62969  0.023985371  0.023791399            6 
 1518000    1.0089489   -7.7205774    435.05091    0.0238829  0.023785243            1 
 1519000    1.0127664   -7.6915321    436.37148  0.023939625  0.023779082            4 
 1520000   0.99816994   -7.6929026    437.28018  0.023973694  0.023772924            2 
 1521000    1.0109042   -7.6939116    437.41171  0.023965139  0.023766829            2 
 1522000    1.0109679   -7.7024592    437.26174  0.023941181  0.023760634            2 
 1523000   0.98853121   -7.7283354    437.29493  0.023927278  0.023754525            2 
 1524000    1.0092177   -7.7034514    437.95991  0.023947939  0.023748438            1 
 1525000    1.0168558   -7.6743494      437.889  0.023928361  0.023742363            1 
 1526000   0.99382434   -7.6924648    438.24877  0.023932327  0.023736287            1 
 1527000    1.0076967   -7.7358988      438.342  0.023921742  0.023730303            2 
 1528000    1.0245086   -7.6529054    440.33567  0.024014816  0.023724381            5 
 1529000    0.9886001   -7.7102367    439.06641  0.023929933  0.023718411            2 
 1530000     1.004364   -7.7109558    440.74869   0.02400592  0.023712488            2 
 1531000   0.99709439   -7.6986041    439.01656  0.023895959   0.02370654            1 
 1532000   0.98662748   -7.7012254    439.01005  0.023880007  0.023700537            4 
 1533000   0.99430641   -7.6999283    440.05978  0.023921493  0.023694602            3 
 1534000   0.99918624   -7.7188131    439.56575  0.023879061  0.023688574            1 
 1535000    1.0124819   -7.6995849    440.27669    0.0239021  0.023682652            3 
 1536000    1.0003772   -7.6836131    440.34413  0.023890198  0.023676787            3 
 1537000   0.99324374   -7.6502394    439.88757  0.023849901  0.023670829            2 
 1538000    1.0224824   -7.6916547    441.27184  0.023909397  0.023664785            3 
 1539000    1.0096533   -7.6997026    440.44356  0.023849012  0.023658749            2 
 1540000    1.0230752   -7.7044225    440.98572  0.023862863  0.023652883            3 
 1541000     1.002056   -7.7053547     441.5469  0.023877726  0.023646902            2 
 1542000    1.0017262   -7.7016748    442.37921  0.023907221  0.023640985            2 
 1543000   0.99686251   -7.7004819    439.91586  0.023758688  0.023634985            2 
 1544000    1.0023038   -7.7028121    441.54836   0.02383141  0.023628989            2 
 1545000    1.0102119    -7.711917    442.94877  0.023891519  0.023622945            2 
 1546000   0.99041594    -7.690466    442.10064  0.023830349  0.023616928            2 
 1547000    1.0151843   -7.7394976    442.10172  0.023815003  0.023610845            2 
 1548000    1.0343418   -7.6986995    442.27975  0.023809203  0.023604889            1 
 1549000    1.0089472   -7.7070606    442.20723  0.023789931   0.02359886            3 
 1550000    1.0098839   -7.7512349    442.55965   0.02379353  0.023592735            5 
 1551000   0.99740804   -7.7194168     443.1554  0.023810197   0.02358665            1 
 1552000    0.9930001   -7.7011532    444.00942  0.023840712  0.023580667            2 
 1553000   0.98135584   -7.7246797    443.87384  0.023818085  0.023574791            3 
 1554000   0.99927022   -7.6838054    445.08035  0.023867458  0.023568983            2 
 1555000   0.99639253   -7.7480815    444.72582  0.023833109  0.023563109            1 
 1556000   0.98160434   -7.7575461    444.22223  0.023790822  0.023557192            2 
 1557000   0.99150861   -7.7324414    445.00482  0.023817428  0.023551245            1 
 1558000    1.0073967   -7.7201837    444.61464  0.023781271  0.023545339            7 
 1559000    1.0069759   -7.6700347    444.96866   0.02378494  0.023539642            4 
 1560000   0.99797123   -7.7060364    445.26927  0.023785752  0.023533878            4 
 1561000   0.99087513   -7.6813573     446.5963  0.023841357   0.02352815            3 
 1562000   0.97676208   -7.6869295    446.22167  0.023806107  0.023522396            2 
 1563000   0.98398072   -7.7058895    446.39121  0.023799915  0.023516655            2 
 1564000    1.0003008   -7.7087033    447.07494  0.023821128  0.023510892            1 
 1565000   0.98895797   -7.7376412    446.03483  0.023750524  0.023505152            2 
 1566000    1.0190995   -7.7104526    447.80297  0.023829447  0.023499446            3 
 1567000    1.0117034   -7.7288689    447.89741  0.023819263   0.02349386            1 
 1568000    0.9970842   -7.7221637    447.79106  0.023798419  0.023488185            2 
 1569000    0.9916539   -7.6708395    448.71405  0.023832274  0.023482488            3 
 1570000   0.99670758   -7.6948447    447.25291  0.023739539  0.023476806            5 
 1571000    1.0027895   -7.7269524    446.81261  0.023701072  0.023471149            2 
 1572000   0.99999774   -7.7203192    448.33659  0.023766783  0.023465419            3 
 1573000    1.0193406   -7.7439657    447.55437  0.023710234  0.023459743            2 
 1574000    1.0018639   -7.7359059    447.09873  0.023671047  0.023454036            1 
 1575000   0.97891048   -7.7428923    448.18025  0.023713241    0.0234483            2 
 1576000    1.0137895   -7.7355551    449.58778  0.023772619  0.023442556            2 
 1577000   0.98823988   -7.7478392     448.7615  0.023713882  0.023436861            1 
 1578000   0.98731988   -7.7519955    447.64065  0.023639663  0.023431137            2 
 1579000    1.0263962    -7.747387    448.45409  0.023667621   0.02342537            2 
 1580000    1.0121506   -7.7421823    449.79564  0.023723399  0.023419679            3 
 1581000    1.0130197   -7.7077298    449.64362   0.02370038  0.023414062            1 
 1582000    0.9739099    -7.733195    450.62435   0.02373706  0.023408369            2 
 1583000    1.0062185    -7.691425    451.63615  0.023775329  0.023402721            6 
 1584000   0.99980466   -7.7152919    450.20875  0.023685225  0.023397124            1 
 1585000    1.0156946   -7.7235023    451.03448  0.023713695  0.023391507            3 
 1586000   0.99787788   -7.7248128    450.40449  0.023665641  0.023386048            5 
 1587000   0.99223102    -7.713462    451.46594  0.023706466  0.023380445            1 
 1588000   0.99679452   -7.6968505    451.02191  0.023668236  0.023374888            3 
 1589000   0.98960389   -7.7147765    451.79669  0.023693974  0.023369273            3 
 1590000    1.0071517   -7.7067172    451.91771  0.023685415  0.023363665            3 
 1591000   0.99488435   -7.7306766    451.76564  0.023662562  0.023358007            1 
 1592000    1.0046926   -7.7259182    451.10051  0.023612883  0.023352293            5 
 1593000    1.0061385   -7.6913218    453.61745  0.023729727  0.023346762            1 
 1594000   0.98007159   -7.7189968    452.06987  0.023633933  0.023341309            1 
 1595000    1.0154848   -7.7219203    451.45668  0.023587079   0.02333576            1 
 1596000    1.0065733   -7.6930764    453.49632  0.023678797  0.023330093            3 
 1597000      1.01234   -7.7551011    453.44664  0.023661377  0.023324536            3 
 1598000   0.98962508    -7.720769    453.52612  0.023650716  0.023318977            2 
 1599000    1.0140126   -7.7837174    451.02041  0.023505337  0.023313372            1 
 1600000    1.0140798    -7.726789    453.95663  0.023643574  0.023307691            4 
 1601000   0.98869328   -7.7508624    452.94174   0.02357598  0.023302091            3 
 1602000    1.0235752   -7.7299426    452.86225  0.023557129  0.023296502            2 
 1603000   0.99190665   -7.7638951    453.40877  0.023570845  0.023290867            2 
 1604000   0.98829437   -7.7647238    453.08719  0.023539443  0.023285183            3 
 1605000    1.0037163   -7.7002542    456.24656  0.023688814  0.023279601            1 
 1606000    1.0055963     -7.76227     454.2857  0.023572317  0.023274056            2 
 1607000    1.0066047   -7.7110479    454.35855  0.023561426   0.02326841            3 
 1608000    0.9951909   -7.7405489    454.98453  0.023579215  0.023262743            1 
 1609000    1.0175877   -7.7390194    453.98029  0.023512549  0.023257068            4 
 1610000   0.99577787   -7.7342492    454.63897  0.023532038   0.02325134            3 
 1611000   0.99387235   -7.7286696    455.56354  0.023565256  0.023245746            5 
 1612000   0.98897824   -7.7053839    456.38272  0.023592986  0.023240166            2 
 1613000   0.96421242   -7.7083093    455.26904  0.023520823  0.023234625            2 
 1614000   0.99321639   -7.7025435    454.91382  0.023487909  0.023229005            3 
 1615000   0.99720138   -7.6970074    455.88289  0.023523369  0.023223378            1 
 1616000    1.0123554   -7.7155853    456.96444  0.023564585  0.023217721            2 
 1617000    1.0073809   -7.7545144    454.99055  0.023448286  0.023212159            1 
 1618000   0.99045408   -7.7401216    455.18373  0.023443744  0.023206544            7 
 1619000   0.98419484    -7.747987    456.86987  0.023516052  0.023200998            1 
 1620000    1.0038869   -7.7105642    458.58475   0.02358975  0.023195613            7 
 1621000    1.0097626    -7.727967    457.78427  0.023534046  0.023190228            2 
 1622000   0.99152486   -7.7194796    458.17685  0.023539707  0.023184889            1 
 1623000    1.0041384   -7.7318679    457.51043  0.023490985  0.023179518            2 
 1624000   0.99793833   -7.7309337     458.4608  0.023525287  0.023173993            1 
 1625000   0.98719868   -7.7190496    457.74893  0.023474304   0.02316848            1 
 1626000    1.0103312   -7.7817046    457.26029  0.023434824  0.023162918            4 
 1627000   0.97640065    -7.789546    456.87522  0.023400698  0.023157121            2 
 1628000   0.99198591   -7.7656955    457.54761  0.023420742  0.023151352            3 
 1629000   0.99252178   -7.7409945    457.83202  0.023420914  0.023145676            1 
 1630000   0.98406005   -7.7284189     458.4719  0.023439259  0.023140089            2 
 1631000   0.99120717   -7.7377289    459.17703  0.023460915  0.023134473            2 
 1632000   0.99021618   -7.7537538    458.56784  0.023415433  0.023128959            1 
 1633000   0.99964662   -7.7341957    458.70715  0.023408203   0.02312332            2 
 1634000   0.98295358   -7.7384953    458.33473  0.023374884  0.023117675            2 
 1635000   0.98563682    -7.768443    458.11688  0.023349484  0.023111981            1 
 1636000   0.99187948   -7.7584257    458.85735  0.023372929  0.023106236            3 
 1637000   0.97801886   -7.7393234    458.04174  0.023317132  0.023100468            2 
 1638000    1.0003275   -7.7498293    457.79378  0.023290282  0.023094584            2 
 1639000   0.98827217   -7.7560188    457.63794  0.023268148  0.023088812            1 
 1640000    1.0039271   -7.7546433    458.49497  0.023297508  0.023083006            2 
 1641000   0.97349566   -7.7410003    460.80922  0.023400834  0.023077148            2 
 1642000   0.94433368    -7.743574    460.01586  0.023346318  0.023071321            6 
 1643000   0.97177804   -7.7044495    460.15934  0.023339386  0.023065511            2 
 1644000   0.98478949   -7.7421565     458.6294  0.023247638  0.023059709            1 
 1645000   0.97846368   -7.7820696    459.69019  0.023287244  0.023053814            1 
 1646000    1.0089467    -7.783501    460.08838  0.023293255  0.023048006            2 
 1647000   0.99651068   -7.7512926    460.56365   0.02330316  0.023042264            1 
 1648000   0.98087557   -7.7249318    460.95358  0.023308737  0.023036668            1 
 1649000   0.99945375   -7.7352628    461.23176   0.02330866  0.023030987            3 
 1650000    0.9906987   -7.7405985     461.2406   0.02329498  0.023025278            1 
 1651000   0.99684547    -7.745466    461.93726  0.023316034  0.023019487            1 
 1652000   0.99537137   -7.7504687    461.39658  0.023274646  0.023013713            1 
 1653000   0.98853176   -7.7664805    460.78202  0.023229584  0.023007955           11 
 1654000    1.0064053   -7.7394644    461.42064  0.023247715  0.023002159            2 
 1655000   0.97883455   -7.7740255    462.18637  0.023272224  0.022996441            2 
 1656000   0.99033293   -7.7799485    462.56718  0.023277334  0.022990655            4 
 1657000   0.98302403   -7.8230011    460.19201  0.023143835  0.022984883            4 
 1658000    1.0038927    -7.751109    461.17843  0.023179455  0.022979088            1 
 1659000   0.98198171   -7.7628524    462.51863  0.023232802  0.022973374            2 
 1660000   0.98170765    -7.748211    463.72838  0.023279537  0.022967661            3 
 1661000   0.98667265   -7.7605255    462.68265  0.023213057  0.022961911            2 
 1662000   0.99467072   -7.8053333    462.70669  0.023200295  0.022956145            3 
 1663000   0.99888185   -7.7740649    461.92722  0.023147285  0.022950346            3 
 1664000   0.99163255   -7.7313705    463.91432  0.023232889  0.022944553            2 
 1665000   0.97650038   -7.7567607    463.67265  0.023206839  0.022938857            2 
 1666000   0.97597438   -7.7498812    463.36845  0.023177694  0.022933152            1 
 1667000   0.97695943   -7.7415359    463.18879  0.023154808  0.022927423            2 
 1668000   0.98134487    -7.744816    464.97735  0.023230283  0.022921778            2 
 1669000   0.97102232    -7.742731    464.64206  0.023199624   0.02291609            4 
 1670000   0.99309855   -7.7199177    465.46462  0.023226778  0.022910409            2 
 1671000   0.95057963    -7.777584    464.47751   0.02316365  0.022904715            2 
 1672000    0.9905018   -7.7173691    465.13979  0.023182805  0.022899021            2 
 1673000    1.0054091   -7.7366943    465.25321  0.023174597  0.022893373            1 
 1674000   0.96975034   -7.7947563    464.77531  0.023136963  0.022887709            1 
 1675000     0.986177    -7.767398    465.16114  0.023142345  0.022882037       -1e+20 
 1676000   0.97481945   -7.7603742    465.86091  0.023163331  0.022876368            2 
 1677000   0.97963881   -7.7403987    465.37548  0.023125396  0.022870713            2 
 1678000   0.97660759   -7.7276796    465.73634  0.023129536   0.02286509            3 
 1679000   0.99488517   -7.7337287    465.85005  0.023121404  0.022859526            3 
 1680000   0.98238574   -7.7702779    466.24757  0.023127359  0.022853927            7 
 1681000   0.96989106   -7.7675198     466.2659   0.02311451  0.022848241            3 
 1682000   0.99480829   -7.8157882    465.48896  0.023062275  0.022842514            3 
 1683000   0.96332432    -7.782349      466.818  0.023114379  0.022836799            2 
 1684000   0.96451333   -7.7993788    465.99509  0.023059931  0.022830992            1 
 1685000   0.97078627   -7.8001427    465.90777  0.023041927  0.022825129            1 
 1686000   0.98354401   -7.7807992    466.38796  0.023051995  0.022819323            8 
 1687000    0.9859655   -7.7776592     466.1445  0.023026304  0.022813456            2 
 1688000   0.96530319   -7.7402046    467.50022  0.023079592   0.02280769            2 
 1689000   0.97137918   -7.7430116    467.31753  0.023056914  0.022801922            4 
 1690000   0.97950086   -7.7426203    467.17216  0.023036103  0.022796098            1 
 1691000   0.98789116   -7.7829821    467.32801   0.02303016  0.022790197            3 
 1692000   0.97766781   -7.7526116    466.59335  0.022980366  0.022784308            2 
 1693000   0.98143641   -7.7605655    468.08059  0.023039998  0.022778432            4 
 1694000     1.010384   -7.7867997    466.17156  0.022932485  0.022772495            2 
 1695000   0.98300844   -7.7473039    467.12509  0.022965835  0.022766523            3 
 1696000   0.97858779   -7.7718483    467.88525  0.022989645  0.022760689            5 
 1697000   0.98048708   -7.7754884    466.41372  0.022903836   0.02275472            2 
 1698000   0.97158043   -7.7929552    468.34586  0.022985172   0.02274881            3 
 1699000   0.98853327   -7.7759615    468.14348  0.022961717  0.022742934            2 
 1700000   0.97815895   -7.7775281    468.18435  0.022950213  0.022737028            4 
 1701000   0.98818121   -7.7842431    466.99561  0.022878484  0.022731075            2 
 1702000   0.97706575   -7.7670077    468.14277  0.022921209  0.022725062            2 
 1703000   0.98566831   -7.7894445     468.2342  0.022912224  0.022719151            2 
 1704000    1.0011857   -7.7590497    469.29428   0.02295062  0.022713177            3 
 1705000   0.97755993   -7.8136697    468.06221  0.022876941  0.022707212            3 
 1706000    1.0116706   -7.7567455    469.90384   0.02295349  0.022701289            4 
 1707000   0.98326417   -7.7362068    469.53648  0.022922109  0.022695378            3 
 1708000   0.99931159   -7.7470283    469.46298  0.022905102  0.022689439            1 
 1709000   0.97604283    -7.794749    468.67176  0.022853119  0.022683494            3 
 1710000   0.96599703   -7.7863225    468.61996   0.02283723  0.022677473            4 
 1711000   0.98855436   -7.8086408    468.12223  0.022799641  0.022671404            2 
 1712000   0.95991991   -7.7901312    468.52877  0.022806112  0.022665315            1 
 1713000    0.9630342   -7.7769458    468.52786  0.022792755  0.022659277            3 
 1714000    0.9665515     -7.79728    468.27982  0.022767397  0.022653242            2 
 1715000   0.98417807   -7.7622327    468.99045  0.022788652  0.022647244            1 
 1716000    1.0032184   -7.7817691    469.16277   0.02278374  0.022641143            1 
 1717000   0.97917876   -7.7875729    468.97201  0.022761212  0.022634978            2 
 1718000   0.97507403   -7.8017864    469.91641  0.022793772  0.022628891            3 
 1719000   0.97433864   -7.7631148    470.10885  0.022789841  0.022622693            3 
 1720000     0.979443   -7.7835102     469.2384  0.022734419  0.022616457            1 
 1721000   0.98273023   -7.7858446    470.15335  0.022765512  0.022610355            3 
 1722000   0.97210153   -7.7988258    469.85488  0.022737847  0.022604301            3 
 1723000   0.97992061   -7.7892556    470.16327  0.022739566  0.022598206            3 
 1724000   0.96370054   -7.7647771    470.99524  0.022766591  0.022592136            2 
 1725000   0.97728564    -7.794707    471.19203    0.0227629  0.022586081            3 
 1726000   0.98624832   -7.7909838     470.7719  0.022729427   0.02257995            2 
 1727000   0.97548911   -7.7699818    471.56569  0.022754569  0.022573821            1 
 1728000   0.96884598   -7.7448584    471.19436  0.022723494  0.022567792            4 
 1729000   0.97433584   -7.7557738    472.08291  0.022753177   0.02256179            5 
 1730000   0.97752595   -7.7495064    472.81332  0.022775208  0.022555728            2 
 1731000   0.99606922   -7.7825841    472.35861   0.02274016  0.022549729            2 
 1732000   0.96202162   -7.7410016    473.19763    0.0227674  0.022543645            2 
 1733000   0.95621022   -7.8110794    470.28664  0.022614283  0.022537451            2 
 1734000   0.97094952   -7.8056468    471.77978     0.022673  0.022531298            1 
 1735000   0.98159165   -7.7526068    473.92247  0.022762847  0.022525225            2 
 1736000   0.97339435   -7.7351702    471.60834  0.022638649  0.022519129            3 
 1737000   0.97673048   -7.7873734    471.75913   0.02263285  0.022513073            2 
 1738000   0.98182352   -7.7782309    472.55138  0.022657814  0.022507081            3 
 1739000   0.97319297   -7.7630722    473.98573   0.02271352  0.022501103            1 
 1740000   0.99184922   -7.7360898    473.21954  0.022663771  0.022495068            3 
 1741000   0.98038438   -7.7710903    473.38693  0.022658766  0.022489097            3 
 1742000   0.98506844   -7.7951774    473.29742  0.022641476  0.022483164            2 
 1743000   0.98179866   -7.7739749    474.09013  0.022666386  0.022477184            2 
 1744000   0.94564784   -7.7846289    474.89795  0.022691989   0.02247127            1 
 1745000   0.96789101   -7.8278099    473.73425  0.022623412   0.02246524            2 
 1746000   0.99529142   -7.8027969    473.91707  0.022619181  0.022459141            3 
 1747000   0.98223889   -7.8339137    474.19312  0.022619401  0.022453041            2 
 1748000   0.95741609    -7.814186    474.67245  0.022629312   0.02244696            3 
 1749000   0.97462972   -7.8311888    474.12353   0.02259022   0.02244095            5 
 1750000   0.96953434   -7.7672418    475.08929    0.0226233  0.022434872            2 
 1751000   0.96038039   -7.7964305      474.595  0.022586855  0.022428777            5 
 1752000   0.95843695   -7.8376154    474.68699  0.022578339  0.022422694            3 
 1753000    0.9508219   -7.7858277    475.72756  0.022614925  0.022416645            2 
 1754000   0.98637302   -7.7943231    474.41214  0.022539536  0.022410675            3 
 1755000   0.96578803   -7.7602149    476.81771  0.022640917  0.022404674            1 
 1756000   0.96089115    -7.812504    474.71928   0.02252844  0.022398649            2 
 1757000   0.96281677   -7.7654434    476.99843  0.022623716  0.022392603            3 
 1758000   0.98207837   -7.7858424    475.51368  0.022540466  0.022386561            1 
 1759000   0.96662967   -7.7821152    476.79073  0.022588153  0.022380509            3 
 1760000   0.96004351   -7.8179176    476.20041  0.022547368  0.022374504            3 
 1761000   0.97314565   -7.8253309    474.54506   0.02245623  0.022368419            4 
 1762000   0.97803632   -7.7914565    477.53292  0.022584796   0.02236245            3 
 1763000   0.95888173   -7.8361357    475.25714  0.022464414  0.022356369            5 
 1764000   0.96804948   -7.8351486    475.25634  0.022451641  0.022350239            4 
 1765000   0.96306642   -7.8583734    474.51402  0.022403873  0.022344023            2 
 1766000   0.93328264   -7.7953652    475.23732  0.022425317  0.022337784            2 
 1767000    0.9763421   -7.7943102    476.72729  0.022482894  0.022331656            2 
 1768000   0.98679448   -7.8311112    475.63864  0.022418865   0.02232543            3 
 1769000   0.96864978   -7.7751884    477.88991  0.022512244  0.022319302            2 
 1770000   0.96937888   -7.7637644    477.53119  0.022482636  0.022313202            2 
 1771000   0.97163949   -7.8018433    476.17304  0.022406034   0.02230699            2 
 1772000   0.97263148   -7.8125401    475.75592  0.022373774  0.022300793            3 
 1773000   0.97714937   -7.7590313    477.27072  0.022432352  0.022294581            4 
 1774000   0.96580071   -7.7610876    476.44867  0.022381091   0.02228834            2 
 1775000   0.97221472   -7.8074416     475.9412  0.022344657  0.022282045            1 
 1776000   0.97005708   -7.8073814    477.09551  0.022386238  0.022275804            3 
 1777000   0.97732901   -7.7792055    477.56318  0.022395572  0.022269571            2 
 1778000   0.96104485   -7.7983163    477.85566  0.022396685  0.022263277            4 
 1779000   0.96615688   -7.7974304    476.69437  0.022329697  0.022257007            3 
 1780000    0.9643765   -7.8162044    477.47879  0.022353876  0.022250746            2 
 1781000   0.94438835   -7.8158231    477.50246  0.022342432  0.022244462            3 
 1782000   0.98242746   -7.8317969    476.20838  0.022269378  0.022238127            1 
 1783000   0.96986111   -7.8103808    478.93585  0.022384364  0.022231691            2 
 1784000   0.95729262   -7.8220357    476.66517   0.02226575  0.022225316            2 
 1785000   0.97725843   -7.8373315    476.66904  0.022253457  0.022218937            2 
 1786000   0.98051608   -7.8236492    478.59204  0.022330723  0.022212605            1 
 1787000   0.97424025   -7.8276034    478.11949   0.02229619  0.022206224            2 
 1788000   0.99064422   -7.7954044    477.96058  0.022276313  0.022199828            3 
 1789000   0.95267308   -7.7966433    478.78522  0.022302274  0.022193438            1 
 1790000   0.97240443    -7.843528    477.59917  0.022234598  0.022186979            3 
 1791000   0.95691382   -7.8592258    475.99626  0.022147602  0.022180488            2 
 1792000   0.96390786    -7.841731    478.09603  0.022232888  0.022174029            2 
 1793000    0.9691202   -7.7786456    478.31907  0.022230855  0.022167659            3 
 1794000   0.95323406    -7.798501     478.3254  0.022218757  0.022161361            2 
 1795000   0.96748939    -7.807446    478.92201  0.022234076  0.022154971            1 
 1796000    0.9580195   -7.8547367    477.42054  0.022152029  0.022148479            1 
 1797000   0.98607677   -7.8081178    479.64147  0.022242695  0.022141982            2 
 1798000   0.95504746    -7.855009    478.19703  0.022163378  0.022135572            1 
 1799000   0.96597881    -7.786345    480.07435  0.022238019  0.022129174            1 
 1800000   0.97992821   -7.8143693    479.64566  0.022205817  0.022122871            2 
 1801000   0.96335059   -7.8103052    479.84186  0.022202566  0.022116541            1 
 1802000   0.96041651   -7.7956914    480.87242  0.022237903  0.022110261            2 
 1803000   0.94805334   -7.8520766    478.48965   0.02211544  0.022103911            7 
 1804000   0.96667699    -7.794098    479.72582  0.022160283  0.022097493            1 
 1805000   0.96938303    -7.814531    480.33151   0.02217597  0.022091185            2 
 1806000   0.95649653   -7.8042171    481.43038  0.022214395   0.02208483            3 
 1807000   0.95209876   -7.7871598    480.71202  0.022168973   0.02207846            2 
 1808000    0.9842182   -7.8541473    479.17199  0.022085729  0.022072032            4 
 1809000      0.97404   -7.8191825    480.78155  0.022147667   0.02206562            5 
 1810000   0.96149452    -7.831052    480.58669  0.022126459  0.022059145            4 
 1811000   0.95502094   -7.8078791    480.02413  0.022088355  0.022052663            2 
 1812000   0.96473327   -7.8253196    480.17943  0.022083307  0.022046216            3 
 1813000   0.96666437   -7.8236317    481.24673  0.022120184   0.02203976            3 
 1814000   0.96443855   -7.7930926    480.63042  0.022079677  0.022033332            3 
 1815000    0.9452096   -7.8437799     480.8706   0.02207854  0.022026877            4 
 1816000    0.9674458   -7.8295925    480.28797  0.022039646  0.022020354            2 
 1817000   0.95372228    -7.812141    480.54224  0.022039178   0.02201391            2 
 1818000   0.94815544   -7.7874655    481.71962  0.022081024  0.022007406            1 
 1819000   0.95601853   -7.8230391    481.03314  0.022037436  0.022000962            1 
 1820000   0.97447805   -7.8182168    480.57629  0.022004409    0.0219945            2 
 1821000   0.96703649   -7.8606471    480.34726  0.021981844  0.021987972            7 
 1822000   0.96837634   -7.8073535    482.05463   0.02204787  0.021981372            2 
 1823000   0.96823219   -7.8377621    481.55138  0.022012771   0.02197485            2 
 1824000   0.96247941   -7.8050403    480.62489  0.021958374  0.021968344            2 
 1825000   0.95115685   -7.8225128    480.23031  0.021928325  0.021961764            4 
 1826000   0.95474972   -7.8420034    480.02791  0.021907079  0.021955137            2 
 1827000   0.95650754   -7.8517453     480.4592   0.02191476  0.021948516            1 
 1828000   0.95985343   -7.7840604    481.85615  0.021966455  0.021941943            5 
 1829000    0.9629717   -7.8511861    481.84118  0.021953763  0.021935364            2 
 1830000   0.97581138   -7.8121055    482.43235  0.021968686  0.021928805            2 
 1831000   0.94832787   -7.8310701      481.236  0.021902239  0.021922269            1 
 1832000   0.97127802   -7.8391219    481.54186  0.021904196  0.021915731            2 
 1833000   0.97111054   -7.8099727    482.32909  0.021928036  0.021909161            4 
 1834000   0.93918247   -7.8234287    483.72131   0.02197934   0.02190265            2 
 1835000    0.9565401   -7.8011421    483.47426  0.021956142  0.021896205            2 
 1836000   0.97531166   -7.8217038    483.18016  0.021930835  0.021889663            9 
 1837000   0.94966958   -7.8030097    482.59002  0.021892126   0.02188311            2 
 1838000   0.92913969    -7.854751     482.4757  0.021875032   0.02187653            1 
 1839000   0.96801974   -7.8559043    482.59755  0.021868658  0.021869943            3 
 1840000   0.96391122   -7.8408459    482.57158  0.021855597  0.021863273            5 
 1841000   0.94248178   -7.8320201    483.23585  0.021873794  0.021856669            2 
 1842000   0.94664052   -7.8506563     482.5933  0.021832849  0.021850044            2 
 1843000   0.95297125   -7.8657266    482.88945  0.021834394  0.021843357            3 
 1844000    0.9715737   -7.7845472     485.4289  0.021937315  0.021836791            2 
 1845000   0.97499293   -7.8506709    484.32521  0.021875574  0.021830233            1 
 1846000   0.94200402   -7.7948719    483.94926  0.021846752  0.021823712            2 
 1847000    0.9613727   -7.8119783    484.29766  0.021850643  0.021817167            2 
 1848000   0.95869983   -7.8177586    484.24552  0.021836468  0.021810565            3 
 1849000   0.94618561   -7.8227392    484.91509  0.021854836  0.021803956            1 
 1850000   0.96326388   -7.8045926     484.0759  0.021805221  0.021797388            3 
 1851000   0.95662489   -7.8646068    483.96721  0.021788547  0.021790848            1 
 1852000   0.94898764   -7.8605441    483.46101  0.021754005  0.021784269            2 
 1853000   0.96811756   -7.8101277    484.45031  0.021786756  0.021777652            2 
 1854000   0.95096771   -7.8273251    484.52013  0.021778143  0.021771158            2 
 1855000   0.94409661   -7.8290316    484.60936  0.021770412  0.021764541            3 
 1856000   0.95766689   -7.8359361    483.88815    0.0217263  0.021757895            1 
 1857000   0.91006551   -7.8568189    485.54252  0.021788841  0.021751324            5 
 1858000   0.95372857   -7.8699323    485.40161  0.021770794  0.021744695            2 
 1859000    0.9409573   -7.8294696    485.48414  0.021762782  0.021738102            2 
 1860000   0.93964428   -7.8545612    485.96036  0.021772417  0.021731471            3 
 1861000   0.96571775   -7.8688771    484.39646  0.021690689  0.021724839            1 
 1862000    0.9694879   -7.8518339    485.20616  0.021715278  0.021718241            1 
 1863000   0.95256206   -7.8510143    484.98851  0.021693886  0.021711685            2 
 1864000   0.93570258   -7.8335032    486.82787  0.021764479  0.021705193            1 
 1865000   0.92956089   -7.8335169    486.96321  0.021758857  0.021698698            2 
 1866000   0.94442324   -7.8096417     487.2761  0.021761169  0.021692142            2 
 1867000   0.94562829   -7.8719599    485.70226  0.021679265  0.021685616            2 
 1868000    0.9563405    -7.889083    486.08231  0.021684614   0.02167903            5 
 1869000   0.94911701   -7.8471558     486.1304  0.021675156  0.021672439            4 
 1870000   0.93866826   -7.8255174    487.55356  0.021726986  0.021665933            1 
 1871000   0.95392753   -7.8265879    486.14661  0.021652709  0.021659392           10 
 1872000   0.95213819   -7.8355448    486.61298  0.021661903  0.021652858            6 
 1873000   0.98287948   -7.8602901    486.48085  0.021644459  0.021646311            3 
 1874000   0.95124065   -7.8213534    488.31344  0.021714401  0.021639808            2 
 1875000   0.96756181    -7.853935    488.28943  0.021701753  0.021633324            1 
 1876000   0.95428437   -7.8313222    488.55835   0.02170213  0.021626836            5 
 1877000   0.97222515   -7.8708574    487.91763  0.021662122   0.02162033            5 
 1878000   0.93134742    -7.878051    487.32112  0.021624118  0.021613803            2 
 1879000   0.95061804    -7.839328    487.90249  0.021638393  0.021607258            5 
 1880000   0.94936522   -7.8335321    488.11576  0.021636337  0.021600801            2 
 1881000    0.9688315   -7.8436601    488.37052  0.021636121  0.021594362            3 
 1882000   0.92952514   -7.8016982     489.9201  0.021693239   0.02158801            2 
 1883000   0.95048536   -7.8100647    489.81551  0.021677089  0.021581583            2 
 1884000   0.94688818   -7.8443154    489.95133  0.021671591  0.021575098            1 
 1885000   0.97098037   -7.8465713    489.68462  0.021648303  0.021568682            1 
 1886000   0.95511621   -7.8430297    489.22829  0.021616662  0.021562274            2 
 1887000   0.94260074   -7.8813099    487.70385  0.021537884   0.02155572            3 
 1888000   0.95882392    -7.843971    489.96618  0.021626332  0.021549267            1 
 1889000   0.92473357   -7.8440342    491.02855   0.02166175  0.021542806            4 
 1890000   0.97219365   -7.8409159    490.32214  0.021619142  0.021536356            2 
 1891000   0.93245993   -7.8348298    488.32443  0.021519674  0.021529858            3 
 1892000    0.9699608   -7.8193859    489.85335  0.021575641  0.021523445            1 
 1893000   0.92501402    -7.870956    489.59377  0.021552816  0.021516998            2 
 1894000   0.94787499   -7.8590983    490.17844  0.021567161  0.021510574            2 
 1895000   0.95436549   -7.8739837    488.52793  0.021483198  0.021504104            3 
 1896000   0.95082094   -7.8293363    490.33963  0.021551496  0.021497626            3 
 1897000   0.95593261   -7.8371657     490.9738  0.021567993  0.021491149            2 
 1898000   0.94657128   -7.8608222     490.3758  0.021530374  0.021484711            1 
 1899000   0.94288737   -7.8424752    491.74743  0.021579227   0.02147829            2 
 1900000   0.92733044   -7.8192529    491.24009  0.021545618  0.021471892            2 
 1901000   0.94931785   -7.8159696    492.69948  0.021598259  0.021465488            5 
 1902000   0.93111795   -7.8138968    492.51419  0.021578785  0.021459197            3 
 1903000   0.94248963   -7.8753091    491.69406  0.021531532  0.021452826            2 
 1904000   0.91393655   -7.8399682    490.56002  0.021470589  0.021446408            2 
 1905000   0.93435832   -7.8557381    491.13153  0.021484319  0.021439979            2 
 1906000   0.93106049   -7.8502561    491.10399  0.021471843  0.021433551            3 
 1907000   0.95387074   -7.8455204    490.58193   0.02143777  0.021427137            2 
 1908000   0.96522091   -7.8357481    492.36748   0.02150452  0.021420826            2 
 1909000   0.95422676   -7.8608657    492.66363  0.021506183  0.021414475            3 
 1910000   0.94025434   -7.8544411     492.2386  0.021476379  0.021408088            1 
 1911000   0.93904073   -7.8885364    492.33811   0.02146948  0.021401674            2 
 1912000   0.94552592   -7.8455845    493.64884  0.021515378  0.021395258            2 
 1913000    0.9375316   -7.8642751    491.60714  0.021415192  0.021388925            2 
 1914000   0.94152141   -7.8478973     493.4476  0.021484134  0.021382618            2 
 1915000   0.93069082   -7.8501809    493.64159  0.021481357  0.021376282            1 
 1916000    0.9341387   -7.8702618    492.88345  0.021437171   0.02136989            3 
 1917000   0.93775884   -7.8729623    494.16771  0.021481817  0.021363439            2 
 1918000    0.9571305   -7.8711528    493.74137  0.021452093   0.02135705            1 
 1919000    0.9486031   -7.8788977    492.86334  0.021402785  0.021350661            4 
 1920000   0.95941195   -7.8871236    492.28534  0.021366551  0.021344229            3 
 1921000   0.94242293   -7.8560759    493.92127  0.021426396   0.02133781            3 
 1922000   0.91874122   -7.8735672    493.09558  0.021379448   0.02133137            2 
 1923000   0.93572381   -7.8800402    494.54305  0.021431056  0.021324951            2 
 1924000   0.92771722   -7.8787464    493.92842  0.021393296  0.021318571            3 
 1925000    0.9450993   -7.8811893    492.67767  0.021328038  0.021312135            2 
 1926000   0.93859595   -7.8408878    494.60255  0.021400249  0.021305743            3 
 1927000   0.94345433   -7.8805523    493.67887  0.021349199  0.021299382            8 
 1928000   0.93530649   -7.8429902    494.49524  0.021373411   0.02129298            2 
 1929000   0.94299588   -7.8921294    494.53532  0.021364063  0.021286666            1 
 1930000   0.93350141   -7.8838627    493.81192  0.021321758  0.021280275            1 
 1931000   0.93582034   -7.9020025    494.39638  0.021335939  0.021273926            2 
 1932000   0.95236818   -7.8155753    496.92226  0.021433845  0.021267659            3 
 1933000   0.94099959   -7.8600358    497.41545  0.021444019  0.021261337            2 
 1934000   0.92765175   -7.8586277      496.467  0.021392063  0.021255007            3 
 1935000    0.9370966   -7.9277337    495.18441  0.021325771  0.021248654            1 
 1936000   0.96427589   -7.8816098    496.29095  0.021362386   0.02124226            2 
 1937000   0.93262835   -7.9123507    495.25993  0.021307001  0.021235807            1 
 1938000   0.93808467   -7.8728858    495.75317  0.021317216  0.021229404            4 
 1939000   0.95599047   -7.8945972    494.86477  0.021268041  0.021222942            3 
 1940000   0.92436133    -7.867205    496.02053  0.021306724  0.021216477            1 
 1941000   0.95225348   -7.8747238    495.47779  0.021272445  0.021210105            2 
 1942000   0.94453727   -7.8243185    497.20662  0.021335677  0.021203766            2 
 1943000   0.93264568   -7.8458242    497.55537  0.021339654  0.021197457            1 
 1944000   0.95976078   -7.8881639    496.05741  0.021264464  0.021191057            2 
 1945000   0.92357588    -7.834255    497.79603  0.021328022  0.021184677            3 
 1946000   0.92429815   -7.8565988    497.22192  0.021292477  0.021178373            2 
 1947000   0.92309162   -7.8821733    496.59981  0.021254914   0.02117214            1 
 1948000   0.92911183   -7.9031414    495.17746  0.021183156  0.021165819            1 
 1949000   0.93897254   -7.8613151     496.8489  0.021243753  0.021159404            5 
 1950000   0.91626449   -7.8758009    496.58976  0.021221785  0.021152994            4 
 1951000   0.95494181   -7.9265708    495.38168  0.021159306  0.021146631            2 
 1952000   0.94638348   -7.8822269    495.39566  0.021149063  0.021140137            1 
 1953000   0.95674035   -7.9084975    496.77567  0.021197118   0.02113372            1 
 1954000   0.92116028   -7.8507847    496.13575  0.021158979  0.021127251            3 
 1955000   0.93554786   -7.8751975    496.20599   0.02115115  0.021120808            2 
 1956000    0.9190434   -7.8572087    497.23307  0.021184095  0.021114369            2 
 1957000   0.93812511   -7.8561931    496.19375  0.021129013  0.021107905            1 
 1958000   0.94422324   -7.9407829     494.2167  0.021034078  0.021101336            2 
 1959000   0.93624017   -7.8806219    495.23903   0.02106683  0.021094741            1 
 1960000   0.93602639   -7.8924985    495.62202  0.021072365  0.021088183            3 
 1961000   0.93051091   -7.8768842    497.80085  0.021154209  0.021081664            2 
 1962000   0.92523429   -7.8867981    496.03977  0.021068628  0.021075165            5 
 1963000    0.9525481   -7.9045199    496.47652  0.021076436  0.021068624            6 
 1964000   0.93603882   -7.9198174    495.15651  0.021009696  0.021062104            1 
 1965000   0.94518183   -7.8957429    496.83281  0.021070094  0.021055571            3 
 1966000   0.93645421   -7.9266164    496.34793  0.021038824  0.021049039            2 
 1967000    0.9272134   -7.8440908     498.1039  0.021102521  0.021042604            2 
 1968000   0.93419921   -7.8694952    499.83786  0.021165221  0.021036229            2 
 1969000   0.94645689   -7.8580378    499.87779  0.021156162  0.021029831            1 
 1970000   0.95867526   -7.8618924    498.77001  0.021098562  0.021023498            3 
 1971000   0.93855384   -7.8925129     496.7671  0.021003175  0.021017069            2 
 1972000   0.93355154   -7.8654948    498.60863  0.021070345  0.021010673            3 
 1973000   0.93420489   -7.8808715    499.68965  0.021105324  0.021004258            3 
 1974000   0.93783755   -7.9099135    497.29322  0.020993466  0.020997845            5 
 1975000   0.92539373   -7.8971145     500.5672  0.021120979   0.02099133            2 
 1976000   0.91615524   -7.8934006    498.64266  0.021029127  0.020984872            2 
 1977000     0.937491    -7.880086    500.37961  0.021091705  0.020978512            2 
 1978000   0.91708229   -7.9093701    498.06603  0.020983571   0.02097209            3 
 1979000   0.93957505   -7.8930601    499.66449  0.021040277  0.020965625            2 
 1980000    0.9375007   -7.8736425    499.78773  0.021034837  0.020959198            1 
 1981000   0.92931787   -7.9101028    497.56194  0.020930588  0.020952739            2 
 1982000   0.93102351   -7.8686239    499.51211  0.021002023  0.020946295            1 
 1983000   0.92707295   -7.8726894    499.63104   0.02099643   0.02093998            4 
 1984000   0.93279653   -7.8981012     500.2002  0.021009753  0.020933585            4 
 1985000   0.92001447   -7.8897826    500.45105    0.0210097  0.020927253            2 
 1986000   0.93282543   -7.8726969    501.09889  0.021026304  0.020920924            3 
 1987000    0.9380813   -7.8723135    500.36892  0.020985108  0.020914564            2 
 1988000   0.93848968   -7.9052942    501.03323  0.021002399  0.020908176            5 
 1989000    0.9330324   -7.9180207     500.0903  0.020952334  0.020901818            1 
 1990000    0.9424543    -7.918702    501.52249  0.021001779  0.020895457            3 
 1991000    0.9001512   -7.8773844    501.79666  0.021002706  0.020889123            2 
 1992000   0.91775839   -7.9046447     500.3336  0.020930957  0.020882794            2 
 1993000   0.92045639   -7.8710397    501.43663  0.020966576  0.020876495            1 
 1994000   0.93072098   -7.9148751    502.01342  0.020980167  0.020870129            1 
 1995000   0.89468117   -7.8960698    501.71846  0.020957329  0.020863796            1 
 1996000   0.94589045   -7.9193958    500.62989  0.020901382  0.020857427            1 
 1997000   0.93389034   -7.9023622    501.64737  0.020933374  0.020851102            2 
 1998000   0.92671154   -7.9068603    501.74908  0.020927139  0.020844785            1 
 1999000   0.92462957    -7.913688    501.78799  0.020918292  0.020838457            1 
 2000000   0.93153474   -7.9074483    501.85764  0.020910735  0.020832079            2 
 2001000   0.94922186   -7.9142283    501.23852  0.020874501   0.02082568            2 
 2002000   0.91879983   -7.9295657    501.82728  0.020888581  0.020819291            3 
 2003000     0.931698   -7.8704321    502.18165  0.020892896    0.0208129            1 
 2004000   0.93634904   -7.9108985    502.44665   0.02089349  0.020806606            1 
 2005000   0.92220734   -7.8620089    503.18984  0.020913958   0.02080031            3 
 2006000   0.93680779   -7.8638221    502.66806  0.020881857  0.020794034            3 
 2007000    0.9354588    -7.888726    501.43173  0.020820118   0.02078769            2 
 2008000   0.92008948   -7.8849457    501.78478  0.020824402  0.020781377            2 
 2009000   0.91590204   -7.9109042    502.48018  0.020842881  0.020775019            1 
 2010000   0.90553658   -7.9132107    503.92498  0.020892412  0.020768738            4 
 2011000   0.94053495    -7.896668    503.55775  0.020866805  0.020762419            4 
 2012000   0.93810666   -7.8776007    503.81455   0.02086707   0.02075614            4 
 2013000   0.93008016   -7.9214755    504.30527  0.020877019  0.020749828            3 
 2014000   0.91127973   -7.8876304    504.08107  0.020857376  0.020743519            5 
 2015000   0.95524957   -7.9267814    503.23001  0.020811828  0.020737162            2 
 2016000   0.93445745   -7.8828233    504.99871  0.020874616  0.020730897            2 
 2017000   0.93782265      -7.8927    503.97485  0.020821965  0.020724602            3 
 2018000   0.91475514   -7.8902755    502.95571  0.020769562  0.020718314            2 
 2019000   0.90473363   -7.9354873    502.89758  0.020756876  0.020711922            1 
 2020000   0.93288019   -7.9598687    502.39674  0.020725938   0.02070548            2 
 2021000   0.95684876   -7.9018129    504.37822  0.020797386  0.020699159            2 
 2022000   0.92636135   -7.9457548     503.9977  0.020771419  0.020692781            7 
 2023000   0.92069941   -7.9243776     503.2974  0.020732303  0.020686478            3 
 2024000   0.93084912   -7.9211359    504.51856  0.020772339  0.020680108            7 
 2025000    0.9471877   -7.9266226    505.10279  0.020786123  0.020673754            1 
 2026000   0.94616165   -7.9270155    504.34616  0.020744742  0.020667367            2 
 2027000   0.93880416    -7.908699    504.66322  0.020747542   0.02066102            1 
 2028000   0.91707565    -7.926398    503.34325  0.020683072  0.020654632            1 
 2029000   0.90952735   -7.9116169    505.07899  0.020744167  0.020648271            3 
 2030000   0.94519112   -7.9274535    505.48616  0.020750664  0.020641996            3 
 2031000   0.95021841    -7.904017    505.59766  0.020745021   0.02063575            5 
 2032000   0.92767486   -7.8912391    505.53919  0.020732414  0.020629474            3 
 2033000   0.92053458   -7.8843442    506.05736  0.020743456  0.020623213            4 
 2034000   0.93037618   -7.8807718    504.75462  0.020679884  0.020616975            6 
 2035000   0.91426532   -7.8991811     506.2534  0.020731098  0.020610642            3 
 2036000   0.92845436   -7.9094178    505.89808  0.020706372  0.020604318            2 
 2037000   0.91924773   -7.9210994    506.43279  0.020718082  0.020598021            1 
 2038000   0.92239198   -7.9435449    505.19118  0.020657147  0.020591745            4 
 2039000   0.92475951   -7.9702624    504.06229  0.020600878  0.020585381            4 
 2040000   0.93100181    -7.907479    505.56304  0.020652085  0.020579022            3 
 2041000   0.94392484   -7.9221118    507.35381  0.020715083  0.020572753            3 
 2042000   0.94364742    -7.876589    506.30889  0.020662295  0.020566459            3 
 2043000   0.92244301   -7.9042648    506.51851  0.020660732   0.02056019            2 
 2044000   0.95415355   -7.9238083    505.52564  0.020610145  0.020553898            2 
 2045000   0.93032582   -7.8899553    506.83294  0.020653339  0.020547631            7 
 2046000   0.93365553   -7.9296145    506.93671  0.020647471   0.02054129            3 
 2047000   0.89825614   -7.9241943    507.59621  0.020664232  0.020534997            4 
 2048000   0.93600786   -7.9364122     505.9251  0.020586145  0.020528695            3 
 2049000   0.91173799   -7.9521349    505.22319  0.020547551  0.020522371            1 
 2050000   0.90597003   -7.9287396    506.68157  0.020596812  0.020516024            1 
 2051000   0.91258831   -7.9636947    504.22907  0.020487123  0.020509683            2 
 2052000   0.91662485   -7.9149418    506.96557   0.02058827  0.020503347            1 
 2053000   0.91495148   -7.9230177    508.07412  0.020623239  0.020497022            2 
 2054000    0.9343901   -7.9209737    506.80597  0.020561748  0.020490742            3 
 2055000   0.90091696    -7.956546     507.6852  0.020587397  0.020484512            3 
 2056000   0.91378645   -7.9072656    509.74221  0.020660757  0.020478237            4 
 2057000   0.93216845    -7.938943    508.27171  0.020591141  0.020471972            3 
 2058000   0.92948445   -7.9297041    507.89186  0.020565754   0.02046571            3 
 2059000   0.93210206   -7.9061232    508.62549  0.020585458  0.020459403            3 
 2060000    0.9343693   -7.9467519    506.91584  0.020506304  0.020453131            3 
 2061000   0.91211083   -7.9205807    507.27085  0.020510709   0.02044676            3 
 2062000   0.92660465    -7.908893     507.1003  0.020493869   0.02044036            2 
 2063000      0.93696   -7.9103674    507.25597  0.020490224  0.020433978            3 
 2064000   0.92313814   -7.8983508    508.14068  0.020516016   0.02042762            3 
 2065000   0.91195927   -7.9233789    507.07454  0.020463056  0.020421307            5 
 2066000   0.91223988   -7.9211536    508.26495  0.020501168  0.020414943            3 
 2067000   0.92174937   -7.9316816    508.42922  0.020497872  0.020408642            3 
 2068000   0.93254358   -7.9183974    508.30514   0.02048296  0.020402293            2 
 2069000   0.90730378   -7.9129624    508.20922  0.020469197  0.020395928            2 
 2070000   0.91602809   -7.9250574    506.72326  0.020399487  0.020389539            3 
 2071000   0.90744515   -7.9362602    508.21608  0.020449706  0.020383148            3 
 2072000     0.908011   -7.9600756    508.22158  0.020440057  0.020376745            2 
 2073000   0.91444231   -7.9142117    510.19319  0.020509454  0.020370404            4 
 2074000   0.91883498   -7.9221256    509.73699  0.020481235  0.020364093            2 
 2075000   0.92558699   -7.9314467    508.43309  0.020418999  0.020357718            2 
 2076000   0.90151265   -7.9127778    509.72295   0.02046094  0.020351339            2 
 2077000   0.93409785   -7.9517934    509.10324  0.020426225  0.020344952            3 
 2078000    0.9289803   -7.8855213    511.22215  0.020501369  0.020338614            3 
 2079000   0.90558454   -7.9331323    509.47389  0.020421432  0.020332272            1 
 2080000   0.91928801   -7.9686262    507.83617     0.020346  0.020325907            9 
 2081000    0.9410335   -7.9441969    508.97411  0.020381792  0.020319523            5 
 2082000   0.90668501   -7.9189136    509.63217  0.020398342  0.020313178            2 
 2083000   0.87177031   -7.9055663    510.71348  0.020431808  0.020306834            2 
 2084000   0.92481748   -7.9153165    509.60131  0.020377531  0.020300494            3 
 2085000   0.92573794   -7.9234682    509.83949  0.020377278  0.020294162            3 
 2086000   0.90980004   -7.9458339     509.2287  0.020343109  0.020287857            4 
 2087000   0.90978951   -7.8875484    511.03262  0.020405391  0.020281575            4 
 2088000   0.93308256    -7.920894    509.58538  0.020337858  0.020275224            3 
 2089000   0.93601267    -7.938865    508.86673  0.020299454  0.020268897            4 
 2090000   0.90404663    -7.898068    510.34607  0.020348727  0.020262596            4 
 2091000   0.91157133   -7.9616024    510.07849  0.020328332   0.02025625            1 
 2092000   0.90695502   -7.9482958     510.3769  0.020330501  0.020249935            1 
 2093000   0.90676234   -7.9219143    511.42548  0.020362537  0.020243617            3 
 2094000   0.93289117   -7.9203706    511.99272  0.020375387  0.020237326            3 
 2095000   0.89795447   -7.9302888    510.75502  0.020316429  0.020231029            4 
 2096000   0.91511737   -7.9437428    511.98795  0.020355755   0.02022478            2 
 2097000   0.91516717    -7.976444    511.41415  0.020323245   0.02021844            2 
 2098000   0.90750998   -7.9712885    511.60687  0.020321213  0.020212168            2 
 2099000   0.92084899    -7.942754    511.75055  0.020317236  0.020205894            2 
 2100000   0.91385345   -7.9455824    511.30922  0.020290048  0.020199649            3 
 2101000   0.93435108   -7.9586281    512.01016  0.020308193   0.02019341            6 
 2102000   0.92478685   -7.9725901    510.85654  0.020252796  0.020187087            1 
 2103000   0.91280468   -7.9527887    511.01744  0.020249542  0.020180764            2 
 2104000   0.91074719   -7.9648525    512.46212  0.020297137  0.020174411            2 
 2105000   0.89311051   -7.9226967     512.7893  0.020300447  0.020168126            3 
 2106000   0.91126103   -7.9334413     512.6187  0.020284057  0.020161866            1 
 2107000   0.92609905   -7.9380772    512.72964  0.020278818  0.020155601            4 
 2108000   0.90581533   -7.9531149    512.40992  0.020256559  0.020149335            2 
 2109000   0.91559389   -7.9429629    513.50503  0.020290226   0.02014304            2 
 2110000   0.90540803   -7.9593527    513.00372  0.020260811  0.020136767            3 
 2111000   0.93576164   -7.9600293    512.94495  0.020248893    0.0201305            5 
 2112000   0.93017986    -7.925047     515.1511  0.020326353  0.020124245            2 
 2113000   0.93024049   -7.9253879    514.77115  0.020301749  0.020118058            3 
 2114000   0.91672487   -7.9499947    512.90884  0.020218734  0.020111823            7 
 2115000    0.9017267   -7.9234847    514.08561   0.02025554  0.020105547            4 
 2116000   0.92084767   -7.9595428    513.33356   0.02021635  0.020099266            4 
 2117000   0.91071554    -7.931586    514.26057  0.020243291  0.020092978            1 
 2118000    0.9153041    -7.980371    513.40486  0.020200065  0.020086715            3 
 2119000   0.91016826   -7.9289039    513.64507  0.020199979  0.020080466            3 
 2120000   0.93153168    -7.927985    514.55273  0.020226129  0.020074226            2 
 2121000   0.91325665   -7.9349556    513.60398  0.020179317  0.020068069            2 
 2122000   0.90067415   -7.9166031    514.94334  0.020222406  0.020061888            3 
 2123000   0.91511146   -7.9323447    514.49028  0.020195097  0.020055713            4 
 2124000   0.91255459   -7.9597014    515.59354  0.020228874  0.020049526            3 
 2125000    0.9106505   -7.9794708    512.20066    0.0200863  0.020043308            2 
 2126000   0.88590918   -7.9284764     515.3346  0.020199694   0.02003711            3 
 2127000   0.91924855   -7.9443651    513.91986   0.02013477  0.020030886            2 
 2128000   0.90831491   -7.9626611    515.02313  0.020168512  0.020024665            3 
 2129000   0.91707068   -7.9784981    512.78175  0.020071307  0.020018388            4 
 2130000   0.91819251   -7.9712583    514.97433  0.020147666  0.020012139            5 
 2131000   0.90362452   -7.9583192    515.09938  0.020143101  0.020005925            1 
 2132000   0.89879803   -7.9240016    515.19512  0.020137395  0.019999699            4 
 2133000   0.89138178   -7.9670964    515.22067  0.020128953  0.019993476            2 
 2134000   0.88712442   -7.9739359    516.48154  0.020168758  0.019987233            2 
 2135000   0.91985343   -7.9467235    516.01795  0.020141216  0.019981013            1 
 2136000   0.91506353   -7.9866797    515.01623  0.020092706  0.019974823            1 
 2137000    0.9261535   -7.9701598    514.68726  0.020070475   0.01996859            2 
 2138000   0.90959234   -7.9730572    515.07919  0.020076364  0.019962394            1 
 2139000   0.90010638   -7.9402027    514.76272  0.020054648  0.019956178            2 
 2140000   0.91579521   -7.9710736    515.76344  0.020084246    0.0199499            3 
 2141000   0.91709248   -7.9877127    515.29729  0.020056722  0.019943649            1 
 2142000   0.91872016   -8.0023244    515.11221  0.020040157  0.019937391            3 
 2143000   0.92127895   -7.9927314    514.23405  0.019996658  0.019931105            2 
 2144000   0.92603497   -7.9524239    516.76958  0.020085882   0.01992488            4 
 2145000   0.92107066   -7.9668077    516.33927  0.020059801  0.019918667            4 
 2146000   0.90373557   -7.9827591     515.1669  0.020004928   0.01991241            2 
 2147000   0.92464747   -7.9524131    517.07936   0.02006984  0.019906182            2 
 2148000   0.91483111   -7.9818031    515.95122   0.02001673  0.019899992            2 
 2149000   0.90649736    -7.933117    517.38587  0.020063048  0.019893812            1 
 2150000   0.92270763   -7.9664447    516.29355  0.020011378  0.019887646            3 
 2151000   0.89436738   -7.9503003    515.51429  0.019971885  0.019881437            2 
 2152000   0.92533196   -7.9366898    517.61283  0.020043867  0.019875259            2 
 2153000   0.93190435   -7.9287746    516.86554  0.020005633  0.019869141            2 
 2154000   0.89906017   -7.9735466    515.06835  0.019926816  0.019862947            1 
 2155000   0.87894775   -7.9543298    517.13602  0.019997526  0.019856769            1 
 2156000   0.91807517   -7.9563436    517.25618  0.019992895  0.019850577            3 
 2157000   0.89317192    -7.938464     517.6365  0.019998319  0.019844403            3 
 2158000   0.90774815    -7.975167    517.68628  0.019990975  0.019838183            6 
 2159000   0.89000258   -7.9611287    516.92907  0.019952488  0.019831955            4 
 2160000   0.91186422   -7.9519706    517.39984  0.019961413  0.019825698            2 
 2161000   0.88537167   -7.9846849    516.25226  0.019907923  0.019819463            4 
 2162000   0.89361892   -7.9352889     518.2265  0.019974811  0.019813223            3 
 2163000   0.90690542   -7.9832449    516.79269  0.019910336  0.019806999            1 
 2164000   0.90042535   -8.0024109    516.77252  0.019900359  0.019800725            1 
 2165000   0.91206754   -7.9756484    516.04076  0.019863001  0.019794436            1 
 2166000   0.89757634   -7.9644905    516.54773  0.019873335  0.019788189            4 
 2167000   0.90891257   -7.9715406    517.73247  0.019909724   0.01978195            8 
 2168000   0.88717747   -7.9645709     517.3201   0.01988469   0.01977572            3 
 2169000   0.90401301    -7.950738    517.00714  0.019863498  0.019769512            2 
 2170000   0.89169538   -7.9463108    518.36479  0.019906482  0.019763299            3 
 2171000   0.88348144   -7.9493748    518.75379  0.019912244  0.019757131            3 
 2172000   0.90508478   -8.0212575    516.46698  0.019815338   0.01975091            7 
 2173000   0.89336234   -7.9985306    517.82279  0.019858214  0.019744695            2 
 2174000   0.90911719   -7.9802778    518.43599  0.019872585  0.019738509            2 
 2175000   0.90869318   -7.9905893    518.84197  0.019879003  0.019732312            1 
 2176000   0.90657926   -7.9510623    520.06988  0.019916892  0.019726157            3 
 2177000   0.88637789   -7.9850755    518.97885   0.01986598  0.019720018            5 
 2178000   0.90869677   -7.9723997    518.29577  0.019830723   0.01971383            2 
 2179000   0.92329556    -7.978141    518.85094  0.019842854  0.019707561            6 
 2180000   0.93813191   -7.9524636    520.08401  0.019880887  0.019701354            2 
 2181000    0.9043915   -7.9351525    518.76973  0.019821555  0.019695175            4 
 2182000   0.90264571   -7.9953328    516.80711  0.019737516  0.019688899            2 
 2183000   0.90751036   -7.9794133    518.70825  0.019801048  0.019682625            2 
 2184000    0.8984801   -7.9697198    519.56197  0.019824556  0.019676418            1 
 2185000   0.90557625   -7.9840973    518.52893  0.019776084  0.019670173            4 
 2186000   0.89857361   -7.9701965    518.41315  0.019762624  0.019663893            4 
 2187000   0.91142659   -7.9920817    517.92154  0.019734855  0.019657649            8 
 2188000   0.90100173   -7.9709091    519.38299  0.019781497  0.019651398            1 
 2189000   0.88738189   -7.9812556    519.09024  0.019761316  0.019645146            2 
 2190000   0.90705992   -7.9642197    519.24581  0.019758212  0.019638916            2 
 2191000   0.89976115   -7.9633609    519.26727   0.01975001  0.019632668            4 
 2192000   0.91020483   -8.0250666    518.96417  0.019729477  0.019626393            2 
 2193000   0.90384752   -7.9681454    519.50371  0.019740983  0.019620143            1 
 2194000   0.90087836   -8.0041194    519.78309  0.019742597  0.019613881            5 
 2195000   0.91953495    -7.997484    518.93767  0.019701506  0.019607614            3 
 2196000   0.91181609   -7.9833669    519.38393  0.019709469  0.019601306            2 
 2197000   0.91290446   -8.0281733    519.40492  0.019701294  0.019594985            1 
 2198000   0.91535919   -7.9876194    519.09186  0.019680462  0.019588719            2 
 2199000   0.88831522   -7.9751208    519.90341  0.019702267  0.019582447            2 
 2200000   0.89895495   -7.9825958    519.18516  0.019666104  0.019576161            1 
 2201000   0.92056012   -7.9570853    519.19767  0.019657643  0.019569885            2 
 2202000    0.9147509   -8.0073812    519.57569  0.019663022  0.019563592            1 
 2203000   0.90460901   -7.9971963    519.92122  0.019667167  0.019557348            2 
 2204000   0.91930597   -8.0070006    521.01449   0.01969958  0.019551134            2 
 2205000   0.89978545   -7.9880047    521.49138  0.019708669   0.01954491            4 
 2206000   0.90396912   -7.9630661    519.87542  0.019638691  0.019538683            1 
 2207000   0.87137787   -8.0049027     521.8996  0.019706223  0.019532464            1 
 2208000   0.89660637   -7.9843507    519.85402  0.019620095  0.019526201            2 
 2209000   0.89096206   -7.9856471    522.17215  0.019698663  0.019519957            2 
 2210000    0.8994784   -8.0173312    520.29142  0.019618832  0.019513711            2 
 2211000   0.89137316   -7.9907947    521.41917  0.019652464  0.019507501            2 
 2212000   0.91560825   -8.0029619    521.50667  0.019646876  0.019501281            1 
 2213000   0.88930818   -8.0189893    520.95096  0.019617072  0.019494999            2 
 2214000   0.90028874   -7.9947463    521.20883  0.019617917  0.019488729            2 
 2215000   0.90746652   -7.9977701     521.7284  0.019628608  0.019482496            4 
 2216000   0.90099493   -7.9872948    522.26586  0.019639961  0.019476233            5 
 2217000   0.89876913   -7.9699402    520.75974   0.01957449  0.019470065            2 
 2218000   0.89998569   -8.0184094    521.17448  0.019581247  0.019463905            1 
 2219000   0.90106144   -7.9903956    521.42595  0.019581867  0.019457771            1 
 2220000   0.89968791   -7.9912638    521.97015  0.019593474  0.019451616            6 
 2221000   0.88678084   -8.0031844    521.14611  0.019553734  0.019445481            2 
 2222000   0.89013832   -8.0237898    521.64758  0.019563741  0.019439308            2 
 2223000    0.8842009   -8.0119172    521.66578  0.019555622  0.019433079            5 
 2224000   0.88856991   -8.0089779    521.89933   0.01955558  0.019426893            2 
 2225000   0.91019112   -7.9934097    523.15961  0.019593993  0.019420752            2 
 2226000    0.8997129   -8.0216348    522.98668  0.019578717  0.019414589            4 
 2227000   0.89893316   -8.0006851    522.26568  0.019542946  0.019408382            3 
 2228000   0.89528569   -8.0032033    521.13824  0.019492005   0.01940217            2 
 2229000   0.91020725   -7.9853711     523.3388   0.01956553  0.019395988            1 
 2230000   0.88346299   -8.0289272    522.42793  0.019522718  0.019389834            3 
 2231000   0.90763351   -7.9993726    522.71891  0.019524836  0.019383676            3 
 2232000   0.90207874   -8.0201181    522.87849  0.019522046  0.019377452            6 
 2233000   0.89667726   -8.0015718    522.43386  0.019496711  0.019371262            3 
 2234000   0.89613179   -7.9791458    523.24447  0.019518221  0.019365082            3 
 2235000    0.9018192   -7.9948195    523.08461  0.019503527  0.019358889            2 
 2236000   0.88829541   -8.0427918    522.77454  0.019483249  0.019352711            3 
 2237000   0.87463696   -8.0312654    522.64458  0.019469698  0.019346481            2 
 2238000   0.90501206    -8.010693    523.08175  0.019477277  0.019340255            3 
 2239000   0.91455759   -8.0124605    522.54617  0.019448644  0.019334017            5 
 2240000   0.88216223   -7.9882366    522.60768   0.01944225  0.019327791            3 
 2241000   0.88085951   -8.0105301    522.54131  0.019431106  0.019321638            4 
 2242000   0.88527103   -8.0298834    524.90598  0.019510332  0.019315402            2 
 2243000   0.88172964   -8.0288083    523.39938   0.01944566  0.019309155            5 
 2244000   0.90162235   -8.0227911    523.68908  0.019447752  0.019302934            1 
 2245000   0.87415346    -8.032112    523.09437  0.019417015  0.019296723            2 
 2246000   0.90257174   -8.0277692     522.8836  0.019400549   0.01929052            1 
 2247000   0.87950941   -8.0063381    523.61807  0.019419154  0.019284332            1 
 2248000   0.87704347   -8.0233427    523.29627  0.019398587  0.019278095            7 
 2249000   0.87537571   -8.0208241    523.56359  0.019399866  0.019271852            2 
 2250000   0.88871152   -7.9876731    524.05351  0.019409389  0.019265617            1 
 2251000   0.88453546   -7.9848869     523.9385  0.019396509  0.019259446            1 
 2252000    0.8717001   -7.9850553    523.04377  0.019354787  0.019253254            3 
 2253000   0.88931891   -8.0032475    524.96248  0.019417165   0.01924709            4 
 2254000    0.9007461   -8.0008909    523.40409  0.019350935  0.019240875            5 
 2255000   0.90577754   -8.0336692    524.05632  0.019366457  0.019234686            2 
 2256000   0.90395214    -8.014293    523.66854  0.019343548  0.019228467            2 
 2257000   0.89934007   -8.0055977    523.32905  0.019322443  0.019222249            1 
 2258000   0.90939881   -8.0113172    524.59905  0.019360756  0.019216031            7 
 2259000   0.88571565   -8.0190283    523.01612  0.019293792  0.019209808            4 
 2260000   0.88128021   -8.0359118    522.54596  0.019267919   0.01920359            2 
 2261000   0.90352882   -8.0116655    524.88122  0.019345467  0.019197394            3 
 2262000   0.88793102   -8.0175807    523.71487  0.019293946  0.019191193            1 
 2263000   0.89335713   -7.9868267    523.78145  0.019287872  0.019184972            2 
 2264000   0.87995763   -8.0320868    523.54537  0.019270663  0.019178705            2 
 2265000   0.89294697   -8.0187281    524.74391  0.019306251  0.019172494            3 
 2266000   0.86730452    -8.025771    524.89516  0.019303294  0.019166284            2 
 2267000   0.90235563   -7.9673464     525.6879  0.019323919  0.019160129            3 
 2268000   0.89984986   -8.0100692    524.56248  0.019274048  0.019154016            4 
 2269000   0.87934277   -8.0355841     524.4553  0.019261617  0.019147855            2 
 2270000   0.87122821   -7.9928403    525.77621  0.019301623  0.019141707            1 
 2271000   0.88648099   -8.0128262     527.5106  0.019356766  0.019135595            3 
 2272000   0.91056018   -8.0276257    525.10175  0.019259894  0.019129424            2 
 2273000   0.88364525   -8.0034191    525.01075  0.019248085  0.019123283            4 
 2274000   0.88507852   -7.9799428    526.05353  0.019277834  0.019117158            4 
 2275000   0.88800031   -8.0412025    525.88035  0.019263017  0.019111029            3 
 2276000   0.90854065    -8.005469    524.85582  0.019217041   0.01910489            2 
 2277000   0.88831253   -8.0168642    525.65457  0.019237834  0.019098701            8 
 2278000   0.90102439   -8.0175361    525.63092  0.019228524  0.019092561            7 
 2279000   0.89075594   -8.0308328    526.35253  0.019246473  0.019086441            4 
 2280000      0.88371   -8.0059405    526.04313  0.019226723  0.019080323            2 
 2281000   0.87069592   -8.0446666    524.25306  0.019152896   0.01907417            4 
 2282000   0.90227944    -8.026479    525.97918  0.019207536  0.019067986            2 
 2283000   0.88119197   -8.0145189    527.15484  0.019242037  0.019061855            3 
 2284000   0.88790702   -8.0061085    526.75071  0.019218867  0.019055707            5 
 2285000   0.88116533   -8.0231421    526.05579  0.019185113  0.019049555            4 
 2286000    0.8689715   -8.0346578    524.38327  0.019115751  0.019043339            2 
 2287000      0.87675   -7.9990795    526.85506  0.019197459  0.019037214            1 
 2288000   0.88399056   -8.0402206    526.42993  0.019173584  0.019031109            2 
 2289000   0.87894206   -8.0402596    526.66776  0.019173866  0.019024972            2 
 2290000   0.85189898   -8.0183693    526.84323  0.019171879  0.019018844            1 
 2291000   0.87491529   -8.0094927     526.6232  0.019155507  0.019012715            3 
 2292000   0.88908145   -8.0459503    527.53964   0.01918047    0.0190066            6 
 2293000   0.88751587   -8.0330648    526.38969  0.019130313  0.019000398            3 
 2294000   0.89932929   -8.0709986    525.69265  0.019096653  0.018994235            4 
 2295000   0.88778235   -8.0665661    525.41002  0.019078069  0.018988038            1 
 2296000   0.88465684   -8.0400337    526.87894  0.019123074  0.018981867            2 
 2297000   0.87689628   -8.0129473    527.64189  0.019142428  0.018975731            3 
 2298000     0.890806   -8.0361192    526.72297  0.019100775  0.018969563            2 
 2299000   0.88455758   -8.0017027    527.85274  0.019133418  0.018963454            5 
 2300000   0.87783046   -8.0303672    528.46371  0.019147236  0.018957372            4 
 2301000   0.87144007   -8.0292467    527.89302  0.019118246  0.018951292            3 
 2302000   0.88008272   -8.0036606    528.14045  0.019118898  0.018945197            2 
 2303000   0.87427071   -8.0300269    528.70855  0.019131153  0.018939126            6 
 2304000    0.9085044   -7.9916889    528.80999  0.019126519  0.018933084            2 
 2305000   0.86876882   -8.0327801    527.45348  0.019069179  0.018927021            5 
 2306000   0.84776501   -8.0285461    527.37374  0.019058028  0.018920899            3 
 2307000   0.87799005     -7.99943     528.6474  0.019095774  0.018914815            1 
 2308000   0.86257687   -8.0582505    527.88258  0.019059885  0.018908778            2 
 2309000   0.87805791    -8.057207      527.727  0.019046016  0.018902695            3 
 2310000   0.88517293   -8.0427836    528.90711  0.019080343  0.018896613            2 
 2311000   0.87456839   -8.0561239    529.20336  0.019082769  0.018890552            3 
 2312000   0.88538667   -8.0413983    529.18357  0.019073802  0.018884493            1 
 2313000    0.8901424   -8.0129454    530.13891  0.019099975  0.018878481            1 
 2314000    0.8770856    -8.060508    529.73469  0.019077164  0.018872473            2 
 2315000   0.85884692   -7.9731027    530.30744  0.019089541  0.018866458            2 
 2316000   0.87314629   -8.0490956    529.60169  0.019055904  0.018860492            2 
 2317000   0.89158324    -8.025252    528.57986  0.019010929  0.018854496            1 
 2318000   0.86693346   -8.0629521    528.65547  0.019005446  0.018848507            1 
 2319000   0.87247713    -8.068108    529.76923  0.019037273  0.018842493            2 
 2320000   0.88162505   -8.0242786    529.38722  0.019015346  0.018836503            4 
 2321000   0.88433689   -8.0125562    530.03949  0.019030572  0.018830537            1 
 2322000   0.86503656   -8.0282035    529.31733  0.018996459  0.018824557            1 
 2323000   0.86798941   -8.0259268    530.85508  0.019043445  0.018818587            2 
 2324000    0.8854047   -8.0218498    532.10484  0.019080064  0.018812615            2 
 2325000   0.86846175   -8.0250706    530.88647  0.019028189  0.018806647            2 
 2326000   0.93453291   -8.0662484    530.26315  0.018997676  0.018800644            2 
 2327000   0.87453542   -8.0354348    531.34073  0.019028102  0.018794683            2 
 2328000   0.86834161   -8.0437108    529.97072  0.018970888  0.018788664            4 
 2329000   0.88515838   -8.0719463    528.98397  0.018927435  0.018782653            2 
 2330000   0.86492268   -8.0482898    530.86615  0.018986629  0.018776622            4 
 2331000   0.87069828   -8.0582112      528.809  0.018904941  0.018770608            1 
 2332000   0.88021913   -8.0211151     530.1908  0.018946212   0.01876459            3 
 2333000    0.8780489   -8.0204864    532.14039  0.019007729  0.018758602            3 
 2334000   0.88434229   -8.0278486    532.11191  0.018998569  0.018752635            4 
 2335000   0.90890179    -8.021737    531.69745  0.018975641  0.018746724            2 
 2336000     0.880965   -8.0524836    532.45841  0.018994664  0.018740809            1 
 2337000   0.88706992   -8.0132559    531.18668  0.018941188  0.018734861            1 
 2338000    0.8827238   -8.0331636    533.49815  0.019015474  0.018728948            5 
 2339000   0.90848446   -8.0383893    531.76658  0.018945653  0.018723027            3 
 2340000   0.88100302   -8.0756008    531.92134  0.018943068  0.018717095            2 
 2341000   0.90056349   -8.0434104    532.87196  0.018968815  0.018711161            1 
 2342000   0.87736189    -8.052993    532.14674  0.018934911  0.018705233            1 
 2343000   0.89136461   -8.0490199    533.81059  0.018986008  0.018699292            2 
 2344000   0.87202024    -8.070669    532.12401  0.018917947  0.018693354            2 
 2345000   0.86959322   -8.0271293     531.6592  0.018893362  0.018687406            5 
 2346000   0.86799095   -8.0211673    533.56026  0.018952837  0.018681497            2 
 2347000   0.89727608    -8.035264      534.741  0.018986685  0.018675617            1 
 2348000   0.86430299    -8.049358    532.01985  0.018882022   0.01866969            3 
 2349000   0.87292937   -8.0570784     531.2842  0.018847886  0.018663743            4 
 2350000   0.88281986   -8.0408467    534.12837  0.018940722   0.01865781            3 
 2351000   0.89701389   -8.0312174     532.1555  0.018862736  0.018651884            2 
 2352000   0.86404677   -8.0514445    532.47018  0.018865865  0.018645934            4 
 2353000   0.86213929   -8.0390721     532.8667  0.018871891  0.018640054            2 
 2354000   0.88581762   -8.0783525    532.47048  0.018849847  0.018634133            2 
 2355000   0.87368555   -8.0582469    534.16284  0.018901728  0.018628182            2 
 2356000   0.88821729   -8.0752648    531.22614  0.018789832  0.018622222            2 
 2357000   0.86380844   -8.0589349     533.7591  0.018871415  0.018616247            3 
 2358000    0.8865548   -8.0358736    533.60304  0.018857896  0.018610322            4 
 2359000   0.89201674   -8.0397353    532.37565  0.018806544  0.018604394            3 
 2360000    0.8814403   -8.0845737    532.70277  0.018810126  0.018598473            1 
 2361000   0.89098639   -8.0276044    533.77537  0.018840017  0.018592578            3 
 2362000   0.89307268   -8.0283343    534.14098   0.01884494  0.018586685            1 
 2363000   0.87425282   -8.0681405     533.5594  0.018816455  0.018580812            1 
 2364000   0.88101492   -8.0453806    534.09892  0.018827514  0.018574939            2 
 2365000   0.85744407   -8.0077897     535.5392  0.018870303  0.018569077            4 
 2366000   0.86927174   -8.0475038    535.41687  0.018858019  0.018563181            1 
 2367000   0.87636126    -8.069854    533.09539  0.018768321  0.018557309            3 
 2368000    0.8809198    -8.082452    533.44359  0.018772649  0.018551432            3 
 2369000   0.87166749   -8.0382329    534.24275  0.018792836  0.018545572            3 
 2370000   0.86963592   -8.0130732    535.19184  0.018818278  0.018539767            2 
 2371000   0.87292061   -8.0641558    534.35486  0.018780924   0.01853392            2 
 2372000   0.86808333   -8.0435954    534.50442  0.018778261   0.01852806            2 
 2373000   0.84729421   -8.0633992    535.17473  0.018793887  0.018522224            1 
 2374000   0.85235129   -8.0587087    534.38987   0.01875842  0.018516371            1 
 2375000   0.85964545   -8.0624024    535.27838  0.018781697  0.018510519            1 
 2376000   0.86060523   -8.0912798    535.16138  0.018769689  0.018504637            4 
 2377000   0.86875925   -8.0743785    534.61435  0.018742615  0.018498771            4 
 2378000   0.85837318   -8.0576111     534.7711  0.018740226  0.018492892            2 
 2379000   0.87476894   -8.0330406    535.61643   0.01876196  0.018487066            3 
 2380000   0.86722434   -8.0520914    537.17108  0.018808511  0.018481246            3 
 2381000   0.85479717   -8.0647556    535.79838  0.018752568  0.018475456            2 
 2382000   0.88880425   -8.0553242    535.69294  0.018741007  0.018469604            2 
 2383000   0.87252773   -8.0323318    535.84237  0.018738368  0.018463786            2 
 2384000   0.84364822   -8.0464506    536.12032  0.018740224  0.018457987            2 
 2385000   0.86209093   -8.0749259    536.08045  0.018730973  0.018452191            3 
 2386000   0.86678041   -8.0394107    537.57784   0.01877542  0.018446422            4 
 2387000    0.8652126   -8.0873599    535.43447  0.018692727  0.018440644            2 
 2388000   0.88296042   -8.0663555    536.97478  0.018738651  0.018434837            3 
 2389000   0.85875061   -8.0878067    536.71061  0.018721592  0.018429058            5 
 2390000   0.86104763   -8.0491043    535.93603  0.018686751  0.018423291            1 
 2391000   0.88497123   -8.0510896    536.54029  0.018699996  0.018417516            2 
 2392000   0.85692228   -8.0818359    537.05055  0.018709955  0.018411734            2 
 2393000   0.86298323   -8.0544451    536.78734  0.018692971  0.018405925            3 
 2394000   0.87490348   -8.0709189     536.3262   0.01866911  0.018400135            2 
 2395000   0.88309445   -8.0817318    536.23034   0.01865798  0.018394313            2 
 2396000   0.86440573   -8.1001878    536.40392   0.01865623  0.018388482            3 
 2397000   0.87234866   -8.1151464    535.17522   0.01860573   0.01838262            2 
 2398000   0.84275199   -8.0784508    536.87802  0.018657145  0.018376739            2 
 2399000   0.86691246   -8.1016451    535.88515   0.01861488    0.0183709            2 
 2400000   0.86413002   -8.0940769    535.61361  0.018597695  0.018365069            2 
 2401000     0.854299    -8.090337    535.26058  0.018577696  0.018359225            3 
 2402000   0.85026527   -8.0684545    538.03121  0.018666084  0.018353396            2 
 2403000   0.89052343   -8.0898333    537.59454  0.018643173   0.01834762            2 
 2404000   0.86409089   -8.0521334    537.98083  0.018648809  0.018341845            3 
 2405000   0.86395879   -8.0801066    537.40715  0.018621176  0.018336109            1 
 2406000   0.86348716    -8.054525    538.12172  0.018638186  0.018330335            2 
 2407000   0.86580181   -8.0733655    538.01097  0.018626609  0.018324563            3 
 2408000    0.8545046    -8.079977    536.44506  0.018564682  0.018318758            2 
 2409000   0.85217574   -8.0680558    537.11644    0.0185802  0.018312992            3 
 2410000    0.8574825    -8.053594     538.2635  0.018612154  0.018307204            5 
 2411000   0.85445219   -8.0579221    538.33258  0.018606822  0.018301456            4 
 2412000    0.8807269   -8.0901784    536.84497  0.018547712  0.018295695            5 
 2413000   0.87985509   -8.0545164    537.91827  0.018577092  0.018289885            3 
 2414000   0.88183156   -8.0685791    538.34747  0.018584212  0.018284118            5 
 2415000   0.84886423   -8.0948397    538.63906  0.018586579  0.018278379            2 
 2416000    0.8653228   -8.0932751     537.7167  0.018547072  0.018272626            3 
 2417000   0.87017572    -8.078808    539.33416  0.018595165  0.018266859            2 
 2418000    0.8713846   -8.0989909    537.94781  0.018539696  0.018261122            2 
 2419000   0.85806168   -8.0978764    538.03304  0.018534968  0.018255358            3 
 2420000   0.87867329   -8.0766817     538.2132  0.018533512  0.018249573            2 
 2421000    0.8936181   -8.1141681    536.98119   0.01848345  0.018243765            3 
 2422000    0.8794484   -8.1006686    537.89726  0.018507337  0.018237962            1 
 2423000    0.8653444   -8.1149807    537.24432  0.018477243  0.018232108            4 
 2424000   0.86742757   -8.0811895     537.7334  0.018486434   0.01822628            4 
 2425000   0.88011229   -8.0990073    536.74434  0.018444823  0.018220467            7 
 2426000   0.86857677   -8.0676056    537.50589  0.018463379  0.018214668            1 
 2427000   0.86684662   -8.0769405    539.09393  0.018510298  0.018208884            2 
 2428000   0.85094914   -8.0470846    539.56136  0.018518718  0.018203122            4 
 2429000   0.85446957   -8.0924364    538.16373  0.018463144  0.018197377            3 
 2430000   0.84106105   -8.0530537     538.6121  0.018470923  0.018191604            3 
 2431000   0.87124634    -8.054981    539.58333  0.018496618   0.01818582            3 
 2432000   0.87480647   -8.0666614    538.38746  0.018448035  0.018180053            3 
 2433000   0.86565143   -8.0246204    540.55786  0.018514792  0.018174359            1 
 2434000   0.87515615   -8.0755828    538.69792  0.018443506  0.018168611            1 
 2435000   0.85829346   -8.1018386    538.08251   0.01841487  0.018162783            2 
 2436000   0.84883021   -8.0769989    539.04667  0.018440294  0.018157022            2 
 2437000   0.87988573   -8.0846196    538.11356  0.018400819  0.018151248            2 
 2438000   0.86498389   -8.0963459    538.43091  0.018404119  0.018145424            4 
 2439000   0.86067851   -8.0845006    538.42202   0.01839627  0.018139613            2 
 2440000   0.86148525     -8.09047    538.70034  0.018398236  0.018133796            2 
 2441000    0.8401722   -8.0892974     539.1374  0.018405619  0.018127957            2 
 2442000   0.85691323   -8.1040664    538.43412  0.018374083  0.018122168            2 
 2443000   0.85650634    -8.093019    537.68193  0.018340903  0.018116377            2 
 2444000   0.86914402   -8.1244684    537.12194  0.018314305  0.018110561            2 
 2445000   0.85339824   -8.1123861    537.72401  0.018327335  0.018104722            2 
 2446000   0.86050531   -8.0803953    538.34036  0.018340841  0.018098887            2 
 2447000   0.85853255   -8.0886203    538.68607  0.018345119  0.018093124            1 
 2448000   0.85852843   -8.0910529    538.42067   0.01832859   0.01808735            2 
 2449000   0.85583631   -8.0666443    539.86295  0.018370183  0.018081579            5 
 2450000   0.86481602   -8.0935589    539.46757  0.018349237   0.01807582            4 
 2451000   0.85691208   -8.0766119    539.32865  0.018337027  0.018070086            2 
 2452000   0.86376436    -8.088853    539.46836  0.018334297  0.018064315            5 
 2453000   0.87802743   -8.1015128    539.77484  0.018337235  0.018058533            4 
 2454000   0.84502578   -8.0598879    540.33733  0.018348863  0.018052758            3 
 2455000   0.85785869    -8.083757    540.36277  0.018342253   0.01804699            4 
 2456000   0.83899908   -8.0925031    540.64563  0.018344382  0.018041254            3 
 2457000   0.85082326   -8.1043247     541.4943    0.0183657  0.018035502            2 
 2458000   0.85729512   -8.1474859    538.51885  0.018257352  0.018029722            6 
 2459000   0.88528291   -8.0687278    540.52852  0.018318033  0.018023928            2 
 2460000   0.87067751   -8.1463985    539.20225  0.018265659  0.018018139            1 
 2461000   0.85334941   -8.1287537    539.76458  0.018277278  0.018012321            6 
 2462000   0.86967741   -8.1170238    540.21794    0.0182852  0.018006503            2 
 2463000   0.85587105   -8.1007815     540.2137  0.018277632  0.018000686            3 
 2464000   0.86221352    -8.124899    541.50534  0.018313898  0.017994886            5 
 2465000   0.86755872   -8.1125455    540.48928  0.018272119  0.017989083            5 
 2466000   0.87003547   -8.1347416    539.66289  0.018236783  0.017983315            2 
 2467000   0.85682728   -8.0811658    542.47518  0.018324388  0.017977525            7 
 2468000   0.85814971   -8.1044948    541.07149  0.018269567  0.017971764            2 
 2469000   0.86704248   -8.0942573    540.88052  0.018255722  0.017966009            3 
 2470000     0.867693    -8.132812    539.96484  0.018217437  0.017960231            2 
 2471000   0.85637609   -8.1279743    539.42309  0.018191794  0.017954448            2 
 2472000   0.84611079   -8.1143282    540.96253  0.018236331  0.017948698            5 
 2473000   0.85276776   -8.1366378    540.71289  0.018220545  0.017942897            1 
 2474000   0.87469297   -8.1252821    540.84694  0.018217695   0.01793708            1 
 2475000   0.85156784   -8.1611763    538.61349  0.018135134  0.017931289            2 
 2476000   0.84045178   -8.1108759    540.27363  0.018183684  0.017925483            4 
 2477000    0.8553962   -8.1174736    539.24972  0.018141896   0.01791967            5 
 2478000   0.86111349   -8.1374424    541.51264  0.018210675  0.017913835            1 
 2479000   0.84407234    -8.128076    540.89149  0.018182449  0.017908028            2 
 2480000   0.84865221   -8.1329532     539.2047  0.018118438  0.017902188            2 
 2481000    0.8483747   -8.1432088    539.89846  0.018134437  0.017896348            3 
 2482000   0.84780199   -8.1278732    541.12914  0.018168451  0.017890546            5 
 2483000   0.84577499   -8.1188113    540.52159  0.018140743  0.017884694            1 
 2484000   0.86709983   -8.1384963    540.19689  0.018122547  0.017878869            4 
 2485000   0.84365832   -8.1124427    541.45263  0.018157365  0.017873021            3 
 2486000   0.86545312   -8.0965791    540.43589  0.018115979  0.017867205            2 
 2487000   0.88400117   -8.1526679    540.08992  0.018097102  0.017861381            3 
 2488000   0.84534473   -8.1346753    541.10578  0.018123854  0.017855539            2 
 2489000   0.85148359   -8.0872785    541.02084  0.018113728  0.017849732            4 
 2490000   0.87201283   -8.1157443    540.24002  0.018080322  0.017843952            1 
 2491000   0.86610699   -8.0903704    542.24029   0.01813998  0.017838199            4 
 2492000   0.83652214   -8.1004444     541.9811  0.018124034  0.017832451            3 
 2493000   0.86637635   -8.0676832    542.72284  0.018141558    0.0178267            3 
 2494000   0.84653525   -8.0815742    542.26265  0.018118907  0.017820963            4 
 2495000   0.85264391   -8.0835546      542.035  0.018104041  0.017815227            1 
 2496000   0.85447646   -8.1265804    541.20596  0.018069109  0.017809477            2 
 2497000    0.8711196   -8.1281609    542.40932  0.018102033  0.017803708            3 
 2498000   0.86122631    -8.106155    541.75607  0.018072994   0.01779792            5 
 2499000   0.87544799   -8.1007926    541.24001  0.018048553   0.01779213            3 
 2500000   0.84109842   -8.1217082    542.07122  0.018069041  0.017786334            8 
 2501000   0.85930352   -8.1207127    541.99879  0.018059403  0.017780537            6 
 2502000   0.84188631   -8.0972147    542.38866   0.01806517  0.017774778            3 
 2503000   0.83543175   -8.0836747    542.62097  0.018065687   0.01776902            2 
 2504000   0.84031496     -8.08677    543.32363  0.018081857  0.017763273            1 
 2505000   0.84029202   -8.0729626    543.45017  0.018078848  0.017757536            1 
 2506000   0.84917378   -8.0989679    543.91545  0.018087106  0.017751832            1 
 2507000   0.85650244    -8.125803    543.07693  0.018052019  0.017746108            2 
 2508000   0.86634456   -8.1072671    543.71714  0.018066093  0.017740395            2 
 2509000   0.83303061   -8.1158749     542.4449  0.018016637  0.017734703            4 
 2510000   0.85511484   -8.1440486    541.77026   0.01798706  0.017728938            4 
 2511000   0.82944642    -8.086917    543.40047  0.018033999  0.017723225            2 
 2512000   0.86530623    -8.095728    542.39705  0.017993533  0.017717486            3 
 2513000   0.83922916   -8.0791712    542.76632  0.017998618  0.017711795            8 
 2514000   0.83633665    -8.092667    544.09706  0.018035569  0.017706125            7 
 2515000   0.85144889   -8.1069428    543.71526  0.018015748  0.017700434            2 
 2516000   0.86552875   -8.1337757    543.15206  0.017989933   0.01769473            2 
 2517000   0.85679303    -8.125588    542.65479  0.017966322  0.017689045            2 
 2518000   0.85778927   -8.1330493     543.5818  0.017989866  0.017683339            3 
 2519000   0.86313381    -8.138411    543.65797  0.017985245  0.017677642            2 
 2520000   0.82747866   -8.1465662    543.68807  0.017979103  0.017671923            3 
 2521000   0.85613791   -8.1137856     544.0752  0.017984768  0.017666225            1 
 2522000   0.86042144    -8.100974    546.03742  0.018042474  0.017660544            4 
 2523000    0.8421844   -8.1225801     544.1017  0.017971386  0.017654865            2 
 2524000   0.85520196   -8.1312703    544.44975  0.017975758  0.017649223            4 
 2525000    0.8512293   -8.1229872    544.73308  0.017977989  0.017643588            3 
 2526000   0.85541413    -8.102677     544.8691   0.01797536  0.017637936            3 
 2527000   0.86191032   -8.1323429    543.91576  0.017936808  0.017632288            6 
 2528000   0.85939202   -8.1415909    544.46358  0.017947771  0.017626587            3 
 2529000   0.84803257   -8.1484362    544.57607  0.017944381  0.017620899            3 
 2530000   0.83990085   -8.1253309    543.96634  0.017917205  0.017615219            2 
 2531000    0.8513423   -8.1468248    545.46054  0.017959322  0.017609574            1 
 2532000    0.8328174    -8.157948    543.86905   0.01789985  0.017603904            2 
 2533000   0.85977101   -8.1234589    544.34736   0.01790852  0.017598234            3 
 2534000    0.8684059   -8.1651643    543.94342  0.017888168  0.017592555            3 
 2535000   0.83445606   -8.1163188    544.42724  0.017897017  0.017586869            2 
 2536000   0.83558293   -8.1582592    544.65788  0.017897538  0.017581212            5 
 2537000   0.85283448   -8.1532294    543.60577  0.017855925  0.017575508            2 
 2538000   0.84313976   -8.1117701      544.681  0.017884194  0.017569832            2 
 2539000   0.84284314    -8.161889    544.35385  0.017866412  0.017564172            5 
 2540000   0.87273391   -8.1537556    544.49587  0.017864038  0.017558511            3 
 2541000   0.83794426    -8.161211    543.65276  0.017829357   0.01755283            2 
 2542000   0.83683535   -8.1584463    544.95161  0.017864923  0.017547113            6 
 2543000   0.85038586   -8.1309231    544.94237  0.017857595   0.01754144            5 
 2544000   0.84937824   -8.1222936    543.97957  0.017819037  0.017535785            9 
 2545000   0.82841977   -8.1245469    545.35693  0.017857136  0.017530122            3 
 2546000   0.83806259     -8.14556    545.15481  0.017843507  0.017524447            2 
 2547000   0.83972364   -8.1563394    545.27451  0.017840417  0.017518781            2 
 2548000   0.85238915    -8.140763    544.60824  0.017811625  0.017513123            2 
 2549000    0.8505072   -8.1380182    545.34596  0.017828755   0.01750747            5 
 2550000   0.86567978   -8.1695167    545.33829  0.017821513  0.017501815            3 
 2551000    0.8497615   -8.1288427    545.17259  0.017809114  0.017496163            3 
 2552000   0.83071429     -8.14509     544.5705  0.017782475  0.017490467            1 
 2553000    0.8366947   -8.1679337    543.98979  0.017756554  0.017484727            3 
 2554000   0.85213419   -8.1518227    545.68468  0.017804903   0.01747903            5 
 2555000   0.83370297   -8.1389108    547.25804  0.017849251  0.017473393            3 
 2556000   0.86185861   -8.1613575    545.16928  0.017774168  0.017467711            3 
 2557000   0.85373149   -8.1531726    544.45697  0.017744002  0.017462013            4 
 2558000   0.84674111   -8.1575855    545.63935  0.017775585  0.017456333            2 
 2559000   0.84190911   -8.1426622    545.35463  0.017759367  0.017450642            2 
 2560000   0.83928956   -8.1347404    545.62884  0.017761356  0.017444974            2 
 2561000   0.84515475    -8.138148    545.47402  0.017749382  0.017439295            1 
 2562000   0.83800512   -8.1648177    546.06316  0.017761617  0.017433594            4 
 2563000   0.85154905   -8.1379988    544.95361  0.017718611  0.017427903            3 
 2564000   0.84164057   -8.1604056    545.52419  0.017730245  0.017422212            2 
 2565000   0.84049992   -8.1450641    545.63583   0.01772696  0.017416558            3 
 2566000   0.86028476   -8.1387036    544.54388  0.017684589  0.017410864            2 
 2567000   0.82820301   -8.1689131    544.10138  0.017663335  0.017405158            3 
 2568000   0.85499858   -8.1723972    544.78311   0.01767858   0.01739943            2 
 2569000   0.83477274   -8.1316923    545.19571  0.017685082  0.017393715            2 
 2570000   0.84440535   -8.1166225    546.28839  0.017713631  0.017388038            2 
 2571000    0.8389059   -8.1311122    545.30741  0.017674945  0.017382395            3 
 2572000   0.84820098   -8.1667886    545.77355  0.017683176  0.017376729            1 
 2573000   0.84038527   -8.1381156    545.68273  0.017673362  0.017371042            2 
 2574000   0.83876039   -8.1460056    545.20595   0.01765106  0.017365368            2 
 2575000   0.82590838   -8.1363801    546.15805  0.017675018  0.017359716            5 
 2576000   0.84858366   -8.1546789    546.30027  0.017672757  0.017354084            3 
 2577000   0.84299306   -8.1620994    547.01332  0.017688958  0.017348466            4 
 2578000   0.85526575   -8.1645561    546.40995  0.017662592  0.017342825            2 
 2579000   0.84659657   -8.1587633     546.3901  0.017655102  0.017337158            7 
 2580000   0.83640307    -8.169391    545.73826  0.017627205  0.017331502            3 
 2581000    0.8352819   -8.2040733    546.51411  0.017645425  0.017325833            4 
 2582000   0.82967689   -8.1752593    546.39214  0.017634655   0.01732018            1 
 2583000    0.8566444   -8.1729771    547.25984  0.017655822  0.017314545            8 
 2584000   0.83875239   -8.1634975    546.23622  0.017615977  0.017308926            3 
 2585000   0.83279641   -8.1382042    547.67381  0.017655506  0.017303301            2 
 2586000   0.84919482    -8.157927    547.33211  0.017637668  0.017297663            4 
 2587000   0.85104822   -8.1577768    547.24123  0.017627923  0.017292016            2 
 2588000   0.84491811   -8.1550286     547.0971   0.01761647  0.017286381            2 
 2589000   0.84409323   -8.1531149    546.32446  0.017584797  0.017280725            2 
 2590000   0.85168073   -8.1840454    547.56959  0.017618069  0.017275073            2 
 2591000   0.83123866   -8.1847692    547.03855   0.01759419  0.017269409            3 
 2592000   0.83594869   -8.1770476    547.63681  0.017606636  0.017263731            4 
 2593000   0.84303045   -8.1502589    548.42228  0.017625089  0.017258108            1 
 2594000   0.84582189   -8.1740795    547.76086  0.017597046  0.017252491            2 
 2595000   0.83926232   -8.1725417    547.79848  0.017591473  0.017246903            3 
 2596000   0.82828645    -8.179472    547.56156  0.017577092  0.017241295            2 
 2597000   0.84146758   -8.2066197    547.28293  0.017561383  0.017235657            1 
 2598000   0.84597506   -8.1485542    547.81496  0.017571688  0.017230038            1 
 2599000   0.82165146   -8.1521399    547.68727  0.017560833   0.01722443            1 
 2600000   0.85148469   -8.1566978    547.27289  0.017540798  0.017218827            2 
 2601000   0.83396852   -8.1642857    547.40281  0.017538216  0.017213235            2 
 2602000   0.85654712   -8.1628681    547.40057  0.017531404  0.017207637            3 
 2603000   0.83527568   -8.1236347    547.73025  0.017535224  0.017202034            1 
 2604000   0.84065965   -8.1382778    548.03946  0.017538385  0.017196452            2 
 2605000   0.82031124   -8.1533866    548.54548   0.01754784  0.017190879            2 
 2606000   0.81818236   -8.1313851    547.73196  0.017515092  0.017185299            4 
 2607000   0.84264007   -8.1659282    548.46167  0.017531699  0.017179751            3 
 2608000   0.84873665    -8.150641     548.7784  0.017535097  0.017174177            2 
 2609000   0.83061169   -8.1544262    549.17154  0.017540933  0.017168597            3 
 2610000   0.81765217   -8.1685783    548.28493  0.017505904  0.017162971            3 
 2611000   0.83896338   -8.1534176    549.19886  0.017528369  0.017157385            2 
 2612000   0.83104082   -8.2024248    546.76512  0.017444012  0.017151782            4 
 2613000   0.83399597   -8.1752209    547.37479   0.01745678  0.017146164            5 
 2614000   0.82590057   -8.1851819    547.05214  0.017439816  0.017140571            2 
 2615000   0.85225854   -8.1821449    548.74453  0.017487079  0.017134964            4 
 2616000   0.83436744   -8.1473072    549.24251  0.017496257  0.017129354            4 
 2617000   0.82796227   -8.1657776    547.57824  0.017436576  0.017123769            2 
 2618000   0.82340844   -8.1810944    547.73812  0.017435005  0.017118201            2 
 2619000   0.83976968   -8.1450259    550.19873  0.017506642  0.017112595            2 
 2620000   0.83637721   -8.1536878    548.71959  0.017452913  0.017106978            5 
 2621000   0.82098084   -8.1532443    548.74782  0.017447152    0.0171014            2 
 2622000   0.84269378   -8.1955853    548.32937  0.017427198  0.017095785            2 
 2623000   0.84057817   -8.1999334    548.03302  0.017411139  0.017090148            3 
 2624000    0.8385684   -8.1780366     548.9263  0.017432873  0.017084535            2 
 2625000    0.8154268   -8.1631308    548.96676  0.017427516  0.017078939            3 
 2626000   0.85707813   -8.1859996    547.84626  0.017385322  0.017073363            3 
 2627000   0.82911907   -8.1532098    549.05175  0.017416944  0.017067784            5 
 2628000   0.83556785   -8.2073728    547.97264  0.017376098  0.017062205            2 
 2629000   0.82111224   -8.1662782     548.8034  0.017395822  0.017056623            3 
 2630000    0.8237748   -8.1580113    549.46193  0.017410074  0.017051033            3 
 2631000   0.83660984   -8.1911248    547.98616  0.017356713  0.017045431            1 
 2632000   0.82532345   -8.1642601    549.42373  0.017395635  0.017039829            3 
 2633000   0.84814146   -8.1893157    547.97076  0.017343042  0.017034239            4 
 2634000   0.81653528    -8.172432    547.32132  0.017315911   0.01702863            2 
 2635000   0.85282371   -8.1973076    548.60356  0.017349891  0.017023007            4 
 2636000    0.8407627   -8.1811474    549.00078  0.017355867  0.017017398            2 
 2637000   0.82623791   -8.1693251    548.76455   0.01734182  0.017011777            3 
 2638000   0.83990167   -8.1542388    548.22169  0.017318097  0.017006159            4 
 2639000   0.83472852   -8.1695986    548.53969  0.017321577  0.017000568            2 
 2640000   0.83189355   -8.2017429     548.0879  0.017300754  0.016994901            2 
 2641000   0.82410226   -8.1690712    548.87462  0.017319027  0.016989295            4 
 2642000   0.81836003   -8.2022042    549.43826   0.01733025  0.016983676            4 
 2643000   0.82570512    -8.231172    547.97843  0.017277665  0.016978028            2 
 2644000    0.8210672   -8.1975269     548.1497  0.017276529  0.016972354            3 
 2645000   0.82813511   -8.1776116    548.78176   0.01728991  0.016966731            2 
 2646000    0.8228548   -8.1804303    549.85634  0.017317219   0.01696108            3 
 2647000   0.82837738   -8.1896492    550.19664   0.01732139  0.016955445            3 
 2648000   0.83699314   -8.2116304    549.00085  0.017277217  0.016949842            1 
 2649000   0.82695694   -8.1706575    548.67665  0.017260496   0.01694425            2 
 2650000   0.83706401   -8.1517075    550.33992  0.017306287  0.016938659            3 
 2651000   0.82627275    -8.203412    549.32871  0.017267972  0.016933076            4 
 2652000   0.81953402    -8.183179    550.41972  0.017295743  0.016927498            2 
 2653000   0.81418821   -8.2091511    550.52139  0.017292417  0.016921952            4 
 2654000   0.82257113   -8.1900885    550.54008  0.017286488  0.016916397            2 
 2655000   0.83650824   -8.1997502    549.49499  0.017247175  0.016910849            4 
 2656000   0.81818186   -8.1813567    550.18549  0.017262346  0.016905288            2 
 2657000   0.82345627   -8.2263605    550.01897  0.017250626  0.016899727            5 
 2658000   0.83564625   -8.2182123    550.81198  0.017268999  0.016894134            2 
 2659000   0.82209762   -8.2217789    549.59412  0.017224336  0.016888554            6 
 2660000   0.83985493   -8.2049401    550.75827  0.017254332  0.016882962            2 
 2661000   0.82073249   -8.2048343     550.2286   0.01723126  0.016877417            4 
 2662000   0.82768229   -8.1941108    549.28761   0.01719533  0.016871844            3 
 2663000     0.834133   -8.2072886    548.61336  0.017167773  0.016866265            1 
 2664000   0.83698214   -8.2475479    549.71588  0.017195817  0.016860717            4 
 2665000   0.81843376   -8.2096545    551.54598  0.017246591  0.016855158            2 
 2666000    0.8358695   -8.2189252    549.64622  0.017180739  0.016849574            3 
 2667000   0.83178224   -8.1947586    549.84651  0.017180556  0.016843996            2 
 2668000   0.82674957   -8.1795588    551.14387  0.017214639  0.016838429            2 
 2669000   0.83080132   -8.2089541    551.74533  0.017226968  0.016832867            3 
 2670000   0.81708328   -8.1611984    552.03761  0.017229638  0.016827345            2 
 2671000   0.84203829   -8.2020265    551.29238  0.017199937  0.016821857            4 
 2672000   0.82559486   -8.2166109    551.57095  0.017202188  0.016816333            3 
 2673000   0.81002089   -8.2101262     550.1381  0.017151082  0.016810789            5 
 2674000   0.80252601   -8.1716177     551.6832   0.01719282  0.016805253            3 
 2675000   0.82276684   -8.1983508    550.63645  0.017153784  0.016799729            3 
 2676000   0.79504387   -8.1822385    551.03743   0.01715986  0.016794195            3 
 2677000   0.80960839   -8.1898391    550.41024  0.017133926  0.016788705            4 
 2678000   0.84684409   -8.2158219    551.35252   0.01715685  0.016783186            3 
 2679000   0.82170698    -8.200828    550.94959  0.017137912  0.016777639            3 
 2680000   0.82067335   -8.1984487     550.8527  0.017128504   0.01677211            6 
 2681000    0.8323273   -8.2073571    550.10651  0.017098922  0.016766568            4 
 2682000   0.82173223   -8.1856385    551.50562  0.017136018  0.016761034            3 
 2683000   0.80838364   -8.2201502    551.59415  0.017132381  0.016755469            3 
 2684000   0.81952133   -8.2167106    551.21213  0.017114137  0.016749908            4 
 2685000   0.83181027    -8.201732    551.35894   0.01711232   0.01674437            3 
 2686000   0.80516887    -8.204496    552.00548  0.017126008  0.016738845            3 
 2687000   0.81691749   -8.2005055    551.32784  0.017098618  0.016733328            8 
 2688000   0.82814136   -8.1866565    552.36134  0.017124297  0.016727807            2 
 2689000   0.79935534   -8.2090955    550.80646  0.017069743  0.016722266            7 
 2690000   0.83053256   -8.2264701    551.71138  0.017091431  0.016716746            1 
 2691000   0.81056635   -8.2098184    550.57052   0.01704975  0.016711254            1 
 2692000   0.82516425   -8.2231576    551.05178  0.017058314  0.016705734            4 
 2693000   0.82164905   -8.2074042    551.79851  0.017075087  0.016700231            3 
 2694000   0.83069732   -8.1953145     552.6676  0.017095632  0.016694725            1 
 2695000    0.8187592   -8.1967124    552.47813   0.01708343  0.016689234            3 
 2696000   0.83754975   -8.2050345    551.90165  0.017059275  0.016683755            3 
 2697000   0.83163173   -8.1911531    552.12205  0.017059759  0.016678271            6 
 2698000   0.82494508   -8.1771904    552.11138  0.017053107  0.016672808            5 
 2699000   0.82052497   -8.1811879    552.48896  0.017058446  0.016667341            4 
 2700000   0.81428045   -8.1980299    551.90655  0.017034153  0.016661859            3 
 2701000   0.81889031   -8.2254965    551.31013  0.017009445  0.016656328            5 
 2702000   0.80601994   -8.2029469       551.79   0.01701795  0.016650792            2 
 2703000   0.79744246    -8.223265    551.73755  0.017010037  0.016645263            4 
 2704000   0.83181159   -8.2292996    551.51476   0.01699688  0.016639721            3 
 2705000   0.82460446    -8.227687    551.85806  0.017001172  0.016634213            3 
 2706000   0.82510615   -8.2340809    550.38023  0.016949379  0.016628697            3 
 2707000   0.82698792   -8.2301623    552.23784  0.017000303  0.016623167            1 
 2708000   0.80845417   -8.2110438    552.52084  0.017002734  0.016617674            4 
 2709000   0.82010678   -8.2024573     551.5159  0.016965544  0.016612152            1 
 2710000    0.8109911    -8.220824    551.81869  0.016968595  0.016606645            3 
 2711000   0.82152258   -8.2229685    553.11061  0.017002048  0.016601141           10 
 2712000   0.81607173   -8.1911138    552.45149  0.016975525  0.016595663            2 
 2713000   0.83037157   -8.2101823    551.55003  0.016941579  0.016590187            4 
 2714000   0.84542611   -8.2261149    551.39435  0.016930556  0.016584692            5 
 2715000   0.79985636   -8.2031197    553.50692  0.016989163  0.016579184            5 
 2716000   0.81840576   -8.2063622    552.37355  0.016948133  0.016573681            2 
 2717000   0.82324171   -8.2240624    551.57204  0.016917312  0.016568169            7 
 2718000   0.82209529   -8.2060944    552.15547  0.016928976  0.016562653            1 
 2719000   0.80847061   -8.2209055     553.1771  0.016954061  0.016557162            3 
 2720000   0.81424735   -8.2126401    552.67524  0.016932452  0.016551638            6 
 2721000    0.8219885    -8.228925    552.23182  0.016912649  0.016546174            5 
 2722000   0.82155996   -8.1958364    553.43945  0.016943407  0.016540703            2 
 2723000   0.83620475   -8.1964814    552.57225  0.016910645  0.016535221            4 
 2724000   0.83241844   -8.2186352    551.85488  0.016882491  0.016529742            6 
 2725000   0.81651646   -8.2484711     551.6769  0.016870853  0.016524251           13 
 2726000   0.82108917    -8.196931    552.95768  0.016903818  0.016518754            3 
 2727000   0.79867696   -8.2072784    553.75215  0.016921897  0.016513277            1 
 2728000   0.80681588   -8.2373981    552.15745   0.01686698  0.016507788            5 
 2729000   0.81541179    -8.230063    552.17706  0.016861398  0.016502295            1 
 2730000   0.82172661   -8.2055713    552.49368  0.016864886  0.016496834            2 
 2731000   0.82010434   -8.2382671    552.29438   0.01685263  0.016491338            3 
 2732000   0.81404615   -8.2129294     553.4955  0.016883098  0.016485866            4 
 2733000   0.80820852     -8.21808    553.70924  0.016883438  0.016480396            3 
 2734000   0.82321955   -8.2065053    553.15338   0.01686032  0.016474911            4 
 2735000   0.82639484   -8.2266938    551.66991  0.016808955  0.016469459            4 
 2736000   0.80294936   -8.2236626    553.04526  0.016844702  0.016464003            2 
 2737000   0.81997236   -8.2301938    552.25926  0.016814616   0.01645854            3 
 2738000   0.80197466   -8.2368187     553.6521  0.016850867  0.016453046            2 
 2739000   0.81119979   -8.2612168     552.9363  0.016822937  0.016447538            3 
 2740000    0.8160251   -8.2507647    551.33361  0.016768054  0.016442021            2 
 2741000   0.79115856    -8.258726    552.87363  0.016808757  0.016436486            5 
 2742000    0.8197709   -8.2439535    551.96384  0.016774977  0.016430955            3 
 2743000   0.81524374   -8.2461748    552.72506  0.016791988  0.016425432            6 
 2744000   0.81894121   -8.2490985    552.10014   0.01676689  0.016419887            2 
 2745000   0.82645299   -8.2340452    553.09973  0.016791127  0.016414377            1 
 2746000   0.81171231   -8.2438666    553.08889  0.016784683  0.016408865            3 
 2747000   0.79983773   -8.2521707    552.76004  0.016768597  0.016403354            3 
 2748000   0.80154293     -8.24326    552.48882   0.01675427  0.016397845            2 
 2749000   0.79635025   -8.2578129    552.05851  0.016735131  0.016392344            5 
 2750000   0.80350894    -8.246424    553.89643   0.01678474  0.016386857            3 
 2751000   0.81186265   -8.2482323    553.87047  0.016777853  0.016381394            4 
 2752000   0.80174756   -8.2142831    552.19756  0.016721099  0.016375931            6 
 2753000   0.80089997   -8.2253253     552.6212  0.016727848  0.016370475            3 
 2754000   0.83022479   -8.2257087     553.6858  0.016753988  0.016364994            2 
 2755000   0.81794908   -8.2308296    554.08877  0.016760096  0.016359518            2 
 2756000   0.82128202   -8.2113984    554.77767  0.016774845  0.016354038            3 
 2757000   0.82538066   -8.2022706    554.25845  0.016753066  0.016348616            3 
 2758000   0.79168587   -8.2109445    554.24612   0.01674662  0.016343187            3 
 2759000   0.81851912   -8.2295577    553.75437  0.016725697  0.016337727            2 
 2760000   0.79779292   -8.2076679    552.88926  0.016693516  0.016332274            4 
 2761000   0.80853729   -8.2197147    553.78436  0.016714486  0.016326795            5 
 2762000   0.82111777    -8.231457    552.74867  0.016677187  0.016321313            3 
 2763000   0.80591189   -8.2238694     553.1049  0.016681895  0.016315826            3 
 2764000   0.80590937   -8.2234342    553.43042  0.016685673  0.016310332            4 
 2765000   0.81525136    -8.213402    552.65865  0.016656379  0.016304832            2 
 2766000   0.80712186   -8.2341228    554.17107  0.016695923  0.016299357            6 
 2767000   0.82496837   -8.2469012    553.83855  0.016679874   0.01629387            3 
 2768000   0.80795963   -8.2419876    555.06802  0.016710863  0.016288366            2 
 2769000    0.8054057   -8.2289066    553.08788  0.016645235  0.016282866            1 
 2770000   0.80344638   -8.2421609    552.65782  0.016626288  0.016277352            2 
 2771000   0.79934512   -8.2582644    553.08824  0.016633232  0.016271835            3 
 2772000   0.79372069   -8.2453867    552.09528  0.016597381  0.016266323            2 
 2773000   0.81691338   -8.2317769    553.70619  0.016639806  0.016260843            2 
 2774000   0.80942408   -8.2324543    554.85772  0.016668401  0.016255372            4 
 2775000   0.79903932   -8.2440892    553.71474   0.01662807  0.016249894            4 
 2776000   0.82077055   -8.2322859    553.91866  0.016628202  0.016244422            3 
 2777000   0.82593915   -8.2180561    554.57218  0.016641825  0.016238957            1 
 2778000   0.80929977   -8.2646867    554.14217  0.016622935  0.016233508            4 
 2779000   0.80743821   -8.2063619    555.50185  0.016657726  0.016228052            3 
 2780000    0.7858322   -8.2662612    554.85462  0.016632333  0.016222604            3 
 2781000   0.79945912   -8.2510061    553.70049  0.016591768  0.016217141            2 
 2782000   0.82016493   -8.2449155     554.2992  0.016603738  0.016211683            4 
 2783000   0.79052659   -8.2016338    554.33959  0.016598982  0.016206219            2 
 2784000   0.79862426   -8.2664523    553.90134  0.016579901  0.016200739            2 
 2785000   0.81417318   -8.2420194    554.74933  0.016599322  0.016195279            4 
 2786000   0.79838476   -8.2505756    553.87317  0.016567156  0.016189819            2 
 2787000   0.79987796   -8.2619242    554.19202  0.016570746  0.016184353            2 
 2788000   0.82502853    -8.289626    553.86161  0.016554926  0.016178926            2 
 2789000   0.80172655   -8.2538299    554.36924  0.016564158  0.016173462            1 
 2790000   0.82320311   -8.2596804    553.93281  0.016545186  0.016167989            4 
 2791000    0.8208164   -8.3025179    552.13038  0.016485441  0.016162485            3 
 2792000   0.80801195   -8.2611505    554.73492  0.016557274  0.016156996            3 
 2793000    0.8048808   -8.2657306    554.09464  0.016532243  0.016151513            1 
 2794000   0.81803921   -8.2686937      553.855  0.016519178  0.016146032            3 
 2795000   0.79758455   -8.2360796    555.12641  0.016551175  0.016140577            2 
 2796000   0.79146609   -8.2557992    554.05374  0.016513285  0.016135129            1 
 2797000   0.80235964   -8.2430127    554.45019  0.016519193   0.01612966            3 
 2798000   0.80808715   -8.2704534    553.46844  0.016484049  0.016124183            7 
 2799000   0.81143217    -8.262926    553.24122  0.016471395  0.016118696            4 
 2800000   0.82036408   -8.2593874     552.5803  0.016445842  0.016113188            3 
 2801000   0.80890308   -8.2382825    553.48813   0.01646698  0.016107694            2 
 2802000   0.81403061    -8.252093    553.99238    0.0164761  0.016102218            2 
 2803000   0.80530448   -8.2883909    553.00887  0.016440982  0.016096756            3 
 2804000   0.82158169   -8.2421228    554.35372  0.016475087  0.016091302            2 
 2805000   0.79628884   -8.2515877    554.15125  0.016463198  0.016085849            4 
 2806000   0.82054074   -8.2454166    555.14833  0.016486943  0.016080387            2 
 2807000   0.78305161   -8.2686582    553.95504  0.016445643   0.01607491           10 
 2808000   0.81048053   -8.2850577    554.25503  0.016448689  0.016069453           13 
 2809000   0.80350307   -8.2740845    554.12842  0.016439077  0.016063978            3 
 2810000   0.78845754    -8.276609    553.66737  0.016419554  0.016058517            2 
 2811000   0.77596157   -8.2685054    554.19038  0.016429218  0.016053023            5 
 2812000   0.78061822   -8.2538178    554.54263  0.016433814  0.016047536            2 
 2813000   0.79327836   -8.2791617    552.91203  0.016379667   0.01604206            1 
 2814000   0.79289408   -8.2531542    553.36533   0.01638727  0.016036554            1 
 2815000   0.79755161    -8.258134    553.50471  0.016385575  0.016031092            3 
 2816000   0.80820333   -8.2938472    553.06535  0.016366754  0.016025606            2 
 2817000   0.82051533   -8.2649037    553.10064  0.016361988  0.016020116            1 
 2818000   0.79377156   -8.2692183    553.07398  0.016355393   0.01601461            5 
 2819000   0.81301887   -8.2586138    553.39173  0.016358985  0.016009112            2 
 2820000    0.7790935   -8.2539645    553.94579  0.016369556  0.016003617            3 
 2821000    0.8047104   -8.2648817    554.34632  0.016375586  0.015998153            3 
 2822000   0.79984559   -8.2583785    555.26294   0.01639685  0.015992721            2 
 2823000   0.81442951   -8.2559973     554.7809  0.016376812  0.015987287            3 
 2824000   0.78852947   -8.2830932    554.97775  0.016376822  0.015981852            2 
 2825000   0.80725941   -8.2879725    553.67658  0.016332642  0.015976396            1 
 2826000   0.79145888   -8.3023643    553.25483  0.016314427  0.015970907            1 
 2827000   0.80299575   -8.2638358    553.55755  0.016317579  0.015965415            3 
 2828000   0.79314749   -8.2805098    553.11317  0.016298714  0.015959913            2 
 2829000   0.78822039   -8.2689227    553.88912   0.01631581   0.01595444            1 
 2830000   0.81342698   -8.2832164    553.70206  0.016304537  0.015948962            2 
 2831000   0.79393778   -8.2672063    554.07793  0.016309841  0.015943514            4 
 2832000   0.80337448   -8.2530431    554.72454  0.016323109  0.015938061            1 
 2833000   0.79889092   -8.2617524    555.01734   0.01632596  0.015932604            3 
 2834000   0.78891645   -8.2623115    554.03656   0.01629136  0.015927167            2 
 2835000   0.78772443    -8.263735    554.73908  0.016306263  0.015921738            3 
 2836000    0.7886893   -8.2750931    554.37965  0.016289952  0.015916284            6 
 2837000   0.78215951   -8.2804462    554.20216  0.016278997  0.015910832            1 
 2838000   0.80661012   -8.2779851    553.17402  0.016243071  0.015905389            5 
 2839000   0.79448593   -8.2783739    554.98482  0.016290502  0.015899957            4 
 2840000   0.81015062   -8.2866611     555.2027  0.016291159  0.015894517            1 
 2841000   0.79047566   -8.2871399    555.05528  0.016281101   0.01588905            2 
 2842000   0.79426182   -8.2951733    554.58786  0.016261666  0.015883613            2 
 2843000   0.78878377   -8.2918201    556.02398  0.016298041  0.015878177            8 
 2844000   0.80378633   -8.2738135    554.93172  0.016260306  0.015872713            7 
 2845000   0.80975194   -8.2948201    554.65894    0.0162466  0.015867262            3 
 2846000    0.8017675   -8.2837042    554.43079  0.016234211  0.015861833            2 
 2847000    0.8033088   -8.2855737    554.68454  0.016235937  0.015856417            2 
 2848000   0.79861087   -8.2719532    555.72807   0.01626077  0.015851029            2 
 2849000   0.79736124   -8.2700907    554.88535  0.016230413  0.015845611            3 
 2850000   0.80470593   -8.2796385    554.97755  0.016227414  0.015840219            1 
 2851000    0.8007104   -8.2731929    555.29608  0.016231032  0.015834842            6 
 2852000   0.78355401   -8.2722588    555.28115  0.016224905  0.015829449            4 
 2853000   0.80076274   -8.2787214       556.37  0.016251022  0.015824051            2 
 2854000   0.79704759   -8.2775532    556.83857   0.01625901  0.015818668            2 
 2855000   0.79679111   -8.3078208    555.70025  0.016220089  0.015813274            4 
 2856000   0.77776905   -8.2773154    554.33765  0.016174651  0.015807874            2 
 2857000   0.79337278   -8.2980092     555.0999  0.016191223  0.015802485            2 
 2858000   0.78320434    -8.263221    557.03128  0.016241873  0.015797098            2 
 2859000   0.78879758   -8.2866523      555.546  0.016192899   0.01579173            2 
 2860000   0.79018612   -8.2780593    556.43074  0.016213017  0.015786358            3 
 2861000   0.79138885   -8.2891706     556.9564  0.016222661   0.01578099            5 
 2862000   0.78806234   -8.2945461    555.69342  0.016180218  0.015775613            4 
 2863000   0.78956058   -8.2444999    555.78234  0.016177155   0.01577028            2 
 2864000   0.79385359   -8.2942004    556.44048  0.016190656  0.015764922            6 
 2865000   0.79463389   -8.2679945    557.79463  0.016224393  0.015759564            6 
 2866000   0.78531677   -8.2736945    557.27867   0.01620373  0.015754219            2 
 2867000   0.78038134   -8.2732975    556.99789  0.016189916  0.015748874            2 
 2868000   0.78966209   -8.2792722    557.03473  0.016185342  0.015743516            4 
 2869000   0.78674681   -8.2765396    556.40655  0.016161454  0.015738167            2 
 2870000   0.79649637   -8.2661934    556.11141  0.016147254  0.015732835            4 
 2871000   0.79673985     -8.27266    556.58408  0.016155349  0.015727519            2 
 2872000   0.79053244   -8.2719358     556.2633  0.016140416  0.015722188            2 
 2873000   0.77678793   -8.3005445     558.1632  0.016189906   0.01571683            2 
 2874000   0.78038815   -8.2792099    557.25442  0.016157922  0.015711492            2 
 2875000   0.79149301   -8.2934999    554.55861  0.016074162  0.015706146            4 
 2876000   0.79114254   -8.2811505    555.22595   0.01608791  0.015700767            3 
 2877000   0.77912396   -8.2727605    555.89155  0.016101598   0.01569539            3 
 2878000   0.79488424   -8.3009613    555.85301  0.016094887  0.015690039            3 
 2879000   0.79171196   -8.3008037    556.60042   0.01611093  0.015684691            3 
 2880000   0.76768173   -8.2925104    555.81892  0.016082723  0.015679368            4 
 2881000   0.77245128   -8.2757914    555.72537  0.016074435  0.015674024            3 
 2882000   0.79415238   -8.3052098    557.60287  0.016123146  0.015668669            1 
 2883000   0.78902078   -8.2613956    557.55619  0.016116204  0.015663348            2 
 2884000   0.77961971   -8.2993131    556.57371  0.016082227  0.015658046            2 
 2885000   0.78271344   -8.2902136    556.57556  0.016076706  0.015652715            2 
 2886000   0.76004191   -8.2879473    556.58048  0.016071277  0.015647383            2 
 2887000   0.77904269    -8.301649    558.03574  0.016107717  0.015642067            2 
 2888000   0.77207261    -8.320683    555.89451  0.016040354  0.015636748            2 
 2889000   0.78588723   -8.2887314    557.33179   0.01607626  0.015631429            2 
 2890000   0.79714853   -8.3328947    557.01277  0.016061499  0.015626116            2 
 2891000   0.78209323   -8.3047583    556.70712  0.016047132  0.015620772            4 
 2892000   0.78010008   -8.2921765    556.45786  0.016034401  0.015615452            2 
 2893000   0.79040546   -8.2915351    557.10797  0.016047585  0.015610125            4 
 2894000   0.79493371   -8.3081255    558.09636  0.016070501  0.015604816            1 
 2895000   0.80692596   -8.3085954    557.69374   0.01605336  0.015599513            5 
 2896000   0.78165637   -8.2884765      558.206  0.016062557  0.015594212            2 
 2897000   0.79836815   -8.3097803    556.76364  0.016015523  0.015588902            5 
 2898000   0.80800788   -8.3065397    558.11362  0.016048816  0.015583588            2 
 2899000   0.78052033   -8.3169687    557.77932   0.01603367  0.015578287            2 
 2900000   0.79272193   -8.3329376    557.18831  0.016011158  0.015572991            3 
 2901000   0.78540232   -8.2948028    558.05239  0.016030461  0.015567661            7 
 2902000   0.79586827    -8.308222     557.1805  0.015999899  0.015562338            2 
 2903000   0.80277486   -8.3223204    556.20622   0.01596642  0.015557014            9 
 2904000   0.79069843   -8.2968849    557.67674   0.01600312    0.0155517            7 
 2905000   0.76586933     -8.32423    557.27547  0.015986101  0.015546372            3 
 2906000   0.77324267     -8.31394     558.2093  0.016007378   0.01554106            1 
 2907000   0.76852178   -8.3351737     557.1589  0.015971761  0.015535734            8 
 2908000   0.77724055   -8.3209606    557.18803  0.015967103  0.015530421            3 
 2909000   0.78089802   -8.3102318    555.93226   0.01592564  0.015525108            2 
 2910000   0.79050474   -8.3067103    556.45661  0.015935184  0.015519779            2 
 2911000   0.78248026   -8.3143105    557.28927  0.015953546  0.015514455            1 
 2912000   0.79951685   -8.3135232    557.13509  0.015943655  0.015509138            7 
 2913000   0.77605576   -8.3207094    557.35095  0.015944357  0.015503828            7 
 2914000   0.78692473    -8.316313    557.36524  0.015939294   0.01549854            3 
 2915000   0.78993463   -8.3166332    557.40488   0.01593496  0.015493228            2 
 2916000   0.77893692    -8.298934    558.05261  0.015948006  0.015487935            4 
 2917000   0.78083589   -8.3038413    556.90189  0.015909664  0.015482646            2 
 2918000   0.78351999   -8.3065254    557.16396  0.015911696  0.015477342            3 
 2919000   0.78850301   -8.3164848    556.55097  0.015888745  0.015472052            2 
 2920000   0.78004709   -8.2901025    556.12092  0.015871031  0.015466765            4 
 2921000   0.79391346   -8.2939864    557.31458  0.015899651  0.015461492            3 
 2922000    0.7867112   -8.2837247    557.05222  0.015886728  0.015456218            5 
 2923000   0.77957105   -8.2742638     557.4308  0.015892086  0.015450951            2 
 2924000   0.78553025   -8.2841926    558.90492  0.015928663  0.015445696            1 
 2925000   0.78079027      -8.3251    557.55927   0.01588488  0.015440421           12 
 2926000   0.78413906   -8.2873703    557.95573  0.015890742  0.015435183            4 
 2927000   0.76872777   -8.2977651    556.72485  0.015850269  0.015429938            2 
 2928000   0.78470342    -8.289157    559.08733  0.015912094  0.015424687            6 
 2929000   0.79107635   -8.2984935    557.98764  0.015875374  0.015419434            2 
 2930000   0.78284197   -8.3137997    559.01708  0.015899234  0.015414165            1 
 2931000   0.77857505   -8.3074441    556.47532  0.015821543  0.015408903            2 
 2932000   0.77575156   -8.3171413    558.35449  0.015869557  0.015403628            4 
 2933000   0.77477765   -8.3284508    557.28322  0.015833709  0.015398346            3 
 2934000   0.79069757   -8.3201562    556.96839   0.01581937  0.015393071            1 
 2935000   0.79024662   -8.2952291    557.57187  0.015831115  0.015387814            6 
 2936000   0.79058343   -8.3103471    557.84987  0.015833613  0.015382533            2 
 2937000    0.7763562   -8.2890681    559.10547  0.015863848  0.015377276            4 
 2938000   0.80806913   -8.2952702    557.67927  0.015817996  0.015371999            3 
 2939000   0.76534249   -8.3125916    557.79778  0.015815974  0.015366722            1 
 2940000   0.77872505   -8.3092156    557.92161  0.015814104  0.015361443            3 
 2941000   0.77131258    -8.301873    557.01989  0.015783177  0.015356171            4 
 2942000   0.78525463   -8.2748646    559.41593  0.015845681  0.015350904            4 
 2943000   0.76538048   -8.2978056     559.1016  0.015831396  0.015345638            2 
 2944000    0.7656315   -8.3222341    556.96545  0.015765553  0.015340345            3 
 2945000   0.79413647   -8.3011291    556.80299  0.015755602  0.015335055            3 
 2946000   0.77638457   -8.2937179    556.85546  0.015751738  0.015329768            2 
 2947000   0.76082553   -8.3032359    557.42954  0.015762627  0.015324469            2 
 2948000   0.78166793   -8.3119895    557.04136  0.015746307  0.015319186            5 
 2949000   0.76807016   -8.3165976    557.09494  0.015742482  0.015313893            1 
 2950000   0.78886291   -8.3145498    556.58539  0.015722751  0.015308619            4 
 2951000   0.80427742   -8.3058594    556.39845  0.015712144   0.01530334            1 
 2952000   0.78073561    -8.292401     558.9129  0.015777803  0.015298054            1 
 2953000   0.78660709   -8.2926682    557.20352  0.015724222  0.015292779            2 
 2954000   0.78256354   -8.3195376    558.40761  0.015752867    0.0152875            2 
 2955000   0.78598325   -8.2992919    558.07277  0.015738093  0.015282195            6 
 2956000     0.757249   -8.3153071    558.22598  0.015737088  0.015276905            2 
 2957000    0.7877961   -8.3227927    558.18749  0.015730681  0.015271608            2 
 2958000   0.77789658   -8.3114861    558.15663  0.015724494  0.015266324            3 
 2959000   0.78387976    -8.344281    557.06321  0.015688386  0.015261032            2 
 2960000   0.76809279   -8.3311819    557.12698  0.015684881  0.015255756            4 
 2961000    0.7957434   -8.3118419    558.00392  0.015704264  0.015250495            1 
 2962000   0.78710518   -8.3328057    557.93572  0.015697044  0.015245263            3 
 2963000   0.76627629    -8.352109    556.72222  0.015657617  0.015239992            4 
 2964000   0.78914992   -8.3451693    557.06757  0.015662044   0.01523472            3 
 2965000   0.76436868   -8.3337979    556.82227  0.015649867  0.015229463            5 
 2966000   0.77001953   -8.3343349    557.82216  0.015672684  0.015224213            3 
 2967000   0.78416525   -8.3399091    558.05976  0.015674075   0.01521897            4 
 2968000   0.78433908   -8.3460723    557.38523  0.015649855  0.015213708            3 
 2969000   0.79796779   -8.3421689    558.79518  0.015684158  0.015208462            3 
 2970000   0.78841982   -8.3200201    558.65868  0.015675047   0.01520321            1 
 2971000   0.77216076   -8.3381439    558.33312   0.01566064  0.015197961            3 
 2972000    0.8071818   -8.3298633    556.86343  0.015614161  0.015192713            6 
 2973000   0.77512268   -8.3289805     557.9547  0.015639497  0.015187478            4 
 2974000   0.77503999   -8.3331504    559.30766  0.015672149  0.015182246            4 
 2975000   0.78587111   -8.3401364    559.38975  0.015669181  0.015177003            1 
 2976000   0.78407065   -8.3470092     559.1605  0.015657496  0.015171773            2 
 2977000   0.75741164   -8.3682019    556.84826  0.015587511  0.015166528            2 
 2978000   0.77657997   -8.3354539    557.22104  0.015592709  0.015161268            2 
 2979000   0.77026534   -8.3517582    557.62322  0.015598725  0.015156008            5 
 2980000   0.77857098   -8.3526066    558.27794  0.015611799  0.015150722            1 
 2981000   0.76683932   -8.3662413    557.67724   0.01558977  0.015145477            3 
 2982000   0.77779869   -8.3742694    557.13847  0.015569485  0.015140234            2 
 2983000      0.79308   -8.3526129    557.47399  0.015573639  0.015134959            3 
 2984000   0.77177393   -8.3689364    558.27707  0.015590848  0.015129714            2 
 2985000   0.78296069   -8.3406862    558.27662  0.015585612  0.015124485            4 
 2986000   0.77094791   -8.3674905    558.15134  0.015576896   0.01511924            4 
 2987000   0.77856667   -8.3789385    558.28889  0.015575519  0.015113989            2 
 2988000   0.78418458   -8.3314642     558.6483   0.01558033  0.015108751            3 
 2989000   0.78382264   -8.3627552    557.53805  0.015544163  0.015103509            8 
 2990000   0.77382072   -8.3387522    558.58037  0.015568015  0.015098291           10 
 2991000   0.77160958   -8.3363142    557.53926  0.015533803  0.015093054            9 
 2992000   0.76314382   -8.3674028    557.40179  0.015524782  0.015087828           13 
 2993000   0.79484565   -8.3273054    557.91498  0.015533884  0.015082597           10 
 2994000   0.76156616   -8.3497078    559.58571  0.015575198  0.015077371           16 
 2995000   0.76210014   -8.3533635     558.2947  0.015534076   0.01507213           15 
 2996000    0.7730169   -8.3460352    558.57134  0.015536586  0.015066906           14 
 2997000   0.77312936   -8.3526534    557.66645  0.015506241  0.015061677           11 
 2998000   0.77194695   -8.3567667    557.88484  0.015507139   0.01505644           10 
 2999000   0.78817763   -8.3574286    558.00603  0.015505336   0.01505121            6 
 3000000    0.7779235   -8.3808241     559.0819  0.015530053  0.015045984            6 
 3001000   0.75973479   -8.3463764    558.37198  0.015505164  0.015040778           12 
 3002000   0.77938009   -8.3513813    557.87973  0.015486335   0.01503555            6 
 3003000    0.7806178   -8.3520997    558.39395  0.015495448  0.015030309            6 
 3004000   0.76550432   -8.3623173    557.49841  0.015465446  0.015025069            4 
 3005000   0.76229748   -8.3466434     558.9744  0.015501231  0.015019833            2 
 3006000   0.76249439    -8.374365    559.08822   0.01549923  0.015014585            3 
 3007000   0.75344964   -8.3647607    558.77125  0.015485291  0.015009342            5 
 3008000   0.77907777   -8.3749861    559.48045  0.015499791  0.015004104            6 
 3009000    0.7807185   -8.3640538    557.76545  0.015447143  0.014998873            4 
 3010000   0.76283976   -8.3657268    559.57055  0.015491986  0.014993667            1 
 3011000   0.77472357   -8.3406089    559.01272  0.015471402  0.014988462            3 
 3012000   0.77812859   -8.3632964    558.83373  0.015461314  0.014983271            2 
 3013000   0.77082021   -8.3628955    558.85622  0.015456804  0.014978096            4 
 3014000    0.7625212   -8.3483092    558.56878  0.015443729  0.014972917            2 
 3015000   0.77211583   -8.3472068    558.89465  0.015447613  0.014967735            2 
 3016000   0.76946349   -8.3397347     558.1943  0.015423141  0.014962537            4 
 3017000   0.77601885   -8.3506537    558.96154  0.015439221  0.014957315            2 
 3018000   0.76610328   -8.3305309    556.99494  0.015379803  0.014952098            7 
 3019000   0.77785552   -8.3350946    559.96681  0.015456741    0.0149469            4 
 3020000    0.7780532    -8.363529    559.49694  0.015438657    0.0149417            3 
 3021000   0.76920876   -8.3521944    557.87086  0.015388692  0.014936504            1 
 3022000   0.75938396   -8.3785637    557.85733  0.015383227  0.014931314            6 
 3023000   0.76356523   -8.3345163    559.94472   0.01543568  0.014926128            1 
 3024000   0.77267779   -8.3502112    559.99304  0.015431907  0.014920941            2 
 3025000   0.76817005   -8.3846828    559.01592  0.015399888   0.01491576            2 
 3026000   0.76733685   -8.3589478    558.99174  0.015394132  0.014910576            5 
 3027000   0.77651683   -8.3692777    559.91496  0.015414463  0.014905402            5 
 3028000   0.75104594   -8.3546017    558.49618  0.015370326  0.014900255            2 
 3029000   0.77906181   -8.3646569    559.18352  0.015384162  0.014895095            2 
 3030000   0.77533096   -8.3816094    559.23986  0.015380634  0.014889926            2 
 3031000   0.76552666   -8.3495902    558.33353  0.015350641  0.014884756            1 
 3032000   0.76192297   -8.3323501    559.77196  0.015385113  0.014879581            4 
 3033000   0.78038671   -8.3587984    558.93243  0.015356974  0.014874425            1 
 3034000   0.77691449   -8.3681108    558.97852  0.015353178  0.014869269            7 
 3035000   0.76970647   -8.3401469    558.92904  0.015346761  0.014864123            2 
 3036000    0.7725699   -8.3533231    560.52941  0.015385634  0.014858975            2 
 3037000   0.78367664    -8.356937     559.2085  0.015344323  0.014853826            3 
 3038000   0.76624031   -8.3494811    557.76763  0.015299748  0.014848697            5 
 3039000   0.77090861   -8.3537231    560.29883  0.015364123  0.014843563            3 
 3040000   0.75803533   -8.3453905    559.56825  0.015339042  0.014838444            4 
 3041000   0.75068412   -8.3383842     559.4805  0.015331593  0.014833309            6 
 3042000   0.76540071   -8.3341216    560.64435  0.015358436  0.014828185            3 
 3043000   0.75321614   -8.3492437    560.07458  0.015337786  0.014823063            1 
 3044000     0.778426    -8.335644    560.50775  0.015344606  0.014817931            8 
 3045000   0.77492596   -8.3700041    558.87972  0.015295012  0.014812811            2 
 3046000   0.76336661    -8.356522    560.60768  0.015337264  0.014807693            8 
 3047000   0.76742074   -8.3644333    560.08404  0.015317909  0.014802578            6 
 3048000    0.7724865   -8.3354613    560.35329  0.015320245  0.014797477            1 
 3049000    0.7774669   -8.3217724    560.99003  0.015332623  0.014792402            2 
 3050000   0.76063207   -8.3597178    560.16524  0.015305061  0.014787333            3 
 3051000   0.75841823    -8.365661    559.28913  0.015276115  0.014782232            3 
 3052000   0.77246196   -8.3538282    560.49438  0.015304019  0.014777112            5 
 3053000    0.7579583   -8.3742591    560.85438  0.015308832  0.014772012            4 
 3054000   0.76235922   -8.3443054    560.73356  0.015300523   0.01476691            2 
 3055000    0.7565307    -8.353376    561.81413   0.01532499  0.014761804            3 
 3056000   0.77013813   -8.3398087    560.50075  0.015284161  0.014756701            2 
 3057000   0.76694677   -8.3630333    560.27439  0.015272991  0.014751594            1 
 3058000   0.75339369   -8.3511361    559.69043  0.015252083  0.014746483            2 
 3059000   0.76825626   -8.3726216    559.44519  0.015240416  0.014741369            3 
 3060000    0.7812773   -8.3611598     560.1757   0.01525533   0.01473625            2 
 3061000   0.77295673   -8.3833672    558.94015  0.015216709  0.014731116            2 
 3062000   0.77221375   -8.3599371    560.43529   0.01525243  0.014725998            2 
 3063000   0.74820805   -8.3822633    559.41049  0.015219569  0.014720882            2 
 3064000   0.78030972   -8.3714273    560.94717  0.015256396  0.014715767            1 
 3065000   0.76047468   -8.3594457    561.32019   0.01526156  0.014710664            4 
 3066000   0.75687398   -8.3852269    561.15047   0.01525197  0.014705539            2 
 3067000   0.75967953   -8.3762667    559.30927   0.01519697  0.014700429            2 
 3068000   0.76851976   -8.3884444     559.9426  0.015209219  0.014695337            4 
 3069000   0.77971092   -8.3800232    559.24134  0.015185222  0.014690237            3 
 3070000    0.7567522   -8.3617296    560.47642  0.015213801  0.014685124            3 
 3071000   0.74383759   -8.4017628    560.15428  0.015200105  0.014680008            3 
 3072000   0.76672974   -8.3877644    558.78398  0.015157986  0.014674875            3 
 3073000   0.77133477    -8.378462    558.54438  0.015146556  0.014669734            8 
 3074000   0.75758345   -8.3698566    559.96967  0.015180267  0.014664595            4 
 3075000   0.74314487     -8.39849    559.86693  0.015172546  0.014659457            3 
 3076000   0.75428771   -8.3559271    560.44225  0.015183199  0.014654334            4 
 3077000   0.76125291   -8.3862487    560.14041   0.01517009  0.014649225            3 
 3078000   0.76974281   -8.3721043    560.89497   0.01518559  0.014644097            2 
 3079000   0.77355087   -8.3726646    561.34041  0.015192714  0.014639005            2 
 3080000   0.76504373   -8.3985288    560.00319  0.015151602  0.014633899            4 
 3081000   0.76078934     -8.35944    559.40973  0.015130632  0.014628812            3 
 3082000   0.76147387   -8.3732243    560.75219  0.015162021  0.014623719            9 
 3083000   0.74659728   -8.3595165    561.02649  0.015164517   0.01461863            3 
 3084000   0.75775555   -8.3826983    560.30021  0.015139975  0.014613535            4 
 3085000   0.74538819   -8.4099503    558.85656  0.015096071  0.014608414            1 
 3086000   0.75525549   -8.3949428    558.90134  0.015092389   0.01460329            3 
 3087000   0.75034004   -8.3679863    558.91747  0.015087935   0.01459817            1 
 3088000   0.76470167   -8.3958219    559.58825  0.015101151  0.014593035            2 
 3089000   0.77268879   -8.3976594    558.23718  0.015059814  0.014587905            6 
 3090000   0.75332304    -8.376573    560.43443  0.015114197  0.014582801            2 
 3091000   0.76073511   -8.3824805     559.5018  0.015084164  0.014577721            2 
 3092000   0.75479416   -8.3897278    560.01474   0.01509311  0.014572642            3 
 3093000   0.74792696   -8.3912615    559.28498  0.015068568  0.014567543            4 
 3094000   0.74608441   -8.4054025    559.89479  0.015080123  0.014562446            3 
 3095000   0.73144627   -8.3692875    560.07099  0.015079994  0.014557339            5 
 3096000   0.74977787    -8.389537    558.63435  0.015036454  0.014552247            5 
 3097000   0.73992167   -8.3988932     559.4576  0.015053751  0.014547169            6 
 3098000    0.7579841   -8.3973328    560.28313  0.015071098  0.014542083            4 
 3099000   0.75822649   -8.3583115    561.19502  0.015090756  0.014536997            3 
 3100000   0.75979291   -8.3671764    560.03591  0.015054729  0.014531909            3 
 3101000    0.7652484   -8.4007427     558.0989  0.014997821  0.014526805            2 
 3102000   0.75968642   -8.3946955    560.36558  0.015053879  0.014521706            4 
 3103000    0.7651071   -8.4106158    559.41702  0.015023553  0.014516612            6 
 3104000   0.75123301   -8.4076171    558.72604  0.015000162  0.014511525            2 
 3105000   0.75742016   -8.3926743    559.79708  0.015024076  0.014506427            4 
 3106000   0.76209017    -8.401221    558.59091  0.014986878  0.014501337            1 
 3107000   0.74575905   -8.3938743    558.52107  0.014980181  0.014496226            3 
 3108000   0.75716892   -8.3809454    559.22509  0.014994238  0.014491123            2 
 3109000   0.74602303   -8.4007239    559.25339  0.014990173  0.014486012            3 
 3110000   0.75449541   -8.4140992    560.03906  0.015006406  0.014480916            2 
 3111000   0.75357402   -8.3819512    559.17116  0.014978334   0.01447581            2 
 3112000   0.75638425   -8.4335104    559.93572  0.014993994  0.014470716            8 
 3113000   0.73280061   -8.3989565    560.33816  0.014999951   0.01446564            3 
 3114000   0.74365915   -8.3866495    559.83468   0.01498166  0.014460563            3 
 3115000   0.75363199   -8.4086917    558.62079  0.014944376  0.014455486            3 
 3116000   0.74959838   -8.4256498    559.95576  0.014975283  0.014450407            5 
 3117000   0.73987473   -8.4077176     560.3789  0.014981791  0.014445313            8 
 3118000   0.75705236   -8.4051585    559.90735  0.014964383  0.014440222            2 
 3119000   0.74864952   -8.4363682    558.15043  0.014912644  0.014435135            3 
 3120000   0.75061307   -8.4026649    559.65764  0.014948121  0.014430058            4 
 3121000    0.7495538   -8.4271172    559.36366  0.014935482  0.014424979            4 
 3122000   0.73549771   -8.4060214    559.59125  0.014936773  0.014419894            2 
 3123000   0.76999512   -8.3934561    560.90606  0.014967074  0.014414812            9 
 3124000   0.74406527   -8.4147667    559.69744  0.014930043  0.014409732            3 
 3125000   0.76147379   -8.4131045    560.44838   0.01494529  0.014404667            2 
 3126000   0.74584183   -8.3961478    560.79631  0.014949784  0.014399585            5 
 3127000   0.75761791   -8.3793552    560.39046  0.014934188  0.014394529            7 
 3128000   0.75995963   -8.3937609    559.97908  0.014918454  0.014389479            3 
 3129000   0.73401469   -8.3879248    560.15891  0.014918475  0.014384419            1 
 3130000   0.75225056   -8.4180773    559.47719  0.014895559  0.014379359            4 
 3131000   0.74167393   -8.4118611    559.52444  0.014892059  0.014374286            4 
 3132000   0.76411857   -8.4093634    559.83809   0.01489565  0.014369211           11 
 3133000   0.75131043   -8.3935778    559.22042  0.014874466  0.014364157            3 
 3134000   0.76268078   -8.4277282     559.6901  0.014882209  0.014359122            2 
 3135000   0.74935655   -8.4156819     560.7142  0.014904684  0.014354082            3 
 3136000   0.73226182   -8.4011435    560.47983  0.014893703  0.014349053            2 
 3137000   0.74261104   -8.3971882    561.10673  0.014905609   0.01434401            1 
 3138000   0.75230509    -8.419805    559.90841  0.014869036  0.014338964            3 
 3139000   0.74904724   -8.4027616    559.39375  0.014850636  0.014333923            6 
 3140000   0.75178626   -8.4132411    560.77984  0.014882692  0.014328886            6 
 3141000   0.75512174   -8.4137911    561.39246  0.014894207  0.014323835           12 
 3142000   0.75434404   -8.4270409    560.40665  0.014863321  0.014318775            3 
 3143000    0.7539162   -8.4402444    559.96158  0.014846791  0.014313708            5 
 3144000   0.74649785   -8.4534887    559.27522  0.014823877  0.014308653            4 
 3145000    0.7498768   -8.4210296     559.5439  0.014826282  0.014303582            3 
 3146000   0.76964328   -8.4278689    560.62539  0.014850217  0.014298524            3 
 3147000   0.76025535   -8.4110424    560.46555  0.014841266  0.014293476            3 
 3148000   0.74171835   -8.4047978    560.36431  0.014833871  0.014288434            3 
 3149000   0.75922184     -8.42125    560.85575  0.014842165  0.014283397            3 
 3150000   0.74778166   -8.4184375    560.35283  0.014824149  0.014278365            7 
 3151000   0.75381727   -8.3972265    561.49487  0.014849647  0.014273326            2 
 3152000   0.75352071   -8.4349366    560.73852   0.01482494  0.014268292            3 
 3153000   0.74900433   -8.4128097    559.94697  0.014799317   0.01426326            5 
 3154000   0.73467372    -8.428704    560.07267  0.014797946  0.014258224            3 
 3155000    0.7482865   -8.4519536     559.7822  0.014785584  0.014253166            3 
 3156000   0.74926065    -8.428615    559.63662  0.014777055  0.014248123            3 
 3157000   0.74482477   -8.4600274    558.81922  0.014750798  0.014243065            5 
 3158000   0.75588043   -8.4319321    560.02437  0.014777928  0.014238013            4 
 3159000   0.75606319   -8.4049408    561.22654  0.014804963  0.014232994            1 
 3160000   0.73519436   -8.4225752    560.40588  0.014778636  0.014227979            2 
 3161000    0.7517372    -8.411972    559.40092  0.014747467  0.014222957            2 
 3162000   0.75816247   -8.4267337    561.04394  0.014786104  0.014217954            4 
 3163000   0.74509046   -8.4263687    560.77547  0.014774356  0.014212939            1 
 3164000   0.74641253   -8.4165428    560.09027   0.01475164  0.014207935            6 
 3165000   0.73801658   -8.4143931    561.41589  0.014781882  0.014202933            4 
 3166000   0.75931688   -8.4243831    559.96361  0.014738988  0.014197931            2 
 3167000   0.73599278   -8.4021984    561.29533  0.014769375   0.01419292            6 
 3168000   0.74094551   -8.4414096    560.97446  0.014756273  0.014187895            5 
 3169000   0.75301142   -8.4261242    560.30072  0.014733899  0.014182871            8 
 3170000   0.74717153   -8.4396454    560.40027  0.014731868  0.014177854            2 
 3171000   0.73796081   -8.4280065    559.22377  0.014696304  0.014172833            3 
 3172000   0.75761172   -8.4325196    561.31198  0.014746532  0.014167816            3 
 3173000   0.72921706   -8.4149314    560.25788    0.0147142    0.0141628            4 
 3174000    0.7233374   -8.4169028    559.86883   0.01469935  0.014157777            2 
 3175000   0.74326807   -8.4362553    561.73435  0.014743684  0.014152764            4 
 3176000   0.73144003    -8.419574    560.25429  0.014700207  0.014147774            2 
 3177000   0.72778185   -8.4175206    560.95594  0.014713984   0.01414278            2 
 3178000   0.74609726   -8.4443444    560.85378  0.014706676  0.014137786            2 
 3179000   0.73553065   -8.4504673    559.09862   0.01465604  0.014132775            3 
 3180000   0.74230419   -8.4713235    560.03406  0.014675945  0.014127765            4 
 3181000    0.7463569   -8.4439905     559.6988  0.014662548  0.014122761            2 
 3182000   0.74770456   -8.4289934    559.83957  0.014661627  0.014117754            3 
 3183000   0.75077057   -8.4123767    561.84444   0.01470951  0.014112757            2 
 3184000   0.73537261   -8.4685548    560.80223  0.014677613  0.014107762            6 
 3185000   0.73338528   -8.4291545    560.78224  0.014672481   0.01410277            3 
 3186000   0.74978769   -8.4473308    560.56694  0.014662245  0.014097783            2 
 3187000   0.74596129   -8.4478613    560.34792  0.014651917  0.014092783            4 
 3188000   0.74017591   -8.4415643    561.00756  0.014664564  0.014087774            2 
 3189000   0.75608416   -8.4625993    559.22633  0.014613419  0.014082787            1 
 3190000    0.7607077   -8.4119128    561.38841  0.014665319  0.014077795            3 
 3191000   0.74276371   -8.4551954     559.9555  0.014623302  0.014072819            8 
 3192000   0.74455146    -8.455687    559.60876  0.014609669  0.014067836            3 
 3193000    0.7442346   -8.4145821    560.84096  0.014637252  0.014062857            2 
 3194000   0.74442567    -8.426888    559.16422  0.014588923  0.014057874            3 
 3195000    0.7413332   -8.4344654    561.31122  0.014640355  0.014052894            2 
 3196000   0.73625471   -8.4463074    559.54068  0.014589609  0.014047915            2 
 3197000   0.74738023   -8.4177264    560.97075  0.014622322  0.014042927            4 
 3198000   0.74392933   -8.4237767    559.74017  0.014585683   0.01403796            2 
 3199000   0.73184868   -8.4447887    559.83248  0.014583528  0.014032989            5 
 3200000   0.74566247   -8.4204778    560.59084   0.01459872  0.014028019            4 
 3201000   0.73254193   -8.4418703    559.97118  0.014578027  0.014023063            4 
 3202000   0.73872557   -8.4206647    561.50205  0.014613316  0.014018118            2 
 3203000   0.73518216   -8.4316831    560.98384  0.014595271  0.014013176            3 
 3204000   0.74303567    -8.412137    561.31408  0.014599305  0.014008252            2 
 3205000   0.74847992   -8.4125216    559.91587  0.014558395  0.014003334            3 
 3206000    0.7362472   -8.4166598     560.2108   0.01456152  0.013998399            2 
 3207000   0.73832665   -8.4144855    562.33982  0.014612302  0.013993457            4 
 3208000   0.73333698   -8.4193718    560.54355  0.014561085  0.013988526            7 
 3209000   0.73030408   -8.4497236    559.60428  0.014532157  0.013983586           11 
 3210000   0.75834397   -8.4324983    561.03337  0.014564729  0.013978639            2 
 3211000   0.71782371   -8.4643077    559.78271  0.014527736  0.013973703            3 
 3212000   0.73151227   -8.4464598    561.07319  0.014556694   0.01396876            4 
 3213000   0.75020529   -8.4515842    560.80185  0.014545125   0.01396383            6 
 3214000   0.73942876   -8.4295078    561.78842   0.01456618  0.013958901            5 
 3215000   0.74571675   -8.4269667    560.93701   0.01453958  0.013953971            3 
 3216000   0.74215987   -8.4016757    561.44705  0.014548276  0.013949057            1 
 3217000   0.73923582   -8.4407169    560.81412  0.014527358  0.013944145            4 
 3218000   0.72372226   -8.3903899    561.95543  0.014552399  0.013939244            2 
 3219000   0.71589463   -8.4259981    560.87823  0.014519991  0.013934339            3 
 3220000   0.73327324   -8.4318216    562.24815  0.014550935  0.013929443            3 
 3221000   0.72765528   -8.4303109    561.51767  0.014527519  0.013924548            3 
 3222000   0.73942844   -8.4379474    560.51718  0.014497134  0.013919641            1 
 3223000    0.7406123   -8.4204401    561.25426  0.014511694  0.013914726            2 
 3224000   0.73837224   -8.4287704    561.77998  0.014520781  0.013909831            2 
 3225000   0.73601763   -8.4407716    561.50688  0.014509222  0.013904916            2 
 3226000   0.72302831   -8.4557431    560.90019  0.014489052  0.013899999            3 
 3227000   0.73854818   -8.4214853    560.05377  0.014462705  0.013895087            2 
 3228000   0.73230273   -8.4280653    560.48882  0.014469455  0.013890184            2 
 3229000   0.73789911   -8.4322535    561.82056  0.014499343  0.013885288            3 
 3230000   0.71178378   -8.4536354    562.14321  0.014503179  0.013880387            4 
 3231000   0.73974692   -8.4483251    561.19963  0.014474353  0.013875486            2 
 3232000   0.72592088   -8.4604447    561.55057  0.014478924  0.013870576            2 
 3233000    0.7342814   -8.4538786    561.34053  0.014469031  0.013865668            2 
 3234000   0.73564829   -8.4435481    560.93654  0.014454147  0.013860758            2 
 3235000   0.74763015   -8.4295746    561.44595  0.014462801  0.013855851            4 
 3236000   0.73833176   -8.4348879    561.82205  0.014468017  0.013850954            6 
 3237000    0.7191466   -8.4169519    561.78883  0.014462693  0.013846065            3 
 3238000   0.72914399   -8.4487299    560.82229  0.014433351   0.01384118            3 
 3239000   0.73008536   -8.4668442    560.73268  0.014426589  0.013836285            5 
 3240000   0.74030856   -8.4304455    561.37748  0.014438721  0.013831399            4 
 3241000   0.71644609   -8.4387852    561.32359  0.014432881  0.013826516            3 
 3242000   0.73181678   -8.4568814    560.11617  0.014397393  0.013821627            3 
 3243000   0.73856164   -8.4372356     562.4338  0.014452508  0.013816756            3 
 3244000   0.73881663   -8.4133952    560.93895  0.014409652  0.013811864            4 
 3245000   0.73554517   -8.4431752    560.48547  0.014393566  0.013806993            3 
 3246000   0.72741325    -8.441042    561.15954  0.014406437   0.01380212            1 
 3247000   0.73597179   -8.4564121    561.55934  0.014412261  0.013797257            4 
 3248000   0.73799555    -8.439754    561.42007  0.014404251  0.013792383            4 
 3249000   0.72038639   -8.4478187     561.0334    0.0143899  0.013787494            5 
 3250000   0.71388344   -8.4275987    561.44204   0.01439595   0.01378261            4 
 3251000   0.72381044   -8.4404844    560.82114  0.014375606  0.013777746            3 
 3252000   0.74109913   -8.4402485    560.85036  0.014371934  0.013772872            7 
 3253000   0.72810322   -8.4580211    560.68296  0.014363228  0.013767978            4 
 3254000   0.75439936   -8.4639974    561.02703  0.014367625  0.013763079            2 
 3255000   0.75082841   -8.4500912    560.26153  0.014343613  0.013758185            3 
 3256000   0.71660202   -8.4545786    561.65401  0.014374847  0.013753311            3 
 3257000   0.73401183   -8.4638697    560.95056  0.014352435  0.013748435            1 
 3258000   0.74758821   -8.4736087    560.79122  0.014343954  0.013743552            3 
 3259000   0.74508018    -8.490566    560.92547  0.014342985  0.013738659            5 
 3260000   0.72172435   -8.4694978     559.6938  0.014307101  0.013733766            3 
 3261000   0.73107754   -8.4542087      559.967  0.014309695  0.013728869            2 
 3262000   0.73924785    -8.481932    559.85266  0.014302388  0.013723953            4 
 3263000   0.74259195   -8.4837887     560.3582  0.014310915  0.013719051            4 
 3264000   0.72364031   -8.4876453    560.25749   0.01430396  0.013714146            4 
 3265000   0.73988398   -8.4544137    561.41165  0.014329036  0.013709253            2 
 3266000   0.72543868   -8.5199998    559.81793  0.014283985   0.01370436            3 
 3267000    0.7290826   -8.4685546    561.43462   0.01432085  0.013699482            5 
 3268000   0.73031298    -8.484251    561.66551  0.014322356  0.013694606            3 
 3269000   0.72392507   -8.4702046    559.89396  0.014272814   0.01368972            2 
 3270000   0.74075394   -8.4856806    560.38603   0.01428099  0.013684825            4 
 3271000   0.72509688   -8.4670387    561.01485  0.014292644   0.01367993            4 
 3272000   0.73026509   -8.4555892    560.48347  0.014274742   0.01367503            3 
 3273000   0.73927507   -8.4536301    560.01462  0.014258443  0.013670146            2 
 3274000   0.73585435   -8.4867493    559.39161  0.014238231  0.013665264            2 
 3275000   0.72982171   -8.4574726    560.89471   0.01427213   0.01366038            6 
 3276000   0.71944249   -8.4775252    561.09866  0.014272961  0.013655509            3 
 3277000   0.71126116   -8.4555257    560.57821  0.014255371  0.013650663            6 
 3278000   0.72296153    -8.439256    562.17013  0.014291492  0.013645808            2 
 3279000   0.71880534   -8.4938237    561.73154  0.014275987  0.013640946            2 
 3280000   0.73244533   -8.4733677    560.47301   0.01423966  0.013636078            5 
 3281000   0.71199278   -8.4695757    561.26359    0.0142554  0.013631218            2 
 3282000   0.71315411   -8.4473441    561.99518  0.014269632  0.013626356            4 
 3283000   0.73214336    -8.508893     560.6001  0.014229874  0.013621498            5 
 3284000   0.71981877    -8.462117    560.52132  0.014223541  0.013616621            6 
 3285000    0.7270438    -8.514447    559.83266  0.014201742   0.01361175            3 
 3286000   0.71443589   -8.4945891    559.95078  0.014200415  0.013606884            2 
 3287000      0.71505   -8.4918881    559.53573  0.014185573  0.013602019            2 
 3288000   0.70983564   -8.4960779    560.93896  0.014216823  0.013597146            1 
 3289000   0.71974955   -8.4920504    559.84004  0.014184657  0.013592274            1 
 3290000   0.72771682    -8.480348    561.45939  0.014221362  0.013587417            2 
 3291000    0.7168429   -8.4661017    559.63628  0.014170877  0.013582558            1 
 3292000   0.72322496   -8.4571085    561.58512  0.014215905  0.013577708            2 
 3293000   0.73223875   -8.4965583    561.72849  0.014215216  0.013572866            4 
 3294000   0.72129834   -8.4861097    560.98528  0.014192099  0.013568027            2 
 3295000   0.71211474   -8.4700478    560.94562  0.014186789  0.013563181            3 
 3296000     0.734295   -8.4815159    560.70591  0.014176424   0.01355834            3 
 3297000   0.72826863      -8.4793     560.1485  0.014158035  0.013553492            3 
 3298000   0.74185718   -8.4859214    559.42267  0.014135402  0.013548647            6 
 3299000   0.73110143   -8.4856474    562.85124  0.014217724  0.013543819            2 
 3300000   0.73308502   -8.4819843    561.87912  0.014188867  0.013538991            5 
 3301000   0.73217208   -8.4876092    561.69731  0.014179978  0.013534171            2 
 3302000   0.73843472   -8.4638134    561.81567  0.014178671  0.013529338            4 
 3303000   0.71369388   -8.4955613    561.10798  0.014156524  0.013524525            3 
 3304000   0.71864361   -8.4794641    560.84946  0.014145719  0.013519703            4 
 3305000   0.71706146   -8.4627371    560.85074  0.014141471  0.013514878            3 
 3306000    0.7184697   -8.5084717     560.8587  0.014137394  0.013510065            4 
 3307000   0.71903103   -8.4737015    560.79622  0.014131545  0.013505256            2 
 3308000   0.73683856   -8.4783671    561.67357  0.014149375   0.01350044            2 
 3309000   0.71549228   -8.5047732    560.87032   0.01412487  0.013495629            3 
 3310000   0.73136498   -8.4810196    561.09973  0.014126378   0.01349082            3 
 3311000   0.71033838   -8.5087662    560.40947  0.014104739  0.013486005            2 
 3312000   0.74128372   -8.4888425    560.85112  0.014111592  0.013481188            5 
 3313000   0.72287549   -8.4876435    561.19241  0.014115917  0.013476384            6 
 3314000   0.73024939   -8.4814308    561.09199  0.014109133  0.013471592            2 
 3315000   0.71834649   -8.4806658    562.06398  0.014129311  0.013466792            6 
 3316000   0.71740649   -8.5039372    561.21638  0.014103749  0.013461997            5 
 3317000   0.72170324   -8.5009607    559.94372  0.014067524  0.013457199            2 
 3318000    0.7208064   -8.5082933    559.99028  0.014064454  0.013452394            4 
 3319000   0.71404491   -8.4881027    561.41274  0.014095931   0.01344759            5 
 3320000   0.72497474   -8.4836784    561.04305  0.014082406  0.013442796            4 
 3321000    0.7095849   -8.4808713    560.85949  0.014073559  0.013438008            6 
 3322000   0.74521079   -8.5086049    560.79642  0.014067741  0.013433209            2 
 3323000   0.70699867   -8.4879889    560.59916  0.014058561  0.013428415            6 
 3324000   0.74907512   -8.5169234    561.36018   0.01407341  0.013423607            3 
 3325000   0.70804469    -8.506631    560.63489     0.014051  0.013418796            9 
 3326000   0.72798479   -8.5242919    560.11516  0.014033753   0.01341398            3 
 3327000   0.75132383   -8.5169617    560.10429  0.014029263   0.01340918            4 
 3328000   0.71557077   -8.5016188    560.50566  0.014035098   0.01340438            2 
 3329000   0.70865711   -8.5048082    560.73479  0.014036617  0.013399567            6 
 3330000   0.72334456   -8.5051527    561.48678  0.014051221  0.013394771            3 
 3331000   0.72059967   -8.4813518    560.75261  0.014028635  0.013389981            2 
 3332000   0.71779402   -8.5060661    560.19832  0.014010562  0.013385182            3 
 3333000   0.73816977   -8.5029539    560.66267  0.014017969  0.013380383            3 
 3334000   0.71187164   -8.4996556    561.18235  0.014026753  0.013375589            6 
 3335000   0.72905477   -8.4907906    559.70886  0.013985729  0.013370804            3 
 3336000   0.72111618   -8.4770862    560.83581  0.014009687  0.013366028            3 
 3337000   0.73133011   -8.5084128    560.79887  0.014004567  0.013361241            3 
 3338000   0.72386837   -8.4927046     560.9179  0.014003343  0.013356445            1 
 3339000   0.69527081    -8.493845    561.20756  0.014006378   0.01335165            3 
 3340000   0.70816744   -8.5062295    561.17959  0.014001487   0.01334686           10 
 3341000   0.71117367   -8.5163459    560.76229  0.013986887  0.013342083            4 
 3342000    0.7359142   -8.4900063    561.46452  0.014000212  0.013337301            5 
 3343000   0.73078735   -8.5155992      559.754  0.013953385  0.013332521            3 
 3344000   0.72518817    -8.537738    560.48553  0.013967442  0.013327739            4 
 3345000   0.72518322   -8.5113824    560.05336    0.0139525  0.013322962            2 
 3346000    0.7208445   -8.5081709    561.11537   0.01397478  0.013318168            3 
 3347000   0.71488678    -8.502505    561.61175  0.013982964  0.013313397            1 
 3348000   0.72662497    -8.512876    561.62701  0.013979167   0.01330862            2 
 3349000   0.71299101   -8.5043111    560.44343  0.013945542  0.013303836            3 
 3350000   0.70866641   -8.5433564    560.38743  0.013939986  0.013299077            6 
 3351000   0.73066292   -8.5157188     561.7918   0.01397075  0.013294305            5 
 3352000   0.70987157   -8.5035731    561.38944  0.013956579  0.013289544            4 
 3353000   0.73571577   -8.5105276    560.93044  0.013941009  0.013284788            3 
 3354000   0.70009846   -8.5198163    561.41259  0.013948832   0.01328002            1 
 3355000   0.70708959   -8.5159896    560.47081  0.013921282  0.013275251            2 
 3356000    0.6969189   -8.5130712    560.85524   0.01392668  0.013270493            3 
 3357000   0.71383972   -8.5502676    560.35062  0.013910004  0.013265725            3 
 3358000   0.70999725    -8.535371    560.56535  0.013911191  0.013260975            3 
 3359000   0.70494945   -8.5160327    559.87717  0.013889976  0.013256224            4 
 3360000   0.71257001   -8.4900813    560.93123  0.013911985  0.013251476            2 
 3361000   0.71026734   -8.5054247    561.36659   0.01391864   0.01324673            4 
 3362000   0.72139445   -8.5260062    560.50228  0.013893077  0.013241979            3 
 3363000    0.7149846   -8.4874825    561.53681   0.01391458  0.013237232            1 
 3364000   0.70720576   -8.5092218    561.38105  0.013906586   0.01323248            4 
 3365000   0.71355055   -8.5005834    561.04862   0.01389422  0.013227739            4 
 3366000   0.71055095   -8.5116499    562.19683  0.013918519   0.01322301            2 
 3367000   0.72350504   -8.5448098    559.99231  0.013859824  0.013218274            3 
 3368000   0.71738442   -8.5340859    562.27416  0.013912168  0.013213545            2 
 3369000    0.7102736   -8.5075685    560.28581  0.013858855   0.01320881            2 
 3370000   0.70349838   -8.5166277    559.93229  0.013846001  0.013204082            2 
 3371000   0.69783469   -8.5202649    560.95467  0.013867168  0.013199352            3 
 3372000   0.70951462   -8.5149931    560.63343  0.013855116  0.013194622            3 
 3373000   0.70335586    -8.527016    561.11367  0.013862874  0.013189883            3 
 3374000   0.71058765   -8.5241699    561.01992  0.013856449  0.013185153            5 
 3375000   0.71395278   -8.5215147    560.30628  0.013834723  0.013180432           10 
 3376000   0.72774206   -8.5310857    560.21519  0.013828377  0.013175698            3 
 3377000   0.71033782   -8.5225391    561.26556  0.013850201  0.013170967            3 
 3378000   0.71872364   -8.5396057    561.46808  0.013851097  0.013166252            5 
 3379000   0.71097269   -8.5332927     560.7847  0.013830145  0.013161512            7 
 3380000    0.7065901   -8.5279908    560.31704  0.013814523  0.013156783            3 
 3381000   0.69416994   -8.5380133    560.90735  0.013824986  0.013152049            6 
 3382000   0.71369548   -8.5131777    561.13549   0.01382652  0.013147321            1 
 3383000   0.71130666    -8.521608    559.94195  0.013793033  0.013142594            3 
 3384000   0.71970351   -8.5191759    560.28669  0.013797446  0.013137867            3 
 3385000   0.70913915   -8.5268175    560.33522  0.013794565  0.013133141            2 
 3386000   0.70721668   -8.5329438    559.11407  0.013760437  0.013128411            1 
 3387000   0.72091033   -8.5095957      559.597  0.013768256  0.013123684            7 
 3388000   0.70452979   -8.5429122    560.01156  0.013774389  0.013118958            3 
 3389000   0.73089611   -8.5292224    560.56852   0.01378402  0.013114244            2 
 3390000    0.7066437   -8.5519922    560.43247   0.01377661  0.013109505            2 
 3391000   0.71208672   -8.5369968    560.81784  0.013782017  0.013104773            3 
 3392000   0.71554716   -8.5253022    560.15279  0.013761615  0.013100049            3 
 3393000   0.71256746   -8.5173517    561.04038  0.013779359  0.013095318            3 
 3394000   0.69949252   -8.5230038     560.5072  0.013762208   0.01309059            2 
 3395000   0.71657985    -8.526289    560.00244  0.013745764  0.013085872            3 
 3396000   0.68793684   -8.5302956    559.71734  0.013734721   0.01308115            3 
 3397000   0.69922198   -8.5530436    560.73827  0.013755722  0.013076435            2 
 3398000   0.70967088   -8.5295789    560.86519  0.013754787  0.013071722            3 
 3399000   0.70276072   -8.5514676    560.20524   0.01373456  0.013067007            4 
 3400000   0.72713059   -8.5517393     559.4488   0.01371198  0.013062287            3 
 3401000    0.7089944   -8.5515306    559.14225  0.013700437  0.013057571            4 
 3402000   0.71305648   -8.5391017    560.20523  0.013722448   0.01305285            2 
 3403000   0.69794242   -8.5537549    559.11791  0.013691789   0.01304813            3 
 3404000   0.71159018   -8.5547001    560.33829  0.013717643  0.013043424            2 
 3405000   0.71317471   -8.5410796    560.58996  0.013719774  0.013038707            3 
 3406000   0.71417541   -8.5803822    560.99497  0.013725655  0.013034004            1 
 3407000   0.70804968   -8.5494704    560.45633  0.013708451  0.013029306            3 
 3408000   0.69335577   -8.5579387    560.15721  0.013697115  0.013024609            2 
 3409000   0.71054872   -8.5478866    560.87532  0.013710651   0.01301991            2 
 3410000   0.70274725   -8.5249924    560.60696  0.013700072  0.013015213            2 
 3411000   0.69434476   -8.5377751    560.72659  0.013698978  0.013010521            2 
 3412000   0.70725643   -8.5265174     560.8144  0.013697108  0.013005832            2 
 3413000    0.7100648   -8.5281639    560.15239  0.013676931   0.01300115            1 
 3414000   0.71229164   -8.5240525    559.67704  0.013661322  0.012996458            3 
 3415000   0.70409548   -8.5530992    559.90567  0.013662901  0.012991772            1 
 3416000   0.71542333   -8.5240108    560.48896   0.01367313  0.012987085            5 
 3417000   0.69473099     -8.53691    560.66336  0.013673382  0.012982407            1 
 3418000   0.71201779   -8.5514309    560.15714   0.01365704  0.012977723            3 
 3419000   0.68915968   -8.5365402    560.95468  0.013672484   0.01297305            2 
 3420000   0.70909984   -8.5494518    560.29138  0.013652324  0.012968369            3 
 3421000   0.69924116   -8.5603293    560.42109  0.013651493  0.012963683            3 
 3422000   0.70449897   -8.5524187    560.83712  0.013657635  0.012958997            1 
 3423000   0.71446718   -8.5526579    560.46579  0.013644605  0.012954311            2 
 3424000   0.70431872   -8.5371473    561.26203  0.013659999  0.012949635            2 
 3425000   0.69819348   -8.5286026    561.22454  0.013655098  0.012944951            1 
 3426000   0.70529446   -8.5623678    560.37033  0.013630335  0.012940265            3 
 3427000   0.70206967   -8.5532171    560.56542  0.013631102  0.012935591            3 
 3428000   0.69393852   -8.5454104    560.28703  0.013620358  0.012930903            1 
 3429000   0.70627097   -8.5708131    559.96459  0.013608549  0.012926219            1 
 3430000   0.70290837   -8.5642382    560.42044  0.013615657  0.012921536            1 
 3431000   0.70710967   -8.5617225    560.20333  0.013606415  0.012916859            4 
 3432000   0.70656251   -8.5425432    561.47761  0.013633392  0.012912178            2 
 3433000   0.70316233   -8.5613613    560.87909  0.013614892  0.012907505            3 
 3434000    0.7164238   -8.5619124    559.78614  0.013584404  0.012902827            3 
 3435000   0.70713268   -8.5662736    560.31063  0.013593174  0.012898142            2 
 3436000   0.70464649   -8.5619898    558.71415  0.013550498  0.012893452            7 
 3437000   0.70390294    -8.583713    560.72167   0.01359523  0.012888771            1 
 3438000   0.71089248   -8.5811675    559.77278  0.013568276  0.012884096            4 
 3439000   0.70675923   -8.5629154     559.8084  0.013565193  0.012879425            5 
 3440000   0.71560512   -8.5650947    559.48493  0.013553414  0.012874753            4 
 3441000   0.72006535   -8.5127981    560.77965   0.01358083  0.012870095            2 
 3442000   0.69103535   -8.5500119    560.84984  0.013578584  0.012865443            2 
 3443000   0.71557103   -8.5797843    560.19085   0.01355869  0.012860788            3 
 3444000   0.70462132   -8.5832064    560.56691  0.013563853  0.012856123            3 
 3445000   0.71226441   -8.5594349     559.6364  0.013537407  0.012851449            1 
 3446000   0.70478585   -8.5567281    558.98395    0.0135177  0.012846787            3 
 3447000   0.69164336   -8.5869986    559.13709  0.013517481  0.012842117            4 
 3448000   0.70661495   -8.5670294    560.57393  0.013548287  0.012837469            3 
 3449000   0.70381693   -8.5683191    558.06844  0.013483822  0.012832824            5 
 3450000   0.70131157   -8.5928301    558.89462   0.01349987   0.01282817            2 
 3451000    0.6948862    -8.541035    560.56034  0.013536181  0.012823519            5 
 3452000   0.70116142   -8.5757062    559.47362  0.013506026  0.012818875            2 
 3453000   0.69450465   -8.5793609    560.01485  0.013515177  0.012814243            2 
 3454000   0.70586749    -8.572999     560.7422  0.013528812  0.012809594            4 
 3455000   0.70939819   -8.5991269    560.08915  0.013509145   0.01280495            2 
 3456000   0.70148474   -8.5624047    560.91342  0.013525111  0.012800309            2 
 3457000   0.69638729   -8.5565608    559.44709  0.013485852  0.012795663            2 
 3458000   0.70759226     -8.57801     558.9993  0.013471161  0.012791021            3 
 3459000   0.68834368   -8.5600211    559.80517  0.013486681  0.012786384            5 
 3460000   0.69434071    -8.575327    560.26438  0.013493843  0.012781735            3 
 3461000   0.69972223   -8.5744288    559.64756  0.013475093  0.012777081            1 
 3462000   0.68845981   -8.5778586    559.30743  0.013463013  0.012772428            2 
 3463000   0.69790587   -8.5839033     559.3706  0.013460646  0.012767769            2 
 3464000    0.7006037    -8.553184    560.55926  0.013485356  0.012763127            3 
 3465000   0.70701675   -8.5675339     559.0148  0.013444319   0.01275848            3 
 3466000   0.71054706   -8.5608556    559.97786  0.013463595  0.012753835            3 
 3467000    0.6911706   -8.5688989    559.04021  0.013437175  0.012749181            2 
 3468000   0.71447321   -8.5840581    559.04197  0.013433342  0.012744533            2 
 3469000   0.69136817   -8.5901789    559.73158  0.013446036  0.012739886            3 
 3470000    0.6916222   -8.5761491    559.93974   0.01344716  0.012735257            5 
 3471000    0.7027026   -8.5722988    559.03081  0.013421464  0.012730624            1 
 3472000   0.68910272   -8.5653311    559.30494  0.013424178  0.012725993            5 
 3473000   0.67805704   -8.5917211    559.40105  0.013422618  0.012721356            2 
 3474000    0.6943336   -8.5702463    559.92062  0.013431218   0.01271671            1 
 3475000   0.69817247   -8.5922025    559.84172  0.013425461  0.012712072            3 
 3476000   0.69926099   -8.6003557    558.68893  0.013393962  0.012707425            3 
 3477000   0.70056102   -8.5843985    559.23903  0.013403294  0.012702785            4 
 3478000   0.71161914   -8.6032442    559.08103  0.013395654  0.012698147            2 
 3479000   0.69942243   -8.5739068    559.80663  0.013409184  0.012693515            3 
 3480000   0.67604857   -8.5848057    559.75358  0.013404061  0.012688878            2 
 3481000   0.67968205   -8.5841129    559.26102  0.013388419  0.012684249            2 
 3482000   0.67609967   -8.5752777    559.46633  0.013389487  0.012679621            3 
 3483000   0.70380677   -8.5693795    560.91258  0.013420245  0.012675011            4 
 3484000   0.69134743   -8.5701333    558.75742  0.013364844  0.012670398            6 
 3485000   0.68577799   -8.5787683    559.48301   0.01337836  0.012665788            4 
 3486000   0.70044275   -8.5905683    559.27917  0.013369649  0.012661182            6 
 3487000   0.69710457   -8.5707244    559.55666  0.013372447  0.012656574            2 
 3488000   0.67955129   -8.5641223    559.38889  0.013364605   0.01265196            2 
 3489000   0.69317675   -8.5799953    558.59743   0.01334187  0.012647354            2 
 3490000   0.70362792   -8.5686202    559.02538  0.013348266  0.012642752            4 
 3491000   0.70184182   -8.5952629    559.77368  0.013362305  0.012638157            7 
 3492000   0.70425786    -8.554573    560.73614  0.013381447  0.012633559            4 
 3493000   0.69950221   -8.5517664    560.07794  0.013361913  0.012628973            3 
 3494000   0.67747149    -8.573233    561.15133  0.013383689  0.012624384            6 
 3495000   0.69216737    -8.580604    560.23266  0.013357956  0.012619789            3 
 3496000   0.69505837   -8.5871013    560.43159  0.013358877  0.012615195            2 
 3497000   0.69612764   -8.6066351    559.39217  0.013330287    0.0126106            3 
 3498000   0.69207713   -8.5963879    559.93807  0.013339481  0.012606003            5 
 3499000   0.70356225   -8.5941422    558.59054  0.013303576  0.012601413            4 
 3500000   0.70372616   -8.5956949     558.0042  0.013285814  0.012596825            3 
 3501000   0.68927796   -8.5939279    559.48052   0.01331716  0.012592234            4 
 3502000   0.69283825   -8.5626509    559.90521  0.013323463  0.012587649            4 
 3503000   0.68353026   -8.5850415    559.17574  0.013302306  0.012583051           11 
 3504000   0.69830819   -8.6048412    558.10547  0.013273056  0.012578455            4 
 3505000   0.70143229    -8.597372    559.21592  0.013295671  0.012573867            3 
 3506000   0.68291508   -8.5813693    559.39219  0.013296069  0.012569269           10 
 3507000   0.68399826   -8.5969944    558.89164  0.013280383  0.012564682            8 
 3508000   0.70282341   -8.5876376    559.72884  0.013296485   0.01256009            4 
 3509000   0.68914721   -8.5829939    559.37732  0.013284348  0.012555513            8 
 3510000   0.67907923   -8.5759211     560.2415   0.01330108  0.012550933            5 
 3511000   0.68994929     -8.58843    559.55152  0.013280915  0.012546341           11 
 3512000   0.69276041    -8.602441    558.12897  0.013243379  0.012541758            5 
 3513000   0.69055621   -8.5853719    558.83072  0.013256256  0.012537175           15 
 3514000   0.69429331   -8.5877889    560.31534  0.013287691  0.012532593            3 
 3515000   0.69588594   -8.5859457     558.0328  0.013229796  0.012528011            9 
 3516000   0.69422772   -8.6041121     558.8486  0.013245369  0.012523431            2 
 3517000   0.68667037   -8.6017855    559.74952  0.013262949  0.012518846            3 
 3518000   0.68861113   -8.5861311    559.79625  0.013260286  0.012514269            3 
 3519000   0.69934662    -8.596563    559.23817  0.013243302    0.0125097            4 
 3520000   0.68644582   -8.6310968    558.74802  0.013227936  0.012505126            3 
 3521000   0.68859112   -8.6074871    559.45523  0.013240917   0.01250056            7 
 3522000   0.70383682   -8.6051874    558.94234  0.013225022  0.012495988            7 
 3523000   0.68953057   -8.5947278    558.31473  0.013206423   0.01249142            3 
 3524000   0.67626526   -8.6155246    558.81866  0.013214592  0.012486856            8 
 3525000   0.68309829   -8.6038113    558.53163  0.013204057  0.012482301            2 
 3526000   0.68910934   -8.6116646    558.93665  0.013209885  0.012477745            5 
 3527000   0.69051827   -8.5967923    557.65891   0.01317595  0.012473194            7 
 3528000   0.68475844   -8.5930695    559.16381  0.013207762  0.012468635            3 
 3529000   0.69715172   -8.5871744    559.06426  0.013201669  0.012464077            3 
 3530000   0.68752388   -8.6159074    559.10206  0.013198821  0.012459519            1 
 3531000    0.6987907    -8.602905    559.03288   0.01319345  0.012454968            3 
 3532000   0.68717763   -8.5934861    557.92923  0.013163676   0.01245042            7 
 3533000   0.68403832   -8.6131851    558.60908  0.013175986  0.012445884            2 
 3534000   0.70161813   -8.5972147    559.70471  0.013198093  0.012441344            6 
 3535000   0.68575225   -8.6003786    558.72456  0.013171253  0.012436796            4 
 3536000   0.66916273   -8.6214606    559.16937  0.013178011  0.012432243            5 
 3537000   0.68118668    -8.595494    558.91033  0.013168182   0.01242769            2 
 3538000   0.68583335   -8.6172981    559.77815  0.013184901  0.012423138            2 
 3539000   0.67900669   -8.6112388    558.49364  0.013150929  0.012418592            3 
 3540000    0.6843989   -8.5839773    558.86616  0.013155983  0.012414041            2 
 3541000   0.68846401   -8.6001695    559.53857  0.013168092  0.012409493            6 
 3542000   0.67376992   -8.5863674    559.52674  0.013164096  0.012404949            4 
 3543000    0.6850753   -8.5892697    560.40258  0.013180981   0.01240041            4 
 3544000   0.69177124   -8.6244683    558.44243  0.013131171  0.012395881            6 
 3545000   0.68189093   -8.6091657    558.42994  0.013127173  0.012391338            6 
 3546000   0.69210261   -8.6263174    558.44663  0.013123863  0.012386801            3 
 3547000   0.68828229   -8.6087726    559.20046  0.013137874  0.012382258            6 
 3548000   0.67802725   -8.6180061    558.30957  0.013113246  0.012377721            3 
 3549000   0.68962982    -8.613239    558.53224   0.01311478  0.012373179            5 
 3550000    0.6867716   -8.6163193    558.82624  0.013117987  0.012368635            3 
 3551000   0.66148696   -8.6074343    559.08125  0.013120277  0.012364104            4 
 3552000   0.69120908   -8.6257407    559.41965  0.013124523  0.012359572            4 
 3553000   0.68110158   -8.6127918    558.72223  0.013104471  0.012355042            6 
 3554000   0.68585029   -8.6039627    558.19306  0.013088376  0.012350513            2 
 3555000   0.66804511   -8.6011178    558.50529  0.013092013  0.012345991            9 
 3556000   0.68938688   -8.6180592    557.97729  0.013075958  0.012341459           15 
 3557000   0.68078268   -8.6185403    557.93885  0.013071381  0.012336925            5 
 3558000   0.67875431   -8.6373283    558.24793  0.013074947  0.012332406            2 
 3559000   0.68582276   -8.6250696    558.91514  0.013086896  0.012327874            6 
 3560000   0.67948891   -8.6040234    559.44933  0.013095724   0.01232335            3 
 3561000   0.67285617   -8.6098542    559.34909  0.013089701   0.01231884            1 
 3562000   0.68077708   -8.6250911    558.97644  0.013077308  0.012314323            4 
 3563000   0.68033629   -8.6071088    558.12734  0.013053778  0.012309799            3 
 3564000   0.67756176   -8.5965266    558.13514  0.013050298  0.012305279            2 
 3565000   0.67545406   -8.6328874    557.69458  0.013036339  0.012300748            2 
 3566000   0.66956785   -8.6068795    557.91105  0.013037742   0.01229622            5 
 3567000   0.66953022   -8.6191293    557.99194  0.013035976  0.012291695            3 
 3568000    0.6737599    -8.603654     558.2828  0.013039116  0.012287172            7 
 3569000   0.67996184   -8.5964397    558.35828  0.013037225  0.012282647            9 
 3570000   0.68595737   -8.6332191    558.66018   0.01304062   0.01227812            8 
 3571000   0.66825476   -8.6347667    557.50261  0.013009955    0.0122736            8 
 3572000   0.68528334   -8.6044268    557.85412  0.013014514  0.012269076           13 
 3573000   0.67865419   -8.6351176    558.02207  0.013014789  0.012264559           12 
 3574000   0.66120046   -8.6476161     558.3588  0.013018998  0.012260037           12 
 3575000   0.68190738   -8.6378391     558.3902  0.013016089  0.012255519            6 
 3576000   0.68150868   -8.6345799    558.22238  0.013008538   0.01225101           11 
 3577000   0.69298479   -8.6339211    557.79729  0.012994998    0.0122465            6 
 3578000   0.68374298   -8.6266656    558.70397  0.013012483  0.012241992            8 
 3579000    0.6871564   -8.6253089    557.07816  0.012970992  0.012237476            5 
 3580000   0.68273652   -8.6592108    557.77742  0.012983646  0.012232955            5 
 3581000   0.66796787   -8.6235999    558.29727  0.012992117  0.012228448            7 
 3582000   0.66418061   -8.6106166    557.65343  0.012973512  0.012223931            6 
 3583000   0.66682697   -8.6488729    558.38651  0.012986941  0.012219424            7 
 3584000    0.6953113   -8.6247697    558.46609  0.012985168  0.012214912            8 
 3585000   0.68557296   -8.6390016     558.9842  0.012993589  0.012210404            6 
 3586000   0.66870117   -8.6420143    558.45763  0.012977729  0.012205891           12 
 3587000    0.6750525   -8.6323682    557.92242  0.012961677  0.012201399            8 
 3588000   0.65653846   -8.6315965    558.30548  0.012966961  0.012196905            9 
 3589000   0.67693717   -8.6403365    557.55719  0.012945973  0.012192405            6 
 3590000   0.67389524   -8.6336416    558.32134  0.012960105  0.012187905           10 
 3591000   0.67872247   -8.6560225    557.96712  0.012948276  0.012183408            5 
 3592000   0.67452217   -8.6141273    557.64217  0.012937133  0.012178916            4 
 3593000   0.68622149    -8.636312     558.9272  0.012963336  0.012174429            4 
 3594000   0.68734465    -8.622071    558.64667  0.012953225  0.012169945            2 
 3595000   0.67644315   -8.6078583    558.37834  0.012943402  0.012165468            2 
 3596000   0.68519052   -8.6410788    557.41148  0.012917396  0.012160995            5 
 3597000   0.66056393   -8.6330454    556.78912  0.012899386  0.012156512            7 
 3598000   0.68176089   -8.6298987    557.54731  0.012913362  0.012152033            4 
 3599000   0.68220905   -8.6230143    558.33153  0.012927932  0.012147562            6 
 3600000   0.67541977   -8.6297628    558.44416  0.012926948  0.012143091            4 
 3601000   0.68845816   -8.6466246    556.68782  0.012882714  0.012138627            6 
 3602000   0.68982568   -8.6254717    560.01382  0.012956085  0.012134162            4 
 3603000   0.67912758   -8.6288771    557.30046  0.012889732  0.012129709            7 
 3604000   0.67569262   -8.6333606    557.26785  0.012885402  0.012125251            3 
 3605000   0.67649673   -8.6069133    558.70592   0.01291507  0.012120802            2 
 3606000    0.6735335   -8.6369278    558.11211  0.012897765  0.012116355            3 
 3607000   0.66507761   -8.6090894    559.03519  0.012915516  0.012111909            3 
 3608000   0.67471838   -8.5966207    559.22585   0.01291634  0.012107455            4 
 3609000   0.67604251   -8.6505739    558.79085  0.012902717  0.012103003            4 
 3610000   0.67780968   -8.6262049    559.08398  0.012905909  0.012098555            7 
 3611000   0.67722196   -8.6200479    558.33306  0.012885006  0.012094108            4 
 3612000   0.67463555   -8.6334498    557.50097  0.012862241  0.012089662            5 
 3613000   0.69634676    -8.644537     557.7414  0.012864226    0.0120852            6 
 3614000   0.67534941   -8.6181638    557.44037  0.012853726  0.012080741            4 
 3615000   0.67128933   -8.6394593    558.96626  0.012885345  0.012076298            3 
 3616000   0.68345413   -8.6156795    558.41212  0.012869011  0.012071847            2 
 3617000   0.66608913   -8.6278336    558.16246  0.012859701  0.012067404            5 
 3618000   0.67224956   -8.6516474      557.793  0.012847637   0.01206296            2 
 3619000   0.68379856   -8.6237571    557.74129  0.012842896  0.012058518            2 
 3620000   0.67855714   -8.6428119    558.06599  0.012846823  0.012054083            4 
 3621000   0.65006316   -8.6396823    556.55228  0.012808439  0.012049646            2 
 3622000   0.69002523   -8.6149987    557.75203  0.012832506  0.012045223            2 
 3623000   0.66689386   -8.6464521    558.17888  0.012838782  0.012040791            6 
 3624000    0.6597778   -8.6258323    558.56663  0.012844155  0.012036367            4 
 3625000   0.67381985   -8.6294556     558.1487  0.012831005  0.012031947            6 
 3626000   0.68109553   -8.6300932    559.27957  0.012853456  0.012027524            7 
 3627000   0.67061797    -8.655805     557.8883  0.012817946  0.012023104            5 
 3628000    0.6672517   -8.6391082    557.74327  0.012811082   0.01201869            4 
 3629000   0.66756208   -8.6460382    559.11775  0.012839114  0.012014278            3 
 3630000   0.67271366   -8.6342446    558.42368  0.012819644  0.012009877            6 
 3631000   0.67899612   -8.6382123    557.70331   0.01279958  0.012005471            5 
 3632000   0.66549957   -8.6147911    558.85399  0.012822458  0.012001058            5 
 3633000    0.6607679   -8.6612392     557.2494  0.012782122   0.01199664            6 
 3634000   0.65787613   -8.6476789    556.63468  0.012764508  0.011992228            5 
 3635000   0.68304721   -8.6523139    557.64298  0.012784112  0.011987813            5 
 3636000   0.66715333   -8.6483016     558.1942   0.01279323  0.011983403            7 
 3637000   0.66404903   -8.6320302    557.14352  0.012765638  0.011979005            4 
 3638000   0.67548932   -8.6311212    557.94911  0.012780582  0.011974598            6 
 3639000   0.67599348   -8.6333534    558.82009  0.012797016  0.011970203            8 
 3640000   0.66480348     -8.65721    557.70892  0.012768061  0.011965806            5 
 3641000   0.66585966   -8.6579088    556.96328  0.012747489  0.011961403            1 
 3642000    0.6903059   -8.6445106    558.15303  0.012771211  0.011957003            2 
 3643000   0.66582325   -8.6478263    559.17259  0.012791028    0.0119526            4 
 3644000    0.6716495   -8.6439317    557.94229  0.012759383  0.011948201            2 
 3645000   0.67510436   -8.6513924     557.2412  0.012739854  0.011943803            5 
 3646000   0.66019121   -8.6632134    557.31456  0.012738036  0.011939408            6 
 3647000    0.6587247   -8.6629225    558.27792  0.012756556  0.011935008            6 
 3648000   0.66707077   -8.6587469    558.04376   0.01274771  0.011930615            4 
 3649000   0.65712102   -8.6748327    557.38958  0.012729277  0.011926218            4 
 3650000   0.66695605   -8.6549058    557.71065   0.01273312  0.011921822            3 
 3651000   0.66934643   -8.6561882    557.71079  0.012729635  0.011917419            5 
 3652000   0.66586393   -8.6476519    558.38249  0.012741477  0.011913028            7 
 3653000   0.66113825   -8.6554473    557.68369  0.012722048  0.011908644            3 
 3654000   0.66156888   -8.6337125    558.50628  0.012737326  0.011904253            7 
 3655000   0.64978071    -8.645686    558.31802  0.012729549  0.011899863            4 
 3656000   0.66768774   -8.6612693    556.61221  0.012687186  0.011895475            6 
 3657000   0.66291576   -8.6497365    557.06565  0.012694049  0.011891092            6 
 3658000   0.66599156   -8.6490233    558.55361  0.012724476  0.011886712            4 
 3659000     0.658516   -8.6562287    558.28486  0.012714878  0.011882337            9 
 3660000   0.67984068   -8.6331036    557.42113  0.012691738  0.011877969            3 
 3661000   0.66657358   -8.6616356    557.54581  0.012691109    0.0118736            5 
 3662000   0.66561092   -8.6506995    557.12357  0.012678035  0.011869227            3 
 3663000   0.66746464    -8.651585    558.22108  0.012699542  0.011864857            4 
 3664000   0.65994049   -8.6565519    557.27361  0.012674527  0.011860486            4 
 3665000   0.67207621   -8.6423758    559.17586  0.012714322  0.011856121            7 
 3666000   0.67340591   -8.6661694    558.11872  0.012686823  0.011851755            2 
 3667000   0.67565174   -8.6593371    558.50857  0.012692223  0.011847402            2 
 3668000   0.66815539   -8.6510218    557.66155  0.012669519  0.011843038            7 
 3669000   0.65913118   -8.6598408    557.69126  0.012666741  0.011838682            4 
 3670000   0.66478164   -8.6740799    557.14963  0.012650991  0.011834324            5 
 3671000   0.67815005   -8.6605685    557.21331   0.01264899  0.011829971            3 
 3672000   0.66697942   -8.6698541    557.26289   0.01264667  0.011825615            3 
 3673000   0.66378706   -8.6870937    557.93365  0.012658446  0.011821262            2 
 3674000   0.65424998   -8.6489604    557.49903  0.012645142  0.011816913            5 
 3675000   0.68492713    -8.647276    558.67807  0.012668437  0.011812558            2 
 3676000   0.67508926   -8.6419647    557.64765  0.012641632  0.011808213            3 
 3677000   0.65107027   -8.6461161    558.33554  0.012653783   0.01180387            3 
 3678000   0.66114076   -8.6533004    557.32434  0.012627432  0.011799527            4 
 3679000   0.66015448   -8.6589362    557.71048  0.012632746  0.011795186            4 
 3680000   0.66806222   -8.6511766    558.33033   0.01264335  0.011790856            6 
 3681000    0.6572065   -8.6369354    559.34809  0.012662956  0.011786515            3 
 3682000   0.67369889   -8.6553309    557.81289  0.012624771  0.011782183            3 
 3683000   0.66420087    -8.665003    557.54447   0.01261527  0.011777836            4 
 3684000    0.6496816   -8.6327681    557.16018  0.012603153  0.011773501            5 
 3685000   0.66931944    -8.680051    557.98336  0.012618348  0.011769163            3 
 3686000   0.67398503   -8.6519439    556.85153  0.012589336  0.011764819            2 
 3687000   0.65000868   -8.6675021    557.37903  0.012597845  0.011760486            2 
 3688000   0.66308959   -8.6474749    558.80215  0.012626585  0.011756153            2 
 3689000   0.66124352   -8.6807843    557.04842  0.012583546  0.011751825            2 
 3690000   0.65604713   -8.6811604    557.24772  0.012584637  0.011747495            1 
 3691000   0.65820367   -8.6613144    558.32389  0.012605524  0.011743167            1 
 3692000   0.66065362     -8.66312    557.86908  0.012591845  0.011738849            3 
 3693000   0.64514592    -8.656195     558.2383  0.012596766   0.01173452            2 
 3694000    0.6688458   -8.6838326    557.09997  0.012567677  0.011730198            3 
 3695000   0.65721705   -8.6493352    558.28681  0.012591042  0.011725882            2 
 3696000   0.65853925    -8.693231    557.48081  0.012569463  0.011721564            1 
 3697000   0.65391912   -8.6813587    556.28422  0.012539091  0.011717251            4 
 3698000   0.66810135   -8.6667542    557.81258  0.012570141  0.011712928            1 
 3699000   0.67403889   -8.6504553    557.83215  0.012567184  0.011708625            1 
 3700000   0.65653701   -8.6536695    557.85711  0.012564349  0.011704325            2 
 3701000   0.63642298   -8.6693822    557.38341  0.012550288  0.011700021            2 
 3702000   0.66245301   -8.6567543    559.15034  0.012586673  0.011695713            2 
 3703000   0.64788114     -8.66915    557.69854  0.012550602  0.011691412            4 
 3704000   0.66723806   -8.6825324    556.62625  0.012523089  0.011687106            4 
 3705000   0.66249862   -8.6849644    557.61414  0.012541928  0.011682798            5 
 3706000   0.66004029   -8.6884815    558.50914  0.012558669  0.011678493            2 
 3707000   0.64468137   -8.6500539    558.41704  0.012553211  0.011674189            2 
 3708000   0.64796236   -8.6647491    557.73426  0.012534481  0.011669892            5 
 3709000   0.65749228   -8.6643354    556.77075  0.012509453  0.011665585            2 
 3710000   0.66467947   -8.6337489    558.76846  0.012550954  0.011661284            3 
 3711000   0.64293632   -8.6679704    557.72208  0.012524074  0.011656982            2 
 3712000   0.66247916   -8.6557624    557.78532   0.01252212    0.0116527            2 
 3713000   0.65695806   -8.6928311    556.55296  0.012491089  0.011648407            3 
 3714000   0.65364088   -8.6710146    557.54241  0.012509927  0.011644112            3 
 3715000   0.64730495   -8.6733898    557.74499  0.012511103  0.011639825            3 
 3716000   0.65813166   -8.6656081     558.0516  0.012514613  0.011635539            6 
 3717000   0.65651565   -8.6769422    556.91002  0.012485652  0.011631261            2 
 3718000   0.65533692   -8.6666973    556.40537  0.012470983  0.011626986            3 
 3719000   0.65625335   -8.6691598    557.57262  0.012493785  0.011622707            2 
 3720000    0.6519798   -8.6736374    557.92792  0.012498385  0.011618427            3 
 3721000   0.66020015    -8.670811    556.46292  0.012462217   0.01161414            3 
 3722000   0.66367163    -8.657046    557.88538  0.012490717   0.01160987            3 
 3723000   0.66400037   -8.6954113    557.02808  0.012468173  0.011605592            1 
 3724000   0.67395271     -8.68809    556.03752  0.012442658  0.011601308            2 
 3725000    0.6583116   -8.7176719    557.12935  0.012463744  0.011597026            2 
 3726000   0.64889804   -8.6840817     556.8959  0.012455178  0.011592741            2 
 3727000   0.64892602   -8.6848298    557.14692  0.012457448  0.011588467            3 
 3728000    0.6364839   -8.6847618    558.26935  0.012479197  0.011584198            3 
 3729000   0.65674903   -8.6808217    558.02018  0.012470282  0.011579928            5 
 3730000   0.65782302   -8.6576232    557.80277  0.012462082   0.01157567            2 
 3731000   0.65497265   -8.6650522    557.15479  0.012444268  0.011571413            3 
 3732000   0.65959736    -8.688029    557.47061  0.012447986  0.011567147            2 
 3733000   0.65828855   -8.6691015    557.07256  0.012435766  0.011562884            5 
 3734000   0.63712856   -8.6661389    556.96691  0.012430078  0.011558618            4 
 3735000   0.66268262   -8.6879019    557.74825  0.012444182  0.011554356            7 
 3736000   0.65219657   -8.6724849    557.84652  0.012443043  0.011550103            1 
 3737000   0.65216844   -8.6997721    556.07452  0.012400199  0.011545846            1 
 3738000   0.64482296    -8.696528    557.06698  0.012419007   0.01154159            5 
 3739000   0.65504608   -8.6888841    557.20008  0.012418652  0.011537343            4 
 3740000   0.65793938    -8.690006    557.26455  0.012416768  0.011533085            2 
 3741000   0.67220839    -8.709536    557.48136  0.012418278  0.011528834            3 
 3742000   0.65845378   -8.6990152    557.37349  0.012412558  0.011524581            2 
 3743000   0.66225661   -8.6747352    557.58275    0.0124139  0.011520331           10 
 3744000   0.65160817   -8.6920462     556.3239  0.012382565  0.011516087            2 
 3745000   0.67070205    -8.699254    555.74454  0.012366367  0.011511832            2 
 3746000   0.65937205   -8.6782123    556.32348  0.012375945  0.011507581            2 
 3747000   0.64660474   -8.6940961    557.67887  0.012402786   0.01150333            2 
 3748000   0.65433519   -8.6828233    557.56189  0.012396876  0.011499085            4 
 3749000   0.66070875   -8.7004398    557.02381  0.012381609  0.011494841            4 
 3750000   0.65463309   -8.6681335     557.2004  0.012382231  0.011490598            3 
 3751000   0.64618114   -8.6940369    557.28636   0.01238084  0.011486353            4 
 3752000   0.65549276   -8.6988227    557.44277  0.012381014  0.011482114            2 
 3753000   0.63995461   -8.7226723    555.19927  0.012327899  0.011477867            4 
 3754000   0.63808634   -8.6960146    556.39433  0.012351144  0.011473619            3 
 3755000   0.65473364   -8.7018097     557.1599  0.012364845  0.011469371            2 
 3756000   0.65438288   -8.6904837    558.24672  0.012385666  0.011465135            1 
 3757000   0.64621019    -8.693886    556.42606  0.012341985  0.011460895            4 
 3758000   0.65422713   -8.7333306    556.08469  0.012331131  0.011456661            2 
 3759000   0.64231175   -8.7135548    556.77825  0.012343226  0.011452426            3 
 3760000   0.66625312   -8.7144796    556.71636  0.012338572  0.011448187            3 
 3761000   0.65025591    -8.702762    557.21518  0.012346344  0.011443957            4 
 3762000   0.64017173   -8.6869435    557.52775  0.012349986  0.011439727            4 
 3763000   0.64295143   -8.6937645    556.70701  0.012328528  0.011435498            2 
 3764000   0.63374821   -8.7269971    556.60245  0.012322938  0.011431265            2 
 3765000   0.64976828   -8.6875774    557.56374  0.012340941  0.011427043            2 
 3766000   0.64400461   -8.6987919    555.79644  0.012298558  0.011422818            2 
 3767000   0.63353659   -8.6954264    556.91545  0.012320048  0.011418595            2 
 3768000   0.65137146   -8.7206836    555.44641  0.012284289  0.011414378            2 
 3769000   0.64702053   -8.7053989     556.7329  0.012309474  0.011410164            6 
 3770000    0.6308887   -8.7029733    556.97168  0.012311487  0.011405951            4 
 3771000    0.6640265   -8.7130774    556.98634  0.012308546  0.011401739            3 
 3772000   0.63468705   -8.7068328    557.90574  0.012325595  0.011397531            3 
 3773000   0.64835745   -8.6677027    556.80182  0.012297946  0.011393318            2 
 3774000   0.65677305   -8.7036378    556.02042  0.012277434  0.011389112            5 
 3775000   0.64283873   -8.6864981    556.97522  0.012295259  0.011384908            1 
 3776000   0.65431013   -8.7124931     556.6902  0.012285712  0.011380697            4 
 3777000   0.65851856   -8.6898698    556.34075   0.01227475  0.011376492            3 
 3778000   0.64920201   -8.7025705    556.56884  0.012276532  0.011372293            2 
 3779000   0.65337586   -8.6994365    555.60314  0.012251988  0.011368103            4 
 3780000    0.6375784   -8.6931142    557.66071  0.012294107  0.011363911            5 
 3781000   0.65168349   -8.7201249    557.67655  0.012291205  0.011359715            4 
 3782000   0.66262849   -8.6967216    557.14108  0.012276156  0.011355528            3 
 3783000   0.64239518   -8.6990243    557.34916  0.012277495  0.011351344            2 
 3784000   0.62117408    -8.701865    557.76178  0.012283337   0.01134716            4 
 3785000   0.64886578   -8.7055822    557.04707  0.012264357  0.011342972            4 
 3786000   0.64036076   -8.6964684    556.76909  0.012254998  0.011338783            1 
 3787000    0.6266742   -8.6891379    557.05993  0.012258162  0.011334606            1 
 3788000   0.63971301   -8.7112708    556.99295  0.012253453  0.011330423            2 
 3789000   0.65411167   -8.7196212    557.18693  0.012254485  0.011326246            2 
 3790000   0.64346556   -8.7272458    555.80835   0.01222094  0.011322069            4 
 3791000   0.64986766   -8.7243737     556.3429  0.012229467  0.011317887            3 
 3792000   0.63798362   -8.7087526    556.61276  0.012232172  0.011313708            2 
 3793000   0.64328285   -8.7021029    556.96455  0.012236676  0.011309523            2 
 3794000   0.63525782    -8.709826     556.7211  0.012228104  0.011305347            2 
 3795000   0.65406078   -8.6914058    555.94444  0.012207827  0.011301174            1 
 3796000   0.65464207   -8.7210052    556.31139  0.012212667  0.011297011            3 
 3797000   0.65545107   -8.7252014    556.66072  0.012217117  0.011292844            2 
 3798000    0.6448239   -8.7101994    556.40267  0.012208238  0.011288678            1 
 3799000   0.64619474   -8.7255262    556.38335  0.012204601  0.011284511            4 
 3800000   0.64131839    -8.717687    556.17963  0.012196922  0.011280344            3 
 3801000   0.63727003   -8.7084351    556.07235  0.012191361  0.011276172            3 
 3802000   0.64625643   -8.7173784    555.94168   0.01218529   0.01127201            3 
 3803000   0.63769045   -8.7120709    556.21881  0.012188159  0.011267849            1 
 3804000   0.64355168   -8.7147279    556.17013  0.012183888  0.011263696            2 
 3805000   0.63599923   -8.7233077     556.2944  0.012183408  0.011259541            2 
 3806000   0.64815585   -8.7361586    555.79794  0.012169336  0.011255386            2 
 3807000   0.65073182   -8.7054087    556.66746  0.012185173  0.011251231            4 
 3808000   0.63300144   -8.7197764    554.70897  0.012139114  0.011247084            4 
 3809000   0.64500319   -8.7182839    555.71205  0.012157873  0.011242939            2 
 3810000   0.66007769     -8.72072    557.36258  0.012190783  0.011238794            1 
 3811000   0.63844644   -8.7144518    556.39023  0.012166322   0.01123465            5 
 3812000   0.63523558   -8.7296181    555.38272  0.012141105  0.011230508            5 
 3813000   0.63465376   -8.7216004    555.73477  0.012145615  0.011226365            6 
 3814000   0.63949804    -8.693382    557.11705  0.012172633  0.011222231            2 
 3815000   0.65796677   -8.7046813    557.17346  0.012170674  0.011218099            4 
 3816000   0.65063469   -8.7377242    555.85532  0.012138699  0.011213964            5 
 3817000   0.63985697   -8.7443996    556.35715  0.012146475  0.011209832            3 
 3818000   0.64630039   -8.7110415    556.32711  0.012142638  0.011205696            2 
 3819000   0.64638483   -8.7360361    555.97414  0.012131757  0.011201557            3 
 3820000   0.65369564   -8.7366974    555.99202  0.012128971  0.011197425            3 
 3821000   0.64865579   -8.7196269    556.16786  0.012129631  0.011193293            2 
 3822000   0.62690038   -8.7384713    555.79854  0.012118405  0.011189157            5 
 3823000    0.6377825   -8.7269394    556.45979  0.012129649   0.01118503            2 
 3824000   0.61985975   -8.7304102     555.3056  0.012101325  0.011180904            4 
 3825000   0.64598229    -8.732958    556.52517  0.012124731  0.011176775            2 
 3826000   0.63900382   -8.7141776    555.61802  0.012101804  0.011172656            4 
 3827000   0.62697208   -8.7201247    556.03824  0.012107792  0.011168537            8 
 3828000   0.64405859   -8.7435173    556.40696  0.012112656  0.011164416            4 
 3829000   0.63247156   -8.7347606    555.78474  0.012095951    0.0111603            2 
 3830000    0.6501989   -8.7265331    556.03163  0.012098164  0.011156179           12 
 3831000   0.63981393   -8.7118164    555.64787  0.012086659  0.011152062           12 
 3832000   0.63143884   -8.7565197    556.31704  0.012098057  0.011147945            3 
 3833000   0.62706407   -8.7379324    555.94776  0.012086872  0.011143829            2 
 3834000    0.6342161   -8.7272937    556.49909  0.012095703  0.011139717            7 
 3835000   0.62008761   -8.7560067     554.8915  0.012057616    0.0111356            5 
 3836000   0.62800132   -8.7396605    556.41256  0.012087517  0.011131489            3 
 3837000   0.62855285   -8.7237467     556.7784  0.012092312   0.01112738            4 
 3838000   0.63831504   -8.7328551    557.02058  0.012094419  0.011123274            1 
 3839000   0.64715643   -8.7488392    555.98829  0.012068861  0.011119171            2 
 3840000   0.61844924   -8.7304792    556.76923  0.012082666  0.011115066            4 
 3841000   0.63320565   -8.7108364    555.18456  0.012045139  0.011110973            4 
 3842000   0.64248915   -8.7517671     555.6945  0.012053065  0.011106881            4 
 3843000   0.62682875   -8.7473381    555.56739  0.012047172  0.011102784            7 
 3844000   0.65103424   -8.7504543    555.25178  0.012037196  0.011098689            5 
 3845000   0.63731584   -8.7471185    556.25004  0.012055701  0.011094596            3 
 3846000   0.63980854   -8.7251597    556.09316  0.012049167  0.011090504            8 
 3847000   0.64717904   -8.7251399    556.25893  0.012049626  0.011086419            4 
 3848000   0.63942127   -8.7375975    555.69256  0.012034229  0.011082339            3 
 3849000   0.62938617   -8.7401907    555.68873   0.01203102  0.011078262            8 
 3850000   0.63636367   -8.7329011    556.45267   0.01204443  0.011074186           10 
 3851000   0.63615253   -8.7338676    556.13417   0.01203441   0.01107011            5 
 3852000   0.63303275   -8.7183266      557.577    0.0120625  0.011066034            4 
 3853000   0.65179958   -8.7493868    556.87371  0.012044158  0.011061967            4 
 3854000   0.64344559   -8.7348939     556.0767    0.0120238    0.0110579            4 
 3855000   0.63219237    -8.741332     556.2818  0.012025115   0.01105383            5 
 3856000   0.64092952   -8.7246461    555.47589  0.012004579  0.011049759            7 
 3857000   0.64348136   -8.7183161    556.31578  0.012019613  0.011045689            4 
 3858000   0.64221082   -8.7182892    555.68306  0.012002831  0.011041617            5 
 3859000   0.64305952   -8.7371637    555.95673   0.01200563  0.011037546            6 
 3860000   0.64212437   -8.7428074    556.27788  0.012009453  0.011033473            5 
 3861000   0.64387812   -8.7333556     555.7263  0.011994438  0.011029404            5 
 3862000   0.63365204   -8.7259334    555.56229  0.011987793   0.01102534            6 
 3863000   0.63667794   -8.7247761    555.39879  0.011981163  0.011021267            6 
 3864000   0.64228736   -8.7131899    555.35306  0.011977076  0.011017203           10 
 3865000   0.64184717   -8.7417625    556.09405  0.011989954  0.011013138            7 
 3866000   0.63422635   -8.7440285    555.50927  0.011974247  0.011009077            8 
 3867000   0.62824504   -8.7534467    554.88198  0.011957632  0.011005011           13 
 3868000   0.64023339   -8.7351676    554.73746  0.011951427  0.011000948            5 
 3869000   0.64208749   -8.7475069    556.14614   0.01197868  0.010996887            3 
 3870000    0.6431682   -8.7494618    555.48118  0.011961266   0.01099283            5 
 3871000   0.64154341   -8.7103292    556.27992  0.011975371  0.010988776            2 
 3872000   0.63875694    -8.740249     555.5427  0.011956411  0.010984722            2 
 3873000   0.62822243   -8.7444391    555.30065  0.011948116   0.01098066            5 
 3874000    0.6384303   -8.7617221    555.22289  0.011943359  0.010976603            5 
 3875000   0.62410937   -8.7549076    554.83741  0.011931987  0.010972546            3 
 3876000   0.63267328   -8.7334306    555.73121  0.011948125  0.010968492            2 
 3877000   0.61973601    -8.734774    557.51188  0.011983318  0.010964442            7 
 3878000   0.63467421   -8.7304058    555.54031  0.011937861  0.010960394            2 
 3879000   0.62989057   -8.7105653    555.88824  0.011942258  0.010956347            4 
 3880000   0.61332201   -8.7380731    554.58607  0.011911213  0.010952298            4 
 3881000   0.62040552   -8.7462144    555.40217  0.011925667  0.010948255            5 
 3882000    0.6334381   -8.7576704    554.20246  0.011896841  0.010944216            5 
 3883000   0.62126479   -8.7778344    555.24793  0.011916215  0.010940172            3 
 3884000    0.6299491   -8.7529322    556.35595   0.01193692  0.010936129           14 
 3885000   0.62734543   -8.7507366      555.197  0.011908987  0.010932084            6 
 3886000   0.62297733   -8.7534846    555.72207  0.011917183  0.010928041            2 
 3887000   0.63145412   -8.7454261    555.49663  0.011909284  0.010924005            2 
 3888000   0.62199346    -8.758816    555.45653  0.011905361  0.010919966            2 
 3889000   0.62795936   -8.7674649      555.771  0.011909038  0.010915926            6 
 3890000    0.6254009   -8.7565081     554.5266  0.011879319  0.010911888            3 
 3891000   0.62746067   -8.7486751    555.07219  0.011887951  0.010907855            3 
 3892000   0.62937978   -8.7692352    554.62744  0.011875373  0.010903821           12 
 3893000   0.62739885    -8.743102     555.3689  0.011888195  0.010899788            2 
 3894000   0.62892867    -8.776168    554.24744  0.011861142  0.010895759            4 
 3895000   0.63728299   -8.7850169    554.90272  0.011872116   0.01089173            2 
 3896000   0.62812298   -8.7696666    554.20321  0.011854107  0.010887703            3 
 3897000   0.62293138     -8.74098    555.35279  0.011875648  0.010883682            5 
 3898000   0.61632846   -8.7603296    554.58712  0.011856232  0.010879652            3 
 3899000   0.61473616    -8.748209    556.24716  0.011888671  0.010875633            2 
 3900000   0.63165583   -8.7435649    555.26195  0.011864572  0.010871613            2 
 3901000   0.63032903   -8.7563859    554.69939  0.011849513  0.010867594            5 
 3902000   0.62820311   -8.7491389    555.64404   0.01186665  0.010863582            2 
 3903000   0.62318758    -8.767394    554.98715  0.011849585  0.010859572            4 
 3904000   0.61879857   -8.7586863    555.34511   0.01185419  0.010855563           10 
 3905000   0.62279833   -8.7595036    555.54262   0.01185537  0.010851559            3 
 3906000   0.62272433   -8.7551474    555.28133   0.01184676  0.010847552            6 
 3907000   0.62367955   -8.7507436    554.74363  0.011832259   0.01084355            2 
 3908000   0.63497994   -8.7601806    555.08912  0.011836598  0.010839544            9 
 3909000   0.63394332   -8.7625648    554.83292  0.011828109  0.010835533            3 
 3910000   0.62857793   -8.7677312    554.90368  0.011826592  0.010831527            5 
 3911000    0.6277992   -8.7438315    555.00638  0.011825756  0.010827525            5 
 3912000   0.62981414   -8.7597283    555.02687   0.01182317   0.01082353            3 
 3913000   0.60492654   -8.7642002    555.46601    0.0118295  0.010819535            2 
 3914000     0.620581   -8.7535746    555.34687  0.011823941  0.010815538            4 
 3915000    0.6289568   -8.7487895    555.55697  0.011825393  0.010811547            4 
 3916000   0.61915756   -8.7537303    555.01138  0.011810763  0.010807559            5 
 3917000   0.62804105   -8.7476612    555.49175  0.011817968  0.010803573            4 
 3918000   0.62615504   -8.7488031    555.16955  0.011808098  0.010799578            4 
 3919000   0.62592752   -8.7686022    554.59439  0.011792855  0.010795594            3 
 3920000   0.62065303   -8.7883098    553.22698  0.011760778  0.010791598            6 
 3921000   0.63885321   -8.7563906    555.53124  0.011806751  0.010787612            4 
 3922000   0.63329055   -8.7674873    555.48698    0.0118028  0.010783628            6 
 3923000   0.64079362   -8.7521931    555.13293   0.01179227  0.010779644            4 
 3924000   0.60859278   -8.7551749    554.52897  0.011776439   0.01077566            2 
 3925000   0.63719302   -8.7723548    554.76024  0.011778349  0.010771675            2 
 3926000   0.62999601   -8.7785752    554.93736  0.011779108  0.010767692            1 
 3927000   0.63234071     -8.75838    554.55497  0.011767994   0.01076371            3 
 3928000   0.61536435   -8.7663614    554.28223  0.011759212  0.010759729            5 
 3929000   0.62712362   -8.7325526    554.67033  0.011764451  0.010755756            5 
 3930000   0.62142227   -8.7691274    555.36781  0.011776247  0.010751785            7 
 3931000   0.61736323   -8.7789237    555.07945  0.011767138  0.010747806            2 
 3932000   0.62239891   -8.7711776    554.86709  0.011759645  0.010743838            3 
 3933000   0.61142587   -8.7815841    553.85423  0.011735194  0.010739874            3 
 3934000   0.62197964   -8.7755417    554.56607   0.01174729  0.010735909            5 
 3935000   0.62826628   -8.7552412    554.46064  0.011742072  0.010731944            5 
 3936000    0.6388276   -8.7612973    554.60159  0.011742073  0.010727978            5 
 3937000   0.62155556    -8.765814    554.99639  0.011747447  0.010724018            6 
 3938000   0.62182307   -8.7772698    554.36966  0.011731202  0.010720058            5 
 3939000    0.6211361   -8.7822091    553.77698  0.011715684  0.010716102            7 
 3940000   0.61022192   -8.7591608    555.10276  0.011740752  0.010712142            3 
 3941000   0.62655133   -8.7684298    554.29779  0.011720752  0.010708189            2 
 3942000   0.62892253   -8.7554264    555.90453  0.011751745  0.010704238            2 
 3943000   0.61494498   -8.7683112    554.33181  0.011715526   0.01070029            3 
 3944000   0.61854816   -8.7800735    555.04357  0.011727594  0.010696341            2 
 3945000   0.61581202   -8.7821842    554.97829  0.011723242  0.010692394            4 
 3946000   0.63553514   -8.7371973    556.01258  0.011742114  0.010688454            4 
 3947000   0.61362323    -8.775858    554.31749  0.011703351  0.010684511            5 
 3948000   0.61557877   -8.7716371    554.58137  0.011705956  0.010680567            2 
 3949000   0.63300562   -8.7749865    554.26035  0.011696217  0.010676629            2 
 3950000   0.63158844    -8.765038    554.89701  0.011706688  0.010672692            4 
 3951000   0.62006692   -8.7657468    554.71475  0.011699881  0.010668752            4 
 3952000    0.6160033   -8.7847095    553.65587  0.011674592  0.010664819            5 
 3953000   0.60253641   -8.7769197    554.43399  0.011688043  0.010660884            7 
 3954000   0.61486249   -8.8001895     554.0213  0.011676389  0.010656945            4 
 3955000   0.61602784   -8.7768387    554.58201  0.011685251  0.010653013            5 
 3956000   0.61552199    -8.795756    554.93817    0.0116898   0.01064908            5 
 3957000   0.62692358    -8.759066    554.64746  0.011680723  0.010645154            6 
 3958000   0.61790192   -8.7639056    554.38351  0.011672215  0.010641233            5 
 3959000   0.62527475   -8.7935547    554.38894  0.011669381  0.010637312            4 
 3960000   0.61220866    -8.774336    554.72231  0.011673449  0.010633395            4 
 3961000    0.6136066   -8.7693806    554.96577  0.011675624  0.010629478            3 
 3962000   0.61666155   -8.7878604     555.4308  0.011682458  0.010625559            2 
 3963000   0.62815013   -8.7793729    555.29814  0.011676721   0.01062164            4 
 3964000   0.61650071    -8.805408    554.88573  0.011665105  0.010617722            7 
 3965000   0.61775974   -8.7878529    555.25135  0.011669848  0.010613809            3 
 3966000   0.61147542   -8.7828448    554.46369  0.011650355  0.010609895            2 
 3967000   0.62189111   -8.7949352    554.53795  0.011648978  0.010605981            3 
 3968000   0.61318214   -8.7730551    554.19678  0.011638877  0.010602073            7 
 3969000   0.59164607   -8.7825841    553.71027   0.01162573  0.010598167            3 
 3970000   0.60889508   -8.7673107    554.81045  0.011645895  0.010594264            4 
 3971000    0.6168395   -8.7623078    555.42165  0.011655789  0.010590365            3 
 3972000   0.62151132    -8.758384    555.01673  0.011644359  0.010586471            4 
 3973000   0.62984088   -8.7884586    554.81047  0.011637102  0.010582576            2 
 3974000   0.61609185   -8.7448812     555.5658  0.011650013  0.010578681            3 
 3975000   0.61081329   -8.7801363    554.78356  0.011630683  0.010574785            2 
 3976000   0.63079412   -8.7776687    555.18179  0.011636104  0.010570893            1 
 3977000   0.60340496   -8.7743547    554.60107   0.01162101  0.010566995            4 
 3978000   0.61693744   -8.7718487    554.08827  0.011607346  0.010563096            4 
 3979000   0.61353604   -8.8115441    553.65854  0.011595429  0.010559205            3 
 3980000   0.60708815   -8.7851904    554.59043  0.011612027  0.010555311            2 
 3981000   0.61775803   -8.8077444    553.31282  0.011582367  0.010551421            3 
 3982000   0.63057305   -8.8054269    554.91737  0.011613037  0.010547529            4 
 3983000   0.60354496   -8.7883793    553.56676  0.011581864  0.010543642            2 
 3984000   0.62354252   -8.7793454    554.46838  0.011597816  0.010539748            2 
 3985000   0.60902483   -8.7759226    553.95843  0.011584242  0.010535863            3 
 3986000   0.59746932   -8.7931422    554.69878  0.011596813   0.01053198            3 
 3987000   0.61343123   -8.7993748    553.76382  0.011574363  0.010528096            2 
 3988000   0.61683175   -8.7898351     553.3306  0.011562408  0.010524219            3 
 3989000   0.61927263    -8.790052    553.73724  0.011568005  0.010520339            3 
 3990000   0.61927448   -8.7875146    553.84637  0.011567385   0.01051646            1 
 3991000   0.60791918   -8.7808516    554.46763  0.011577458   0.01051259            3 
 3992000   0.61183682   -8.7696089    554.10411   0.01156697  0.010508715            5 
 3993000   0.60650664   -8.8006339    553.36779  0.011548706  0.010504849            4 
 3994000    0.6167833   -8.7635573    554.97563  0.011579361  0.010500983            5 
 3995000   0.60247774   -8.7785708    554.60142  0.011568657  0.010497126            3 
 3996000   0.61358553   -8.7851835    553.75215  0.011548051  0.010493264            3 
 3997000   0.62040341   -8.7911862    553.38004  0.011537404  0.010489399            2 
 3998000   0.60967651   -8.7656793    554.30208  0.011553737  0.010485536            4 
 3999000   0.60898174    -8.802751    554.66472  0.011558405  0.010481675            1 
 4000000   0.60285047   -8.7902229    554.48571  0.011551786  0.010477817            2 
 4001000   0.61089028    -8.794478    553.99667  0.011538713   0.01047396            3 
 4002000   0.61552292   -8.7772799    554.72566  0.011551009  0.010470105            4 
 4003000     0.611489   -8.7875209    554.07035  0.011534482  0.010466253            2 
 4004000   0.60950811   -8.7848121    552.83794  0.011505951  0.010462392            6 
 4005000     0.620449   -8.8007696    554.42553  0.011536112  0.010458538            2 
 4006000   0.61026446   -8.7880199    554.07126  0.011525862  0.010454691            3 
 4007000    0.6215503   -8.7817969    554.41562  0.011530148  0.010450837            2 
 4008000   0.60977365   -8.7989151    553.40701    0.0115063  0.010446994            4 
 4009000   0.61721634   -8.7871396     554.6571  0.011529415  0.010443151            2 
 4010000   0.61551349   -8.7996073    554.42742  0.011521767  0.010439303            4 
 4011000   0.60109154   -8.8161673    554.26532  0.011515527  0.010435454            1 
 4012000   0.61157887   -8.7869918    554.17097  0.011510696   0.01043161            2 
 4013000   0.61551336   -8.7963233    553.59494  0.011495866  0.010427764            3 
 4014000    0.6242691   -8.7937109    553.90796  0.011499501  0.010423924            4 
 4015000   0.61507681   -8.7747108    554.02722  0.011499112  0.010420086            5 
 4016000   0.60692379   -8.7798249    554.02313  0.011496164  0.010416245            4 
 4017000   0.61206868   -8.8137105    553.21933  0.011476627  0.010412408            5 
 4018000   0.61222013   -8.7931254     554.1133  0.011492312  0.010408575            6 
 4019000   0.61577564   -8.7800299    554.15947   0.01149041  0.010404741            3 
 4020000   0.61867467   -8.7973278    554.06712  0.011485637  0.010400907            2 
 4021000   0.60365268   -8.7990729    553.77732  0.011476774  0.010397077            5 
 4022000   0.61074855   -8.8043054    552.93213  0.011456409  0.010393253            5 
 4023000    0.6159162    -8.782492    553.87179  0.011473026   0.01038943            3 
 4024000     0.611693   -8.7897597    553.34042   0.01145917  0.010385602            1 
 4025000    0.5987651   -8.7939607     555.2271  0.011495385   0.01038178            3 
 4026000   0.60029792   -8.7788121    553.98052  0.011466727  0.010377959            2 
 4027000   0.60798788    -8.796918    555.50882  0.011495506   0.01037414            4 
 4028000    0.5961091   -8.7911184    554.69951  0.011475908  0.010370325            2 
 4029000    0.6203451   -8.7924875    553.38769  0.011445927  0.010366509            5 
 4030000   0.61833185   -8.8030958    553.59959  0.011447469  0.010362697            2 
 4031000    0.6107514   -8.7959943    554.23402  0.011457745  0.010358891            3 
 4032000   0.61462324   -8.7848767    552.99401  0.011429274  0.010355085            3 
 4033000    0.6066398   -8.7873462    553.98368   0.01144689  0.010351281            2 
 4034000   0.59900758    -8.799083      553.794  0.011440134  0.010347475            7 
 4035000   0.60220077   -8.7973345     552.7814  0.011416386  0.010343666            2 
 4036000   0.59591586   -8.8026219    554.49016  0.011448839  0.010339854            4 
 4037000   0.61065644   -8.7891511    552.66922  0.011408414  0.010336052            6 
 4038000    0.6046115   -8.8038675    553.85199  0.011429998  0.010332254            1 
 4039000   0.60177495   -8.8086636    553.31886  0.011416169   0.01032845            6 
 4040000   0.59962332   -8.7974671    553.15917  0.011410049   0.01032465            4 
 4041000   0.60502437   -8.8045363    553.97026  0.011423952   0.01032085            3 
 4042000   0.59800045   -8.8043762    554.62223  0.011434567  0.010317055            6 
 4043000   0.60569283   -8.7934715    554.70523  0.011433449   0.01031326            4 
 4044000   0.60487944   -8.8020277    553.54095   0.01140663  0.010309473            3 
 4045000   0.62269972   -8.8012435    555.14066  0.011436767  0.010305679            1 
 4046000   0.60610719   -8.8067416    553.94717  0.011409358  0.010301889            4 
 4047000   0.59657393    -8.810933    553.88265  0.011405211  0.010298096            4 
 4048000   0.61288092   -8.7958675    553.85721  0.011401869  0.010294313            3 
 4049000    0.6099499   -8.8063288    554.53851  0.011413075  0.010290532            3 
 4050000   0.60416081   -8.8105655    552.71819  0.011372802  0.010286747            5 
 4051000   0.59893597   -8.8030789    554.15223  0.011399494  0.010282969            4 
 4052000   0.60238742   -8.8031477     553.1996   0.01137709  0.010279188            4 
 4053000   0.60287527   -8.8087398    554.32239  0.011397368  0.010275409            4 
 4054000   0.61974945   -8.8052594    553.31534  0.011373856  0.010271638            4 
 4055000   0.60513958   -8.8118865    553.58347  0.011376561  0.010267865            6 
 4056000    0.6058889   -8.8010047    554.86365  0.011400059  0.010264097            3 
 4057000    0.5993664   -8.8008531    553.41568  0.011367506  0.010260325            5 
 4058000   0.59640886   -8.8107936     553.9716  0.011376121  0.010256558            2 
 4059000   0.61084017   -8.8205254    553.46449  0.011362907  0.010252787            2 
 4060000   0.59671667   -8.7996347    553.38929  0.011358565  0.010249018            4 
 4061000   0.58932772   -8.8141437    552.70606  0.011341748  0.010245252            6 
 4062000   0.59997673   -8.8047028    553.61182  0.011357538  0.010241488            3 
 4063000   0.60119182   -8.8153424    553.89686  0.011360589  0.010237729            2 
 4064000   0.59793872   -8.8208266     554.3574  0.011367237  0.010233963            5 
 4065000    0.5898864   -8.8019688    553.17376  0.011340175    0.0102302            3 
 4066000   0.61021121   -8.8174145    553.58796  0.011345875  0.010226436            4 
 4067000   0.59187342   -8.8241655    553.28625  0.011336904  0.010222675            4 
 4068000    0.6009136   -8.8050136    553.98782  0.011348489   0.01021892            3 
 4069000   0.59799596   -8.8139317    553.35911  0.011332824  0.010215165            5 
 4070000   0.59960795   -8.7932578    554.03378  0.011343853  0.010211411            6 
 4071000    0.5908864   -8.8216259    553.49706   0.01133008   0.01020766            5 
 4072000   0.60007118   -8.8276696    553.79686  0.011333433  0.010203907            5 
 4073000   0.59999198   -8.8151341    553.16061  0.011317632  0.010200152            3 
 4074000   0.59907151   -8.8180969    553.03055  0.011312194  0.010196398            5 
 4075000   0.59410118   -8.8263223    553.21115  0.011313111  0.010192655            4 
 4076000   0.60385593   -8.8114212    553.69768  0.011320283  0.010188912            6 
 4077000   0.59963001   -8.8171416    553.06199  0.011304513  0.010185165            6 
 4078000   0.59343966   -8.8058123    551.99972  0.011280034   0.01018142            6 
 4079000    0.6015813   -8.8302523     554.4039  0.011326385  0.010177677            3 
 4080000   0.60894095   -8.8081144    552.46127  0.011283931  0.010173934            4 
 4081000   0.58629976   -8.8288204    553.19358   0.01129612  0.010170194            4 
 4082000   0.59319347   -8.8274406    552.64836  0.011282222  0.010166453            3 
 4083000     0.595407   -8.8110695    554.22059  0.011311548  0.010162717            2 
 4084000   0.59973066   -8.8269397    553.98439  0.011303958  0.010158984            4 
 4085000   0.61197338   -8.8243545    553.61404  0.011293636  0.010155252            2 
 4086000   0.60374166   -8.8351834    552.91796  0.011276676   0.01015152            3 
 4087000      0.59747   -8.8081313    553.81099  0.011292125  0.010147787            2 
 4088000   0.59189949   -8.8239312     552.7868  0.011268485  0.010144058            2 
 4089000   0.59005812   -8.8220328    553.22281  0.011274615  0.010140331            4 
 4090000   0.59431676   -8.8209407    552.67571  0.011260711  0.010136601            2 
 4091000   0.59858373   -8.8317704    552.31526  0.011250616  0.010132884            1 
 4092000    0.6009011   -8.8311051    553.46937   0.01127137  0.010129165            4 
 4093000   0.60044456   -8.8362325    553.27659  0.011264692  0.010125447            2 
 4094000    0.5922664   -8.8256064    553.14205  0.011259201  0.010121728            3 
 4095000   0.58074175   -8.8113697    554.57602  0.011285633  0.010118009            4 
 4096000   0.59365429    -8.812128    553.99376  0.011271032  0.010114295            2 
 4097000   0.60474774   -8.8195827    553.33689   0.01125492  0.010110584            2 
 4098000    0.6074585   -8.8248391    553.64236  0.011258385  0.010106877            5 
 4099000   0.59086846   -8.8314548    553.31216  0.011248926  0.010103172            2 
 4100000    0.5878474   -8.8009312    552.69382  0.011233614  0.010099465            2 
 4101000   0.60353953   -8.8231263    553.30268  0.011243247  0.010095756            2 
 4102000   0.59473358   -8.8290269     552.2827  0.011219785  0.010092053            2 
 4103000    0.5918366   -8.8223564    553.43866  0.011240529  0.010088347            2 
 4104000    0.5993708   -8.8273872    553.38497  0.011236699  0.010084646            5 
 4105000    0.5986294   -8.8055209    552.90454  0.011224209  0.010080947            3 
 4106000   0.58467302   -8.8110927    554.71187  0.011258156  0.010077252            4 
 4107000   0.58951587   -8.8248453    552.83328  0.011217297  0.010073555            3 
 4108000   0.60854796   -8.8188994     553.2313  0.011222641  0.010069863            2 
 4109000   0.60041227   -8.8161228    553.26054  0.011220503  0.010066168            3 
 4110000   0.59985381   -8.8218399     553.8578  0.011229882  0.010062476            6 
 4111000   0.57652385   -8.8082212    553.07323  0.011211247  0.010058786            2 
 4112000   0.59518379   -8.8370115    553.39441  0.011215029  0.010055098            2 
 4113000   0.59212297   -8.8290425    553.00312  0.011204375  0.010051416            3 
 4114000   0.59313555   -8.8221958    553.16729  0.011204977   0.01004773            3 
 4115000   0.59139477   -8.8081765    553.80907   0.01121525  0.010044047            2 
 4116000   0.60985009   -8.8285463    552.61636  0.011188378  0.010040364            3 
 4117000   0.60791417   -8.8188001    553.52325  0.011204017  0.010036686            3 
 4118000   0.58743576   -8.8130458    552.74643  0.011185576   0.01003301            2 
 4119000   0.59932416    -8.816924    553.12711  0.011190562  0.010029336            3 
 4120000   0.60615889   -8.8313598    553.18845  0.011189087  0.010025657            5 
 4121000   0.58728712    -8.818212    554.01395  0.011203065  0.010021983            4 
 4122000   0.60079212   -8.8230791     552.7494  0.011174782  0.010018312            3 
 4123000    0.6015973   -8.8288857    553.10037  0.011179165  0.010014642            2 
 4124000   0.59772025   -8.8327524    552.80108  0.011170406  0.010010968            4 
 4125000   0.58786483   -8.8323492    552.78441  0.011167362  0.010007297            4 
 4126000   0.60165169   -8.8498798    553.41838   0.01117746  0.010003629            3 
 4127000   0.58473346   -8.8348785    552.32558  0.011152685 0.0099999624            3 
 4128000   0.59251423   -8.8429265    553.30786  0.011169813 0.0099962976            2 
 4129000    0.5865451   -8.8185362    552.10349  0.011142801 0.0099926313            4 
 4130000    0.5805751   -8.8142543    553.29565  0.011164158 0.0099889689            2 
 4131000   0.59122016   -8.8245543    552.95185   0.01115452 0.0099853075            3 
 4132000     0.599689   -8.8377242    552.63176  0.011145365 0.0099816474            5 
 4133000   0.58928684   -8.8222065    552.71556  0.011144358 0.0099779905            4 
 4134000   0.59315758   -8.8174818    552.13466  0.011129952 0.0099743305            2 
 4135000   0.59171201   -8.8635199     553.8908  0.011162652 0.0099706807            4 
 4136000   0.59952956   -8.8338783     552.9425  0.011140847 0.0099670312            4 
 4137000   0.58892867   -8.8338244    553.02472   0.01113981 0.0099633772            3 
 4138000   0.59181975   -8.8437174     553.7445  0.011151613 0.0099597228            3 
 4139000   0.60440462   -8.8380206     552.4805   0.01112347 0.0099560764            3 
 4140000    0.5890981   -8.8564469    551.90084  0.011109115  0.009952428            2 
 4141000   0.57557761   -8.8301111    552.44368  0.011117357 0.0099487829            4 
 4142000   0.58688002   -8.8353351    553.11566  0.011128192 0.0099451414            6 
 4143000   0.59208136   -8.8463526    553.00553  0.011123291 0.0099415017            4 
 4144000   0.60375207   -8.8429185    552.40938  0.011108618 0.0099378629            4 
 4145000   0.58036105   -8.8335841    552.99501  0.011117712 0.0099342278            5 
 4146000   0.57776435   -8.8347556    552.67542  0.011108607 0.0099305911            3 
 4147000   0.59160091   -8.8303153    552.83157  0.011109066 0.0099269584            2 
 4148000   0.59325936   -8.8306393    552.17001  0.011093097 0.0099233256            2 
 4149000   0.58305814   -8.8312681    553.08238  0.011108749 0.0099196962            3 
 4150000   0.58295786   -8.8431166    552.06413  0.011085625 0.0099160692            5 
 4151000   0.57810049   -8.8499116     552.7257  0.011096236 0.0099124437            2 
 4152000   0.58549566   -8.8389199    553.15538  0.011102187 0.0099088187            2 
 4153000    0.5796806   -8.8198992    553.02243  0.011096846 0.0099051949            2 
 4154000   0.58585727   -8.8367044    552.80775  0.011089868 0.0099015719            2 
 4155000   0.58384811   -8.8593891    553.34093  0.011097893 0.0098979515            2 
 4156000   0.59592471   -8.8327201    552.78524   0.01108408 0.0098943346            2 
 4157000   0.58748418   -8.8424442    552.70041  0.011079713 0.0098907162            3 
 4158000   0.58890508    -8.847571    553.10744  0.011085206  0.009887102            2 
 4159000   0.59186967   -8.8304467    553.46261  0.011089657 0.0098834836            3 
 4160000   0.58363945   -8.8554999    553.25775  0.011082888 0.0098798726            3 
 4161000   0.59316095   -8.8578239    552.79459  0.011070948 0.0098762602            2 
 4162000   0.58701896   -8.8272918    553.42676  0.011080946 0.0098726504            3 
 4163000   0.58026661   -8.8487098    552.12217  0.011052169 0.0098690413            6 
 4164000   0.58688401   -8.8470134    552.45047  0.011056085 0.0098654328            4 
 4165000   0.58990895   -8.8586847    552.79211  0.011060266 0.0098618282            3 
 4166000   0.59016347   -8.8485006    552.91302   0.01106003 0.0098582218            4 
 4167000   0.58197597   -8.8365157    552.11475  0.011041412  0.009854619            2 
 4168000   0.57204198   -8.8407435    553.05141   0.01105749 0.0098510184            5 
 4169000   0.58417474   -8.8473173    552.89479  0.011051707 0.0098474141            3 
 4170000   0.57255711   -8.8352486    553.08354  0.011052829 0.0098438141            2 
 4171000   0.59285462   -8.8350812    552.52234  0.011038966 0.0098402209            2 
 4172000   0.58531641   -8.8635386     552.5143   0.01103616 0.0098366227            2 
 4173000   0.57637589   -8.8550547    552.79134  0.011039047 0.0098330271            4 
 4174000   0.57734431   -8.8279318    552.16499  0.011023898 0.0098294349            2 
 4175000    0.5759604   -8.8536918    552.61439  0.011030227 0.0098258445            3 
 4176000   0.58746236   -8.8419261    553.26396  0.011040548 0.0098222579            2 
 4177000   0.58960525    -8.861169    552.08758  0.011014436 0.0098186702            3 
 4178000   0.57957084   -8.8520981    552.09532  0.011011954 0.0098150796            1 
 4179000   0.57485729   -8.8618355    552.63022  0.011019985 0.0098114943            2 
 4180000    0.5755323   -8.8546655    552.29585  0.011010683 0.0098079085            2 
 4181000   0.57129348   -8.8522082    551.95379  0.011001232 0.0098043244            2 
 4182000   0.58608332   -8.8538927    551.80955  0.010995727 0.0098007427            2 
 4183000   0.58836253   -8.8513699    553.30313  0.011022853  0.009797163            2 
 4184000   0.57012202   -8.8390586    552.26813  0.010999604 0.0097935874            2 
 4185000   0.57929412   -8.8555062    552.88634  0.011009286 0.0097900077            2 
 4186000   0.58185173   -8.8624396    553.32086  0.011015306 0.0097864344            3 
 4187000   0.57817503   -8.8311246    553.33245  0.011012906 0.0097828616            3 
 4188000   0.59170046   -8.8521252    552.82939  0.011000266 0.0097792936            4 
 4189000   0.58164421   -8.8839196    552.61802  0.010993436 0.0097757222            2 
 4190000    0.5766382   -8.8532582    552.60299  0.010990513 0.0097721549            4 
 4191000   0.57428476   -8.8412359    552.49914  0.010985826 0.0097685887            3 
 4192000   0.58911825   -8.8579192    552.61687  0.010985545 0.0097650253            2 
 4193000   0.56589063    -8.839381    551.93782   0.01096943 0.0097614647            5 
 4194000   0.59267942   -8.8596215    551.62754  0.010960649 0.0097579014            4 
 4195000   0.58457331   -8.8714586    551.87005  0.010962854 0.0097543405            1 
 4196000   0.58153677   -8.8616318    552.19044  0.010966604 0.0097507826            3 
 4197000   0.57633593    -8.847401    552.64176  0.010972952 0.0097472264            5 
 4198000   0.57533299   -8.8414107     552.4287  0.010966109 0.0097436729            3 
 4199000   0.56958007   -8.8375583    551.98059  0.010954604 0.0097401182            3 
 4200000   0.59630425   -8.8653326    552.33832  0.010959094 0.0097365625            3 
 4201000    0.5789574   -8.8463191    552.23927   0.01095452 0.0097330124            2 
 4202000   0.58381404   -8.8523977    552.86128  0.010964249 0.0097294628            2 
 4203000   0.57323024   -8.8796413    552.22009  0.010948927 0.0097259129            2 
 4204000   0.58152733   -8.8579356    551.98098  0.010941583 0.0097223606            3 
 4205000   0.57474809   -8.8517403    552.34743  0.010946243 0.0097188147            7 
 4206000   0.57249628   -8.8557008    552.36049  0.010943899 0.0097152725            4 
 4207000   0.58238889   -8.8579936    552.61366  0.010946313  0.009711726            2 
 4208000   0.58482866   -8.8477583    552.15605  0.010934649 0.0097081832            1 
 4209000   0.57791883   -8.8503574    552.48474  0.010938559 0.0097046434            5 
 4210000   0.58075376   -8.8480928    552.39021   0.01093409 0.0097011091            7 
 4211000   0.57602955   -8.8420958      553.415  0.010951773  0.009697571            3 
 4212000   0.58098791   -8.8540501     551.6655   0.01091456 0.0096940411            2 
 4213000   0.57364185   -8.8514613    552.28196  0.010924163  0.009690507            3 
 4214000   0.58475777   -8.8566033    552.28553  0.010921641 0.0096869724            1 
 4215000   0.58517153   -8.8621182    552.55454  0.010924368 0.0096834431            4 
 4216000   0.57223749   -8.8493029    552.27792  0.010916309 0.0096799128            7 
 4217000   0.56831804   -8.8719016    552.56553  0.010919404 0.0096763874            5 
 4218000   0.57107026   -8.8636767    552.70579  0.010919586 0.0096728623            4 
 4219000   0.58598007   -8.8406807     553.2329   0.01092741 0.0096693404            1 
 4220000    0.5703952   -8.8252945    553.19459  0.010924064 0.0096658214            4 
 4221000   0.56899104   -8.8479792    552.51471  0.010908053 0.0096623033            2 
 4222000   0.57752947   -8.8558623    552.74637  0.010910042 0.0096587863            2 
 4223000   0.57688266   -8.8550743    552.88156  0.010910126  0.009655271            3 
 4224000   0.59084245   -8.8558915    552.58934  0.010901778 0.0096517558            1 
 4225000   0.58423093   -8.8680504    551.79378  0.010883506 0.0096482432            3 
 4226000   0.58443607   -8.8723652    552.06823  0.010886343 0.0096447327            1 
 4227000   0.58515235   -8.8737152    552.31464  0.010888625 0.0096412237            3 
 4228000   0.57811805   -8.8765473    551.59828  0.010871931 0.0096377129            2 
 4229000   0.57991601   -8.8507654    552.91084  0.010895224 0.0096342068            2 
 4230000   0.56677143   -8.8643842    553.07634  0.010895909 0.0096307001            2 
 4231000   0.57372003   -8.8579741    552.89406  0.010889744 0.0096271984            2 
 4232000   0.57049869   -8.8793945    551.52017  0.010860117 0.0096236965            2 
 4233000   0.56601057   -8.8476908    552.76613   0.01088208 0.0096201946            4 
 4234000   0.58089448   -8.8483767    552.81168  0.010880406 0.0096166978            2 
 4235000   0.57599554   -8.8540275    551.90562  0.010860008 0.0096132046            3 
 4236000   0.58187425   -8.8505457    552.51613  0.010869455 0.0096097125            3 
 4237000   0.58004139   -8.8541673     551.6026  0.010848922 0.0096062234            2 
 4238000   0.56948239   -8.8764496    551.85966  0.010851417 0.0096027364            2 
 4239000   0.57192418   -8.8564232    552.87963  0.010868908 0.0095992459            3 
 4240000    0.5866994   -8.8534332    552.78116   0.01086441 0.0095957582            1 
 4241000   0.57918595   -8.8738104    552.94377  0.010865043 0.0095922727            2 
 4242000   0.58078037   -8.8539787    552.64963  0.010856703 0.0095887863            3 
 4243000    0.5709059   -8.8443082    552.56552  0.010852493 0.0095853049            2 
 4244000   0.57677458   -8.8707244    552.80263  0.010854591 0.0095818191            2 
 4245000   0.57848748    -8.879079    552.53601    0.0108468 0.0095783378            3 
 4246000   0.57445528    -8.875062    551.42355  0.010822412 0.0095748592            4 
 4247000   0.56816982   -8.8633501    552.01517  0.010831473 0.0095713814            2 
 4248000   0.58039078     -8.84804    551.99039  0.010828437 0.0095679036            3 
 4249000   0.57143536   -8.8513046    552.64322  0.010838692 0.0095644312            3 
 4250000   0.57076374   -8.8622264    552.23743  0.010828185 0.0095609572            3 
 4251000   0.56442097   -8.8709325    552.55026   0.01083177 0.0095574815            5 
 4252000   0.55758105   -8.8501502    552.66174  0.010831408 0.0095540139            3 
 4253000    0.5678701   -8.8849849    552.41574  0.010824041 0.0095505457            1 
 4254000   0.57083272   -8.8724245      551.185  0.010797387 0.0095470782            8 
 4255000   0.57989042   -8.8759061     551.8118  0.010807125 0.0095436132            3 
 4256000    0.5574854   -8.8628951    552.27425  0.010813641 0.0095401463            2 
 4257000   0.58946017   -8.8597622    552.67377  0.010818921 0.0095366851            2 
 4258000   0.56970513    -8.865979    552.26365  0.010808354 0.0095332288            2 
 4259000   0.57420723    -8.869052    552.38946  0.010808278 0.0095297686            5 
 4260000   0.56735396   -8.8622285    552.22148  0.010802455 0.0095263116            2 
 4261000   0.58362996   -8.8721714     552.8543  0.010812296 0.0095228599            2 
 4262000   0.57172236    -8.874768    551.41175  0.010781553 0.0095194079            3 
 4263000   0.57568974   -8.8493382    551.93929  0.010789336 0.0095159584            3 
 4264000   0.56715667   -8.8418691    552.26059  0.010793085  0.009512506            3 
 4265000    0.5806768   -8.8685804    551.31844  0.010772146 0.0095090583            3 
 4266000   0.58630499   -8.8748161    552.27643  0.010788335 0.0095056075            2 
 4267000   0.55766591   -8.8663601    552.56247  0.010791393 0.0095021575            6 
 4268000   0.57179857   -8.8649915    552.44685  0.010786607 0.0094987113            2 
 4269000   0.57786536   -8.8829085    552.11539   0.01077761 0.0094952642            3 
 4270000   0.55553724   -8.8717716    552.30916  0.010778867 0.0094918194            2 
 4271000   0.56816583   -8.8589259    551.62867  0.010763066 0.0094883781            4 
 4272000   0.56586644   -8.8798041    551.62107  0.010760398 0.0094849368            2 
 4273000   0.57886483   -8.8575141    551.64949  0.010758435 0.0094814986            2 
 4274000   0.57799201   -8.8829662    551.49808  0.010752965 0.0094780638            2 
 4275000   0.57103199   -8.8576081    552.43635   0.01076874 0.0094746239            2 
 4276000   0.57865275   -8.8740123    553.09579  0.010779073  0.009471187            2 
 4277000   0.56919818   -8.8719929    551.64668  0.010748318 0.0094677532            2 
 4278000   0.56918365   -8.8907158    551.93969  0.010751513 0.0094643194            2 
 4279000   0.56953739   -8.8593222    553.41528  0.010777738 0.0094608893            2 
 4280000   0.56203719    -8.888395    552.31271  0.010753752 0.0094574612            2 
 4281000   0.55734995   -8.8670208    551.56813  0.010736746 0.0094540329            2 
 4282000   0.56224043    -8.858998    551.62038  0.010735256 0.0094506034            5 
 4283000   0.56792403   -8.8732671    551.10622  0.010722745 0.0094471779            4 
 4284000   0.55477877   -8.8724622    552.00342  0.010737695  0.009443756            2 
 4285000   0.56824312   -8.8773242    551.44614  0.010724351 0.0094403363            3 
 4286000   0.56012524   -8.8564884    552.23774   0.01073724 0.0094369134            1 
 4287000   0.56921605    -8.871142    551.85386  0.010727274 0.0094334999            3 
 4288000   0.56730112   -8.8824728    550.59291  0.010700266 0.0094300815            6 
 4289000   0.55627478   -8.8683848    552.35516  0.010732011 0.0094266664            3 
 4290000   0.56689155   -8.8521802    552.92544  0.010740587 0.0094232557            3 
 4291000   0.56303021   -8.8902483    551.72661  0.010714802 0.0094198445            2 
 4292000   0.57939046   -8.8849314     551.9366  0.010716383 0.0094164302            3 
 4293000   0.56964845   -8.8856066    552.38656  0.010722621 0.0094130208            3 
 4294000   0.56956489   -8.8676649    551.89641  0.010710612 0.0094096122            5 
 4295000    0.5621857   -8.8742785    552.59787  0.010721728 0.0094062039            3 
 4296000   0.57877826   -8.8700829    551.86631  0.010705042 0.0094028022            5 
 4297000   0.55290097    -8.859714    552.15048  0.010708062 0.0093994013            3 
 4298000   0.56699842   -8.8693642    550.93839  0.010682069 0.0093959954            4 
 4299000   0.56932997   -8.8851672    552.39763  0.010707871 0.0093925949            2 
 4300000    0.5741448   -8.8762799    552.10683  0.010699745 0.0093891951            2 
 4301000   0.55752959   -8.8783448     552.3026   0.01070105 0.0093857979            5 
 4302000   0.57357732   -8.8896648    551.72079  0.010687293 0.0093823981            3 
 4303000   0.56553331   -8.8761375    552.44089  0.010698755 0.0093790027            5 
 4304000    0.5475461   -8.8778801      551.527  0.010678574 0.0093756087            4 
 4305000   0.56551951   -8.8650015    552.04494   0.01068612 0.0093722188            4 
 4306000   0.56890544   -8.8686667    552.30752   0.01068872 0.0093688285            3 
 4307000   0.57149745   -8.8833263      552.142  0.010683035 0.0093654402            3 
 4308000    0.5699455   -8.8644042    552.46426  0.010686789 0.0093620573            2 
 4309000   0.56541067   -8.8707176    552.08147  0.010676906 0.0093586732            2 
 4310000   0.56565875   -8.8958332    551.33809  0.010660056 0.0093552907            5 
 4311000   0.57299191   -8.8806363    551.84984  0.010667475 0.0093519048            3 
 4312000   0.56385722   -8.8787467    550.92413  0.010647111 0.0093485257            2 
 4313000   0.57084312   -8.8819573    551.69811  0.010659597 0.0093451497            3 
 4314000   0.57236118   -8.8686747    553.26099  0.010687316 0.0093417675            5 
 4315000   0.55956274   -8.8858671    551.52388  0.010651292 0.0093383871            2 
 4316000   0.56141265   -8.8718068    551.78217  0.010653811 0.0093350064            3 
 4317000   0.56595436   -8.8827223    550.73063  0.010631045 0.0093316326            3 
 4318000   0.55986894   -8.8730794    551.57317  0.010644843 0.0093282576            2 
 4319000    0.5690321   -8.8876643    551.38303  0.010638709 0.0093248871            5 
 4320000   0.55731762   -8.8764162     551.1858  0.010632442 0.0093215161            5 
 4321000   0.57012537   -8.8929145    551.87801  0.010643331 0.0093181466            3 
 4322000    0.5559384   -8.8910054    552.63871  0.010655536 0.0093147805            2 
 4323000   0.55821669   -8.8977487    551.73173  0.010635587 0.0093114152            1 
 4324000   0.56216191   -8.9030165    551.86794  0.010635753   0.00930805            4 
 4325000   0.55678699   -8.8800691    551.57299  0.010627611 0.0093046891            6 
 4326000   0.56494308     -8.85864    551.31447  0.010620174 0.0093013287            2 
 4327000   0.56325316   -8.8963337    551.88692  0.010628744 0.0092979686            2 
 4328000   0.56983896   -8.8863498    551.91842  0.010626895 0.0092946112            2 
 4329000   0.54654515   -8.9049514    551.42795  0.010614999 0.0092912539            3 
 4330000   0.56000615   -8.8877743    551.60267   0.01061591 0.0092879001            5 
 4331000   0.54517339   -8.8883347    551.96993  0.010620525 0.0092845489            3 
 4332000   0.56714766    -8.875975    552.45153  0.010627338 0.0092812031            2 
 4333000   0.55827177   -8.8696656    551.92403   0.01061474 0.0092778523            4 
 4334000   0.55400325   -8.8773456    551.70876  0.010608152 0.0092745061            2 
 4335000   0.55743109   -8.8930261    551.13034  0.010594586  0.009271153            3 
 4336000   0.56444684   -8.8917261    551.22836  0.010594026 0.0092678047            1 
 4337000   0.56834765   -8.8954778     551.0976  0.010589071 0.0092644575            2 
 4338000   0.55488226   -8.8722872    551.82813  0.010600663 0.0092611116            3 
 4339000   0.56790472   -8.8863468    550.89692  0.010580336 0.0092577701            2 
 4340000   0.55735916   -8.8688332    552.11629  0.010601311 0.0092544337            1 
 4341000   0.55763261   -8.8906986    551.44669  0.010586015 0.0092510979            2 
 4342000    0.5610133   -8.8900752    550.78388  0.010570856 0.0092477617            2 
 4343000   0.55707956   -8.8762966    550.81474  0.010569014 0.0092444248            3 
 4344000   0.55896703   -8.9128772    551.35169  0.010576882 0.0092410876            5 
 4345000   0.54354894   -8.8857951    551.07713  0.010569182 0.0092377547            6 
 4346000   0.56870686   -8.8766667    550.61627  0.010557913 0.0092344209            5 
 4347000   0.55102777    -8.875422    551.33059  0.010569178 0.0092310913            2 
 4348000   0.55624991    -8.884716    551.61998  0.010572293 0.0092277638            2 
 4349000   0.54958583    -8.880538    550.28152  0.010544216 0.0092244353            2 
 4350000   0.55023745   -8.9004675    551.69878  0.010568942 0.0092211117            3 
 4351000   0.55811363   -8.8883479    551.59065  0.010564442 0.0092177869            3 
 4352000   0.55601704   -8.8920199    552.05179  0.010570845 0.0092144634            3 
 4353000   0.55266995   -8.8927637    550.90092  0.010546384 0.0092111413            2 
 4354000   0.55499763   -8.9072083    551.62744  0.010557867 0.0092078209            2 
 4355000   0.55842169   -8.8934306    550.84269  0.010540427 0.0092045049            5 
 4356000    0.5503134   -8.8868416    551.48933  0.010550378  0.009201185            3 
 4357000   0.55436488    -8.889528     550.4525  0.010528125 0.0091978697            2 
 4358000   0.55392612   -8.8867509    551.33807  0.010542643 0.0091945517            2 
 4359000   0.54162659   -8.8787151    550.08266  0.010516224 0.0091912381            3 
 4360000   0.55438129   -8.8816509    551.50697  0.010541035 0.0091879266            4 
 4361000   0.54861476   -8.8793037    551.37464   0.01053609 0.0091846211            3 
 4362000   0.55783428   -8.9100835    551.53195   0.01053668 0.0091813124            4 
 4363000   0.55044186   -8.8972676    552.31502  0.010549221 0.0091780052            2 
 4364000   0.55447514   -8.8983815    551.04426  0.010522538 0.0091747028            2 
 4365000   0.55417318   -8.8807642    549.91256  0.010498522 0.0091713992            3 
 4366000    0.5602329   -8.8832047     551.9797  0.010535572  0.009168103            4 
 4367000   0.55049263   -8.8863776    550.27051  0.010500544 0.0091648032            1 
 4368000    0.5516378   -8.8710539     550.9582   0.01051126 0.0091615034            3 
 4369000   0.54532228   -8.8954202    552.07598  0.010530174 0.0091582056            2 
 4370000   0.54768163   -8.9217251    551.85389  0.010523529 0.0091549096            3 
 4371000   0.55616105   -8.8927775    551.21679  0.010508976 0.0091516143            3 
 4372000   0.55697331   -8.8915908     551.7822  0.010517349 0.0091483214            1 
 4373000   0.55494745   -8.9124914    551.00122  0.010500061 0.0091450306            6 
 4374000   0.55527858   -8.8917936    551.82774  0.010513408 0.0091417419            4 
 4375000   0.54287747   -8.8763643    551.22976  0.010499614 0.0091384542            3 
 4376000   0.54684649   -8.8939645    550.96199  0.010492116 0.0091351659            5 
 4377000   0.54384513   -8.9104728    551.67742   0.01050334 0.0091318775            2 
 4378000   0.54863589   -8.9088928    550.86812  0.010485536 0.0091285927            2 
 4379000   0.54130008   -8.8888603    551.97793  0.010504261 0.0091253131            2 
 4380000   0.54004144    -8.897659    550.70935  0.010477727 0.0091220326            3 
 4381000   0.54466928   -8.9022541    550.61637  0.010473567 0.0091187501            6 
 4382000   0.55603501   -8.9096872    550.94419  0.010477411 0.0091154726            4 
 4383000   0.56692614   -8.9009858    551.59678  0.010487428  0.009112195            3 
 4384000   0.54711502   -8.9033493    550.80292  0.010469946 0.0091089187            4 
 4385000   0.54360634   -8.9143141    550.74376  0.010466434 0.0091056431            2 
 4386000   0.55599761   -8.9100274    550.73762  0.010463931 0.0091023662            6 
 4387000   0.55557031   -8.9078774    551.91188  0.010483851 0.0090990931            2 
 4388000   0.54883295   -8.8946231    551.23681  0.010468642 0.0090958205            2 
 4389000   0.54000787   -8.9048542    550.56567  0.010453514 0.0090925495            4 
 4390000   0.55645199   -8.9036542    551.61179  0.010470991  0.009089279            5 
 4391000   0.54781987   -8.9125875    550.63793  0.010450124 0.0090860106            5 
 4392000   0.54678574   -8.8927564    551.40352  0.010462271 0.0090827465            2 
 4393000   0.54044229    -8.889518    551.41765  0.010460157 0.0090794841            2 
 4394000    0.5499599   -8.9142438    550.89154  0.010447799  0.009076221            3 
 4395000   0.55115918   -8.9084889    551.74133  0.010461535 0.0090729629            2 
 4396000   0.54754311   -8.8929416    550.86209  0.010442487 0.0090697041            3 
 4397000   0.54888073    -8.902053    551.01315  0.010442975 0.0090664446            5 
 4398000   0.54627931   -8.9031722    550.35211  0.010428075  0.009063187            3 
 4399000   0.54758473   -8.9001869    551.91335  0.010455281 0.0090599303            4 
 4400000   0.54686071   -8.8952496     551.5453  0.010445934 0.0090566749            4 
 4401000   0.56532945   -8.9126629    551.38511  0.010440527 0.0090534247            4 
 4402000   0.55241497   -8.9024256    551.70559  0.010444222 0.0090501746            3 
 4403000   0.53608786   -8.9092593    549.83462  0.010406439 0.0090469248            2 
 4404000   0.55375435   -8.8824311    551.35149  0.010432779 0.0090436752            3 
 4405000   0.54523842    -8.893452    551.04662  0.010424643 0.0090404305            3 
 4406000   0.55507654   -8.9196186    550.47777  0.010411518 0.0090371871            3 
 4407000   0.54574384   -8.9081087    550.82304  0.010415684 0.0090339452            3 
 4408000   0.55096052   -8.9124853    550.37572  0.010404865 0.0090307029            1 
 4409000   0.54461283   -8.8962025    550.73505  0.010409296 0.0090274636            4 
 4410000   0.54770756   -8.9202283    550.88563  0.010409781 0.0090242229            4 
 4411000   0.54745236   -8.8994924    550.86901  0.010407108 0.0090209844            6 
 4412000   0.55381979   -8.8926625    551.38141  0.010414427 0.0090177463            4 
 4413000   0.55268569   -8.8781888    550.78518  0.010400808 0.0090145141            2 
 4414000   0.54142127   -8.9079832    550.65679  0.010396028  0.009011282            1 
 4415000     0.538347   -8.9103105    550.08653  0.010382909 0.0090080502            4 
 4416000    0.5461417   -8.9207865    550.90083  0.010395924 0.0090048195            4 
 4417000    0.5417957   -8.9142058    549.81098  0.010373009 0.0090015905            4 
 4418000   0.52777225   -8.9104077    550.63473  0.010386199 0.0089983626            1 
 4419000   0.55469255   -8.9138521    550.48084  0.010380947 0.0089951358            3 
 4420000   0.55260869   -8.9071721    551.03417   0.01038903 0.0089919108            3 
 4421000    0.5528922   -8.9029469    551.19525  0.010389717 0.0089886877            3 
 4422000   0.53639368    -8.924159      551.367  0.010390604 0.0089854685            2 
 4423000   0.54041519   -8.8941793    550.94763  0.010380353 0.0089822504            2 
 4424000   0.54132167   -8.9075365    551.06962  0.010380305 0.0089790349            2 
 4425000   0.54139233   -8.9154669    551.23732  0.010381117 0.0089758228            3 
 4426000   0.54465853   -8.9080811    550.03493  0.010356133 0.0089726108            3 
 4427000   0.55182944   -8.9266865      551.283  0.010377287 0.0089694011            2 
 4428000   0.54555413   -8.9215937    551.17242  0.010372862 0.0089661921            1 
 4429000   0.54523119   -8.9130872     550.4547  0.010357016 0.0089629839            1 
 4430000   0.54211655   -8.9012992    550.81016  0.010361365 0.0089597734            2 
 4431000   0.53803452   -8.9022767    550.98225  0.010362263 0.0089565635            1 
 4432000   0.55330752   -8.8972493    551.76545  0.010374651 0.0089533578            2 
 4433000    0.5373705    -8.903108    550.10258  0.010341052 0.0089501561            4 
 4434000    0.5389713    -8.903794    550.91213  0.010353934 0.0089469506            3 
 4435000   0.54026107   -8.8866165    550.50458  0.010343942 0.0089437484            2 
 4436000   0.53685536   -8.9049515    551.46938  0.010359734 0.0089405482            1 
 4437000   0.54736831   -8.9121004    551.47791   0.01035756 0.0089373506            2 
 4438000   0.54125819   -8.9225194    550.46682   0.01033624 0.0089341564            3 
 4439000    0.5523703   -8.9167463    549.79545  0.010321308 0.0089309628            1 
 4440000   0.54190445   -8.9269202    551.39363   0.01034898 0.0089277706            2 
 4441000   0.55247233   -8.9115952     551.0664  0.010340509 0.0089245825            1 
 4442000    0.5440891   -8.9195572    551.05369  0.010337943 0.0089213904            1 
 4443000    0.5401372    -8.912696    550.92985  0.010333293 0.0089182007            2 
 4444000   0.54340431   -8.9087548    550.34963  0.010320088 0.0089150119            4 
 4445000   0.54313275   -8.9264928    550.81076  0.010326411 0.0089118272            2 
 4446000   0.54219422   -8.9123255    550.53781  0.010318972 0.0089086437            2 
 4447000   0.54682245   -8.8925581    551.05787  0.010326397 0.0089054612            3 
 4448000   0.53523132   -8.9020038    550.89432  0.010321012 0.0089022801            2 
 4449000   0.54575965   -8.9165497    551.79277   0.01033552 0.0088991002            3 
 4450000   0.54693918    -8.912465    551.01404  0.010318615 0.0088959196            1 
 4451000    0.5355378   -8.9064063     551.1155  0.010318196 0.0088927442            3 
 4452000   0.53992952    -8.915587    550.64688  0.010307107 0.0088895654            3 
 4453000   0.54415368   -8.9126908     551.2112  0.010315353 0.0088863948            5 
 4454000   0.54259396   -8.9064406    550.38428  0.010297565 0.0088832239            2 
 4455000    0.5463117   -8.9212896    549.62698  0.010281088 0.0088800513            4 
 4456000   0.53836191   -8.9095736    550.26954  0.010290798 0.0088768842            6 
 4457000   0.54546535   -8.9078961    551.10133  0.010304041 0.0088737181            3 
 4458000   0.53212748   -8.9162272    550.37685  0.010288187 0.0088705501            4 
 4459000    0.5336966   -8.9227696    550.72444  0.010292376 0.0088673849            2 
 4460000   0.52900138   -8.9333161    551.05499  0.010296244 0.0088642209            3 
 4461000   0.53987877   -8.9180626    549.76729  0.010269881 0.0088610588            1 
 4462000   0.52910765   -8.9201714    551.53692   0.01030063 0.0088578968            2 
 4463000   0.54889284   -8.9005459    550.83972  0.010285304 0.0088547364            2 
 4464000   0.53489201   -8.9329715    551.00722  0.010286127 0.0088515775            2 
 4465000   0.52738915   -8.9474998    551.29716  0.010289234 0.0088484215            2 
 4466000   0.54170975   -8.9027163    551.35889  0.010288082 0.0088452622            3 
 4467000   0.53939101   -8.9086017    550.70394  0.010273561 0.0088421074            3 
 4468000    0.5347908    -8.931176    550.04987  0.010259062  0.008838951            2 
 4469000   0.53590107   -8.9304148    551.07346  0.010275853 0.0088357982            1 
 4470000   0.52213826   -8.9196579    551.11286  0.010274289 0.0088326447            3 
 4471000    0.5375421   -8.9163988    550.45467  0.010259723 0.0088294943            2 
 4472000   0.52800817   -8.9299291    550.99691  0.010267533 0.0088263431            2 
 4473000    0.5375948   -8.9141782    550.76088  0.010260841 0.0088231961            2 
 4474000   0.54296871   -8.9319717    551.14488    0.0102657 0.0088200481            2 
 4475000   0.53223523   -8.9156666    550.12778  0.010244465 0.0088169056            2 
 4476000   0.55155976   -8.9182948     550.9955  0.010258331 0.0088137634            4 
 4477000   0.54103154   -8.9107402    550.05831  0.010238596 0.0088106229            2 
 4478000     0.534374   -8.9147832    550.14601  0.010237941 0.0088074848            2 
 4479000   0.52902593   -8.9286467     550.2087  0.010236822 0.0088043446            1 
 4480000    0.5257733   -8.9213296    549.48499  0.010221075 0.0088012061            2 
 4481000   0.53041304   -8.9241938    550.54697  0.010238544  0.008798068            2 
 4482000   0.51965798   -8.9324175    549.84477  0.010223203 0.0087949297            3 
 4483000   0.53678199   -8.9274237    550.35062  0.010230326 0.0087917984            4 
 4484000   0.53435042     -8.91826    551.06567  0.010241333 0.0087886655            2 
 4485000   0.53903663   -8.9389199     550.8736  0.010235481 0.0087855324            5 
 4486000    0.5288957   -8.9176891    550.13056  0.010219397 0.0087824018            2 
 4487000   0.53540957    -8.929014    551.27844  0.010238438  0.008779272            3 
 4488000   0.52487225   -8.9307069    550.52335  0.010222136 0.0087761424            6 
 4489000    0.5335895   -8.9107331    550.30293  0.010215767 0.0087730166            3 
 4490000   0.53205705   -8.9283615    550.42532  0.010215763 0.0087698902            2 
 4491000   0.54331011    -8.938793    550.27024  0.010210611 0.0087667676            3 
 4492000   0.53344816   -8.9353272    550.41332  0.010210992 0.0087636479            2 
 4493000    0.5421379   -8.9334309     550.7694  0.010215324 0.0087605334            1 
 4494000   0.53209004   -8.9310561    550.30484  0.010204436 0.0087574132            2 
 4495000   0.52821439   -8.9484495    550.08071  0.010198011 0.0087542959            3 
 4496000   0.52995249   -8.9445556    550.08499  0.010195822 0.0087511798            2 
 4497000   0.53268474   -8.9369746    549.85413  0.010189277 0.0087480674            3 
 4498000   0.51906818   -8.9232895    550.31479  0.010195546 0.0087449537            3 
 4499000    0.5322093   -8.9438569    550.96486  0.010205321 0.0087418438            6 
 4500000   0.53206472   -8.9283149    551.01672  0.010204013 0.0087387338            2 
 4501000   0.52480541   -8.9337385    550.37306  0.010189829 0.0087356271            1 
 4502000   0.52381213   -8.9123331    550.31003  0.010186399 0.0087325223            3 
 4503000   0.53483452   -8.9352598    551.06526  0.010198114 0.0087294214            2 
 4504000   0.53270046    -8.950982     549.7069  0.010170717  0.008726317            4 
 4505000   0.53544027   -8.9160878     550.0512  0.010174828 0.0087232143            2 
 4506000   0.53890016    -8.921261    549.85713  0.010168981 0.0087201152            1 
 4507000   0.52583398   -8.9272355      551.341  0.010194161  0.008717017            3 
 4508000   0.54172181   -8.9261198    550.78438   0.01018161 0.0087139194            2 
 4509000   0.53627947   -8.9350354    550.95738  0.010182549 0.0087108215            4 
 4510000   0.53315682    -8.916066    550.96321  0.010180399 0.0087077245            3 
 4511000   0.52002595    -8.941016    550.53362  0.010170207 0.0087046281            3 
 4512000   0.52812689   -8.9216736    549.57778  0.010150299 0.0087015344            2 
 4513000   0.53278626    -8.939307    550.49707  0.010165025 0.0086984444            3 
 4514000   0.52969559   -8.9343643    549.35133  0.010141621  0.008695355            4 
 4515000   0.52810293   -8.9384665    550.66902  0.010163696 0.0086922693            2 
 4516000   0.51441739   -8.9352303    551.03948  0.010168281 0.0086891786            3 
 4517000   0.53055433   -8.9160496    551.21313  0.010169233 0.0086860937            2 
 4518000   0.53162345   -8.9398871    550.44634  0.010152839 0.0086830088            3 
 4519000   0.54146586   -8.9264376    549.60662  0.010135108 0.0086799261            3 
 4520000   0.53408817   -8.9414917    550.31237  0.010145877 0.0086768458            6 
 4521000   0.53471829   -8.9419027     550.3286  0.010143932 0.0086737672            2 
 4522000   0.53060546   -8.9321897    551.15533  0.010156924 0.0086706895            2 
 4523000   0.54096221   -8.9186379    550.16567  0.010136445 0.0086676131            4 
 4524000    0.5316573   -8.9360762    550.18397  0.010134541  0.008664538            4 
 4525000   0.52118862   -8.9458436     549.9591   0.01012816 0.0086614652            1 
 4526000   0.52449689   -8.9347424    550.03933    0.0101274 0.0086583907            3 
 4527000     0.519732   -8.9386575    550.09388  0.010126167 0.0086553225            1 
 4528000   0.53654274   -8.9351473     550.4744  0.010130933 0.0086522519            2 
 4529000   0.52778878   -8.9150711    550.51396  0.010129425 0.0086491841            4 
 4530000   0.52441429   -8.9706131    550.72779  0.010131122 0.0086461163            3 
 4531000   0.53004735   -8.9390286    550.69724  0.010128324 0.0086430504            2 
 4532000   0.53082016   -8.9255043    549.45796  0.010103302 0.0086399863            3 
 4533000    0.5242077   -8.9448385    550.35471  0.010117558 0.0086369186            4 
 4534000   0.52932189   -8.9431249    550.29126  0.010114161 0.0086338581            5 
 4535000   0.51473554     -8.91608    550.63495  0.010118246 0.0086307972            2 
 4536000    0.5120009   -8.9370945     549.9885  0.010104139 0.0086277337            2 
 4537000   0.52958184   -8.9226766    550.50088  0.010111323 0.0086246776            2 
 4538000   0.52230024   -8.9315733    549.46579  0.010090087 0.0086216198            3 
 4539000   0.51483979   -8.9350134    550.26464  0.010102531 0.0086185621            5 
 4540000     0.518611   -8.9419712    550.16648  0.010098504 0.0086155104            1 
 4541000   0.52588231   -8.9380801    548.80582   0.01007131 0.0086124601            1 
 4542000   0.52325484   -8.9374743     550.0857  0.010092575 0.0086094097            2 
 4543000    0.5300045   -8.9213498    549.45518  0.010078788 0.0086063636            3 
 4544000    0.5155666   -8.9433337    550.38122  0.010093552  0.008603312            4 
 4545000    0.5207934   -8.9467642    550.64119  0.010096098 0.0086002621            3 
 4546000   0.51415596   -8.9494536    549.71566  0.010076911 0.0085972143            2 
 4547000   0.52688872   -8.9323009    550.14937  0.010082644 0.0085941682            1 
 4548000   0.53406319   -8.9530512    549.47364  0.010068045 0.0085911264            3 
 4549000    0.5153333   -8.9579734    549.85649  0.010072845 0.0085880837            2 
 4550000    0.5303558   -8.9550339    550.29487  0.010078661 0.0085850468            1 
 4551000   0.52339671   -8.9393356    550.21965  0.010075069 0.0085820068            6 
 4552000   0.51819602   -8.9329351    549.81226  0.010065397 0.0085789703            4 
 4553000    0.5055837   -8.9457222    550.78136  0.010080924 0.0085759335            3 
 4554000   0.52358184   -8.9466097    548.99339  0.010045992 0.0085728947            3 
 4555000    0.5273981   -8.9394041    549.90154  0.010060401 0.0085698594            2 
 4556000   0.52451347   -8.9460071    549.30773  0.010047332 0.0085668253            3 
 4557000    0.5200038   -8.9370501    550.37323  0.010064612 0.0085637919            3 
 4558000   0.52478118    -8.946442    549.94666  0.010054605 0.0085607597            4 
 4559000    0.5149767    -8.937852    549.89215  0.010051403 0.0085577291            2 
 4560000   0.51911647   -8.9449407    549.94245  0.010050118 0.0085547006            4 
 4561000   0.52322179   -8.9485913    550.01064   0.01004916  0.008551677            3 
 4562000   0.52222912   -8.9580109    550.20065  0.010050428 0.0085486529            3 
 4563000   0.53639381   -8.9439215    548.98919  0.010026101  0.008545629            4 
 4564000   0.51215663    -8.956736    549.31875  0.010029922 0.0085426029            2 
 4565000   0.52036658   -8.9460342    550.81116  0.010054968 0.0085395813            3 
 4566000      0.53224   -8.9577066    550.14676   0.01004064 0.0085365629            6 
 4567000   0.51518283   -8.9509112    549.80759  0.010032253  0.008533544            3 
 4568000   0.53174041   -8.9365975    550.19553  0.010037134 0.0085305267            2 
 4569000   0.51791129   -8.9521156    550.31635  0.010037141 0.0085275123            1 
 4570000   0.53258041   -8.9530339     549.6931   0.01002358 0.0085244985            2 
 4571000   0.51534477   -8.9576348    550.19513  0.010030539 0.0085214832            4 
 4572000   0.51946476   -8.9375545    550.31209  0.010030477 0.0085184713            2 
 4573000   0.50767251   -8.9451816    550.14496  0.010025238 0.0085154582            2 
 4574000   0.52020022   -8.9442585    549.52163   0.01001169 0.0085124474            2 
 4575000   0.51291569   -8.9586492    549.28668  0.010005222  0.008509439            3 
 4576000   0.52432355     -8.94481    549.18643   0.01000121 0.0085064295            7 
 4577000   0.51742037   -8.9519145    549.88829  0.010011803 0.0085034204            2 
 4578000   0.52517978   -8.9562479    549.83871  0.010008714 0.0085004144            4 
 4579000   0.51917801   -8.9527597    549.13263 0.0099936781 0.0084974118            6 
 4580000   0.52738991   -8.9415105    549.94884  0.010006347 0.0084944112            1 
 4581000   0.51033619   -8.9615832    550.54301  0.010014972 0.0084914068            2 
 4582000   0.52174372   -8.9533847    550.05314  0.010003876 0.0084884067            2 
 4583000   0.52832713   -8.9421363    549.83446 0.0099977173 0.0084854094            2 
 4584000   0.53409498    -8.944029    549.80982 0.0099950883 0.0084824145            4 
 4585000   0.52502517   -8.9373445    549.08353 0.0099797078 0.0084794182            3 
 4586000   0.51745146   -8.9464443    550.29159 0.0099994837 0.0084764221            2 
 4587000   0.52183703   -8.9549314    549.39472   0.00998101 0.0084734247            1 
 4588000   0.51506754     -8.95606    550.38068 0.0099967429 0.0084704351            2 
 4589000   0.50678681   -8.9394685     549.8816 0.0099855016 0.0084674444            4 
 4590000   0.51353948   -8.9533909    549.01409 0.0099675761 0.0084644529            2 
 4591000   0.52264261   -8.9484522    549.27969 0.0099702261  0.008461463            3 
 4592000   0.53143306   -8.9494784    550.27993 0.0099862066 0.0084584772            2 
 4593000   0.51238636   -8.9497102    549.80713 0.0099754542 0.0084554933            1 
 4594000   0.51125592   -8.9486992    549.69635 0.0099712732 0.0084525096            3 
 4595000   0.50495391   -8.9642604     549.7921 0.0099708398 0.0084495281            2 
 4596000   0.52174277    -8.956219    550.07101 0.0099737273 0.0084465469            3 
 4597000   0.51372861   -8.9703416    549.38787 0.0099591739 0.0084435666            1 
 4598000   0.51777813   -8.9594135    550.27402 0.0099730683 0.0084405884            6 
 4599000   0.51549006   -8.9493159    549.90541 0.0099642207  0.008437611            4 
 4600000   0.51248396   -8.9489607    549.40924 0.0099530659 0.0084346337            3 
 4601000   0.52571008   -8.9532076      549.369 0.0099501738 0.0084316613            4 
 4602000   0.51676725   -8.9410111    550.59688 0.0099702463 0.0084286904            3 
 4603000   0.50304599    -8.957841    549.71888 0.0099521848 0.0084257194            2 
 4604000   0.50666601   -8.9615189    549.82506  0.009951945 0.0084227507            2 
 4605000   0.51761735   -8.9493322    550.09078 0.0099545925 0.0084197809            1 
 4606000   0.50467435   -8.9816432    549.85691 0.0099482001 0.0084168128            2 
 4607000   0.52165934   -8.9549862    550.17245 0.0099517483 0.0084138456            2 
 4608000   0.50093646   -8.9692349    550.06395 0.0099476264 0.0084108804            4 
 4609000   0.50516052   -8.9586944    549.58212 0.0099367564 0.0084079162            1 
 4610000   0.50992889   -8.9631769     549.5634 0.0099342625 0.0084049511            5 
 4611000   0.51860387   -8.9506654    549.24597 0.0099263712 0.0084019889            2 
 4612000   0.51828009   -8.9566794    549.86353 0.0099353775 0.0083990288            2 
 4613000   0.52270553   -8.9483543    549.21986 0.0099215958 0.0083960677            1 
 4614000   0.50430553   -8.9496112    549.72296 0.0099285321 0.0083931111            2 
 4615000   0.50712924   -8.9455973    548.07284 0.0098965843 0.0083901569            3 
 4616000     0.512529   -8.9442414    549.65523 0.0099230075 0.0083872007            5 
 4617000   0.51201404   -8.9485355     549.8818 0.0099249477 0.0083842456            6 
 4618000   0.51216248   -8.9518543      549.519 0.0099162517 0.0083812936            3 
 4619000   0.49211838   -8.9489438    550.21899 0.0099267336 0.0083783407            4 
 4620000   0.50764415   -8.9634231    549.03928  0.009903306 0.0083753887            4 
 4621000   0.51815822   -8.9756023    549.69198 0.0099129334 0.0083724394            5 
 4622000    0.5011806   -8.9536622    549.55401  0.009908301 0.0083694894            6 
 4623000   0.51911568   -8.9593077    550.23681 0.0099184659 0.0083665448            2 
 4624000   0.50886916   -8.9634048    549.43453 0.0099018622 0.0083636013            7 
 4625000   0.50869883   -8.9630061    549.38055 0.0098987486 0.0083606568            4 
 4626000    0.5182896   -8.9603489    549.99467 0.0099076717 0.0083577144            7 
 4627000    0.5096347   -8.9749556    549.21479 0.0098914847 0.0083547771            4 
 4628000   0.50846259   -8.9542301    550.36785 0.0099101097 0.0083518381            3 
 4629000   0.51582664   -8.9661299    549.56793 0.0098935683 0.0083488991            2 
 4630000   0.51026431   -8.9530674    550.18983 0.0099026247  0.008345966            8 
 4631000   0.50438125    -8.974621    549.10449  0.009880956 0.0083430309            3 
 4632000   0.50632358   -8.9705662    549.29233 0.0098822022 0.0083400954            4 
 4633000   0.49486318   -8.9583507    549.80657 0.0098893189 0.0083371634            4 
 4634000   0.50181229   -8.9531437    549.18692 0.0098760415 0.0083342313            3 
 4635000   0.52223924   -8.9644366    550.11237 0.0098905496 0.0083313028            2 
 4636000    0.5076202   -8.9856876    549.05988 0.0098694973 0.0083283713            3 
 4637000   0.50372051   -8.9641314    549.38714 0.0098732503 0.0083254429            3 
 4638000   0.50838597   -8.9683292    549.56151 0.0098742545 0.0083225169            1 
 4639000   0.49945096   -8.9678616    549.74579 0.0098754363 0.0083195922            3 
 4640000   0.50395445   -8.9727252    548.97868 0.0098595308 0.0083166691            2 
 4641000   0.49689641   -8.9733567    549.12808 0.0098600891 0.0083137469            3 
 4642000   0.50965798   -8.9774463    549.05237 0.0098566057 0.0083108266            3 
 4643000   0.52043015   -8.9615724    549.67422  0.009865644 0.0083079053            5 
 4644000   0.49419823   -8.9616774    548.19606  0.009836995 0.0083049855            1 
 4645000   0.50879391   -8.9779136     549.3765 0.0098560549 0.0083020664            3 
 4646000   0.51000294   -8.9611976    550.27315 0.0098700162 0.0082991512            2 
 4647000   0.49887861   -8.9781961    549.78316 0.0098591055 0.0082962356            3 
 4648000   0.50753979      -8.9508    549.48653 0.0098516661 0.0082933224            3 
 4649000    0.5126239     -8.95531    550.06145 0.0098598524 0.0082904124            3 
 4650000   0.50199003   -8.9669615    549.16101 0.0098415952 0.0082874982            3 
 4651000     0.499527   -8.9687321    549.14878   0.00983926  0.008284588            2 
 4652000   0.50382669   -8.9684356    550.06426 0.0098535444 0.0082816804            3 
 4653000   0.50018747   -8.9626202    549.07752 0.0098337546 0.0082787747            2 
 4654000    0.5175322   -8.9577597     548.8869 0.0098282285 0.0082758716            3 
 4655000   0.51484999   -8.9737631    549.27271 0.0098330238 0.0082729678            3 
 4656000   0.50239734   -8.9641699    548.52976 0.0098176145 0.0082700653            2 
 4657000   0.50624099   -8.9622764    549.08065 0.0098253641 0.0082671638            3 
 4658000   0.50518904   -8.9801668    549.43865 0.0098296595 0.0082642628            4 
 4659000   0.50608859   -8.9755185    548.86203  0.009817236 0.0082613613            2 
 4660000   0.50800855   -8.9560517    548.89597 0.0098157363 0.0082584634            3 
 4661000   0.50467859   -8.9843357    549.45684  0.009823658 0.0082555678            2 
 4662000   0.50474996   -8.9846084    549.23813 0.0098176413 0.0082526724            1 
 4663000    0.5119717   -8.9736052    549.52049  0.009820582 0.0082497799            1 
 4664000   0.51665784   -8.9704005    549.70593 0.0098217897 0.0082468866            5 
 4665000   0.49786011   -8.9762791     549.0942 0.0098087566 0.0082439962            2 
 4666000   0.50480221   -8.9553813    549.20722  0.009808673 0.0082411073            5 
 4667000   0.51266549   -8.9859184     549.2799 0.0098078691  0.008238221            5 
 4668000    0.4953524   -8.9587314    548.90456 0.0097990674 0.0082353368            3 
 4669000   0.51236726   -8.9703695    549.56246 0.0098087109 0.0082324508            2 
 4670000   0.51194791    -8.966255    549.18787 0.0097999263 0.0082295667            2 
 4671000   0.50419187   -8.9714606    548.54927 0.0097864352 0.0082266848            4 
 4672000    0.5124804   -8.9789987    549.90617 0.0098085432 0.0082238032            5 
 4673000   0.51025995   -8.9689319    548.96456 0.0097896527 0.0082209254            3 
 4674000   0.50676954   -8.9751648    549.70508  0.009800761 0.0082180447            5 
 4675000   0.51148271   -8.9741741    549.86677 0.0098015467 0.0082151688            2 
 4676000   0.49121402   -8.9746624    548.96677 0.0097834112 0.0082122939            3 
 4677000   0.49837352   -8.9884293    549.26633 0.0097866568 0.0082094189            2 
 4678000   0.49809869   -8.9719628    549.45204 0.0097878729 0.0082065465            4 
 4679000   0.49966509   -8.9840884    549.20909 0.0097814541 0.0082036756            3 
 4680000   0.49855451    -8.966093    549.71115  0.009788304 0.0082008064            3 
 4681000   0.50012266   -8.9814778    549.36797 0.0097801034 0.0081979351            3 
 4682000   0.50499879   -8.9776835    549.31477 0.0097770676 0.0081950669            3 
 4683000    0.5024072   -8.9789753      548.282 0.0097566019 0.0081922017            2 
 4684000   0.50304943   -8.9882656    549.42447 0.0097748446 0.0081893356            5 
 4685000   0.50725869   -8.9789369    549.19065 0.0097685992 0.0081864735            3 
 4686000   0.50348544   -8.9632293     548.2702 0.0097501459  0.008183613            5 
 4687000   0.50867773   -8.9739758    548.60426 0.0097540051 0.0081807501            4 
 4688000   0.49919578   -8.9829523    549.39383 0.0097659597 0.0081778926            2 
 4689000   0.50688179   -8.9599276    548.63588 0.0097504066 0.0081750327            6 
 4690000   0.49962053   -8.9834133    549.61429 0.0097657123 0.0081721766            4 
 4691000   0.50703649   -8.9709723    548.70633 0.0097475011 0.0081693226            5 
 4692000   0.49906344   -8.9796358    548.67372 0.0097448444 0.0081664689            2 
 4693000    0.4845874   -8.9877077    548.33335 0.0097367241  0.008163615            6 
 4694000   0.50198214   -8.9703106    549.53923 0.0097560579 0.0081607623            1 
 4695000   0.49516509   -8.9986301    549.64999 0.0097559459 0.0081579123            3 
 4696000   0.49243505   -8.9762274    548.86859 0.0097400019 0.0081550638            4 
 4697000   0.50110356     -8.96476    548.86029 0.0097377811 0.0081522147            2 
 4698000   0.48873291   -8.9799128    548.71448 0.0097331219 0.0081493665            1 
 4699000   0.49448112   -8.9888609    549.05456 0.0097370817  0.008146523            5 
 4700000   0.50381848   -8.9773578    548.67223  0.009728231 0.0081436774            2 
 4701000    0.5089541   -8.9592295    549.18613 0.0097352714 0.0081408371            3 
 4702000   0.50550544   -8.9762132    549.23083 0.0097339931 0.0081379961            2 
 4703000   0.50216815   -8.9895423    548.79844 0.0097242618 0.0081351522            3 
 4704000   0.49263344   -8.9816347    549.83914  0.009740631 0.0081323145            5 
 4705000   0.48950746   -8.9807289    548.90683 0.0097220481 0.0081294769            2 
 4706000   0.49493924    -8.971669    549.37376 0.0097282504 0.0081266413            3 
 4707000   0.48713724   -8.9730372      548.782 0.0097157072 0.0081238064            3 
 4708000   0.50729904   -8.9893332    548.27715 0.0097047074  0.008120972            4 
 4709000   0.50714095   -8.9726494    548.50531 0.0097066841 0.0081181418            2 
 4710000   0.49301742    -8.969058    549.25653 0.0097179146  0.008115311            2 
 4711000    0.4987409   -8.9870682     550.1621 0.0097318704 0.0081124842            3 
 4712000   0.49986801   -8.9924435    548.75186 0.0097048645 0.0081096568            6 
 4713000   0.49286488   -8.9742243    549.18313 0.0097104308 0.0081068304            2 
 4714000   0.49700506    -8.997645    548.79289 0.0097014723 0.0081040032            2 
 4715000   0.50336097   -8.9970512    549.31032 0.0097085599 0.0081011795            7 
 4716000   0.50471618   -8.9752291    549.45148 0.0097089956 0.0080983556            5 
 4717000   0.49537946   -8.9828814     549.3329 0.0097048425 0.0080955329            4 
 4718000   0.50074333   -8.9784008    549.23933 0.0097011328  0.008092713            2 
 4719000   0.49032915    -8.972321    548.71178 0.0096897609 0.0080898941            2 
 4720000   0.49321449   -8.9843044    548.94202  0.009691773  0.008087075            4 
 4721000   0.49122337   -8.9994543    548.05626 0.0096740849 0.0080842567            3 
 4722000   0.49610211   -8.9770159    548.73741  0.009684057 0.0080814417            3 
 4723000    0.4969334   -8.9909963    548.91155 0.0096850791 0.0080786283            4 
 4724000   0.49381471   -8.9830227    548.85892 0.0096821006 0.0080758154            5 
 4725000   0.50212767   -8.9765591    548.70047  0.009677257 0.0080730028            3 
 4726000   0.50301088   -8.9818201    548.59399 0.0096733318 0.0080701919            7 
 4727000   0.48743749   -8.9813691    548.25249 0.0096652649 0.0080673819            4 
 4728000   0.49084152   -8.9654339    548.79293 0.0096727463 0.0080645708            2 
 4729000   0.49108692   -8.9813544    548.06923  0.009657948 0.0080617601            2 
 4730000   0.50932695   -8.9969734    548.82718 0.0096692597 0.0080589541            4 
 4731000   0.50084327   -8.9982785    548.22854 0.0096566713 0.0080561455            2 
 4732000   0.48657343   -8.9747222    548.69949 0.0096629242 0.0080533386            4 
 4733000   0.49231159    -8.984566    549.68744 0.0096782774 0.0080505343            1 
 4734000   0.50041389   -8.9840232    548.97344 0.0096636642 0.0080477305            3 
 4735000   0.49538417   -8.9850786    549.06597 0.0096632519 0.0080449292            7 
 4736000   0.48586457    -8.976027    548.39221 0.0096493562 0.0080421279            4 
 4737000   0.51036363   -8.9825528     548.3941 0.0096473524 0.0080393291            5 
 4738000    0.5023451   -8.9837818     548.8673  0.009653639 0.0080365323            2 
 4739000   0.49331934   -8.9858929    548.56275 0.0096462466 0.0080337362            2 
 4740000   0.49971035   -8.9825613    548.84063 0.0096490968 0.0080309382            5 
 4741000   0.49068442   -8.9733142    548.43465 0.0096399257 0.0080281446            2 
 4742000   0.48512435   -8.9991213    548.45163 0.0096381912 0.0080253504            5 
 4743000   0.49529073   -8.9695849    547.71998 0.0096233041 0.0080225583            4 
 4744000   0.49147715   -8.9856399    548.67619 0.0096380724 0.0080197675            6 
 4745000   0.49375103   -8.9922282     548.6319 0.0096352635  0.008016976            3 
 4746000   0.49238691   -8.9780908    547.96584 0.0096215382 0.0080141849            3 
 4747000   0.47601539   -8.9940584     548.6947 0.0096323063 0.0080113985            4 
 4748000   0.48874847   -8.9980782    548.56179 0.0096279449 0.0080086106            3 
 4749000   0.48471935   -9.0012475    548.24046  0.009620279 0.0080058239            3 
 4750000   0.49509001   -8.9998426    548.87616 0.0096294064  0.008003038            5 
 4751000   0.48354932   -8.9682413      549.062 0.0096306391 0.0080002551            3 
 4752000   0.49261861   -8.9840462    548.78493 0.0096237537 0.0079974732            2 
 4753000   0.49416075   -8.9996329    547.47387 0.0095987424 0.0079946932            3 
 4754000   0.49317423   -8.9949473    549.03606 0.0096241071 0.0079919127            5 
 4755000   0.48761514   -8.9984749    548.79839 0.0096179178 0.0079891305            3 
 4756000    0.4963431   -8.9815183    548.19945 0.0096054011 0.0079863528            3 
 4757000    0.4923413   -8.9925761    548.97547 0.0096169762 0.0079835767            1 
 4758000   0.49952777   -9.0078266    547.90804 0.0095962596 0.0079808001            5 
 4759000   0.49705377   -8.9934798    548.34575 0.0096019079  0.007978027            2 
 4760000   0.48422247   -9.0061308    548.58741 0.0096041213 0.0079752549            7 
 4761000   0.50887234   -8.9803057    548.78081 0.0096054892 0.0079724841            3 
 4762000   0.48931482   -8.9987764    548.59595 0.0096002371 0.0079697161            2 
 4763000   0.50130318   -9.0000264    548.70169 0.0096000716 0.0079669503            3 
 4764000   0.49028702   -8.9920647    548.50099 0.0095945458 0.0079641832            2 
 4765000   0.49475597   -8.9821516    549.14094 0.0096037241 0.0079614169            3 
 4766000   0.49104954   -9.0106186    548.74345 0.0095947589 0.0079586532            3 
 4767000   0.50025373   -8.9909564    548.27523  0.009584561 0.0079558923            4 
 4768000   0.49104453   -9.0071723    549.44903  0.009603066 0.0079531308            3 
 4769000   0.48967453   -9.0015832    548.78122 0.0095893832 0.0079503684            5 
 4770000   0.48562351   -8.9959869    548.83815 0.0095883675 0.0079476103            4 
 4771000   0.48413206   -8.9978221    547.86126 0.0095692948 0.0079448508            3 
 4772000   0.47744519    -9.000435    548.29646 0.0095748893  0.007942092            4 
 4773000   0.47431406   -9.0033022    548.27623   0.00957253 0.0079393387            2 
 4774000   0.48235263   -8.9969135    548.31695 0.0095712357 0.0079365833            5 
 4775000   0.48498486   -8.9872293    549.64949 0.0095924868 0.0079338314            2 
 4776000   0.49100653   -8.9921939    548.34687 0.0095677497 0.0079310805            3 
 4777000   0.48178819   -9.0051483    547.99219 0.0095595595 0.0079283295            5 
 4778000   0.48536964    -8.995705    548.28146  0.009562604 0.0079255794            3 
 4779000   0.49087609   -9.0051731    548.69125 0.0095677487 0.0079228327            2 
 4780000   0.49436129   -8.9968736    548.34427 0.0095596978 0.0079200851            2 
 4781000   0.48725407   -8.9938803    548.71003 0.0095640736 0.0079173381            4 
 4782000   0.49325489   -8.9842889    548.76426 0.0095630186 0.0079145947            2 
 4783000   0.49208924   -8.9983077    548.93953 0.0095640729  0.007911851            3 
 4784000   0.48999878   -9.0122998    548.72636 0.0095583605 0.0079091097            5 
 4785000   0.48582927   -9.0073104    547.84804 0.0095410666 0.0079063692            3 
 4786000   0.48959549   -8.9946784    548.82339 0.0095560557 0.0079036305            6 
 4787000   0.49134349   -9.0054501     548.7149 0.0095521708 0.0079008908            2 
 4788000   0.49139718   -8.9834651    548.99613 0.0095550705 0.0078981528            3 
 4789000   0.48672516   -8.9903898    548.51559 0.0095447134 0.0078954174            2 
 4790000     0.483208   -8.9959499    548.33784 0.0095396284 0.0078926832            4 
 4791000   0.48336558   -8.9922292    548.38141  0.009538395 0.0078899503            1 
 4792000   0.48677207   -8.9948152    547.86128 0.0095273595 0.0078872198            5 
 4793000   0.48839969   -9.0018553    548.67854  0.009539581 0.0078844887            2 
 4794000   0.48911788   -9.0154555    548.37942 0.0095323916 0.0078817582            2 
 4795000   0.47375803   -9.0027721    547.98231 0.0095235021 0.0078790305            4 
 4796000   0.48839838   -8.9998551    548.49039 0.0095303446 0.0078763036            2 
 4797000   0.47848249    -8.994664    548.75966 0.0095330355 0.0078735773            3 
 4798000   0.48757964   -8.9948066    548.98454 0.0095349545 0.0078708541            2 
 4799000   0.47675554   -8.9973369    549.63417 0.0095442482 0.0078681337            2 
 4800000   0.47903852   -9.0081296    548.02283 0.0095142852 0.0078654099            4 
 4801000   0.48795881   -9.0032449     547.6919 0.0095065595 0.0078626886            6 
 4802000   0.47664687   -9.0082329    547.95911 0.0095092168 0.0078599696            2 
 4803000   0.48500096   -9.0137111    547.49295  0.009499149 0.0078572525            3 
 4804000   0.48927839   -9.0228203    548.24023 0.0095101344 0.0078545349            1 
 4805000   0.47643941   -9.0072868    548.10218  0.009505761 0.0078518186            3 
 4806000    0.4751141   -9.0085827    548.19277 0.0095053538 0.0078491057            2 
 4807000   0.47919084   -9.0280307    548.60812 0.0095105769 0.0078463933            3 
 4808000   0.47768154   -9.0049843    548.13445 0.0095003891 0.0078436807            1 
 4809000   0.48630522   -9.0098604    548.53891 0.0095054223 0.0078409699            2 
 4810000   0.49152882   -9.0050868      548.031 0.0094946465 0.0078382613            5 
 4811000   0.48027272     -8.99563    548.01655 0.0094924228  0.007835554            8 
 4812000    0.4775285   -9.0122838    548.61016 0.0095007301 0.0078328474            3 
 4813000   0.48210422   -9.0111006    547.89064 0.0094862982 0.0078301418            4 
 4814000   0.48077705   -8.9877378     547.1208 0.0094710012 0.0078274367            4 
 4815000   0.49201981   -8.9890031    548.27429 0.0094889978 0.0078247333            4 
 4816000   0.47329245   -9.0258373    548.35863 0.0094884869  0.007822032            3 
 4817000   0.47015276   -9.0111394    548.18715 0.0094835505 0.0078193305            1 
 4818000   0.47627698    -8.995348     548.7959 0.0094921112 0.0078166316            6 
 4819000   0.48439569   -8.9992642    547.36629 0.0094654197 0.0078139336            3 
 4820000   0.49229769   -9.0006424    548.20656 0.0094779834 0.0078112376            2 
 4821000   0.47928478   -9.0043938    549.31087 0.0094951059  0.007808543            2 
 4822000   0.49474516   -9.0021258    548.03364 0.0094710638 0.0078058478            6 
 4823000    0.4819687   -8.9970969    548.13005 0.0094707659 0.0078031532           10 
 4824000   0.48245853   -9.0063654    547.84891 0.0094639461 0.0078004618            5 
 4825000   0.48393654   -8.9972012    547.97462 0.0094641558 0.0077977725            2 
 4826000   0.48833324   -8.9947196    548.20388 0.0094661534 0.0077950842            1 
 4827000   0.48120452    -9.003024    548.53444 0.0094698992  0.007792397            3 
 4828000   0.49100826   -8.9993386    547.81207 0.0094554694 0.0077897114            3 
 4829000    0.4775163   -9.0023009    548.00718 0.0094568782 0.0077870257            3 
 4830000   0.47113398   -9.0034566    547.95435 0.0094540088 0.0077843408            2 
 4831000   0.47409111   -9.0283235    548.65582 0.0094641521 0.0077816558            3 
 4832000   0.47409372   -8.9881144    548.50283 0.0094595549  0.007778973            1 
 4833000   0.47334577   -9.0096767    547.42223 0.0094389653 0.0077762919            2 
 4834000   0.48323349   -9.0017769    548.78449 0.0094604967 0.0077736127            3 
 4835000   0.47108407   -9.0121786    547.98896 0.0094448287 0.0077709361            2 
 4836000   0.47433387   -9.0007939    547.58697 0.0094359486 0.0077682594            5 
 4837000   0.48097519   -9.0067511    547.75692 0.0094369257 0.0077655841            3 
 4838000   0.47204611   -9.0086402    548.54558 0.0094485596 0.0077629092            4 
 4839000   0.47739213   -9.0128625    547.60859  0.009430471 0.0077602359            4 
 4840000   0.47244208    -9.022023    547.73789 0.0094307488 0.0077575627            3 
 4841000    0.4818788   -9.0198969    546.97505 0.0094156692 0.0077548899            5 
 4842000   0.47290519   -9.0163116    547.68056 0.0094258666  0.007752217            2 
 4843000   0.48089335     -9.01058    547.42917 0.0094195948 0.0077495462            3 
 4844000   0.48042039   -9.0085089     548.4694 0.0094355457 0.0077468795            1 
 4845000   0.48080037   -9.0275588    548.85346 0.0094402039 0.0077442114            4 
 4846000   0.47880109    -8.999653    548.19203 0.0094268818 0.0077415446            4 
 4847000   0.48694944     -8.99761    548.38366 0.0094282316 0.0077388806            3 
 4848000   0.47642322   -9.0184465    547.98543 0.0094194415 0.0077362171            4 
 4849000   0.48610876   -9.0239394    547.99674 0.0094176934 0.0077335543            2 
 4850000     0.482468   -9.0257207    547.66799 0.0094101028 0.0077308917            4 
 4851000    0.4696364   -9.0146915    548.05748  0.009414854 0.0077282329            3 
 4852000   0.47703971   -9.0031302    548.08021 0.0094133039 0.0077255742            1 
 4853000   0.48663151     -9.01411    548.34492 0.0094159097 0.0077229175            5 
 4854000   0.48116325   -9.0154727     548.3464 0.0094139953  0.007720261            2 
 4855000   0.46895556   -9.0095985    548.04681  0.009406914 0.0077176056            5 
 4856000   0.48291514   -9.0042357    547.33118 0.0093926959 0.0077149489            4 
 4857000   0.47513933   -9.0133279    547.52774 0.0093941345 0.0077122945            5 
 4858000   0.48403594   -9.0091737    548.11203 0.0094022236 0.0077096423            3 
 4859000   0.46522721   -9.0234189    547.91123 0.0093968449 0.0077069896            5 
 4860000   0.46956628    -9.014694     547.1586 0.0093820061 0.0077043381            2 
 4861000   0.47043535   -8.9935351    548.67736 0.0094061125 0.0077016885            2 
 4862000   0.47456477   -9.0279938    549.32464 0.0094152722 0.0076990387            4 
 4863000   0.48229707    -9.024936    547.39369 0.0093802469 0.0076963898            4 
 4864000   0.46854511   -9.0079001    547.43488 0.0093790242 0.0076937431            4 
 4865000   0.47692602   -9.0238186    547.93409 0.0093856473 0.0076910993            3 
 4866000   0.47242151   -9.0180051    548.48946 0.0093932295 0.0076884571            1 
 4867000   0.48364469    -9.015266    548.17864 0.0093859776 0.0076858141            4 
 4868000   0.47958249    -9.019259    547.05516 0.0093648172 0.0076831743            3 
 4869000   0.47359243   -9.0162167    548.42628 0.0093863607 0.0076805338            2 
 4870000   0.46739542   -9.0243973    547.89035 0.0093752626 0.0076778944            2 
 4871000   0.46408298   -9.0167962    547.55133 0.0093675379 0.0076752561            6 
 4872000   0.47185844   -9.0270564    547.20348 0.0093596654 0.0076726188            2 
 4873000   0.47647906   -9.0153089    547.33597 0.0093600104 0.0076699817            4 
 4874000   0.46971365   -9.0247825     547.2519 0.0093566527 0.0076673469            2 
 4875000   0.47086358   -9.0235437    547.48681  0.009358749 0.0076647124            2 
 4876000   0.47245018   -9.0250994    547.85966 0.0093632017  0.007662082            2 
 4877000   0.48051498   -9.0189701    547.49497 0.0093550503 0.0076594505            6 
 4878000    0.4711071   -9.0249687    547.43909  0.009352178 0.0076568215            2 
 4879000    0.4820398   -9.0166892    547.84669 0.0093572229 0.0076541929            5 
 4880000    0.4717107   -9.0186685    547.73353 0.0093533731 0.0076515672            2 
 4881000   0.47288557   -9.0248746    548.33219 0.0093616778 0.0076489393            4 
 4882000   0.46594691   -9.0237716    547.00615 0.0093371253 0.0076463149            3 
 4883000   0.47910418   -9.0310332    548.09693 0.0093538285 0.0076436908            6 
 4884000    0.4620437   -9.0076596    547.77432 0.0093464087  0.007641068            3 
 4885000    0.4767378   -9.0262646    547.35735 0.0093373823 0.0076384452            2 
 4886000   0.45755841   -9.0169605    547.46429 0.0093372952 0.0076358264            4 
 4887000   0.46675886   -9.0262249    547.39458 0.0093341958  0.007633207            1 
 4888000   0.45977609   -9.0249584    547.58949 0.0093356092   0.00763059            3 
 4889000   0.47235231   -9.0326139    548.27028 0.0093453038 0.0076279749            3 
 4890000   0.46365855   -9.0175313    548.01906 0.0093391114 0.0076253622            7 
 4891000   0.46705197    -9.020189    546.81683 0.0093167183 0.0076227499            2 
 4892000   0.46796846   -9.0221385    548.26832 0.0093395395  0.007620137            3 
 4893000    0.4555421   -9.0233353    547.63165 0.0093267874  0.007617526            2 
 4894000   0.46920227   -9.0274912    547.45912 0.0093219438 0.0076149151            4 
 4895000   0.45031932   -9.0327995    547.94797 0.0093283617  0.007612305            3 
 4896000   0.46785654   -9.0336577    547.87051 0.0093251381 0.0076096956            3 
 4897000   0.46056164   -9.0265136    547.13303  0.009310684 0.0076070878            4 
 4898000   0.47480657   -9.0302016    548.00811 0.0093236714 0.0076044816            3 
 4899000   0.45410861   -9.0235454    549.17032 0.0093415377 0.0076018751            4 
 4900000   0.46874885   -9.0252619    547.10813   0.00930456 0.0075992714            5 
 4901000   0.46122358   -9.0263986    547.25003 0.0093050743 0.0075966684            2 
 4902000   0.46644304   -9.0372489    548.13357 0.0093181961 0.0075940655            3 
 4903000   0.46501097   -9.0177436    548.45515 0.0093217613 0.0075914649            2 
 4904000   0.46927964   -9.0262857    548.14039 0.0093145117 0.0075888659            2 
 4905000   0.46264485   -9.0187858    547.51511 0.0093019897 0.0075862672            4 
 4906000   0.46589544   -9.0291651    547.36917 0.0092976146 0.0075836711            2 
 4907000   0.46825503   -9.0263081     548.4889 0.0093147357 0.0075810744            4 
 4908000   0.46601043   -9.0250412    547.69818 0.0092994122  0.007578478            3 
 4909000   0.45843596   -9.0391792    547.65926 0.0092968572 0.0075758848            2 
 4910000   0.47183276   -9.0324359    547.68967 0.0092954799  0.007573294            6 
 4911000   0.47691658   -9.0356677    547.75917 0.0092947664 0.0075707043            2 
 4912000   0.46788852   -9.0356477    548.18982 0.0093001802 0.0075681136            5 
 4913000   0.46606653   -9.0156221    547.73176 0.0092905177 0.0075655259            4 
 4914000   0.46139271   -9.0349812    547.77802 0.0092894115 0.0075629379            1 
 4915000   0.46768223   -9.0383957    548.13897 0.0092936414 0.0075603498            2 
 4916000   0.45771499   -9.0226148    547.42215 0.0092795999 0.0075577625            5 
 4917000   0.45701914   -9.0435471    547.52771 0.0092795016 0.0075551777            5 
 4918000   0.46732358   -9.0237278    547.42075 0.0092758024 0.0075525932            3 
 4919000    0.4662028   -9.0401498    547.03039 0.0092673034 0.0075500104            5 
 4920000   0.46988249   -9.0226512       547.65 0.0092759146 0.0075474283            5 
 4921000      0.46645   -9.0245491    546.74518 0.0092587073 0.0075448483            3 
 4922000   0.46462236   -9.0353369    547.16908 0.0092640031 0.0075422665            4 
 4923000   0.46725143   -9.0424051    546.59811 0.0092524564 0.0075396878            3 
 4924000   0.46689911   -9.0267131    548.22483 0.0092781077 0.0075371119            6 
 4925000   0.45305487   -9.0305915    547.57834 0.0092652849 0.0075345343            5 
 4926000   0.47489306   -9.0294875    547.80847 0.0092672971 0.0075319586            3 
 4927000   0.46240398   -9.0297024    547.81054 0.0092654512 0.0075293852            5 
 4928000   0.46097052   -9.0234819    547.34115 0.0092556336 0.0075268117            3 
 4929000   0.46299927   -9.0361327    547.67197 0.0092593489  0.007524242            7 
 4930000   0.46352413   -9.0200713    547.86721  0.009260771 0.0075216723            1 
 4931000   0.46305209   -9.0520674    547.67406 0.0092556286 0.0075191027            3 
 4932000   0.45999959   -9.0243784    547.30164 0.0092474594 0.0075165352            6 
 4933000   0.46146828   -9.0297513    547.40325 0.0092473014 0.0075139685            6 
 4934000   0.46326873   -9.0429958    547.27299 0.0092432271 0.0075114042            7 
 4935000   0.47202784   -9.0336551    547.66819 0.0092480275  0.007508841            2 
 4936000   0.45276029   -9.0351805    547.82552 0.0092488102 0.0075062785            3 
 4937000   0.45911468   -9.0282792    547.69322 0.0092447036 0.0075037176            2 
 4938000   0.45350696   -9.0412465     547.7841 0.0092443652 0.0075011577            9 
 4939000   0.46906019   -9.0487885    546.97367 0.0092288194  0.007498599            6 
 4940000    0.4632925     -9.03046    546.55604 0.0092199063 0.0074960405            4 
 4941000   0.46082179   -9.0438532    547.48361 0.0092336843  0.007493482            3 
 4942000   0.46392178   -9.0382449    547.06431 0.0092247455 0.0074909259            2 
 4943000   0.47375808   -9.0524446    547.53575 0.0092308272 0.0074883701            3 
 4944000   0.45591668   -9.0294997     547.9616  0.009236138 0.0074858177            4 
 4945000    0.4661567   -9.0373964    547.01805 0.0092183695 0.0074832637            4 
 4946000   0.46442857   -9.0402628    546.27266 0.0092039469 0.0074807131            7 
 4947000   0.46339978   -9.0208619    547.62096 0.0092247989 0.0074781613            2 
 4948000   0.47147751   -9.0441689    546.75628 0.0092083717 0.0074756122            2 
 4949000   0.47074848   -9.0308872     547.1558 0.0092132383  0.007473063            7 
 4950000   0.46708972   -9.0462276    547.41273 0.0092157025 0.0074705159            4 
 4951000   0.45676279   -9.0409963    548.30245 0.0092288165 0.0074679704            6 
 4952000   0.46550366   -9.0427997    547.53831 0.0092140939 0.0074654287            4 
 4953000     0.476878   -9.0502759    547.15744 0.0092058254 0.0074628848            6 
 4954000   0.46231953   -9.0324618    547.02816 0.0092017926 0.0074603419            4 
 4955000   0.46284283   -9.0436403    547.88638  0.009214369 0.0074577995            4 
 4956000   0.45694682   -9.0462807    547.37203 0.0092038612   0.00745526            1 
 4957000   0.45430268   -9.0368876    547.75044  0.009208366 0.0074527209            4 
 4958000   0.45430271   -9.0349116    547.34234 0.0091996493 0.0074501816            2 
 4959000   0.45057341   -9.0626531    547.72359 0.0092042009 0.0074476445            9 
 4960000   0.46787554   -9.0319787    547.85228 0.0092045074 0.0074451061            4 
 4961000   0.46380095   -9.0441777    546.70877 0.0091834437 0.0074425698            4 
 4962000   0.45754529   -9.0457946    547.65137 0.0091974232 0.0074400341            6 
 4963000   0.44681654   -9.0527872    546.48129 0.0091759234 0.0074375024            3 
 4964000   0.45692421   -9.0569043    546.83472 0.0091800081 0.0074349699            5 
 4965000   0.45092238   -9.0329804    547.29328 0.0091858556 0.0074324401            5 
 4966000   0.45104456   -9.0582612     547.5494 0.0091883038 0.0074299084            6 
 4967000   0.45273404   -9.0531864    546.80408 0.0091739495 0.0074273803            4 
 4968000   0.45416002   -9.0455938     547.2449  0.009179497 0.0074248536            2 
 4969000   0.45433676   -9.0322662    547.19699 0.0091768463  0.007422329            6 
 4970000   0.45426976   -9.0359993    546.42811 0.0091621078 0.0074198025            3 
 4971000   0.46459383   -9.0375737    548.63788 0.0091973091 0.0074172789            7 
 4972000   0.45643268   -9.0537974    547.63711 0.0091786858 0.0074147564            6 
 4973000   0.45456623   -9.0445721    548.25537 0.0091872003 0.0074122345            4 
 4974000    0.4566411   -9.0422775    548.27964 0.0091857599  0.007409714            4 
 4975000   0.45657342     -9.04638    547.53837  0.009171497 0.0074071945            2 
 4976000   0.44657941   -9.0566381    547.20509 0.0091640724 0.0074046764            4 
 4977000   0.45295222   -9.0427441    546.46353 0.0091498146  0.007402159            3 
 4978000   0.45353321   -9.0396027    547.51988 0.0091656602  0.007399642            5 
 4979000   0.45145943   -9.0516844    547.71866 0.0091671463 0.0073971244            8 
 4980000   0.45781642    -9.033706    546.42543 0.0091436651 0.0073946117            7 
 4981000   0.44081924   -9.0590143    546.60831 0.0091448891 0.0073920975            4 
 4982000    0.4569754   -9.0549031    546.56604 0.0091423464 0.0073895831            4 
 4983000   0.45312356   -9.0519084    547.19114 0.0091509657 0.0073870702            4 
 4984000   0.45096341   -9.0472848    547.29536 0.0091508721 0.0073845597            5 
 4985000    0.4547189   -9.0440002    546.58457 0.0091371543 0.0073820515            3 
 4986000   0.45406359   -9.0385719    546.30181 0.0091305958  0.007379543            6 
 4987000   0.44541733   -9.0199299    547.54562 0.0091495491 0.0073770341            3 
 4988000   0.44937049   -9.0388852     547.5253 0.0091473753 0.0073745293            3 
 4989000   0.45226604   -9.0380653    546.98477 0.0091365132 0.0073720228            3 
 4990000   0.45490713   -9.0486106       547.68 0.0091462926 0.0073695178            6 
 4991000   0.45480251   -9.0550789    546.78504 0.0091295171 0.0073670149            5 
 4992000   0.45369655    -9.040553    546.33077 0.0091201049 0.0073645133            4 
 4993000   0.44234768   -9.0587482    547.05886 0.0091304303 0.0073620121            4 
 4994000   0.44905673   -9.0512701    546.80501  0.009124366 0.0073595106            2 
 4995000   0.44424142   -9.0471266     546.8181 0.0091227578 0.0073570126            3 
 4996000   0.45221836    -9.044816     547.3066 0.0091290799 0.0073545147            3 
 4997000   0.45264786   -9.0266737    546.97598 0.0091217394 0.0073520191            4 
 4998000   0.45801789   -9.0553759    546.50355 0.0091120373 0.0073495242            3 
 4999000   0.45231791   -9.0562146    547.13274 0.0091207031 0.0073470334            1 
 5000000   0.44703301   -9.0434206    546.69605 0.0091116009 0.0073445424            6 
 5001000   0.45605355   -9.0481238    547.70642  0.009126615 0.0073420514            2 
 5002000    0.4593659   -9.0492345    546.55493 0.0091056066 0.0073395602            6 
 5003000   0.45090473   -9.0648036    546.79086 0.0091077163 0.0073370698            9 
 5004000   0.45000882   -9.0349328    547.58035 0.0091190439 0.0073345819            6 
 5005000   0.44830995   -9.0477984    546.09208 0.0090924422 0.0073320949            5 
 5006000   0.44844472   -9.0492117    547.06527 0.0091068262 0.0073296086            4 
 5007000   0.44907698   -9.0396931    546.81616 0.0091008614  0.007327126            4 
 5008000   0.44724076   -9.0676575    546.78159  0.009098469 0.0073246437            4 
 5009000    0.4445618   -9.0489278    547.37326 0.0091064959 0.0073221619            2 
 5010000   0.44180209   -9.0584223    546.73661 0.0090940887 0.0073196794            3 
 5011000   0.45898714   -9.0414824    546.60582 0.0090900988 0.0073171994            5 
 5012000   0.45157101   -9.0413189    547.31259 0.0091000365   0.00731472            5 
Loop time of 12442.6 on 48 procs for 5000000 steps with 4000 atoms

Performance: 69438.682 tau/day, 401.844 timesteps/s
99.4% CPU use with 48 MPI tasks x no OpenMP threads

MPI task timing breakdown:
Section |  min time  |  avg time  |  max time  |%varavg| %total
---------------------------------------------------------------
Pair    | 832.01     | 890.58     | 940.62     |  85.7 |  7.16
Neigh   | 81.877     | 85.556     | 89.172     |  19.1 |  0.69
Comm    | 791.87     | 847.34     | 911.16     |  97.3 |  6.81
Output  | 13.53      | 13.535     | 13.632     |   0.4 |  0.11
Modify  | 10462      | 10492      | 10512      |  11.2 | 84.32
Other   |            | 113.9      |            |       |  0.92

Nlocal:        83.3333 ave          90 max          75 min
Histogram: 1 0 5 2 12 5 10 5 6 2
Nghost:        2207.67 ave        2222 max        2186 min
Histogram: 2 2 2 3 7 5 7 8 7 5
Neighs:        14704.4 ave       16444 max       12639 min
Histogram: 2 0 2 4 11 12 10 4 1 2
FullNghs:      29410.5 ave       31691 max       26585 min
Histogram: 1 2 4 4 7 8 8 7 5 2

Total # of neighbors = 1411702
Ave neighs/atom = 352.92550
Neighbor list builds = 266846
Dangerous builds = 1

#clear
#
#next RN
#
#jump SELF
Total wall time: 3:27:26
