
units lj                  # Use reduced LJ style units
atom_style atomic         # Uncharged point particles
atom_modify map hash      # Needed for indexing of clusters etc
                          # Used to be able to find where atoms are in relation to each other.

lattice fcc 1.0 spacing 1 1 1
Lattice spacing in x,y,z = 1.5874011 1.5874011 1.5874011
region box block 0 10 0 10 0 10 units lattice
create_box 2 box
Created orthogonal box = (0.0000000 0.0000000 0.0000000) to (15.874011 15.874011 15.874011)
  3 by 4 by 4 MPI processor grid
create_atoms 1 box
Created 4000 atoms
  using lattice units in orthogonal box = (0.0000000 0.0000000 0.0000000) to (15.874011 15.874011 15.874011)
  create_atoms CPU = 0.002 seconds
set type 1 type/fraction 2 0.13 78393
Setting atom values ...
  541 settings made for type/fraction
mass 1 1.0
mass 2 1.0
pair_style lj/cut  3.5
pair_modify tail  yes
pair_coeff 1  1  1.0  1.0   # Intearaction between 1 and 1 set with epsilon = 1 and sigma = 1
pair_coeff 1  2  1.5  0.8
pair_coeff 2  2  0.5  0.88

write_data data.0
System init for write_data ...
Neighbor list info ...
  update every 1 steps, delay 10 steps, check yes
  max neighbors/atom: 2000, page size: 100000
  master list distance cutoff = 3.8
  ghost atom cutoff = 3.8
  binsize = 1.9, bins = 9 9 9
  1 neighbor lists, perpetual/occasional/extra = 1 0 0
  (1) pair lj/cut, perpetual
      attributes: half, newton on
      pair build: half/bin/atomonly/newton
      stencil: half/bin/3d
      bin: standard
WARNING: Not all mixed pair coeffs generated from mixing. Use write_data with 'pair ij' option to store all pair coeffs. (../write_data.cpp:312)


#############################
#   M E L T   S Y S T E M   #
#############################

velocity all create 2.4 3143649 mom yes dist gaussian # Assign velocities
                                                    # Temperature 2.4, random number seed, zero linear momentum
                                                                                # Gaussian distribution

timestep 0.002   # simulation timestep
thermo 1000       # output thermodynamic data every 1000 steps bf 100

# Define a fix  in this case with index 1 applied to all
# particles in the simulation. This fix is for simulations
# in the anisotropic NPT ensemble. Note that we use the MTK
# correction.
fix 1 all npt temp 2.4 2.4 0.1 iso 5.68 5.68 0.5 mtk yes tchain 5 pchain 5 # Use NPT ensemble
                                                                         # Set temperature and pressure and damping
                                                                         # Numbers of thermostats in chain and in barostat
run 10000          # run for 10000 steps
Per MPI rank memory allocation (min/avg/max) = 3.642 | 3.644 | 3.648 Mbytes
Step Temp E_pair E_mol TotEng Press Volume 
       0          2.4     -7.50335            0     -3.90425   -3.2182506         4000 
    1000    2.3800387   -4.6428895            0    -1.073724    5.6983642    4742.8201 
    2000    2.3991896   -4.6774891            0   -1.0796045    5.9573465    4698.3797 
    3000    2.3991567   -4.6493881            0   -1.0515527    5.8240672    4734.9879 
    4000    2.3982939   -4.6846944            0   -1.0881529    5.6900935    4724.7924 
    5000    2.4283466   -4.6641233            0   -1.0225141    5.7442689    4734.5362 
    6000    2.3836419   -4.7339107            0   -1.1593417    5.6273977    4699.5944 
    7000     2.420722   -4.6599205            0   -1.0297453    5.6978662    4738.0131 
    8000     2.385676    -4.659009            0   -1.0813897    5.5221198     4757.936 
    9000    2.4578757   -4.7296738            0   -1.0437819    5.3309002    4748.5004 
   10000    2.4157753   -4.7148545            0   -1.0920974    5.5917497    4721.6421 
Loop time of 2.24775 on 48 procs for 10000 steps with 4000 atoms

Performance: 768768.022 tau/day, 4448.889 timesteps/s
99.6% CPU use with 48 MPI tasks x no OpenMP threads

MPI task timing breakdown:
Section |  min time  |  avg time  |  max time  |%varavg| %total
---------------------------------------------------------------
Pair    | 0.91033    | 0.98931    | 1.105      |   4.0 | 44.01
Neigh   | 0.19148    | 0.2017     | 0.22654    |   1.6 |  8.97
Comm    | 0.67739    | 0.78668    | 0.91392    |   5.9 | 35.00
Output  | 0.00024765 | 0.00025241 | 0.00031412 |   0.0 |  0.01
Modify  | 0.18751    | 0.2552     | 0.31184    |   7.5 | 11.35
Other   |            | 0.0146     |            |       |  0.65

Nlocal:        83.3333 ave          91 max          71 min
Histogram: 1 0 1 3 3 12 8 10 7 3
Nghost:        1472.04 ave        1498 max        1447 min
Histogram: 4 3 6 7 3 4 9 7 2 3
Neighs:        8075.08 ave        9144 max        6521 min
Histogram: 1 0 1 4 7 14 5 10 4 2

Total # of neighbors = 387604
Ave neighs/atom = 96.901000
Neighbor list builds = 907
Dangerous builds = 223

# Equilibrate just above the melting temperature to avoid step fn in T

fix 1 all npt temp 1.25 1.25 0.1 iso 5.68 5.68 0.5 mtk yes tchain 5 pchain 5
run 2000
Per MPI rank memory allocation (min/avg/max) = 3.642 | 3.644 | 3.648 Mbytes
Step Temp E_pair E_mol TotEng Press Volume 
   10000    2.4157753   -4.7148545            0   -1.0920974    5.5917497    4721.6421 
   11000    1.2425932   -6.3212095            0   -4.4577857    5.4858793    3892.7049 
   12000    1.2347454   -6.2945044            0   -4.4428493    5.6125616    3888.6391 
Loop time of 0.491934 on 48 procs for 2000 steps with 4000 atoms

Performance: 702533.687 tau/day, 4065.588 timesteps/s
99.6% CPU use with 48 MPI tasks x no OpenMP threads

MPI task timing breakdown:
Section |  min time  |  avg time  |  max time  |%varavg| %total
---------------------------------------------------------------
Pair    | 0.21747    | 0.23307    | 0.26555    |   2.0 | 47.38
Neigh   | 0.031918   | 0.033957   | 0.038541   |   0.7 |  6.90
Comm    | 0.14304    | 0.16991    | 0.19078    |   2.6 | 34.54
Output  | 5.1098e-05 | 5.2803e-05 | 6.5724e-05 |   0.0 |  0.01
Modify  | 0.040144   | 0.050337   | 0.059952   |   2.4 | 10.23
Other   |            | 0.004606   |            |       |  0.94

Nlocal:        83.3333 ave          89 max          74 min
Histogram: 1 0 3 2 9 5 11 4 5 8
Nghost:        1671.50 ave        1697 max        1647 min
Histogram: 1 2 8 9 7 5 4 4 5 3
Neighs:        9810.62 ave       10732 max        8659 min
Histogram: 2 1 5 3 11 5 7 7 3 4

Total # of neighbors = 470910
Ave neighs/atom = 117.72750
Neighbor list builds = 142
Dangerous builds = 9

#############################
# L I N E A R  Q U E N C H  #
#############################

# Define solid atoms. This closely follows ten Wolde  Ruiz-Montero and Frenkel  Faraday Discuss  1996  104  93-110
# Compute components of the per-atom q6 vector
compute q6 all orientorder/atom degrees 1 6 components 6 nnn NULL cutoff 1.3 # compute the Q6 parameter.
                                                                             # Use all neighbours within 1.3 unit cell.

# get number of connections
compute coord_number all coord/atom orientorder q6 0.5

# An atom is solid if it has 8 or more connections (of a possible 14)
variable is_solid atom c_coord_number>=8
group solid dynamic all var is_solid    # Must be dynamic to update
dynamic group solid defined

# do clustering
compute cluster solid cluster/atom 1.3 # Create a cluster where all atoms within are solid and max 1.3 units from another member

# define chunks one chunk per cluster
compute clus_chunks solid chunk/atom c_cluster nchunk every compress yes  # Says which atoms are in which chunk

# count the size of each chunk
compute size_chunks solid property/chunk clus_chunks count


# Find the maximum entry in the vector of chunk sizes
variable max_n equal max(c_size_chunks)


# Thermo style which includes this variable
# thermo_style custom step temp pe vol v_max_n

thermo ${N}  # Print the thermo information every 100 steps
thermo 1000  

# Reset the npt fix at a lower temperature (below freezing)
fix 1  all npt temp  ${temp} ${temp}  0.1  iso  5.68  5.68  0.5  mtk yes tchain  5  pchain  5
fix 1  all npt temp  0.45 ${temp}  0.1  iso  5.68  5.68  0.5  mtk yes tchain  5  pchain  5
fix 1  all npt temp  0.45 0.45  0.1  iso  5.68  5.68  0.5  mtk yes tchain  5  pchain  5

dump dmp2 all dcd ${N} traj.dcd
dump dmp2 all dcd 1000 traj.dcd


compute msd all msd com yes
variable twopoint equal c_msd[4]/6/(step*dt+1.0e-6)
fix 9 all vector 10 c_msd[4]
variable fit equal slope(f_9)/6/(10*dt)
thermo_style custom step temp pe c_msd[4] v_twopoint v_fit v_max_n

fix 1 all npt temp 1.25 ${temp} 0.1 iso 5.68 5.68 0.5 mtk yes tchain 5 pchain 5
fix 1 all npt temp 1.25 0.45 0.1 iso 5.68 5.68 0.5 mtk yes tchain 5 pchain 5
run 500000 # 5000000  # Run for this many steps
Neighbor list info ...
  update every 1 steps, delay 10 steps, check yes
  max neighbors/atom: 2000, page size: 100000
  master list distance cutoff = 3.8
  ghost atom cutoff = 3.8
  binsize = 1.9, bins = 9 9 9
  4 neighbor lists, perpetual/occasional/extra = 1 3 0
  (1) pair lj/cut, perpetual
      attributes: half, newton on
      pair build: half/bin/atomonly/newton
      stencil: half/bin/3d
      bin: standard
  (2) compute orientorder/atom, occasional
      attributes: full, newton on
      pair build: full/bin/atomonly
      stencil: full/bin/3d
      bin: standard
  (3) compute coord/atom, occasional
      attributes: full, newton on
      pair build: full/bin/atomonly
      stencil: full/bin/3d
      bin: standard
  (4) compute cluster/atom, occasional
      attributes: full, newton on
      pair build: full/bin/atomonly
      stencil: full/bin/3d
      bin: standard
Per MPI rank memory allocation (min/avg/max) = 9.756 | 9.762 | 9.768 Mbytes
Step Temp PotEng c_msd[4] v_twopoint v_fit v_max_n 
   12000    1.2347454   -6.2945044 4.2811481e-30 2.9730194e-32 8.3333333e+20            1 
   13000    1.2537226   -6.3358924   0.54982238 0.0035245023  0.044744083            3 
   14000    1.2192213   -6.3633105    1.0798223 0.0064275138  0.044635434            4 
   15000    1.2296719   -6.2878278    1.5987642 0.0088820231  0.044324632            3 
   16000    1.2460029   -6.3335018    2.1657069  0.011279723  0.044499893            3 
   17000    1.2221662   -6.3251297     2.712129  0.013294749  0.044924227            2 
   18000    1.2530169   -6.3472826    3.2199212  0.014907042  0.044928047            4 
   19000    1.2478441   -6.3226764    3.7517441  0.016455017  0.044676445            4 
   20000    1.1923897   -6.3335651    4.3227805  0.018011585  0.044673998            4 
   21000    1.2097183   -6.3393781    4.8274383  0.019156501  0.044661832            4 
   22000    1.2641039   -6.3502282    5.4160009  0.020515154  0.044801201            2 
   23000    1.2287684   -6.3356047     5.878031  0.021297213  0.044920707            1 
   24000    1.2527949    -6.336487    6.3416402  0.022019584  0.044578247            3 
   25000    1.2240521   -6.3572453    6.8626123  0.022875374  0.044324188            4 
   26000    1.2418448   -6.3595086    7.4005343  0.023719661   0.04414222            3 
   27000    1.2167955   -6.3713963    7.7822843  0.024019396  0.043855158            1 
   28000     1.262236   -6.3621892    8.2759345  0.024630757  0.043567336            2 
   29000    1.2085162   -6.3806747    8.8153216  0.025331383    0.0433448            6 
   30000     1.220229   -6.3686326    9.3224566  0.025895712  0.043139665            1 
   31000    1.2151781   -6.3755719    9.7985082  0.026340076  0.043019246            3 
   32000    1.2025497   -6.4167229    10.257922  0.026713337  0.042891565            3 
   33000    1.2207078   -6.3166477    10.822414  0.027329327  0.042800416            3 
   34000    1.2271657   -6.4127821    11.269633   0.02762165  0.042665486            3 
   35000    1.2152668   -6.3995468     11.79797  0.028090404  0.042556074            2 
   36000    1.2041633    -6.350924    12.334923  0.028553061   0.04249421            4 
   37000    1.2158316   -6.3787293    12.815209  0.028863082  0.042415217            2 
   38000    1.2226652   -6.4123664    13.275257  0.029112406  0.042325364            1 
   39000     1.214071   -6.3848499    13.755258  0.029391576    0.0422935            2 
   40000    1.2000054     -6.42807     14.26888  0.029726833  0.042252029            2 
   41000    1.2181502    -6.385766     14.75074  0.029981178  0.042177816            3 
   42000    1.2266189   -6.4101545    15.118688  0.029997397  0.042083791            2 
   43000    1.1883364   -6.3759495    15.447118  0.029936274  0.041912229            4 
   44000     1.200327   -6.3973166     15.91695  0.030145739  0.041735361            1 
   45000     1.188336   -6.4265589    16.511056  0.030576029  0.041622559            2 
   46000    1.1766664   -6.4222327    16.943557  0.030694849  0.041509717            3 
   47000    1.1795758   -6.4259295    17.409881  0.030868584   0.04139973            2 
   48000    1.1946052   -6.4187286    17.695457  0.030721279  0.041257031            2 
   49000    1.1896715   -6.3934162    18.232595  0.031007814  0.041117257            3 
   50000    1.1953838    -6.385511    18.838476   0.03139746  0.041017867            3 
   51000    1.1861974   -6.3790392     19.27168  0.031489673   0.04093337            5 
   52000    1.1527643   -6.4020811    19.640231  0.031474729  0.040840632            2 
   53000    1.2041902   -6.3977714     20.16668  0.031708617  0.040743617            2 
   54000     1.187968   -6.4624836    20.492544  0.031624296  0.040642346            2 
   55000    1.1847297   -6.4318936    20.903793  0.031672413  0.040531408            1 
   56000    1.1903349   -6.4591564    21.331323   0.03174304  0.040416581            1 
   57000    1.1639838    -6.475896    21.867609  0.031970189  0.040325728            4 
   58000    1.1650235   -6.4815705    22.307025  0.032050323  0.040236348            2 
   59000    1.1844492   -6.4359464    22.675597  0.032027679  0.040141431            2 
   60000    1.1734753    -6.443456     23.14563  0.032146708  0.040042945            2 
   61000    1.1751581   -6.4813244    23.705746  0.032384899  0.039965941            3 
   62000    1.1768661   -6.4089974    24.217049  0.032549797   0.03991094            1 
   63000    1.1383646   -6.4516628    24.606142  0.032547806  0.039849222            5 
   64000    1.1633849   -6.4807549    24.894491  0.032414702  0.039765659            4 
   65000    1.1896371   -6.4661627    25.306733  0.032444529  0.039680351            1 
   66000    1.1573338   -6.4682859    25.720783  0.032475736  0.039592007            3 
   67000    1.1485577   -6.4532701    26.422335  0.032863601   0.03952028            2 
   68000    1.1553706   -6.5043246    26.773364  0.032810495  0.039471163            5 
   69000    1.1731684   -6.4604377    27.409345  0.033103073   0.03942369            3 
   70000    1.1616812   -6.4900188    27.787115  0.033079899  0.039381381            3 
   71000     1.145103   -6.4864007    28.343464  0.033266976  0.039355931            4 
   72000    1.1731299   -6.4867384    28.673614  0.033187053   0.03931904            1 
   73000    1.1612445    -6.513625     29.14596  0.033271643  0.039287816            2 
   74000    1.1602586   -6.4860372    29.654583    0.0333948  0.039247006            4 
   75000    1.1477532    -6.509939     30.08684  0.033429822  0.039214114            2 
   76000    1.1265356   -6.5292218     30.14081  0.033049134    0.0391502            2 
   77000    1.1179912   -6.5152057    30.378158  0.032876794  0.039063877            3 
   78000    1.1161899   -6.5101598    30.675085  0.032772526  0.038961846            2 
   79000    1.1380081   -6.5093517    31.071238  0.032775567  0.038856771            1 
   80000    1.1014687   -6.5273101    31.573435  0.032888994  0.038762788            2 
   81000    1.1528539   -6.5242841    31.901456  0.032820428  0.038671912            4 
   82000    1.1325063   -6.5194366    32.385349   0.03291194  0.038580956            1 
   83000    1.1431814   -6.5398015    32.733155  0.032864613  0.038494336            5 
   84000    1.1305486   -6.5448619    32.981202  0.032719446  0.038403396            2 
   85000    1.1255661   -6.5034553    33.380018  0.032725508  0.038306014            2 
   86000     1.119176   -6.5533655    33.699034  0.032654103  0.038205038            3 
   87000    1.1225608   -6.5186885    34.089446  0.032652726  0.038099813            5 
   88000    1.1171943   -6.5609067    34.512222  0.032682029  0.038000319            3 
   89000    1.1289226   -6.5710709    34.787171  0.032572257  0.037892065            5 
   90000    1.1151457   -6.5228028    35.262757  0.032650701  0.037789293            2 
   91000    1.1241824   -6.5803211    35.612342  0.032612035  0.037690636            2 
   92000    1.1215967   -6.5495983    36.055184  0.032658681  0.037595564            3 
   93000    1.1356742   -6.5622561     36.41577  0.032630618  0.037503968            3 
   94000     1.139014   -6.5309341    36.783341  0.032609344  0.037410518            2 
   95000    1.0898935   -6.5522004    37.161128  0.032597481  0.037317112            4 
   96000    1.1085106    -6.551666    37.506097  0.032557376  0.037230146            1 
   97000    1.0996596   -6.5193953    38.144051  0.032769803  0.037146873            2 
   98000    1.0972578   -6.5985872     38.41236  0.032663571  0.037068514            9 
   99000     1.112061   -6.5700389    38.611399  0.032501178  0.036984073            2 
  100000    1.1021556   -6.5936478    38.903402  0.032419502  0.036896251            4 
  101000    1.1019176   -6.5524029    39.325607  0.032446871  0.036811112            2 
  102000    1.1168868   -6.5293719    39.650025  0.032393811  0.036723792            2 
  103000    1.0838133   -6.5641359     39.87757  0.032263406  0.036630193            2 
  104000    1.1170386   -6.6369064      39.9974  0.032049198  0.036529814            2 
  105000    1.1016164   -6.5733418    40.431277  0.032088315   0.03642379            4 
  106000    1.1195851   -6.5941095    40.747067  0.032033857  0.036315783            2 
  107000    1.0933154   -6.5725748    41.217604  0.032100937   0.03621221            3 
  108000    1.0931739   -6.6177279    41.608717  0.032105491  0.036114943            4 
  109000     1.111859    -6.624033    41.967834    0.0320855  0.036019605            5 
  110000    1.0832327    -6.603811    42.194267  0.031965353  0.035927138            2 
  111000    1.1078133   -6.5911282    42.611109  0.031990322  0.035832988            4 
  112000    1.1038574   -6.6204096    42.699231  0.031770261  0.035735411            3 
  113000    1.0858396    -6.627561    43.135741  0.031811018  0.035638363            3 
  114000    1.0965518   -6.6120045    43.530514  0.031820551  0.035546553            3 
  115000    1.0965556   -6.6293091    43.958628  0.031854078    0.0354589            3 
  116000    1.0774771    -6.589037    44.445351  0.031929132   0.03537385            3 
  117000    1.0780838   -6.5836414    44.676176  0.031820638  0.035290271            2 
  118000     1.078428   -6.6436862    45.126389  0.031868918  0.035212783            2 
  119000    1.0661641   -6.6531898    45.428329  0.031812555  0.035135881            2 
  120000    1.0586976   -6.6257441    45.806672  0.031810188  0.035060943            3 
  121000    1.1102585   -6.6535317    46.197927  0.031816754  0.034987282            3 
  122000    1.0796608   -6.6253256    46.513584  0.031771573  0.034917799            4 
  123000    1.0406405   -6.6229622    47.020023  0.031856384  0.034851777            4 
  124000    1.0416339   -6.6765211    46.963968  0.031561806  0.034779988            2 
  125000    1.0846021     -6.65109    47.262549  0.031508366  0.034700655            3 
  126000    1.0410456   -6.6307507    47.305063  0.031286417  0.034614562            3 
  127000    1.0777247   -6.6772482    47.725949  0.031316239  0.034527708            6 
  128000    1.0416612   -6.6272862    47.954096  0.031220115  0.034440147            3 
  129000    1.0635037   -6.6966345    48.237662  0.031161281  0.034353881            3 
  130000    1.0540829   -6.6564879     48.70304  0.031219897   0.03426453            4 
  131000    1.0751397   -6.6479551    48.701209  0.030980413  0.034176524            2 
  132000    1.0708965   -6.6367663    48.975354  0.030918784  0.034083825            2 
  133000    1.0774623   -6.6397534    49.261498    0.0308656  0.033991902            6 
  134000    1.0434214   -6.6767135    49.577162  0.030831568  0.033898666            4 
  135000    1.0418417   -6.6671655     49.84038  0.030765667  0.033808088            2 
  136000    1.0671374   -6.7005203    50.010195  0.030643502  0.033717684            4 
  137000    1.0658114    -6.717385    50.304397  0.030598781  0.033627295            4 
  138000    1.0508829   -6.6889771    50.752084  0.030647394  0.033539004            4 
  139000    1.0378948   -6.6842997    51.197177  0.030693751   0.03345247            3 
  140000    1.0190532   -6.6939398    51.498023  0.030653585  0.033366383            2 
  141000    1.0462093   -6.6809064    51.730639  0.030573663  0.033283041            2 
  142000    1.0352128   -6.6565834    52.086992  0.030567483  0.033202963            3 
  143000    1.0354021    -6.691724    52.176258  0.030405745  0.033119047            6 
  144000     1.032575   -6.6903647    52.619125  0.030450882  0.033035956            2 
  145000    1.0321889   -6.7331784    52.718704  0.030298106   0.03295022            7 
  146000     1.065237   -6.7098065    52.877541  0.030181245  0.032862602            3 
  147000    1.0322737   -6.6927499    53.345797  0.030241381  0.032776512            5 
  148000    1.0558437   -6.7582616    53.459536   0.03010109  0.032691453            2 
  149000     1.021868   -6.7363448    53.819034  0.030100131  0.032607961            3 
  150000    1.0043002   -6.7135627    54.063849  0.030035472  0.032528385            4 
  151000    1.0326074    -6.684058    54.449641  0.030049471  0.032446762            4 
  152000    1.0291704   -6.6862858    54.794418  0.030040799  0.032367555            6 
  153000    1.0153803   -6.7398675    55.023431  0.029969189  0.032289315            6 
  154000    1.0288034   -6.7299313    55.284568  0.029915892  0.032209629            4 
  155000    1.0224849   -6.7264401    55.557191  0.029869458  0.032134251            3 
  156000    1.0100294   -6.7668989    55.998594  0.029913779  0.032057096            7 
  157000    1.0059193   -6.7371451    56.202848   0.02983166  0.031982604            6 
  158000    1.0287615   -6.7270465    56.477999  0.029787974  0.031908127            4 
  159000     1.008006    -6.778361    56.738518  0.029737169  0.031835726            3 
  160000    1.0086089   -6.7207683    56.988755  0.029681643  0.031762678            5 
  161000    1.0065449     -6.75913     57.26707   0.02964134  0.031689616            3 
  162000    1.0082515   -6.7682459    57.317994  0.029484565  0.031616439            4 
  163000   0.99869082   -6.7905055     57.70414  0.029501094  0.031542061            4 
  164000    1.0163044   -6.7794081    58.267619   0.02960753  0.031471128           13 
  165000    1.0130038   -6.8153118    58.256118  0.029422282  0.031399832            5 
  166000    1.0271082   -6.7662245    58.608068  0.029421721   0.03133032            3 
  167000    1.0117603   -6.7855562    58.894084  0.029388265  0.031259044            5 
  168000    1.0170598   -6.8004096    58.997394   0.02926458  0.031188081            3 
  169000   0.99488348   -6.7581179    59.671416  0.029423775  0.031119849            2 
  170000    1.0107172   -6.7786814     59.69985  0.029264632  0.031054741            2 
  171000    1.0011636   -6.8056072    59.937816  0.029209462  0.030987772            3 
  172000   0.99832732   -6.7801164     60.12777  0.029131671    0.0309206            1 
  173000    1.0096683   -6.8083906    60.425601  0.029106744  0.030851131            2 
  174000    1.0081448   -6.7806192    60.856525  0.029145845  0.030782609            3 
  175000   0.96983505   -6.7859862    60.909599  0.029004571  0.030716166            3 
  176000   0.99585591   -6.8485142     61.09062  0.028925483  0.030647931            3 
  177000   0.98765378   -6.8160616    61.345283   0.02888196  0.030579273            3 
  178000    0.9802185   -6.8157674    61.666807  0.028870228  0.030510629            9 
  179000   0.98699357    -6.805184    61.940853  0.028836524  0.030442702            5 
  180000   0.99422238   -6.8556885    62.078153  0.028739885  0.030374062            4 
  181000   0.95573251   -6.8421764    62.366699   0.02871395  0.030307098            7 
  182000    0.9733169   -6.8312403    62.555804  0.028642768  0.030240804            4 
  183000   0.97841747   -6.8478509     62.82147  0.028607227  0.030174431            5 
  184000   0.98855421    -6.835604    63.305704  0.028671062  0.030108454            5 
  185000    0.9900683   -6.8425082    63.208974  0.028472511  0.030042732            6 
  186000   0.97361509    -6.848019    63.707404  0.028542744  0.029977427            4 
  187000   0.98690906    -6.823181    64.031077  0.028534348  0.029914793            3 
  188000   0.98636142    -6.834967     64.40513  0.028548373  0.029853489            3 
  189000   0.95669028   -6.8183587    64.847074  0.028592184  0.029795036            2 
  190000   0.94686926   -6.8718533    64.817757  0.028428841  0.029734636            5 
  191000   0.96651574   -6.8357142    64.935771  0.028331488  0.029674256            4 
  192000   0.98905141    -6.860864     65.25962  0.028324488  0.029614151            5 
  193000   0.94746694   -6.8562473    65.295119  0.028193057  0.029553896            2 
  194000    0.9555802   -6.8233001    65.677995  0.028212197  0.029493305            3 
  195000   0.96456629   -6.8460159     65.86448  0.028147214  0.029431706            4 
  196000   0.93873999   -6.8984266    66.094813  0.028101536  0.029369436            2 
  197000   0.93639491   -6.8786674    66.308921  0.028049459  0.029308451            3 
  198000   0.94618577   -6.8659618    66.437246  0.027961804  0.029247499            4 
  199000   0.94372293   -6.8989999    66.238011  0.027737861   0.02918415            7 
  200000   0.94173619   -6.9039649    66.879258  0.027866357   0.02912159            4 
  201000   0.95603041   -6.8939622     67.07113  0.027807268  0.029057443            4 
  202000   0.93873106   -6.8792734    67.187317   0.02771754   0.02899303            2 
  203000   0.91866217   -6.9241035      67.5557  0.027732225  0.028930809            3 
  204000    0.9479155   -6.8828165     67.71392  0.027660915  0.028868013            5 
  205000   0.93335667   -6.8743722    68.051768   0.02766332  0.028806263            6 
  206000   0.93367906    -6.883695    68.213381   0.02759441  0.028744926            7 
  207000   0.95477026   -6.8902338    68.087636  0.027410481  0.028681442            4 
  208000   0.93014024   -6.8903845    68.337107  0.027378649   0.02861822            3 
  209000   0.94619329   -6.9038496    68.556291  0.027335044   0.02855385            4 
  210000   0.93165007   -6.8942404    68.638955   0.02723768  0.028488983            8 
  211000   0.94248122   -6.9478272    68.704486  0.027134473  0.028423013            4 
  212000   0.93648842   -6.9266184    69.064732  0.027148086  0.028356827            3 
  213000    0.9358818   -6.9392324    68.862482  0.026941503  0.028289162            4 
  214000   0.92952742   -6.9199203    69.210288  0.026951047   0.02822211            8 
  215000   0.93310023   -6.9281513    69.291161  0.026857039  0.028153953           14 
  216000   0.92427794   -6.9637942    69.493905   0.02681092  0.028086148            3 
  217000   0.91581675   -6.9179504    69.632105   0.02674044  0.028018159            3 
  218000   0.93606449   -6.9298857    69.789285  0.026677861  0.027951615            4 
  219000   0.89661074   -6.9577025    69.822387   0.02656864  0.027882568            3 
  220000   0.91938411   -6.9469422    70.077377  0.026544461  0.027813108            4 
  221000   0.91287255   -6.9450931    70.443808  0.026562522  0.027744222            6 
  222000   0.92394775   -6.9551997    70.589046   0.02649739  0.027676281            3 
  223000   0.88187487   -6.9437233    70.398193  0.026307247   0.02760845            3 
  224000   0.90450663   -6.9944982     70.72064  0.026309762  0.027540376            8 
  225000   0.91948598   -6.9428912    71.054232  0.026316382  0.027472988            4 
  226000   0.91056275    -6.973881    71.174013  0.026244105  0.027406817            6 
  227000    0.9055585   -6.9648763    71.536159  0.026261439  0.027341938            5 
  228000   0.90334927   -6.9462946    71.732256   0.02621793  0.027277135            7 
  229000   0.92644022   -6.9611425      71.9314   0.02617591  0.027212007            7 
  230000   0.92257931   -6.9933223    71.768934  0.026003237  0.027145069            3 
  231000   0.86618981    -6.953677    72.103573   0.02601139  0.027079268            3 
  232000   0.88427916   -6.9952148    72.005923  0.025864197  0.027012729           10 
  233000   0.89398864   -6.9905581     72.36023  0.025879911  0.026946931            6 
  234000   0.88714981   -6.9594243    72.381221  0.025776788   0.02688064            6 
  235000   0.88431646   -7.0147477    72.475418  0.025700503  0.026813436            9 
  236000   0.90025146   -7.0025269    72.603717  0.025636906  0.026746566            6 
  237000   0.91827517   -7.0018827    72.919343  0.025639713  0.026680238            5 
  238000   0.88285159   -7.0020799    72.919615  0.025532078  0.026613633            9 
  239000   0.92077961   -7.0269581    73.311368  0.025561844  0.026547524            6 
  240000   0.89119077    -7.018702    73.332344  0.025462619  0.026481914            6 
  241000   0.89161094   -7.0468993    73.575045  0.025440887  0.026416004            5 
  242000   0.88869015    -7.023916    73.616714  0.025350108  0.026351115            4 
  243000   0.89108275   -7.0195022    74.050011   0.02539438  0.026286325            9 
  244000   0.88003047   -7.0184467    74.072627  0.025298028  0.026221792            6 
  245000   0.90410919   -7.0414687    74.232112  0.025249018  0.026157186            4 
  246000   0.88515274   -7.0649404    74.432241  0.025214174  0.026093682            4 
  247000   0.88555201   -7.0172436    74.450229  0.025118161  0.026030678            6 
  248000   0.89850063   -7.0540733    74.758499  0.025120463  0.025967781            8 
  249000    0.8545897   -7.0462918    74.893981   0.02506492  0.025904566            5 
  250000   0.84440445   -7.0510419    75.126459  0.025042153  0.025841867            8 
  251000    0.8733761   -7.0493416    75.016947  0.024906025  0.025779093            6 
  252000   0.86979378   -7.0553058    75.260073   0.02488759   0.02571656            9 
  253000    0.8479261   -7.0693369    75.681084  0.024927893   0.02565456            4 
  254000   0.87621518   -7.0520664    75.500038  0.024770354   0.02559166            3 
  255000   0.86338853   -7.0534923    75.563462  0.024693942  0.025527981            9 
  256000   0.85553488   -7.0354327    75.604052  0.024610694  0.025463871            5 
  257000    0.8672414   -7.0212991    76.187219  0.024704027   0.02540084            3 
  258000   0.85302532    -7.089804    76.054188  0.024565306  0.025338086            3 
  259000   0.86125306   -7.0900893    76.196937  0.024516389  0.025275363            4 
  260000    0.8664478    -7.050417    76.326103  0.024463494  0.025212602            4 
  261000   0.83365305   -7.0721999     76.42348  0.024400856  0.025150089            5 
  262000   0.86427074   -7.1114667    76.400879  0.024300534  0.025086765            3 
  263000   0.83705249   -7.0975556     76.61313   0.02427539  0.025023236            4 
  264000   0.84755931   -7.1082128    76.780059   0.02423613   0.02495993            7 
  265000    0.8390694    -7.077253    76.865942   0.02417168  0.024896978            2 
  266000   0.85121694   -7.0693869    77.000289  0.024122898  0.024833807            4 
  267000   0.82437416   -7.1010414    77.128228  0.024072481  0.024771058            5 
  268000   0.86127205   -7.1248337    77.070021  0.023964559   0.02470816            6 
  269000   0.83838584   -7.1154778    77.260253  0.023934403  0.024645465            7 
  270000   0.84162897   -7.0891182    77.390279  0.023885888  0.024582711            2 
  271000    0.8329444   -7.1111661     77.25441  0.023755968  0.024519802            4 
  272000   0.83756694   -7.0816593    77.159123  0.023639437   0.02445553            9 
  273000    0.8330465   -7.1185636    77.526105  0.023664867  0.024391172            4 
  274000   0.83612176   -7.1213812    77.438472  0.023551847  0.024326925            4 
  275000   0.81872712    -7.135103    77.722533  0.023552283  0.024262788            6 
  276000   0.82530588   -7.1501167    77.836736   0.02350143  0.024199286            8 
  277000   0.82773958   -7.1330364    77.856972  0.023422675  0.024135326            5 
  278000   0.82758126   -7.1615022    77.688673  0.023287971  0.024071284            9 
  279000   0.82479903   -7.1839213    77.793585  0.023235838  0.024006784            5 
  280000   0.81372943   -7.1666831    77.986678  0.023210321  0.023942554            9 
  281000   0.80947297   -7.1254436    78.076983  0.023154503   0.02387798           16 
  282000   0.82601771   -7.1823297    78.019418  0.023055384  0.023813659           15 
  283000   0.81717398   -7.1510657    78.289227  0.023053365   0.02374974            7 
  284000    0.8076556   -7.1826198    78.374296  0.022997153  0.023686083            5 
  285000   0.80808632   -7.2011218    78.540911  0.022965178  0.023623116            9 
  286000   0.79440149   -7.1923922    78.570521  0.022893508  0.023559897            4 
  287000   0.80559363   -7.1562424    78.741254  0.022863314   0.02349623           12 
  288000   0.81388503   -7.1316108    78.870479  0.022821319  0.023432785            9 
  289000   0.82938066   -7.1509987    79.159845  0.022825791  0.023370818            9 
  290000    0.7978293   -7.1772601    78.965902  0.022691351    0.0233088            5 
  291000    0.8203185   -7.1791108    79.280819  0.022703556  0.023246605            4 
  292000   0.80294123   -7.1940496    79.308147  0.022633604  0.023184825            3 
  293000   0.80517353   -7.2027996    79.510527  0.022613915  0.023122848            6 
  294000   0.79550085   -7.1729756    79.544067  0.022546504  0.023061132            4 
  295000   0.81120497   -7.2125375     79.61035  0.022488799  0.022999346           10 
  296000   0.78110979   -7.2130051     79.63841  0.022420723  0.022937658            8 
  297000   0.78336337   -7.2238965    79.507038  0.022308372  0.022875628           10 
  298000   0.77887341   -7.2321562    79.908828  0.022345869  0.022813791            5 
  299000   0.77268609   -7.2218786    79.682581  0.022208077  0.022752227            4 
  300000   0.80429175   -7.2257134    79.670109  0.022130586  0.022690435           14 
  301000   0.79039606   -7.2141461    80.069022  0.022167503   0.02262909            4 
  302000   0.79530726    -7.212601    79.970345  0.022066872  0.022567863            7 
  303000    0.7725686   -7.2243778    79.929637  0.021982848  0.022506109            4 
  304000    0.7820638   -7.2260086    80.068801  0.021948685    0.0224445           14 
  305000   0.78163877   -7.2440087    80.315937  0.021944245  0.022382815           10 
  306000   0.78382568   -7.2248518    80.173485  0.021833738  0.022321677            6 
  307000   0.78240681   -7.2032989    80.306744  0.021798791      0.02226            5 
  308000   0.77703387   -7.2450793    80.618045  0.021812242  0.022199156            9 
  309000   0.79197511   -7.2510421    80.335251  0.021665386  0.022138166           13 
  310000   0.78112017   -7.2464478    80.558047  0.021655389  0.022077631            3 
  311000   0.76460248   -7.2477961    80.672315  0.021616376  0.022016964           14 
  312000   0.77427466   -7.2341489    80.769105  0.021572945  0.021956676            6 
  313000   0.78285183   -7.2652454    80.905905  0.021540443  0.021896524            6 
  314000   0.76780569   -7.2765243    80.957069  0.021485422  0.021836842            6 
  315000   0.77954203   -7.2683536     80.80749  0.021377643  0.021776813            8 
  316000    0.7707614    -7.242952    80.758341  0.021297031  0.021716448            5 
  317000   0.76590707   -7.2288612     80.97283  0.021286233  0.021656357            6 
  318000   0.75492391   -7.2663231    81.040295  0.021236975  0.021596043            8 
  319000   0.76546861   -7.2633055    81.030785  0.021167917  0.021535501            4 
  320000   0.76472811   -7.2604248    80.864315  0.021058415   0.02147534            9 
  321000    0.7375786   -7.2811608    81.198665  0.021079612  0.021415241            6 
  322000   0.75854721   -7.2705358    81.354374  0.021054445  0.021355267           15 
  323000   0.77344193   -7.3046806           81  0.020897833  0.021295542            9 
  324000   0.74530344    -7.319725    81.311908  0.020913557  0.021235768            6 
  325000   0.76175994   -7.3072317    81.339367  0.020856248  0.021175918            5 
  326000   0.75390508   -7.3384507    81.214107  0.020760252  0.021116285            7 
  327000   0.75746532     -7.30594    81.286714  0.020715269  0.021056759            5 
  328000   0.74928001   -7.3085492    81.621545  0.020737181  0.020997083            6 
  329000   0.74853539   -7.3307257    81.507289   0.02064521  0.020937851            3 
  330000   0.73933774   -7.3470384    81.503192  0.020581614  0.020878041            6 
  331000   0.75065071   -7.3277964    81.466486  0.020510193  0.020818105           10 
  332000   0.72840746    -7.336908    81.649254  0.020494291  0.020758401           13 
  333000   0.74656194    -7.332443    81.612094  0.020423447  0.020699562            9 
  334000   0.73840692   -7.3634785    81.892845  0.020432347  0.020640846           11 
  335000   0.72521945   -7.3797891    81.653252  0.020311754  0.020581661            9 
  336000   0.72732614   -7.3296165    81.792312  0.020285792  0.020522879           14 
  337000   0.72750664   -7.3696787     82.04001  0.020286847  0.020464629            4 
  338000   0.72265836     -7.32087    82.193192  0.020264594  0.020406668            5 
  339000   0.70439709   -7.3614976     82.08541  0.020178321  0.020348808           14 
  340000     0.725683   -7.3549859     82.15756  0.020136657   0.02029085            6 
  341000   0.72714154   -7.3634851    82.172919  0.020081358  0.020233179            7 
  342000   0.71347589    -7.363009    82.009012  0.019982703  0.020175169           19 
  343000   0.73005754   -7.3703306     82.07849  0.019941324  0.020117196           10 
  344000   0.72204959   -7.3717801    82.186872   0.01990961  0.020059135           10 
  345000   0.70614692   -7.3863148    82.067176  0.019822989  0.020001145            7 
  346000   0.71523096    -7.358058    82.130439  0.019780934  0.019943086            9 
  347000   0.71097045    -7.360564    82.035192  0.019701055  0.019884636            5 
  348000   0.70500825    -7.385634    81.995892  0.019635032  0.019826483            5 
  349000   0.71093288   -7.4156195    82.118414  0.019608026  0.019768543            4 
  350000   0.71182732   -7.4088518     81.93375  0.019508036  0.019710725           12 
  351000   0.71560696   -7.4112146    82.238636  0.019524842  0.019653006            7 
  352000   0.70991056   -7.4042199    82.181699  0.019455895  0.019595247            9 
  353000   0.70279045   -7.3902757    82.301354  0.019429026  0.019537607           17 
  354000   0.69624431   -7.3837285    82.317514  0.019377946  0.019480415           11 
  355000   0.69462524   -7.4166247    82.451845  0.019354893   0.01942357            5 
  356000   0.70223063   -7.4285007    82.217673   0.01924571  0.019366418            8 
  357000   0.68950993   -7.4432411     82.13796  0.019173193  0.019309024           16 
  358000   0.69876777   -7.4091666    82.310694  0.019159845  0.019251475           12 
  359000    0.7038244   -7.4275283    82.313914  0.019107222  0.019194125           11 
  360000   0.68927253     -7.41811    82.502542  0.019097811  0.019137045            9 
  361000     0.695389   -7.4283593    82.480758   0.01903988  0.019079843           28 
  362000   0.68365355    -7.462883    82.503485  0.018992515  0.019023162           15 
  363000   0.68846351   -7.4681405    82.271027  0.018886829  0.018966406           27 
  364000   0.68535769   -7.4690199    82.624773  0.018915928  0.018909957           27 
  365000    0.6811474   -7.4700633      82.4373  0.018821301  0.018854063           20 
  366000   0.69166851   -7.4297899    82.683399   0.01882591  0.018798342           13 
  367000   0.67299575   -7.4559684    82.610321   0.01875802  0.018743015            7 
  368000    0.6751465   -7.4444623    82.702909  0.018728014   0.01868773           17 
  369000   0.68129888   -7.4562773    82.508949  0.018633457  0.018632339            6 
  370000    0.6914423   -7.4640269    82.599731  0.018603543   0.01857704           12 
  371000   0.67539159   -7.4492401    82.775254  0.018592824   0.01852206           19 
  372000   0.67181455   -7.4598757    82.867308  0.018563465   0.01846721           14 
  373000   0.67040809   -7.4737506    82.705883  0.018477632  0.018412376            8 
  374000    0.6517567   -7.4678981    82.767529  0.018441963  0.018357796            8 
  375000   0.66892146   -7.4802117    82.629649  0.018362144  0.018303023           11 
  376000   0.65958198   -7.5007817    82.830759  0.018357881  0.018248502            5 
  377000   0.68537805   -7.4830639    82.464749  0.018228282  0.018193806           10 
  378000   0.67286081   -7.4968014    82.649308  0.018220747  0.018139145            9 
  379000   0.66629915   -7.5112587    82.505222   0.01814099  0.018084461            6 
  380000   0.66476193    -7.514288      82.6593  0.018127039  0.018029998            7 
  381000   0.65111638   -7.5040943    82.642069  0.018075693  0.017975601           12 
  382000   0.64981558   -7.5130063    82.599352  0.018019056  0.017921139           11 
  383000   0.65375683   -7.4852808    82.604023  0.017973025  0.017866774           14 
  384000   0.66744609   -7.5063056    82.608796  0.017927256  0.017812689            9 
  385000   0.65572963   -7.5226988    82.527532  0.017863102  0.017758564           16 
  386000   0.65330623     -7.51908    82.530855  0.017817542  0.017704528           13 
  387000   0.67165214   -7.5366527    82.346908  0.017731892  0.017650313           20 
  388000   0.65456451   -7.5371109    82.514954  0.017722284  0.017596202           14 
  389000   0.64740311   -7.5195781    82.660972  0.017708006  0.017542354            7 
  390000   0.65032597   -7.5239283    82.708197  0.017672692  0.017489188           12 
  391000   0.64675613    -7.517788    82.761034  0.017638754  0.017436122           16 
  392000   0.64748918   -7.5028861    82.658546   0.01757197  0.017383013            8 
  393000   0.64974389   -7.5469057    82.779949     0.017553   0.01733013           14 
  394000   0.63568156   -7.5555482    82.754763  0.017503122  0.017277395            6 
  395000   0.65250069   -7.5319139     82.62873  0.017432221  0.017224806           14 
  396000    0.6432943   -7.5564058    82.658727  0.017394513  0.017172253           27 
  397000   0.64154991   -7.5510539    82.761429  0.017372256  0.017119932            8 
  398000   0.62555844   -7.5686873    82.729391  0.017321899  0.017067742           15 
  399000   0.63238451   -7.5510387    82.596476  0.017250726  0.017015607           10 
  400000   0.63676584   -7.5550637    82.721921  0.017233734  0.016963542           30 
  401000   0.62582022   -7.5491516    82.860158  0.017219484  0.016911914           15 
  402000   0.62542896   -7.5609312    82.950944  0.017195469  0.016860322           17 
  403000   0.61721664   -7.5469086    82.891896  0.017140591  0.016809174           26 
  404000   0.62109576   -7.5556264    82.805391   0.01708032  0.016758111           12 
  405000    0.6336527   -7.5619827    82.941062  0.017066062  0.016707312            7 
  406000   0.62657976   -7.5701566    82.844844  0.017004278  0.016656774            7 
  407000   0.61079765   -7.5748979    82.871651  0.016967988  0.016606536           12 
  408000   0.60901333    -7.582144    82.979425  0.016948412  0.016556228           27 
  409000   0.61137161   -7.5866073    83.025631  0.016916388  0.016506075           12 
  410000   0.60838842   -7.5843841    83.154165  0.016901253  0.016456277           23 
  411000   0.60942437   -7.5848292    83.066658  0.016842388  0.016406579           14 
  412000   0.59305847   -7.5739153    83.030246  0.016794144   0.01635683           11 
  413000   0.59755504   -7.5870238    82.989302  0.016745218  0.016307227           13 
  414000   0.61277971   -7.6079072    82.748727  0.016656346  0.016257649           23 
  415000   0.59299697   -7.5881144    82.801962    0.0166269  0.016208157           17 
  416000   0.61380754   -7.6148358    82.995765  0.016625754  0.016158887           18 
  417000   0.60249741   -7.6013445     82.85225  0.016557204  0.016109822           13 
  418000   0.59642166   -7.6013328      83.0261  0.016552253  0.016060775           12 
  419000   0.60179936   -7.6253329    82.837753  0.016475289  0.016011704           27 
  420000   0.59411458   -7.6212242    82.920784  0.016452536  0.015962936           33 
  421000   0.58850547   -7.6244917    82.975083  0.016424205  0.015914359           12 
  422000   0.58301812   -7.6097582    82.832796  0.016357187  0.015865667           17 
  423000   0.59596279   -7.6207197    82.714766  0.016295265  0.015817124           29 
  424000   0.58986798    -7.619358    82.943753  0.016301838  0.015768821           27 
  425000   0.59790864   -7.6028095    82.903107  0.016255511  0.015720542           18 
  426000   0.58104832   -7.6306096    82.689371  0.016175542  0.015672334           16 
  427000   0.58145279   -7.6065221    82.787075  0.016156728  0.015624237           17 
  428000   0.57451373   -7.6449192     82.65556  0.016093372  0.015576258           20 
  429000   0.58187755   -7.6380091    82.815286  0.016086885  0.015528374           11 
  430000   0.57102055    -7.659668    82.830965  0.016052513  0.015480649           17 
  431000   0.58110605   -7.6482467    82.784078  0.016006202  0.015433138           19 
  432000   0.57667599   -7.6751476     82.74433  0.015961483  0.015385708           17 
  433000   0.57710317   -7.6744359    82.774815  0.015930488  0.015338451           15 
  434000   0.57646676   -7.6561902    82.991706  0.015935427  0.015291338           12 
  435000   0.57237835   -7.6639302     82.80361  0.015862761   0.01524453           16 
  436000   0.57288334   -7.6637606     82.75003  0.015816137  0.015198002           12 
  437000   0.56265597   -7.6493452    82.880246  0.015804776  0.015151478           13 
  438000   0.55967371   -7.6800303    82.896612  0.015771806  0.015105105           13 
  439000   0.56609819   -7.6670307    82.878666  0.015732473  0.015058768           22 
  440000   0.56448663   -7.6578092    82.891667  0.015699179  0.015012778           17 
  441000   0.56712935   -7.6914681    82.808005  0.015647771   0.01496686           18 
  442000   0.56582854   -7.6834217    82.830993  0.015616703  0.014921122           17 
  443000    0.5614495    -7.688689    82.744939  0.015565263  0.014875581           11 
  444000   0.56113714   -7.6880789    82.809019  0.015542233  0.014830149            7 
  445000   0.55060987   -7.7050762    82.814683  0.015508368  0.014784795           12 
  446000   0.55370334   -7.6979789    82.793826  0.015469698  0.014739602            9 
  447000    0.5457703   -7.6943785    82.870004  0.015449292  0.014694561            7 
  448000   0.54638731    -7.711758    82.802721  0.015402292  0.014649644           22 
  449000   0.56214129   -7.6988194    82.775485  0.015362933  0.014604808           12 
  450000   0.54778247   -7.7039137     82.75698  0.015325367  0.014560225           17 
  451000   0.55437619   -7.7273944    82.739626  0.015288179  0.014515681           12 
  452000   0.54722607   -7.7060353     82.84493   0.01527377  0.014471436           13 
  453000   0.54266367   -7.6900319    82.661379  0.015206288  0.014427267           19 
  454000   0.55093928   -7.7263378    82.741111  0.015187429  0.014383243           18 
  455000   0.55320549   -7.7146262     82.84813   0.01517365  0.014339337           11 
  456000   0.54043834   -7.7003406    82.826532  0.015136428  0.014295601           34 
  457000   0.52953213   -7.7183712    82.728793  0.015085484  0.014251977           21 
  458000    0.5299306   -7.7205475    82.804381  0.015066299  0.014208664           18 
  459000   0.53435507   -7.7301362    82.769311  0.015027108  0.014165472           23 
  460000   0.53422567   -7.7217271     82.92372  0.015022413  0.014122315           12 
  461000   0.52778255   -7.7390462     82.82994  0.014972874  0.014079444           37 
  462000   0.53238068   -7.7349035    82.723343  0.014921238  0.014036807           24 
  463000   0.54136295   -7.7448018    82.682957  0.014881742  0.013994186           30 
  464000   0.52664839   -7.7281618     82.88991  0.014886837  0.013951823           13 
  465000   0.52965937   -7.7671336    82.944376  0.014864583  0.013909551           38 
  466000   0.53590644   -7.7489986    82.718232  0.014792245  0.013867366           24 
  467000   0.52370684   -7.7586374    82.772387  0.014770233  0.013825254           18 
  468000   0.52754859   -7.7492998    82.766866   0.01473769  0.013783314           18 
  469000   0.50809932   -7.7454186    82.722396  0.014698365  0.013741588           22 
  470000    0.5180198   -7.7615129    82.737374  0.014669747  0.013699989           25 
  471000   0.51473502   -7.7454528    82.716816  0.014634964   0.01365847           22 
  472000   0.50699367   -7.7772596    82.755778  0.014610837  0.013617048           14 
  473000   0.50328975   -7.7669665    82.788338  0.014585683  0.013575761           30 
  474000    0.5156908   -7.7840324    82.738828  0.014546207  0.013534616           25 
  475000   0.49902242   -7.7906542    82.712726  0.014511005  0.013493604           34 
  476000   0.49964275   -7.7871212    82.641625  0.014468072  0.013452622           21 
  477000   0.50621793   -7.7781807     82.70625   0.01444903  0.013411771           20 
  478000   0.50620552   -7.7913326    82.631412  0.014405755  0.013371095           14 
  479000   0.51314552   -7.7901514     82.54581  0.014360788  0.013330523           16 
  480000   0.49710882   -7.7824061    82.479163  0.014319299  0.013290067           35 
  481000   0.49342977   -7.7841059    82.384715  0.014273166  0.013249636           15 
  482000   0.50619667   -7.7918373    82.594313  0.014279791   0.01320941           20 
  483000   0.50151101   -7.7890401    82.548626  0.014242344  0.013169305           16 
  484000   0.50519065   -7.8224862    82.526812  0.014209162  0.013129294           19 
  485000   0.48786869   -7.8180586    82.546341   0.01418322  0.013089474           18 
  486000   0.49100033   -7.8141049    82.410145  0.014130683  0.013049673           18 
  487000   0.48897305   -7.8136484    82.477374  0.014113171  0.013010087           14 
  488000   0.48677824   -7.8224454    82.570451  0.014100145  0.012970612           12 
  489000   0.47493172   -7.8149803    82.509334  0.014060895  0.012931295           19 
  490000   0.49506949   -7.8193599    82.477793  0.014026835   0.01289205           14 
  491000   0.49163349   -7.8170771    82.436644  0.013991284  0.012853027           20 
  492000   0.48463343    -7.822289    82.406887  0.013957806  0.012814062           19 
  493000   0.48425097   -7.8297493    82.444441  0.013935842  0.012775235           14 
  494000   0.46897607   -7.8316541    82.391201  0.013898651    0.0127366           14 
  495000   0.47459338   -7.8357033    82.464911  0.013882982  0.012698087           15 
  496000   0.48023962    -7.819391    82.430902  0.013849278  0.012659753           11 
  497000   0.47555791   -7.8263979    82.465918  0.013827283  0.012621503           20 
  498000    0.4759942   -7.8345173    82.441902  0.013795499  0.012583357           21 
  499000    0.4680056   -7.8460266    82.448544  0.013768962  0.012545395           13 
  500000   0.46913836   -7.8406122    82.479761  0.013746627  0.012507561           14 
  501000   0.47872949   -7.8396999    82.379826  0.013702566  0.012469852           13 
  502000   0.47185452   -7.8346551    82.366397  0.013673041  0.012432238           11 
  503000   0.45768045   -7.8433885    82.339885  0.013641465  0.012394833            9 
  504000   0.46122382   -7.8362495    82.337287  0.013613969  0.012357551           13 
  505000   0.45365986   -7.8557288    82.494741  0.013612994   0.01232043           15 
  506000   0.45887452   -7.8519871    82.433334  0.013575977  0.012283461           13 
  507000   0.45809603   -7.8494417    82.413198   0.01354589  0.012246639           12 
  508000    0.4610708   -7.8593565     82.25731  0.013493653  0.012209864           16 
  509000   0.45470863   -7.8658202    82.397432  0.013490084  0.012173252           17 
  510000   0.45020643   -7.8686841    82.425028  0.013468142  0.012136784           14 
  511000   0.45842155   -7.8578417     82.44536  0.013445101  0.012100489           22 
  512000   0.45004518   -7.8716054    82.384006  0.013408855  0.012064243           12 
Loop time of 1101.19 on 48 procs for 500000 steps with 4000 atoms

Performance: 78460.325 tau/day, 454.053 timesteps/s
99.4% CPU use with 48 MPI tasks x no OpenMP threads

MPI task timing breakdown:
Section |  min time  |  avg time  |  max time  |%varavg| %total
---------------------------------------------------------------
Pair    | 67.133     | 72.417     | 77.085     |  22.9 |  6.58
Neigh   | 6.8778     | 7.1443     | 7.4687     |   4.2 |  0.65
Comm    | 61.737     | 67.694     | 73.765     |  30.6 |  6.15
Output  | 0.81888    | 0.8194     | 0.82963    |   0.2 |  0.07
Modify  | 936.38     | 941.23     | 945.67     |   7.4 | 85.47
Other   |            | 11.89      |            |       |  1.08

Nlocal:        83.3333 ave          88 max          77 min
Histogram: 3 2 1 8 4 3 10 9 1 7
Nghost:        1840.04 ave        1854 max        1821 min
Histogram: 1 0 3 6 10 7 7 6 2 6
Neighs:        11406.5 ave       12400 max        9871 min
Histogram: 1 1 2 2 10 8 7 7 4 6
FullNghs:      22812.4 ave       24317 max       20830 min
Histogram: 2 1 4 5 4 7 11 7 2 5

Total # of neighbors = 1094997
Ave neighs/atom = 273.74925
Neighbor list builds = 26922
Dangerous builds = 0

#clear
#
#next RN
#
#jump SELF
Total wall time: 0:18:24
