
units lj                  # Use reduced LJ style units
atom_style atomic         # Uncharged point particles
atom_modify map hash      # Needed for indexing of clusters etc
                          # Used to be able to find where atoms are in relation to each other.

lattice fcc 1.0 spacing 1 1 1
Lattice spacing in x,y,z = 1.5874011 1.5874011 1.5874011
region box block 0 10 0 10 0 10 units lattice
create_box 2 box
Created orthogonal box = (0.0000000 0.0000000 0.0000000) to (15.874011 15.874011 15.874011)
  3 by 4 by 4 MPI processor grid
create_atoms 1 box
Created 4000 atoms
  using lattice units in orthogonal box = (0.0000000 0.0000000 0.0000000) to (15.874011 15.874011 15.874011)
  create_atoms CPU = 0.023 seconds
set type 1 type/fraction 2 0.06 78393
Setting atom values ...
  252 settings made for type/fraction
mass 1 1.0
mass 2 1.0
pair_style lj/cut  3.5
pair_modify tail  yes
pair_coeff 1  1  1.0  1.0   # Intearaction between 1 and 1 set with epsilon = 1 and sigma = 1
pair_coeff 1  2  1.5  0.8
pair_coeff 2  2  0.5  0.88

write_data data.0
System init for write_data ...
Neighbor list info ...
  update every 1 steps, delay 10 steps, check yes
  max neighbors/atom: 2000, page size: 100000
  master list distance cutoff = 3.8
  ghost atom cutoff = 3.8
  binsize = 1.9, bins = 9 9 9
  1 neighbor lists, perpetual/occasional/extra = 1 0 0
  (1) pair lj/cut, perpetual
      attributes: half, newton on
      pair build: half/bin/atomonly/newton
      stencil: half/bin/3d
      bin: standard
WARNING: Not all mixed pair coeffs generated from mixing. Use write_data with 'pair ij' option to store all pair coeffs. (../write_data.cpp:312)


#############################
#   M E L T   S Y S T E M   #
#############################

velocity all create 2.4 1741580 mom yes dist gaussian # Assign velocities
                                                    # Temperature 2.4, random number seed, zero linear momentum
                                                                                # Gaussian distribution

timestep 0.002   # simulation timestep
thermo 1000       # output thermodynamic data every 1000 steps bf 100

# Define a fix  in this case with index 1 applied to all
# particles in the simulation. This fix is for simulations
# in the anisotropic NPT ensemble. Note that we use the MTK
# correction.
fix 1 all npt temp 2.4 2.4 0.1 iso 5.68 5.68 0.5 mtk yes tchain 5 pchain 5 # Use NPT ensemble
                                                                         # Set temperature and pressure and damping
                                                                         # Numbers of thermostats in chain and in barostat
run 10000          # run for 10000 steps
Per MPI rank memory allocation (min/avg/max) = 3.642 | 3.644 | 3.648 Mbytes
Step Temp E_pair E_mol TotEng Press Volume 
       0          2.4   -7.9704536            0   -4.3713536   -2.7323792         4000 
    1000    2.4038849   -4.5202803            0  -0.91535438    5.7310754    4980.6147 
    2000    2.4370927   -4.5827966            0   -0.9280715    5.4569065    4986.3291 
    3000    2.4012372   -4.4991404            0    -0.898185    5.4845695     5038.152 
    4000    2.4083111   -4.4667605            0    -0.855197    5.7578015    5007.9791 
    5000    2.4318711   -4.5089407            0  -0.86204598    5.7753826    4982.0285 
    6000    2.3689893   -4.4236497            0  -0.87105418    5.8505193    5018.5631 
    7000    2.4488488   -4.5368517            0   -0.8644968    5.5563714    5006.8946 
    8000    2.3432468   -4.4975962            0  -0.98360475    5.5121752    5017.6738 
    9000    2.4062344   -4.5456069            0  -0.93715755    5.5704949    4983.9678 
   10000       2.3489   -4.5591145            0   -1.0366454    5.6963399    4956.7808 
Loop time of 2.27322 on 48 procs for 10000 steps with 4000 atoms

Performance: 760156.451 tau/day, 4399.054 timesteps/s
99.4% CPU use with 48 MPI tasks x no OpenMP threads

MPI task timing breakdown:
Section |  min time  |  avg time  |  max time  |%varavg| %total
---------------------------------------------------------------
Pair    | 0.86031    | 0.93726    | 0.99436    |   2.6 | 41.23
Neigh   | 0.18027    | 0.18719    | 0.19788    |   0.8 |  8.23
Comm    | 0.68535    | 0.77013    | 0.83758    |   3.9 | 33.88
Output  | 0.00025297 | 0.0002589  | 0.00032371 |   0.0 |  0.01
Modify  | 0.31776    | 0.36393    | 0.41568    |   5.3 | 16.01
Other   |            | 0.01444    |            |       |  0.64

Nlocal:        83.3333 ave          91 max          73 min
Histogram: 1 0 5 5 5 9 8 7 5 3
Nghost:        1421.73 ave        1448 max        1400 min
Histogram: 2 4 5 14 2 7 6 7 0 1
Neighs:        7677.90 ave        8465 max        6605 min
Histogram: 1 2 3 7 7 5 6 7 6 4

Total # of neighbors = 368539
Ave neighs/atom = 92.134750
Neighbor list builds = 906
Dangerous builds = 196

# Equilibrate just above the melting temperature to avoid step fn in T

fix 1 all npt temp 1.25 1.25 0.1 iso 5.68 5.68 0.5 mtk yes tchain 5 pchain 5
run 2000
Per MPI rank memory allocation (min/avg/max) = 3.643 | 3.646 | 3.650 Mbytes
Step Temp E_pair E_mol TotEng Press Volume 
   10000       2.3489   -4.5591145            0   -1.0366454    5.6963399    4956.7808 
   11000    1.2562055   -6.0438814            0   -4.1600442     5.707005    4135.9649 
   12000    1.2558875   -6.0630226            0   -4.1796623    5.6850091    4125.9281 
Loop time of 0.462065 on 48 procs for 2000 steps with 4000 atoms

Performance: 747946.910 tau/day, 4328.396 timesteps/s
99.6% CPU use with 48 MPI tasks x no OpenMP threads

MPI task timing breakdown:
Section |  min time  |  avg time  |  max time  |%varavg| %total
---------------------------------------------------------------
Pair    | 0.20475    | 0.21871    | 0.23178    |   1.5 | 47.33
Neigh   | 0.031222   | 0.032877   | 0.034652   |   0.5 |  7.12
Comm    | 0.14187    | 0.15829    | 0.17738    |   1.9 | 34.26
Output  | 6.8279e-05 | 6.9475e-05 | 8.2537e-05 |   0.0 |  0.02
Modify  | 0.04301    | 0.047562   | 0.052849   |   1.2 | 10.29
Other   |            | 0.004561   |            |       |  0.99

Nlocal:        83.3333 ave          94 max          77 min
Histogram: 3 7 11 7 7 8 2 2 0 1
Nghost:        1608.44 ave        1629 max        1594 min
Histogram: 4 3 9 8 9 5 4 0 4 2
Neighs:        9238.44 ave       10612 max        8491 min
Histogram: 7 5 8 9 8 7 3 0 0 1

Total # of neighbors = 443445
Ave neighs/atom = 110.86125
Neighbor list builds = 142
Dangerous builds = 11

#############################
# L I N E A R  Q U E N C H  #
#############################

# Define solid atoms. This closely follows ten Wolde  Ruiz-Montero and Frenkel  Faraday Discuss  1996  104  93-110
# Compute components of the per-atom q6 vector
compute q6 all orientorder/atom degrees 1 6 components 6 nnn NULL cutoff 1.3 # compute the Q6 parameter.
                                                                             # Use all neighbours within 1.3 unit cell.

# get number of connections
compute coord_number all coord/atom orientorder q6 0.5

# An atom is solid if it has 8 or more connections (of a possible 14)
variable is_solid atom c_coord_number>=8
group solid dynamic all var is_solid    # Must be dynamic to update
dynamic group solid defined

# do clustering
compute cluster solid cluster/atom 1.3 # Create a cluster where all atoms within are solid and max 1.3 units from another member

# define chunks one chunk per cluster
compute clus_chunks solid chunk/atom c_cluster nchunk every compress yes  # Says which atoms are in which chunk

# count the size of each chunk
compute size_chunks solid property/chunk clus_chunks count


# Find the maximum entry in the vector of chunk sizes
variable max_n equal max(c_size_chunks)


# Thermo style which includes this variable
# thermo_style custom step temp pe vol v_max_n

thermo ${N}  # Print the thermo information every 100 steps
thermo 1000  

# Reset the npt fix at a lower temperature (below freezing)
fix 1  all npt temp  ${temp} ${temp}  0.1  iso  5.68  5.68  0.5  mtk yes tchain  5  pchain  5
fix 1  all npt temp  0.45 ${temp}  0.1  iso  5.68  5.68  0.5  mtk yes tchain  5  pchain  5
fix 1  all npt temp  0.45 0.45  0.1  iso  5.68  5.68  0.5  mtk yes tchain  5  pchain  5

dump dmp2 all dcd ${N} traj.dcd
dump dmp2 all dcd 1000 traj.dcd


compute msd all msd com yes
variable twopoint equal c_msd[4]/6/(step*dt+1.0e-6)
fix 9 all vector 10 c_msd[4]
variable fit equal slope(f_9)/6/(10*dt)
thermo_style custom step temp pe c_msd[4] v_twopoint v_fit v_max_n

fix 1 all npt temp 1.25 ${temp} 0.1 iso 5.68 5.68 0.5 mtk yes tchain 5 pchain 5
fix 1 all npt temp 1.25 0.45 0.1 iso 5.68 5.68 0.5 mtk yes tchain 5 pchain 5
run 5000000 # 5000000  # Run for this many steps
Neighbor list info ...
  update every 1 steps, delay 10 steps, check yes
  max neighbors/atom: 2000, page size: 100000
  master list distance cutoff = 3.8
  ghost atom cutoff = 3.8
  binsize = 1.9, bins = 9 9 9
  4 neighbor lists, perpetual/occasional/extra = 1 3 0
  (1) pair lj/cut, perpetual
      attributes: half, newton on
      pair build: half/bin/atomonly/newton
      stencil: half/bin/3d
      bin: standard
  (2) compute orientorder/atom, occasional
      attributes: full, newton on
      pair build: full/bin/atomonly
      stencil: full/bin/3d
      bin: standard
  (3) compute coord/atom, occasional
      attributes: full, newton on
      pair build: full/bin/atomonly
      stencil: full/bin/3d
      bin: standard
  (4) compute cluster/atom, occasional
      attributes: full, newton on
      pair build: full/bin/atomonly
      stencil: full/bin/3d
      bin: standard
Per MPI rank memory allocation (min/avg/max) = 9.740 | 9.746 | 9.750 Mbytes
Step Temp PotEng c_msd[4] v_twopoint v_fit v_max_n 
   12000    1.2558875   -6.0630226 1.9721523e-34 1.3695501e-36 8.3333333e+20            2 
   13000    1.2353161   -6.0492266   0.55895981 0.0035830756  0.046136798            1 
   14000    1.2519188   -6.0625392     1.097315 0.0065316368  0.045426902            1 
   15000    1.2530122   -6.1012942    1.6333328 0.0090740707  0.045553887            3 
   16000    1.2367948   -6.0794757    2.2052362  0.011485605  0.045065819            3 
   17000    1.2349947    -6.023696    2.7000524  0.013235551  0.045346412            5 
   18000    1.2532926   -6.0389422    3.2086274  0.014854756  0.044979457            2 
   19000    1.2641539   -6.0849759    3.7401915  0.016404348  0.044416184            3 
   20000    1.2421415   -6.0560365    4.2724719  0.017801966  0.044341752            2 
   21000    1.2346257   -6.0335855    4.8996978  0.019443245  0.044427432            2 
   22000    1.2366335   -6.0284939    5.4415473  0.020611921  0.044817037            4 
   23000    1.2457129   -6.0395956     6.058274  0.021950268  0.045079606            3 
   24000    1.2661535   -6.0765578    6.6479962   0.02308332  0.045476935            2 
   25000    1.2574373   -6.0626773    7.2925586  0.024308528  0.045971136            3 
   26000     1.224024   -6.0870142    7.7923378  0.024975441   0.04627611            3 
   27000    1.2315026   -6.0569642    8.2923681  0.025593728  0.046385088            2 
   28000    1.2444134   -6.0408919    8.8431553  0.026318914  0.046366408            4 
   29000    1.2391505   -6.0702743    9.4068113  0.027031067  0.046294018            3 
   30000    1.2239694    -6.061041    10.012678  0.027812995  0.046384173            2 
   31000    1.2368285   -6.0959057    10.585592  0.028455892  0.046428863            2 
   32000    1.2544839   -6.0859159    11.201783   0.02917131  0.046566232            3 
   33000    1.2481421   -6.0638588    11.869715  0.029974027  0.046770286            4 
   34000    1.2646336   -6.0616629    12.312927  0.030178742  0.046882374            2 
   35000    1.2316287   -6.0602217    12.822019  0.030528616  0.046905978            2 
   36000    1.2536782   -6.0509438    13.362982  0.030932828  0.046870638            2 
   37000    1.2338849   -6.0541433    13.854719  0.031204322  0.046810495            2 
   38000    1.2503878    -6.067759    14.331035  0.031427708   0.04671206            2 
   39000    1.2385966   -6.0831605    14.808916  0.031642982  0.046602281            1 
   40000    1.2478799   -6.0402831    15.361677  0.032003493  0.046459755            3 
   41000    1.2360919   -6.0778221     15.82189  0.032158314  0.046334549            3 
   42000    1.2424579   -6.1028563    16.657022  0.033049646  0.046294654            1 
   43000    1.2673076   -6.0319131    17.064809  0.033071336  0.046251844            4 
   44000    1.2645126   -6.0707711    17.591078  0.033316434  0.046175641            6 
   45000    1.2407236   -6.0536399    18.092174  0.033504025  0.046117727            2 
   46000    1.2301817   -6.0436917    18.612007  0.033717403  0.046060301            2 
   47000    1.2593763   -6.0649169     19.39289  0.034384556  0.046021112            4 
   48000    1.2312448   -6.0893518    19.876226  0.034507336  0.046026275            2 
   49000    1.2538439   -6.0787694    20.595409  0.035026206  0.046063142            3 
   50000    1.2446779   -6.0293521    21.204179  0.035340297  0.046113192            3 
   51000    1.2508607   -6.0496609    21.628982  0.035341473  0.046139506            2 
   52000    1.2402002   -6.0362125    22.017301  0.035284136  0.046110772            2 
   53000    1.2674619   -6.0514838    22.687608  0.035672339   0.04608675            2 
   54000    1.2151666   -6.0438887    23.284035  0.035932153  0.046089408            3 
   55000    1.2852575   -6.0594845    23.794023  0.036051549  0.046092508            2 
   56000    1.2354699   -6.0977234    24.383863  0.036285511     0.046104            2 
   57000    1.2583096   -6.0408791    25.070168  0.036652292  0.046127476            9 
   58000    1.2428407   -6.0318826    25.497204  0.036633914   0.04615289            2 
   59000    1.2200985   -6.0549647    26.160244  0.036949497  0.046161468            5 
   60000    1.2526181   -6.0641708    26.544377   0.03686719  0.046174869            2 
   61000    1.2335076   -6.1089458    27.065776  0.036975103   0.04617183            3 
   62000    1.2352259   -6.0680283    27.694844  0.037224253   0.04616102            1 
   63000    1.2358902    -6.112736    28.207962  0.037312118  0.046158129            2 
   64000    1.2706934   -6.0638186    28.599109  0.037238423  0.046136996            2 
   65000    1.2330506   -6.1071162    28.984421  0.037159514  0.046096973            2 
   66000    1.2268207   -6.0773284    29.554737  0.037316586  0.046055567            3 
   67000    1.2689761   -6.1211164    30.073528  0.037404886  0.046012218            3 
   68000    1.2524337   -6.0498394    30.658208  0.037571334  0.045977575            2 
   69000    1.2338891   -6.0785401    30.956914  0.037387577  0.045920883            3 
   70000    1.2482174    -6.051014    31.806676   0.03786509  0.045865146            2 
   71000    1.2462421   -6.0657651    32.271874  0.037877786   0.04582804            3 
   72000    1.2393642   -6.0727818    32.957614  0.038145386  0.045801037            1 
   73000    1.2157399   -6.0042071     33.56681  0.038318276  0.045788116            1 
   74000    1.2372844   -6.0686376    33.944975  0.038226323  0.045774152            2 
   75000    1.2189937   -6.0726731    34.615888  0.038462097   0.04575772            3 
   76000    1.2431895   -6.0966374    35.143921  0.038535001  0.045735861            2 
   77000    1.2275059   -6.0854867    35.648117  0.038580213  0.045726128            3 
   78000     1.244387   -6.0846531    35.845488  0.038296461  0.045713111            2 
   79000    1.2397562   -6.0724853    36.601009  0.038608659  0.045683166            3 
   80000    1.2396193    -6.073856     37.32218  0.038877271  0.045656638            3 
   81000    1.2212125   -6.0972384    37.544874  0.038626413  0.045634494            5 
   82000    1.2577471   -6.0593456    38.149855  0.038770178  0.045605592            2 
   83000     1.226986   -6.1026182    38.656844  0.038812092  0.045572531            5 
   84000      1.25241   -6.0597604    39.128108  0.038817567  0.045538315            1 
   85000    1.2471174   -6.1203234    39.619036  0.038842192  0.045507106            3 
   86000    1.2510181   -6.0592219    40.148063  0.038903162  0.045474652            4 
   87000    1.2274843    -6.078508     40.61071  0.038899147  0.045435388            3 
   88000    1.2235607   -6.0951014    41.084882  0.038906138  0.045389214            3 
   89000    1.2279572   -6.0993498    41.609429  0.038960139  0.045339796            4 
   90000    1.2578946   -6.0731163    41.903489  0.038799527  0.045293811            5 
   91000    1.2456216   -6.0989101    42.584446  0.038996745  0.045250415            4 
   92000    1.1957208   -6.0376002      43.1604  0.039094565  0.045207016            3 
   93000    1.2735358   -6.0737192    43.555803  0.039028497  0.045163586            1 
   94000    1.2328816   -6.0896049    44.250189   0.03922889  0.045131861            3 
   95000    1.2583184   -6.0885268    44.675042  0.039188633  0.045103448            4 
   96000    1.2384373   -6.1103958    45.211314  0.039245932  0.045076071            5 
   97000    1.2137398   -6.1087101    45.634288  0.039204714  0.045040279            2 
   98000    1.2616685   -6.0804674    46.134009  0.039229599   0.04499929            1 
   99000    1.2525815   -6.0778495    46.397515  0.039055147  0.044952047            2 
  100000    1.2235238   -6.0768441    47.182027  0.039318356  0.044902571            4 
  101000    1.2378916   -6.0757128    47.774355  0.039417785  0.044866971            2 
  102000    1.2366767   -6.0449566    48.452154  0.039585093  0.044835987            2 
  103000    1.2660349   -6.0942013    48.597535  0.039318394  0.044801696            2 
  104000    1.2370287   -6.0986496    49.119859  0.039358861  0.044761704            2 
  105000    1.2266272   -6.1052825    49.724508  0.039463895  0.044724142            3 
  106000    1.2489316   -6.0421135      50.6465  0.039816431  0.044699919            2 
  107000    1.2364734   -6.1256661    51.086372  0.039786894  0.044688353            5 
  108000    1.2344553   -6.0873523    51.603149  0.039817244  0.044673351            3 
  109000    1.2266787   -6.0936231    51.899107  0.039678216  0.044648915            3 
  110000    1.2430338   -6.0767558    52.627251  0.039869129  0.044626645            2 
  111000    1.2249412    -6.058125    53.089243  0.039856789  0.044606999            2 
  112000    1.2362122   -6.0832603    53.676775  0.039938077  0.044587124            3 
  113000    1.2105211   -6.1133135    54.209831  0.039977751  0.044567906            3 
  114000    1.2346493   -6.0737429    54.551709   0.03987698  0.044549465            2 
  115000    1.2145259   -6.0766031    55.315735  0.040083866  0.044530604            2 
  116000    1.2473064   -6.1210815    55.580979  0.039928864  0.044513582            2 
  117000    1.2150487   -6.0639879    56.139527  0.039985418  0.044489004            2 
  118000    1.2463468   -6.0507264    56.347576  0.039793486   0.04446223            2 
  119000    1.2472975   -6.1199083     57.38283  0.040184054  0.044442241            3 
  120000    1.2460709   -6.0863785    57.604897    0.0400034  0.044421323            3 
  121000    1.2264022   -6.1180004    57.999637  0.039944653  0.044397533            3 
  122000    1.2477649   -6.0612415    58.487596  0.039950544  0.044367607            2 
  123000    1.2505552   -6.1269438    58.908301  0.039910773  0.044336369            3 
  124000    1.2088148   -6.0888573    59.475737  0.039970253  0.044306029            2 
  125000    1.2252698   -6.0792162     60.28123  0.040187486  0.044279691            1 
  126000    1.2243792   -6.0743302    60.572065  0.040060889  0.044257882            4 
  127000    1.2210948   -6.0833142    61.137818  0.040116678  0.044239973            1 
  128000    1.2474695   -6.1028166     61.56095  0.040078743  0.044224102            2 
  129000     1.251033   -6.0936164    62.389363  0.040303206  0.044209716            3 
  130000    1.2482682   -6.1432144    62.414298  0.040009165  0.044194963            7 
  131000    1.2336374   -6.0989746     63.52225  0.040408556  0.044174114            1 
  132000    1.2561461   -6.1087628    63.440683  0.040050936  0.044152801            2 
  133000    1.2182748   -6.0686384    64.259875  0.040263079  0.044128664            3 
  134000    1.2251938   -6.0926535    64.566768  0.040153463  0.044104094            3 
  135000    1.2427907   -6.0665491    64.975037  0.040108047  0.044081893            2 
  136000    1.2306058   -6.1013433    65.468459  0.040115477  0.044056852            4 
  137000    1.2311321   -6.1119956    65.793623  0.040020452  0.044029282            2 
  138000     1.217923   -6.0703525    66.230849  0.039994474  0.044000138            2 
  139000    1.2114199   -6.0671708    67.225401  0.040302998  0.043975881            3 
  140000    1.2496528   -6.1418723    67.693873  0.040293972  0.043957847            7 
  141000    1.2233434   -6.1066401    68.181055  0.040296132   0.04394221            2 
  142000    1.2269293   -6.0627017    68.480048  0.040187821  0.043926691            3 
  143000    1.2033718   -6.0464769    69.426258  0.040458192  0.043909938            4 
  144000    1.2473073   -6.0878607     69.63232  0.040296481  0.043894822            3 
  145000     1.219055   -6.0946886    70.011344  0.040236404  0.043875408            3 
  146000    1.2335077   -6.0903913    70.421287  0.040194799  0.043855591            2 
  147000    1.2242909   -6.1351054    70.878567  0.040180593  0.043831037            6 
  148000    1.2120563   -6.0994733    71.272225  0.040130757  0.043804254            2 
  149000    1.2102911   -6.1017677    71.552123  0.040017966  0.043775495            3 
  150000    1.2217938   -6.0741156    72.403714  0.040224286  0.043750512            2 
  151000    1.2558214    -6.076804    72.797581  0.040175265  0.043727636            7 
  152000     1.259756      -6.1038     73.12217  0.040088909  0.043699601            1 
  153000    1.2348047   -6.0868842      73.5175  0.040042211  0.043668721            3 
  154000    1.2239812   -6.0841402    73.870985  0.039973477  0.043637588            2 
  155000    1.2549503      -6.1252    74.480956  0.040043524  0.043607022            4 
  156000    1.2390242   -6.1248194    74.867416  0.039993278  0.043579276            2 
  157000    1.2547517   -6.1131268    75.355912   0.03999783  0.043551461            3 
  158000     1.193359   -6.1061664    75.668653  0.039909627  0.043519939            2 
  159000    1.2290907   -6.1270935    76.136104  0.039903619  0.043484905            6 
  160000    1.2037645   -6.1458801    76.778498  0.039988801  0.043450085            3 
  161000    1.2416021   -6.0867632    77.190661  0.039953758  0.043413601            3 
  162000    1.2348625   -6.0970288    77.565362  0.039899878  0.043380609            3 
  163000    1.2310198   -6.0736669    78.284743  0.040022875  0.043350405            3 
  164000    1.2308777   -6.0919168    78.882148  0.040082392  0.043318189            4 
  165000    1.1987336   -6.1296553    78.930144  0.039863709  0.043288382            2 
  166000    1.2662885   -6.0777075    79.674899  0.039997439  0.043257748            1 
  167000    1.2188221   -6.0918175    80.052026  0.039946121  0.043225236            2 
  168000     1.212718   -6.0834303     80.61745  0.039988814   0.04319655            3 
  169000     1.222704   -6.0904532    80.994995   0.03993836  0.043169064            5 
  170000    1.2216561   -6.1011649     81.75958  0.040078225  0.043142582            4 
  171000    1.2514398   -6.0932622    82.699226  0.040301767  0.043122554            3 
  172000    1.2342514   -6.1201349    83.025957  0.040225754   0.04310414            3 
  173000    1.2098954   -6.0798169    83.550259   0.04024579  0.043084112            3 
  174000    1.2197151   -6.0572068    84.135416  0.040294739  0.043064946            2 
  175000    1.2048051    -6.063069    84.424553  0.040202168  0.043045602            2 
  176000    1.2342846   -6.1352745    85.149871  0.040317174  0.043028758            4 
  177000    1.2394584   -6.0763452    85.766342  0.040379634  0.043011659            3 
  178000    1.2268099   -6.1328123    85.784458  0.040161263  0.042993391            5 
  179000    1.2234822   -6.1315931    86.346362  0.040198492  0.042978118            6 
  180000    1.2466085   -6.1356959    87.194987   0.04036805  0.042961106            2 
  181000    1.2246996   -6.1159294    87.653473  0.040356111  0.042947569            4 
  182000    1.2262068   -6.1241335    87.786549  0.040195306  0.042932843            1 
  183000    1.2255015   -6.0952409    88.956739  0.040508533    0.0429202            3 
  184000    1.2168815   -6.1349618    89.328032  0.040456536  0.042910931            3 
  185000    1.2529363   -6.0913784    89.786806  0.040444507  0.042899325            2 
  186000    1.2264162   -6.0949935    90.337111  0.040473616  0.042889912            3 
  187000    1.2552461   -6.0851579    90.894921  0.040505758  0.042882559            4 
  188000    1.2284006   -6.1012864    91.476848  0.040548248  0.042875283            3 
  189000    1.2256395   -6.1065496    91.741643   0.04045046  0.042867144            3 
  190000     1.225013   -6.1131767    92.425357  0.040537437  0.042859526            3 
  191000    1.2104233   -6.1026289    92.629254   0.04041416  0.042850384            3 
  192000    1.2231955   -6.0886391    93.329662  0.040507666  0.042839335            2 
  193000    1.2118824   -6.1104635     93.28952  0.040280449  0.042828663            8 
  194000    1.2154286   -6.1395382    93.970589  0.040365373  0.042816081            2 
  195000    1.1899761   -6.0524889    95.043807  0.040617011  0.042803976            2 
  196000    1.1959597   -6.0802485    95.401008  0.040561653  0.042796035            3 
  197000    1.2210623   -6.1364093    95.253182  0.040293224  0.042785916            2 
  198000    1.2271028   -6.1169399    96.439084   0.04058884  0.042775617            1 
  199000    1.1991598   -6.1386309    96.694905  0.040492004  0.042765692            3 
  200000    1.2179568   -6.0811816    97.759079  0.040732949   0.04275766            6 
  201000    1.2126409   -6.1502499    97.757586  0.040529679  0.042752582            2 
  202000    1.2153343   -6.1244883    98.466244  0.040621388  0.042747747            2 
  203000    1.2032846   -6.1018888    99.253119  0.040744302  0.042743021            2 
  204000    1.2263377   -6.1411817    99.152033  0.040503281  0.042736323            2 
  205000    1.2230085   -6.0886671     100.0096  0.040654308  0.042729866            1 
  206000    1.2369302    -6.086365    100.22067  0.040542342  0.042720155            3 
  207000    1.1981903    -6.097969    100.50371  0.040460429  0.042707192            3 
  208000    1.2211704   -6.1385481    100.35889  0.040207887  0.042693505            4 
  209000    1.2076447   -6.1069934    101.56973  0.040498295  0.042680384            2 
  210000    1.2130757   -6.0927577    102.23056  0.040567682  0.042670796            2 
  211000    1.2256454   -6.1210699     102.7355  0.040574842  0.042663393            2 
  212000    1.2221262    -6.100883    102.88637  0.040442754  0.042654343            4 
  213000    1.2226407   -6.1585136    103.34407  0.040431953  0.042644953            4 
  214000    1.1637885   -6.1093692    103.68742   0.04037672  0.042631796            2 
  215000    1.2318081   -6.1168911    104.33848   0.04044127  0.042618044            2 
  216000    1.2177558   -6.0875889    104.66888  0.040381513  0.042603924            3 
  217000    1.2235728   -6.1320344    104.85898  0.040268425  0.042589592            3 
  218000    1.2218605   -6.1250975     105.8861  0.040476339  0.042576839            3 
  219000    1.2077683   -6.1481792    105.88015   0.04028925  0.042561237            5 
  220000    1.2117082   -6.1393227    106.64303  0.040395086  0.042545564            3 
  221000    1.2494537   -6.1013176    107.35127  0.040479363  0.042532291            4 
  222000    1.2025183   -6.1017235     107.5481  0.040370908  0.042520574            5 
  223000    1.2446867    -6.098793    108.47058  0.040534596  0.042509823            4 
  224000    1.2174161   -6.1421635    108.65701  0.040422994  0.042500509            5 
  225000    1.2093835    -6.129503    109.70579  0.040631775   0.04249158            3 
  226000    1.2278103   -6.1210031    110.19979  0.040634141  0.042484218            2 
  227000    1.2187012   -6.1113659    111.19914  0.040822005  0.042480385            1 
  228000    1.2078891   -6.1210025    111.83525  0.040875456  0.042477435            9 
  229000    1.1990787   -6.1225342     112.1896  0.040825911  0.042475951            4 
  230000    1.2367903   -6.0902929    112.36144  0.040710666  0.042475382            2 
  231000    1.2259362   -6.0960727    113.28988  0.040869365  0.042474662            2 
  232000    1.2144948   -6.1193338    113.69199  0.040837639  0.042472037            8 
  233000    1.2192993   -6.1050463    114.07476  0.040799272   0.04246695            5 
  234000    1.2264085   -6.1209493    114.68065  0.040840686  0.042464295            2 
  235000    1.2155061   -6.1262817    115.20038  0.040851199  0.042460903            2 
  236000    1.1984443   -6.1233415     115.9982  0.040959817  0.042459478            2 
  237000    1.1982407   -6.1008748    116.20428  0.040859453  0.042457954            4 
  238000    1.2256508   -6.1110708    117.01822  0.040972766  0.042457746            3 
  239000    1.2050706   -6.1387598    118.11975  0.041185408  0.042459862            2 
  240000    1.2342839   -6.1220467    117.81966  0.040909603  0.042459451            3 
  241000    1.2305167    -6.149959    118.42264  0.040948353  0.042458967            7 
  242000    1.2330197   -6.1226723    118.68542  0.040869635  0.042456901            2 
  243000    1.2219345   -6.0722514    119.47439  0.040972013  0.042456058            2 
  244000    1.2214703   -6.1305593    120.00751   0.04098617  0.042455422            6 
  245000    1.1814372   -6.0953589    120.22905  0.040894236  0.042452837            1 
  246000    1.2330486   -6.1273832    120.39263  0.040783413  0.042449098            4 
  247000    1.2024316   -6.1307744    120.57863  0.040681049  0.042444191            5 
  248000    1.2267965   -6.1401097    120.84468  0.040606411  0.042439259            5 
  249000    1.2190055   -6.1309252    121.57008  0.040686104  0.042431302            4 
  250000    1.2084171   -6.1258144    122.07371  0.040691237  0.042423343            1 
  251000    1.2202468   -6.1317567    122.47026  0.040660776  0.042417169            1 
  252000    1.2039246   -6.1440753    123.41233  0.040810956  0.042410389            3 
  253000    1.2250481   -6.1542159    123.64107  0.040724991  0.042406019            4 
  254000    1.2428861   -6.1157644    124.52859  0.040855835  0.042401248            2 
  255000    1.2222073   -6.1480905     124.6085  0.040721733  0.042395772            4 
  256000    1.1923266   -6.1196212    124.99398  0.040688144  0.042389474            8 
  257000    1.2155908   -6.1357629    125.66059  0.040745977  0.042383246            3 
  258000    1.2037077   -6.1030573    125.84519  0.040647671  0.042375691            4 
  259000    1.1983904   -6.1504137    126.28413   0.04063196   0.04236959            1 
  260000     1.199804   -6.1114101     127.5293  0.040874775  0.042363083            4 
  261000    1.2055179   -6.1278823    127.51928  0.040714969  0.042359687            3 
  262000    1.1898836   -6.1621742    128.13635  0.040755836  0.042353974            4 
  263000    1.2127384    -6.099242    128.82107   0.04081783  0.042348398            2 
  264000    1.2293355   -6.1260618    128.84644  0.040671224  0.042341294            4 
  265000    1.1963061   -6.1258449    129.98424  0.040875548  0.042334348            4 
  266000    1.2030142   -6.1524791    129.89584  0.040694184  0.042328256            5 
  267000    1.2239859   -6.1255365    130.06787  0.040595464  0.042319364            6 
  268000    1.1997652   -6.0957366    130.59901  0.040609144  0.042309539            2 
  269000    1.2095369   -6.1443326    131.11911  0.040619303  0.042299539            3 
  270000    1.1872124   -6.1513524    131.28594  0.040520352  0.042289932            2 
  271000    1.2125513   -6.1133836    132.25691  0.040669406  0.042280378            2 
  272000    1.2178745   -6.1415319    132.79567  0.040684947  0.042272292            4 
  273000    1.2196665   -6.1586345    133.02286  0.040605268  0.042264582            3 
  274000    1.1941878   -6.1474432      133.221  0.040517334   0.04225644            2 
  275000     1.212585   -6.1494175    134.40939  0.040730118  0.042248553            4 
  276000    1.2068095   -6.0997212    135.71651  0.040977208  0.042241765            3 
  277000    1.1942514   -6.1221366    135.65765  0.040811568  0.042234594            2 
  278000    1.2370451   -6.1281159    135.66519  0.040667023  0.042228204            1 
  279000    1.2148841   -6.1321976    136.67614  0.040823221  0.042221747            2 
  280000    1.2330557   -6.1139165    136.72613    0.0406923  0.042217233            4 
  281000    1.2404382   -6.1192425    137.32171  0.040724113  0.042212512            6 
  282000    1.1953548    -6.147282    137.74114  0.040703647  0.042207921            3 
  283000    1.1820937    -6.205357    138.05008   0.04065079  0.042201115            3 
  284000    1.2080663   -6.1092864    138.44748   0.04062426  0.042194712            2 
  285000    1.2228913   -6.1003265    139.12838  0.040680813  0.042187427            3 
  286000    1.2228341   -6.1200196    139.58133  0.040670551  0.042179201            3 
  287000    1.1912377   -6.1388081    139.69228  0.040561057  0.042172518            4 
  288000    1.2312953    -6.159941    139.97652  0.040502465  0.042163256            2 
  289000    1.2151246   -6.0940547    141.05485  0.040673255   0.04215462            5 
  290000    1.1989775   -6.1532072    141.58111  0.040684226  0.042146659            3 
  291000    1.1663165   -6.1151205    142.39351  0.040777065  0.042140407            2 
  292000    1.1724206   -6.0969668     142.8079  0.040755679  0.042135612            3 
  293000    1.2068117    -6.137864    143.22382  0.040734875  0.042130013            4 
  294000     1.202383   -6.1372041    143.80208  0.040760228   0.04212353            2 
  295000    1.1911659   -6.1743355     143.9547   0.04066517  0.042118247            2 
  296000    1.1786363   -6.1067152    145.49934  0.040962652  0.042113735            2 
  297000    1.2069519   -6.1566304    144.64089  0.040583864  0.042108706            3 
  298000    1.1818348   -6.1407304    145.56612   0.04070641  0.042102864            3 
  299000    1.2078999   -6.1227059    146.19906  0.040746673  0.042097031            2 
  300000    1.2000987   -6.1593051    146.66591  0.040740529  0.042091475            4 
  301000    1.2187931   -6.1369363    147.15885  0.040741654  0.042084807            5 
  302000    1.1886123   -6.1734993    147.75868  0.040772264   0.04208066            4 
  303000    1.2088416   -6.1128826    148.56704  0.040860022   0.04207687            4 
  304000    1.2170692   -6.1402607    148.99713  0.040843513  0.042072862            2 
  305000    1.2103366   -6.1304791     149.6512  0.040888307   0.04206825            2 
  306000    1.2234005    -6.142862    149.33276  0.040667962   0.04206451            1 
  307000    1.2039459   -6.1268724    150.44523  0.040837467  0.042061009            4 
  308000    1.2270878   -6.1589504    150.39529  0.040691366  0.042057517            3 
  309000    1.1977412   -6.1442841    150.51285  0.040591384  0.042051843            3 
  310000    1.1997784   -6.1530454    151.63802   0.04076291  0.042046168            3 
  311000    1.1836041   -6.1418915    152.56252  0.040879561  0.042041911            2 
  312000    1.2123131   -6.1410579    152.47647  0.040725554  0.042036798            1 
  313000    1.2070588   -6.1693054    153.22942  0.040795906  0.042032396            4 
  314000    1.1967317   -6.1728791    152.68331  0.040521048  0.042026457            2 
  315000    1.1967946   -6.1147666    153.75485  0.040675885  0.042020307            3 
  316000    1.1971678   -6.1645692    154.09194   0.04063606  0.042013249            2 
  317000     1.200285   -6.1559798    154.60825  0.040643598  0.042006187            7 
  318000    1.1950635   -6.1436308    154.61726  0.040518149  0.041998745            3 
  319000    1.2078133   -6.1389916     155.7543  0.040688166  0.041991651            4 
  320000     1.171972   -6.1162896    156.54019  0.040765674  0.041984799            3 
  321000    1.2005014   -6.1726778    157.08295  0.040779581  0.041979392            5 
  322000    1.1913329   -6.1957314    157.41979  0.040740112  0.041974164            2 
  323000      1.22007   -6.1202838    157.62142  0.040666001  0.041968415            3 
  324000    1.1721942   -6.1292486    158.43406    0.0407495   0.04196263            2 
  325000     1.211192   -6.1061196    158.83172  0.040726081  0.041957417            7 
  326000    1.1748962   -6.1267895    159.48018  0.040766917   0.04195322            8 
  327000    1.1689892   -6.1410856    160.50186  0.040902614  0.041949357            2 
  328000    1.2067579   -6.1172118    161.23468  0.040964095  0.041945975            3 
  329000    1.1861207   -6.1264878    161.20438   0.04083191  0.041942656            1 
  330000    1.1954205    -6.148376     161.7047  0.040834519  0.041939418            7 
  331000    1.1906637   -6.1577723    162.57917  0.040931312  0.041936009            3 
  332000    1.2033141   -6.1645805    162.93842  0.040898197  0.041933431            6 
  333000    1.2283027   -6.1552281    162.64269  0.040701373  0.041929866            3 
  334000    1.1950357   -6.1614928    163.82792   0.04087523  0.041925717            3 
  335000    1.2126286   -6.1585039    163.33518  0.040630642  0.041920959            2 
  336000    1.1879912    -6.141803    164.32195  0.040754452  0.041915443            2 
  337000    1.2026946   -6.1622685    164.31505  0.040631813  0.041910158            5 
  338000     1.182289    -6.153025     164.6115  0.040584689  0.041903208            3 
  339000    1.2271218   -6.1170231    165.60427  0.040709014    0.0418959            2 
  340000    1.1867418   -6.1274675    166.15838  0.040725092  0.041890585            4 
  341000    1.1968493   -6.1064791    167.06271  0.040826663  0.041884844            4 
  342000    1.1795873   -6.1114263    166.71913   0.04062357  0.041878548            1 
  343000    1.2008411   -6.1732096    167.40304  0.040671292  0.041872076            2 
  344000    1.1993958   -6.1225327    168.51072  0.040821394  0.041867224            3 
  345000    1.1660541    -6.178281    167.95986  0.040570013  0.041861447            3 
  346000    1.2080966   -6.1654451    168.56764  0.040599143   0.04185503            3 
  347000    1.1787354   -6.1276858    169.68416  0.040750278  0.041849912            3 
  348000    1.1869817   -6.1366163    170.10757  0.040734572  0.041845109            5 
  349000    1.1919704   -6.1557721    171.13947  0.040864248  0.041840895            4 
  350000    1.1823793   -6.1476906    170.42055   0.04057632  0.041837512            4 
  351000    1.2082303   -6.1279631    172.68726  0.040998875  0.041836016            3 
  352000    1.1830844   -6.1495967     172.3897  0.040811955  0.041834059            2 
  353000    1.1899874   -6.1497914    173.51168  0.040961208  0.041832915            5 
  354000    1.1827948    -6.187074    172.88937  0.040699003  0.041829152            5 
  355000    1.1957212   -6.1184594    174.33388  0.040923446  0.041825681            3 
  356000    1.1736423   -6.1490527    174.72672  0.040900449   0.04182189            4 
  357000    1.1996723   -6.1520234    174.76547  0.040794928  0.041818981            5 
  358000    1.2118903   -6.1306037    174.92383  0.040717838  0.041815042            2 
  359000    1.2105117   -6.1529313    175.25698   0.04068175  0.041810187            3 
  360000     1.175267   -6.1367588    176.05461  0.040753382  0.041805744            2 
  361000    1.1727341   -6.1655299    176.24088  0.040683491  0.041800568            4 
  362000    1.1948889   -6.1636035    176.40563   0.04060903  0.041794993            2 
  363000    1.2174173   -6.1620442    176.44434  0.040506046  0.041789162            6 
  364000    1.1758479   -6.1747535    177.26372  0.040582354  0.041782078            3 
  365000    1.2070143   -6.1384775    178.42781  0.040736944  0.041776193            4 
  366000    1.2014313   -6.1454097    178.49628   0.04064123  0.041770358            2 
  367000    1.1770788   -6.1597108    178.95957  0.040635688  0.041764689           16 
  368000    1.1798878   -6.1731139    180.09052  0.040781368  0.041759864            3 
  369000    1.1842094   -6.1525123    180.55322  0.040775343  0.041755598            3 
  370000    1.1777955   -6.1687318    180.75293  0.040710119  0.041751605            2 
  371000    1.1790615   -6.1361422    182.17232  0.040919209  0.041747838            3 
  372000    1.1805324   -6.1474444    181.71084  0.040705833  0.041743962            5 
  373000    1.1780908    -6.168431    181.75455  0.040606468  0.041738542            4 
  374000    1.2015043   -6.1656391    182.13648  0.040582996  0.041733224            5 
  375000    1.1821817   -6.1537363    182.73983   0.04060885   0.04172706            4 
  376000    1.2157509   -6.1488556    183.24985  0.040613885  0.041721069            2 
  377000      1.22471    -6.159236    183.96799  0.040664897  0.041716009            2 
  378000     1.201735   -6.1340404    184.25057  0.040619614  0.041710892            2 
  379000    1.2051394   -6.1323514    184.49906  0.040567075  0.041705562            3 
  380000    1.1984889   -6.1482448    185.31132  0.040638447  0.041700054            3 
  381000    1.1611457   -6.1788782    185.66261  0.040608621  0.041694675            2 
  382000    1.1823249   -6.1192773    186.61987  0.040711141  0.041689361            4 
  383000    1.1880373    -6.173635    186.94999  0.040676672  0.041683556            4 
  384000    1.1716456   -6.1819838     186.5053   0.04047424  0.041677366            5 
  385000     1.198074   -6.1518872    186.83744  0.040441005  0.041671056            3 
  386000    1.1990738   -6.1466263    187.73617  0.040530261  0.041663734            3 
  387000    1.2085077   -6.1299894    188.77383  0.040648973  0.041656649            2 
  388000    1.1923521   -6.1411708    189.32229  0.040662003  0.041650436            3 
  389000    1.1986521   -6.1620698    189.57562  0.040611743  0.041644282            2 
  390000    1.1866208   -6.1645126    189.94959   0.04058752  0.041638566            3 
  391000    1.1813474   -6.1257662    190.57494  0.040616994  0.041631394            3 
  392000    1.1996737    -6.148648    191.21549  0.040649551  0.041625454            2 
  393000    1.1792941   -6.1971191    191.24754  0.040552914  0.041619706            3 
  394000    1.1745319   -6.1769447    192.39759  0.040693229  0.041613555            3 
  395000    1.1807792   -6.1550262    192.63834  0.040641001  0.041607803            4 
  396000    1.2159887   -6.1707197    192.88014  0.040589254  0.041602939            3 
  397000     1.192491   -6.1655756    193.10008  0.040533183  0.041597488            3 
  398000    1.1862243    -6.157955    193.56614  0.040528924  0.041592296            6 
  399000    1.2087206   -6.1203702    194.40672  0.040602907   0.04158725            6 
  400000    1.2136286   -6.1748819    194.58213  0.040537943  0.041580216            3 
  401000    1.1968388   -6.1606194    194.29509    0.0403772  0.041572983            4 
  402000    1.1935224   -6.1763878    195.33325  0.040491968  0.041565553            4 
  403000    1.1925538   -6.1874536    195.09999  0.040343257  0.041558175            3 
  404000    1.1836791   -6.1061376    196.52466  0.040537265  0.041551401            4 
  405000    1.1972666   -6.1682827    196.85633  0.040505417  0.041545265            7 
  406000    1.1812948   -6.1650244    196.97838  0.040430703  0.041539095            2 
  407000    1.1895526   -6.1953426    197.86717  0.040513343  0.041532892            5 
  408000    1.1775449    -6.202179    197.27496  0.040293089  0.041526113            3 
  409000    1.1696657   -6.1527471    198.13222  0.040369238  0.041519402            4 
  410000    1.1910677    -6.169869    198.94125  0.040435214  0.041512208            2 
  411000     1.175195   -6.1661013    199.50088    0.0404503  0.041505261            6 
  412000    1.1710539   -6.1574311    200.17158  0.040487779   0.04149891            5 
  413000    1.2083759   -6.2032909    200.67712   0.04049175   0.04149174            2 
  414000    1.1612847   -6.1342874    200.96439   0.04045177  0.041484682            3 
  415000    1.1563632   -6.1602755    201.52225  0.040466315  0.041477482            4 
  416000    1.1951121   -6.1965485    201.66739  0.040398115  0.041470569            2 
  417000    1.1819299   -6.1879503    203.19401  0.040606316  0.041464575            4 
  418000    1.1914527   -6.1643294    202.94394  0.040459318  0.041458262            3 
  419000    1.2107076   -6.1928033    203.16742  0.040407203  0.041452095            4 
  420000    1.1938477   -6.1610294    204.53275  0.040581895  0.041447433            4 
  421000    1.1782463    -6.197175    204.82578  0.040543504   0.04144265            4 
  422000    1.1823994    -6.166532    205.70064   0.04062019  0.041437896            5 
  423000    1.1721197   -6.1672174    205.40241  0.040465407  0.041433154            2 
  424000    1.1746492   -6.1927483    206.44151  0.040574197  0.041427553            2 
  425000    1.1856542   -6.1377227    207.24641  0.040636551  0.041422815            3 
  426000    1.2114534   -6.1743624    207.49687  0.040590154  0.041418789            2 
  427000    1.2148848   -6.1633297    207.77483  0.040549342  0.041414603            2 
  428000    1.1717457   -6.1523936    207.68515   0.04043714  0.041410831            2 
  429000    1.2081024   -6.1463442    208.78261  0.040556063  0.041405938            2 
  430000    1.1789483   -6.1783155    208.88595  0.040481774  0.041400286            3 
  431000    1.1746889   -6.1477457    208.84114  0.040379183  0.041394821            4 
  432000    1.1751961   -6.2105291    208.90732  0.040298479  0.041388578            6 
  433000    1.1901136   -6.1757197    208.91323  0.040206548  0.041381286            1 
  434000    1.1618657   -6.1743357    209.47611  0.040221986  0.041373357            6 
  435000    1.1784338   -6.1712291    209.31968  0.040099555   0.04136405            2 
  436000    1.1890112    -6.184405    210.80569  0.040291608  0.041355733            1 
  437000    1.1635619   -6.1748982    211.17599  0.040270022  0.041346866            4 
  438000    1.1881793   -6.1700117    212.56829  0.040442978  0.041339099            3 
  439000    1.1613543    -6.153734    212.19215  0.040279452  0.041332151            3 
  440000     1.206289   -6.1638809    213.33734  0.040404799  0.041326114            5 
  441000    1.1759332   -6.1908084    214.19227  0.040474731  0.041321145            3 
  442000    1.1725629   -6.1850576    214.00867  0.040348543  0.041316067            2 
  443000    1.1829733   -6.1449852    214.72265  0.040391769  0.041311528            3 
  444000    1.1750685   -6.2076408    215.20791  0.040391876  0.041306999            2 
  445000    1.1785016   -6.1862298    216.33392   0.04051197  0.041302483            3 
  446000    1.1614508   -6.1690279    216.29741  0.040414314  0.041297997            2 
  447000     1.184947   -6.1774857    217.58308  0.040563587  0.041292867            2 
  448000    1.1907701   -6.1924973    217.27256  0.040415283  0.041288363            2 
  449000    1.1874713    -6.184087    218.35624  0.040526399  0.041283874            3 
  450000    1.1758882   -6.2093884    218.41772  0.040447726  0.041280102            4 
  451000    1.1700819    -6.160146    219.15967  0.040495135  0.041275725            7 
  452000    1.1846449   -6.2141238    219.80035  0.040523664  0.041272108            7 
  453000    1.1665014   -6.1936007    220.02939  0.040476341  0.041269135            6 
  454000    1.1812417   -6.1599951    221.49425  0.040656067  0.041265958            2 
  455000    1.1820593   -6.1703295    221.24904  0.040521802  0.041262027            7 
  456000    1.1613308    -6.187698    221.72473  0.040519871  0.041258356            2 
  457000    1.1779978   -6.1893759    222.29268  0.040534769   0.04125454            3 
  458000    1.1795764   -6.1675476    222.87763  0.040552698  0.041251494            3 
  459000    1.1683279   -6.1813866    223.38847  0.040557092  0.041248125            3 
  460000    1.1827791    -6.189753    223.77768  0.040539436  0.041244645            4 
  461000    1.1680487   -6.1861904    223.46576  0.040395113  0.041241332            5 
  462000    1.1966412   -6.1935244     224.7945  0.040547349  0.041237858            3 
  463000    1.2096975   -6.2006203    225.69541  0.040621924  0.041234684            3 
  464000    1.2033989   -6.2194388     225.9294  0.040576401  0.041232228            4 
  465000    1.1924877   -6.1576648      226.458   0.04058387  0.041229679            2 
  466000    1.1522134    -6.194604    226.22909  0.040455846  0.041227057            3 
  467000    1.1665492   -6.1488576     227.2584  0.040552891  0.041223746            2 
  468000    1.1755204   -6.1800952    227.44762  0.040499932  0.041220919            6 
  469000    1.1830813   -6.1913307     227.9914  0.040510199  0.041218113            3 
  470000    1.1554068   -6.1800539    228.17297    0.0404562  0.041214036            1 
  471000    1.1754754   -6.1563814    229.12968  0.040539576  0.041210248            2 
  472000    1.1905319   -6.1611767    229.97445  0.040602833  0.041207882            1 
  473000    1.1780697   -6.1356048    230.30874  0.040575887  0.041205185            3 
  474000    1.1802604   -6.1828596    230.27679  0.040484667  0.041202419            3 
  475000    1.1743821   -6.2043144    230.33751  0.040410089  0.041199043            5 
  476000    1.1511138   -6.1793929    231.56481  0.040540058  0.041195331            4 
  477000    1.1831546   -6.1764342    231.39243  0.040424952  0.041190725            4 
  478000     1.187883   -6.1705397    232.69196  0.040566938  0.041185846            2 
  479000    1.1901638   -6.1562719    232.02595  0.040366379  0.041180894            5 
  480000    1.1619071   -6.2021913    232.30279  0.040330346  0.041175555            7 
  481000    1.1970506   -6.1859165    232.49809  0.040280335  0.041171029            3 
  482000    1.1712364   -6.1890777     233.2338  0.040323962  0.041166528            1 
  483000    1.1841038   -6.1830715    233.74404  0.040328509  0.041162207            2 
  484000    1.1713655   -6.2011571    234.97175  0.040456568   0.04115756            3 
  485000    1.1489733   -6.1783582    235.53582  0.040470073  0.041152362            3 
  486000     1.182934   -6.1857671    235.69653  0.040414357  0.041147991            3 
  487000    1.1644195   -6.2186233    235.81051  0.040350875  0.041143848            2 
  488000    1.1552667   -6.1827258    236.92592   0.04045866  0.041140458            2 
  489000    1.1962506   -6.1426714    237.74847  0.040516099  0.041137899            2 
  490000    1.1634507   -6.1697182     238.8518  0.040621054  0.041135844            3 
  491000    1.1817184   -6.1791758    238.24275  0.040434953  0.041134183            2 
  492000    1.1417265   -6.1859674    238.95968    0.0404742  0.041131858            5 
  493000    1.1701381   -6.1864242    239.23744  0.040439053   0.04112939            3 
  494000     1.162428   -6.1810247    239.41254   0.04038673  0.041126286            4 
  495000    1.1723205   -6.1999441    240.61148  0.040506984  0.041122735            5 
  496000    1.1824206   -6.2239477     240.5572  0.040416197  0.041119174            2 
  497000    1.1772052   -6.2089548     240.8681  0.040387005   0.04111613            3 
  498000    1.1683292    -6.183643    240.97556  0.040323889  0.041113228            4 
  499000    1.1788071   -6.2045589    241.47243  0.040326057  0.041109102            3 
  500000    1.1743094   -6.2062731    242.03966  0.040339944  0.041104532            7 
  501000     1.184152   -6.2246982    242.73869  0.040375696   0.04109997            2 
  502000    1.2090604   -6.1299002    244.38207  0.040568073  0.041096044            3 
  503000    1.1680997   -6.2465628    243.15629  0.040284342  0.041092574            7 
  504000    1.1358584   -6.1838579    244.85314  0.040484977  0.041087862            3 
  505000    1.1566184   -6.1792548    244.25912  0.040306785  0.041082674            4 
  506000    1.1503998   -6.1567279    244.61809  0.040286247  0.041077507            2 
  507000    1.1514879   -6.1792291    245.01299  0.040271695  0.041072678            2 
  508000    1.1795896    -6.180957    246.27828   0.04039998  0.041068588            4 
  509000    1.1457397   -6.2014927    246.90489  0.040423197  0.041065241            3 
  510000    1.1703717   -6.2162896    247.77305  0.040485793  0.041061708            4 
  511000    1.1723087   -6.1550856    248.60813  0.040542748  0.041058873            3 
  512000    1.1781609   -6.1823263    248.56495  0.040456535  0.041056375            3 
  513000    1.1774184   -6.1772766    249.28278  0.040494279  0.041053695            2 
  514000    1.1815124   -6.2201276    250.03177  0.040536928  0.041051395            3 
  515000    1.1599714   -6.1751378    249.67937  0.040401192  0.041048772            3 
  516000    1.1682938   -6.2070031    250.40966  0.040440836  0.041046335            6 
  517000    1.1772938   -6.2091378       251.88  0.040599613  0.041044336            2 
  518000    1.1709014   -6.2355994    251.77513  0.040504364   0.04104225            4 
  519000     1.170914   -6.2274807    252.48099  0.040539658  0.041039924            5 
  520000    1.1956987   -6.1807646    253.76434  0.040667363  0.041038313            4 
  521000    1.1665395   -6.1981868    253.77782  0.040591462  0.041037446            3 
  522000    1.1828901   -6.2053998    253.92496   0.04053719  0.041036346            2 
  523000    1.1828453   -6.2369577    255.09097   0.04064547  0.041035316            3 
  524000    1.1342846   -6.1611428    255.35898  0.040610525  0.041033631            3 
  525000    1.1780422   -6.1735634    254.89574  0.040459642  0.041031698            2 
  526000    1.1709768   -6.1790848     255.6522  0.040502566  0.041028929            4 
  527000    1.1922799   -6.1810741    256.75039  0.040599366  0.041026966            2 
  528000    1.1561622   -6.2012004    256.21499  0.040437972   0.04102503            2 
  529000    1.1638801    -6.155152    256.48743  0.040404447  0.041022661            2 
  530000    1.1750903   -6.1970203    256.60095  0.040346062  0.041019783            3 
  531000    1.1458685    -6.211088    256.80848  0.040302649  0.041015699            7 
  532000    1.1747053    -6.204542    257.51985  0.040338322  0.041012073            4 
  533000    1.1280688    -6.207698    257.96085  0.040331589  0.041008485            2 
  534000    1.1699303    -6.187328    258.84368  0.040393832   0.04100561            3 
  535000     1.146863   -6.1920835    259.50023  0.040420596  0.041002205            2 
  536000    1.1767365   -6.1773365    259.75474  0.040384755  0.040998734            3 
  537000    1.1853033   -6.2122144    260.00926  0.040349047  0.040995094            4 
  538000    1.1788007   -6.2193999    259.69053  0.040224679  0.040991157            2 
  539000    1.2135483   -6.2174194    260.86414    0.0403315  0.040987171            2 
  540000    1.1678279   -6.2057963    260.54491  0.040207548  0.040982725            5 
  541000    1.1369676   -6.2017455    261.62212  0.040299156  0.040977901            4 
  542000    1.1584626   -6.2224324    262.55886  0.040368828  0.040973761            5 
  543000    1.1751133   -6.1902929    262.63132  0.040305605  0.040969327            2 
  544000    1.1665535   -6.2132123    262.54815  0.040218774   0.04096426            2 
  545000     1.166491   -6.2097197    263.25424  0.040252943  0.040958955            3 
  546000    1.1830696   -6.1758399    263.68248  0.040244578  0.040954091            5 
  547000     1.169507   -6.2010184    264.04133  0.040225674   0.04094948            3 
  548000    1.1590725   -6.1993185     264.1473  0.040168385  0.040944385            3 
  549000    1.1762258   -6.2363181    264.36882  0.040128844  0.040938233            6 
  550000    1.1763683    -6.242158    264.39575  0.040059962  0.040932127            4 
  551000    1.1225777   -6.2282004    265.51659  0.040156774   0.04092643            2 
  552000    1.1644298   -6.2256751    265.22999  0.040040759  0.040920421            2 
  553000    1.1637717   -6.2048276    266.40744  0.040145787  0.040914522            3 
  554000    1.1567008   -6.1864339     267.6391   0.04025859  0.040909709            4 
  555000    1.1915116   -6.2162046    267.94966  0.040232682  0.040904219            4 
  556000    1.1631258   -6.1991185    268.73422  0.040277911  0.040899305            3 
  557000    1.1853899   -6.2101127    268.67658  0.040196974  0.040894821            3 
  558000    1.1677132   -6.2077358    269.24296  0.040209522  0.040890252            4 
  559000    1.1570945   -6.2025823    269.64745  0.040197891    0.0408854            3 
  560000    1.1816384   -6.2203872    269.90877  0.040164996  0.040879911            3 
  561000    1.1536535   -6.1486786    271.27101  0.040295753  0.040875292            2 
  562000    1.1682824    -6.194923    270.45694  0.040103342  0.040870618            2 
  563000    1.1456269   -6.2281559    271.22884  0.040146364  0.040865552            4 
  564000    1.1529805   -6.1899876    270.64881  0.039989482  0.040860636            5 
  565000    1.1620303   -6.2083007    271.60462  0.040059679  0.040855142            5 
  566000    1.1813109   -6.1998678    272.75211  0.040157849  0.040849558            3 
  567000    1.1387046   -6.2388388    272.08069  0.039988343  0.040843125            4 
  568000     1.185723   -6.2517253    271.64325  0.039853763  0.040836675            5 
  569000    1.1858265   -6.2175161    273.05864  0.039991013  0.040830364            1 
  570000    1.1392285   -6.2369047    273.30119  0.039956314   0.04082353            8 
  571000    1.1757236   -6.2276956    274.63342  0.040080768  0.040816936            2 
  572000    1.1594693   -6.2281897     274.4848  0.039989044  0.040810439            4 
  573000     1.170031   -6.2418229    275.59494  0.040080706  0.040804926            3 
  574000    1.1412787   -6.1826699    275.21657  0.039955948  0.040799379            2 
  575000    1.1841596   -6.2451927    276.25372  0.040036771  0.040793303            3 
  576000    1.1497572   -6.2200191    275.63266  0.039877411  0.040787405            3 
  577000     1.161397   -6.2009184    276.44612  0.039925783   0.04078099            1 
  578000    1.1561162   -6.1710944    277.59794  0.040022771  0.040774327            3 
  579000    1.1562311   -6.2400282    275.65719  0.039674322  0.040766752            3 
  580000    1.1655641   -6.2068912    277.89473  0.039927404  0.040759421            3 
  581000     1.155522   -6.1966759    278.62989  0.039964127  0.040752666            4 
  582000    1.1315957   -6.2260958    278.67053  0.039901279  0.040745915            6 
  583000    1.1727394    -6.213951    279.80062   0.03999437   0.04073919            2 
  584000    1.1367979   -6.2293881    279.44319  0.039874885  0.040732161            2 
  585000    1.1358819   -6.2354648     278.5971  0.039686196  0.040724933            2 
  586000    1.1316603   -6.2257278    280.19212  0.039845296  0.040717751            5 
  587000     1.167729    -6.215117    280.46564  0.039816246  0.040710964            6 
  588000    1.1510491   -6.2254209    281.61413  0.039911299  0.040704273            2 
  589000    1.1575461   -6.2248358    281.54591  0.039833886  0.040697286            2 
  590000    1.1435448   -6.2284237    282.41125  0.039888594  0.040690714            3 
  591000    1.1566209   -6.2318524    282.95206  0.039897357   0.04068393            3 
  592000     1.158744   -6.2301852    283.62448  0.039924617  0.040676801            4 
  593000    1.1719937   -6.2190965    282.09633  0.039642542   0.04066984            5 
  594000    1.1405749   -6.2108077    284.72173  0.039944126  0.040663079            2 
  595000    1.1282841   -6.1954923    284.31224  0.039819641  0.040655747            3 
  596000    1.1577712   -6.2304418    283.64313  0.039659274  0.040648351            2 
  597000    1.1624677   -6.1985401    283.99201  0.039641543  0.040640111            2 
  598000    1.1623602   -6.2096415    284.15653  0.039598178  0.040631753            4 
  599000    1.1451513   -6.2361057     284.4517  0.039573136  0.040622794            6 
  600000    1.1403482   -6.2296097    286.11242  0.039737836  0.040614442            2 
  601000    1.1366429   -6.2542563    285.55924  0.039595013  0.040605914            6 
  602000    1.1416571   -6.2537968    286.47623  0.039656177  0.040596939            3 
  603000    1.1409413   -6.2266862    286.60815  0.039608644  0.040588248            2 
  604000    1.1773811   -6.2075034    287.91792  0.039723775  0.040580678            3 
  605000    1.1559559   -6.2265682    287.05162  0.039538791   0.04057241            3 
  606000    1.1457808   -6.2318759    286.79098  0.039437703  0.040563778            6 
  607000    1.1481818   -6.2064292    287.89619  0.039524463  0.040554812            3 
  608000    1.1811485   -6.1936069     289.5058  0.039680071  0.040546626            6 
  609000    1.1360507   -6.2030989    289.65509  0.039635343  0.040538228            2 
  610000    1.1520146   -6.2253347    289.23857  0.039513466  0.040530149            4 
  611000    1.1615255   -6.2134836    289.99829  0.039552413  0.040521904            6 
  612000    1.1453354   -6.2586131    290.41363   0.03954434  0.040513854            3 
  613000    1.1826701   -6.2606299    291.56231  0.039635986  0.040505509            5 
  614000    1.1491785   -6.2280201     292.0512  0.039637785  0.040497138            2 
  615000    1.1248678    -6.215315    290.66897   0.03938604  0.040488256            5 
  616000    1.1549282   -6.2153202    292.18587  0.039527309  0.040478989            2 
  617000    1.1449823   -6.2622645    291.94539  0.039430766  0.040469803            4 
  618000    1.1433431   -6.2810115    292.08509    0.0393858   0.04046049            5 
  619000    1.1688479   -6.2337746    294.65681  0.039668391  0.040452074            3 
  620000    1.1377966   -6.2316533    293.72538  0.039479218   0.04044389            5 
  621000    1.1356753   -6.2277766    295.41643   0.03964257  0.040436055            4 
  622000    1.1300295    -6.232697    295.53451  0.039594656  0.040428783            8 
  623000    1.1632037   -6.2151232    296.30338  0.039633946  0.040421556            3 
  624000    1.1663618     -6.22552    297.39704  0.039716486  0.040414614            5 
  625000    1.1510953   -6.2196314    296.72709  0.039563612  0.040407341            5 
  626000    1.1446986   -6.2174378     297.4993  0.039603208  0.040400373            3 
  627000    1.1631231   -6.2418433    297.48085  0.039537593  0.040393645            2 
  628000    1.1284796   -6.1766982    298.71391  0.039638257   0.04038624            3 
  629000    1.1518613   -6.2336318    299.07615  0.039623231  0.040378854            3 
  630000    1.1373715    -6.236412    298.73848  0.039515672  0.040371144            3 
  631000    1.1372563    -6.259215    299.70448  0.039580624  0.040363437            5 
  632000    1.1619675    -6.233178     298.6702  0.039381619   0.04035561            9 
  633000    1.1434325   -6.2129224    300.81665  0.039601982  0.040347946            3 
  634000    1.1604012   -6.2101857    300.99859  0.039563432  0.040340857            5 
  635000    1.1523522   -6.2115602    301.55202  0.039573756  0.040333622            3 
  636000     1.148768    -6.212077    301.64109  0.039523204  0.040326414            3 
  637000     1.130475   -6.2612979    302.36854  0.039556324  0.040319591            3 
  638000    1.1595713   -6.2147611    303.18521  0.039600994  0.040312558            5 
  639000    1.1477169   -6.2229876    302.80653  0.039489636  0.040305649            7 
  640000    1.1494013   -6.2165966    304.41032  0.039636761  0.040299068            5 
  641000    1.1579984   -6.2321097    304.40128  0.039573749  0.040292673            2 
  642000    1.1404541   -6.2385991    304.39461  0.039511242   0.04028593            3 
  643000    1.1615747   -6.2295117    304.98223   0.03952595  0.040278697            2 
  644000    1.1598844   -6.2837051    305.13283  0.039484061  0.040271741            2 
  645000    1.1378161    -6.220081    306.51101  0.039600906  0.040265049            6 
  646000    1.1331492   -6.2058026    306.69877  0.039563825  0.040257729            3 
  647000    1.1436998    -6.222923    306.69737  0.039502495  0.040250823            3 
  648000    1.1319813   -6.2649688     307.4072  0.039532819  0.040244048            1 
  649000    1.1453252    -6.215378    307.18532  0.039443416  0.040236637            2 
  650000    1.1254254   -6.2395121    307.06547  0.039367368  0.040229273            3 
  651000    1.1335091   -6.2353513     307.7494  0.039394445  0.040221676            2 
  652000    1.1404699   -6.2412607    308.22878  0.039395294  0.040214002            3 
  653000    1.1462551   -6.2421844    308.53615  0.039374189  0.040206698            4 
  654000    1.1563252   -6.1995703    309.30236  0.039411616  0.040198928            2 
  655000    1.1592899   -6.2265357    309.96501  0.039435752  0.040191661            3 
  656000    1.1513324   -6.2322183    309.57739  0.039326397  0.040184326            3 
  657000    1.1357525   -6.2319313    309.22659  0.039222043  0.040176974            4 
  658000    1.1281974   -6.1852093    311.92569  0.039504266  0.040169359            1 
  659000    1.1572332   -6.2330106    311.10395  0.039340408  0.040161946            5 
  660000    1.1502656   -6.2479234     311.2592  0.039300405  0.040154351            4 
  661000    1.1162884   -6.2185093    313.04275  0.039465803  0.040146271            3 
  662000    1.1173755   -6.2514992    312.73229  0.039367107  0.040138338            2 
  663000    1.1328931   -6.2506719    313.22581   0.03936976   0.04013094            3 
  664000    1.1817636   -6.2769997    313.90612  0.039395848  0.040123808            4 
  665000    1.1391984   -6.2404999    312.90945  0.039211711  0.040116027            3 
  666000    1.1302654   -6.2149311    313.34222  0.039206985  0.040108127            4 
  667000    1.1448553   -6.2301004    314.74895  0.039323956  0.040100483            4 
  668000    1.1369835   -6.2422443    315.64855  0.039377314  0.040093485            3 
  669000    1.1635223   -6.2435161    316.80673  0.039462722  0.040086449            2 
  670000     1.134563   -6.2963604     314.8759  0.039163669  0.040079404            4 
  671000    1.1222228    -6.272004    317.12272  0.039384342  0.040071982            5 
  672000    1.1661232   -6.2642021    317.82742  0.039413123  0.040064996            3 
  673000    1.1383978    -6.205804    317.91147  0.039364966   0.04005814            2 
  674000    1.1609858   -6.2585906    318.33283  0.039358659  0.040051248            5 
  675000    1.1254015   -6.2577527    318.54372  0.039326385   0.04004453            5 
  676000    1.1325635   -6.2650471    318.79469  0.039299148  0.040037332            2 
  677000    1.1653229   -6.2619457    318.22517  0.039170996   0.04003029            2 
  678000    1.1433582   -6.2417957    319.70919  0.039295623  0.040022792            3 
  679000     1.141315   -6.2583994    319.87097  0.039257605  0.040015274            3 
  680000    1.1336853   -6.2279356    319.85336  0.039197716  0.040007671            3 
  681000    1.1539565   -6.2245268    321.83193  0.039382273  0.040000929            4 
  682000    1.1408457   -6.2690169    321.20984  0.039248514  0.039993737            2 
  683000    1.1566636     -6.28416    321.90946  0.039276411  0.039986821            2 
  684000    1.1513844   -6.2500631     323.1462  0.039369664  0.039979717            3 
  685000    1.1521727   -6.2302072     322.3308  0.039212992  0.039973094            4 
  686000    1.1385028   -6.2191822    323.69883  0.039322015  0.039966151            3 
  687000    1.1417227   -6.2039587    323.26802  0.039212521  0.039958978            4 
  688000    1.1371504   -6.2874667    324.16659  0.039264364  0.039952141            5 
  689000    1.1583958   -6.2206594    324.76779  0.039280091  0.039945483            4 
  690000    1.1473592   -6.2522125    325.20581  0.039276064  0.039939361            4 
  691000     1.123544    -6.255777    325.49239  0.039253785  0.039932744            3 
  692000    1.1334265    -6.254448    325.87534  0.039243176  0.039926056            4 
  693000    1.1400716   -6.2470197    326.52545  0.039264725  0.039919615            2 
  694000    1.1525497   -6.2712579    326.42105  0.039195612  0.039912873            2 
  695000    1.1460855   -6.2734729    327.84599  0.039310071  0.039906089            9 
  696000    1.1456779   -6.2253661    328.12063  0.039286474   0.03989915            7 
  697000    1.1092906   -6.2658349    328.03795  0.039220224  0.039892211           10 
  698000    1.1469514   -6.2528204     328.5558   0.03922586  0.039885293            3 
  699000     1.138779   -6.2464577    329.37315  0.039267185  0.039878027            3 
  700000    1.1187848   -6.2728298    327.81467  0.039025556  0.039870779            5 
  701000    1.1159164    -6.289766    328.41314   0.03904103   0.03986403            3 
  702000    1.1199353   -6.2714164    330.34624   0.03921489   0.03985665            4 
  703000    1.1154167   -6.2449172    330.35691  0.039160374  0.039849226            4 
  704000    1.1496778   -6.2739872    330.26807  0.039094231  0.039841843            4 
  705000    1.1648927   -6.2246852     329.7684  0.038979717  0.039834223            5 
  706000    1.1235724   -6.2290379    331.03913  0.039074496  0.039826987            4 
  707000    1.1294241   -6.2763995    331.67341  0.039093989  0.039819408            3 
  708000    1.1368857   -6.2707758    332.43274  0.039128148  0.039811918            2 
  709000    1.1286968   -6.2795056    332.11488  0.039035599   0.03980485            5 
  710000    1.1766157   -6.2378455    333.17567  0.039105126  0.039797558            2 
  711000    1.1357509   -6.2018491    334.40376  0.039194064  0.039790735            5 
  712000    1.1496153   -6.3102268    334.42086  0.039141018  0.039783386            4 
  713000     1.125898   -6.2326537    334.42928  0.039087106  0.039776152            2 
  714000    1.1473701   -6.2420298    335.04058  0.039103709  0.039769454            2 
  715000    1.1331264   -6.2514279    336.12782  0.039175736  0.039762834            3 
  716000    1.1403671   -6.2904757     335.1832  0.039011079  0.039755779            7 
  717000    1.1389243   -6.2637603    336.49972  0.039109684  0.039748496            2 
  718000    1.1467723   -6.2510336    337.69105  0.039193484  0.039741066            4 
  719000    1.1239553   -6.2568798    337.39303  0.039104431  0.039734343            3 
  720000     1.142717   -6.2728041    337.23616  0.039031963  0.039727706            3 
  721000    1.1193727   -6.2672189    337.98386  0.039064246  0.039720752            3 
  722000    1.1346925   -6.2579538    340.13388  0.039258297   0.03971468            3 
  723000    1.1272991   -6.2301895    339.49214   0.03913003  0.039708458            6 
  724000    1.0946522   -6.2569021      340.594  0.039202808  0.039702481            2 
  725000    1.1232993   -6.2338681    340.20467  0.039103985  0.039696192            7 
  726000     1.120238   -6.2448291    340.45709  0.039079096  0.039689678            4 
  727000    1.1520693   -6.2914971    340.28213  0.039005288  0.039683308            3 
  728000    1.1245336   -6.2672113    340.92845  0.039025693   0.03967676            3 
  729000    1.1111905    -6.277177    341.74569   0.03906558  0.039670423            2 
  730000    1.1150853   -6.2940351     341.5261  0.038986998  0.039663587            5 
  731000    1.1222099   -6.2527558    342.05241  0.038993662  0.039656684            3 
  732000    1.1307457   -6.2963172    341.68469   0.03889853    0.0396492            3 
  733000     1.139397    -6.259151    343.02069   0.03899735  0.039642061            4 
  734000    1.1307738   -6.2691305    343.37489  0.038984434  0.039635147            2 
  735000    1.1456745   -6.2620007     343.9554  0.038997211  0.039628025            5 
  736000    1.1237386   -6.2564448    344.18163   0.03896984  0.039621105            2 
  737000    1.1541608    -6.254288    344.02397  0.038899138   0.03961432            9 
  738000    1.1410555   -6.2283287     346.2428  0.039096973  0.039607398            5 
  739000    1.1318042   -6.2328083    345.05115  0.038909692  0.039600513            3 
  740000    1.1522988   -6.2813581    345.84188  0.038946157  0.039593418            2 
  741000    1.1046647    -6.273095    346.50496  0.038968169   0.03958656            2 
  742000    1.1398036   -6.2506761    346.92704  0.038963055  0.039579528            3 
  743000    1.1380004    -6.252709     348.5077  0.039087898  0.039572409            6 
  744000    1.1379179   -6.2721756    347.07224  0.038874579  0.039564983            3 
  745000     1.126509   -6.2450062    346.73454  0.038784625  0.039556883            2 
  746000      1.14433   -6.2687132    346.43562  0.038699243   0.03954886            3 
  747000    1.1246568   -6.2939765    347.68276  0.038786563   0.03954046            2 
  748000    1.1352303   -6.2361522     347.4568  0.038709536  0.039532201            2 
  749000    1.1611252   -6.2457902    348.84639   0.03881246  0.039524751            2 
  750000     1.133359   -6.3099711    348.29796  0.038699773  0.039516857           10 
  751000    1.1149636   -6.2431354     350.1817  0.038857269  0.039509226            3 
  752000    1.0988402   -6.2810676    349.98878  0.038784217  0.039501387            2 
  753000    1.1318672   -6.3079005    349.46875  0.038675161  0.039493588            4 
  754000    1.1360418    -6.259082    350.07884  0.038691295  0.039485238            2 
  755000     1.135326   -6.2856518    349.66642  0.038594527  0.039476628            5 
  756000    1.1653038   -6.2776469     350.1418  0.038595878  0.039467767            4 
  757000     1.139874   -6.2656496    350.48577  0.038582758  0.039459025            3 
  758000     1.127668   -6.2483865    352.55081  0.038758884  0.039450417            2 
  759000    1.1117874   -6.2551371    351.36953  0.038578121  0.039442222            5 
  760000     1.127785   -6.2718548    352.06535  0.038603657  0.039433546            7 
  761000    1.1318507   -6.2741962    352.52766  0.038603554  0.039425024            4 
  762000    1.1351977    -6.237674    353.69096  0.038680114  0.039416706            7 
  763000    1.1406151   -6.2637721    353.46521  0.038604763  0.039408515            4 
  764000    1.0916935   -6.2549254    353.61422  0.038570487  0.039400263            3 
  765000    1.1213903   -6.2482773    353.60304   0.03851885  0.039391683            6 
  766000    1.1189142   -6.2631631    354.03082  0.038515103  0.039383357            6 
  767000    1.1034383   -6.2959003    354.32201  0.038496524  0.039374964            4 
  768000    1.1445674   -6.2458042     355.1747  0.038538921  0.039366053            4 
  769000    1.1094913   -6.2807175    355.26431  0.038498517  0.039357006            2 
  770000    1.1155408   -6.2665491    356.41479   0.03857303  0.039348245            4 
  771000    1.1273763   -6.2525778    356.88956  0.038574315  0.039339743            3 
  772000    1.1545938   -6.2893654    356.62159  0.038495422  0.039330811            2 
  773000     1.122995   -6.2685228    357.96913  0.038590893  0.039322006            4 
  774000    1.1222964   -6.2599309    358.86167  0.038637131  0.039313376            3 
  775000    1.1432743   -6.3210074    357.49574  0.038440403  0.039305101            5 
  776000    1.1563437   -6.2427531    359.44869   0.03860059  0.039296888            4 
  777000    1.1192326    -6.268725    358.68981  0.038469521  0.039288572            4 
  778000    1.1353196   -6.3096537    358.62616  0.038413256  0.039279826            3 
  779000    1.1229967   -6.2674084     359.8382  0.038493603  0.039271094            2 
  780000    1.1070011   -6.2549993    360.14401  0.038476924  0.039262378            2 
  781000    1.1521081   -6.2775444    360.35841  0.038450535  0.039253495            3 
  782000    1.1353418   -6.2438788    360.47916  0.038414233  0.039244669            6 
  783000    1.1248119   -6.2231664    361.31629  0.038454267  0.039235903            2 
  784000    1.1257235   -6.2688571    361.97648  0.038475391   0.03922741            2 
  785000    1.1068303   -6.2648418    361.67727  0.038394615  0.039218902            3 
  786000    1.1296286   -6.2938708    361.42291  0.038318799  0.039210221            3 
  787000    1.1266675   -6.3003719    364.18098  0.038562154  0.039201765            3 
  788000    1.1082664   -6.2838058    364.13476  0.038508329  0.039193039            2 
  789000    1.1179214   -6.2512631    362.84823  0.038323641  0.039184139            2 
  790000    1.1085831   -6.3028438    363.24955  0.038317463  0.039175367            6 
  791000    1.1315173   -6.2821653     363.5548   0.03830118  0.039166338            8 
  792000    1.1095739   -6.2777766    364.88738  0.038393032   0.03915739            3 
  793000    1.1261481   -6.2837507    364.06106  0.038257783  0.039148099            2 
  794000    1.1038309   -6.2774024    363.97643  0.038200717  0.039138651            3 
  795000    1.1103508   -6.3247606    363.04366  0.038054891  0.039128681            5 
  796000    1.1214048   -6.3231182     364.3206  0.038140766  0.039118581            4 
  797000    1.1362232   -6.2993116     365.2028  0.038185153  0.039108867            2 
  798000    1.1279954   -6.3371097    364.74856  0.038089866  0.039099162            2 
  799000    1.1224213   -6.2758432    366.11858  0.038185083  0.039089685            4 
  800000    1.1304392   -6.3036872    366.87689  0.038216343  0.039080435            4 
  801000    1.1510128   -6.2942236    365.81592  0.038058252  0.039071031            6 
  802000    1.1469641   -6.2761078    367.41519  0.038176973  0.039061342            3 
  803000    1.1399484   -6.2788043    367.83428  0.038172922  0.039051614            5 
  804000    1.1309999   -6.2968439    366.45574   0.03798256  0.039041398            5 
  805000    1.0992335   -6.3095925    368.39762    0.0381364  0.039031482            4 
  806000    1.1113608   -6.3040845    369.53584  0.038206766   0.03902168            4 
  807000    1.1192444   -6.2847581    368.70394  0.038073517  0.039012664            4 
  808000     1.097938   -6.2854338    369.57971   0.03811672  0.039002991            1 
  809000    1.1261408   -6.2831203     369.8579   0.03809826  0.038993705            3 
  810000    1.1226918   -6.2972826     370.3007  0.038096779  0.038984143            6 
  811000    1.1181736   -6.2740865    371.65448  0.038188911  0.038974687            7 
  812000    1.1156245   -6.3006855    370.93022  0.038067551  0.038965267            6 
  813000    1.1173647   -6.2313204    372.90641  0.038223289   0.03895581            3 
  814000    1.1060901   -6.2803966    372.94305  0.038180083   0.03894663            4 
  815000    1.1509585   -6.2813708    372.73231  0.038111688  0.038937395            4 
  816000    1.1187236   -6.2865906      373.573  0.038150838  0.038928349            3 
  817000    1.1115161   -6.3120473    372.79792  0.038025084  0.038919206            3 
  818000    1.1288544   -6.3481705    373.36629    0.0380365  0.038909806            5 
  819000    1.1201107   -6.2961185    374.67667   0.03812339  0.038900602            4 
  820000    1.1348736   -6.2664977    375.20938  0.038131034  0.038891326            4 
  821000     1.118504   -6.2621159    375.30197  0.038093988   0.03888241            3 
  822000    1.1411968   -6.2708015    374.99683   0.03801671   0.03887324            2 
  823000    1.1047912    -6.279978    375.28165  0.037999357   0.03886404            2 
  824000    1.1074241   -6.2772784    375.95113  0.038020947  0.038855007            4 
  825000    1.0779541   -6.2493962    377.64944  0.038146408  0.038845984            4 
  826000    1.1146076   -6.2527311     376.7685   0.03801135  0.038837079            5 
  827000    1.1015435   -6.2794518    377.30038  0.038018983  0.038827994            4 
  828000    1.1354694   -6.2687759    377.84832  0.038028212  0.038818959            2 
  829000    1.1361059   -6.2950712    378.43664   0.03804148  0.038809825            3 
  830000    1.1269983   -6.2973881    378.04358  0.037956182  0.038800822            4 
  831000    1.1278081   -6.2742213    379.44091  0.038050633  0.038791234            3 
  832000    1.0863491   -6.2869354    378.27867  0.037888489  0.038781657            3 
  833000    1.1278041   -6.3116193     378.7703  0.037892187  0.038772424            3 
  834000    1.1169806   -6.2902268    379.14784  0.037884477   0.03876311            4 
  835000     1.119181   -6.2714385    381.88978  0.038112752  0.038754105            2 
  836000    1.1157507   -6.3072653    381.79273  0.038057489  0.038745361            5 
  837000     1.123462   -6.3059225    381.14136  0.037947168  0.038736246            3 
  838000    1.1178387   -6.2917084    382.02687  0.037989943  0.038727093            6 
  839000    1.1185877   -6.2625662    381.56005  0.037898297  0.038717664            3 
  840000    1.1197127   -6.2558964      381.544  0.037851587  0.038708134            2 
  841000    1.1328381   -6.2587866    382.75921  0.037926992  0.038698881            8 
  842000      1.11136   -6.3405238     381.1763  0.037725287  0.038689381            2 
  843000    1.0937818   -6.2921524    381.70779  0.037733075  0.038679523            7 
  844000    1.1007839   -6.2583622    381.99051  0.037716282  0.038669787            4 
  845000    1.1184625   -6.2986266     384.2758  0.037897022  0.038659904            5 
  846000    1.1232317   -6.2996159    383.36185    0.0377622  0.038649922            4 
  847000     1.104824   -6.2881276    383.87992  0.037768587  0.038640144            4 
  848000    1.1125568   -6.3055812    383.20294  0.037657522  0.038630155            5 
  849000    1.1094984   -6.2866859    384.40124  0.037730785  0.038620282            2 
  850000    1.1215496   -6.2765675    384.93797  0.037739017  0.038610127            5 
  851000    1.1321133   -6.2837368    385.55347  0.037754942  0.038600376            4 
  852000    1.1063516   -6.2999044    385.73392  0.037728278  0.038590329            2 
  853000    1.1304135   -6.2986098    385.46683  0.037657955  0.038580153            2 
  854000    1.0872956   -6.3368314    385.58335   0.03762523  0.038569909            3 
  855000    1.1035563   -6.3287608    386.45333  0.037666017  0.038559888           17 
  856000    1.0891346   -6.2921362    387.01598  0.037676789  0.038549921            2 
  857000    1.0944856   -6.3133461     388.3844  0.037765889  0.038540155            5 
  858000    1.1073936   -6.2967986    388.41898  0.037725231  0.038530587            4 
  859000     1.130558   -6.2983007    389.03669  0.037741239  0.038521185            3 
  860000    1.1161315   -6.2995987    389.05123  0.037698762  0.038511741            4 
  861000    1.1265924   -6.3116628    389.64255   0.03771221  0.038502286            6 
  862000    1.1087823    -6.295774    390.63806    0.0377647  0.038492999            2 
  863000    1.1390396   -6.2996606    391.14971  0.037770347  0.038483937            2 
  864000    1.1250304   -6.3560818    391.01699   0.03771383  0.038474737            3 
  865000    1.0883216   -6.2639604    390.45529  0.037616117  0.038465444            2 
  866000    1.1400479   -6.2806335    392.69989  0.037788673  0.038456512            6 
  867000    1.1168147   -6.2880447    392.72537  0.037747536   0.03844787            4 
  868000    1.1281201   -6.2823749    394.15767  0.037841558  0.038439365            5 
  869000    1.1410637   -6.3294476    392.47194  0.037636358  0.038430776            3 
  870000     1.098723   -6.3031995    393.45027  0.037686807  0.038421626            4 
  871000    1.1189724    -6.269452    394.24963  0.037720018  0.038412598            2 
  872000    1.1137334   -6.2960468     394.0666   0.03765927  0.038403586            3 
  873000    1.1024207   -6.2687943    394.27701  0.037636217   0.03839465            4 
  874000    1.1292603   -6.2645157    394.77095   0.03764025  0.038385764            4 
  875000    1.1243404   -6.2747893    395.70585  0.037686271  0.038376536            3 
  876000    1.1305315   -6.3476094    394.21843  0.037501753  0.038367183            5 
  877000    1.0951092   -6.2829874    397.91757  0.037810488  0.038358007            4 
  878000    1.1182978   -6.3052202    395.03821  0.037494136  0.038348743            6 
  879000    1.1099627   -6.3029943    396.11506   0.03755357  0.038339214            4 
  880000    1.1438552   -6.3201738    395.84856  0.037485659  0.038330066            3 
  881000    1.0921654   -6.3056809    396.50329  0.037505041  0.038320919            5 
  882000    1.1364999   -6.3386109    396.86964  0.037497132  0.038311542            3 
  883000    1.1192895   -6.3029766    397.39019  0.037503793  0.038301938            2 
  884000    1.0816173   -6.3419162    396.35866  0.037364127  0.038292193            5 
  885000    1.1165242   -6.2993203     397.7378   0.03745177  0.038282993            5 
  886000     1.087434   -6.3181945    398.57119  0.037487885  0.038273656            3 
  887000     1.135199   -6.3121213    398.56458     0.037445  0.038264321            3 
  888000    1.1165045   -6.2890828    398.00258  0.037350092  0.038254578            6 
  889000    1.1206813   -6.3158899    400.15733  0.037510061  0.038244855            4 
  890000    1.0888446   -6.2874546    400.07274  0.037459995   0.03823532            2 
  891000    1.1103205   -6.3041803    401.26172  0.037529154  0.038226064            3 
  892000    1.1110592   -6.3024322    401.62219  0.037520757  0.038216577            1 
  893000     1.100712   -6.3126326    402.47356  0.037558189  0.038207423            5 
  894000    1.1114253   -6.3079538    401.65428   0.03743981  0.038198426            4 
  895000    1.1282279   -6.3217364    401.79019  0.037410632  0.038188905            8 
  896000    1.1186552   -6.3094262    403.08511  0.037489315  0.038179244            5 
  897000    1.1269572   -6.3001497    401.91818   0.03733911  0.038169846            5 
  898000    1.0889148   -6.2892332     403.0994  0.037407145  0.038160136            3 
  899000    1.1056111   -6.2733598    404.67704  0.037511776   0.03815059            3 
  900000    1.1256223   -6.3443251    404.33964  0.037438856  0.038141296            7 
  901000    1.1235628   -6.3002237    405.22734  0.037479406  0.038132476            4 
  902000    1.0975844   -6.2850996    405.27626  0.037442374  0.038123634           17 
  903000    1.1086737   -6.3207416    405.70226  0.037440223  0.038114441            2 
  904000    1.1168534   -6.2989246    405.37445  0.037368588  0.038105564            4 
  905000    1.1235482   -6.2675653     406.2569  0.037408555  0.038096716            2 
  906000    1.1082569   -6.2848197    407.58204   0.03748915  0.038087421            4 
  907000    1.1104593    -6.325276    406.61913  0.037359346  0.038078181            3 
  908000    1.1094444   -6.3199651     406.3441  0.037292961  0.038068879            4 
  909000    1.0918262   -6.3337179    408.22496  0.037424363  0.038059824            2 
  910000    1.1235671    -6.309967     409.6632  0.037514945  0.038051313            4 
  911000    1.1077334   -6.3284505    407.96433  0.037318362  0.038042779            4 
  912000    1.1116882   -6.3008195    409.29353  0.037398897  0.038034421            5 
  913000    1.1253758   -6.3362406     410.2983  0.037449644  0.038025591            2 
  914000    1.0867065   -6.2937316    410.69855  0.037445163  0.038017006            4 
  915000      1.10359   -6.3070419    411.58642  0.037485102   0.03800848            2 
  916000    1.1165526   -6.3281631    411.38217  0.037425598   0.03799978            3 
  917000    1.1097186   -6.3389548    411.17849  0.037366275  0.037990996            2 
  918000    1.0834278   -6.3069759    410.39882  0.037254795  0.037982046            4 
  919000    1.1208857   -6.3433023    411.08049  0.037276069  0.037973396            2 
  920000    1.1165401   -6.3241911     413.0363  0.037412708  0.037964937            4 
  921000    1.1131053   -6.2932621    413.23426  0.037389998  0.037956526            3 
  922000    1.1126345    -6.290505    413.82337  0.037402691  0.037948348            3 
  923000    1.1103239   -6.3154758    413.56873  0.037339177  0.037940212            2 
  924000    1.1093421   -6.2940261    414.64224  0.037395584  0.037931875            7 
  925000    1.1108374   -6.3252517    415.80106  0.037459555  0.037923508            2 
  926000    1.1217404   -6.3059487     415.3368  0.037377322  0.037915208            3 
  927000    1.1156847   -6.2589657    415.17066  0.037322066  0.037906872            2 
  928000    1.1065485   -6.3035501    416.29299  0.037382632  0.037898564            3 
  929000    1.1164688   -6.3103081     416.0057  0.037316622   0.03789047            3 
  930000    1.0896468    -6.321608    416.45653  0.037316893  0.037882429            5 
  931000     1.102668   -6.3184704    416.75173  0.037303234  0.037874042            3 
  932000    1.1095361   -6.3253746     416.7936  0.037266953  0.037865261            2 
  933000     1.106153   -6.3273958    416.58328  0.037208224  0.037856596            6 
  934000     1.115593   -6.3048174    416.13534  0.037128421  0.037847647            4 
  935000    1.1088651   -6.3393028    416.80891  0.037148745  0.037838522            5 
  936000    1.0886713   -6.2839693    418.09922  0.037223933  0.037829482            2 
  937000    1.1024147   -6.3201311    418.58324  0.037227254  0.037820236            3 
  938000     1.102311   -6.3357301    418.13258  0.037147528  0.037811187            8 
  939000    1.0975286   -6.3175828    417.87266  0.037084901  0.037802274            6 
  940000    1.0958374   -6.3126683    418.81813  0.037129267  0.037793205            4 
  941000    1.1084342   -6.3315303    418.58622  0.037069272  0.037784224            6 
  942000    1.0969429   -6.3039243    419.46129  0.037107333  0.037775337            2 
  943000    1.1101569   -6.3035293    419.41065  0.037063507  0.037766346            1 
  944000     1.105529   -6.3170455    419.55804  0.037037256  0.037757463            4 
  945000    1.0973966   -6.3258538    419.82985  0.037022033  0.037748502            4 
  946000    1.1008218   -6.3008396    420.75456  0.037064355  0.037739433            2 
  947000    1.1065101   -6.3077243    420.82089  0.037031054  0.037730399            8 
  948000    1.0769759   -6.3233903    421.55838   0.03705682  0.037721354            3 
  949000    1.1077253   -6.3515431     421.4822  0.037011082  0.037712266            5 
  950000    1.1062403   -6.3442462    421.06319  0.036935367  0.037703134            3 
  951000    1.0895852   -6.3460484    421.40922   0.03692685  0.037693647            2 
  952000    1.1056674   -6.3019351    422.67144  0.036998551  0.037684239            3 
  953000    1.1084795   -6.3324213    421.78468  0.036882186  0.037674586            5 
  954000    1.1029985   -6.3327911    422.80061  0.036932268  0.037664917            5 
  955000    1.0953986   -6.3414786    423.60123  0.036963458  0.037655344            4 
  956000    1.0985107   -6.3294954    424.50936  0.037003954  0.037645899            5 
  957000    1.0943581   -6.3322031    423.00223   0.03683405     0.037636            4 
  958000    1.1118319   -6.3077159    423.52592  0.036841155  0.037626359            6 
  959000    1.1005038    -6.297876    423.80607  0.036827083  0.037616651            4 
  960000    1.0974686   -6.3002633    425.41847  0.036928686  0.037606944            6 
  961000    1.0910362    -6.324137    424.20026  0.036784622  0.037597466            5 
  962000    1.0917107   -6.3115894    424.86879  0.036804296  0.037587874            8 
  963000    1.0789567   -6.3019466    426.34636  0.036893939  0.037578242            3 
  964000    1.1295233   -6.3446607    426.11064  0.036835291  0.037568546            9 
  965000     1.090271   -6.3232311    425.08786  0.036708796  0.037558597            5 
  966000    1.1202961   -6.3515485    424.21785  0.036595743  0.037548502            5 
  967000    1.0955865    -6.358141    425.18214  0.036640998   0.03753834            4 
  968000    1.0963811   -6.3424094    428.10505  0.036854774  0.037528196            3 
  969000    1.1066252   -6.3531579     427.2174  0.036740403  0.037518373            3 
  970000    1.0845438   -6.3056833    429.13601  0.036867354  0.037508799            5 
  971000     1.099584   -6.2973438    430.14335  0.036915839   0.03749957            5 
  972000    1.1139155   -6.3235154    428.83207  0.036765438  0.037490394            4 
  973000    1.0927426   -6.3184063    428.76964  0.036722306  0.037481024            6 
  974000    1.0972249   -6.3506144    429.51714  0.036748558  0.037471741            4 
  975000    1.1037102   -6.3285699    432.39555  0.036956885  0.037462439            4 
  976000    1.0773945   -6.3123838    431.87352  0.036874447  0.037453161            3 
  977000    1.0815771   -6.3363379    429.99282   0.03667629  0.037443922            3 
  978000    1.1062636   -6.3308932    431.64469  0.036779541  0.037434585            5 
  979000    1.0881277   -6.3103162    431.42469  0.036723246  0.037425258            4 
  980000    1.0789879   -6.3426136    432.20434   0.03675207  0.037415825            6 
  981000    1.1053777   -6.3067341    433.22734  0.036801507   0.03740665            5 
  982000    1.1018879    -6.332434    432.01697  0.036661318  0.037397286            5 
  983000    1.1107987   -6.3057038    434.12899  0.036803068  0.037387937            3 
  984000    1.0986905   -6.3480983    433.22284  0.036688926  0.037378676            4 
  985000    1.0839778   -6.3216102    434.19804  0.036734183  0.037369495            4 
  986000    1.0929243   -6.3601605    433.60767  0.036647031  0.037360223            2 
  987000    1.0852886   -6.3246016    433.94748  0.036638592   0.03735052            3 
  988000    1.1059809   -6.3353475    435.26741  0.036712839  0.037341034            5 
  989000    1.0867911   -6.3421416    435.55745  0.036700156  0.037331615            3 
  990000    1.1010259   -6.3563935    435.62859  0.036669073  0.037322639            3 
  991000    1.1142028   -6.3465078    435.17119  0.036593609  0.037312994            3 
  992000    1.1180334   -6.3409098    433.99858  0.036458214  0.037303503            3 
  993000    1.0863116   -6.3277459    436.06465  0.036594885  0.037294072            2 
  994000    1.0888783   -6.3636565    434.89138  0.036459707  0.037284518            4 
  995000    1.1059554   -6.3201929    436.80419  0.036583265  0.037274835            3 
  996000    1.0822917   -6.3504735    437.60023  0.036613139  0.037265453            3 
  997000    1.0841813   -6.3275629    437.77805  0.036591278  0.037255895            4 
  998000    1.0689609   -6.3378501    439.10358  0.036665296  0.037246266            5 
  999000    1.0617238   -6.3376476    438.84035  0.036606636  0.037236615            4 
 1000000    1.0803711   -6.3016856    437.71093  0.036475911  0.037226938            4 
 1001000    1.0962246   -6.3370677    438.03803  0.036466703  0.037217157            2 
 1002000    1.1017534   -6.3368873    438.91634  0.036503355  0.037207339            3 
 1003000    1.0963947   -6.3415871    437.84942  0.036378317  0.037197478            2 
 1004000    1.0775683   -6.3495003    438.71593  0.036414004  0.037187595            2 
 1005000    1.0970278    -6.349429     439.6081  0.036451749  0.037177715           11 
 1006000    1.0888974   -6.3735968    440.53626  0.036492401  0.037167946            5 
 1007000    1.1176907    -6.356747    438.92732  0.036323016  0.037157902            7 
 1008000    1.0948783   -6.3398301    439.53232  0.036336998  0.037147873            3 
 1009000    1.1025572   -6.3195202    441.29019  0.036446167  0.037137601            4 
 1010000    1.0929762   -6.3213398     441.0829  0.036392979  0.037127529            8 
 1011000    1.0747067   -6.3487264     441.5057  0.036391832  0.037117656            3 
 1012000    1.0885149   -6.3529791    441.08287  0.036321053  0.037107573            2 
 1013000    1.0686244   -6.3251067    441.16199  0.036291707  0.037097752            3 
 1014000     1.094047   -6.3189397    442.14118  0.036336389   0.03708775            2 
 1015000     1.066552   -6.3477159    441.48895   0.03624704  0.037077751            3 
 1016000     1.068235    -6.357259    442.86191  0.036323976  0.037068028            4 
 1017000    1.0750004    -6.336793    445.24848  0.036483815   0.03705843            2 
 1018000    1.0883112   -6.3545638    443.24301  0.036283809  0.037048752            3 
 1019000    1.0757952   -6.3090475    445.15939  0.036404922  0.037039001            5 
 1020000    1.0871494   -6.3317121    443.91626  0.036267668  0.037029213            2 
 1021000    1.0920431   -6.3296166    445.67847  0.036375977  0.037019257            3 
 1022000    1.0816756   -6.3536114    444.14196  0.036215098  0.037009568            5 
 1023000    1.1052981   -6.3258675    444.75817  0.036229893  0.036999625            5 
 1024000    1.0832008   -6.3382982    444.46739  0.036170849  0.036989618            4 
 1025000    1.0822088    -6.338045    445.51285  0.036220557  0.036979626            7 
 1026000    1.1080515   -6.3232834    447.45573  0.036343058  0.036970109            4 
 1027000    1.0895883   -6.3510464    446.69616  0.036246037   0.03696035            5 
 1028000     1.078408   -6.3438735    446.66988  0.036208648  0.036950257            6 
 1029000     1.090064   -6.3412876    447.78689  0.036263921  0.036940415            3 
 1030000    1.0757895   -6.3636646    447.27484  0.036187285  0.036930557            6 
 1031000    1.0509197   -6.3546667    447.99502  0.036210396  0.036920947            9 
 1032000    1.0964367   -6.3468545    448.86802  0.036245802  0.036911283            2 
 1033000     1.089692   -6.3435466    448.80458  0.036205597  0.036901379            4 
 1034000    1.0912853   -6.3624792    449.09726  0.036194169  0.036891801            4 
 1035000     1.103129   -6.3094659    449.15986   0.03616424  0.036882483            5 
 1036000    1.0766265   -6.3809191    448.76105  0.036097253  0.036872879            7 
 1037000    1.0793806   -6.3279877    450.58052  0.036208656  0.036863095            4 
 1038000    1.0789805   -6.3638453    451.34062  0.036234796  0.036853472            1 
 1039000    1.0715255   -6.3260807    451.63171  0.036223268  0.036843867            4 
 1040000    1.0865243   -6.3681685     450.5424  0.036101154    0.0368343            6 
 1041000    1.1061914   -6.3406745    450.94329  0.036098566  0.036824597            2 
 1042000    1.0654818   -6.3273556    452.35681  0.036176968  0.036815124            3 
 1043000    1.0810938   -6.3530161    451.39639  0.036065547  0.036805693            5 
 1044000    1.0961361   -6.3587361    451.06128  0.036004253  0.036796009            3 
 1045000    1.0721127   -6.3674889    452.16309  0.036057662  0.036786267            6 
 1046000    1.0906063   -6.3389634    451.33717  0.035957391  0.036776513            6 
 1047000    1.0777077    -6.331224    454.93732  0.036209592  0.036767013            7 
 1048000    1.0658275    -6.330527    453.94773  0.036096352  0.036757235            4 
 1049000    1.1020484   -6.3259008    454.42791  0.036100088  0.036747577            3 
 1050000    1.0828245   -6.3542331    454.18259  0.036046238   0.03673807            3 
 1051000    1.0713505   -6.3844644     455.8745  0.036146091  0.036728536            3 
 1052000    1.0770503   -6.3551078    456.51538  0.036162498  0.036718966            2 
 1053000    1.1101426   -6.3746283    454.96011  0.036005073  0.036709464            3 
 1054000    1.1069443   -6.3684255    457.12302  0.036141921  0.036700014            3 
 1055000    1.0816396   -6.3415532    456.22444  0.036036685  0.036690579           10 
 1056000    1.0763684   -6.3468884    455.66941   0.03595876  0.036681355            5 
 1057000    1.0539722   -6.3500034    456.95725  0.036026273  0.036672026            6 
 1058000    1.0686561   -6.3501116    458.34871   0.03610182  0.036662798            2 
 1059000    1.0893508   -6.3086929    459.87663  0.036187962  0.036653551            4 
 1060000    1.0784288   -6.3412176    458.76394  0.036066348   0.03664416            3 
 1061000     1.093268   -6.3753292    457.76733  0.035954079  0.036634719            3 
 1062000    1.0943195   -6.3474037    459.89533  0.036087204  0.036625334            6 
 1063000    1.0709576   -6.3504036    459.57922  0.036028475  0.036616066            2 
 1064000    1.0905627   -6.3683866    459.12934  0.035959378  0.036606697            3 
 1065000    1.0573645   -6.3536161    459.80756  0.035978682  0.036597267            3 
 1066000    1.0746999   -6.3470929     460.0774  0.035966025  0.036588031            4 
 1067000    1.0752656   -6.3906266    459.90806  0.035919093  0.036578754            6 
 1068000    1.0786265   -6.3438635    460.85283  0.035959179   0.03656933            8 
 1069000    1.0775626   -6.3551838    460.95881  0.035933802  0.036560019            5 
 1070000    1.0884635   -6.3675443    462.30495  0.036005058  0.036550614            3 
 1071000    1.0809424   -6.3636876    461.14031  0.035880821   0.03654109            4 
 1072000    1.0770782   -6.3831474     461.4211  0.035869178  0.036531649            6 
 1073000    1.0846526   -6.3931577    462.23529  0.035898982  0.036521955            7 
 1074000    1.0700514   -6.3752656    462.28868  0.035869699  0.036512267            5 
 1075000    1.0898658   -6.3443678    460.75442  0.035717397   0.03650235            6 
 1076000    1.0704128   -6.3717305     461.1039  0.035711269  0.036492383            6 
 1077000    1.0551172   -6.3635692     461.4553    0.0357053  0.036482507            3 
 1078000    1.1095169   -6.3802344    459.60986  0.035529519  0.036472497            6 
 1079000    1.0685331   -6.3884631    462.31282  0.035705346  0.036462228            6 
 1080000    1.0896437   -6.3889883    463.07268  0.035730917  0.036452146            2 
 1081000    1.0737253   -6.3967094    461.30479  0.035561578  0.036441827            7 
 1082000    1.1046017    -6.358233    463.65257  0.035709532  0.036431724            3 
 1083000    1.0424006   -6.3779375    463.81549  0.035689096  0.036421495            5 
 1084000    1.0846936   -6.3620918    465.06944  0.035752571  0.036411508            3 
 1085000    1.0695374   -6.3836397    465.35783  0.035741768  0.036401651            7 
 1086000    1.0795093   -6.3588239    465.95541  0.035754713  0.036392085            3 
 1087000    1.0665405   -6.3872034    466.74994  0.035782731   0.03638256            3 
 1088000    1.0644169   -6.3630778    467.70231  0.035822787  0.036372948            2 
 1089000    1.1018321   -6.3973164    465.95367  0.035656081  0.036363548            2 
 1090000      1.07598   -6.3862015    466.78298  0.035686772  0.036353946            3 
 1091000    1.0739859   -6.3620701    467.28914  0.035692723   0.03634435            4 
 1092000    1.0587659   -6.3286327    469.05248  0.035794603  0.036334895            6 
 1093000    1.0517337    -6.373855    468.97055  0.035755608  0.036325489            3 
 1094000     1.081546   -6.3676671    469.58124  0.035769443  0.036316107            2 
 1095000    1.0914312   -6.3562758    469.22709  0.035709824  0.036306743            5 
 1096000    1.0931328   -6.3360581    469.09753  0.035667391  0.036297358            4 
 1097000    1.0797306   -6.3415063    471.09482  0.035786601  0.036288183            3 
 1098000    1.0617901     -6.36093    469.17918   0.03560862  0.036279213            5 
 1099000     1.084583   -6.3740357    471.74755   0.03577097  0.036270176            2 
 1100000    1.0936615   -6.3691098    470.98257  0.035680498  0.036261063            3 
 1101000    1.0896959    -6.372629    472.06633  0.035730119  0.036251704            3 
 1102000    1.0704305   -6.3534015    471.41739  0.035648623  0.036242558            6 
 1103000     1.068958   -6.3749768    470.79447  0.035569241  0.036233136            6 
 1104000    1.0515854   -6.3592135    471.86302  0.035617679  0.036223621            3 
 1105000    1.0652556   -6.3384134    474.43682  0.035779549  0.036214265            2 
 1106000    1.0882563   -6.3807541    472.47919  0.035599698  0.036205218            4 
 1107000    1.0779427   -6.3850845    472.63483  0.035579256  0.036195983            5 
 1108000    1.0456256   -6.3486007    473.22036  0.035591182  0.036186861            5 
 1109000    1.0486778   -6.3781171    473.76228  0.035599811  0.036177671            3 
 1110000    1.0520319    -6.375443    473.16097  0.035522596  0.036168515            6 
 1111000    1.0648036   -6.3593053    474.81695  0.035614832  0.036159077            2 
 1112000    1.0735803    -6.378059    473.97397  0.035519632  0.036149453            3 
 1113000    1.1100909   -6.3761156    473.86772  0.035479763  0.036139711            4 
 1114000    1.0902704   -6.3607891    475.16798  0.035545181  0.036130167            4 
 1115000    1.0424856   -6.3739583    473.28777  0.035372778  0.036120515            4 
 1116000    1.0657055   -6.3595746     473.9755  0.035392436  0.036110696            3 
 1117000    1.0858023   -6.3628857    475.09999  0.035444643  0.036100955            4 
 1118000     1.066137   -6.3936969    475.62702  0.035452223  0.036091058            5 
 1119000    1.1000889   -6.3570624    475.52683   0.03541308  0.036081388            7 
 1120000    1.1011537   -6.3898711    478.15926  0.035577326  0.036071701            6 
 1121000    1.0755996   -6.3618758    475.70708  0.035363298  0.036061985            8 
 1122000    1.0762428   -6.3369404    476.86979  0.035418137  0.036052399            2 
 1123000    1.0687898   -6.3726052    476.98925  0.035395462  0.036042934            5 
 1124000    1.0506512   -6.3660228    478.19293  0.035453213   0.03603358            4 
 1125000    1.0786713   -6.3908561    478.72448  0.035461073  0.036024079            4 
 1126000     1.036998   -6.3789647    479.64694  0.035497849   0.03601478            4 
 1127000      1.07436    -6.363225     479.0124  0.035419432  0.036005494            3 
 1128000    1.0876356   -6.3522774    479.34171   0.03541236  0.035996361            4 
 1129000     1.061147   -6.3650669    480.52142   0.03546807  0.035987276            5 
 1130000    1.0701299   -6.3541267    481.31176  0.035494968  0.035978189            4 
 1131000    1.0555528   -6.3522889    481.71402  0.035493223  0.035969207            2 
 1132000    1.0843146    -6.366874    483.55602  0.035597469  0.035960386            3 
 1133000    1.0698536   -6.4128933    481.81851  0.035438255  0.035951428            6 
 1134000     1.072865   -6.3697781    480.96556  0.035344324   0.03594237            4 
 1135000    1.0582889    -6.383979    481.14266  0.035326186  0.035933181            5 
 1136000    1.0596325   -6.3876071    480.84211  0.035273042    0.0359236            2 
 1137000     1.069346   -6.3548987     483.0126    0.0354011  0.035914211            3 
 1138000    1.0467381    -6.393222    481.77326  0.035279237  0.035904829            6 
 1139000    1.0896249   -6.3638725    481.80635  0.035250684  0.035895585            3 
 1140000    1.0555728    -6.356289     483.6247  0.035352682  0.035886315           10 
 1141000    1.0625548   -6.3903188    483.54327  0.035315751  0.035876893            2 
 1142000    1.0795911   -6.3792029    481.73104  0.035152586  0.035867401            4 
 1143000     1.074605   -6.3526582    483.60629  0.035258551  0.035858057            4 
 1144000    1.0671726   -6.3847597    482.96612  0.035181099  0.035848733            3 
 1145000    1.0690699   -6.3597839    485.70116  0.035349429  0.035839519            1 
 1146000    1.0612145    -6.386444    486.31818  0.035363451   0.03583034            4 
 1147000     1.083335   -6.4172436    485.40897  0.035266563  0.035821262            3 
 1148000     1.066634   -6.3989932    486.23008  0.035295447  0.035812276            5 
 1149000    1.0654006   -6.3504419    488.07343  0.035398421  0.035803433            2 
 1150000    1.0753655   -6.4337155    484.54025  0.035111612  0.035794476            3 
 1151000     1.083394   -6.4055017    487.47106    0.0352933  0.035785422            2 
 1152000    1.0765072   -6.4276984    486.58293  0.035198418  0.035776345            8 
 1153000    1.0644536   -6.4089369    486.99987  0.035198025  0.035767358            5 
 1154000    1.0909893   -6.3848275    488.97818  0.035310383  0.035758396            5 
 1155000    1.0706111   -6.3592047    488.55828  0.035249515  0.035749536            2 
 1156000     1.067512   -6.3688403    489.72307   0.03530299  0.035740959            4 
 1157000    1.0724046   -6.3862851    490.24415  0.035310008  0.035732067            5 
 1158000     1.070203   -6.4126446     490.4049  0.035291084  0.035723405            9 
 1159000    1.0639282   -6.4048347    491.47266  0.035337408  0.035714845            3 
 1160000    1.0629556   -6.3661863    491.26315  0.035291893  0.035706235            3 
 1161000     1.064705   -6.3641568     491.7861  0.035299031  0.035697456            4 
 1162000    1.0710317    -6.363819    492.30928  0.035306173  0.035688708            2 
 1163000     1.064613   -6.3669259    492.74374  0.035306946  0.035679944            5 
 1164000    1.0885992   -6.3407495    492.00235  0.035223536   0.03567113            7 
 1165000    1.0407769   -6.4012531    492.07925  0.035198802  0.035662341            3 
 1166000    1.0902202   -6.3850544    492.09382  0.035169655  0.035653501            6 
 1167000    1.0905851   -6.4153757    494.05255  0.035279388  0.035644738            5 
 1168000    1.0521665   -6.3719901    493.41067  0.035203387  0.035636044            9 
 1169000    1.0762023   -6.3972881    493.75924  0.035198121  0.035627506            4 
 1170000    1.0787776    -6.386141    494.34163  0.035209518  0.035618946            3 
 1171000    1.0455209   -6.3841179    495.71858   0.03527744  0.035610454            3 
 1172000    1.0592265   -6.4146357    495.00931  0.035196908  0.035601732            2 
 1173000    1.0590301   -6.3896732    495.69512  0.035215624  0.035593308            4 
 1174000    1.0717516   -6.3592459     495.2121  0.035151341  0.035584709            4 
 1175000    1.0516955    -6.355003    496.81215  0.035234904  0.035576049            3 
 1176000    1.0345686    -6.362831    496.56758  0.035187612  0.035567658            6 
 1177000    1.0863274   -6.4070413    496.40894  0.035146484  0.035559136            7 
 1178000    1.0770345    -6.380046    496.58762  0.035129288  0.035550754            3 
 1179000    1.0656331   -6.4089185    496.38433  0.035085124  0.035542228            4 
 1180000    1.0818879   -6.4079341    497.43265  0.035129424  0.035533637            3 
 1181000    1.0682425   -6.3860058    496.50058   0.03503391  0.035524765            3 
 1182000    1.0605681   -6.3470964    498.49454  0.035144849  0.035516038            3 
 1183000    1.0551359   -6.4052164    498.45297  0.035112213  0.035507505            5 
 1184000    1.0650725   -6.4297898    498.24893  0.035068196  0.035498896            5 
 1185000    1.0801373   -6.3975976    499.24049  0.035108332  0.035490395            4 
 1186000    1.0795498   -6.3733216    499.59387  0.035103561  0.035482002            5 
 1187000    1.0635536   -6.4062601    498.57283  0.035002305  0.035473672            6 
 1188000    1.0657042   -6.4235803    499.88155  0.035064643  0.035465178            3 
 1189000    1.0503059   -6.3825228     501.3456  0.035137763  0.035456807            2 
 1190000    1.0617566   -6.3909274    502.21526  0.035169136  0.035448731            3 
 1191000    1.0628619   -6.3947048    501.74177  0.035106477   0.03544052            6 
 1192000    1.0766341   -6.3710421    502.47559  0.035128327  0.035432328            3 
 1193000    1.0372501   -6.3793582     500.9997  0.034995788  0.035423979            3 
 1194000    1.0621748   -6.4050898    500.46355  0.034929059  0.035415473            5 
 1195000    1.0816923   -6.4048639     501.6174  0.034980293  0.035406983            7 
 1196000     1.054757   -6.3927882    503.01896  0.035048702  0.035398242            4 
 1197000    1.0789985   -6.4290431    502.61667  0.034991414  0.035389643            6 
 1198000    1.0223241   -6.4089244    502.21755  0.034934443  0.035380959            6 
 1199000    1.0654114   -6.3707054    503.78328  0.035014128  0.035372375            2 
 1200000    1.0566116   -6.3764946    503.23401  0.034946806  0.035363829            2 
 1201000    1.0692329   -6.4079489    502.67985  0.034879257  0.035355227            5 
 1202000    1.0591361   -6.3978414     504.4159  0.034970597  0.035346517            5 
 1203000    1.0415109   -6.3582557    505.74931  0.035033895  0.035337891            3 
 1204000    1.0726779    -6.346487     504.5599  0.034922474  0.035329258            7 
 1205000    1.0608506   -6.4120471    504.88938  0.034916278  0.035320758            6 
 1206000    1.0405047   -6.3680007    505.09069  0.034901236  0.035312251            7 
 1207000    1.0650568   -6.3532261    504.74338  0.034848342  0.035303597            5 
 1208000    1.0422648   -6.4153748    506.01288  0.034907069   0.03529494            3 
 1209000    1.0795991   -6.3869206    505.01472  0.034809396  0.035285975            5 
 1210000    1.0741991   -6.4341335     505.8108  0.034835454   0.03527715            3 
 1211000    1.0645625   -6.4189195    505.89718  0.034812633  0.035268368            4 
 1212000    1.0537072   -6.4259131    505.91528  0.034785154  0.035259579            8 
 1213000    1.0707509   -6.3636528    507.40425   0.03485877  0.035250716           12 
 1214000    1.0539072   -6.3705044    505.93834   0.03472943  0.035241869            6 
 1215000    1.0731965   -6.4030809     508.3248  0.034864526  0.035233186            6 
 1216000    1.0551485   -6.4118961    506.93907  0.034740891   0.03522437            3 
 1217000    1.0662946   -6.3766123    508.54158  0.034822075  0.035215622            3 
 1218000    1.0438936   -6.4231847    508.07158  0.034761328  0.035206919            3 
 1219000    1.0545129   -6.4074122    509.13334  0.034805396  0.035198213            5 
 1220000    1.0570498   -6.3682178     510.8107  0.034891441   0.03518962            3 
 1221000    1.0573141   -6.4195395    510.26589  0.034825682   0.03518097            4 
 1222000    1.0454978   -6.3696367     512.2792  0.034934479  0.035172505            7 
 1223000    1.0622658   -6.3908719    510.76228  0.034802554  0.035164043            9 
 1224000    1.0511993   -6.4048767    511.02481  0.034791994  0.035155404            3 
 1225000    1.0499706   -6.4000591     510.6021  0.034734837  0.035146626            3 
 1226000    1.0311168   -6.3829251    511.40972    0.0347614  0.035137841            3 
 1227000    1.0689572   -6.3856572     511.1726  0.034716966   0.03512908            4 
 1228000    1.0617352   -6.3853758    511.11773  0.034684971   0.03512027            4 
 1229000    1.0620138   -6.4105272     512.0884  0.034722566  0.035111574            4 
 1230000    1.0581785   -6.4382822    511.85916  0.034678805  0.035102984            3 
 1231000    1.0533323   -6.4080179    511.82848  0.034648557  0.035094373            4 
 1232000    1.0545083   -6.4191359    512.70467  0.034679699  0.035085711            3 
 1233000    1.0539274   -6.4346344    513.82617   0.03472737  0.035077309            5 
 1234000    1.0498946   -6.4031813    513.81741  0.034698637  0.035068928            5 
 1235000    1.0463766   -6.4026458     516.8329  0.034874015  0.035060831            3 
 1236000    1.0525407   -6.4140514    515.73404  0.034771712  0.035052814            4 
 1237000    1.0371573     -6.38232    516.12136  0.034769696   0.03504459            5 
 1238000     1.044179   -6.4261009    516.01314  0.034734325  0.035036305            9 
 1239000    1.0289005   -6.4152868    515.81664  0.034693075  0.035028046            4 
 1240000    1.0590826   -6.4631504    516.12664   0.03468593  0.035019741            6 
 1241000    1.0545821   -6.4092883     516.1318  0.034658326  0.035011423            7 
 1242000    1.0729139   -6.4066719    517.50129  0.034722309  0.035003285            4 
 1243000    1.0389545   -6.4053917    518.81375  0.034782364  0.034995087            3 
 1244000    1.0466759   -6.3968864    516.78884  0.034618759  0.034987106            6 
 1245000     1.047454   -6.4164297     517.2703  0.034623179  0.034979116            4 
 1246000    1.0540404   -6.4177066    518.56256  0.034681819   0.03497111            5 
 1247000    1.0655514   -6.4077325     518.2527    0.0346333   0.03496294            3 
 1248000    1.0474428   -6.4127908    519.42179  0.034683613  0.034954778            6 
 1249000     1.056941   -6.4221587    519.09581  0.034634094  0.034946626            4 
 1250000    1.0295249   -6.4388184    519.61401  0.034640934  0.034938389            4 
 1251000    1.0381517   -6.4041369    519.97238  0.034637115  0.034930234            3 
 1252000     1.066838   -6.4172935    520.95005  0.034674524  0.034922112            6 
 1253000    1.0372098    -6.423073    521.60832   0.03469063  0.034914023            3 
 1254000    1.0304808   -6.3980905    521.71496  0.034670053  0.034905897            5 
 1255000    1.0355611   -6.3839983     522.7589  0.034711747  0.034898056            5 
 1256000     1.070458   -6.4287806    522.07209  0.034638541   0.03489015            4 
 1257000    1.0533796   -6.4017008    522.48111  0.034638101  0.034882451            3 
 1258000    1.0469259   -6.3943316    522.99376  0.034644525  0.034874696            7 
 1259000    1.0463131   -6.3790202    523.83619  0.034672769  0.034867026            4 
 1260000    1.0514878   -6.4153687     522.0504  0.034527143  0.034859032            6 
 1261000    1.0561548   -6.4419902    524.16439  0.034639465  0.034851147            4 
 1262000      1.04809   -6.4259803    525.26771  0.034684872  0.034843415            3 
 1263000    1.0420341     -6.41955    525.55467  0.034676344  0.034835822            6 
 1264000    1.0516499   -6.3796472     525.6714  0.034656606  0.034828251            5 
 1265000    1.0417259   -6.4025418    525.99502  0.034650529  0.034820591            4 
 1266000    1.0410768   -6.4171597    526.01796  0.034624668  0.034812859            6 
 1267000    1.0538427   -6.3987271    525.97909  0.034594784  0.034805173            5 
 1268000    1.0541283   -6.4315046    525.25637  0.034520003  0.034797508            7 
 1269000    1.0345652   -6.4139982    528.51759   0.03470696  0.034789812            4 
 1270000     1.042121   -6.4216516    526.86857  0.034571428    0.0347822            3 
 1271000    1.0536598   -6.4230933    527.12977  0.034561354  0.034774528            5 
 1272000    1.0551418   -6.4092515    526.93129   0.03452118  0.034766659            3 
 1273000     1.076771   -6.3767255    528.69381   0.03460944  0.034759103            3 
 1274000    1.0653131   -6.4145517    529.09128  0.034608273  0.034751659            5 
 1275000     1.059427   -6.4278246    530.50632  0.034673616   0.03474404            3 
 1276000     1.031696   -6.4024906    529.80171  0.034600425  0.034736469            6 
 1277000     1.045681   -6.4156504    530.54767   0.03462201  0.034728845            4 
 1278000    1.0605492   -6.3958458    531.65894   0.03466738  0.034721395            4 
 1279000    1.0526974   -6.4262103    528.57706  0.034439475  0.034714142            5 
 1280000    1.0491949   -6.4229054    530.68668  0.034549914  0.034706835            5 
 1281000    1.0484167   -6.3861278    531.66242  0.034586418   0.03469951            6 
 1282000    1.0347568   -6.4231937    532.13131  0.034589918  0.034692342            4 
 1283000    1.0508979   -6.4209701    532.12737  0.034562702  0.034685228            4 
 1284000    1.0118529   -6.4311135    533.26161  0.034609399  0.034678118            3 
 1285000    1.0591888   -6.4320619    532.28281  0.034518989  0.034671036            5 
 1286000    1.0567679    -6.431533     534.5202  0.034637131  0.034663934            4 
 1287000    1.0529486   -6.4444399    534.36818  0.034600374  0.034656869            6 
 1288000    1.0504349   -6.4319669    534.95218  0.034611295  0.034649894            5 
 1289000     1.057119   -6.4369634    535.65374  0.034629799  0.034642891           11 
 1290000    1.0545963   -6.4144128    535.08791  0.034566403  0.034635844            6 
 1291000     1.031299   -6.4423136    536.60709   0.03463769   0.03462884            7 
 1292000    1.0533019   -6.4258507    537.40287  0.034662208   0.03462182            6 
 1293000    1.0383423   -6.4148126    536.33596  0.034566638  0.034615054            6 
 1294000    1.0318739   -6.3709727    537.68894  0.034627057  0.034608119            4 
 1295000    1.0504198   -6.4338113    536.38975  0.034516715  0.034601267            7 
 1296000    1.0542696   -6.4316434    537.15126  0.034539047  0.034594236            3 
 1297000    1.0487398   -6.4117154    537.48641  0.034533951  0.034587235            4 
 1298000    1.0607448   -6.4023101    538.05362  0.034543761  0.034580238            5 
 1299000    1.0293156   -6.4450742    540.64634  0.034683496  0.034573353            3 
 1300000    1.0311935   -6.4849989    538.54426  0.034522068  0.034566245            8 
 1301000    1.0447627   -6.4446471    539.37116  0.034548498  0.034559443            3 
 1302000    1.0071733   -6.4624595    537.89815  0.034427685  0.034552498            3 
 1303000    1.0242297   -6.4687493    537.38834  0.034368658  0.034545291            6 
 1304000    1.0391393   -6.4077502    539.48979  0.034476597  0.034538004            3 
 1305000    1.0421052   -6.4270784    539.39931    0.0344444  0.034531038            5 
 1306000    1.0553513   -6.4366454    537.82078  0.034317303  0.034523919            5 
 1307000    1.0615895   -6.4194248    541.29116  0.034512316  0.034516624            5 
 1308000    1.0541055   -6.4414658    540.56608  0.034439735  0.034509538            4 
 1309000    1.0333876   -6.4162361    542.11154  0.034511812   0.03450236            2 
 1310000    1.0425434   -6.4412498    541.33906  0.034436327  0.034495083           10 
 1311000    1.0536861   -6.3914989     543.1699  0.034526437   0.03448797            3 
 1312000    1.0523359   -6.4158961     541.2716  0.034379548  0.034480891            2 
 1313000    1.0265721   -6.4522353    541.17945  0.034347516  0.034473653            3 
 1314000    1.0487614   -6.4259894    541.70891  0.034354954    0.0344663            5 
 1315000    1.0326233    -6.425576    541.34632  0.034305851  0.034459101            3 
 1316000      1.03927    -6.450071    543.17725  0.034395723  0.034451801            3 
 1317000    1.0522394   -6.4240799    544.07452  0.034426381  0.034444604            3 
 1318000     1.035243   -6.4483396    543.11623  0.034339671  0.034437641            5 
 1319000    1.0383288    -6.404193    543.43304  0.034333652  0.034430437            7 
 1320000    1.0464579     -6.44058    541.85422  0.034207968  0.034423186            4 
 1321000    1.0247801   -6.4272394    545.31333  0.034400286  0.034415907            4 
 1322000    1.0568158   -6.4007719    546.38673  0.034441927  0.034408847            5 
 1323000    1.0356346    -6.424745    544.95218  0.034325534  0.034401843            3 
 1324000    1.0352026   -6.4133321    545.81176  0.034353711  0.034394881            6 
 1325000    1.0229359   -6.4414828    546.89069  0.034395641  0.034387807            5 
 1326000    1.0375696   -6.4075547    548.89691  0.034495784  0.034380879            3 
 1327000    1.0445804   -6.4134281     545.3769  0.034248738  0.034373989            2 
 1328000     1.055696   -6.4366644    546.63196  0.034301705  0.034366876            4 
 1329000      1.04756   -6.4457559    548.13936  0.034370414  0.034359907            3 
 1330000    1.0468211   -6.4666444    546.75408  0.034257774  0.034352954            5 
 1331000    1.0657587   -6.4602054    547.60143  0.034285088  0.034345693            5 
 1332000    1.0418537    -6.446343    547.16853  0.034232265  0.034338522            4 
 1333000    1.0291931   -6.4517782    547.24323  0.034211254  0.034331017            4 
 1334000    1.0445732   -6.4494671    547.17303  0.034181224  0.034323658            5 
 1335000    1.0536229   -6.4540059    548.89648  0.034263201  0.034316431           12 
 1336000    1.0544081   -6.4285793    548.81315  0.034232357    0.0343093            3 
 1337000    1.0448935    -6.448391    548.18298  0.034167476  0.034302015            8 
 1338000     1.023096   -6.4449332    547.42977  0.034095028  0.034294763            4 
 1339000    1.0308772   -6.4149632    550.09895  0.034235683  0.034287484            5 
 1340000    1.0395851    -6.431854    549.46132   0.03417048  0.034280039            4 
 1341000    1.0273057   -6.4290461    550.48931  0.034208881  0.034272726            4 
 1342000    1.0835445   -6.4420233    549.41058  0.034116405  0.034265585            3 
 1343000    1.0467105   -6.4533995    550.79697  0.034177027  0.034258531            5 
 1344000    1.0479526   -6.3889802    552.66673   0.03426753  0.034251455            2 
 1345000    1.0530251   -6.4688076    549.75064  0.034061378  0.034244302            3 
 1346000    1.0301459   -6.4363016     552.9664  0.034235166  0.034237183            5 
 1347000    1.0484827   -6.4659135    551.77686  0.034136158  0.034230156            4 
 1348000    1.0463208   -6.4375156    553.43833  0.034213547  0.034222952            6 
 1349000    1.0418696   -6.4009434    553.50453  0.034192274  0.034215797            5 
 1350000    1.0352176   -6.4478018    553.18289  0.034147092  0.034208767            4 
 1351000    1.0128456   -6.4142354    553.48962  0.034140736   0.03420171            4 
 1352000    1.0487747    -6.386823    553.91842  0.034141914  0.034194665            6 
 1353000    1.0503179   -6.4230538    552.51225  0.034030072  0.034187705            8 
 1354000    1.0401821   -6.4661788    552.31707  0.033992927  0.034180491            9 
 1355000     1.030689   -6.4282403    554.51068  0.034102748  0.034173272            5 
 1356000    1.0491738   -6.4084445    555.98247  0.034168048  0.034166231            8 
 1357000    1.0277006   -6.4287149     554.3372  0.034041832  0.034159172            3 
 1358000    1.0076273   -6.4397548    553.91094  0.033990608  0.034151984            6 
 1359000    1.0231346   -6.4324179    555.90877  0.034088102  0.034144785            4 
 1360000    1.0477836   -6.4424257    555.03835  0.034009703    0.0341377            5 
 1361000    1.0299359   -6.4618711    555.11151  0.033989194  0.034130466            3 
 1362000    1.0127275   -6.4380023    555.93714  0.034014754  0.034123432            2 
 1363000    1.0539209   -6.4386767     559.4386  0.034203876  0.034116477            7 
 1364000    1.0341245   -6.4459948    557.17747  0.034040657  0.034109508            4 
 1365000    1.0329656    -6.453644    558.71233  0.034109422  0.034102409            4 
 1366000    1.0272523   -6.4805881    557.91971  0.034036097  0.034095566            4 
 1367000    1.0529796   -6.4347278    560.13989  0.034146543  0.034088611            4 
 1368000    1.0222272   -6.4439122    558.91612  0.034047034  0.034081612            2 
 1369000    1.0257019   -6.4467756    559.02735  0.034028936  0.034074769            5 
 1370000    1.0364942   -6.4438511    561.50864  0.034155027  0.034067866            4 
 1371000    1.0431903   -6.4350538    559.26869  0.033993964  0.034060993            6 
 1372000     1.027991   -6.4897648    558.53552  0.033924655   0.03405404            5 
 1373000    1.0322279   -6.4861473    560.46406  0.034016998  0.034047106            6 
 1374000    1.0288364   -6.4416258    561.47645  0.034053642  0.034040207            7 
 1375000    1.0313252   -6.4560617    560.38224   0.03396256   0.03403318           10 
 1376000     1.029282   -6.4573871     562.5158  0.034067091  0.034026072            8 
 1377000    1.0318972   -6.4523078    561.25585  0.033966101  0.034019039            5 
 1378000       1.0241   -6.4504931    561.82439  0.033975834  0.034011933            5 
 1379000    1.0339856   -6.4811836    562.01705  0.033962838  0.034004697            5 
 1380000    1.0301171   -6.4525465     562.2493  0.033952252  0.033997765            5 
 1381000    1.0371569   -6.4408076    561.54641  0.033885253  0.033990756            3 
 1382000    1.0360101   -6.4271105    563.32106  0.033967743  0.033983736            6 
 1383000    1.0537134   -6.4770184    563.55591  0.033957333  0.033976864            4 
 1384000    1.0235367   -6.4901126    564.12951  0.033967336  0.033969979           12 
 1385000    1.0238094   -6.4507536    564.87785  0.033987837  0.033963104            5 
 1386000    1.0407195   -6.4245076    563.74415  0.033895151   0.03395632            4 
 1387000    1.0215337   -6.4493507    564.61391   0.03392297  0.033949442            5 
 1388000    1.0281923   -6.4234348    564.62012  0.033898903  0.033942418           21 
 1389000    1.0360818   -6.4508486    565.04389  0.033899921  0.033935388           10 
 1390000    1.0149979   -6.4228198    566.00871  0.033933376  0.033928161            9 
 1391000    1.0096953    -6.437877    563.96475  0.033786529  0.033921107            6 
 1392000    1.0336926   -6.4532145    563.27319  0.033720856  0.033913939            3 
 1393000    1.0442801   -6.4233115    565.92766  0.033855448  0.033906807            6 
 1394000    1.0253808   -6.4821128    564.65818  0.033755272  0.033899675           11 
 1395000    1.0302366   -6.4241476    565.99431  0.033810891  0.033892421            9 
 1396000    1.0507839   -6.4503009    567.75318  0.033891665   0.03388519            4 
 1397000    1.0036428    -6.449929    565.64074  0.033741394  0.033877899            6 
 1398000    1.0298477   -6.4671117     566.2324  0.033752527  0.033870645            5 
 1399000   0.99654987   -6.4744817    567.04463  0.033776783  0.033863484            3 
 1400000    1.0195893   -6.4730658     566.4316  0.033716166   0.03385608            4 
 1401000      1.01197   -6.4663628    568.18744  0.033796541  0.033848808           11 
 1402000    1.0223205   -6.4247171    569.36521   0.03384244  0.033841753           16 
 1403000    1.0345436   -6.4619045    568.50035  0.033766949  0.033834729            5 
 1404000    1.0307417   -6.4650989    571.08604   0.03389637  0.033827563            3 
 1405000    1.0389303   -6.4542402    569.87483  0.033800405  0.033820608            4 
 1406000    1.0272372   -6.4584092    570.78862  0.033830525  0.033813654            7 
 1407000    1.0269044   -6.4635779    570.37702  0.033782103   0.03380664            6 
 1408000    1.0453745   -6.5008862    569.83778  0.033726194  0.033799503            6 
 1409000    1.0233975   -6.4683845    570.80799   0.03375964  0.033792454            6 
 1410000   0.99876264   -6.4002423    571.74549  0.033791104  0.033785507            4 
 1411000    1.0286532   -6.4779869    570.48836  0.033692911  0.033778593            3 
 1412000    1.0265095   -6.4648561    573.03193  0.033819165  0.033771778            3 
 1413000    1.0072804   -6.4760785    572.50882  0.033764379  0.033764807            5 
 1414000     1.022656   -6.4162633    572.52216  0.033741287  0.033758068            7 
 1415000    1.0106812   -6.4768616    572.92118  0.033740941  0.033751063            6 
 1416000    1.0431461    -6.445799    573.17203  0.033731876  0.033744187            3 
 1417000    1.0541999   -6.4495372    572.84906  0.033689076  0.033737341            9 
 1418000    1.0031113   -6.4861421    575.13743  0.033799802   0.03373034            4 
 1419000    1.0115202    -6.464677    575.60603  0.033803502  0.033723425            8 
 1420000    1.0271581   -6.4627178    573.26924  0.033642561  0.033716562            3 
 1421000    1.0290154   -6.4829871    574.18758  0.033672741  0.033709555            4 
 1422000    1.0133987   -6.4683653    575.82831  0.033745213  0.033702573            3 
 1423000    1.0538342   -6.4601887    573.96774   0.03361254   0.03369547            9 
 1424000    1.0337194    -6.468257    575.10892  0.033655719  0.033688417            5 
 1425000    1.0203554   -6.4375771    576.24735  0.033698676  0.033681399            2 
 1426000    1.0163934   -6.4746017    574.48344  0.033571964  0.033674289            3 
 1427000    1.0389402    -6.485953    575.13716  0.033586613  0.033667092            3 
 1428000    1.0245011   -6.5043714    577.13499   0.03367968  0.033660012            8 
 1429000    1.0115184   -6.4507474    576.11951  0.033596892  0.033652883            6 
 1430000    1.0073747   -6.4405547     575.8873  0.033559866  0.033645813            6 
 1431000   0.99743767   -6.4982198    574.74812  0.033470074  0.033638581            7 
 1432000     1.024843   -6.4903758     578.1789  0.033646351  0.033631211            4 
 1433000    1.0153505   -6.4624149    578.53909  0.033643818  0.033624158            3 
 1434000    1.0031596   -6.4457568    578.55528  0.033621297  0.033617234            3 
 1435000    1.0268266    -6.441262    576.92494  0.033503191  0.033610285           11 
 1436000    1.0322942   -6.4906028    578.16859  0.033552031  0.033603311            4 
 1437000    1.0171966   -6.4537395    579.02847  0.033578547  0.033596264            2 
 1438000    1.0180799   -6.4581012    579.48975  0.033581928  0.033589282            2 
 1439000    1.0188904   -6.4554416    579.77456  0.033575085  0.033582167           11 
 1440000    1.0197361   -6.4859565    577.48245  0.033419123  0.033575021            3 
 1441000    1.0274256   -6.4648763    579.31168  0.033501716  0.033567762            6 
 1442000    1.0353389   -6.4624613     579.2963  0.033477595  0.033560547            8 
 1443000    1.0146466   -6.4493655    579.11452  0.033443897  0.033553389            5 
 1444000    1.0143407   -6.4648179    579.30694  0.033431841  0.033546133            2 
 1445000    1.0120833   -6.4434938    580.00743  0.033449102  0.033538952            5 
 1446000    1.0229085   -6.4836701    578.51241  0.033339812  0.033531516            2 
 1447000    1.0184135   -6.4660485    579.68814  0.033384482  0.033524349            4 
 1448000     1.046347   -6.4817738    580.59876  0.033413833  0.033517331            4 
 1449000    1.0158168   -6.4885669    580.50274  0.033385251  0.033510195            6 
 1450000    1.0358375    -6.474384    581.55787  0.033422866  0.033503128            3 
 1451000    1.0366049   -6.4830839    581.89657  0.033419284  0.033495843            4 
 1452000    1.0214616   -6.4747583    583.11016  0.033465918  0.033488694            3 
 1453000    1.0103278   -6.4640323    583.41163  0.033460176  0.033481793            8 
 1454000    1.0279953   -6.5102084    583.17888  0.033423824  0.033474704            8 
 1455000    1.0113978   -6.4668559    582.84808  0.033381906  0.033467531            4 
 1456000    1.0336009   -6.4766364    583.74817  0.033410495  0.033460405            3 
 1457000    1.0313141   -6.4597566    583.36106  0.033365423  0.033453165            6 
 1458000    1.0183038    -6.482047    582.26231  0.033279739  0.033445888            5 
 1459000    1.0252519   -6.4433847    585.33918  0.033432669  0.033438744            6 
 1460000    1.0248043   -6.4640657    583.71208    0.0333169  0.033431723            5 
 1461000   0.99420147   -6.4817475    585.30214   0.03338479   0.03342452            6 
 1462000    0.9859871   -6.4922357    585.56371  0.033376864  0.033417358            5 
 1463000    1.0271435   -6.4669289    584.72844  0.033306473  0.033410247            3 
 1464000    1.0094803   -6.4732784    585.80554  0.033345033  0.033403138            5 
 1465000     1.015739   -6.4727059    586.91259  0.033385244  0.033396193            2 
 1466000    1.0231331   -6.4699592    587.70595  0.033407569   0.03338922            2 
 1467000    1.0205169   -6.4353518    587.50075  0.033373139  0.033382228            5 
 1468000    1.0281664   -6.4993299    585.88269  0.033258554  0.033375062            4 
 1469000   0.99579877   -6.4792829    587.44479  0.033324529  0.033367825            4 
 1470000   0.99496651   -6.4590708    586.63655   0.03325604  0.033360605            6 
 1471000    1.0386259   -6.4926199    586.01535  0.033198241  0.033353365            5 
 1472000    1.0106481   -6.4360092    589.98614  0.033400483   0.03334625            8 
 1473000    1.0307733   -6.4632834    587.84321  0.033256574  0.033339031            3 
 1474000    1.0265485   -6.4497704    588.41379   0.03326627  0.033331986            4 
 1475000    1.0128445   -6.4656562    589.04602  0.033279436   0.03332515            3 
 1476000    1.0172438   -6.4766426    586.94943  0.033138518  0.033318008            4 
 1477000     1.031228   -6.4817328     588.5454  0.033206127  0.033310842            4 
 1478000    1.0235225   -6.5039643     589.0151  0.033210143  0.033303653            6 
 1479000    1.0096734   -6.4465523    589.95716  0.033240768  0.033296515            6 
 1480000    1.0048199   -6.4932381    589.46437  0.033190562  0.033289348            3 
 1481000    1.0059286   -6.4889925    590.71335  0.033238428  0.033282219            4 
 1482000     1.029081   -6.4661974    591.09481   0.03323745  0.033275048            4 
 1483000   0.98955565   -6.4536618    591.75947  0.033252387  0.033267805            6 
 1484000    1.0048873   -6.4639458    590.76608  0.033174196  0.033260647            4 
 1485000    1.0159652   -6.4898571     591.0242  0.033166341  0.033253483            3 
 1486000    1.0336542   -6.4704632    591.38315  0.033164151  0.033246253            4 
 1487000    1.0094826   -6.4680532    591.78724  0.033164494  0.033239029            8 
 1488000    1.0046588   -6.4776223    591.71892   0.03313838  0.033231848            6 
 1489000    1.0152938   -6.4733057    592.40182  0.033154344  0.033224558            6 
 1490000   0.98583904   -6.4938448    593.01383  0.033166322  0.033217204            6 
 1491000    1.0029013   -6.5188719    590.78571  0.033019545  0.033209923            4 
 1492000    1.0146582   -6.4620443    593.98479  0.033176094  0.033202687            5 
 1493000    1.0031626   -6.5198098     591.5534  0.033018163  0.033195184            6 
 1494000    1.0510646   -6.4593109    594.43603  0.033156852  0.033187715            5 
 1495000    1.0154239   -6.5067218    594.01848  0.033111398    0.0331804            4 
 1496000    1.0175687   -6.4736185    592.14732  0.032985033  0.033172935            7 
 1497000    1.0128572   -6.4546321    595.19442  0.033132622  0.033165543            5 
 1498000    1.0273089   -6.4771748    593.40708  0.033011075  0.033158173            7 
 1499000    1.0093041   -6.4995415    594.37792  0.033043024  0.033150854            3 
 1500000    1.0331014   -6.5145211    596.02028  0.033112238  0.033143631           10 
 1501000    1.0127592   -6.4744583     595.4705  0.033059654  0.033136263            5 
 1502000    1.0212755    -6.504685    593.78262  0.032943998  0.033128812            5 
 1503000    0.9963042   -6.5102342    594.50199  0.032961964  0.033121346            6 
 1504000    1.0297681   -6.4923305    594.90531  0.032962395  0.033113945            7 
 1505000   0.99651992   -6.5044741    594.85388  0.032937646  0.033106538            3 
 1506000    1.0225542   -6.5288996    595.01144  0.032924493  0.033099022            4 
 1507000    1.0168088   -6.4865395    596.14223  0.032965175  0.033091502            4 
 1508000   0.99726368   -6.5062181    594.23987  0.032838189  0.033083984           10 
 1509000    1.0153033   -6.4679773    596.91201  0.032963994  0.033076483            5 
 1510000    1.0288613   -6.4502255    596.52351  0.032920724  0.033068837            4 
 1511000    1.0278678   -6.4820827    595.83416  0.032860918  0.033061239            4 
 1512000    1.0196505   -6.4899568    595.40721  0.032815653  0.033053535            4 
 1513000    1.0209079   -6.5000444    596.58822  0.032859012  0.033045837            5 
 1514000    1.0002673   -6.4645117    598.07749  0.032919281  0.033038195            4 
 1515000    1.0061552   -6.4971884    595.96462  0.032781332  0.033030573            4 
 1516000    1.0006599   -6.4926584    598.47614  0.032897765  0.033022982            2 
 1517000    1.0153978   -6.4564701    597.07124  0.032798903   0.03301536            5 
 1518000    1.0218859   -6.4844895    597.80036  0.032817323   0.03300784            5 
 1519000    1.0012801   -6.4718906     599.9013  0.032910978  0.033000344            5 
 1520000   0.99835437   -6.5110756    597.68933  0.032768056  0.032992686            4 
 1521000    1.0067251   -6.4856066    598.29282  0.032779576  0.032985045            4 
 1522000   0.99487801   -6.4704932    599.08706  0.032801525  0.032977393            8 
 1523000    1.0209541   -6.4888355    598.81586  0.032765149  0.032969734            3 
 1524000    1.0209434   -6.4950975    598.74379  0.032739709  0.032962105            7 
 1525000    1.0050866   -6.4952484    600.49976  0.032814195  0.032954446            2 
 1526000    1.0115613   -6.4940542    601.36894  0.032840156  0.032946835            3 
 1527000    1.0026324   -6.4786456    601.57767  0.032830041  0.032939297            3 
 1528000   0.99552577   -6.5142371    600.00462  0.032722765  0.032931654           25 
 1529000    1.0024519   -6.4901322    601.79621  0.032799009  0.032924025            5 
 1530000     0.984667   -6.4581398     600.8536  0.032726231  0.032916505            2 
 1531000    1.0050709   -6.5044512    602.76122  0.032808688  0.032908915            5 
 1532000   0.99621203   -6.5069264    601.19733  0.032702205  0.032901392            7 
 1533000    1.0334556   -6.4767152     602.0851  0.032729131  0.032893868            3 
 1534000    1.0053956   -6.5148553    602.56695  0.032733971  0.032886368            3 
 1535000    1.0103079   -6.4902368    603.43586  0.032759819  0.032878806            9 
 1536000   0.98525634   -6.5000208    604.96055   0.03282121  0.032871468            5 
 1537000    1.0143521   -6.5290428    603.45798   0.03271839  0.032863981            5 
 1538000    1.0237073   -6.4907689    603.22921  0.032684721  0.032856484            5 
 1539000    1.0069158   -6.5280508    605.66367  0.032795304  0.032849128            4 
 1540000    1.0216324    -6.495093    605.97782  0.032791008  0.032841775            8 
 1541000    1.0034669   -6.4755436    605.04027  0.032719028  0.032834509            4 
 1542000    1.0197258   -6.5113952    606.40486  0.032771555  0.032827312            7 
 1543000    1.0057455   -6.5382973    607.21235  0.032793927  0.032819938            4 
 1544000    0.9800823   -6.5109349    605.98977  0.032706702  0.032812582            6 
 1545000    1.0155702   -6.5009665    606.61704  0.032719365  0.032805214           10 
 1546000   0.99119683   -6.5186122    607.73312  0.032758361  0.032798009            6 
 1547000    1.0139908    -6.538277    606.06807  0.032647494  0.032790666            5 
 1548000    1.0036905   -6.4926565    606.47238  0.032648169  0.032783282           13 
 1549000    1.0145371   -6.5219472    607.12423   0.03266216  0.032775815            6 
 1550000   0.99736943   -6.5025407    608.96301  0.032739947  0.032768628            4 
 1551000    1.0101518   -6.5068936    606.41913  0.032582158  0.032761262            4 
 1552000    1.0150572   -6.4746082    609.86406  0.032746137  0.032754009            3 
 1553000    1.0279315   -6.5117189    607.61517  0.032604377  0.032746689            5 
 1554000    1.0166903   -6.5065104    608.84663  0.032649433  0.032739465            5 
 1555000    1.0232112   -6.4890929    610.75783  0.032730859  0.032732282            2 
 1556000   0.99097143    -6.484172    610.85251  0.032714895  0.032725086            7 
 1557000    1.0032721   -6.4797554    610.82395  0.032692354  0.032717789            4 
 1558000    1.0061084   -6.4881899    609.18236  0.032583566  0.032710626            4 
 1559000   0.99173437   -6.5149949    611.53615  0.032688483  0.032703372            3 
 1560000     1.025287   -6.4554646    611.31712  0.032655829  0.032696126            9 
 1561000    1.0059163   -6.5055919    612.17123  0.032680506  0.032688941            6 
 1562000   0.99207543   -6.4989691     610.7462  0.032583557  0.032681634            5 
 1563000    1.0181926    -6.485839    610.61189   0.03255555  0.032674269           10 
 1564000   0.98219178   -6.4830436    611.85941  0.032601205  0.032666862            2 
 1565000   0.99624123   -6.4984386    611.28896  0.032549998  0.032659552            5 
 1566000   0.99477273   -6.4904249    612.01987  0.032568107  0.032652082           11 
 1567000    1.0026132    -6.520641    612.20132  0.032556973  0.032644578            4 
 1568000   0.96634017   -6.5404811    611.99134   0.03252505  0.032637174            4 
 1569000    1.0108376   -6.5276843    611.69099  0.032488368   0.03262972            6 
 1570000    1.0326803   -6.5202952    613.14247  0.032544717  0.032622294            5 
 1571000    1.0102303    -6.514897    613.27322  0.032530937  0.032614822            6 
 1572000   0.99077367   -6.4953466    612.25293  0.032456156  0.032607306            7 
 1573000   0.99495718   -6.4813341     613.0304  0.032476711  0.032599847            5 
 1574000   0.98594759   -6.5202388    612.83522  0.032445744  0.032592309           14 
 1575000   0.96966824   -6.5121067    612.20531  0.032391815  0.032584754            5 
 1576000   0.97660953   -6.5457802    612.50779  0.032387256  0.032577037            6 
 1577000    1.0078339   -6.5196017    612.13362  0.032346947  0.032569426            4 
 1578000    1.0206113   -6.5487198    613.38788  0.032392685  0.032561824            3 
 1579000    1.0119407   -6.4834059    614.82721  0.032448132  0.032554142            2 
 1580000   0.99749347   -6.5223459    613.87458  0.032377351  0.032546481            5 
 1581000   0.99347925   -6.4918822    614.61945  0.032396134  0.032538979            4 
 1582000    1.0051072   -6.5046691    615.89617  0.032442908  0.032531419            2 
 1583000    1.0141172   -6.5185992    613.50926   0.03229676  0.032523854            5 
 1584000    1.0186976   -6.4924871    616.83281  0.032451221  0.032516324            5 
 1585000    1.0009049   -6.5000019    617.24193  0.032452257  0.032508857            7 
 1586000    1.0126253   -6.5352826    616.15256  0.032374557  0.032501335            6 
 1587000    1.0098067   -6.5136915     615.9178   0.03234183  0.032493913            6 
 1588000     1.015665   -6.5056203    616.95404  0.032375842  0.032486387            4 
 1589000    1.0094542   -6.5306787    617.41082  0.032379422   0.03247889            3 
 1590000     1.004677   -6.5042389    616.41872  0.032307061  0.032471266            5 
 1591000    1.0029889   -6.5178975    615.65335  0.032246666   0.03246361            4 
 1592000   0.98498679   -6.4802085    619.38306  0.032421642  0.032456083            5 
 1593000    0.9865155   -6.4697357    618.21776  0.032340331  0.032448539            6 
 1594000    1.0110535   -6.4978737    617.42636  0.032278668  0.032440925            7 
 1595000    1.0040178   -6.5128217    616.27874  0.032198472  0.032433257           20 
 1596000   0.99494264   -6.5026566    617.78798    0.0322571   0.03242559            6 
 1597000    1.0160307   -6.5329259    617.21925  0.032207225  0.032417823            9 
 1598000   0.99304576   -6.5379204    619.40505  0.032301056   0.03241011            5 
 1599000    1.0092793   -6.5169864    618.06911  0.032211231  0.032402434            3 
 1600000    1.0017813     -6.55743    619.50392  0.032265829  0.032394764            8 
 1601000   0.99621944   -6.5113625    618.77624  0.032207799  0.032387197            6 
 1602000   0.97235132   -6.4960277    618.83947  0.032190984  0.032379493            7 
 1603000   0.98530747   -6.5320839    619.78251  0.032219927  0.032371832            6 
 1604000    1.0024364   -6.5095209    621.96209  0.032313076   0.03236424            4 
 1605000     1.001453   -6.4957035    621.45254  0.032266487  0.032356697            7 
 1606000    0.9963565   -6.5140091    620.79702  0.032212382  0.032349199            3 
 1607000   0.99420858   -6.5257317    619.57692  0.032129066  0.032341687            7 
 1608000   0.98670813   -6.4970827    622.52191  0.032261708  0.032334223            5 
 1609000    1.0208227    -6.492987    623.20906  0.032277246  0.032326835            5 
 1610000    1.0219217   -6.5183947    622.26593  0.032208382  0.032319323            4 
 1611000   0.99648834    -6.525675    623.38237  0.032246139  0.032311858            5 
 1612000   0.95127972   -6.5237904     622.9681   0.03220472   0.03230446            9 
 1613000   0.98784844   -6.5062199    622.47245  0.032159147  0.032297024            6 
 1614000   0.98939769   -6.5165559    622.99488  0.032166196  0.032289594            8 
 1615000   0.98605246   -6.4801481    626.11937  0.032307501    0.0322822            3 
 1616000    0.9780602   -6.4894532    624.28677  0.032193006  0.032274853            6 
 1617000   0.99366728   -6.5049939    624.88771  0.032204066  0.032267413            4 
 1618000    1.0227171   -6.5001636    623.99444  0.032138156  0.032259939            5 
 1619000   0.98419445   -6.5015017    624.89968    0.0321649  0.032252473            6 
 1620000   0.99327108   -6.5180847    624.15782  0.032106884  0.032245035            6 
 1621000    1.0044411   -6.5377198    625.43484  0.032152727  0.032237466            8 
 1622000   0.98249122   -6.5242794     625.6106  0.032141934  0.032229922            5 
 1623000    1.0227196   -6.5490505    622.89826  0.031982864  0.032222384            5 
 1624000    1.0061333   -6.5218872    626.06254  0.032125541  0.032214939            4 
 1625000   0.98078107   -6.5107016    625.82327  0.032093501  0.032207476            4 
 1626000     1.000444   -6.5391028    626.37843  0.032102215  0.032199996            3 
 1627000   0.97088802    -6.524218    627.23831  0.032126527  0.032192526            5 
 1628000    1.0082309   -6.5466803    625.83593  0.032035009  0.032185035            7 
 1629000   0.99826102    -6.537598    626.24571  0.032036306  0.032177463            9 
 1630000   0.98760194   -6.5022294    627.52393  0.032082001  0.032169981            3 
 1631000     1.015905    -6.508869    628.04441  0.032088923  0.032162572            5 
 1632000   0.97591187   -6.5580616    628.49343  0.032092189   0.03215524            4 
 1633000    1.0085257   -6.5017309    628.95541  0.032096112  0.032147909            5 
 1634000   0.97428212   -6.5223655    628.95743  0.032076572  0.032140533            9 
 1635000   0.97434611   -6.5321227    627.61278  0.031988419   0.03213316            5 
 1636000   0.98208098   -6.5391792    629.60227  0.032070205  0.032125691            5 
 1637000   0.98087788   -6.5520325    628.92362  0.032016067  0.032118173            5 
 1638000    1.0044401   -6.5017774    628.42778  0.031971295  0.032110597            6 
 1639000   0.97849592   -6.5270267    628.68883  0.031965062  0.032103058            4 
 1640000   0.98149889   -6.5236336    630.15903  0.032020276  0.032095466            5 
 1641000   0.98468966   -6.4929613    629.44304  0.031964404  0.032087983            3 
 1642000   0.98524824   -6.5545904    628.60323  0.031902316  0.032080409            4 
 1643000    1.0038383   -6.5532699    630.97219  0.032003053  0.032072798            4 
 1644000   0.99318984   -6.5308508    629.88889  0.031928675  0.032065202            8 
 1645000   0.97641379   -6.5127353     629.8835  0.031908992  0.032057583            5 
 1646000    1.0003908   -6.5388443    629.77028  0.031883874  0.032050155            9 
 1647000   0.98774232   -6.5431322    629.92621  0.031872405  0.032042538            7 
 1648000   0.99910944   -6.5076774    629.63312  0.031838244  0.032034922            9 
 1649000   0.97846125   -6.5084075    630.54786  0.031865164   0.03202724            6 
 1650000    0.9980125   -6.5098015    632.37897  0.031938332  0.032019611            3 
 1651000    1.0008012   -6.5443208    630.82132  0.031840365  0.032011939            3 
 1652000    1.0050182    -6.545236    633.44038  0.031953207  0.032004249            6 
 1653000   0.97778877   -6.5312735    634.01514  0.031962852  0.031996724            5 
 1654000   0.99966666   -6.5387282    631.18535  0.031800955  0.031989269            6 
 1655000   0.98418791   -6.5296721    633.57956  0.031902294  0.031981727            5 
 1656000   0.96664373   -6.5462485    633.82355  0.031895308   0.03197432           10 
 1657000   0.99642758   -6.5368324    632.59996  0.031814522  0.031966851            4 
 1658000   0.97583529    -6.516821    634.32558  0.031882066  0.031959348            9 
 1659000   0.98040233   -6.5396689    635.38495  0.031916061  0.031951861            5 
 1660000   0.98055893   -6.5469023    633.96516   0.03182556  0.031944304            4 
 1661000   0.99407228   -6.5156581    635.48951  0.031882878  0.031936838           11 
 1662000   0.98262743   -6.5494878    633.22407  0.031750104  0.031929389            5 
 1663000     1.002557   -6.4972283    634.02641  0.031771217  0.031921892            5 
 1664000   0.98744911   -6.5450553    634.13122  0.031757373   0.03191442            7 
 1665000    0.9923503   -6.5676263    635.69447   0.03181654  0.031906781            5 
 1666000   0.96336676    -6.505493    634.79436  0.031752419  0.031899227            8 
 1667000   0.99877362   -6.4963782     634.8193  0.031734618  0.031891731            4 
 1668000   0.96389314   -6.5441977    634.52394  0.031700836  0.031884186            3 
 1669000   0.98212753   -6.5366533     634.9921  0.031705218  0.031876642            6 
 1670000   0.99081239   -6.5406203    635.20284  0.031696748  0.031869024            5 
 1671000   0.96574141   -6.5513372    637.17328  0.031776046  0.031861404            7 
 1672000    1.0001417   -6.5265719    636.09716  0.031703407  0.031853927           14 
 1673000    1.0023413   -6.5339504    639.01204  0.031829649  0.031846577            5 
 1674000   0.96314636   -6.5426442    636.86865  0.031703935  0.031839212            5 
 1675000   0.97789676    -6.522817    639.27579  0.031804766  0.031831828            6 
 1676000     1.008083   -6.5577352    637.98438  0.031721578  0.031824335           16 
 1677000    0.9623531   -6.5474293    638.66982  0.031736723  0.031816905            5 
 1678000   0.98288971   -6.5492887    638.69353  0.031718987  0.031809627            5 
 1679000   0.98052475   -6.5149978    640.78826  0.031804063  0.031802334            6 
 1680000   0.95768647   -6.5442304    639.82732  0.031737466  0.031794952           11 
 1681000   0.98935047   -6.5067108    640.64077  0.031758912  0.031787549            6 
 1682000   0.97275193   -6.5104885    640.02819   0.03170968  0.031780185            4 
 1683000   0.97034648   -6.5289674    639.84667  0.031681851  0.031772862            3 
 1684000   0.98886121   -6.5338921    642.42839  0.031790795  0.031765542            5 
 1685000   0.95470637   -6.5305607    639.00505  0.031602623    0.0317582            3 
 1686000   0.96706346   -6.5566611    638.88421  0.031577907  0.031750771            4 
 1687000     0.964774   -6.5188846    641.65781  0.031696197  0.031743426            5 
 1688000   0.98420148   -6.5408317    642.99558  0.031743463  0.031736003            6 
 1689000   0.96814109   -6.5332143    644.73208  0.031810345  0.031728763            3 
 1690000   0.99123911   -6.5397545     642.2615  0.031669699   0.03172143            7 
 1691000     0.969769   -6.5549199    643.96536  0.031734938  0.031714214            5 
 1692000     1.000426   -6.5660902    642.34204  0.031636231  0.031706805            8 
 1693000   0.98275946   -6.5537328     642.1104  0.031606143  0.031699395            6 
 1694000   0.99186761   -6.5556315    642.21343  0.031592553  0.031691939            7 
 1695000   0.97450792     -6.58625    642.67112  0.031596417  0.031684508           11 
 1696000   0.97386601   -6.5300208    642.90095   0.03158908  0.031677067            5 
 1697000   0.99458356   -6.5064455    643.48305   0.03159905  0.031669751            5 
 1698000   0.95816985   -6.5512167     644.4009  0.031625486   0.03166251           11 
 1699000   0.97595267   -6.5329698    643.51585  0.031563461  0.031655205            5 
 1700000   0.98403918   -6.5341519    643.11389  0.031525191  0.031647823            4 
 1701000   0.97205241   -6.5637872    644.31603  0.031565551  0.031640527            7 
 1702000    0.9659203   -6.5477215    644.60635   0.03156122  0.031633167           11 
 1703000   0.97089539   -6.5518828     645.9595  0.031608901  0.031625837           12 
 1704000   0.96433696   -6.5411342    645.09932  0.031548285   0.03161846            6 
 1705000   0.98690163    -6.587776    643.30816  0.031442236  0.031611073            6 
 1706000   0.97140026   -6.5333961    643.70833  0.031443353  0.031603521            5 
 1707000   0.99167314     -6.55964    646.17439  0.031545323  0.031596115            4 
 1708000   0.98563972   -6.5640602      644.169  0.031429011  0.031588685            5 
 1709000   0.97058157   -6.5481807    645.25808  0.031463725  0.031581126            8 
 1710000   0.95714315   -6.5451191    645.46196  0.031455261  0.031573513            4 
 1711000    0.9777229   -6.5434766    644.73121  0.031401286  0.031565921            4 
 1712000   0.99072357   -6.5704665    646.04117  0.031446708  0.031558364            6 
 1713000   0.97382961    -6.546821    647.39836  0.031494375  0.031550864            9 
 1714000   0.99149016   -6.5129862    644.58708  0.031339317  0.031543385            4 
 1715000   0.96065124   -6.5443014     647.4616  0.031460719  0.031535981            4 
 1716000   0.96965591   -6.5817217     647.5884  0.031448543  0.031528589            4 
 1717000   0.97848888   -6.5016883    648.11294  0.031455685  0.031521189            6 
 1718000   0.96026351   -6.5412568    647.40817   0.03140319  0.031513858            4 
 1719000   0.99528467   -6.5490995    648.80653  0.031452711  0.031506466            6 
 1720000   0.95674002   -6.5472419    649.22671  0.031454783  0.031499067            3 
 1721000   0.97217691    -6.571843    649.77143  0.031462881  0.031491659            7 
 1722000   0.97717354   -6.5785379    649.71079  0.031441676  0.031484272           10 
 1723000   0.97759641   -6.5391323    648.92633  0.031385487   0.03147691            5 
 1724000   0.96689981   -6.5690075    650.61084  0.031448707  0.031469573            7 
 1725000   0.95559471   -6.5697163     649.4222  0.031373053  0.031462236            5 
 1726000   0.99579382    -6.563927    650.96378  0.031429306  0.031454901            6 
 1727000   0.98870193   -6.5645593    649.98881  0.031364062  0.031447576            6 
 1728000    0.9856296    -6.560265    650.71129  0.031380753  0.031440172            7 
 1729000   0.96351246   -6.5463425    651.49097  0.031400181   0.03143287            7 
 1730000   0.95755049   -6.5648397    652.39623  0.031425637   0.03142562            5 
 1731000   0.98762426   -6.5275451    652.93745  0.031433538  0.031418307            3 
 1732000   0.98655185   -6.5826392    650.73124   0.03130924  0.031411058            9 
 1733000   0.94943373   -6.5380578    652.94216  0.031397488  0.031403767            4 
 1734000   0.95058912   -6.5949072    651.75203  0.031322185  0.031396552            4 
 1735000   0.98743237   -6.5389472    652.00169  0.031316123  0.031389316            7 
 1736000   0.98946073   -6.5772879    651.97113  0.031296617  0.031382091            4 
 1737000   0.98333082   -6.5321047    653.04098  0.031329926  0.031374829            9 
 1738000   0.95259937   -6.5643333    654.14748  0.031364954  0.031367588            4 
 1739000   0.97082121   -6.5789725    653.26516  0.031304637  0.031360332           16 
 1740000   0.97394164   -6.5675077    653.21149  0.031284075  0.031353048            5 
 1741000   0.96923433   -6.5432713    653.31782  0.031271195  0.031345666            7 
 1742000   0.96917612   -6.5536116    654.64472   0.03131672  0.031338415            2 
 1743000   0.97341387   -6.5556573    654.63994  0.031298525  0.031331173            4 
 1744000     0.970196   -6.5741343    655.25893  0.031310155   0.03132392            4 
 1745000   0.96480849   -6.5473196    657.04951  0.031377722  0.031316759            5 
 1746000   0.96228115   -6.5654951    655.15806  0.031269476  0.031309586            6 
 1747000   0.98935815   -6.5438735    656.79889  0.031329846  0.031302472            3 
 1748000    0.9467108   -6.5778929    654.26873  0.031191301  0.031295293            3 
 1749000   0.99103717   -6.5384569    658.25375  0.031363339  0.031288089            6 
 1750000   0.99771247   -6.5607031    655.40876  0.031209941  0.031280814            4 
 1751000   0.94878647   -6.5612522    656.00766   0.03122062  0.031273481           12 
 1752000    0.9669185   -6.5416153    654.74556  0.031142768  0.031266063            5 
 1753000   0.95790608   -6.5976499    655.42739  0.031157415  0.031258596            5 
 1754000   0.95958633   -6.5535731    656.18011  0.031175414  0.031251209           10 
 1755000   0.96175535   -6.5984512    656.27203  0.031162015  0.031243651            6 
 1756000   0.97245541   -6.5577061    655.92649  0.031127871  0.031236137            5 
 1757000   0.98573513    -6.559444     656.7148  0.031147543  0.031228772            4 
 1758000   0.97485244   -6.5284935    656.18318  0.031104626  0.031221353           16 
 1759000   0.96574323   -6.5611923    656.71335  0.031112059  0.031213929            7 
 1760000    0.9456089   -6.5493072    658.64766  0.031185969  0.031206491            3 
 1761000   0.95887485   -6.5734376    658.47827  0.031160244  0.031199031            8 
 1762000   0.99241125   -6.5255046    658.40698  0.031139187  0.031191586            7 
 1763000    0.9650478   -6.5836138    658.19245  0.031111385  0.031184136            5 
 1764000   0.96004562   -6.5762758    658.91644   0.03112795  0.031176724            6 
 1765000   0.97110284   -6.5405867    658.89067  0.031109097  0.031169361            6 
 1766000   0.96350972   -6.5617494    658.95501  0.031094517  0.031162035            5 
 1767000   0.94116653   -6.5300693    660.39991  0.031145063  0.031154735            4 
 1768000   0.96667241   -6.5687811    660.03698   0.03111034  0.031147398            4 
 1769000   0.98754309    -6.564266    660.42725  0.031111139   0.03114016            6 
 1770000   0.98196773   -6.5574068     661.1857   0.03112927  0.031132923            5 
 1771000   0.96850154   -6.5724799    660.21274  0.031065911  0.031125636            5 
 1772000    1.0047805   -6.5732539    659.46746  0.031013331  0.031118306            6 
 1773000   0.97885946   -6.5768809    659.73912  0.031008607  0.031110916            5 
 1774000   0.95444121   -6.5913454    660.91165  0.031046207  0.031103562           11 
 1775000   0.95955887   -6.5799184     661.8638  0.031073418  0.031096237            4 
 1776000   0.96994289   -6.5551871    661.04087  0.031017308  0.031089007            4 
 1777000   0.96535757   -6.5861795    662.21605  0.031054964  0.031081681            2 
 1778000   0.93688893   -6.5667652    661.59102  0.031008203  0.031074355            5 
 1779000   0.97349856    -6.539662    661.79447  0.031000303  0.031066949           10 
 1780000   0.96938953   -6.5940299    660.94006  0.030942887  0.031059511            3 
 1781000   0.97015665   -6.5824828    662.65829  0.031005909   0.03105221            4 
 1782000   0.95675815   -6.5485992    662.37749  0.030975378  0.031044928            7 
 1783000   0.99385004   -6.5635181    663.39674  0.031005643  0.031037639            2 
 1784000   0.96287195   -6.5924981    662.19889   0.03093231  0.031030328            6 
 1785000   0.95082918   -6.5460879    663.69446  0.030984802  0.031022857            4 
 1786000   0.95852997   -6.5839329    662.59712  0.030916253  0.031015423            7 
 1787000    0.9660018   -6.5549302     665.5803  0.031038066  0.031008044            4 
 1788000   0.97264233    -6.584415    663.77332   0.03093649  0.031000705            4 
 1789000   0.97920815   -6.5339388    662.77167  0.030872539  0.030993348            9 
 1790000   0.97027972   -6.5769435    665.08213  0.030962855  0.030985952            3 
 1791000   0.94156568   -6.5399968    663.33996  0.030864506  0.030978515            5 
 1792000   0.96922128   -6.5542926      665.771  0.030960333  0.030971119           10 
 1793000   0.95582721   -6.5702344    664.58439  0.030887916  0.030963793            6 
 1794000   0.96556062   -6.5869386    664.43758  0.030863878   0.03095638            3 
 1795000   0.93755577   -6.5380115     664.9881  0.030872242  0.030949017            4 
 1796000    0.9743223   -6.5651511    664.83144  0.030847784  0.030941732            4 
 1797000   0.93201939   -6.5629878     665.5573  0.030864278  0.030934456            4 
 1798000   0.95547862    -6.548548    666.33707  0.030883253  0.030927263            3 
 1799000   0.98232985   -6.5832709    665.06371  0.030807101  0.030920036            6 
 1800000   0.95704881   -6.5734207    668.06115  0.030928757  0.030912739            4 
 1801000   0.94357979   -6.5693458    667.46707  0.030884095  0.030905424            7 
 1802000   0.94537998   -6.6106462     666.5507  0.030824579  0.030898105            5 
 1803000    0.9572225   -6.5699693    667.44935  0.030849018   0.03089081            4 
 1804000   0.96778601   -6.5634096     666.8412  0.030803825  0.030883483            5 
 1805000   0.96959697   -6.5919143    666.25833  0.030759849  0.030876225            7 
 1806000   0.94777132    -6.574255    667.86563  0.030816982  0.030868895            7 
 1807000   0.97210803   -6.5884707    666.79729  0.030750659  0.030861522            6 
 1808000   0.94699541   -6.5750528    666.35571  0.030713298   0.03085406            3 
 1809000   0.97253393   -6.5867988    667.14053  0.030732473  0.030846647            4 
 1810000   0.95244087   -6.5598106    669.09692  0.030805567  0.030839295            4 
 1811000   0.96022014   -6.6068854    667.60832  0.030720059   0.03083189            5 
 1812000   0.96986721   -6.5688587    669.02016  0.030768035  0.030824458            7 
 1813000   0.95432848   -6.5872478    668.32794  0.030719247   0.03081714            4 
 1814000   0.95867407   -6.5412725    669.53892  0.030757944  0.030809798            7 
 1815000   0.94914211   -6.5375622    669.41272  0.030735203  0.030802496            5 
 1816000   0.97492795    -6.541604    669.23632  0.030710184  0.030795093            7 
 1817000   0.98434921   -6.5747271    670.54558  0.030753329  0.030787691            6 
 1818000   0.96132749   -6.5720017    670.53827  0.030736078  0.030780305            3 
 1819000   0.96553211   -6.5922004     669.7207  0.030681725  0.030772879            8 
 1820000   0.94679526    -6.605025    668.55616  0.030611546   0.03076539           10 
 1821000   0.95316651   -6.5705574    669.90899  0.030656644  0.030757955            3 
 1822000   0.97846998   -6.5598632    671.59615  0.030716985  0.030750552            5 
 1823000   0.93201009   -6.5969918    671.39747  0.030691053  0.030743178           13 
 1824000   0.97262618   -6.5878104    671.87956  0.030696252  0.030735764            7 
 1825000   0.96492212   -6.5614823    671.59889  0.030666616   0.03072841            5 
 1826000    0.9700292   -6.5595492    672.50725  0.030691276  0.030721074           11 
 1827000   0.97928106   -6.5895995    672.69307  0.030682954  0.030713726            3 
 1828000   0.97220948   -6.6062163    670.63447  0.030572323  0.030706338            6 
 1829000   0.95525812   -6.5693381    671.26891  0.030584514  0.030698819            4 
 1830000   0.96261613   -6.5756371    670.11796   0.03051539  0.030691407           10 
 1831000   0.96137109   -6.5798417    672.69045  0.030615804  0.030683878            5 
 1832000   0.95088411   -6.5998992    672.66332  0.030597858  0.030676408            3 
 1833000   0.95809127   -6.5669048     672.6498  0.030580551  0.030668983           11 
 1834000   0.95456724    -6.604798    671.95331  0.030532229  0.030661543            6 
 1835000   0.95281185   -6.5602544    672.42793  0.030537145  0.030654116            6 
 1836000   0.94652427   -6.5809058    674.15186  0.030598759  0.030646801            6 
 1837000   0.94049361   -6.5611105    674.09916  0.030579712  0.030639357            4 
 1838000   0.92923767   -6.6020695     674.5787  0.030584816  0.030631987            8 
 1839000   0.95208612   -6.5875093    672.96092  0.030494876  0.030624542            4 
 1840000   0.94998661   -6.6162203    674.72841  0.030558352  0.030617052            4 
 1841000   0.96475543    -6.568431     674.6939  0.030540191  0.030609595            3 
 1842000   0.95628313   -6.5868095    672.65233  0.030431249  0.030602143           10 
 1843000   0.96826205   -6.5849158     673.9797  0.030474756  0.030594719            5 
 1844000   0.96437182   -6.5751609     675.0555  0.030506847  0.030587162            8 
 1845000   0.95563685   -6.6020212    674.24584  0.030453742  0.030579641           11 
 1846000    0.9612632   -6.6292694    674.11704   0.03043143  0.030572126            4 
 1847000   0.94427786   -6.5900731    675.89206   0.03049504  0.030564658            4 
 1848000    0.9656268    -6.589727     676.6905  0.030514543  0.030557324            6 
 1849000    0.9560116   -6.5741791    677.81589   0.03054876  0.030549976            4 
 1850000   0.94288341   -6.5682894     677.6593  0.030525194  0.030542658            5 
 1851000    0.9466469   -6.5697361    678.26989  0.030536192  0.030535296            3 
 1852000   0.95875845   -6.5701035    677.80284  0.030498688  0.030527919            9 
 1853000   0.95434611   -6.6141452    678.17689  0.030499051  0.030520687            4 
 1854000   0.95393951   -6.5833664    679.64489  0.030548583  0.030513369            4 
 1855000   0.94778619   -6.5980206    676.91224  0.030409355  0.030505944            3 
 1856000   0.96158668   -6.6070142    679.07767  0.030490197  0.030498512            3 
 1857000   0.95055449   -6.6126944    676.19426  0.030344385  0.030491078            6 
 1858000   0.96390624   -6.5799339    678.66028  0.030438656  0.030483603            6 
 1859000   0.96323266   -6.5779034    676.41703  0.030321724  0.030476065           10 
 1860000    0.9700504   -6.5813643    679.32479  0.030435698   0.03046856            8 
 1861000   0.95937899   -6.5679501    678.00403  0.030360202  0.030461013            6 
 1862000   0.95684908   -6.6258921    677.80042  0.030334784  0.030453472            4 
 1863000   0.94415848   -6.6155845    675.44225  0.030213019  0.030445881            7 
 1864000   0.94518137   -6.5921884    677.99746  0.030311045  0.030438305            6 
 1865000   0.94819669   -6.5936525    679.77975   0.03037443  0.030430821            4 
 1866000   0.96767966   -6.5831515    680.30722  0.030381708  0.030423414            8 
 1867000    0.9455257   -6.5997102    679.39918  0.030324906  0.030415956            5 
 1868000   0.95114318   -6.6182198    679.97875  0.030334526  0.030408473            5 
 1869000   0.96289845   -6.6023966    678.15398  0.030236935  0.030400918            4 
 1870000   0.93119567   -6.6235522    678.36795  0.030230301  0.030393392            5 
 1871000    0.9663358   -6.5995919    680.84743  0.030324578  0.030386013            4 
 1872000   0.95261175   -6.5553598     679.9547  0.030268639  0.030378658            8 
 1873000   0.96982978   -6.5857856    682.52938  0.030367031  0.030371331            4 
 1874000   0.95473704   -6.5900284    682.80579  0.030363118  0.030363933            3 
 1875000   0.93856897   -6.6020224    679.31067  0.030191585  0.030356585            7 
 1876000   0.96136347   -6.6209354    681.73797  0.030283314  0.030349145            5 
 1877000   0.95182261   -6.6187573    681.41583  0.030252878  0.030341651            4 
 1878000   0.97057514    -6.616201     681.5339  0.030242008  0.030334202           11 
 1879000   0.93587128   -6.5970885    680.94871   0.03019996  0.030326638            4 
 1880000   0.94510333   -6.6090434    681.97335  0.030229315   0.03031914            8 
 1881000   0.95296656   -6.6059407    682.29343  0.030227425   0.03031172            5 
 1882000    0.9316143   -6.6121916    680.98769  0.030153546   0.03030424            6 
 1883000   0.95438385   -6.6025321    682.15386  0.030189142  0.030296749            6 
 1884000   0.94137525   -6.6095476    682.20604  0.030175426  0.030289248            3 
 1885000   0.93882592    -6.608215    683.89771  0.030234205  0.030281745            5 
 1886000   0.96112122   -6.5996171     682.8706  0.030172791  0.030274268            5 
 1887000   0.94500096   -6.5846739    683.59713  0.030188886  0.030266945            7 
 1888000   0.96781552   -6.6257914    682.64538  0.030130887  0.030259549            9 
 1889000   0.94117139   -6.5676031    685.58963  0.030244822  0.030252046            6 
 1890000   0.93085188   -6.6209906    684.59189  0.030184828  0.030244718            4 
 1891000   0.95146986    -6.630269    684.90045  0.030182463  0.030237267            4 
 1892000   0.95161476   -6.6210821    684.29511  0.030139848  0.030229892            7 
 1893000   0.95086905   -6.5899662    686.38647  0.030215992  0.030222466            5 
 1894000   0.93973512   -6.5701489    685.08592  0.030142816  0.030215066            7 
 1895000   0.94876763   -6.5827672    685.57641  0.030148479   0.03020773            9 
 1896000   0.95615115   -6.6201586    686.69724  0.030181841  0.030200424            7 
 1897000   0.92022375   -6.5897765    686.09863  0.030139634  0.030193116            2 
 1898000   0.95064705   -6.6314396    684.88121  0.030070302  0.030185764            5 
 1899000   0.94734718   -6.5673713    687.15679  0.030154326  0.030178361            7 
 1900000   0.94855371   -6.6039406    687.15406  0.030138336  0.030170951            8 
 1901000   0.94286365   -6.6166597    687.19118  0.030124109  0.030163557            7 
 1902000   0.93813658   -6.5845488    687.61225   0.03012672   0.03015616            9 
 1903000   0.93985525   -6.5758233    685.96131  0.030038593  0.030148875            4 
 1904000   0.96852082   -6.6169533    687.32282  0.030082406  0.030141532           11 
 1905000   0.96765656   -6.5692209    688.79219  0.030130892  0.030134203            7 
 1906000   0.94325394   -6.5656215    689.24764  0.030134996  0.030126921            5 
 1907000   0.91491272   -6.5807961     688.5245  0.030087594  0.030119534            7 
 1908000   0.94063619   -6.6168518    687.83161  0.030041562  0.030112105            5 
 1909000    0.9353041   -6.6178528    689.52716  0.030099841  0.030104721            3 
 1910000   0.95209046   -6.6429859    688.40241  0.030035009  0.030097397            6 
 1911000   0.96614539   -6.5810354    690.60311  0.030115259  0.030090066            8 
 1912000   0.93351848   -6.5773181    689.79864  0.030064446  0.030082634            5 
 1913000   0.94993393   -6.6122053    689.90369  0.030053306  0.030075202            4 
 1914000   0.94158956     -6.60011      687.877  0.029949364  0.030067727            6 
 1915000   0.95294981   -6.5865494    691.37554  0.030085968  0.030060319            5 
 1916000    0.9550433   -6.6077412    690.26197  0.030021832  0.030052982            6 
 1917000   0.93787288   -6.5971671     689.6773  0.029980756  0.030045667            5 
 1918000   0.94148476   -6.5816599    690.00755  0.029979473  0.030038166            4 
 1919000    0.9480915   -6.6051008    689.45083  0.029939675  0.030030821            5 
 1920000   0.96121447   -6.5913197    691.60142  0.030017423  0.030023453           10 
 1921000   0.93266455   -6.6130729     689.4323    0.0299077  0.030016015            4 
 1922000   0.95554529   -6.5972693    691.28972  0.029972673  0.030008633            5 
 1923000   0.93747762   -6.5633855    692.60194  0.030013951  0.030001288            6 
 1924000   0.93817409   -6.6077571    691.66112  0.029957602  0.029993944            6 
 1925000    0.9336498   -6.6219594    690.94912  0.029911217  0.029986563            5 
 1926000   0.94822801    -6.563565    693.55483   0.03000843  0.029979255            4 
 1927000   0.93524509   -6.6106438    690.78478  0.029873066  0.029972011            2 
 1928000   0.95521819   -6.5993277    691.08923  0.029870731  0.029964612            3 
 1929000    0.9442787   -6.5961344    691.17484  0.029858944  0.029957188            5 
 1930000   0.93431756   -6.6432423    690.77834  0.029826353  0.029949732            8 
 1931000   0.94735961   -6.6281699    690.36259  0.029792965  0.029942211            3 
 1932000   0.96116035   -6.6348833    692.01044  0.029848622  0.029934681            9 
 1933000   0.94294658   -6.6394884    691.92209  0.029829371  0.029927269            8 
 1934000   0.95401452   -6.6216872    693.00271   0.02986051  0.029919897            4 
 1935000   0.95420249   -6.5937137    694.30247  0.029901054  0.029912493            7 
 1936000   0.94797452   -6.6154554    692.42692  0.029804878  0.029905178            5 
 1937000   0.91749682   -6.6309838    693.25218  0.029824995  0.029897808            6 
 1938000    0.9387315   -6.6390861      693.221  0.029808265  0.029890491            6 
 1939000   0.92331458   -6.6536819    693.66392  0.029811927  0.029883097            5 
 1940000   0.94655823   -6.6528604    693.04374   0.02976992   0.02987562            4 
 1941000   0.95163845   -6.6223496    696.47159  0.029901751  0.029868191            6 
 1942000   0.92196367   -6.6029769    695.33082  0.029837402  0.029860827            4 
 1943000   0.93996494   -6.6229061    696.28205  0.029862843  0.029853523            5 
 1944000   0.95739553   -6.5957342    697.45303  0.029897678  0.029846219            8 
 1945000   0.94199955   -6.6411074    693.74849  0.029723586  0.029838898            4 
 1946000   0.94047722   -6.6301939    695.04737  0.029763933  0.029831533            8 
 1947000   0.90011127   -6.6197849    696.63059  0.029816409  0.029824271            5 
 1948000   0.94864093   -6.5929392    698.91764  0.029898941  0.029816976            4 
 1949000   0.94433958   -6.6410944    693.74968  0.029662634  0.029809662            8 
 1950000   0.93810624    -6.633451    697.87253  0.029823613  0.029802339            5 
 1951000   0.94576859   -6.6251533    696.67068  0.029756991  0.029795097            7 
 1952000   0.92491602   -6.6202448    696.73171  0.029744352  0.029787934            3 
 1953000     0.947542   -6.6386936    696.62928  0.029724751  0.029780773            4 
 1954000   0.94497898   -6.5790936    698.07544  0.029771215  0.029773667            6 
 1955000   0.93024581   -6.6199341    699.11852  0.029800448  0.029766426            8 
 1956000   0.93364616   -6.6364888    697.06838  0.029697869  0.029759199            7 
 1957000   0.92588141   -6.6107213    697.88726  0.029717564  0.029751932            6 
 1958000   0.93268431   -6.6236303    700.26128  0.029803425  0.029744766            4 
 1959000   0.92776311   -6.6396951    699.79098  0.029768206  0.029737586            6 
 1960000   0.93492168   -6.6203339    699.06757   0.02972226  0.029730376            6 
 1961000    0.9531423   -6.5926491    699.83463    0.0297397  0.029723222            4 
 1962000   0.94802922   -6.6303264    699.17901  0.029696696   0.02971588            5 
 1963000   0.95569282    -6.628835    699.09123  0.029677841  0.029708581            5 
 1964000   0.92578244   -6.6130746     700.2331  0.029711181   0.02970123            7 
 1965000   0.95203133    -6.621044    695.82043  0.029508924  0.029693897            7 
 1966000   0.95338282   -6.6318002    698.79893  0.029620165  0.029686511            3 
 1967000   0.93727555   -6.6347567    701.63963  0.029725454  0.029679254            7 
 1968000   0.93081559    -6.574369    700.15245  0.029647377  0.029671982            7 
 1969000   0.92906405   -6.6416663    698.87415  0.029578219  0.029664709            4 
 1970000   0.93394345    -6.644579    700.96266  0.029651551  0.029657405           10 
 1971000   0.92912442   -6.6479939    700.59632  0.029621018  0.029650113           15 
 1972000   0.94273391   -6.6514964    700.89137  0.029618466  0.029642809            5 
 1973000   0.92807051       -6.627    699.82119  0.029558253  0.029635521           13 
 1974000   0.94059745   -6.6294794     701.7943  0.029626575  0.029628234            4 
 1975000   0.94754476   -6.6135798    702.50674  0.029641635  0.029621065            8 
 1976000   0.93207007    -6.632953    702.00823   0.02960561   0.02961389            7 
 1977000   0.92997914   -6.6464941     702.7065  0.029620068  0.029606702            4 
 1978000   0.92595462   -6.6406537    700.96731  0.029531821  0.029599481            6 
 1979000   0.93577009   -6.6173166    703.43433  0.029620782  0.029592286            6 
 1980000   0.95192671   -6.6357084    704.71799  0.029659848   0.02958505            9 
 1981000   0.92938954   -6.6173989    702.51795  0.029552328  0.029577774           11 
 1982000   0.92596728   -6.6492444    701.94066  0.029513146  0.029570511            8 
 1983000   0.93670157   -6.6372772    702.72604  0.029531267  0.029563237            4 
 1984000   0.96898736   -6.6345915    702.50421  0.029507065  0.029555959            8 
 1985000   0.93565325   -6.6593886    702.61193  0.029496722  0.029548683            5 
 1986000   0.93734449   -6.6266484    704.05876   0.02954258  0.029541431            5 
 1987000   0.91516822   -6.6069201    704.65209  0.029552596  0.029534123            8 
 1988000   0.95067123   -6.5956313     702.6567  0.029454087  0.029526815            8 
 1989000   0.93418527   -6.6443444    703.25567  0.029464374  0.029519569            6 
 1990000   0.92194731   -6.6509718    702.60632  0.029422375  0.029512282            7 
 1991000   0.93603374    -6.665158     702.8057  0.029415943  0.029504918            9 
 1992000   0.92854572   -6.6361439    703.62392  0.029435405  0.029497484            4 
 1993000   0.93786284   -6.6201184    703.94446  0.029434038  0.029490098            5 
 1994000   0.92865821    -6.631249    703.66227  0.029407484  0.029482671            5 
 1995000    0.9415348   -6.6290985    704.36337  0.029422029  0.029475258            5 
 1996000   0.93757788   -6.6369457    702.79637  0.029341866  0.029467783            9 
 1997000   0.93313688   -6.6563468    705.45444  0.029438092  0.029460443           13 
 1998000   0.92889384   -6.6459972    705.46373  0.029423746  0.029453082            4 
 1999000   0.93110858   -6.6136261    706.04755  0.029433364  0.029445717            3 
 2000000   0.92356078   -6.6560133    705.04998  0.029377083  0.029438465            5 
 2001000   0.93857133   -6.6429442    706.67896  0.029430242  0.029431165            4 
 2002000   0.93192552   -6.6332986     705.4049  0.029362508  0.029423836            2 
 2003000   0.92995849   -6.6241856    706.37906  0.029388378  0.029416585            5 
 2004000    0.9132075   -6.6231184    704.33859  0.029288864  0.029409415           16 
 2005000   0.91836106   -6.6256912    706.54881  0.029366119  0.029402114           13 
 2006000   0.90773199    -6.683545    705.39629  0.029303601  0.029394658            7 
 2007000   0.93556313   -6.6398834    706.69148  0.029342779  0.029387196            7 
 2008000   0.93431583   -6.6426908     705.4723  0.029277569  0.029379864            7 
 2009000    0.9580154   -6.6230137    706.72556  0.029314981  0.029372571            6 
 2010000   0.93266138   -6.6503752    706.44461  0.029288748  0.029365252            5 
 2011000   0.93316954    -6.618998    707.57093  0.029320857  0.029357914            5 
 2012000    0.8964211   -6.6579544    708.18569  0.029331747  0.029350617            8 
 2013000   0.94316809   -6.6237729    708.58998  0.029333912  0.029343334            6 
 2014000   0.93195686   -6.6514618    708.62573  0.029320826  0.029336117            5 
 2015000   0.93473859   -6.6534717    709.50134  0.029342487  0.029328924            5 
 2016000   0.93960407   -6.6677506    708.78821  0.029298454  0.029321687            7 
 2017000   0.92021144   -6.6190566     709.4465  0.029311126  0.029314423            7 
 2018000   0.91795616   -6.6341239    709.34338  0.029292343  0.029307128            5 
 2019000   0.89864044   -6.6401668     709.4312  0.029281459  0.029299913            4 
 2020000   0.92649453   -6.6626908    709.59268  0.029273625   0.02929265           12 
 2021000   0.90731728   -6.6176231    710.52135  0.029297433   0.02928546            4 
 2022000   0.93688826   -6.6212001    709.35891  0.029235036  0.029278305            5 
 2023000   0.92834548   -6.6617499    710.16776  0.029253903  0.029271184            9 
 2024000   0.92073908   -6.6220635    712.53565  0.029336942  0.029264033            3 
 2025000   0.93746085   -6.6539814    710.69239    0.0292466  0.029256844           14 
 2026000    0.9396707   -6.6248816    709.76206  0.029193898  0.029249581           10 
 2027000   0.93756158    -6.664796    709.62271  0.029173767  0.029242294           14 
 2028000   0.92752534   -6.6156372     709.7607  0.029165052  0.029234986            3 
 2029000   0.92842444   -6.6237476    710.28787  0.029172329  0.029227794            4 
 2030000    0.9342218   -6.6114616     713.1659  0.029276104  0.029220687            5 
 2031000     0.925085   -6.6722824    712.11015  0.029218372  0.029213473            5 
 2032000   0.91713488   -6.6289803    712.55933  0.029222414  0.029206354            7 
 2033000   0.93102697   -6.6244124    713.82665  0.029259987  0.029199259           11 
 2034000   0.91978637   -6.6177304    712.94046  0.029209295  0.029192165            5 
 2035000   0.91462614   -6.6595968    712.36376  0.029171325  0.029184995            5 
 2036000   0.94391515    -6.655752    712.30293  0.029154508  0.029177797            6 
 2037000   0.93028122   -6.6303943    714.34471  0.029223724  0.029170649           12 
 2038000    0.9393455   -6.6753955    713.89345  0.029190933  0.029163522            6 
 2039000   0.94334429   -6.6104059    715.38512   0.02923758  0.029156425            9 
 2040000   0.93295795   -6.6462889    713.72361  0.029155376  0.029149398            5 
 2041000   0.93467379   -6.6336618    714.26394  0.029163153  0.029142403            4 
 2042000   0.92197538   -6.6436067    716.33901  0.029233554  0.029135374            5 
 2043000   0.91266651   -6.6414641    714.17316  0.029130901  0.029128235            6 
 2044000   0.91875165   -6.6499072    714.87152  0.029145121  0.029121121            5 
 2045000   0.94008493   -6.6396538    716.14695  0.029182842  0.029114017           10 
 2046000   0.92152042   -6.6707251    715.15829  0.029128311  0.029106875           12 
 2047000    0.9424975   -6.6493271    716.04976  0.029150373  0.029099802            6 
 2048000   0.94178235   -6.6562514    716.13828  0.029139741  0.029092731            5 
 2049000   0.94086746   -6.6626235    715.83937  0.029113363  0.029085595            6 
 2050000   0.92898405   -6.6753689    718.22553   0.02919616  0.029078525           13 
 2051000   0.92879782   -6.6816146    715.27824  0.029062175  0.029071445           11 
 2052000   0.94079568   -6.6656049    717.05223  0.029120055   0.02906427            5 
 2053000   0.91456878    -6.645523    719.09107  0.029188629  0.029057153            6 
 2054000   0.93670263   -6.6808745    717.26274  0.029100241  0.029050093           11 
 2055000   0.90230739    -6.673356    715.11922  0.028999157  0.029042935            8 
 2056000   0.93686711   -6.6760849    716.98655  0.029060739  0.029035807            6 
 2057000   0.92797838   -6.6994994    716.31438   0.02901938  0.029028667           12 
 2058000   0.90671952   -6.6774314    717.93784  0.029071017  0.029021523            3 
 2059000   0.91551833   -6.6502868    717.91732  0.029056068  0.029014404            4 
 2060000    0.9260205   -6.6445581     716.8468  0.028998657  0.029007269           10 
 2061000   0.91926717   -6.6398835    719.37986  0.029087007   0.02900012            3 
 2062000   0.92838719   -6.6575304    716.38611  0.028951912  0.028992949            4 
 2063000   0.90905516   -6.6799258    717.63775  0.028988437  0.028985801           12 
 2064000    0.9201653   -6.6178415    718.30252  0.029001232  0.028978618           15 
 2065000   0.90793743   -6.6422456    717.36261  0.028949258  0.028971451            3 
 2066000   0.93127107   -6.6446985    720.87024  0.029076728  0.028964287            5 
 2067000   0.92334454   -6.6558799    716.45653  0.028884717  0.028957144            8 
 2068000   0.89258344   -6.6617532    718.69803  0.028961075  0.028950013           10 
 2069000   0.92753626   -6.6402104    719.68864  0.028986976  0.028942856            9 
 2070000   0.93029883   -6.6309982     718.7655  0.028935809  0.028935782           10 
 2071000   0.90994693    -6.634434    719.97753  0.028970607  0.028928677            7 
 2072000   0.91942943   -6.6556293    719.52302  0.028938345  0.028921548            5 
 2073000   0.92590857   -6.6794062    721.24165  0.028993473  0.028914449            6 
 2074000   0.92276742   -6.6743951    719.21606  0.028898106  0.028907357           12 
 2075000   0.91826234    -6.678758    719.12442  0.028880499  0.028900183            5 
 2076000   0.92669541   -6.6715212    719.20403  0.028869783  0.028893039            7 
 2077000   0.92007647    -6.649809    721.28931  0.028939549  0.028885986            5 
 2078000   0.92801453   -6.6766452    721.40913  0.028930427  0.028878901            6 
 2079000   0.92648143   -6.6426898    720.91302  0.028896626  0.028871777            4 
 2080000   0.93150991   -6.6602601    721.04406  0.028887983   0.02886469            3 
 2081000   0.92253554   -6.6261316    721.86789  0.028907092  0.028857513            3 
 2082000   0.91193032   -6.6565917    720.27246  0.028829349  0.028850336            5 
 2083000     0.914693   -6.6881975    719.98999  0.028804208  0.028843141           13 
 2084000   0.92169467   -6.6458401      722.939  0.028908309  0.028835971            5 
 2085000   0.90689326    -6.636659    722.89404  0.028892647  0.028828877            6 
 2086000   0.92067193   -6.6521989    722.31396  0.028855623  0.028821827            3 
 2087000   0.92095492   -6.6771751    722.03242  0.028830555  0.028814618            5 
 2088000   0.91088409   -6.6584212      724.001  0.028895315  0.028807383            5 
 2089000   0.90731376   -6.6504368    720.70614  0.028750045   0.02880019            3 
 2090000    0.9197332   -6.6802942    722.30457  0.028800023  0.028792905            6 
 2091000   0.91539497   -6.6801736     721.1035  0.028738383  0.028785715            8 
 2092000   0.94033079   -6.6566597    722.95613  0.028798444  0.028778561            5 
 2093000   0.91338716   -6.6596195    722.32992  0.028759752  0.028771371            6 
 2094000   0.92469737   -6.6551339    724.88697  0.028847778  0.028764184            5 
 2095000   0.90485501   -6.6522419    721.71662    0.0287079  0.028757014            5 
 2096000   0.91292889   -6.6370106    725.06164  0.028827196  0.028749845            5 
 2097000   0.90800301   -6.6593826    723.14097  0.028737123  0.028742649           14 
 2098000   0.92922315   -6.6468191    724.26153  0.028767935  0.028735462            5 
 2099000   0.91815752   -6.6677907     722.8639  0.028698741  0.028728258            2 
 2100000   0.90960928   -6.6545025    722.94234  0.028688188  0.028721086           10 
 2101000   0.92039515     -6.65785      723.294  0.028688482  0.028713891            8 
 2102000   0.92201999   -6.6698561     724.4375  0.028720167  0.028706657            4 
 2103000   0.90121885   -6.6699749    723.71604  0.028677922  0.028699562            9 
 2104000   0.91022594   -6.6976997    724.08508  0.028678908  0.028692365           12 
 2105000   0.91486825   -6.6654495    725.56504  0.028723873  0.028685185            5 
 2106000     0.924437   -6.6876342    725.33175  0.028701003  0.028678015            9 
 2107000   0.89324229   -6.6806875    726.00966  0.028714193  0.028670879            7 
 2108000   0.89124735   -6.6832611    728.03132  0.028780492  0.028663802            4 
 2109000   0.92211578   -6.6764453    725.76623  0.028677344  0.028656729            5 
 2110000   0.90396744   -6.6700174     727.1475  0.028718306  0.028649673            7 
 2111000   0.93204296   -6.6590318     727.1674  0.028705487  0.028642641            5 
 2112000   0.94353524   -6.6676195     727.2451  0.028694961  0.028635637            8 
 2113000   0.90100141   -6.6511913    729.92559  0.028787095  0.028628589            6 
 2114000   0.89734087   -6.6846887    727.95242  0.028695696   0.02862159            7 
 2115000   0.90298231   -6.6864392    725.62512   0.02859043  0.028614539           14 
 2116000   0.92680457   -6.6751758    728.20061  0.028678348  0.028607433            8 
 2117000   0.90930117   -6.6739094     726.3686  0.028592686  0.028600363           15 
 2118000   0.91820011   -6.6972441     727.5064  0.028623953  0.028593254            6 
 2119000   0.90894139   -6.6653726    729.63783  0.028694267  0.028586169            5 
 2120000   0.91011476   -6.6705043    729.98687  0.028694452  0.028579162           11 
 2121000   0.92749843   -6.6771473     728.6786  0.028629522   0.02857217            8 
 2122000   0.89953825   -6.6515852    727.36923   0.02856461  0.028565149            4 
 2123000   0.90440292   -6.6673034    728.58766  0.028598982  0.028558176            5 
 2124000    0.9515504   -6.6532675     730.8418  0.028673956  0.028551226            6 
 2125000    0.9077675   -6.6492469    731.42065  0.028683163  0.028544357            9 
 2126000   0.91124596   -6.6527573    729.02926  0.028575935  0.028537382            8 
 2127000   0.91384288   -6.6691777     728.2387  0.028531527  0.028530357            4 
 2128000   0.90736493   -6.6861379    730.28731  0.028598344  0.028523287            7 
 2129000   0.91252859   -6.6591549    730.76387  0.028603565  0.028516233            8 
 2130000   0.93945162   -6.6667614    731.01037   0.02859978  0.028509154            8 
 2131000   0.91144619   -6.6922162    729.85972  0.028541363  0.028502091           14 
 2132000   0.92033384   -6.6760105     730.2911  0.028544837  0.028495003           16 
 2133000   0.89989686   -6.6620338    730.47864  0.028538781  0.028487903            3 
 2134000   0.89697974   -6.6619715    729.56387  0.028489686  0.028480854            4 
 2135000   0.90673545   -6.6580501    732.20245  0.028579331  0.028473825            6 
 2136000   0.91554376   -6.6986075    730.70566  0.028507555  0.028466635            6 
 2137000   0.90197879   -6.6879782    731.91962  0.028541554  0.028459531           11 
 2138000   0.90190069   -6.6684368    732.93739  0.028567874  0.028452441            9 
 2139000   0.91367358   -6.7167555    730.60382  0.028463605  0.028445289           10 
 2140000   0.89427772   -6.6988816    732.34913  0.028518268  0.028438087            8 
 2141000   0.93128605   -6.6657596    730.54442  0.028434704  0.028430992           10 
 2142000   0.91814763   -6.6703422    731.69591  0.028466228  0.028423923            4 
 2143000    0.9050219   -6.6705841     732.6957  0.028491822  0.028416837            4 
 2144000    0.9221703   -6.6721292    733.02749  0.028491429  0.028409765            5 
 2145000   0.90151107   -6.6846517    729.96407  0.028359132  0.028402697            5 
 2146000    0.9051511    -6.686082    733.58747  0.028486621  0.028395632            6 
 2147000    0.8917594   -6.6901387    731.55595  0.028394502  0.028388615           13 
 2148000   0.91743386   -6.6922594    732.11518  0.028402979  0.028381566           13 
 2149000   0.90853919   -6.6931418    732.95861  0.028422468  0.028374476           10 
 2150000   0.91395605   -6.6856317    733.92436  0.028446681  0.028367412            3 
 2151000   0.92524136   -6.6647272    734.56407  0.028458239  0.028360366            6 
 2152000   0.90273458   -6.6989588     732.1827    0.0283528   0.02835329           13 
 2153000   0.89003164   -6.6929501    733.63709  0.028395924   0.02834623            7 
 2154000   0.90313896   -6.6482903     734.9775  0.028434598  0.028339219            5 
 2155000   0.91363835   -6.7085921    735.04616  0.028424059   0.02833215            9 
 2156000   0.88491332   -6.7134816    733.75122  0.028360823  0.028324972            8 
 2157000   0.90499757   -6.6639422    736.68181  0.028460895  0.028317929            9 
 2158000   0.89517671   -6.6850589    736.22505  0.028430068  0.028310909           14 
 2159000   0.89081817    -6.696787    735.69566  0.028396467  0.028303916            8 
 2160000   0.90757069   -6.7029507    735.69144  0.028383157  0.028296939           13 
 2161000   0.90248309   -6.6588638    735.64914  0.028368392  0.028289922            5 
 2162000   0.89828043   -6.6625161    736.53083  0.028389255  0.028282936            3 
 2163000   0.89549659   -6.6685632    738.44982  0.028450062  0.028276021            5 
 2164000   0.91235673   -6.6610597    737.05194  0.028383084  0.028269112            8 
 2165000   0.90984985   -6.6943578    737.01681  0.028368622   0.02826216            9 
 2166000    0.9253799   -6.6941831    737.57836   0.02837713  0.028255221            7 
 2167000   0.91259635   -6.6857835    735.84773  0.028297482  0.028248268           13 
 2168000   0.88240112   -6.6765024    736.74368  0.028318868  0.028241281            3 
 2169000   0.92336722   -6.7182826    736.88599   0.02831128  0.028234222            5 
 2170000   0.92309712   -6.6849972    737.19896  0.028310252  0.028227174            6 
 2171000   0.89997162    -6.711214    736.83378  0.028283194  0.028220104            5 
 2172000   0.90736172   -6.6943235    736.55967  0.028259656  0.028213055            7 
 2173000   0.89449179   -6.7023532    735.31758  0.028199017  0.028205999            7 
 2174000   0.91496961   -6.6920816    737.70254  0.028277466  0.028198981           11 
 2175000   0.93734411   -6.6981598    737.91255  0.028272512  0.028191967            8 
 2176000   0.90830025   -6.6892984    738.12935  0.028267821  0.028184922            5 
 2177000   0.89959609   -6.7193582    735.89887  0.028169456   0.02817775            6 
 2178000    0.8951369   -6.6992483    735.93281  0.028157821  0.028170672            9 
 2179000   0.90351809   -6.7120585    736.25738  0.028157311  0.028163512            6 
 2180000   0.90940487   -6.6947785    739.10392  0.028253208  0.028156435            8 
 2181000   0.89099423   -6.6668167    739.15413  0.028242172  0.028149375            5 
 2182000   0.90084919   -6.6869348     738.0941  0.028188745  0.028142363            9 
 2183000   0.91472646   -6.6734631     740.3212  0.028260849  0.028135385           13 
 2184000   0.89085167   -6.6998515    740.05227  0.028237648  0.028128377           11 
 2185000   0.87976375   -6.7217551    737.68923    0.0281346  0.028121348           12 
 2186000    0.8992159   -6.7214596    738.37915  0.028148031  0.028114317           12 
 2187000   0.89172961   -6.6973157    740.80718  0.028227678  0.028107291           15 
 2188000   0.89215595   -6.6847785    740.74547  0.028212426  0.028100271            4 
 2189000   0.89482662   -6.6565755    740.63287  0.028195252  0.028093299           14 
 2190000   0.91257833   -6.6874692    740.18934    0.0281655  0.028086379            8 
 2191000    0.8972062   -6.6952305    740.37733  0.028159795  0.028079428           17 
 2192000   0.89233584   -6.7093863    740.50123  0.028151659  0.028072439            4 
 2193000   0.87910495   -6.7062193    742.43861  0.028212442   0.02806549            8 
 2194000   0.92548326   -6.6925484     739.6585  0.028093987  0.028058565           12 
 2195000     0.890239   -6.6890045    740.37533  0.028108403   0.02805164            6 
 2196000   0.88818061   -6.6907393    741.21365  0.028127415  0.028044646            7 
 2197000   0.91191965   -6.6922669    743.27249  0.028192706  0.028037713            3 
 2198000   0.91823364   -6.6918878    744.02804  0.028208524  0.028030826            8 
 2199000   0.90746024   -6.6916869    742.26584  0.028128916  0.028024003            6 
 2200000   0.89709727   -6.7035116    741.24966  0.028077639  0.028017065            8 
 2201000   0.91411461   -6.7271758    742.70228   0.02811988   0.02801011            6 
 2202000   0.89499969   -6.6857672     743.8107  0.028149057  0.028003125            6 
 2203000   0.89601996   -6.7060027    742.95821  0.028104033  0.027996158           10 
 2204000    0.9115956   -6.6945998    741.79204  0.028047189  0.027989231            6 
 2205000   0.89350055   -6.7066055    742.58123  0.028064294  0.027982279            9 
 2206000    0.9252264   -6.7161276    742.94923  0.028065474  0.027975303            6 
 2207000   0.88552056    -6.698379    742.92292  0.028051764  0.027968262           13 
 2208000   0.89184686   -6.6954255    743.99954  0.028079693  0.027961296           15 
 2209000   0.88757729   -6.6865202    742.92982  0.028026627  0.027954319            7 
 2210000   0.90347482   -6.7077844    744.03664   0.02805568   0.02794739            9 
 2211000   0.89879476   -6.6862649    743.29518  0.028015045  0.027940388            7 
 2212000   0.88813809   -6.7317683    743.26341  0.028001183  0.027933447           17 
 2213000   0.92063235   -6.7018914    744.79764  0.028046304  0.027926455            7 
 2214000   0.89710932   -6.7045672    746.73125  0.028106416  0.027919549            8 
 2215000   0.90858602   -6.6812732    746.28112  0.028076791  0.027912674            5 
 2216000   0.89924531   -6.7104277    744.38027  0.027992639  0.027905803            7 
 2217000   0.89451711   -6.6576664    748.18335  0.028122965  0.027898932            5 
 2218000   0.87800234     -6.67972    746.90477  0.028062247  0.027892067            5 
 2219000   0.89838381   -6.7049389    746.78778  0.028045207  0.027885214            9 
 2220000    0.8907965   -6.7014029    746.96467  0.028039214  0.027878328            8 
 2221000   0.89804475   -6.6986863     747.8062  0.028058165  0.027871525            6 
 2222000   0.90304826   -6.6908538    746.99356   0.02801506  0.027864728            6 
 2223000   0.87851965   -6.6824271    747.71766  0.028029602  0.027857825            5 
 2224000   0.90935472   -6.6887331     746.7373  0.027980265  0.027850969            5 
 2225000   0.88632468   -6.7007214    745.74618  0.027930569  0.027844064           13 
 2226000   0.90692287   -6.7375972       745.79  0.027919661  0.027837098            7 
 2227000   0.90067577   -6.6861048    746.40758  0.027930234  0.027830189            6 
 2228000   0.89113568   -6.6923996    746.24353  0.027911562  0.027823263            6 
 2229000   0.89009775   -6.6868742    746.23739  0.027898811   0.02781631            9 
 2230000   0.91082738   -6.7167171    747.03632  0.027916156  0.027809414            5 
 2231000   0.88186768   -6.6984259    745.92481  0.027862125  0.027802482           10 
 2232000   0.89486654   -6.7054685    749.22146  0.027972725   0.02779563            6 
 2233000   0.88740927   -6.6989274    746.90514  0.027873755  0.027788718            5 
 2234000    0.9010356   -6.7105382    749.26815  0.027949424   0.02778187            9 
 2235000    0.8967328   -6.7067616    748.08208  0.027892695   0.02777493           11 
 2236000    0.9086275   -6.7385997    748.05326  0.027879147  0.027768024           12 
 2237000   0.87931425   -6.7259719    747.03155  0.027828623  0.027761133           14 
 2238000   0.89296649   -6.7076903    748.87326  0.027884765  0.027754201            6 
 2239000   0.88681319   -6.7018916    748.21705  0.027847888  0.027747319            4 
 2240000   0.87708905   -6.7244764    748.63233  0.027850905  0.027740393            6 
 2241000   0.89071542    -6.691198    748.22138  0.027823196  0.027733462           10 
 2242000   0.89378449   -6.6921131    749.39243  0.027854313  0.027726534            3 
 2243000   0.91296381     -6.69568    748.74156  0.027817713  0.027719566            7 
 2244000   0.88504458    -6.719717    748.07732  0.027780649  0.027712596           11 
 2245000   0.88439963   -6.7084681     745.8467  0.027685475  0.027705555            8 
 2246000   0.90333278   -6.6968292    748.88999  0.027786064  0.027698521           20 
 2247000   0.88345748   -6.7383307    747.37105  0.027717366  0.027691533           11 
 2248000   0.90522243    -6.737385    749.34554   0.02777823  0.027684606           18 
 2249000   0.89968968   -6.6940399     748.6733   0.02774097  0.027677675           11 
 2250000   0.89975753    -6.702964    749.70139  0.027766718  0.027670736           16 
 2251000    0.8777636   -6.7178318    749.66593   0.02775307  0.027663741           10 
 2252000   0.86988572   -6.7047794    749.75412   0.02774401  0.027656751            6 
 2253000   0.88676891    -6.694581    751.40447  0.027792738  0.027649814            5 
 2254000   0.86973044   -6.6914442    749.77267  0.027720078  0.027642851            6 
 2255000   0.90385853    -6.723082    750.17362  0.027722602   0.02763585            4 
 2256000   0.87764781     -6.70518     749.3592   0.02768023  0.027628862            8 
 2257000   0.89554288   -6.7246831    750.26509  0.027701414  0.027621845            5 
 2258000    0.8858608   -6.7159981    751.12858  0.027721013  0.027614859           14 
 2259000    0.9008219   -6.6831473    752.31327  0.027752445  0.027607908            9 
 2260000   0.89002925   -6.7101521    750.48021  0.027672574  0.027601041           18 
 2261000   0.89989402   -6.7110174    752.08787  0.027719588  0.027594147            8 
 2262000   0.90982148   -6.7003398    753.20013   0.02774831  0.027587209            5 
 2263000   0.87997076   -6.6946945    752.26101  0.027701466  0.027580329            5 
 2264000   0.87440011   -6.6964545    752.63671  0.027703059  0.027573491            8 
 2265000   0.88562282   -6.6843005    753.53328  0.027723815  0.027566614           10 
 2266000   0.88846863   -6.7332578    750.89106  0.027614411  0.027559669            4 
 2267000   0.91968461   -6.7506402    750.90771  0.027602842  0.027552708           22 
 2268000   0.91452523   -6.7050081    751.96156  0.027629393  0.027545769           20 
 2269000   0.89094716    -6.710105    751.28343   0.02759231  0.027538865            8 
 2270000   0.89530937   -6.7166327     753.4473  0.027659593  0.027531923           10 
 2271000    0.9023751   -6.7251609     751.8187  0.027587652  0.027524996            9 
 2272000   0.90412299   -6.7641345    750.93105  0.027542952  0.027518005           11 
 2273000   0.90263285   -6.7173391    754.74099  0.027670516  0.027511041            9 
 2274000   0.88957632   -6.7386617     753.8003  0.027623875  0.027504066           12 
 2275000    0.8742325   -6.7210418    754.43865  0.027635115  0.027497122            6 
 2276000   0.88131251   -6.7104083    753.14861   0.02757574  0.027490199            4 
 2277000    0.8984511   -6.7137415     752.8555  0.027552902  0.027483294            3 
 2278000   0.87656668   -6.6819851     753.7423  0.027573248  0.027476377            4 
 2279000   0.90914778   -6.7329267    753.20592  0.027541536  0.027469396            7 
 2280000   0.91943678   -6.7137759    753.79188  0.027550873  0.027462405            5 
 2281000   0.88828872   -6.7105152    755.14207  0.027588122  0.027455471            8 
 2282000   0.88222981   -6.7241614    754.32252  0.027546104  0.027448526            6 
 2283000   0.89553169   -6.7115495    755.85804  0.027590087  0.027441563            8 
 2284000   0.89770411    -6.735192    752.59228  0.027458854  0.027434651           10 
 2285000   0.88643108   -6.7074739    754.97969  0.027533905  0.027427695           11 
 2286000   0.88356844   -6.7142119    754.07903  0.027489029  0.027420722            5 
 2287000   0.86115771   -6.7212542    754.17849  0.027480633  0.027413719            9 
 2288000   0.87931402   -6.7208355    753.17309  0.027432004  0.027406706            9 
 2289000   0.87255521   -6.7332123    754.72601  0.027476555  0.027399702           11 
 2290000   0.88093569    -6.738455    753.59487  0.027423394  0.027392774            5 
 2291000   0.88048552   -6.7336675    756.56738  0.027519547   0.02738578            5 
 2292000   0.85103621   -6.7252914     757.0496  0.027525073  0.027378826            7 
 2293000   0.90177634   -6.7161937    755.85305  0.027469583  0.027371882           11 
 2294000   0.86918843    -6.702776    756.38861  0.027477064  0.027364921            4 
 2295000    0.8890817   -6.7212578    756.29729  0.027461775  0.027357956            9 
 2296000   0.87595107    -6.714026    759.10202  0.027551612  0.027351035           22 
 2297000   0.88062742   -6.7432776    757.47664   0.02748065  0.027344245            9 
 2298000    0.9016149   -6.7359162    755.60623  0.027400864  0.027337344           13 
 2299000    0.8903472    -6.742868    757.05298  0.027441387  0.027330415            8 
 2300000    0.8806853     -6.76118    757.57696  0.027448441  0.027323508            6 
 2301000   0.88856382    -6.739416    755.81957  0.027372866  0.027316605           12 
 2302000   0.88271838    -6.740349    758.90471  0.027472658  0.027309701           10 
 2303000   0.89619386   -6.7105403    757.70819  0.027417433  0.027302744            8 
 2304000   0.88467736   -6.7144481    758.22003  0.027424046   0.02729582           14 
 2305000    0.8976096   -6.7555559    756.87306  0.027363451  0.027288928            4 
 2306000   0.88510373   -6.7169967    758.14855  0.027397678  0.027282017            5 
 2307000   0.87118118   -6.7432771    755.41825  0.027287179  0.027275084            5 
 2308000   0.86556241    -6.698885    758.45082   0.02738485  0.027268203            8 
 2309000   0.88075126   -6.7332072    758.16139  0.027362545  0.027261286           14 
 2310000   0.89562561   -6.7599349    756.89381  0.027304971  0.027254334            8 
 2311000   0.87908358   -6.7512966    758.27719   0.02734304  0.027247325            7 
 2312000    0.8857179    -6.733671    758.60163  0.027342908   0.02724027           11 
 2313000   0.87793591   -6.7262119    757.88099  0.027305123  0.027233275           13 
 2314000   0.88937148   -6.7300194    757.50805  0.027279892  0.027226313           13 
 2315000   0.87960178   -6.7352172    756.48557  0.027231302  0.027219326           14 
 2316000   0.88285662   -6.7345939    758.39852  0.027288375  0.027212275            5 
 2317000   0.89921907   -6.7782086    757.95057  0.027260486  0.027205207            7 
 2318000   0.89797483   -6.7366249    759.28062  0.027296542  0.027198183            8 
 2319000   0.89666183    -6.712593    758.51113   0.02725712  0.027191186            9 
 2320000   0.87159797   -6.7533332    759.26858  0.027272578  0.027184196            4 
 2321000   0.88556048   -6.7730275    757.09433  0.027182764  0.027177173            4 
 2322000   0.88827792   -6.7246836    758.33436   0.02721556    0.0271701            8 
 2323000   0.86960604   -6.7500014    758.92098  0.027224888  0.027163021           12 
 2324000   0.85971348   -6.7525574    757.74621  0.027171049  0.027155991           10 
 2325000    0.8801435   -6.6852583    757.94611  0.027166527  0.027148992           15 
 2326000   0.88389148   -6.7415284    760.81644  0.027257683  0.027141956           10 
 2327000   0.89137679   -6.7652141    759.60312  0.027202518  0.027134961            5 
 2328000   0.88798849   -6.7682703    760.46345   0.02722163   0.02712794            7 
 2329000    0.8727195    -6.745456    759.61307  0.027179514  0.027120908            6 
 2330000   0.85469057   -6.7383049    758.60861  0.027131924  0.027113835            5 
 2331000   0.87616387   -6.7388843    761.37242  0.027219091   0.02710687            9 
 2332000   0.86591203   -6.7404498    760.32923  0.027170141  0.027099884            7 
 2333000   0.88773808   -6.7346933    760.79472  0.027175122  0.027092902            7 
 2334000   0.88796524   -6.7252219    762.97904  0.027241468  0.027085905           15 
 2335000   0.87894289   -6.7235786     760.7899  0.027151674  0.027078969            8 
 2336000   0.88119279   -6.7104763    764.70132  0.027279585  0.027072115            4 
 2337000   0.86538726   -6.7288404    761.80002  0.027164456  0.027065237            7 
 2338000   0.87889886   -6.7394192    763.31996  0.027207013  0.027058383            9 
 2339000   0.84884949   -6.7530744    763.44786  0.027199938  0.027051524            8 
 2340000    0.8694241   -6.7415345    762.23637   0.02714517  0.027044663            4 
 2341000   0.87180257   -6.7570447    762.21585  0.027132844  0.027037779            6 
 2342000   0.87009539   -6.7210689    763.51274  0.027167405  0.027030914           13 
 2343000   0.88934039    -6.748823    761.77335  0.027093945  0.027023979            8 
 2344000   0.88137752   -6.7644127    763.09308  0.027129305  0.027016986           14 
 2345000   0.85564694   -6.7680319    760.44163  0.027023512  0.027010051           10 
 2346000   0.86854096   -6.7624561    761.96779  0.027066205  0.027003094            7 
 2347000   0.87665454   -6.7573596    762.79447  0.027084025  0.026996126            4 
 2348000   0.86739671   -6.7484866     761.6124  0.027030537  0.026989174            8 
 2349000   0.85995857   -6.7351904    762.48875  0.027050119  0.026982218            8 
 2350000   0.89820947   -6.7370598    762.68981  0.027045738  0.026975204            9 
 2351000   0.89031721   -6.7658224    762.70216  0.027034672  0.026968254           13 
 2352000    0.8740607   -6.7609646    764.03283  0.027070324  0.026961264            4 
 2353000   0.87887008   -6.7420214     763.0441  0.027023803  0.026954295           18 
 2354000   0.87822495   -6.7429791    763.94261  0.027044131  0.026947373            5 
 2355000   0.87281322   -6.7386379    763.75992  0.027026183  0.026940394            5 
 2356000   0.88430847   -6.7659233    764.02957  0.027024249  0.026933374            9 
 2357000   0.87949949   -6.7581112    763.17043  0.026982408  0.026926408            9 
 2358000   0.88939714   -6.7270629    766.90312  0.027102881  0.026919497            7 
 2359000   0.86963922   -6.7779952    765.62621  0.027046284  0.026912657           11 
 2360000   0.87336946   -6.7598601    767.95192  0.027116946  0.026905757           13 
 2361000   0.87229612   -6.7453131     765.6821  0.027025346  0.026898914            4 
 2362000   0.87401287    -6.759077    766.39089  0.027038911  0.026892083            7 
 2363000   0.89403309   -6.7579881    766.32826  0.027025259  0.026885255            6 
 2364000    0.8841004   -6.7188151    767.28016  0.027047383  0.026878437            8 
 2365000   0.86726295    -6.733649    766.21468  0.026998403  0.026871616           18 
 2366000   0.88041812   -6.7472955      766.872  0.027010144  0.026864828            6 
 2367000   0.86667153   -6.7339134    768.70396  0.027063229  0.026858044            6 
 2368000   0.89086772   -6.7640443    766.83065  0.026985876  0.026851233           18 
 2369000     0.874971   -6.7522798    768.57407  0.027035812  0.026844462           10 
 2370000   0.87972774    -6.758405    768.65128   0.02702712  0.026837687            6 
 2371000   0.88787017   -6.7528869    769.46915  0.027044466  0.026830869            4 
 2372000   0.87014953    -6.771024    766.49983  0.026928746  0.026824049            9 
 2373000    0.8634026   -6.7448359    769.01195  0.027005617  0.026817252            6 
 2374000    0.8975265   -6.7478296    768.22422   0.02696659   0.02681043            6 
 2375000   0.86974308   -6.7608263    767.41748  0.026926929  0.026803679           11 
 2376000   0.86042189   -6.7691651    768.86323  0.026966303  0.026796876           10 
 2377000   0.88285349   -6.7897054    766.33129  0.026866193  0.026790008            9 
 2378000   0.86306919   -6.7684326     766.7399  0.026869214  0.026783157           12 
 2379000   0.86299629   -6.7795784    767.17044  0.026873001  0.026776298            7 
 2380000   0.87615354   -6.7624818    767.74842  0.026881947  0.026769422            9 
 2381000   0.85894118   -6.7317751    767.19939  0.026851442  0.026762579            8 
 2382000    0.8663671   -6.7617866    769.00164   0.02690322  0.026755674            7 
 2383000   0.86646747   -6.7936493    767.47753  0.026838632  0.026748765            9 
 2384000   0.85076639   -6.7537597    768.69978  0.026870098  0.026741907            9 
 2385000    0.8672854   -6.7419275    769.16603  0.026875123   0.02673507           13 
 2386000   0.87277764   -6.7622539    769.70283  0.026882608  0.026728237            5 
 2387000   0.87374536   -6.7979669    769.24506  0.026855364  0.026721389            4 
 2388000   0.85819849   -6.7515279    769.58002  0.026855807  0.026714555            7 
 2389000    0.8727538   -6.7706757    769.29209  0.026834522  0.026707754           12 
 2390000   0.86725495   -6.7862249    768.93055  0.026810689  0.026700923           25 
 2391000   0.88153423   -6.7813024    769.34982  0.026814088  0.026694119            8 
 2392000   0.87861861   -6.7589467    770.02624  0.026826444  0.026687317           16 
 2393000   0.88187947   -6.7486095    770.21845  0.026821927  0.026680599            6 
 2394000   0.87485579   -6.7768375    771.25651  0.026846857  0.026673821           12 
 2395000   0.87309173    -6.739661    771.06111  0.026828849  0.026667022           20 
 2396000   0.88344307   -6.7964251    772.04594  0.026851904  0.026660214            6 
 2397000   0.87025317   -6.7709698    771.00918  0.026804658  0.026653436            5 
 2398000   0.85063111   -6.7800813    771.18316  0.026799526  0.026646708            6 
 2399000   0.87992401   -6.7956221    771.91112  0.026813642  0.026639914           13 
 2400000    0.8740169   -6.7748397     772.0894   0.02680866  0.026633128           12 
 2401000   0.87948332   -6.7580731    771.19364  0.026766404   0.02662637            7 
 2402000   0.87237617   -6.7844793    771.13619  0.026753268  0.026619574           12 
 2403000   0.84759068   -6.7345159    772.11562    0.0267761  0.026612801            6 
 2404000   0.87726822    -6.739669    772.72141  0.026785961   0.02660606            5 
 2405000    0.8692987   -6.7393815    772.22105  0.026757486  0.026599375           12 
 2406000   0.86850111   -6.7577622    771.79607  0.026731645   0.02659263            4 
 2407000   0.85951525   -6.7720074     772.5896  0.026748013  0.026585946            7 
 2408000   0.88117069    -6.773684    772.65815  0.026739277  0.026579256            7 
 2409000   0.86428794   -6.7874633    773.46409  0.026756057  0.026572452            9 
 2410000   0.84210752   -6.7734332    772.54322  0.026713113  0.026565715           11 
 2411000   0.85643024   -6.7477998    774.08337  0.026755266  0.026558903            7 
 2412000   0.87178602   -6.7905322    770.98491  0.026637124  0.026552141            8 
 2413000   0.86921714   -6.7303132    771.63812  0.026648643  0.026545332            7 
 2414000   0.86780529    -6.777488    773.14387  0.026689584  0.026538568            9 
 2415000   0.85617259   -6.7499492     773.4585  0.026689389   0.02653183            8 
 2416000   0.86716159    -6.755937    774.49385  0.026714054   0.02652507            9 
 2417000   0.84736652   -6.7294161    775.95453  0.026753363  0.026518364            4 
 2418000   0.86826037   -6.7663243    775.98429  0.026743324  0.026511719            6 
 2419000   0.87049182   -6.7644538    776.11609  0.026736809  0.026505045           11 
 2420000    0.8599002   -6.7706431    776.31878   0.02673274  0.026498374            7 
 2421000   0.85603562   -6.7832041     774.0626  0.026644038  0.026491667           12 
 2422000   0.85957823     -6.75781    776.64618   0.02672193  0.026484958            8 
 2423000   0.86275863   -6.7826882    773.71599  0.026610125  0.026478275           13 
 2424000   0.86367476   -6.7823424    776.23174  0.026685635  0.026471614           10 
 2425000   0.88118254   -6.7775222    776.28066  0.026676311  0.026464962            8 
 2426000   0.85486415   -6.7719043    776.37822  0.026668666  0.026458293            8 
 2427000   0.83085039   -6.7541219    776.65076  0.026667036   0.02645164           10 
 2428000   0.85936315   -6.7365013    777.02626  0.026668941  0.026445034           14 
 2429000   0.85524358   -6.7550039    778.81294  0.026719258  0.026438435            9 
 2430000    0.8652041   -6.7746029    775.90062  0.026608389  0.026431794            9 
 2431000    0.8768792   -6.7524137    776.30762  0.026611395  0.026425159           10 
 2432000   0.84710486   -6.7822777    775.26517  0.026564733  0.026418478           12 
 2433000   0.86190308   -6.7791701    776.62129  0.026600263  0.026411766            7 
 2434000   0.86213727   -6.7823292     777.7334   0.02662741  0.026405066           16 
 2435000   0.85845393   -6.7721083    775.60672  0.026543693  0.026398315            9 
 2436000   0.84426408   -6.7887204    776.95118   0.02657879  0.026391618           13 
 2437000   0.87613397   -6.7756274    776.81382  0.026563186  0.026384873            7 
 2438000   0.87708492   -6.7777709    776.31957  0.026535397  0.026378116            8 
 2439000   0.85852771   -6.7736923    775.23873  0.026487588  0.026371368           12 
 2440000    0.8692094   -6.7686471    779.21192  0.026612429  0.026364604           13 
 2441000   0.85897185   -6.7883521    776.76359  0.026517943  0.026357831           20 
 2442000   0.86127437   -6.7916811    776.56531  0.026500318   0.02635103            7 
 2443000   0.86480908     -6.79352    776.78354  0.026496914  0.026344228            9 
 2444000   0.88071425   -6.8169189    775.48223  0.026441702  0.026337421           13 
 2445000   0.86636928   -6.7925038    775.58689  0.026434454  0.026330584            8 
 2446000   0.85928086   -6.7412686     778.0722   0.02650832  0.026323793           14 
 2447000   0.85730533   -6.7655715    776.76147  0.026452849  0.026317038            8 
 2448000   0.86676623    -6.771382    776.28475  0.026425815  0.026310228           14 
 2449000   0.86318173   -6.7629514    777.64193  0.026461206  0.026303418            6 
 2450000   0.88188308   -6.7620748    777.31024  0.026439124  0.026296608           14 
 2451000   0.86104952   -6.7873477     775.8977  0.026380311   0.02628976            4 
 2452000   0.85350078   -6.8140444    776.15137  0.026378173  0.026282921           10 
 2453000   0.85691668   -6.7615307    777.65071  0.026418355  0.026276105           18 
 2454000   0.85808996   -6.7670526    777.48254  0.026401879  0.026269281            5 
 2455000   0.87771629   -6.7878275    779.17945  0.026448725  0.026262485           10 
 2456000   0.84222658   -6.7420295     779.0229  0.026432645  0.026255713            5 
 2457000   0.84422637   -6.7700715    778.79915  0.026414298  0.026248955            8 
 2458000   0.85143101   -6.7619457    779.17203  0.026416193  0.026242208            7 
 2459000   0.86225554   -6.7910013    779.72822  0.026424299  0.026235496           17 
 2460000   0.87771793    -6.771911    779.78942  0.026415631  0.026228803           14 
 2461000   0.87019886   -6.7925624    780.74759  0.026437342  0.026222088            8 
 2462000   0.84134085    -6.775193    780.94937  0.026433434   0.02621534            4 
 2463000   0.86956376   -6.7165902    781.52965  0.026442335  0.026208687           10 
 2464000   0.83865772   -6.7974806     779.8151  0.026373617  0.026202027            6 
 2465000   0.85739831   -6.7997355    778.57992   0.02632116  0.026195327           11 
 2466000   0.86440958   -6.7837006    777.49382  0.026273784  0.026188612            4 
 2467000   0.85870316   -6.7858066     782.3783  0.026428128  0.026181923            5 
 2468000   0.84402892   -6.7994339    779.17715  0.026309331  0.026175233           14 
 2469000   0.84306427   -6.7979886    782.23822  0.026401992  0.026168488            6 
 2470000   0.86744331   -6.7981974    778.38177  0.026261193  0.026161803           12 
 2471000   0.85503135   -6.7978528    779.95219  0.026303527  0.026155065           11 
 2472000   0.88327404   -6.7541082    782.06052   0.02636396  0.026148335            9 
 2473000   0.87648718   -6.7702304     781.3293   0.02632866  0.026141663           15 
 2474000   0.85245172   -6.7786458     780.2902  0.026283017  0.026134976           13 
 2475000   0.84022862   -6.8075625    778.75309  0.026220643  0.026128251            5 
 2476000   0.86316721   -6.7953601    782.22104  0.026326772  0.026121515            4 
 2477000   0.86345179   -6.8038577     781.1366   0.02627966  0.026114782            7 
 2478000   0.85139585   -6.7870352    780.66357  0.026253147  0.026108116           14 
 2479000   0.86645242   -6.7893817    782.78507  0.026313872  0.026101399           12 
 2480000   0.85208106   -6.8094957    781.08086  0.026245997  0.026094743            9 
 2481000   0.85709721   -6.8065814    784.39883  0.026346864  0.026088007            6 
 2482000   0.85357267   -6.7934799    785.44814  0.026371479  0.026081421            5 
 2483000   0.85368847   -6.7779476    784.21373   0.02631943  0.026074831            9 
 2484000   0.85259123   -6.7915364    781.68633  0.026224045  0.026068252           10 
 2485000   0.86806055    -6.807998    785.84357  0.026352903  0.026061657           15 
 2486000   0.83552334    -6.766371    784.84442   0.02630881  0.026055067           11 
 2487000   0.85573801   -6.7814879    784.69672  0.026293282  0.026048431           12 
 2488000   0.86354209    -6.809213    782.78279  0.026218609  0.026041844            7 
 2489000    0.8428219   -6.7859017    786.51184  0.026332926  0.026035282           17 
 2490000    0.8591132   -6.7441698    785.99244  0.026304968  0.026028784            9 
 2491000   0.87318597   -6.7838916    785.96206  0.026293392  0.026022314            9 
 2492000   0.84604532   -6.7763776    787.40333  0.026331037  0.026015807           15 
 2493000   0.84720275   -6.8019273    785.93106  0.026271262  0.026009269           15 
 2494000   0.83238474   -6.7883912    784.81141  0.026223316  0.026002716            7 
 2495000   0.85607114   -6.7952467     786.2159  0.026259716  0.025996188            4 
 2496000   0.85720975   -6.8101372    784.13269  0.026179644  0.025989691           15 
 2497000   0.83796825   -6.7876004    785.63357  0.026219249  0.025983152            6 
 2498000   0.85162773   -6.7871007    784.53234  0.026172015  0.025976604            7 
 2499000   0.85244875   -6.7725228    785.29627  0.026187017  0.025970076            7 
 2500000    0.8513192   -6.8094938    787.69816  0.026256605   0.02596352            8 
 2501000   0.86416124   -6.7858847    787.87428  0.026251975  0.025956966            6 
 2502000   0.86009016   -6.7998996    785.53391  0.026163533  0.025950412            7 
 2503000   0.86255224   -6.8039593    788.57585  0.026254356  0.025943839            7 
 2504000   0.84609193   -6.7909655    789.24447  0.026266123  0.025937286            7 
 2505000   0.87165754   -6.7727314     786.3037  0.026157808  0.025930749           15 
 2506000   0.84294023   -6.8046869    787.09644  0.026173731  0.025924212           21 
 2507000   0.84911964   -6.7926549     785.6198  0.026114207  0.025917669            9 
 2508000   0.83531736    -6.804346    787.50071  0.026166292  0.025911109            4 
 2509000    0.8396658   -6.8086667    785.97282  0.026105116  0.025904507           11 
 2510000   0.85038889   -6.8007288    787.33524  0.026139948   0.02589792            9 
 2511000   0.84782198   -6.7882602    789.98562  0.026217497    0.0258914            8 
 2512000   0.83545411   -6.7844535    788.34348  0.026152584  0.025884856           11 
 2513000   0.85531636   -6.8049639    787.73957   0.02612215  0.025878314           11 
 2514000   0.84622795   -6.7921766    788.16065  0.026125718  0.025871764           11 
 2515000   0.86851101   -6.8202239    786.76535  0.026069097  0.025865171            6 
 2516000   0.85511872   -6.8182802    788.50348  0.026116305  0.025858587           13 
 2517000   0.86596491   -6.7955666    787.97745  0.026088513     0.025852            6 
 2518000   0.85555191    -6.803426    788.69728  0.026101975  0.025845436           11 
 2519000   0.86103124   -6.8247026     787.1977  0.026042004  0.025838964            8 
 2520000   0.83844186   -6.8143251    788.33077  0.026069139   0.02583243           11 
 2521000   0.83286584   -6.7634324    789.34614  0.026092362  0.025825872            4 
 2522000   0.83835685   -6.8163616    789.35832  0.026082419  0.025819343           12 
 2523000   0.82970701   -6.8051102    788.83155  0.026054682  0.025812831            9 
 2524000   0.83695721   -6.8065001    790.39755  0.026096063  0.025806305            6 
 2525000   0.84631315   -6.7987968    788.88818  0.026035914  0.025799759            5 
 2526000   0.84517573   -6.7869799    786.19428  0.025936734  0.025793184           21 
 2527000   0.85001163   -6.7920108    789.87784  0.026047944  0.025786613           10 
 2528000   0.84945962   -6.8055755    787.22793  0.025950288  0.025780086           10 
 2529000   0.84068711   -6.7889672     788.5948  0.025985066  0.025773496           17 
 2530000   0.85673731   -6.8026985    788.81596   0.02598208  0.025766928           18 
 2531000    0.8500454   -6.7677041     788.0712  0.025947293  0.025760396           11 
 2532000   0.83244683   -6.8082127    790.07655  0.026003046  0.025753808            9 
 2533000   0.83883809   -6.8300195    787.84366   0.02591932  0.025747162           11 
 2534000   0.85030481    -6.778019    789.88931  0.025976365  0.025740545            6 
 2535000   0.85058957   -6.8085126    789.17814   0.02594274  0.025733955            4 
 2536000   0.84265917   -6.8045172    790.26558  0.025968243  0.025727346            9 
 2537000   0.82817873   -6.8106324     788.7315  0.025907617  0.025720739           11 
 2538000   0.83316615   -6.7890936    790.48395   0.02595495  0.025714145           20 
 2539000   0.85251634   -6.7599701    792.24936   0.02600267  0.025707642            9 
 2540000   0.84980464   -6.8212359    788.06161   0.02585504  0.025701069           12 
 2541000   0.84171676   -6.8380691    787.82362   0.02583706  0.025694464           11 
 2542000   0.84244715   -6.8069543    792.74053  0.025988085  0.025687887           13 
 2543000   0.82933066   -6.8217141    789.58924  0.025874598  0.025681284           16 
 2544000   0.84190686   -6.8030499    791.09947  0.025913898  0.025674724           12 
 2545000   0.84565302   -6.8079879    791.63974  0.025921406  0.025668203            9 
 2546000   0.84246564   -6.8208159    791.57609  0.025909141  0.025661642           14 
 2547000   0.83971186   -6.8110531    790.67556  0.025869505  0.025655104            6 
 2548000   0.82934141   -6.8079711    791.41722  0.025883609  0.025648589           13 
 2549000   0.83535308   -6.8385138    792.01197  0.025892898  0.025642068           11 
 2550000   0.83323121   -6.8069243    792.93004  0.025912747  0.025635564           10 
 2551000   0.84165877   -6.7814429    793.71229  0.025928142  0.025629041            6 
 2552000   0.85589083   -6.7934947    792.37934  0.025874456  0.025622632           12 
 2553000   0.84462669   -6.7926493    791.26171   0.02582784  0.025616167            5 
 2554000   0.85389118   -6.8204531    791.41031  0.025822576  0.025609659           14 
 2555000   0.86237252   -6.7752319    793.60444  0.025884033  0.025603138            5 
 2556000   0.84159271   -6.7961519    793.53873  0.025871763  0.025596637           10 
 2557000   0.82835992   -6.7960166    794.76861  0.025901728  0.025590141           10 
 2558000   0.84812899   -6.8025547    794.64418  0.025887548  0.025583609            9 
 2559000   0.82838272   -6.8026449    793.38747  0.025836507  0.025577077            6 
 2560000   0.84427692   -6.8280314    791.97285  0.025780366  0.025570547            8 
 2561000   0.85480946   -6.8035266    790.68967  0.025728546  0.025564007           10 
 2562000   0.82471142   -6.8294938    794.63255  0.025846752   0.02555749            4 
 2563000   0.85096779   -6.8110099    794.81819  0.025842703  0.025550954           12 
 2564000   0.84506841   -6.7888779    795.03251   0.02583959  0.025544492           10 
 2565000    0.8564492    -6.823144    793.03266  0.025764544  0.025538032            8 
 2566000   0.83406841   -6.8538272    793.92673  0.025783539   0.02553151           11 
 2567000   0.83364717    -6.813636    794.42067   0.02578953  0.025524972            9 
 2568000   0.84970248   -6.7998827    794.12761  0.025769977  0.025518445           13 
 2569000   0.85836187   -6.8226509    792.17633   0.02569665  0.025511975           16 
 2570000   0.84224128   -6.8132397    795.42968  0.025792143   0.02550552           11 
 2571000   0.82739725   -6.8163594    795.75525  0.025792663  0.025498989           22 
 2572000   0.83469282   -6.8035606     795.7936  0.025783878  0.025492448           12 
 2573000   0.84385148   -6.8137826    792.93365   0.02568123  0.025485914           12 
 2574000   0.83550778   -6.7992189    794.33553  0.025716639   0.02547942            5 
 2575000   0.84308862   -6.7880802     795.1646  0.025733482  0.025472952            9 
 2576000   0.85127965   -6.8264123    795.79918  0.025744021  0.025466498            8 
 2577000   0.85201764   -6.7864798    794.88804  0.025704567  0.025460003            6 
 2578000   0.84351319   -6.8309138    794.95129  0.025696641  0.025453507            7 
 2579000   0.84184532   -6.8483726    796.01025  0.025720895  0.025446937           12 
 2580000   0.83317916   -6.8267701    794.86904  0.025674065   0.02544039           14 
 2581000   0.83907148   -6.8002412    795.84767  0.025695714  0.025433828            8 
 2582000   0.83149675   -6.8485919    795.70968  0.025681309  0.025427314           23 
 2583000   0.85294392   -6.8056022    795.36282  0.025660176  0.025420843            6 
 2584000   0.84057369    -6.796048    797.18254  0.025708931   0.02541433           12 
 2585000   0.84360236   -6.8195753    796.79627  0.025686533  0.025407853           17 
 2586000   0.84541663   -6.8206647     795.2921  0.025628129  0.025401312            7 
 2587000   0.84536538   -6.8304133    794.96807  0.025607785  0.025394772            5 
 2588000   0.82554768   -6.8313845    795.99174  0.025630852  0.025388242            9 
 2589000   0.84578954   -6.8140584    794.59802  0.025576092  0.025381664            9 
 2590000   0.82837702   -6.8105795    796.35583  0.025622774  0.025375058           14 
 2591000   0.81839017    -6.836314    795.41909  0.025582757  0.025368508           16 
 2592000    0.8496945   -6.8105576    795.87643  0.025587591  0.025361958            9 
 2593000   0.85566808   -6.8102693    798.14097    0.0256505  0.025355432           14 
 2594000    0.8435493   -6.8454488    794.98383  0.025539188  0.025348881            8 
 2595000   0.82890347   -6.8063186    795.82358  0.025556313  0.025342289            7 
 2596000   0.85368091   -6.8268447    794.25514   0.02549612  0.025335695            9 
 2597000   0.81359823   -6.8158856    797.97176  0.025605563  0.025329133            9 
 2598000    0.8337202   -6.8253341    795.59082  0.025519336  0.025322587            8 
 2599000    0.8344949   -6.8273577    796.45068  0.025537087  0.025315997           11 
 2600000   0.84157757   -6.8130771    797.29584  0.025554354  0.025309457           11 
 2601000   0.83902706   -6.8376939    796.31843  0.025513214   0.02530292           13 
 2602000   0.81879819   -6.8157226    796.74681  0.025517128  0.025296341           25 
 2603000   0.83930643   -6.8350895    796.43256  0.025497265  0.025289756            6 
 2604000    0.8410481   -6.8045876    796.55573  0.025491415  0.025283164            8 
 2605000   0.84237328   -6.8262328    796.58234   0.02548248  0.025276571            9 
 2606000   0.83512121   -6.8110664    798.12048  0.025521888  0.025270015           17 
 2607000   0.84340516   -6.8276373    796.04944  0.025445897  0.025263472           18 
 2608000   0.82955726   -6.8091959    797.27233  0.025475215  0.025256949            6 
 2609000    0.8293178   -6.8291418    799.33042  0.025531188   0.02525042           10 
 2610000   0.82652517   -6.8372367    798.43127  0.025492697  0.025243891            9 
 2611000   0.82843251   -6.8411664    798.70585  0.025491697  0.025237342            7 
 2612000   0.84658444   -6.8343367    797.34806  0.025438618  0.025230777           10 
 2613000   0.83231245   -6.8362627    797.87662   0.02544574  0.025224252           14 
 2614000   0.81696309   -6.8316847    797.43803  0.025422023  0.025217701            8 
 2615000   0.83583373   -6.8105431     799.7677  0.025486542  0.025211129           19 
 2616000   0.81445761   -6.8248944    798.17411  0.025426035  0.025204625           13 
 2617000   0.82984796   -6.8446297     799.0763  0.025445048  0.025198092            9 
 2618000   0.83159455   -6.8182922     799.0393  0.025434151  0.025191575           10 
 2619000   0.83997209   -6.8472327    798.63998  0.025411734  0.025185089            8 
 2620000   0.85357242   -6.8232908    800.89603  0.025473792   0.02517859           17 
 2621000   0.85096193   -6.8322369    800.44535  0.025449744  0.025172103           17 
 2622000   0.83318031   -6.8291393    799.00194  0.025394163  0.025165619            8 
 2623000   0.82454096   -6.8541955    798.96678  0.025383364  0.025159102           20 
 2624000    0.8176895   -6.8227438    800.07898  0.025409012  0.025152638           17 
 2625000   0.83552351   -6.8444456    802.28911  0.025469496  0.025146206           23 
 2626000   0.83079222   -6.8428788     802.4634  0.025465328  0.025139748            9 
 2627000   0.82634129   -6.8347753    802.19304  0.025447057  0.025133283            6 
 2628000   0.84551001   -6.8548955     801.8156  0.025425406  0.025126821           12 
 2629000   0.83611365    -6.795353    800.94944  0.025388279  0.025120373            9 
 2630000   0.83127654    -6.828626    801.94043  0.025410026  0.025113948           19 
 2631000   0.82944342   -6.8562751    801.54845  0.025387953  0.025107528           10 
 2632000   0.81099882   -6.8474228    799.74232  0.025321122  0.025101102           10 
 2633000   0.84595199   -6.7973122    802.87436  0.025410633  0.025094647            9 
 2634000   0.82571876   -6.8324392    802.63704  0.025393478  0.025088247            5 
 2635000   0.84396145   -6.8147861     803.0123  0.025395708  0.025081882           13 
 2636000   0.83004123    -6.807709    805.00811  0.025449169   0.02507554           17 
 2637000    0.8477323   -6.8165721    802.23518  0.025351889  0.025069161            6 
 2638000   0.81042632   -6.8406768    802.50328  0.025350748  0.025062778           10 
 2639000   0.81573389   -6.8191362    803.86243  0.025384061  0.025056413            7 
 2640000   0.83144435   -6.8603169    804.61168  0.025398096  0.025050027            7 
 2641000   0.86390066   -6.8273198    801.62881  0.025294359  0.025043661            6 
 2642000   0.82510539   -6.8307697     802.5177  0.025312822  0.025037267           17 
 2643000   0.82561615   -6.8400736    803.65807    0.0253392  0.025030879           20 
 2644000   0.81411975   -6.8388573    803.30883  0.025318609  0.025024537           13 
 2645000   0.85215393   -6.8440326    803.36625  0.025310846  0.025018104            9 
 2646000    0.8268232   -6.8134538    803.75496  0.025313522  0.025011712            8 
 2647000   0.82959976   -6.8558121    804.37254  0.025323402  0.025005347           13 
 2648000   0.82881281   -6.8622142    803.67149  0.025291776  0.024998985           14 
 2649000   0.83901141   -6.8268283    802.69802  0.025251605  0.024992635           11 
 2650000   0.81874786   -6.8347372    804.59181  0.025301629   0.02498628           10 
 2651000    0.8177196   -6.8156537    804.33245  0.025283932   0.02497995           14 
 2652000   0.81085829   -6.8306375    803.76375  0.025256528  0.024973578           11 
 2653000   0.82974122   -6.8483575    804.00625  0.025254625  0.024967213           18 
 2654000   0.84143415   -6.8329949    805.45499  0.025290599  0.024960873            6 
 2655000   0.83046753   -6.8684125    805.08027  0.025269312  0.024954457            7 
 2656000   0.83625549   -6.8355477    805.38422  0.025269334  0.024948061            8 
 2657000   0.85446605   -6.8577636    805.38631  0.025259889  0.024941678            8 
 2658000   0.82120612   -6.8481465    806.02564   0.02527043  0.024935311           15 
 2659000   0.80556262   -6.8524633    803.88179  0.025193738  0.024928959            9 
 2660000   0.82420025    -6.841998    806.19028  0.025256588  0.024922648            7 
 2661000   0.82518004   -6.8098091    807.05357  0.025274132   0.02491631            7 
 2662000   0.83617512   -6.8141446    809.20003  0.025331832  0.024910026           16 
 2663000   0.80422163   -6.8531735     805.3488  0.025201802  0.024903701           13 
 2664000   0.81579436   -6.8849839     804.7798  0.025174543  0.024897329           11 
 2665000    0.8215183   -6.8563761    805.59431  0.025190566  0.024890954            7 
 2666000   0.83593356   -6.8217488    807.45839  0.025239384  0.024884606            9 
 2667000   0.81843844   -6.8629027    805.01404  0.025153545  0.024878235           10 
 2668000   0.81986138   -6.8588424    807.61006  0.025225202  0.024871903           14 
 2669000   0.83517812   -6.8448382    807.98251  0.025227379  0.024865612           14 
 2670000    0.8488051    -6.836109    806.44619  0.025169981  0.024859345           17 
 2671000   0.82496001   -6.8644189    807.57316  0.025195718  0.024853085           10 
 2672000   0.82108346   -6.8266381    808.49586  0.025215066  0.024846795            7 
 2673000   0.82293098   -6.8259439     807.0604   0.02516088  0.024840505            8 
 2674000   0.81836253   -6.8607014     808.1971  0.025186895  0.024834175           13 
 2675000   0.82204586   -6.8544096    807.74578   0.02516342  0.024827865            7 
 2676000   0.83618612   -6.8355552     809.0895  0.025195861  0.024821581            9 
 2677000   0.82176826   -6.8346737    808.11241  0.025156033  0.024815264           12 
 2678000   0.81317214   -6.8433068    805.56162  0.025067265   0.02480892            9 
 2679000   0.80837985   -6.8437515    807.87661  0.025129918  0.024802574            5 
 2680000   0.83076219   -6.8244744    806.61862  0.025081425  0.024796224           13 
 2681000   0.82902614   -6.8579589       807.43   0.02509729  0.024789853            8 
 2682000    0.8142779   -6.8302546    809.04363   0.02513807  0.024783453           10 
 2683000   0.79810625   -6.8474752    809.59178  0.025145725   0.02477716            9 
 2684000     0.834153    -6.815016    809.90794  0.025146173  0.024770847            6 
 2685000   0.82387592    -6.831619    808.59264  0.025095985  0.024764523            3 
 2686000   0.81019668   -6.8379227    808.08004  0.025070738  0.024758185            5 
 2687000   0.82784603   -6.8507622    807.75267  0.025051255  0.024751822            6 
 2688000   0.82275534   -6.8243927    808.13938  0.025053924  0.024745448           19 
 2689000   0.81882201   -6.8598372    810.10085  0.025105394   0.02473905           22 
 2690000   0.82261575   -6.8597613    808.06678  0.025033048   0.02473265           18 
 2691000   0.81784181   -6.8663215    806.62264  0.024979024  0.024726213           15 
 2692000   0.82487721   -6.8499872    808.26567  0.025020606  0.024719804            8 
 2693000   0.81366632   -6.8794355    807.89762  0.024999926  0.024713394           14 
 2694000   0.82922857   -6.8313978    809.96806  0.025054691  0.024706998           15 
 2695000   0.84432555   -6.8564498    807.87575  0.024980697   0.02470061            9 
 2696000   0.80734474   -6.8377522    812.43824  0.025112458  0.024694268            9 
 2697000     0.820091   -6.8625702    808.48467  0.024980987  0.024687914           17 
 2698000   0.84165231   -6.8319092    808.15727  0.024961616  0.024681519           20 
 2699000   0.81500901   -6.8417526    807.60894  0.024935437  0.024675122           10 
 2700000   0.83299724   -6.8807504    807.69196  0.024928764  0.024668724           17 
 2701000   0.81425843   -6.8622561     809.2177  0.024966608  0.024662298           10 
 2702000    0.8299778   -6.8579834    809.82915  0.024976226  0.024655899           18 
 2703000   0.83995504   -6.8491598    808.90722  0.024938563  0.024649514           15 
 2704000   0.82763223   -6.8547504    808.39364  0.024913512  0.024643125            8 
 2705000    0.8254448   -6.8641836    808.64882  0.024912163  0.024636734           11 
 2706000   0.81720978   -6.8660643    808.93515  0.024911775  0.024630316           17 
 2707000   0.82473579   -6.8604778    809.90199  0.024932336  0.024623926           11 
 2708000   0.81647477   -6.8584422     810.8849  0.024953376  0.024617573            9 
 2709000   0.81956688   -6.8959336    810.55247  0.024933939  0.024611157           11 
 2710000   0.81770297   -6.8519404    810.90709  0.024935642  0.024604771           12 
 2711000   0.79924039   -6.8416839     809.7194  0.024889936  0.024598375           29 
 2712000   0.83008631    -6.849414    811.64157  0.024939822  0.024592011           13 
 2713000    0.8198782   -6.8664873    810.31631  0.024889922  0.024585623           13 
 2714000    0.8033803   -6.8876669    809.71157  0.024862183  0.024579194           15 
 2715000   0.80969864   -6.8640909    810.84669  0.024887866  0.024572732            8 
 2716000   0.82436802   -6.8424513    809.64445  0.024841816  0.024566322            7 
 2717000   0.81678055    -6.836333    810.06972  0.024845716  0.024559943            8 
 2718000   0.80919592    -6.842303    811.22154  0.024871889   0.02455356           10 
 2719000   0.81906263    -6.851778    810.30152  0.024834545  0.024547141           13 
 2720000   0.80707929   -6.8826881    808.63362  0.024774314  0.024540717           16 
 2721000   0.82973656   -6.8741846    812.29939  0.024877477  0.024534275           12 
 2722000   0.83380859    -6.874778    811.21583  0.024835165  0.024527848           10 
 2723000   0.78937787   -6.8539387    809.51104  0.024773872  0.024521408            7 
 2724000   0.83095967     -6.86435    809.06273  0.024751063   0.02451496            5 
 2725000   0.81786954   -6.8770905    809.35955  0.024751057  0.024508508            6 
 2726000   0.80981787   -6.8811914    811.56089  0.024809272  0.024502041            6 
 2727000   0.80560549   -6.8550404     810.3066  0.024761844   0.02449558            8 
 2728000   0.80958179   -6.8657558     809.7748  0.024736523  0.024489115           24 
 2729000   0.82071626     -6.85712    812.01976  0.024796011  0.024482692           15 
 2730000    0.8065084   -6.8687318    809.37489  0.024706193  0.024476261            9 
 2731000   0.81114889   -6.8843524     812.1001  0.024780303  0.024469817           13 
 2732000    0.8248198    -6.864783    811.49465  0.024752765  0.024463394            6 
 2733000   0.81424076   -6.8704634    810.17222  0.024703385  0.024456993           15 
 2734000   0.80999702   -6.8734771    811.24474   0.02472704  0.024450623           10 
 2735000     0.820382   -6.8552176    813.11932  0.024775116  0.024444236           19 
 2736000   0.82358961   -6.8804988    811.10801    0.0247048  0.024437823            4 
 2737000   0.82340948    -6.879595    812.99564  0.024753247  0.024431381           17 
 2738000    0.8250144   -6.8961224    811.10146  0.024686555  0.024424975            8 
 2739000   0.81223256   -6.8838298      810.929  0.024672295  0.024418531           19 
 2740000   0.81234227   -6.8542587    813.90401  0.024753772  0.024412117           21 
 2741000   0.82520038    -6.860201    813.38725   0.02472903  0.024405708            9 
 2742000   0.80375493   -6.8724555    810.86916  0.024643483  0.024399307           10 
 2743000   0.81930295   -6.8490282    813.15114  0.024703826  0.024392889           13 
 2744000   0.80628666   -6.8708613     811.9797  0.024659248  0.024386436            6 
 2745000   0.81475718   -6.8849608    812.99277  0.024681019  0.024379958            9 
 2746000   0.80946971    -6.854546    813.10103  0.024675317  0.024373527            7 
 2747000   0.81291434   -6.8831252    812.27207  0.024641187  0.024367048           10 
 2748000    0.8112893   -6.8849001    811.68449  0.024614401  0.024360591            8 
 2749000   0.82716128   -6.8763485    811.29781  0.024593725  0.024354135           22 
 2750000   0.83311978   -6.8629033     810.9307  0.024573658  0.024347624            6 
 2751000   0.81127909   -6.8751897     813.5169  0.024643066  0.024341163           11 
 2752000   0.80383187   -6.8807486    814.07236  0.024650931  0.024334712           14 
 2753000   0.82610042   -6.8451285    811.56897    0.0245662  0.024328297            7 
 2754000   0.81964962   -6.8928815    810.95045  0.024538564  0.024321863           13 
 2755000   0.81104148    -6.895068    810.89109  0.024527861  0.024315387            6 
 2756000   0.81407705   -6.8636641    812.59958  0.024570621  0.024308926            6 
 2757000   0.80503912   -6.8889622    811.46102  0.024527295  0.024302452            5 
 2758000   0.80772612   -6.8832643     811.9551   0.02453333  0.024295975            8 
 2759000   0.80816523   -6.8754596    813.18626  0.024561624  0.024289531           13 
 2760000    0.8240015   -6.8552167    813.11765  0.024550654  0.024283068           16 
 2761000   0.81189064   -6.8840552    809.54612  0.024433965  0.024276598           21 
 2762000   0.81930632   -6.8612015    813.48545  0.024543973  0.024270124           11 
 2763000   0.82312129   -6.8942042    813.22208  0.024527147  0.024263685           20 
 2764000   0.82693417    -6.889629    813.15936  0.024516382  0.024257244           12 
 2765000   0.81736882   -6.8812477    812.16948  0.024477682  0.024250806           27 
 2766000   0.80858901   -6.9014717    815.08189  0.024556577  0.024244361            8 
 2767000   0.80869639   -6.8980713    814.02998  0.024516022  0.024237945           10 
 2768000   0.79006195   -6.8736888    812.89443  0.024472978  0.024231493            9 
 2769000   0.82025709   -6.8940667    815.35905  0.024538312  0.024225068            9 
 2770000   0.80570767    -6.859351    813.64372   0.02447785   0.02421864            6 
 2771000   0.81361304   -6.8448863    814.20333  0.024485845  0.024212215           10 
 2772000   0.80893405   -6.8758068     815.3851  0.024512539  0.024205798            7 
 2773000   0.82952205   -6.8735578    813.67452  0.024452294  0.024199365           14 
 2774000   0.80273714   -6.8950204    814.99633  0.024483187  0.024192937            8 
 2775000   0.80187819   -6.9077744    814.32644  0.024454247  0.024186503            6 
 2776000   0.81433491   -6.8815138    814.38973  0.024447338  0.024180078           13 
 2777000   0.80250323   -6.8984961    815.09864  0.024459808  0.024173625           12 
 2778000   0.79288243   -6.8662391    815.42841  0.024460896  0.024167181            9 
 2779000   0.81166309   -6.8760405    815.30708  0.024448455  0.024160789           10 
 2780000   0.79588509     -6.88582    814.22612  0.024407258   0.02415437            8 
 2781000   0.80665041   -6.8826556    816.54185  0.024467873  0.024147961           20 
 2782000   0.80960079   -6.8667368    816.48281  0.024457309  0.024141555            6 
 2783000   0.82968058   -6.8761553    815.38401  0.024415619  0.024135132            9 
 2784000   0.79200912   -6.8664743    817.15069  0.024459731  0.024128775            9 
 2785000   0.80678222   -6.8735966    815.93178  0.024414476  0.024122409           17 
 2786000   0.80032857   -6.8697833    817.39553  0.024449495  0.024116071           12 
 2787000   0.77811515   -6.8607377    817.14501  0.024433232  0.024109701            7 
 2788000   0.78689125   -6.8805294    817.72827  0.024441902  0.024103321            8 
 2789000   0.80091358   -6.8818602    816.25213  0.024389032  0.024096936           13 
 2790000   0.80109429   -6.9107438    818.26461  0.024440401  0.024090553           11 
 2791000   0.79590423   -6.8500502    815.23684  0.024341241  0.024084125           10 
 2792000   0.80443181    -6.884296    816.16368  0.024360186  0.024077746           11 
 2793000   0.81308416   -6.8615952    815.68925  0.024337309  0.024071417            7 
 2794000   0.79203924   -6.8956953    817.44825  0.024381062  0.024065058           12 
 2795000   0.80771273   -6.8785799    816.89566  0.024355864  0.024058738            8 
 2796000   0.81756198   -6.9168087    817.47521  0.024364426  0.024052364           14 
 2797000   0.79713832   -6.9125487    817.08073  0.024343962   0.02404599            9 
 2798000   0.81623338   -6.8934876    817.56345  0.024349638  0.024039643           11 
 2799000   0.80821297   -6.8660542    818.59304  0.024371592  0.024033308           15 
 2800000   0.79436519    -6.879563    816.44538   0.02429897  0.024026937           10 
 2801000   0.79161959   -6.9016612    817.34075  0.024316933  0.024020599            8 
 2802000   0.80214548   -6.8918682    818.42704  0.024340561  0.024014238            5 
 2803000    0.8066545   -6.9161179    818.51046  0.024334358  0.024007901            9 
 2804000   0.79560608   -6.8604295    816.33895  0.024261143  0.024001549            7 
 2805000   0.80001961   -6.8990248    817.17464  0.024277322  0.023995192            7 
 2806000   0.78199885   -6.9083886     819.4317    0.0243357  0.023988839            7 
 2807000   0.83235402    -6.905688    816.32896  0.024234918  0.023982513           13 
 2808000   0.79482081   -6.8952019    817.76388  0.024268871  0.023976165           17 
 2809000    0.8048022   -6.9105388    819.92036  0.024324207  0.023969837            4 
 2810000   0.79169367   -6.8933492    818.41902  0.024271027  0.023963501           16 
 2811000   0.80019164    -6.891936    820.87475  0.024335193  0.023957138            7 
 2812000   0.80849338   -6.9056323    817.88295  0.024237878   0.02395077           16 
 2813000   0.79135481   -6.8964498    819.64821  0.024281556  0.023944402           10 
 2814000    0.8024928   -6.9079938    819.20804  0.024259892  0.023938061            8 
 2815000   0.79918434   -6.8708885    822.50021  0.024348733  0.023931727            7 
 2816000   0.80029187   -6.9035421    820.03641  0.024267176  0.023925373           17 
 2817000   0.79737237   -6.8913176    818.51154  0.024213452  0.023919032            6 
 2818000    0.8017781   -6.8673812    820.12897   0.02425269  0.023912733            9 
 2819000   0.79393649   -6.9050763    819.16896  0.024215708  0.023906414            9 
 2820000   0.81339384   -6.8815824    821.60851  0.024279211  0.023900123            7 
 2821000   0.80893503   -6.8966193     819.3285  0.024203252  0.023893816           14 
 2822000   0.79159707   -6.8677168    819.84487  0.024209924  0.023887517            7 
 2823000   0.80851076   -6.8999228    820.31066  0.024215098   0.02388123            6 
 2824000   0.80814776   -6.9256394    820.11393  0.024200718  0.023874903           11 
 2825000   0.79502612   -6.9056202    820.31159  0.024197982  0.023868583           16 
 2826000   0.78802221   -6.8973704    821.75724  0.024232049  0.023862283            6 
 2827000   0.79636952   -6.8717235    822.11524   0.02423403  0.023856019           10 
 2828000   0.79733369   -6.9074799    821.95341  0.024220692  0.023849773            8 
 2829000   0.80512367   -6.9227365    821.05982  0.024185808  0.023843494           15 
 2830000   0.80151144   -6.9255951    820.01025  0.024146356  0.023837201           10 
 2831000   0.79987578   -6.8922379    821.30998  0.024176086  0.023830929           12 
 2832000    0.7950609   -6.9083512    821.00569  0.024158595  0.023824661           14 
 2833000   0.79739027   -6.8756168     821.7745  0.024172682  0.023818358           16 
 2834000   0.79282318   -6.9022078    821.86015  0.024166671  0.023812103           12 
 2835000   0.78167918   -6.8938068    823.53435  0.024207359  0.023805819            9 
 2836000   0.79643023   -6.9150804    821.71527  0.024145371  0.023799571           11 
 2837000   0.80050178   -6.8801638    822.56096  0.024161701  0.023793322           20 
 2838000   0.81375592   -6.8885048    822.69088  0.024157002  0.023787101            8 
 2839000   0.80337714   -6.9086798    822.55986  0.024144648   0.02378087            5 
 2840000    0.7921919    -6.917561     821.2645  0.024098137  0.023774628           12 
 2841000   0.80030032   -6.8921738    823.73376  0.024162084  0.023768392           11 
 2842000   0.80259776   -6.8976819    822.42479    0.0241152  0.023762162           12 
 2843000   0.78360155   -6.9055803    822.81578  0.024118178  0.023755936            6 
 2844000   0.79919246   -6.9031687    822.17919  0.024091045  0.023749723            6 
 2845000   0.80957717    -6.894112    823.90152  0.024133026  0.023743531            6 
 2846000   0.79542654   -6.9120758     823.0282  0.024098975  0.023737331           12 
 2847000    0.7783277   -6.9013344    823.56793  0.024106309  0.023731115           11 
 2848000   0.78950757   -6.9051244    823.51602  0.024096326  0.023724891           13 
 2849000   0.79872415   -6.8928483    822.88213  0.024069326   0.02371867            9 
 2850000   0.79247674   -6.8950149    825.22425  0.024129364  0.023712462           12 
 2851000   0.79968891    -6.895677    824.72018  0.024106167  0.023706255           11 
 2852000   0.78813825   -6.8964126    824.08403  0.024079127  0.023700049           17 
 2853000   0.78402943   -6.9084679    822.72519  0.024030996  0.023693817           23 
 2854000   0.78725908   -6.9218392    825.11387  0.024092323   0.02368762           10 
 2855000   0.79602767   -6.9263101     822.6607   0.02401228  0.023681423           19 
 2856000   0.80859912   -6.8673205    823.89728  0.024039953  0.023675253           27 
 2857000   0.79050876   -6.9021645    826.06071  0.024094642  0.023669088           10 
 2858000   0.80191647   -6.8945031    825.20123  0.024061151  0.023662958            7 
 2859000   0.78486292   -6.8939748    826.41551  0.024088128  0.023656802           17 
 2860000   0.80135638   -6.9245798    823.99778  0.024009259   0.02365064           16 
 2861000   0.78385815   -6.9199627    822.79073  0.023965709  0.023644456            7 
 2862000   0.78820632   -6.9020002    823.83075  0.023987618  0.023638276           20 
 2863000   0.80010341   -6.9155164    826.06255  0.024044201  0.023632096           27 
 2864000   0.78114639   -6.9119523    824.45836  0.023989128  0.023625961           24 
 2865000   0.78588294   -6.9304502    824.10868  0.023970584  0.023619799           14 
 2866000   0.80849601   -6.9120657    826.29571  0.024025812  0.023613627            8 
 2867000   0.78356355   -6.9280962     827.0144  0.024038321  0.023607481            7 
 2868000    0.7798146    -6.914205    824.99197  0.023971175  0.023601321           33 
 2869000    0.8180704   -6.9099176    826.75782  0.024014111  0.023595178           12 
 2870000   0.77994891   -6.9281367    826.92699  0.024010656  0.023589043           11 
 2871000   0.78846414    -6.890013    826.75848  0.023997401  0.023582937            7 
 2872000   0.79697566   -6.9112228    826.83845  0.023991366  0.023576833           15 
 2873000   0.78191412   -6.9029435    827.09024  0.023990319  0.023570727           28 
 2874000   0.78342149   -6.9265067    827.48991   0.02399356  0.023564592           26 
 2875000   0.79234346   -6.9185442    825.93081  0.023940024  0.023558429           23 
 2876000    0.7900041     -6.92041    826.87316  0.023959005  0.023552262           29 
 2877000   0.80720811   -6.8936263    826.75497  0.023947253  0.023546124           22 
 2878000   0.79099548    -6.911827    826.59861  0.023934405  0.023539988           15 
 2879000   0.78787561   -6.9151715    826.55356  0.023924788  0.023533821           20 
 2880000   0.78741214   -6.9245624     824.6456  0.023861273  0.023527643           10 
 2881000   0.80037931   -6.8826923    828.44892  0.023963003  0.023521476           10 
 2882000   0.78421383   -6.9134976    825.91259  0.023881349  0.023515319           42 
 2883000   0.78091367   -6.9245607    826.39437  0.023886992  0.023509128           12 
 2884000   0.79533469   -6.8925339     827.5763  0.023912861  0.023502939           10 
 2885000   0.82675539    -6.945045    827.45607    0.0239011  0.023496738           24 
 2886000   0.80273399   -6.9071423    827.66546  0.023898864  0.023490552           20 
 2887000   0.78443513   -6.9117783    825.98385  0.023842046  0.023484378           30 
 2888000   0.78830414   -6.9328295    825.94333  0.023832621  0.023478187           23 
 2889000   0.79183098   -6.9360886    826.72378  0.023846884  0.023471988           19 
 2890000   0.79119532   -6.9288788     827.3127  0.023855614  0.023465799           29 
 2891000   0.79795437   -6.9130448    826.98182  0.023837825   0.02345962           19 
 2892000   0.78488341   -6.9317146    827.62642  0.023848156  0.023453426           11 
 2893000   0.78414764   -6.9284189    827.92552  0.023848529  0.023447233           18 
 2894000    0.7806841   -6.9167304     826.8408  0.023809053  0.023441014           14 
 2895000   0.80083238   -6.9005839    827.06805   0.02380737  0.023434817           11 
 2896000   0.78611858   -6.9110677    826.80637   0.02379162  0.023428639           14 
 2897000   0.77947029   -6.8864566    827.94314  0.023816107  0.023422447           22 
 2898000   0.79680602   -6.9315601    826.31997  0.023761214  0.023416245            9 
 2899000   0.76876122   -6.9177104    827.80047  0.023795575  0.023410044            7 
 2900000   0.79717416   -6.8996539    827.19302  0.023769914  0.023403856           18 
 2901000     0.792167   -6.9383638    826.41387  0.023739339  0.023397653           14 
 2902000   0.78330135   -6.9510351    827.23786   0.02375482  0.023391452           12 
 2903000   0.78164784   -6.9138882    826.64062  0.023729493  0.023385261           13 
 2904000   0.79323359   -6.9341963    826.61196  0.023720499    0.0233791            8 
 2905000   0.78842196   -6.9143018    828.46889  0.023765602  0.023372934           16 
 2906000   0.78183437   -6.9336729    827.08362    0.0237177   0.02336673           16 
 2907000   0.79093645   -6.9549817    827.08472  0.023709572   0.02336051           11 
 2908000     0.783137   -6.9273354     826.9054   0.02369628  0.023354281            6 
 2909000   0.79581581   -6.8982309    829.04059  0.023749301  0.023348058            6 
 2910000   0.79979142   -6.9107034    828.04496  0.023712628  0.023341875            5 
 2911000   0.79392347   -6.9051509    827.37499  0.023685303  0.023335709           25 
 2912000   0.78194668   -6.9334857    828.82761  0.023718739  0.023329516           35 
 2913000   0.78312376   -6.9130678    827.68565  0.023677928  0.023323291           45 
 2914000   0.78522866   -6.9348076    827.22696  0.023656685  0.023317051           38 
 2915000   0.78147079   -6.9173692    828.28858  0.023678919  0.023310822           17 
 2916000   0.76184493   -6.9528849    827.95821  0.023661357  0.023304566           23 
 2917000   0.77803721   -6.9246244    827.87519  0.023650874  0.023298315           19 
 2918000   0.79238862   -6.9361151    826.88322   0.02361444  0.023292065           15 
 2919000   0.77484007   -6.8975225    825.47468  0.023566138  0.023285811           28 
 2920000   0.77769658   -6.9492015    827.99699  0.023630051  0.023279585           30 
 2921000   0.77887688   -6.9428855    830.16492   0.02368381  0.023273359            9 
 2922000   0.78529258    -6.939485     828.5569  0.023629845  0.023267142            8 
 2923000   0.79687484   -6.9035679    829.85365  0.023658731  0.023260919            6 
 2924000   0.77517509    -6.919047    828.57518  0.023614204  0.023254712           21 
 2925000   0.78831872   -6.9296174    829.17093  0.023623103  0.023248505           15 
 2926000   0.78211773   -6.9375403    826.48563  0.023538552  0.023242289           13 
 2927000   0.78843213   -6.9278065    827.99679  0.023573533  0.023236061            5 
 2928000   0.78679353     -6.94618    829.83618  0.023617833  0.023229839            5 
 2929000   0.77059738   -6.9407382    827.22227  0.023535401  0.023223591           17 
 2930000    0.7769924   -6.9375944    826.27797  0.023500511  0.023217309           12 
 2931000   0.79121586   -6.9653588    826.23164  0.023491176  0.023211008            8 
 2932000   0.78242885   -6.9499135    827.90319  0.023530673  0.023204729           34 
 2933000   0.77852011   -6.9254932    827.81368  0.023520107  0.023198442            7 
 2934000   0.80462291   -6.9365778     828.3171  0.023526389  0.023192209           14 
 2935000   0.78404415   -6.9054817    830.41894   0.02357805  0.023185986           18 
 2936000   0.78979952   -6.9317401    829.16395  0.023534399  0.023179754           14 
 2937000    0.7858577   -6.9306789    831.56142  0.023594411  0.023173489           12 
 2938000   0.77051178   -6.9267538    828.68531  0.023504802  0.023167256           10 
 2939000   0.77030282   -6.9533656    829.53878  0.023521004  0.023160994           19 
 2940000   0.78880366   -6.9668686     827.9996  0.023469376  0.023154751           26 
 2941000   0.78721773   -6.9223655    828.74146  0.023482417  0.023148503           36 
 2942000   0.79479769   -6.9300852    829.59096  0.023498498  0.023142253           34 
 2943000   0.78309048   -6.8931952    828.30869  0.023454204  0.023136048           11 
 2944000   0.77777487   -6.9534273     828.3707  0.023447993  0.023129832           24 
 2945000   0.77385953   -6.9365601    830.75174  0.023507406  0.023123596           25 
 2946000    0.7967004   -6.9038462     831.1165  0.023509745  0.023117387           13 
 2947000   0.78065069   -6.9055204    831.72235  0.023518899  0.023111185           19 
 2948000   0.77946641   -6.9549386    828.83884  0.023429411  0.023104996            9 
 2949000   0.76229821   -6.9596125    830.75677  0.023475663  0.023098815            8 
 2950000   0.79045909   -6.9255864    831.30019  0.023483056  0.023092647           11 
 2951000   0.77174518    -6.937287    829.84984  0.023434142  0.023086493           10 
 2952000   0.79515318   -6.9501968    830.88601  0.023455454  0.023080311            8 
 2953000   0.76827367   -6.9468081    832.57453  0.023495161  0.023074146           11 
 2954000   0.80049403   -6.9252537    831.96856  0.023470113  0.023068008           10 
 2955000   0.77674658   -6.9197585    830.84595  0.023430512  0.023061851           20 
 2956000   0.77115231   -6.9482488    832.83243  0.023478587  0.023055695           12 
 2957000   0.78799275   -6.9579392    831.37328  0.023429525  0.023049528            6 
 2958000   0.77007821   -6.9300645    829.44181  0.023367191  0.023043368           13 
 2959000   0.77798662   -6.9560773    830.99877  0.023403142  0.023037187           23 
 2960000   0.78593635   -6.9466081    831.93242  0.023421521  0.023031036           39 
 2961000   0.77599657   -6.9556469     831.6006  0.023404272  0.023024888           18 
 2962000    0.7722201   -6.9553193     831.3837  0.023390268  0.023018732           15 
 2963000   0.76954087    -6.966429    831.64334  0.023389677  0.023012591           45 
 2964000   0.77215965   -6.9346192    832.53103  0.023406743  0.023006453           20 
 2965000   0.78823498   -6.9619904    831.41241  0.023367409  0.023000306           20 
 2966000   0.78254147   -6.9863339    830.68573  0.023339114   0.02299415           27 
 2967000   0.77984301   -6.9490816    832.34979  0.023377985  0.022988017           16 
 2968000   0.78816959   -6.9249007    833.78601  0.023410434    0.0229819            6 
 2969000   0.79444717   -6.9410904    833.77611  0.023402271  0.022975814           17 
 2970000   0.77347265   -6.9288005    833.09877  0.023375386  0.022969706            8 
 2971000   0.76406555   -6.9255316     833.6536  0.023383081  0.022963605            6 
 2972000   0.78917259   -6.9435141    831.09972  0.023303604  0.022957511           11 
 2973000   0.77908418   -6.9495269    832.77513  0.023342727  0.022951381            9 
 2974000   0.76925506   -6.9324473    831.72776   0.02330553  0.022945261           18 
 2975000   0.77527365   -6.9230767    833.56721  0.023349222  0.022939161            9 
 2976000   0.77634255   -6.9409091    831.97735  0.023296857  0.022933033            7 
 2977000   0.76705596   -6.9492258     833.3401  0.023327178  0.022926884           12 
 2978000   0.76633756   -6.9719439     832.5205   0.02329641   0.02292072           18 
 2979000   0.77692086   -6.9734253    833.38065  0.023312651  0.022914593           13 
 2980000    0.7571719   -6.9467425     833.0899  0.023296697  0.022908458           13 
 2981000   0.74431654   -6.9326615    835.23522  0.023348854  0.022902373           11 
 2982000   0.77399509   -6.9430709    834.91512  0.023332079  0.022896285            5 
 2983000   0.76707876   -6.9502322    835.90767  0.023351985  0.022890206            7 
 2984000   0.78191342   -6.9301434    831.75109   0.02322808  0.022884122           18 
 2985000   0.79459826   -6.9321253    833.92909  0.023281102  0.022877992           13 
 2986000   0.75055033   -6.9540337    833.16199  0.023251898  0.022871913           15 
 2987000   0.76848494    -6.970605    834.11207  0.023270619  0.022865822           20 
 2988000   0.78044038   -6.9714431    833.46408  0.023244759   0.02285973            9 
 2989000   0.77619964   -6.9428088    837.22239  0.023341764  0.022853633            8 
 2990000   0.78377565   -6.9410093    836.54383  0.023315045  0.022847577            7 
 2991000   0.76037302   -6.9583723    835.09087  0.023266769  0.022841502           10 
 2992000    0.7737857   -6.9576766    835.40194  0.023267657  0.022835413           14 
 2993000    0.7643918   -6.9673887    835.49132  0.023262371  0.022829316           15 
 2994000   0.76918463   -6.9706668    832.92782   0.02318325  0.022823226           12 
 2995000   0.77929408   -6.9580965    835.95734  0.023259804  0.022817147            9 
 2996000   0.78113973   -6.9411332    836.02493   0.02325392  0.022811054            7 
 2997000   0.76946268   -6.9485083    834.65675  0.023208118  0.022805005           15 
 2998000   0.75615592   -6.9270868    835.90658  0.023235117  0.022798942           13 
 2999000   0.77431839   -6.9432853    836.50515  0.023244002  0.022792889           54 
 3000000   0.76349522   -6.9535278    835.78331  0.023216203  0.022786839           38 
 3001000   0.78354914   -6.9917125    834.14442  0.023162957  0.022780736            9 
 3002000   0.75523343   -6.9557585    836.57952  0.023222838  0.022774643           44 
 3003000   0.76860109   -6.9631767    835.49709  0.023185068  0.022768571           23 
 3004000   0.77043029   -6.9378202      836.265  0.023198652  0.022762508           15 
 3005000   0.77106256   -6.9523182    835.76679  0.023177116  0.022756468           25 
 3006000    0.7977799   -6.9562112    837.60361  0.023220326  0.022750409           16 
 3007000   0.75390928    -6.949938    836.15133  0.023172357  0.022744394           20 
 3008000   0.77075985   -6.9623932    835.98404  0.023160019  0.022738356           16 
 3009000   0.77169801   -6.9689233    837.14698  0.023184529  0.022732291           23 
 3010000   0.76217925   -6.9555264    835.62576  0.023134711    0.0227262           46 
 3011000    0.7631304   -6.9729556    837.80845  0.023187436  0.022720123           21 
 3012000   0.78895726   -6.9831176    836.12167   0.02313307  0.022714052           20 
 3013000   0.76951055   -6.9866199    835.25947  0.023101545  0.022708013           32 
 3014000   0.75441589   -6.9429387    836.98262  0.023141523  0.022701971            9 
 3015000   0.77962045   -6.9740024     837.0729  0.023136343  0.022695951           22 
 3016000   0.77895059   -6.9491088    835.80613  0.023093671  0.022689889           33 
 3017000   0.76321604   -6.9462807    838.40094  0.023157688  0.022683849           28 
 3018000   0.77416808   -6.9478668    837.00133  0.023111369  0.022677789           45 
 3019000   0.78069407   -6.9363709    838.19498  0.023136662   0.02267175           48 
 3020000   0.75985809   -6.9582708      837.379  0.023106485   0.02266572           29 
 3021000   0.76810138   -6.9468996    839.25447   0.02315057  0.022659726           49 
 3022000   0.76242096   -6.9807782    838.26053  0.023115501  0.022653715           42 
 3023000   0.78319184    -6.986515    837.62531  0.023090344   0.02264766           16 
 3024000   0.76153535    -6.958276    837.41745   0.02307698  0.022641592           38 
 3025000   0.77528347    -6.967163    837.13144  0.023061472  0.022635566            9 
 3026000   0.77431142   -6.9456071    837.95626  0.023076566  0.022629543           12 
 3027000   0.75213479   -6.9634208    837.64837  0.023060466  0.022623515            7 
 3028000   0.77581453   -6.9792382    837.35814  0.023044863  0.022617497            5 
 3029000   0.76783882   -6.9796266    837.76743  0.023048515  0.022611471            6 
 3030000   0.76400092    -6.948739    838.52727  0.023061806  0.022605443           20 
 3031000   0.77923176   -6.9628181    838.06743  0.023041555  0.022599399           14 
 3032000   0.77609843    -6.962923    838.08945  0.023034561  0.022593369           12 
 3033000   0.76374922   -6.9722133    838.96461  0.023051011  0.022587363           19 
 3034000   0.76791449   -6.9605465     837.3318  0.022998566  0.022581314           19 
 3035000   0.77811908   -6.9487292     839.2129  0.023042639  0.022575286           19 
 3036000   0.77960557   -6.9219766    840.30468  0.023065017  0.022569301           10 
 3037000    0.7764326   -6.9389853    840.18282  0.023054078   0.02256333           16 
 3038000   0.76798874   -6.9244762    840.92858  0.023066946  0.022557402           18 
 3039000     0.756969   -6.9527072    839.08077  0.023008686  0.022551439           32 
 3040000   0.76677161   -6.9797492    838.94827  0.022997486  0.022545443           15 
 3041000   0.77477533   -7.0054408    837.97618  0.022963285  0.022539438            9 
 3042000   0.78455079    -6.968679    838.70105  0.022975593  0.022533428           17 
 3043000    0.7726972   -6.9468869    840.55942  0.023018935  0.022527425            9 
 3044000   0.75152131   -6.9753336      836.514  0.022900624  0.022521427            7 
 3045000   0.77981158   -6.9708705     838.7632  0.022954658  0.022515432           14 
 3046000   0.78160152   -6.9765199    837.97844  0.022925652  0.022509461           11 
 3047000   0.77528679   -6.9658219      839.762  0.022966907  0.022503488           12 
 3048000   0.77268128   -6.9556855    840.78196  0.022987258  0.022497491            3 
 3049000   0.77178321   -6.9781519    840.49795  0.022971957   0.02249152            9 
 3050000     0.766565   -6.9535405    838.60891  0.022912812  0.022485527            9 
 3051000    0.7555503   -6.9637511    840.68465  0.022961997  0.022479556            9 
 3052000   0.75581578   -6.9944788    840.38999  0.022946428   0.02247355           13 
 3053000   0.78631713   -7.0052221    839.72299  0.022920706  0.022467553           12 
 3054000   0.75474988   -6.9717534    840.49441  0.022934251  0.022461577            9 
 3055000   0.76467569   -6.9793899    840.14841  0.022917305  0.022455582           12 
 3056000   0.76400524   -6.9685825     839.8144  0.022900698  0.022449586           10 
 3057000   0.76466368   -6.9702687    839.58296  0.022886898  0.022443566            9 
 3058000   0.76045215   -6.9739473    841.60556  0.022934531  0.022437537           17 
 3059000   0.75071682   -6.9887671    839.99305  0.022883106  0.022431506           17 
 3060000   0.76190325   -6.9667854    839.62316  0.022865555  0.022425509           21 
 3061000    0.7516652   -6.9550088    841.10612  0.022898457  0.022419557           22 
 3062000   0.77016082     -6.99644    838.13518  0.022810123  0.022413547           27 
 3063000   0.73999244   -6.9929654    840.74811  0.022873765  0.022407524           31 
 3064000   0.76316163   -6.9852509    842.55937  0.022915562  0.022401537           31 
 3065000   0.74074218   -6.9844781    839.70081  0.022830365  0.022395565           11 
 3066000   0.75156892   -6.9910151    840.38049  0.022841392  0.022389571           18 
 3067000   0.76832369   -6.9775437    841.53653  0.022865355  0.022383542           25 
 3068000   0.74795693   -6.9914533    840.91303  0.022840967  0.022377524           11 
 3069000   0.74691673   -6.9916054    841.71427   0.02285528  0.022371535           20 
 3070000    0.7569667   -6.9697818    839.57083  0.022789653   0.02236552            9 
 3071000   0.76766026   -6.9606569    841.11987  0.022824267  0.022359528           13 
 3072000   0.74928413   -6.9504148    840.27753  0.022793987  0.022353554            7 
 3073000     0.772668   -6.9831588    839.01547  0.022752345  0.022347561           13 
 3074000   0.76266842   -6.9719321    841.80572  0.022820584  0.022341559           12 
 3075000   0.76404569    -6.960016    841.70171  0.022810344  0.022335629           22 
 3076000   0.77377497   -6.9729093    842.84367  0.022833866  0.022329694           27 
 3077000   0.75972784   -6.9794059    841.55878  0.022791647  0.022323718           18 
 3078000   0.76747311   -6.9941225    842.00851  0.022796418   0.02231773           59 
 3079000   0.75652522   -6.9718811    841.27601  0.022769189  0.022311751           38 
 3080000   0.74983379   -6.9892317    840.05231  0.022728688  0.022305762           41 
 3081000   0.76883405    -6.990286    841.13392  0.022750566  0.022299762           32 
 3082000   0.76833055   -6.9765167    841.30847  0.022747904  0.022293779           15 
 3083000   0.75604179   -6.9991831    840.85758  0.022728338  0.022287755           18 
 3084000    0.7589434   -7.0095395    841.04397  0.022726004  0.022281681           22 
 3085000   0.76039905   -7.0007384    840.87557  0.022714089  0.022275663           19 
 3086000   0.77344049   -7.0022238    840.78668  0.022704328  0.022269661           32 
 3087000   0.76845063   -6.9766933    840.41122  0.022686838  0.022263645           22 
 3088000   0.75295007   -6.9870127     840.3646  0.022678233  0.022257608           38 
 3089000   0.76215581   -6.9940808    841.49912  0.022701498  0.022251576           62 
 3090000   0.76158345   -6.9832131    841.85065  0.022703631  0.022245551           38 
 3091000   0.77271099   -7.0153705    842.73313  0.022720078  0.022239522           18 
 3092000   0.74366509   -6.9640468     840.6201  0.022655781  0.022233533           16 
 3093000   0.74789489    -6.965784      840.897  0.022655917  0.022227532           16 
 3094000   0.75435689   -6.9859962    838.92779  0.022595556  0.022221529           20 
 3095000    0.7644178    -6.963162     843.4546   0.02271014  0.022215521            9 
 3096000   0.74072542   -6.9928993    841.62844  0.022653651  0.022209498            9 
 3097000   0.74836931   -6.9868394    840.91913   0.02262725  0.022203477           16 
 3098000   0.74404986   -7.0062396    841.63909  0.022639313   0.02219742           29 
 3099000   0.74299861   -6.9882722    841.25239  0.022621609  0.022191382           12 
 3100000   0.75939154   -6.9815697     840.3441  0.022589895  0.022185343           16 
 3101000   0.73776399   -6.9846207    840.65791  0.022591043  0.022179298           18 
 3102000   0.75239013   -7.0093076    840.64362  0.022583377  0.022173213            9 
 3103000   0.76089454   -7.0049031    841.10483  0.022588485  0.022167144           11 
 3104000   0.74906835   -7.0027206    838.26983  0.022505096  0.022161084           11 
 3105000   0.76543806   -7.0131103    841.10223  0.022573865  0.022155001           31 
 3106000   0.75299123   -6.9861969    841.29104  0.022571663  0.022148927           11 
 3107000   0.75826956   -6.9752263    842.79367  0.022604701  0.022142876           25 
 3108000   0.74904957   -6.9895381    842.89072   0.02260003  0.022136846           12 
 3109000   0.73932975    -6.978165     841.5972  0.022558089  0.022130845           10 
 3110000   0.74651073   -7.0100979    840.74333  0.022527956  0.022124835           11 
 3111000   0.73252738   -7.0092856    842.69172  0.022572906  0.022118814           12 
 3112000   0.75435446   -7.0062623    840.99508   0.02252022  0.022112804           11 
 3113000   0.74867348   -7.0059363    841.32412  0.022521793  0.022106768           17 
 3114000   0.76638055   -6.9820226     842.6901  0.022551116  0.022100727           21 
 3115000   0.75991279   -6.9790778    840.86261  0.022494987  0.022094716           13 
 3116000   0.75326899   -6.9792978    843.51912  0.022558813  0.022088713           13 
 3117000   0.76417354   -7.0048749    842.96105  0.022536655  0.022082692           15 
 3118000    0.7568169   -6.9852124    843.40532  0.022541301  0.022076692           16 
 3119000   0.74455689   -6.9976352    842.96892  0.022522414  0.022070707           17 
 3120000    0.7405948   -7.0008345    842.81619  0.022511116  0.022064721           13 
 3121000   0.75761308   -6.9922659    843.90611  0.022533005  0.022058767            9 
 3122000   0.73819779   -6.9913292    842.02512   0.02247558  0.022052808           22 
 3123000   0.74557227   -6.9865837    844.60241  0.022537155  0.022046865            6 
 3124000   0.74987963    -6.995639    845.01344  0.022540905  0.022040942           15 
 3125000   0.75266751   -7.0060193      845.354  0.022542773  0.022034994           21 
 3126000   0.75233177    -6.997061    843.81968   0.02249466  0.022029023            8 
 3127000    0.7392824   -7.0115642    843.74789  0.022485553  0.022023063            8 
 3128000   0.75800157   -7.0031657    843.73923  0.022478134  0.022017102            8 
 3129000   0.74281196   -6.9799691    843.27472  0.022458579  0.022011136           18 
 3130000   0.75973201   -6.9786781    843.81737  0.022465851  0.022005171           19 
 3131000   0.74153883   -7.0070911    845.39367   0.02250063   0.02199919           25 
 3132000   0.74716188   -6.9898997    843.51917  0.022443571  0.021993206           26 
 3133000   0.74668659   -7.0101224    844.85976  0.022472065  0.021987246           18 
 3134000   0.75777699    -7.000512    844.44868  0.022453964  0.021981283           12 
 3135000   0.76304243   -6.9702216    846.29439  0.022495864  0.021975353           19 
 3136000   0.75053594   -7.0066109    845.85814  0.022477098   0.02196942           20 
 3137000   0.73884754   -7.0074536    844.14488   0.02242442  0.021963458           21 
 3138000   0.74962272   -7.0016878    845.09336  0.022442462  0.021957508            4 
 3139000   0.74832742   -7.0231464     842.8595  0.022376009   0.02195155            8 
 3140000   0.73266152   -7.0213487    843.28954  0.022380296  0.021945578           11 
 3141000   0.76330709    -7.007838    842.69566  0.022357414  0.021939607           23 
 3142000    0.7520061   -6.9964566    844.01813  0.022385374  0.021933681           26 
 3143000   0.75101012   -7.0094611    846.56472  0.022445772  0.021927768           29 
 3144000   0.75911048   -7.0071412    846.25293  0.022430368  0.021921842           10 
 3145000    0.7375659   -6.9931597    844.26043  0.022370441  0.021915906           18 
 3146000   0.75531596   -6.9934466    844.10022  0.022359086  0.021909916           14 
 3147000   0.75226983   -6.9894306    846.05561  0.022403761  0.021903948            6 
 3148000   0.75314032   -7.0020294    846.37649  0.022405138  0.021898013           28 
 3149000   0.73992057   -7.0349645    845.16121  0.022365862   0.02189206           19 
 3150000   0.76424469   -7.0205538    843.65341  0.022318873  0.021886084           34 
 3151000   0.74560608   -6.9980612    845.74185  0.022367022  0.021880131           14 
 3152000   0.74328801   -7.0384832    845.12993  0.022343748  0.021874204           19 
 3153000   0.74556005   -7.0314921    846.95925   0.02238501  0.021868301           14 
 3154000   0.73622059   -6.9667926    847.52959  0.022392982  0.021862399           13 
 3155000   0.75970944   -7.0188597    847.17401  0.022376493   0.02185652           21 
 3156000   0.73520252   -6.9913049    845.97306  0.022337692  0.021850624           11 
 3157000   0.76180072   -6.9732399    846.75467  0.022351248  0.021844755           19 
 3158000   0.74987671   -7.0035773    847.55613  0.022365319  0.021838889           14 
 3159000   0.75637834   -7.0045888    848.87611   0.02239306  0.021833026           10 
 3160000   0.74957408   -7.0122737    847.94595  0.022361444  0.021827153           18 
 3161000    0.7410054   -6.9866044    846.94188  0.022327899  0.021821284           14 
 3162000   0.73605395   -7.0066469    847.12728  0.022325724  0.021815369           19 
 3163000    0.7541396   -7.0305506    848.46893  0.022354013   0.02180946           16 
 3164000    0.7517646   -6.9990653    845.83128  0.022277478  0.021803576           16 
 3165000   0.76220152   -6.9787074    846.56325  0.022289712  0.021797708           15 
 3166000   0.75030608   -6.9883082    846.45785  0.022279897  0.021791861           16 
 3167000   0.73971095   -6.9848329    848.38386  0.022323541  0.021785994           13 
 3168000   0.73350403   -7.0233099    845.95611  0.022252633  0.021780114           18 
 3169000    0.7341245   -6.9969217    848.38699  0.022309535  0.021774226           26 
 3170000   0.73962488   -6.9888354    846.52341  0.022253507  0.021768356           11 
 3171000   0.76422326   -7.0133553    847.25062    0.0222656  0.021762498           30 
 3172000   0.74744222   -7.0043231     848.2358  0.022284463  0.021756629           22 
 3173000   0.75067076   -7.0236978    845.63822  0.022209219  0.021750734           24 
 3174000   0.74713708   -7.0045178    846.06174  0.022213341  0.021744852           64 
 3175000   0.75573666   -7.0099801    846.90465  0.022228468  0.021738985           34 
 3176000   0.72671498    -6.997212    848.08546  0.022252452  0.021733124           36 
 3177000   0.74237873   -7.0185933    847.84182  0.022239057  0.021727268           67 
 3178000   0.73446633   -7.0205622    847.75965  0.022229905  0.021721402           33 
 3179000   0.75316507   -6.9792976    848.31019  0.022237344  0.021715519           67 
 3180000   0.75363751   -6.9855047    847.90114  0.022219632  0.021709651           30 
 3181000   0.74625388    -7.007856    847.67331  0.022206678  0.021703778           50 
 3182000   0.73968967   -7.0263672    846.18721   0.02216078  0.021697895           61 
 3183000   0.74072915   -7.0167334     848.0233  0.022201888  0.021691996           46 
 3184000   0.73937482   -7.0305339    847.46495  0.022180301  0.021686125           44 
 3185000   0.72873996   -7.0230146    848.31923  0.022195689  0.021680211           62 
 3186000   0.74255897   -7.0319386    848.16435  0.022184671  0.021674283           35 
 3187000   0.72852227    -7.024814    846.59791  0.022136751  0.021668342           42 
 3188000   0.74728069    -7.038416    846.48056   0.02212674  0.021662411           16 
 3189000   0.72237485    -7.031928    846.08652  0.022109504  0.021656492           19 
 3190000   0.74202306   -7.0417305    848.14723  0.022156406   0.02165059           17 
 3191000   0.76125804   -7.0079228    846.20213  0.022098666  0.021644694           20 
 3192000   0.74408258   -7.0227573    850.34889  0.022200002  0.021638826           32 
 3193000   0.74642454   -7.0409726    847.05634  0.022107118  0.021632952           20 
 3194000   0.72494583   -6.9974513    848.01585  0.022125231  0.021627074           27 
 3195000   0.74141808   -7.0149816    848.62343  0.022134153    0.0216212           20 
 3196000   0.72446614   -7.0329651    847.20976  0.022090367   0.02161531           22 
 3197000   0.73362904   -7.0094046    847.80271  0.022098913  0.021609417           47 
 3198000   0.75294014   -7.0445765    848.26853  0.022104141  0.021603514           38 
 3199000   0.74820337   -7.0182966    846.17101  0.022042592  0.021597606           21 
 3200000   0.74995102   -7.0347381    846.09255   0.02203366  0.021591712            9 
 3201000   0.73997349   -7.0195676    849.25395  0.022109079  0.021585814           17 
 3202000   0.74595778   -7.0212814    848.99685  0.022095483  0.021579925           13 
 3203000   0.74188061   -7.0089232    849.50891  0.022101907   0.02157405           25 
 3204000   0.73900878   -7.0337199    848.93695  0.022080133  0.021568137           16 
 3205000   0.75262624    -7.024969    848.48803  0.022061571  0.021562213           39 
 3206000   0.73849966   -7.0334207    846.90942  0.022013657  0.021556301           25 
 3207000   0.74620222   -7.0557056    847.43734  0.022020511  0.021550386           15 
 3208000   0.74952351   -7.0314066    848.64935  0.022045131  0.021544488           19 
 3209000   0.75046656   -7.0444376     847.6637  0.022012665  0.021538566           23 
 3210000   0.73661752   -7.0301437     848.4349  0.022025828  0.021532656           31 
 3211000   0.74358087   -7.0205874    848.74445  0.022027002  0.021526761           10 
 3212000   0.72705803   -7.0358531    849.23923  0.022032981  0.021520866           22 
 3213000   0.73708735   -6.9993345    850.35642    0.0220551  0.021514974           24 
 3214000   0.73681032   -7.0216223    848.70241  0.022005352  0.021509113           12 
 3215000   0.74493206   -7.0396971    847.83698  0.021976075  0.021503227           16 
 3216000   0.72948703   -7.0055716    847.74736   0.02196692  0.021497351           25 
 3217000   0.74595318   -7.0251035    849.50175  0.022005537  0.021491488           25 
 3218000   0.73927446   -7.0389886    847.69457    0.0219519  0.021485628           27 
 3219000    0.7317192   -7.0250494    847.13195  0.021930515   0.02147975           25 
 3220000   0.74165905    -7.012739    848.93287  0.021970312  0.021473873           16 
 3221000    0.7334584   -7.0186171     849.3465  0.021974193  0.021467996           22 
 3222000   0.72947997   -6.9863628    847.91872  0.021930445  0.021462148           10 
 3223000   0.72928206   -6.9956079    849.44521  0.021963109  0.021456295            9 
 3224000   0.75513311    -7.009885    849.84997  0.021966759  0.021450431            8 
 3225000   0.73790882   -7.0316884    849.59349   0.02195332  0.021444549           19 
 3226000   0.72504201   -6.9993247    848.46866  0.021917459  0.021438669           18 
 3227000   0.73141566   -7.0367316    848.89059  0.021921563  0.021432807            7 
 3228000   0.75243692   -7.0088822     849.9928  0.021943226  0.021426923           17 
 3229000   0.73948119   -7.0133303    848.80857  0.021905868  0.021421056           32 
 3230000   0.71867342   -7.0519699    849.48958  0.021916656  0.021415189            8 
 3231000   0.73372024    -7.038746    851.48607  0.021961366  0.021409317           21 
 3232000   0.74873967   -7.0137725     849.5953  0.021905819  0.021403442           19 
 3233000   0.75094013   -7.0212076    849.57922  0.021898629  0.021397589           12 
 3234000   0.74228516   -7.0119735    851.85695   0.02195055  0.021391753            9 
 3235000   0.73006352   -7.0225292    850.33741  0.021904622  0.021385925            6 
 3236000   0.73357946   -7.0411954    849.05668  0.021864871  0.021380066           27 
 3237000    0.7279596   -7.0101005    852.09155  0.021936246  0.021374204           15 
 3238000   0.74798996   -7.0411432    850.67391  0.021892987  0.021368374           17 
 3239000   0.73299019   -7.0398592    850.65669  0.021885785  0.021362524           19 
 3240000   0.74144425     -7.03334    849.68304  0.021853988  0.021356664           29 
 3241000   0.73378231   -7.0401517    850.60428  0.021870932  0.021350816           23 
 3242000   0.71416107   -7.0284942    852.75975  0.021919591  0.021345007           16 
 3243000   0.72374297   -7.0299369    850.33884  0.021850623  0.021339196           18 
 3244000   0.74386366   -7.0248215    850.70306  0.021853243  0.021333374           35 
 3245000   0.74351054   -7.0354462    851.37654  0.021863804  0.021327528           14 
 3246000   0.73987606   -7.0119459    850.80322   0.02184235  0.021321688           39 
 3247000   0.74383973   -7.0248714    848.65845  0.021780578  0.021315856           15 
 3248000   0.72719253   -7.0330522     849.3937  0.021792737   0.02131005           14 
 3249000   0.73265264   -7.0388025     850.7645  0.021821189  0.021304219           13 
 3250000   0.72094796   -7.0544239    850.96275  0.021819558  0.021298389           17 
 3251000   0.72806521   -7.0485451    852.50768  0.021852447  0.021292541            9 
 3252000   0.73904305   -7.0230124    850.58489  0.021796456  0.021286714           21 
 3253000   0.71659946   -7.0123154     850.8457  0.021796437  0.021280877           55 
 3254000   0.74658613   -7.0033683     851.2777  0.021800802  0.021275077           19 
 3255000   0.72077547   -7.0301959    853.13092   0.02184155  0.021269275           29 
 3256000   0.72364663    -7.027477    850.29617  0.021762289  0.021263478           36 
 3257000   0.72555847   -7.0692945    852.95068  0.021823526   0.02125767           13 
 3258000   0.74431053   -7.0386181    851.74635  0.021786023  0.021251852           36 
 3259000   0.73421786   -7.0297621    852.67964  0.021803202  0.021246043           40 
 3260000   0.72267488   -7.0136877    850.09212  0.021730371  0.021240255           41 
 3261000   0.72589416   -7.0343163    851.93688   0.02177085  0.021234476           44 
 3262000   0.72140123   -7.0460319    851.83217    0.0217615  0.021228693           30 
 3263000   0.73472914    -7.038804    852.13111  0.021762466  0.021222906           38 
 3264000   0.72226788    -7.038465    853.29819  0.021785595  0.021217097           65 
 3265000   0.71407698   -7.0354968    852.16083  0.021749894   0.02121132           44 
 3266000   0.73061809   -7.0469267    853.40541   0.02177499   0.02120554           27 
 3267000   0.72938569    -7.016712    851.51343  0.021720065   0.02119979           19 
 3268000   0.72016979   -7.0579556    852.14375  0.021729492  0.021194042           23 
 3269000    0.7230592   -7.0420725    850.59433  0.021683347  0.021188267           11 
 3270000    0.7329436   -7.0573573     853.8406  0.021759445   0.02118249           16 
 3271000   0.75049342   -7.0619379    853.85536  0.021753168  0.021176728           21 
 3272000    0.7315776   -7.0438401    853.76901  0.021744321  0.021170955           20 
 3273000   0.73914338   -7.0304554     853.1659  0.021722322  0.021165233           21 
 3274000   0.71784697   -7.0406556    854.31493  0.021744933  0.021159497           24 
 3275000   0.72889001   -7.0526107    852.60749  0.021694847  0.021153757           11 
 3276000   0.72869369   -7.0592197    853.74319  0.021717114  0.021148014           23 
 3277000    0.7456669   -7.0463681    853.02009  0.021692099  0.021142261           16 
 3278000   0.73076512   -7.0345183    853.77869  0.021704766  0.021136514           22 
 3279000   0.72394549   -7.0596202    851.58112  0.021642297  0.021130752           11 
 3280000   0.73019711   -7.0282195    854.03892  0.021698143  0.021125015           11 
 3281000   0.73566833   -7.0253372    853.01564   0.02166554  0.021119305           16 
 3282000   0.71789059    -7.027716      855.214  0.021714757  0.021113589            6 
 3283000   0.72265337   -7.0182654    857.29332  0.021760923  0.021107879            9 
 3284000   0.72990846   -7.0407257    854.95117  0.021694863  0.021102172           30 
 3285000   0.72276089   -7.0407117    854.28038  0.021671242  0.021096464           26 
 3286000   0.73546444   -7.0378995    856.01266  0.021708578  0.021090766           29 
 3287000   0.73249149   -7.0402205    854.23184  0.021656826  0.021085055           12 
 3288000   0.72190352   -7.0467085    854.81809  0.021665098  0.021079342           16 
 3289000   0.73365432   -7.0057164    855.11787  0.021666106  0.021073632           18 
 3290000   0.70144771   -7.0630502    853.25991   0.02161246  0.021067899           35 
 3291000   0.72026989   -7.0656379    854.25482  0.021631085   0.02106216           34 
 3292000   0.72582997   -7.0733716    854.95367  0.021642205   0.02105641           18 
 3293000   0.73527698   -7.0586657    852.32021   0.02156899  0.021050668           27 
 3294000   0.72769473   -7.0327254    852.68024   0.02157155  0.021044952           53 
 3295000   0.73795026   -7.0415942     855.9324  0.021647253   0.02103923           71 
 3296000   0.71979293   -7.0475573    853.80152   0.02158681    0.0210335           40 
 3297000   0.72760607   -7.0361277    853.20374  0.021565154  0.021027767           52 
 3298000   0.71291932   -7.0408351    854.96307  0.021603069   0.02102204           80 
 3299000   0.71115622   -7.0624617    853.83229  0.021567957  0.021016294           53 
 3300000   0.73114794    -7.041106    853.31884  0.021548456  0.021010555           33 
 3301000   0.71486828    -7.062242    851.97272  0.021507945  0.021004818           52 
 3302000   0.72845256   -7.0597458    851.80887  0.021497296  0.020999066           32 
 3303000   0.72344275   -7.0700294    853.80762  0.021541216  0.020993331           19 
 3304000   0.72410092   -7.0444957    854.97616  0.021564169  0.020987587           11 
 3305000   0.72436169   -7.0203519    853.26678  0.021514543   0.02098181            6 
 3306000   0.72581886   -7.0725721     853.5782  0.021515885  0.020976043           15 
 3307000   0.71832959   -7.0508971    853.63798  0.021510886  0.020970266           13 
 3308000   0.74474762   -7.0492602    854.18505  0.021518164  0.020964482           10 
 3309000   0.72505981   -7.1023356    850.70495  0.021424019  0.020958655           15 
 3310000   0.74417494   -7.0608192    851.94056  0.021448655  0.020952844           19 
 3311000   0.72877812   -7.0493349    852.47622  0.021455658  0.020947049           23 
 3312000   0.71869184   -7.0725732    853.25455  0.021468764  0.020941248           17 
 3313000   0.74122469   -7.0550961    853.37405   0.02146529  0.020935456           17 
 3314000    0.7240999   -7.0591388    853.25873  0.021455912  0.020929653           13 
 3315000   0.72297325   -7.0710565     853.2038  0.021448059  0.020923844           16 
 3316000   0.71598767   -7.0572605    853.26171  0.021443047  0.020918061           23 
 3317000   0.73094427   -7.0440685    852.78157   0.02142452  0.020912267           15 
 3318000    0.7247675   -7.0674339    854.95173  0.021472567  0.020906483           18 
 3319000   0.72723745   -7.0316548    853.84277  0.021438254  0.020900717           17 
 3320000     0.716486   -7.0742077    852.82622  0.021406281  0.020894936           18 
 3321000   0.71958032   -7.0440189    853.06141  0.021405737  0.020889146           30 
 3322000   0.70467812     -7.06828     855.5257   0.02146111  0.020883345           30 
 3323000   0.72692328   -7.0792859    852.54774  0.021379971  0.020877531           13 
 3324000   0.72814049   -7.0803399    852.84459  0.021380981  0.020871701           58 
 3325000   0.72268297   -7.0664754    852.08183  0.021355434  0.020865871           23 
 3326000   0.70295845   -7.0596721    855.09595  0.021424533  0.020860067           16 
 3327000   0.72805065   -7.0858376    855.69857  0.021433187  0.020854271           17 
 3328000   0.73141623   -7.0587353    853.13685  0.021362601  0.020848471           19 
 3329000   0.70204972     -7.05425    854.32758  0.021385991  0.020842657           25 
 3330000   0.72392749   -7.0610294    854.59546  0.021386273  0.020836848           18 
 3331000   0.71087035   -7.0585934    853.92292  0.021363027  0.020831054           25 
 3332000   0.71839646   -7.0751917    852.92174  0.021331576  0.020825269           23 
 3333000   0.71665016   -7.0489547    854.40035  0.021362145  0.020819477           18 
 3334000    0.7132546     -7.05553    853.13691  0.021324158  0.020813682           20 
 3335000   0.71586421   -7.0521429    852.29935  0.021296835  0.020807872           47 
 3336000   0.70226811   -7.0851779     852.7233  0.021301042  0.020802043           21 
 3337000   0.70456751   -7.0467788    853.65062  0.021317816  0.020796221           36 
 3338000   0.71424586   -7.0613203    854.61604  0.021335531  0.020790413           10 
 3339000    0.7355463   -7.0658493    851.90226  0.021261412  0.020784592           33 
 3340000   0.72332282   -7.0601861    852.94024  0.021280944   0.02077876           19 
 3341000   0.71874213    -7.073103    853.16993  0.021280304   0.02077292           17 
 3342000   0.72799664   -7.0854937    852.43307  0.021255562  0.020767091           28 
 3343000   0.72949816   -7.0734757    852.42694  0.021249051  0.020761244           21 
 3344000   0.71440582    -7.072411    854.62223  0.021297404  0.020755426           19 
 3345000   0.71713972   -7.0750213    852.55357  0.021239501  0.020749626           17 
 3346000   0.71651458   -7.0864678    854.98751  0.021293771   0.02074383           52 
 3347000   0.72254762   -7.0580482    855.36274  0.021296752   0.02073803           75 
 3348000   0.69885607   -7.0638739    855.23397  0.021287186  0.020732218           23 
 3349000   0.72754037   -7.0559679    853.14902  0.021228949  0.020726404           19 
 3350000   0.71320779   -7.0413239    851.66186  0.021185618  0.020720608           28 
 3351000    0.7202331   -7.0973279    852.18738  0.021192365  0.020714797           18 
 3352000   0.72075968   -7.0898604     853.9477  0.021229806  0.020708982           29 
 3353000   0.70405249   -7.0811988    852.63663   0.02119089  0.020703164           23 
 3354000    0.7228292   -7.0729899    852.41817  0.021179143  0.020697356           64 
 3355000   0.72868636   -7.0719161    853.89366   0.02120948  0.020691555           73 
 3356000   0.71721506   -7.0686885    852.44383  0.021167159  0.020685748           44 
 3357000   0.70576365   -7.0661539     853.0171  0.021175084  0.020679957           35 
 3358000   0.73394745   -7.0592954     854.8013  0.021213056  0.020674154           66 
 3359000   0.71812284   -7.0694009     854.2515  0.021193101  0.020668372           40 
 3360000    0.7175869   -7.0648025    853.51331  0.021168485   0.02066257           39 
 3361000   0.70285087   -7.0990884    852.45345  0.021135908  0.020656772           19 
 3362000   0.71739042   -7.0715691    853.89319  0.021165308  0.020650929           41 
 3363000    0.7027949   -7.0990612    856.06617   0.02121286  0.020645099           87 
 3364000   0.72442606   -7.0791749    852.97285  0.021129926  0.020639262           81 
 3365000   0.71212924   -7.0713367    852.10966   0.02110227  0.020633426           89 
 3366000   0.72096495   -7.0732433    853.86165  0.021139375  0.020627564          104 
 3367000   0.71955121   -7.0976937    853.04454  0.021112873  0.020621725          112 
 3368000   0.72760923    -7.081114    853.73358  0.021123654  0.020615869           48 
 3369000   0.72016248   -7.0932332    853.03125  0.021100011  0.020610018           82 
 3370000   0.72210614   -7.0909025    852.31036  0.021075924  0.020604201           34 
 3371000   0.70568811   -7.0832611    853.58125  0.021101089  0.020598384           22 
 3372000   0.71876003    -7.068578    854.71726  0.021122906  0.020592571           14 
 3373000   0.71248398   -7.0678164    853.16189  0.021078217  0.020586747           15 
 3374000   0.70915941   -7.0821039    854.23639  0.021098508  0.020580918           13 
 3375000   0.69873488   -7.0859574    851.90801  0.021034766  0.020575099           20 
 3376000   0.72619223   -7.0845103     854.0342  0.021081018  0.020569255           17 
 3377000   0.70225654   -7.0796581    854.89571  0.021096035    0.0205634           30 
 3378000   0.71425374    -7.095557    853.93979  0.021066208  0.020557551           24 
 3379000   0.71274923   -7.1009488    851.69668  0.021004653  0.020551702           28 
 3380000   0.72102127   -7.0742948    853.02935  0.021031296  0.020545875           36 
 3381000   0.71709317   -7.0959319    852.53677  0.021012934  0.020540039           72 
 3382000   0.70379558   -7.0549101    854.35742  0.021051582  0.020534206           50 
 3383000    0.7051501   -7.0968017    853.26851  0.021018536  0.020528378           49 
 3384000    0.7196092   -7.0726741    854.23183  0.021036048  0.020522546           47 
 3385000   0.70049224   -7.0987926    853.85026   0.02102044   0.02051672           43 
 3386000   0.69558212   -7.0823499    854.85314  0.021038914    0.0205109           52 
 3387000    0.7088927   -7.0797337    852.34466  0.020970984  0.020505076           24 
 3388000   0.70674493   -7.0947431    853.33792  0.020989225  0.020499238           38 
 3389000   0.70754967   -7.1023029    853.22553  0.020980268  0.020493385           50 
 3390000   0.72042587   -7.0858495    854.40559  0.021003087  0.020487538           44 
 3391000   0.71740808   -7.0852205    853.25416  0.020968597   0.02048171           45 
 3392000   0.71843687   -7.0964967    852.92709   0.02095438  0.020475876           40 
 3393000   0.72066244   -7.0948175    853.47998  0.020961784  0.020470023           60 
 3394000   0.71764043   -7.0908189    853.53331  0.020956917  0.020464156           57 
 3395000   0.71290402   -7.0997797    852.93562  0.020936073  0.020458311           66 
 3396000   0.70325458    -7.083043    854.46021   0.02096732  0.020452454           38 
 3397000    0.6977203   -7.1042026    852.82651   0.02092107  0.020446608           28 
 3398000   0.72489642   -7.0802956    854.38646   0.02095317  0.020440777           26 
 3399000   0.69720279   -7.0937028     854.3563  0.020946266  0.020434946           27 
 3400000    0.6991445    -7.090959    854.44733  0.020942337  0.020429117           52 
 3401000   0.72657189   -7.0777067    854.27837  0.020932039  0.020423283           29 
 3402000   0.71878244   -7.0761363    855.87869  0.020965087  0.020417457           36 
 3403000   0.72420827   -7.0718037    856.33248  0.020970038  0.020411658           97 
 3404000   0.72421556   -7.0943315    855.04031  0.020932244   0.02040587           48 
 3405000   0.71820353    -7.067968    856.12945  0.020952752  0.020400071           47 
 3406000   0.73083354   -7.0896536     853.7994  0.020889592  0.020394265           25 
 3407000   0.70965364   -7.0759183    853.98894  0.020888097  0.020388459           54 
 3408000   0.70846857   -7.0827151    853.61093  0.020872724  0.020382641           42 
 3409000   0.70967008   -7.0909371    853.21066  0.020856817  0.020376845           38 
 3410000     0.729266   -7.1002103    854.42803   0.02088045   0.02037102           26 
 3411000   0.71264684   -7.0939258    855.05153  0.020889562  0.020365206           18 
 3412000   0.70632163   -7.0876772    855.48992  0.020894146  0.020359384           16 
 3413000   0.71299086   -7.0994587    853.19007   0.02083187  0.020353557           40 
 3414000   0.69661371   -7.0710956    852.69885  0.020813778   0.02034772           72 
 3415000   0.70742766   -7.0726436    854.91739   0.02086182  0.020341914           25 
 3416000   0.70139902   -7.0854599     853.7779  0.020827915  0.020336103           28 
 3417000   0.71895032   -7.0718532     856.1387  0.020879395  0.020330302           31 
 3418000   0.68644635   -7.0678942    854.69577  0.020838106  0.020324507           18 
 3419000   0.70363749   -7.0821211    854.85012  0.020835774  0.020318724           17 
 3420000   0.70651365   -7.0882189    855.47511   0.02084491  0.020312915           19 
 3421000   0.70909395    -7.086844    853.81676   0.02079842   0.02030709           14 
 3422000    0.7001658   -7.0864814    854.77673   0.02081572   0.02030127           18 
 3423000   0.72499477   -7.1149861    851.79247  0.020736987  0.020295445           38 
 3424000   0.69937237   -7.0980076     854.4998  0.020796821  0.020289612           37 
 3425000   0.70154362   -7.0810506    854.75315  0.020796914  0.020283787           27 
 3426000   0.70290322   -7.0999183    854.02459  0.020773122  0.020277966           25 
 3427000   0.70564542   -7.0970175    853.59743  0.020756673  0.020272136           49 
 3428000    0.7015757   -7.1043416    852.05748  0.020713183  0.020266301           44 
 3429000   0.69588035   -7.1096194    853.75033  0.020748283   0.02026046           33 
 3430000   0.71871217   -7.1280003    854.33224  0.020756371  0.020254627           35 
 3431000   0.70532846   -7.1205034    852.02279  0.020694229  0.020248812           31 
 3432000   0.69964636   -7.1015761    853.53074  0.020724814  0.020242981           24 
 3433000   0.69190285   -7.0880992    855.11927  0.020757337  0.020237177           20 
 3434000   0.69983162   -7.0981579    854.69683  0.020741041  0.020231356           21 
 3435000   0.71278448   -7.1054197    855.77041  0.020761048   0.02022556           29 
 3436000     0.710429   -7.0859284    855.88065   0.02075768  0.020219777           13 
 3437000   0.71036804     -7.08583    857.07091  0.020780499  0.020213996           35 
 3438000   0.70867934   -7.0588995    854.96783  0.020723479  0.020208227           14 
 3439000   0.71177005    -7.089073     854.9828  0.020717815  0.020202451           16 
 3440000   0.70987561   -7.0831719    852.52251  0.020652193  0.020196678           15 
 3441000   0.70035038   -7.0955447    855.42078   0.02071638  0.020190875           19 
 3442000   0.71022961   -7.1188509    854.55428  0.020689383  0.020185077           38 
 3443000   0.69682701   -7.1102642    855.08479  0.020696214  0.020179266           16 
 3444000   0.70133175   -7.0849796    855.74263  0.020706122  0.020173467           24 
 3445000   0.70918287   -7.0891514    856.14744  0.020709904  0.020167685           15 
 3446000   0.68714628   -7.1040732    854.39102   0.02066142  0.020161894           26 
 3447000   0.70578026   -7.0965986    853.28086  0.020628587  0.020156108           18 
 3448000   0.69222802   -7.1196734    854.38028  0.020649175  0.020150307           27 
 3449000   0.69142708    -7.111217     853.2986  0.020617053  0.020144493           11 
 3450000   0.70217429   -7.0952407    855.46804  0.020663479  0.020138694           15 
 3451000   0.69238026   -7.0885551     853.5324   0.02061075  0.020132895           19 
 3452000   0.69768713   -7.0971854    854.25805  0.020622298  0.020127106           11 
 3453000   0.68944358   -7.1157708    854.81403  0.020629743  0.020121305           52 
 3454000   0.69489556   -7.1028498     855.2332  0.020633883  0.020115519           37 
 3455000   0.69129501   -7.1181722    855.63555  0.020637616  0.020109727           55 
 3456000   0.68993054    -7.117328    854.85614  0.020612851  0.020103933           62 
 3457000   0.69931145   -7.1166059    854.31663  0.020593883  0.020098137           60 
 3458000   0.68580819      -7.1254    854.64389  0.020595814  0.020092326           94 
 3459000   0.71269814   -7.1094004    854.31082  0.020581835  0.020086513           70 
 3460000   0.70476334   -7.1252685    854.07412  0.020570186  0.020080694           39 
 3461000   0.69549109   -7.0941723    854.03742  0.020563359  0.020074879           25 
 3462000   0.69837323   -7.1164701    854.23576  0.020562193  0.020069076          119 
 3463000   0.69496037   -7.1277229    854.04229    0.0205516  0.020063245           46 
 3464000   0.69747026   -7.1200275    855.79987  0.020587949  0.020057438           33 
 3465000   0.70114311   -7.1163085    854.88323  0.020559962  0.020051608           38 
 3466000   0.69922366   -7.1374079    853.87074  0.020529687  0.020045774           34 
 3467000   0.71084564   -7.1184523    851.35005  0.020463178  0.020039935           38 
 3468000   0.71297788   -7.1457512    854.61489  0.020535729  0.020034091           48 
 3469000   0.69905835   -7.1362256    854.75938   0.02053328  0.020028242           59 
 3470000   0.69751908   -7.1537408    853.77508  0.020503724  0.020022411           34 
 3471000   0.69964332   -7.1552091    853.53537  0.020492062  0.020016564          107 
 3472000     0.692032   -7.1403555    853.28759  0.020480213  0.020010729           44 
 3473000   0.69830305   -7.1308288    853.47391  0.020478786  0.020004912           48 
 3474000   0.70659557   -7.1345124    852.43733  0.020448027   0.01999909           52 
 3475000   0.68318539   -7.1294474    853.90052  0.020477231  0.019993276           71 
 3476000   0.69326837   -7.1296446    853.96983  0.020473001  0.019987455           67 
 3477000   0.69733972   -7.0999979    855.52487  0.020504383  0.019981676          107 
 3478000   0.71124175   -7.1158313    855.44326  0.020496532  0.019975902           98 
 3479000   0.69209277   -7.1272657     855.7007  0.020496807  0.019970117          112 
 3480000   0.69940968   -7.1263132    852.60101  0.020416691  0.019964325           98 
 3481000   0.69116573   -7.1400213    855.02313   0.02046881  0.019958517           78 
 3482000   0.70991391   -7.1275518    853.92476  0.020436645  0.019952727           90 
 3483000   0.71149146   -7.1032884    856.42925  0.020490699  0.019946945          139 
 3484000   0.69066419   -7.1176689    855.61436  0.020465326  0.019941151          137 
 3485000   0.70421994    -7.142345    853.61513  0.020411648  0.019935341          135 
 3486000   0.69618108   -7.1266769    854.61982   0.02042981  0.019929544          132 
 3487000   0.71698502   -7.1388283    855.65006  0.020448572  0.019923736          170 
 3488000   0.69117177   -7.1130154    855.08472  0.020429203  0.019917939          150 
 3489000   0.70539918   -7.1371482    855.96057  0.020444267  0.019912123          144 
 3490000   0.68945645   -7.1405732    855.73507  0.020433025  0.019906313          268 
 3491000   0.70898775   -7.1353446    853.73985  0.020379544   0.01990051          148 
 3492000   0.69766045   -7.1609021    856.03556  0.020428493  0.019894702          252 
 3493000   0.69450863   -7.1319409    854.57251   0.02038774   0.01988889          255 
 3494000   0.68983908   -7.1614237    858.21074  0.020468678   0.01988311          161 
 3495000   0.69011708   -7.1591539      854.097  0.020364735  0.019877317          244 
 3496000   0.69097905   -7.1069897    854.20891  0.020361578   0.01987152          255 
 3497000   0.69761904   -7.1295324    854.56828  0.020364319  0.019865721          252 
 3498000   0.69825266   -7.1244336    855.96301  0.020391724  0.019859946          173 
 3499000   0.70007447   -7.1142512    856.48527  0.020398335  0.019854168          252 
 3500000   0.69017917   -7.1224005    856.73825   0.02039853  0.019848394          222 
 3501000   0.70747544   -7.1241364    856.25856  0.020381285  0.019842621          220 
 3502000   0.69054246   -7.1482453    856.06495  0.020370858  0.019836865          149 
 3503000   0.69686173   -7.1146891     855.3323  0.020347614  0.019831106           88 
 3504000   0.68609948    -7.142558    855.62477  0.020348763  0.019825346          129 
 3505000   0.69687529    -7.126397    856.41372  0.020361715    0.0198196          132 
 3506000   0.68856329   -7.1241195     856.4176  0.020355999   0.01981386           65 
 3507000   0.69455422   -7.1204036    855.30825  0.020323834  0.019808133          185 
 3508000   0.68904916   -7.1134486    856.59215   0.02034854  0.019802399           98 
 3509000   0.69571938   -7.1213718    856.50698  0.020340719  0.019796639           53 
 3510000   0.67986194   -7.1281481    856.69189  0.020339314   0.01979088           32 
 3511000   0.68263514    -7.153518     856.7853  0.020335738  0.019785127           55 
 3512000   0.67655569   -7.1298068    855.90064  0.020308956  0.019779395           98 
 3513000   0.68565247   -7.0898362    856.69834  0.020322097  0.019773677           51 
 3514000   0.68614513   -7.1318696    854.93324  0.020274456  0.019767965           44 
 3515000   0.68843433   -7.1246548    857.74457  0.020335338  0.019762272           56 
 3516000   0.68386906    -7.117744    858.91084  0.020357197  0.019756579           34 
 3517000   0.69474241   -7.1135437    857.62312  0.020320897  0.019750876          126 
 3518000    0.6814251   -7.1372822    854.69645  0.020245794  0.019745186           53 
 3519000    0.6888539   -7.1099174    857.64689   0.02030991  0.019739475           46 
 3520000   0.68042872   -7.1485962     856.3497   0.02027343  0.019733775           31 
 3521000   0.69055614   -7.1216597    858.90849  0.020328233  0.019728067           15 
 3522000   0.70012983   -7.1242804    855.84057  0.020249871  0.019722365           28 
 3523000   0.68716823   -7.1179248    855.54121  0.020237042  0.019716643           30 
 3524000   0.68344246   -7.1569267     857.0778  0.020267636  0.019710927           37 
 3525000   0.68518864   -7.1137811    857.03473  0.020260868  0.019705211           16 
 3526000    0.6889958   -7.1340413    855.99067  0.020230447  0.019699511           24 
 3527000   0.69437547   -7.1230805    858.00215  0.020272237  0.019693814           37 
 3528000   0.67813513   -7.1391014    857.54844  0.020255774  0.019688125           12 
 3529000   0.68159777   -7.1039909    858.36206  0.020269247  0.019682444           21 
 3530000   0.69166431   -7.0967702    858.37095  0.020263715  0.019676751           14 
 3531000   0.66492993   -7.1142498     856.9562  0.020224587  0.019671075           39 
 3532000   0.67629532   -7.1168049    858.39882  0.020252898  0.019665396           50 
 3533000   0.68724167   -7.1398313    858.22816   0.02024314  0.019659712           27 
 3534000   0.69188033    -7.119089    857.93263  0.020230443  0.019654013           22 
 3535000   0.68057517   -7.1220057    856.87916  0.020199886  0.019648339           19 
 3536000    0.6875045   -7.1196627    856.57667  0.020187044  0.019642659           33 
 3537000    0.6806198   -7.1196036    856.92402  0.020189521  0.019636983           37 
 3538000   0.68144283   -7.1269034    859.25658  0.020238755  0.019631305            9 
 3539000   0.68300735   -7.0998465    857.71113  0.020196645  0.019625619           34 
 3540000   0.68023796   -7.1300313    857.72146  0.020191183  0.019619912           35 
 3541000   0.68555422   -7.1413223    857.43249  0.020178681  0.019614197           34 
 3542000   0.68211428   -7.1334682    856.65385  0.020154664  0.019608497           32 
 3543000   0.67992018   -7.1319846    855.77864   0.02012839  0.019602782           27 
 3544000   0.69094217   -7.1335917    857.02057  0.020151913  0.019597067           20 
 3545000   0.68854539   -7.1419357    856.89018  0.020143164  0.019591357           45 
 3546000   0.68547883   -7.1333353    856.42746  0.020126609   0.01958564           28 
 3547000   0.68747831   -7.1423425    858.20955  0.020162803  0.019579923           32 
 3548000   0.68759172   -7.1443853    856.72476  0.020122246  0.019574217           34 
 3549000   0.68097557   -7.1501945     856.8332  0.020119123  0.019568501           22 
 3550000   0.68724777   -7.1603381    857.83615  0.020136999  0.019562789           53 
 3551000   0.68957586   -7.1173062    857.53342  0.020124224   0.01955709           35 
 3552000   0.67661894   -7.1171529    856.66944  0.020098288    0.0195514           48 
 3553000   0.66504569   -7.1047784    855.74805  0.020071021  0.019545698           88 
 3554000   0.67777476   -7.1699162     857.0684  0.020096333  0.019540004           35 
 3555000   0.67563903    -7.146833    857.53809   0.02010169  0.019534307           48 
 3556000   0.67852475   -7.1279481    856.09406  0.020062197  0.019528596           41 
 3557000   0.67802468   -7.1436589    857.41635  0.020087535  0.019522889           58 
 3558000   0.68993342   -7.1274927     857.0211  0.020072632   0.01951719           70 
 3559000   0.68626077    -7.134083    856.43454  0.020053258  0.019511489           89 
 3560000   0.68930646   -7.1411956    856.20394  0.020042227  0.019505773           72 
 3561000   0.66538601   -7.1123428    856.69764  0.020048152   0.01950007          124 
 3562000   0.67226758   -7.1421908    855.83432  0.020022326  0.019494384           48 
 3563000   0.70288504   -7.1352437    856.59938    0.0200346  0.019488699          176 
 3564000   0.67904166   -7.1235226    858.54507  0.020074473  0.019483017          130 
 3565000    0.6813494   -7.1316342    858.94816  0.020078265   0.01947735           73 
 3566000   0.68880133   -7.1664813    856.08781  0.020005791  0.019471691           64 
 3567000   0.68069233    -7.155715    858.21732  0.020049933  0.019466032           67 
 3568000   0.68576434   -7.1347439    858.27144  0.020045577  0.019460368           67 
 3569000   0.67834887    -7.145715    856.88918  0.020007686    0.0194547           68 
 3570000    0.6748418   -7.1105211     858.4454  0.020038408  0.019449022           57 
 3571000   0.68462883   -7.1622103    857.04479  0.020000112   0.01944335           99 
 3572000   0.67097138   -7.1670106    856.73128  0.019987199  0.019437668           87 
 3573000   0.67499184   -7.1215982    858.49992  0.020022855  0.019431989          124 
 3574000   0.69342409   -7.1285429    858.22397  0.020010818  0.019426319           94 
 3575000   0.68293219   -7.1595498    857.61555  0.019991038  0.019420659           68 
 3576000   0.69865764   -7.1753454    855.05691  0.019925823  0.019414985          204 
 3577000   0.68176361    -7.143431    856.50351  0.019953954  0.019409305          186 
 3578000   0.68748086   -7.1548242    858.54575  0.019995942  0.019403627          140 
 3579000   0.66510516   -7.1593998    857.03418  0.019955159  0.019397954          132 
 3580000   0.67626337   -7.1441726    856.89395  0.019946321  0.019392265          203 
 3581000   0.68444579   -7.1500171    857.03164  0.019943955  0.019386584          284 
 3582000   0.67455523   -7.1663354    857.78897  0.019956006  0.019380898          101 
 3583000   0.68869155   -7.1456407    859.49112  0.019990025  0.019375229          199 
 3584000    0.6862895   -7.1435638    856.83579  0.019922707  0.019369536          231 
 3585000   0.68035001   -7.1721276    855.43699  0.019884635  0.019363848          184 
 3586000   0.69125299   -7.1645468    857.40131  0.019924738  0.019358163          180 
 3587000    0.6891951   -7.1633744    856.59555  0.019900463  0.019352469          228 
 3588000   0.68100044   -7.1938872    855.29731  0.019864765   0.01934676          184 
 3589000   0.68048228   -7.1558338    856.33524   0.01988333  0.019341055          188 
 3590000   0.68084405   -7.1768849    856.76116  0.019887678  0.019335341          130 
 3591000   0.67860936   -7.1830749     857.7281  0.019904579  0.019329632          150 
 3592000   0.68169757   -7.1779576    856.74579  0.019876248  0.019323914          199 
 3593000   0.66475943   -7.1732928    857.03864  0.019877508  0.019318214          138 
 3594000   0.67359181   -7.1922828    854.66601  0.019816964   0.01931251          104 
 3595000   0.66808171   -7.1572453    857.36042  0.019873909  0.019306826          129 
 3596000    0.6643278   -7.1815593    857.87156  0.019880227  0.019301148          249 
 3597000   0.68048898   -7.1827561    857.29536  0.019861351  0.019295461          304 
 3598000   0.65018334   -7.1879207    856.94159  0.019847637  0.019289781          250 
 3599000   0.68948735   -7.1703675     857.8079  0.019862182  0.019284104          260 
 3600000   0.69384062   -7.1577257    857.71681  0.019854556  0.019278426          162 
 3601000   0.67131429   -7.1786365    856.56109  0.019822297  0.019272755          316 
 3602000   0.68239656   -7.1669026    857.45075  0.019837376  0.019267083          387 
 3603000   0.66542494   -7.1910704    857.08551  0.019823423  0.019261389          298 
 3604000   0.67533848   -7.1675793    855.13423  0.019772804  0.019255709          306 
 3605000   0.69166994    -7.175692    856.82558  0.019806417   0.01925002          326 
 3606000   0.66453044   -7.1645935    857.57093  0.019818149  0.019244334          199 
 3607000   0.66891093   -7.1749006    856.96459  0.019798646  0.019238669          261 
 3608000   0.65904535   -7.1827917    855.73907  0.019764853  0.019233007          277 
 3609000   0.66626694   -7.1644869    857.82754    0.0198076  0.019227335          284 
 3610000   0.66975094   -7.1692799    857.74929  0.019800307  0.019221679          131 
 3611000   0.67565666   -7.1761756    857.88285  0.019797906  0.019216016          125 
 3612000   0.69618577   -7.1847847    858.77552   0.01981302  0.019210374          163 
 3613000   0.66841066   -7.1668957    856.94453  0.019765304  0.019204728          123 
 3614000   0.68884239    -7.187991    856.71172  0.019754467  0.019199076          136 
 3615000   0.66793409   -7.2038679    857.70157  0.019771821  0.019193424          157 
 3616000   0.65781103   -7.1887043    858.21283  0.019778135  0.019187767          147 
 3617000    0.6694234   -7.1696121    858.26859  0.019773951   0.01918213          151 
 3618000   0.67685474   -7.1830815    856.99903  0.019739244  0.019176487          266 
 3619000   0.67315403   -7.1667883    857.27702  0.019740191  0.019170845          321 
 3620000    0.6712279    -7.196471    857.76314  0.019745929  0.019165203          357 
 3621000   0.67133294   -7.1690426    857.54539  0.019735464  0.019159565          323 
 3622000   0.66300331   -7.2018769    857.49091  0.019728762  0.019153909          310 
 3623000   0.67621263   -7.1874464    856.03124  0.019689742  0.019148258          386 
 3624000   0.68354606   -7.2110305    855.68049  0.019676244  0.019142592          322 
 3625000   0.67571573   -7.1828704    858.53081   0.01973634  0.019136926          391 
 3626000   0.65925172   -7.1673805    855.48028   0.01966079  0.019131269          285 
 3627000   0.65989324   -7.1750323    857.18638  0.019694568  0.019125616          325 
 3628000   0.67445085   -7.2030787    858.27558  0.019714158  0.019119953          299 
 3629000   0.64926446   -7.1981064    856.92707  0.019677759  0.019114302          367 
 3630000   0.65466957   -7.1999463    856.41895  0.019660674  0.019108644          360 
 3631000   0.66895681   -7.1967274    855.56468  0.019635653  0.019102992          360 
 3632000   0.68507043   -7.1912125    857.26965  0.019669366  0.019097335          307 
 3633000   0.65440606    -7.197071    857.36079  0.019666043  0.019091667          509 
 3634000   0.66894396   -7.2059414    856.80837  0.019647963  0.019085992          438 
 3635000   0.67602582   -7.1989554    855.44989  0.019611414  0.019080315          561 
 3636000   0.66767111   -7.2072596    856.16651  0.019622445  0.019074656          470 
 3637000   0.64919975   -7.2330572     857.0648  0.019637632  0.019068992          467 
 3638000   0.68924641   -7.1887888    857.51907  0.019642639  0.019063325          400 
 3639000   0.66606983   -7.2097046    855.27754  0.019585911  0.019057664          359 
 3640000   0.66510284   -7.2246052    856.05454  0.019598318  0.019052013          307 
 3641000   0.67083565    -7.179627    856.22853  0.019596918  0.019046349          375 
 3642000   0.66102539    -7.203774    858.27816  0.019638435  0.019040696          499 
 3643000   0.66872465   -7.1986022    857.69587  0.019619724  0.019035038          574 
 3644000   0.66225136   -7.2093882    857.66269  0.019613581  0.019029375          524 
 3645000   0.66735609   -7.2185088    856.17535  0.019574196  0.019023734          493 
 3646000   0.66331956   -7.2146347    857.45962  0.019598181  0.019018099          354 
 3647000   0.65838546   -7.1845217    857.15432  0.019585831  0.019012465          278 
 3648000   0.67455405   -7.2091006    856.33385   0.01956172   0.01900684          474 
 3649000   0.67496304   -7.2049564    858.13142  0.019597411  0.019001209          412 
 3650000   0.67435914    -7.211194    857.61888   0.01958034  0.018995579          553 
 3651000   0.66986853   -7.2061874     857.9172  0.019581786  0.018989953          494 
 3652000   0.66815484   -7.2004888    859.87258  0.019621043  0.018984319          369 
 3653000   0.67565164   -7.2165658    857.42027  0.019559729  0.018978687          406 
 3654000   0.66859838   -7.2195354     856.2645  0.019528017  0.018973067          438 
 3655000   0.65842983   -7.1851214    857.29648  0.019546203  0.018967437          318 
 3656000   0.66321182   -7.2130742    857.49141    0.0195453  0.018961816          420 
 3657000   0.65926882   -7.1940628    857.41104  0.019538124  0.018956203          494 
 3658000   0.66287118   -7.2026504    857.98838  0.019545935  0.018950578          464 
 3659000   0.66604889   -7.2155792    857.10934  0.019520573  0.018944955          321 
 3660000   0.66180705    -7.192968    856.51002  0.019501594  0.018939328          410 
 3661000   0.66973147   -7.2014323     858.3228  0.019537531  0.018933714          286 
 3662000    0.6659426   -7.2043024    856.57859  0.019492504  0.018928094          471 
 3663000   0.66437113   -7.1987128     857.3143   0.01950392  0.018922478          409 
 3664000   0.67812512   -7.2131677    855.96971  0.019468016  0.018916859          432 
 3665000   0.65698403   -7.2198963    855.41402  0.019450069   0.01891123          395 
 3666000   0.66997481   -7.2030451    856.86733  0.019477799  0.018905602          515 
 3667000   0.66989379   -7.2262784    856.18848   0.01945706  0.018899983          468 
 3668000   0.66782712   -7.2364269    856.46131  0.019457954  0.018894343          416 
 3669000   0.66622195   -7.2042716    857.65561  0.019479777  0.018888707          467 
 3670000   0.65812864   -7.2159769     857.6097  0.019473426  0.018883095          465 
 3671000   0.67210052   -7.2191059    855.03614  0.019409701  0.018877464          449 
 3672000   0.65581867   -7.2064039    856.04157  0.019427232  0.018871822          468 
 3673000   0.66046676   -7.2208529    856.69063  0.019436669  0.018866178          604 
 3674000   0.68304808   -7.2061632     854.8509   0.01938965  0.018860535          456 
 3675000   0.67868175   -7.2286122    856.82275  0.019429087  0.018854894          614 
 3676000    0.6635077   -7.1957008    858.04626  0.019451538  0.018849281          518 
 3677000   0.67115808   -7.2219856    856.28102  0.019406242  0.018843655          612 
 3678000   0.65731411   -7.2246936     856.1151  0.019397206  0.018838013          700 
 3679000   0.66426169   -7.2227223    858.27638  0.019440889  0.018832376          635 
 3680000   0.66868069   -7.2264589    856.14867  0.019387425  0.018826733          666 
 3681000   0.66815422   -7.2134345    855.73193  0.019372723  0.018821088          634 
 3682000   0.65441954   -7.2393381    855.39605   0.01935986  0.018815439          697 
 3683000   0.65802429   -7.2275253    857.05674  0.019392179  0.018809801          629 
 3684000   0.65736394   -7.2121931    856.48036  0.019373877  0.018804172          700 
 3685000   0.67237768   -7.2342116    857.33977  0.019388054  0.018798528          677 
 3686000   0.66066487   -7.2389066    856.97604  0.019374571  0.018792879          612 
 3687000    0.6659832   -7.2225569    857.54383   0.01938215  0.018787242          622 
 3688000    0.6713301   -7.2780587    856.99067  0.019364395   0.01878161          789 
 3689000   0.66728419   -7.2589381    856.49623  0.019347977  0.018775966          850 
 3690000   0.65783862   -7.2902379    856.02193  0.019332022  0.018770318          826 
 3691000    0.6478879   -7.2587042     856.1136  0.019328854  0.018764658          875 
 3692000   0.66002556   -7.2730139    856.28942  0.019327587  0.018758998          957 
 3693000   0.65838011   -7.2494148    857.50284  0.019349735  0.018753347          904 
 3694000   0.64925422   -7.2564362    854.88931  0.019285537  0.018747686          907 
 3695000   0.66991489   -7.2504535    855.83536  0.019301654   0.01874203          901 
 3696000   0.64299356   -7.2541287    853.97526  0.019254493  0.018736353          886 
 3697000   0.65861945   -7.2303385    855.11852  0.019275055  0.018730688          966 
 3698000   0.66383938   -7.2623353    853.20208  0.019226656  0.018725022          944 
 3699000   0.65190711   -7.2757528    856.25294   0.01929019  0.018719357          930 
 3700000   0.66863776   -7.2412642    855.02005  0.019257208  0.018713701          975 
 3701000   0.65377792    -7.251512    856.17805  0.019278079  0.018708031         1016 
 3702000   0.65095681   -7.2486127    855.88186  0.019266204  0.018702362         1010 
 3703000   0.66880476   -7.2395998    854.86541  0.019238127  0.018696705         1041 
 3704000   0.65292281   -7.2538701    856.48417  0.019269352  0.018691042         1026 
 3705000   0.67521754   -7.2927524    855.20818  0.019235452  0.018685363         1018 
 3706000    0.6521206   -7.2486379    855.48206   0.01923642   0.01867968         1009 
 3707000   0.66657519   -7.2685559    853.52308  0.019187193  0.018673996          960 
 3708000   0.65121692   -7.2699321    852.81928  0.019166201  0.018668322         1025 
 3709000   0.65766024   -7.2665896    855.65976  0.019224853  0.018662661         1060 
 3710000   0.65558811   -7.2499988    855.37393  0.019213251  0.018656998         1027 
 3711000   0.64842734   -7.2676496    855.60875  0.019213347  0.018651333         1047 
 3712000   0.65820065   -7.2770363    855.95412  0.019215924  0.018645657          993 
 3713000   0.64976995   -7.2701467    855.84608  0.019208324  0.018639985         1079 
 3714000   0.65950415    -7.252698    854.66909  0.019176743  0.018634322         1045 
 3715000   0.67610501   -7.2556079    856.20814  0.019206105  0.018628664         1037 
 3716000   0.64788951   -7.2617687    855.51723  0.019185442  0.018622991         1076 
 3717000    0.6633815   -7.2746826    853.67698  0.019139023  0.018617318         1098 
 3718000   0.66848787   -7.2611342    854.56742  0.019153833  0.018611653         1061 
 3719000   0.66223382   -7.2717227    853.15195  0.019116966  0.018605978         1148 
 3720000     0.660676   -7.2580564    854.65509  0.019145499  0.018600309         1059 
 3721000   0.65924992   -7.2938247     854.2455  0.019131181   0.01859464         1115 
 3722000   0.65332489   -7.2773026    854.43023  0.019130177  0.018588975         1041 
 3723000   0.65531671   -7.2815928    857.21127  0.019187288  0.018583336         1055 
 3724000   0.67044813   -7.2720572    855.06517  0.019134111  0.018577693         1003 
 3725000   0.65873639   -7.2742466    854.65365  0.019119768  0.018572047          987 
 3726000   0.66455192   -7.2667543    855.09606  0.019124532  0.018566388         1054 
 3727000   0.66590462   -7.2507356    854.89288  0.019114857   0.01856075         1043 
 3728000   0.65492538   -7.2715247    852.90129  0.019065211  0.018555112         1096 
 3729000   0.65389565    -7.276463    854.85586  0.019103778  0.018549474         1082 
 3730000   0.66289205   -7.2726068    854.63924  0.019093817  0.018543846         1083 
 3731000   0.65541478   -7.2609042    856.93056  0.019139877  0.018538211         1041 
 3732000   0.64746238   -7.2771502    856.56808  0.019126654   0.01853257         1061 
 3733000   0.66196743    -7.262863    855.01126  0.019086777  0.018526909          992 
 3734000   0.65543166   -7.2835404    854.26791  0.019065076  0.018521251         1069 
 3735000   0.63898026   -7.2832719    855.83207   0.01909487  0.018515598         1070 
 3736000   0.65061243   -7.2770207    854.89575  0.019068874  0.018509928         1093 
 3737000   0.66851992   -7.3089104    853.82609  0.019039918  0.018504263         1109 
 3738000   0.65883047   -7.2883624    853.17042  0.019020207  0.018498594         1141 
 3739000   0.64355548   -7.3054492    854.66897  0.019048519  0.018492928         1215 
 3740000   0.65949591   -7.2843666    855.54293  0.019062899  0.018487271         1176 
 3741000   0.64169713    -7.293937    856.36029  0.019076011  0.018481616         1081 
 3742000   0.64920975   -7.2875391    855.80818  0.019058618  0.018475958         1085 
 3743000   0.64127486   -7.2937051    852.31478   0.01897575  0.018470298         1117 
 3744000   0.64803798   -7.2835823    856.02813  0.019053333  0.018464646         1073 
 3745000   0.64340528    -7.283257    853.90577  0.019001018  0.018458987         1138 
 3746000   0.65494813   -7.2972285    854.07363   0.01899968  0.018453319         1151 
 3747000   0.65805781   -7.2902519    852.97893  0.018970263   0.01844765         1162 
 3748000   0.64484294   -7.2848319    853.92584  0.018986256   0.01844198         1170 
 3749000   0.64601707    -7.264142     853.2979  0.018967233  0.018436315         1222 
 3750000   0.64224503   -7.3090226    852.94718  0.018954382   0.01843065         1182 
 3751000   0.66247841   -7.2965891     853.0582  0.018951795  0.018424985         1222 
 3752000   0.64186873   -7.3162411    854.32542  0.018974889  0.018419309         1124 
 3753000   0.64086601   -7.2964062    854.18003  0.018966605  0.018413636         1138 
 3754000   0.65313302   -7.3040695    853.41685  0.018944611  0.018407968         1181 
 3755000   0.65139996   -7.3043144     855.2428  0.018980089  0.018402312         1207 
 3756000   0.64750897   -7.2941339    852.43083  0.018912647   0.01839664         1210 
 3757000   0.64734761   -7.2821384    853.44542  0.018930118  0.018390963         1110 
 3758000   0.64296911   -7.3103223    851.45943  0.018881041  0.018385282         1227 
 3759000   0.64768431   -7.3079683    854.28806  0.018938726  0.018379608         1163 
 3760000    0.6549825   -7.3108924      853.797  0.018922806  0.018373934         1135 
 3761000   0.64004697    -7.312668    852.26892  0.018883917   0.01836824         1213 
 3762000   0.66063861   -7.3169007    853.96603   0.01891649  0.018362565         1191 
 3763000   0.63690053   -7.2879554    852.91414  0.018888169  0.018356882         1238 
 3764000     0.663854   -7.3191842     852.4935  0.018873838   0.01835119         1178 
 3765000    0.6501355   -7.3117018     853.7674  0.018897021  0.018345504         1231 
 3766000   0.65705342   -7.3115373    852.43558  0.018862533   0.01833982         1211 
 3767000   0.66025053   -7.3290277    852.13779  0.018850938  0.018334135         1262 
 3768000   0.64050329   -7.3213691     850.7318   0.01881484  0.018328451         1282 
 3769000   0.65409857   -7.3263542    853.61947  0.018873695  0.018322762         1283 
 3770000   0.64920995   -7.3244524    853.28111  0.018861209  0.018317071         1235 
 3771000   0.63624248     -7.32916    853.36618  0.018858087  0.018311377         1358 
 3772000   0.64704662    -7.342685    852.79803  0.018840536  0.018305695         1344 
 3773000   0.64457536   -7.3479771    853.20387  0.018844506  0.018300003         1384 
 3774000   0.65598331   -7.3349996    852.73841  0.018829235  0.018294311         1418 
 3775000    0.6442992   -7.3586256    854.05141  0.018853232  0.018288625         1441 
 3776000   0.64404562   -7.3406209    852.26302  0.018808771  0.018282928         1350 
 3777000   0.64160162    -7.317783    852.37039   0.01880616  0.018277233         1402 
 3778000   0.63192886   -7.3335681    853.03724  0.018815891  0.018271536         1413 
 3779000   0.64961291   -7.3345852    851.34291  0.018773549  0.018265844         1499 
 3780000   0.65221372   -7.3452505    852.10778  0.018785445  0.018260148         1428 
 3781000   0.65140491   -7.3461044    851.26313   0.01876186  0.018254441         1408 
 3782000   0.64971474   -7.3347407    851.12561   0.01875387  0.018248741         1424 
 3783000   0.66217303   -7.3416832     851.6067   0.01875951  0.018243037         1465 
 3784000   0.66312867   -7.3655632    852.32593  0.018770391  0.018237334         1475 
 3785000   0.65268271   -7.3321028    852.57137  0.018770836  0.018231634         1484 
 3786000   0.64554259   -7.3317173    849.95681  0.018708329  0.018225929         1517 
 3787000   0.64990649    -7.351285    851.84807  0.018745006  0.018220225         1528 
 3788000   0.62904677   -7.3559738    849.56416  0.018689814  0.018214507         1538 
 3789000   0.65470934   -7.3412677     850.8201  0.018712503  0.018208792         1452 
 3790000   0.66006105   -7.3514681    850.35253  0.018697285  0.018203082         1518 
 3791000   0.64360123   -7.3276144    851.94329  0.018727321  0.018197379         1596 
 3792000   0.64843524   -7.3700987    851.68635  0.018716736   0.01819168         1513 
 3793000   0.64802029   -7.3490931    853.10533  0.018742977  0.018185978         1513 
 3794000   0.64457763   -7.3433419    851.15636  0.018695228  0.018180281         1503 
 3795000   0.62787804   -7.3790659    850.17332  0.018668716   0.01817457         1545 
 3796000   0.63967598   -7.3490745    851.35135  0.018689659  0.018168861         1540 
 3797000    0.6368728   -7.3583629     851.3965  0.018685728  0.018163164         1523 
 3798000   0.64823861   -7.3324252    851.47933  0.018682625  0.018157469         1516 
 3799000   0.65285503   -7.3418925    850.17137  0.018649017  0.018151784         1542 
 3800000   0.65368583   -7.3489472    852.21677  0.018688964  0.018146091         1572 
 3801000   0.63934427    -7.348796    851.14778  0.018660611  0.018140389         1543 
 3802000   0.66106323   -7.3616519    850.21025  0.018635154  0.018134686         1508 
 3803000   0.62920885   -7.3448142    851.59894  0.018660683  0.018128985         1546 
 3804000   0.63870424   -7.3706984    851.89135  0.018662184  0.018123288         1579 
 3805000   0.64278497   -7.3345717    851.56531  0.018650138  0.018117598         1607 
 3806000   0.63563134   -7.3518525    850.61243  0.018624374  0.018111908         1658 
 3807000   0.64164909   -7.3407723    850.81795  0.018623981  0.018106233         1607 
 3808000   0.63857751   -7.3591203    850.90966  0.018621097  0.018100544         1590 
 3809000   0.62836588   -7.3443023    852.11623  0.018642606  0.018094856         1612 
 3810000    0.6491875   -7.3916837    851.77981  0.018630355  0.018089171         1697 
 3811000   0.64463507   -7.3683612    851.89785  0.018628047  0.018083474         1645 
 3812000   0.62712625   -7.3382198    850.40646  0.018590557  0.018077779         1618 
 3813000   0.64476133   -7.3702227    849.55231  0.018567014  0.018072092         1692 
 3814000   0.64724227   -7.3507988    850.83007  0.018590064  0.018066401         1677 
 3815000    0.6373778   -7.3627801    852.17725  0.018614619  0.018060715         1664 
 3816000   0.62442513   -7.3765377    849.94833  0.018561066  0.018055021         1710 
 3817000   0.63756674   -7.3597375    850.45972  0.018567368  0.018049331         1698 
 3818000   0.65207797   -7.3753068    851.13622   0.01857727  0.018043639         1635 
 3819000   0.61988623   -7.3755767    850.80818  0.018565248  0.018037957         1729 
 3820000   0.63787455   -7.3662702    851.90453  0.018584305  0.018032278         1704 
 3821000   0.65094436   -7.3694891    850.98235  0.018559329  0.018026584         1718 
 3822000   0.63894544   -7.3863643    850.82875  0.018551124  0.018020898         1717 
 3823000   0.64630732   -7.3728503    851.83952  0.018568304  0.018015202         1686 
 3824000   0.65556895   -7.3768469    850.73747  0.018539432  0.018009519         1707 
 3825000   0.63252443   -7.3664401    850.76362  0.018535155  0.018003838         1736 
 3826000   0.64605956   -7.3614637    849.98351  0.018513319  0.017998164         1749 
 3827000   0.64448295   -7.3562977    850.38047  0.018517125  0.017992478         1751 
 3828000   0.64230858   -7.3585381    852.11583  0.018550066   0.01798681         1796 
 3829000   0.63896838   -7.3802938    849.74427  0.018493607  0.017981133         1819 
 3830000    0.6304846   -7.3762925    851.39606  0.018524718  0.017975453         1775 
 3831000   0.63540111   -7.3761948    850.55306  0.018501546  0.017969771         1836 
 3832000   0.62594792   -7.3809592    850.14928  0.018487937  0.017964095         1835 
 3833000   0.63267057   -7.3571192    850.80822  0.018497439  0.017958414         1775 
 3834000   0.63923393   -7.3767661    850.53676  0.018486715  0.017952747         1761 
 3835000   0.63915472   -7.3835405    851.84901  0.018510409  0.017947076         1767 
 3836000   0.64599389   -7.4029529    850.44204  0.018475018  0.017941405         1836 
 3837000   0.62327616    -7.389705     848.9289   0.01843734  0.017935742         1834 
 3838000   0.63301936   -7.3777346    849.80035  0.018451458  0.017930079         1816 
 3839000   0.65141275   -7.4018223    850.67237  0.018465581  0.017924397         1753 
 3840000   0.64206885   -7.4122986    850.41767  0.018455245  0.017918721         1790 
 3841000   0.63699631   -7.3889194    850.28992  0.018447668  0.017913051         1858 
 3842000   0.63176818    -7.376996    849.71227  0.018430337  0.017907384         1804 
 3843000   0.64698261   -7.3957793    849.20961  0.018414642  0.017901719         1819 
 3844000   0.62451256   -7.3821548    849.83285  0.018423362  0.017896054         1790 
 3845000   0.63969956   -7.3610083    850.62217  0.018435678  0.017890396         1761 
 3846000   0.62398994   -7.3803197    849.82907    0.0184137  0.017884737         1789 
 3847000   0.64232461   -7.3729714    849.83816   0.01840911  0.017879074         1836 
 3848000   0.63446889   -7.4022458    850.92275  0.018427814  0.017873421         1820 
 3849000   0.62842448   -7.3722561     851.1903  0.018428819  0.017867765         1808 
 3850000   0.61410077   -7.4049763    849.19072  0.018380751  0.017862098         1848 
 3851000    0.6410875   -7.4038864    850.20881  0.018398009  0.017856442         1862 
 3852000   0.63299755   -7.4071279    850.26119  0.018394366  0.017850785         1931 
 3853000   0.62060924   -7.3904069    850.70994  0.018399298  0.017845134         1853 
 3854000   0.62669503   -7.4135119    850.00939  0.018379376  0.017839482         1853 
 3855000    0.6443177    -7.421617    850.58755  0.018387107  0.017833825         1888 
 3856000   0.63106148   -7.4200985     849.3954  0.018356574  0.017828168         1904 
 3857000    0.6443181   -7.4228489    850.92402  0.018384842  0.017822507         1904 
 3858000   0.63612275   -7.4012049    850.09928  0.018362262  0.017816846         1900 
 3859000   0.62114655   -7.4134251    848.76101  0.018328604  0.017811183         1908 
 3860000   0.63506035   -7.4261716    847.90429   0.01830536   0.01780552         1888 
 3861000   0.64364166   -7.4092053    850.92252  0.018365763  0.017799866         1950 
 3862000   0.62423254   -7.4055617    850.21156  0.018345666  0.017794206         1925 
 3863000   0.63015192   -7.4079348    849.29946  0.018321241  0.017788552         1940 
 3864000   0.61856726   -7.4132071    849.60676  0.018323127  0.017782895         1970 
 3865000   0.63087092   -7.4254039     849.2422  0.018310526  0.017777236         2039 
 3866000   0.63345726   -7.4197601    849.93592  0.018320743  0.017771583         1984 
 3867000   0.62654181   -7.4293628    849.60395  0.018308852  0.017765924         2010 
 3868000    0.6310895   -7.3981731     849.6413  0.018304923  0.017760269         1970 
 3869000   0.63301852   -7.4410486    847.63745  0.018257031  0.017754618         2017 
 3870000   0.64035125   -7.4245026    849.79961  0.018298872  0.017748965         2055 
 3871000   0.63644722   -7.4326483    848.76954   0.01827197  0.017743318         2084 
 3872000   0.62791406   -7.4062064    849.10717  0.018274517  0.017737682         2048 
 3873000   0.63592068   -7.4230596    848.07596  0.018247611  0.017732032         2013 
 3874000   0.63553564   -7.4410023    848.21214   0.01824583  0.017726389         2144 
 3875000    0.6154382   -7.4335195    850.10642  0.018281858  0.017720742         2089 
 3876000   0.64788857   -7.4532508    848.50835  0.018242784  0.017715099         2126 
 3877000   0.62334209    -7.422941    849.03351  0.018249366  0.017709449         2207 
 3878000   0.64105037   -7.4298595    849.91456  0.018263593  0.017703804         2181 
 3879000    0.6267019    -7.439557    849.42634  0.018248396  0.017698151         2121 
 3880000   0.63473721   -7.4431472    847.70573  0.018206738  0.017692497         2188 
 3881000   0.64723454   -7.4306218    848.08917   0.01821028  0.017686847         2227 
 3882000   0.64119396   -7.4363212    849.98306  0.018246245  0.017681199         2187 
 3883000   0.62570419   -7.4221388    848.82326  0.018216655  0.017675547         2151 
 3884000   0.63410104   -7.4455007    848.18541  0.018198279  0.017669903         2202 
 3885000   0.63797496   -7.4253843    848.97092  0.018210444  0.017664252         2131 
 3886000   0.61142969   -7.4582244     849.0408  0.018207257  0.017658607         2108 
 3887000   0.62248439   -7.4481767    849.44976   0.01821134  0.017652963         2216 
 3888000   0.62703099   -7.4483956     849.9727  0.018217865  0.017647322         2146 
 3889000    0.6172063   -7.4297108    847.89484  0.018168656  0.017641683         2236 
 3890000   0.62754214   -7.4315377    848.01925  0.018166651  0.017636048         2214 
 3891000   0.64589476   -7.4397236    849.48887  0.018193457   0.01763041         2230 
 3892000   0.62583632    -7.431625    848.78813  0.018173778  0.017624773         2267 
 3893000   0.63322024     -7.44139    848.88622  0.018171209  0.017619138         2203 
 3894000   0.62283247   -7.4647645    848.82922  0.018165323  0.017613495         2259 
 3895000   0.62152614   -7.4371744    849.58683  0.018176868  0.017607855         2313 
 3896000    0.6277777   -7.4433694    848.05982  0.018139541  0.017602219         2293 
 3897000   0.62430394   -7.4381673    847.70901  0.018127385   0.01759658         2265 
 3898000   0.62260913   -7.4469009    847.17039  0.018111219  0.017590937         2334 
 3899000   0.62290971   -7.4416692    847.09709  0.018105008    0.0175853         2338 
 3900000    0.6304963   -7.4576177    847.30598  0.018104829  0.017579661         2333 
 3901000   0.63653669   -7.4478555    849.34484  0.018143742  0.017574027         2332 
 3902000   0.62828007   -7.4786877    848.67907  0.018124873  0.017568383         2384 
 3903000   0.62286406   -7.4586609    849.29016  0.018133277  0.017562745         2313 
 3904000   0.61945719   -7.4402104    849.50106  0.018133134  0.017557115         2316 
 3905000   0.63185094   -7.4306666    846.26239  0.018059377  0.017551489         2293 
 3906000   0.62654455   -7.4682323    848.72516  0.018107296  0.017545862         2387 
 3907000   0.62073959   -7.4345168     849.8918  0.018127545  0.017540245         2410 
 3908000   0.62984745   -7.4412804    849.56117  0.018115856  0.017534618         2327 
 3909000   0.62877403   -7.4440963    847.93579  0.018076571  0.017528989         2446 
 3910000    0.6222114   -7.4507182    846.78203  0.018047358  0.017523363         2441 
 3911000   0.62946946    -7.460225    847.14382  0.018050452  0.017517735         2400 
 3912000   0.62592933   -7.4709948    848.78135  0.018080721  0.017512102         2400 
 3913000   0.62121303   -7.4643684    847.07831  0.018039831  0.017506465         2382 
 3914000   0.61593172   -7.4614244    847.13467  0.018036422  0.017500835         2367 
 3915000   0.62735162   -7.4485634    849.32537  0.018078445  0.017495209         2374 
 3916000   0.61579144   -7.4474781    847.77843   0.01804091   0.01748958         2447 
 3917000   0.61639356    -7.460032    847.94693  0.018039889  0.017483953         2416 
 3918000   0.61436791   -7.4677224    846.74379  0.018009694  0.017478325         2496 
 3919000   0.62477923   -7.4646157    847.85719  0.018028774    0.0174727         2451 
 3920000    0.6134341   -7.4474014    846.96662  0.018005243   0.01746708         2436 
 3921000   0.63123156   -7.4734771    847.17092  0.018004993  0.017461462         2478 
 3922000    0.6208185   -7.4434662    845.76785   0.01797059  0.017455846         2454 
 3923000   0.62993317   -7.4572357    846.99298  0.017992034  0.017450224         2408 
 3924000   0.62588706   -7.4721613    847.31789  0.017994349  0.017444605         2386 
 3925000   0.62431656   -7.4771046    846.80441  0.017978862  0.017438976         2502 
 3926000   0.61704482   -7.4660397    846.54163  0.017968705  0.017433353         2507 
 3927000   0.62155622    -7.468395    848.26064  0.018000608   0.01742774         2452 
 3928000   0.63038164   -7.4630737    848.28699  0.017996584  0.017422129         2449 
 3929000   0.61608569   -7.4776563    847.53194  0.017975989  0.017416514         2453 
 3930000   0.61501925   -7.4713957    846.98517  0.017959821  0.017410895         2501 
 3931000   0.63486556   -7.4755146    847.60105  0.017968308  0.017405274         2512 
 3932000   0.63692552    -7.481558    847.61748  0.017964087  0.017399657         2450 
 3933000   0.62467025   -7.4783348     847.4957  0.017956939  0.017394037         2467 
 3934000   0.63312386   -7.4871354    848.08485  0.017964854  0.017388417         2501 
 3935000   0.62471909   -7.4645517    846.21738  0.017920741  0.017382796         2541 
 3936000   0.62456681   -7.4750953    846.32154  0.017918393  0.017377177         2551 
 3937000   0.62605236   -7.4793152      845.499  0.017896431   0.01737155         2528 
 3938000   0.61655323    -7.479875    845.70436  0.017896232  0.017365933         2512 
 3939000   0.62457933   -7.4705243    846.89103  0.017916794  0.017360316         2555 
 3940000   0.63024836   -7.4789439    847.71709  0.017929719  0.017354704         2514 
 3941000   0.63059927   -7.4975668     846.9561  0.017909078  0.017349097         2551 
 3942000   0.62508428   -7.4722962     846.2929  0.017890514  0.017343488         2595 
 3943000   0.61480142   -7.4918967    847.11822   0.01790342   0.01733788         2601 
 3944000   0.60932511   -7.4715454    846.67299  0.017889473  0.017332278         2610 
 3945000   0.61737962   -7.4741557    847.12052  0.017894392  0.017326673         2607 
 3946000   0.60624771   -7.5034386     845.1225  0.017847662   0.01732106         2640 
 3947000   0.61693929   -7.4936417    848.40002  0.017912339  0.017315458         2547 
 3948000   0.61166181   -7.4618734    847.26225  0.017883786  0.017309852         2558 
 3949000   0.61121594   -7.4771876    846.42796  0.017861652  0.017304245         2603 
 3950000    0.6158399   -7.4655084    846.35882  0.017855671  0.017298646         2586 
 3951000   0.62027005   -7.4738336     846.5686  0.017855577  0.017293048         2594 
 3952000   0.62841722   -7.4790247    847.62461  0.017873326  0.017287447         2631 
 3953000   0.62067486   -7.4597387    845.82652  0.017830899  0.017281852         2599 
 3954000   0.61985459   -7.4916534    845.85509  0.017826991  0.017276269         2588 
 3955000   0.61848948   -7.4852236    844.57771  0.017795569  0.017270683         2627 
 3956000   0.62730897   -7.4891716    845.63067  0.017813251  0.017265097         2582 
 3957000   0.63445891   -7.4721092    847.13296  0.017840387  0.017259511         2634 
 3958000   0.61543906   -7.4759926    846.59125  0.017824475  0.017253921         2642 
 3959000   0.63157786   -7.4808993    847.62964   0.01784183  0.017248339         2623 
 3960000   0.62316416   -7.4899227    846.73432  0.017818483  0.017242754         2683 
 3961000   0.61765999   -7.4873226    847.36881  0.017827333  0.017237164         2652 
 3962000   0.61464522   -7.4842728    846.18778  0.017797993  0.017231577         2668 
 3963000   0.62215995   -7.4772663     845.6238  0.017781643  0.017226002         2655 
 3964000   0.61944786   -7.4994595    846.25647  0.017790457  0.017220423         2718 
 3965000   0.62189582   -7.5028385    845.70801  0.017774443  0.017214844         2665 
 3966000   0.60277945   -7.4898795    846.13696  0.017778975  0.017209262         2626 
 3967000   0.62148698   -7.4885492    846.98911  0.017792394  0.017203679         2605 
 3968000   0.61443341   -7.5128306    846.11472  0.017769546  0.017198096         2743 
 3969000   0.61244544   -7.4938917    847.25272  0.017788963  0.017192511         2692 
 3970000   0.60522845   -7.4866129    845.73942  0.017752717  0.017186929         2676 
 3971000   0.61966923    -7.535862    845.79711  0.017749457  0.017181352         2757 
 3972000   0.62683073   -7.5085335    846.58319   0.01776148  0.017175769         2703 
 3973000    0.6118299   -7.4978472    846.27831  0.017750615  0.017170188         2746 
 3974000   0.62826281   -7.5020209    845.65417   0.01773306  0.017164602         2683 
 3975000   0.60910422   -7.5071763    845.97892  0.017735407  0.017159016         2768 
 3976000   0.61168729   -7.5151499    845.91826  0.017729675  0.017153437         2790 
 3977000   0.60045897   -7.5097804    846.26001  0.017732378  0.017147866         2784 
 3978000   0.61712556   -7.4922369    846.28604  0.017728466  0.017142291         2836 
 3979000   0.62383767   -7.5161215     845.6283  0.017710235   0.01713671         2785 
 3980000   0.62148823   -7.5121248     844.0586  0.017672919  0.017131139         2736 
 3981000   0.62511981   -7.5159594    845.57623  0.017700248  0.017125563         2786 
 3982000   0.61451082   -7.5276642    845.37336  0.017691557  0.017119987         2755 
 3983000   0.61567303   -7.5233595     846.7581  0.017716087  0.017114414         2765 
 3984000   0.61285726   -7.5062572    844.32701  0.017660789  0.017108841         2776 
 3985000   0.62028894   -7.5283196    845.38733  0.017678531  0.017103264         2806 
 3986000   0.61424104    -7.520702    846.45367  0.017696389  0.017097689         2843 
 3987000   0.60953504   -7.5213023    845.79599  0.017678204  0.017092118         2835 
 3988000     0.609567   -7.5170188    845.24803  0.017662321  0.017086539         2822 
 3989000   0.60806634   -7.5115774    844.33293  0.017638776  0.017080964         2818 
 3990000    0.6112171    -7.515525    844.14338  0.017630396  0.017075386         2886 
 3991000   0.61193057   -7.5218054    844.86376  0.017641021  0.017069811         2845 
 3992000    0.6173415   -7.5171199    845.41539  0.017648117  0.017064231         2932 
 3993000   0.61273995   -7.5301986    844.77561  0.017630345  0.017058654         2885 
 3994000    0.6131596   -7.5323815    843.71236  0.017603747  0.017053073         2886 
 3995000   0.62562551   -7.5337288     843.9848  0.017605023  0.017047492         2925 
 3996000   0.61878783   -7.5327477    845.92945  0.017641171  0.017041917         2833 
 3997000   0.61048571   -7.5523298    844.46773  0.017606282  0.017036344         2949 
 3998000   0.61683753   -7.5523672    846.09177   0.01763573  0.017030772         2885 
 3999000    0.6116815   -7.5283844    843.83556  0.017584304  0.017025204         2847 
 4000000   0.61089484   -7.5276472    843.89732  0.017581194  0.017019635         2876 
 4001000   0.61688892   -7.5356377     844.3906  0.017587074  0.017014078         2870 
 4002000   0.60767398   -7.5280616    844.76491  0.017590474   0.01700851         2850 
 4003000   0.61196362   -7.5213522    845.90293   0.01760977  0.017002941         2840 
 4004000   0.61245134   -7.5530572    844.88241  0.017584133  0.016997375         2924 
 4005000   0.61959356   -7.5222167    846.16577  0.017606445  0.016991816         2871 
 4006000   0.59497955   -7.5396649    843.87724  0.017554444  0.016986252         2834 
 4007000   0.60425594    -7.531954    845.35643  0.017580826  0.016980686         2829 
 4008000   0.61420402   -7.5390289    843.63187  0.017540583   0.01697513         2859 
 4009000   0.60505482   -7.5420708    843.46565  0.017532752  0.016969572         2862 
 4010000   0.61692714   -7.5591996    843.49609  0.017529013  0.016964015         2836 
 4011000   0.61872458   -7.5348041    842.93468  0.017512979  0.016958453         2825 
 4012000   0.60084337   -7.5370098    844.07712  0.017532343  0.016952903         2891 
 4013000   0.61239688   -7.5383604    844.62568  0.017539365  0.016947347         2885 
 4014000   0.61501109   -7.5522478    843.57482  0.017513179  0.016941793         2876 
 4015000   0.60647497   -7.5505526    843.43533  0.017505922  0.016936235         2871 
 4016000   0.60728381   -7.5423702    843.71235  0.017507311  0.016930681         2874 
 4017000   0.58952094   -7.5438894    844.27194  0.017514562  0.016925131         2873 
 4018000   0.59261936   -7.5683321    844.00316  0.017504628  0.016919582         2898 
 4019000   0.60258528   -7.5401088    843.68403  0.017493656  0.016914031         2850 
 4020000   0.59828632   -7.5438616    845.95222  0.017536323  0.016908486         2909 
 4021000   0.61201321   -7.5376802    844.45042  0.017500838  0.016902938         2841 
 4022000   0.61519247   -7.5403599    842.99022  0.017466232  0.016897396         2880 
 4023000    0.6015652   -7.5271253    843.92542  0.017481262  0.016891851         2833 
 4024000   0.59841253   -7.5445042    843.11276  0.017460089  0.016886316         2808 
 4025000   0.61082957   -7.5200072    844.05332  0.017475224  0.016880788         2822 
 4026000   0.61476941   -7.5367993    844.56413  0.017481456  0.016875258         2864 
 4027000   0.60890524   -7.5208681    844.74171   0.01748079   0.01686973         2876 
 4028000   0.61261093    -7.551853    845.07961  0.017483441    0.0168642         2812 
 4029000   0.60282759   -7.5363295    844.82853  0.017473908  0.016858677         2852 
 4030000   0.60055654   -7.5369152    844.17187  0.017455994  0.016853149         2854 
 4031000   0.59856912   -7.5676201    843.49371  0.017437644  0.016847621         2916 
 4032000     0.607801   -7.5373562    843.70503  0.017437687  0.016842092         2853 
 4033000   0.61719598   -7.5120006    842.95104  0.017417783  0.016836567         2916 
 4034000   0.62172698   -7.5493579     843.6067   0.01742701  0.016831043         2925 
 4035000   0.60725902   -7.5283096    842.68117  0.017403576  0.016825524         2873 
 4036000   0.60068693   -7.5229265     845.9574   0.01746691   0.01682001         2870 
 4037000    0.6034547   -7.5589994    844.18198  0.017425935  0.016814497         2898 
 4038000   0.59895366    -7.545726    843.65894  0.017410825  0.016808982         2928 
 4039000   0.61269076   -7.5452831    843.72453  0.017407868   0.01680347         2896 
 4040000   0.61331851   -7.5392302    842.97465  0.017388091  0.016797951         2883 
 4041000   0.63005088   -7.5418985    844.64646  0.017418264  0.016792442         2882 
 4042000   0.60317213   -7.5293035    843.89133  0.017398386   0.01678693         2926 
 4043000    0.6066294   -7.5577252    843.92972  0.017394874  0.016781419         2900 
 4044000   0.60162794   -7.5500915    843.27212  0.017377022  0.016775909         2881 
 4045000   0.60751014   -7.5409808    843.24015  0.017372067  0.016770408         2902 
 4046000    0.6113579   -7.5750581    845.47111  0.017413724  0.016764906         2920 
 4047000   0.60072429   -7.5531609    843.84058  0.017375846  0.016759404         2915 
 4048000   0.59358412   -7.5577205    843.31113  0.017360654  0.016753892         2895 
 4049000    0.6046308   -7.5714349    842.61649   0.01734207  0.016748389         2920 
 4050000   0.60809544   -7.5697828    843.86779  0.017363535  0.016742885         2888 
 4051000   0.60782626   -7.5511084    844.21202   0.01736633  0.016737393         2907 
 4052000   0.61716291   -7.5488767    843.13413  0.017339876  0.016731902         2905 
 4053000   0.58356683   -7.5563632    843.19122  0.017336771  0.016726408         2928 
 4054000   0.60653217   -7.5509075    843.14955  0.017331638  0.016720912         2883 
 4055000   0.61297428   -7.5485988    843.26211  0.017329678  0.016715417         2910 
 4056000   0.61185894   -7.5588544    843.82007  0.017336869  0.016709932         2849 
 4057000   0.61546284   -7.5578748    842.92996  0.017314312  0.016704444         2899 
 4058000   0.60764373   -7.5459495    843.07907  0.017313107  0.016698962         2911 
 4059000   0.59727833   -7.5545956     843.3339  0.017314074  0.016693474         2935 
 4060000   0.60418314   -7.5594622    843.64009  0.017316094  0.016687997         2902 
 4061000   0.59576134    -7.551676    843.23391  0.017303495  0.016682519         2866 
 4062000   0.59543646   -7.5526424    845.46682  0.017345044  0.016677041         2940 
 4063000   0.60331646   -7.5568188    844.35534  0.017317978  0.016671564         2900 
 4064000   0.60595302   -7.5787233    844.59643   0.01731866  0.016666088         2904 
 4065000   0.60540106   -7.5515383    844.82222  0.017319029  0.016660615         2879 
 4066000   0.60944816   -7.5422686    842.84943  0.017274337  0.016655148         2937 
 4067000    0.6056706   -7.5719778    843.71631  0.017287852  0.016649678         2884 
 4068000   0.58647835   -7.5695375    843.00066  0.017268942  0.016644209         2909 
 4069000   0.59937716   -7.5633816     843.6429  0.017277851  0.016638743         2883 
 4070000   0.59884711   -7.5745785    842.46852   0.01724956  0.016633277         2904 
 4071000   0.60213995   -7.5780607     843.5107  0.017266656  0.016627807         2854 
 4072000   0.59171647    -7.559931    844.24078  0.017277357  0.016622348         2946 
 4073000   0.60261227   -7.5404689    843.13431  0.017250477   0.01661688         2832 
 4074000   0.59109404   -7.5476771    842.16203  0.017226355  0.016611414         2860 
 4075000   0.60795693   -7.5574692    842.70178  0.017233165  0.016605954         2884 
 4076000   0.60199533   -7.5475739    843.32997  0.017241781  0.016600498         2875 
 4077000   0.59627495   -7.5481269    844.08053  0.017252893  0.016595041         2937 
 4078000   0.60183553   -7.5934824    844.75679  0.017262481   0.01658958         2912 
 4079000   0.59560328   -7.5512026    844.50982  0.017253204  0.016584125         2878 
 4080000   0.59409198   -7.5511055    844.15826  0.017241794  0.016578674         2895 
 4081000   0.59899447    -7.553457    844.15235  0.017237449  0.016573228         2871 
 4082000   0.58579391   -7.5815355    842.99631  0.017209626  0.016567784         2911 
 4083000   0.60021295    -7.564541     841.0997  0.017166701  0.016562339         2915 
 4084000    0.6108396   -7.5558205    844.29928  0.017227785  0.016556899         2909 
 4085000   0.60418369   -7.5758215    844.58263  0.017229348  0.016551463         2969 
 4086000   0.59667085    -7.575138    842.54021  0.017183476  0.016546024         2983 
 4087000   0.60098076   -7.5607793    845.18555   0.01723321  0.016540592         2917 
 4088000   0.60859462    -7.573516     842.7039  0.017178406  0.016535156         2963 
 4089000   0.60145193   -7.5620361    841.66166  0.017152964  0.016529722         2870 
 4090000   0.59564704   -7.5842612    842.69806  0.017169887  0.016524283         2973 
 4091000   0.59060557   -7.5724272    843.57461  0.017183545  0.016518851         2932 
 4092000   0.61221647   -7.5887834    843.42281  0.017176255  0.016513417         2979 
 4093000   0.61227526   -7.5561028    843.66443  0.017176978  0.016507992         2964 
 4094000   0.58646048   -7.5636242    841.76294  0.017134077  0.016502575         2913 
 4095000   0.58560601   -7.5770029    842.57573  0.017146433   0.01649715         2923 
 4096000   0.59668634   -7.5791099    842.64152  0.017143586  0.016491728         2940 
 4097000   0.60048767   -7.5731929    842.99357  0.017146562  0.016486312         2990 
 4098000   0.59379332   -7.5736798    843.37489  0.017150132    0.0164809         2940 
 4099000   0.61556597   -7.5866593    843.70424  0.017152644  0.016475488         2961 
 4100000   0.60674413    -7.576062    844.56735  0.017166003   0.01647008         2978 
 4101000   0.59574109   -7.5586024    843.64857  0.017143147  0.016464672         2973 
 4102000   0.59767378   -7.5609996    842.96359  0.017125053  0.016459258         3053 
 4103000   0.59031693   -7.5708321    843.08014  0.017123246   0.01645385         2967 
 4104000   0.57920945    -7.568284    843.38937  0.017125353  0.016448448         2965 
 4105000   0.60301701   -7.5746198    843.75688  0.017128641  0.016443044         3043 
 4106000   0.60653989   -7.5557843    844.84305  0.017146514  0.016437642         3006 
 4107000   0.58425477    -7.579428    843.93601  0.017123935   0.01643225         2990 
 4108000   0.60805983   -7.5794993    842.88398  0.017098426  0.016426851         3040 
 4109000   0.59856391   -7.5846693    842.20191  0.017080431  0.016421447         3027 
 4110000   0.60355591   -7.5783428    843.10289  0.017094544  0.016416045         2969 
 4111000   0.60433892   -7.5620536    842.23603  0.017072813   0.01641064         3003 
 4112000   0.59683578   -7.5848793     843.1111  0.017086396  0.016405237         3050 
 4113000    0.6013854   -7.5847824    842.83876  0.017076723   0.01639984         3011 
 4114000   0.58980379   -7.5722476    843.51307  0.017086231  0.016394434         3019 
 4115000   0.58879385   -7.5767788    842.51872  0.017061943  0.016389032         3096 
 4116000   0.59129118   -7.5854413    843.05738  0.017068703  0.016383632         2991 
 4117000   0.59525007   -7.5586605    841.67273   0.01703653  0.016378227         3030 
 4118000   0.59149571   -7.5885386    841.62424  0.017031412   0.01637283         3075 
 4119000   0.59921491   -7.5887282    842.46411  0.017044269  0.016367433         3056 
 4120000    0.6027065   -7.5613108    842.63407  0.017043569  0.016362045         3011 
 4121000   0.59194657   -7.5921422    841.55231  0.017017559  0.016356655         3048 
 4122000   0.59158077   -7.5748668    842.82711  0.017039202  0.016351262         3023 
 4123000   0.58254739   -7.5743117    842.48991  0.017028254  0.016345881         2989 
 4124000   0.57618336   -7.5730715    842.95804  0.017033585  0.016340492         3054 
 4125000   0.58655333   -7.5733448    841.96448  0.017009383  0.016335113         3048 
 4126000   0.58682337   -7.5972122    843.05902  0.017027368   0.01632973         3017 
 4127000   0.59635695   -7.5889534    842.69307  0.017015852  0.016324343         3002 
 4128000   0.57917191   -7.5907764    842.83897  0.017014676  0.016318969         2966 
 4129000   0.57630959   -7.5708827    842.73542  0.017008465  0.016313595         3000 
 4130000   0.59281168   -7.5757507    842.45974  0.016998784  0.016308219         2993 
 4131000   0.59400799   -7.5907194    842.36718  0.016992802  0.016302847         3040 
 4132000   0.58410762   -7.5788125    842.51374  0.016991645  0.016297481         3001 
 4133000   0.58879368   -7.5821499    842.20211  0.016981251  0.016292114         3095 
 4134000   0.58903834   -7.6004043    843.41247  0.017001542  0.016286749         3066 
 4135000   0.58359621   -7.5894636    840.75994  0.016943973  0.016281386         3035 
 4136000    0.5856837   -7.5715142    843.98241  0.017004803  0.016276018         3067 
 4137000   0.59803715   -7.5888772    842.68569  0.016974573  0.016270657         3047 
 4138000   0.58388362   -7.5807303    843.39479  0.016984751  0.016265295         3096 
 4139000   0.59053805    -7.589967    842.07006  0.016953976  0.016259938         3074 
 4140000   0.57342411      -7.5946    842.95389  0.016967671  0.016254583         3107 
 4141000   0.59621641   -7.5971936    842.03733  0.016945128  0.016249222         3087 
 4142000   0.59290122   -7.5919299    841.32817   0.01692677  0.016243863         3130 
 4143000   0.58445312   -7.5879121    842.42719   0.01694479  0.016238505         3130 
 4144000   0.59026869   -7.6084272    842.37891   0.01693973  0.016233149         3072 
 4145000   0.58030743   -7.5933369    840.84526   0.01690481  0.016227799         3118 
 4146000   0.58081883   -7.5897027    842.18452  0.016927651  0.016222444         3103 
 4147000   0.59482107   -7.6052233    842.64707  0.016932865   0.01621708         3154 
 4148000   0.58542155   -7.5846872    841.48366  0.016905409  0.016211721         3095 
 4149000   0.59860691   -7.6052529    842.12157  0.016914147  0.016206375         3094 
 4150000   0.58855257   -7.6051109    842.26035  0.016912859  0.016201032         3093 
 4151000    0.5883953   -7.5912245    842.06525  0.016904867  0.016195689         3131 
 4152000   0.58248171   -7.5913453    841.66916  0.016892846  0.016190343         3119 
 4153000   0.58505692   -7.5938664    843.52625  0.016926042  0.016185006         3127 
 4154000   0.57324342   -7.5827624    841.39685   0.01687925   0.01617967         3116 
 4155000   0.58002014   -7.5966449    842.01694  0.016887624   0.01617433         3086 
 4156000   0.57004162   -7.5742181    842.14739  0.016886176  0.016168993         3114 
 4157000   0.57062202   -7.5900146    841.05913  0.016860299  0.016163653         3139 
 4158000   0.59643502   -7.6013981    843.02053  0.016895553  0.016158315         3108 
 4159000   0.58691819   -7.6054711    843.06555  0.016892393  0.016152983         3175 
 4160000   0.57265686    -7.592646    840.62141  0.016839371   0.01614765         3146 
 4161000   0.59015328   -7.5863609    842.47906  0.016872528  0.016142322         3129 
 4162000    0.5852312   -7.6259814    841.38109   0.01684649  0.016136992         3122 
 4163000   0.57286166   -7.6007913    840.41519  0.016823108  0.016131662         3140 
 4164000   0.58785723   -7.6019121    842.39587  0.016858707  0.016126337         3100 
 4165000   0.58530047   -7.5980533    842.28651  0.016852471  0.016121019         3067 
 4166000   0.60025051   -7.6047494    841.31496  0.016828992  0.016115697         3075 
 4167000   0.57938268     -7.58894    842.50957  0.016848844   0.01611038         3110 
 4168000   0.58228534   -7.6045235    841.10414  0.016816701  0.016105064         3101 
 4169000   0.59643671    -7.610235    843.07654  0.016852094  0.016099752         3118 
 4170000   0.59566049   -7.5965099    842.33979  0.016833329  0.016094433         3107 
 4171000   0.58375128   -7.6240648    841.19268  0.016806375  0.016089123         3063 
 4172000   0.59280059   -7.5983953    841.97224  0.016817918  0.016083808         3098 
 4173000    0.5796158   -7.6111531    840.50097  0.016784507  0.016078493         3091 
 4174000   0.59080084   -7.6062025    841.65446  0.016803515  0.016073188         3097 
 4175000   0.58257878   -7.5951251    841.20208  0.016790461  0.016067878         3143 
 4176000   0.58282948   -7.6134232    842.60419   0.01681442  0.016062579         3089 
 4177000   0.58524309    -7.594195    842.61048  0.016810519  0.016057281         3111 
 4178000   0.56752157   -7.6088734    840.80943  0.016770573  0.016051982         3113 
 4179000   0.59714324    -7.609419    840.91699  0.016768704   0.01604668         3108 
 4180000   0.58608597   -7.5857859    841.80063  0.016782309  0.016041384         3119 
 4181000   0.58274364    -7.598171    841.28401  0.016767998  0.016036092         3123 
 4182000   0.59037041   -7.5741656    842.39476  0.016786122  0.016030802         3040 
 4183000     0.579698   -7.6100485    841.13038  0.016756921  0.016025513         3095 
 4184000   0.57832307    -7.621418    840.08189  0.016732032  0.016020216         3094 
 4185000   0.58455461   -7.5951874    841.59442  0.016758153  0.016014929         3094 
 4186000   0.57362076   -7.6193324    840.58242  0.016734003  0.016009645         3098 
 4187000   0.58296651   -7.6218781    842.53276  0.016768823  0.016004355         3102 
 4188000   0.57439968   -7.6034523    840.84157  0.016731168  0.015999072         3119 
 4189000   0.58087947   -7.5978409    842.30068    0.0167562  0.015993786         3139 
 4190000   0.59070092   -7.6056333    841.44417  0.016735166  0.015988502         3123 
 4191000   0.58445943   -7.6006015     840.3855  0.016710123  0.015983223         3104 
 4192000   0.59035978   -7.5928036     842.9891  0.016757894  0.015977944         3082 
 4193000   0.58723644   -7.6058514     841.7811  0.016729889  0.015972671         3105 
 4194000   0.58765498    -7.627014    841.41193  0.016718565  0.015967399         3058 
 4195000     0.581285   -7.5882181     840.5734  0.016697922  0.015962127         3113 
 4196000   0.57677569    -7.610141    841.21662  0.016706717  0.015956855         3119 
 4197000   0.57959582    -7.618461    840.12723  0.016681106   0.01595158         3068 
 4198000   0.58022403   -7.5858092    840.42104  0.016682965  0.015946312         3095 
 4199000   0.57507444   -7.6073759    840.03183  0.016671268  0.015941047         3116 
 4200000   0.57286932   -7.6237986    841.74486  0.016701287   0.01593578         3119 
 4201000    0.5858125   -7.6076272    841.61136  0.016694663  0.015930517         3153 
 4202000   0.58318181   -7.6139267    840.52093  0.016669065  0.015925257         3100 
 4203000   0.58156351   -7.6278777    842.15169  0.016697432      0.01592         3127 
 4204000   0.56690208   -7.5794083    840.94786  0.016669598  0.015914749         3150 
 4205000   0.56898042   -7.5944015     842.4678  0.016695755   0.01590949         3122 
 4206000   0.57514589   -7.5902085    841.48097  0.016672234  0.015904237         3139 
 4207000   0.57856625    -7.593966    842.26119  0.016683725   0.01589899         3126 
 4208000   0.58163819   -7.6206639    841.37294   0.01666217  0.015893743         3139 
 4209000   0.56470544   -7.6068524    843.00935   0.01669061  0.015888497         3136 
 4210000   0.56607266   -7.6043534    841.02663    0.0166474  0.015883255         3153 
 4211000   0.57933198   -7.6209392    842.32416  0.016669124  0.015878009         3114 
 4212000   0.59210162    -7.608307    841.40968  0.016647073  0.015872771         3107 
 4213000   0.58838582   -7.6374098    841.22835  0.016639535  0.015867533         3148 
 4214000   0.57613825   -7.6155168    841.10068  0.016633062  0.015862297         3096 
 4215000   0.58176187   -7.6155151     841.3842  0.016634721  0.015857062         3081 
 4216000   0.57161341   -7.6099535    840.85913  0.016620397  0.015851833         3086 
 4217000   0.57271817   -7.6105823    840.88454  0.016616958  0.015846603         3121 
 4218000    0.5755485   -7.5956032    841.17041  0.016618666  0.015841374         3051 
 4219000   0.59111543   -7.5932377    841.56763  0.016622573  0.015836148         3114 
 4220000    0.5772253   -7.6168837    840.69511  0.016601404  0.015830919         3105 
 4221000    0.5716789   -7.6150788    841.89717  0.016621203  0.015825694         3109 
 4222000    0.5863161   -7.6031946    841.67028  0.016612788  0.015820467         3134 
 4223000   0.57337154   -7.6247463    841.25981  0.016600754  0.015815243         3127 
 4224000   0.57788766   -7.6071562    841.72658  0.016606033  0.015810023         3125 
 4225000   0.57106042   -7.6352047    842.55749  0.016618491  0.015804806         3138 
 4226000   0.56878978   -7.6254488    839.69964  0.016558204  0.015799587         3123 
 4227000   0.58342657   -7.6064731    841.58129  0.016591383  0.015794369         3119 
 4228000    0.5708718   -7.6329891    841.12336  0.016578433  0.015789158         3086 
 4229000   0.56796046   -7.6058216    840.14964  0.016555325  0.015783942         3075 
 4230000   0.56935304   -7.6226338    841.44024  0.016576837   0.01577873         3083 
 4231000   0.57442417   -7.6220466    841.15373  0.016567276  0.015773521         3089 
 4232000   0.58163967   -7.6168287    840.58054  0.016552074  0.015768309         3102 
 4233000   0.56614331   -7.6070646    839.91079  0.016534979  0.015763102         3111 
 4234000   0.58139417   -7.6332574     840.9374  0.016551279  0.015757906         3134 
 4235000   0.57692977   -7.5999176    841.45824   0.01655762  0.015752706         3138 
 4236000   0.56880155   -7.6207086     840.7845  0.016540457  0.015747509         3086 
 4237000   0.58012027   -7.6185665    841.41013  0.016548858  0.015742313         3076 
 4238000   0.57910553   -7.6268919     841.2676   0.01654215  0.015737118         3077 
 4239000   0.56805411   -7.6204691    841.10749    0.0165351   0.01573193         3076 
 4240000   0.57483651   -7.6338274    841.72658  0.016543368   0.01572674         3054 
 4241000   0.57975154   -7.6299353    840.76625  0.016520598  0.015721546         3099 
 4242000   0.58456935   -7.6321783    840.71378  0.016515672  0.015716351         3092 
 4243000   0.57856881   -7.6253946    838.88305  0.016475824   0.01571116         3093 
 4244000   0.56666063    -7.633364    839.45212  0.016483116  0.015705969         3180 
 4245000   0.56679191    -7.609904    838.92984   0.01646898  0.015700771         3117 
 4246000   0.57893286   -7.6393998    839.21325  0.016470664  0.015695586         3135 
 4247000    0.5799836   -7.6150803     841.0705  0.016503228  0.015690398         3102 
 4248000   0.56950492   -7.6251071    839.55214  0.016469557  0.015685213         3128 
 4249000   0.57363177    -7.621485    840.65364  0.016487284  0.015680028         3140 
 4250000   0.58751468    -7.617247    840.13169   0.01647317  0.015674846         3166 
 4251000   0.58287243   -7.6161298    840.80279  0.016482451  0.015669664         3089 
 4252000   0.56185161   -7.6148867    840.81941    0.0164789  0.015664488         3083 
 4253000   0.57322581   -7.6306796    840.18622  0.016462619  0.015659313         3121 
 4254000   0.56984751   -7.6302803    841.48911  0.016484272  0.015654137         3090 
 4255000   0.57374346   -7.6170499    839.74093   0.01644616  0.015648965         3159 
 4256000   0.57557221   -7.6372464    839.44418  0.016436485  0.015643796         3116 
 4257000    0.5719056    -7.629547    840.71245  0.016457451  0.015638626         3026 
 4258000   0.55539329   -7.6357775    840.57494  0.016450895  0.015633462         3148 
 4259000   0.57435864   -7.6174588    840.39206  0.016443454  0.015628296         3131 
 4260000    0.5841305   -7.6450925    841.01727  0.016451825  0.015623132         3089 
 4261000   0.58146402   -7.6416935     840.3464  0.016434843   0.01561797         3092 
 4262000   0.56476487   -7.6314461    841.07296  0.016445193  0.015612812         3122 
 4263000   0.56540885   -7.6378332    840.45549  0.016429265   0.01560766         3147 
 4264000   0.57257782   -7.6250234    841.30991   0.01644211  0.015602502         3103 
 4265000   0.56750628   -7.6191067    839.65783  0.016405976  0.015597344         3115 
 4266000   0.58073107   -7.6287447    840.36321  0.016415909  0.015592188         3151 
 4267000   0.55540424   -7.6442618    840.29454  0.016410721  0.015587034         3109 
 4268000    0.5820973    -7.623818    840.64769  0.016413771  0.015581883         3099 
 4269000   0.56405471   -7.6539915    839.54313  0.016388364  0.015576738         3097 
 4270000   0.56181388     -7.63548    839.37848  0.016381313   0.01557159         3094 
 4271000   0.58322973    -7.626051    839.92062  0.016388056  0.015566449         3107 
 4272000   0.57660023   -7.6463205    839.95783  0.016384945    0.0155613         3087 
 4273000   0.56881711   -7.6466899    840.37307  0.016389209  0.015556156         3131 
 4274000   0.56264654   -7.6554857    838.96083  0.016357839  0.015551018         3131 
 4275000   0.56986982   -7.6377594    841.33054  0.016400205  0.015545878         3103 
 4276000    0.5813211   -7.6403613      840.594  0.016382016  0.015540743         3120 
 4277000   0.56746339   -7.6308017    841.08429  0.016387739   0.01553561         3146 
 4278000   0.56810532   -7.6267773    841.12998  0.016384798  0.015530479         3132 
 4279000   0.57450574   -7.6367016    840.24113  0.016363658  0.015525351         3129 
 4280000    0.5739433   -7.6382098    840.45335  0.016363967  0.015520228         3107 
 4281000   0.57196049   -7.6477194    840.03576  0.016352016  0.015515106         3079 
 4282000   0.55518175    -7.640183     839.4665  0.016337119  0.015509983         3128 
 4283000   0.57479743   -7.6370709    839.58948  0.016335697   0.01550486         3102 
 4284000   0.56361069   -7.6404394    839.25491  0.016325376  0.015499738         3122 
 4285000   0.55173988   -7.6416018    840.22639  0.016340459  0.015494616         3147 
 4286000   0.57084714   -7.6318152    840.88934  0.016349536  0.015489497         3043 
 4287000   0.56409292   -7.6441054    840.09053  0.016330195  0.015484383         3109 
 4288000   0.56515616   -7.6288128    840.90682   0.01634225   0.01547927         3152 
 4289000   0.55111939   -7.6374738    839.37578  0.016308692  0.015474156         3121 
 4290000   0.54900181   -7.6517111    840.65554   0.01632975  0.015469047         3153 
 4291000     0.566839   -7.6452579    839.05861  0.016294931  0.015463938         3107 
 4292000    0.5692478   -7.6520202    839.78779  0.016305293  0.015458831         3146 
 4293000   0.56173249      -7.6462    841.45574  0.016333872  0.015453724         3160 
 4294000   0.56855117   -7.6203467    839.29028  0.016288043  0.015448618         3109 
 4295000   0.56001901     -7.63868    838.71222  0.016273035  0.015443513         3132 
 4296000   0.56041662   -7.6397561    841.75507  0.016328272  0.015438412         3133 
 4297000   0.56231223   -7.6196288    839.83677   0.01628727  0.015433319         3137 
 4298000    0.5717879   -7.6562463    840.36001  0.016293625   0.01542822         3134 
 4299000   0.55549214   -7.6463559    839.39202  0.016271071  0.015423123         3115 
 4300000   0.57447495   -7.6056777    838.13594  0.016242945  0.015418033         3132 
 4301000   0.57203589   -7.6505231    840.39445  0.016282927  0.015412943         3091 
 4302000   0.56121751   -7.6341837    840.79318  0.016286866  0.015407856         3130 
 4303000    0.5734385   -7.6420391    840.39354  0.016275342  0.015402773         3157 
 4304000   0.56715709   -7.6463708    841.48368  0.016292667  0.015397687         3161 
 4305000   0.56726613   -7.6351304     839.7382  0.016255095  0.015392607         3118 
 4306000   0.55685563   -7.6482931    840.76132   0.01627112  0.015387529         3104 
 4307000   0.57324746   -7.6303171    839.49078  0.016242759   0.01538245         3106 
 4308000    0.5691226   -7.6354343    839.97865  0.016248426  0.015377373         3139 
 4309000    0.5526865    -7.639649    839.39357  0.016233341  0.015372307         3151 
 4310000   0.56711106   -7.6305752     839.9891  0.016241089  0.015367232         3071 
 4311000   0.55342042   -7.6493027    840.33366  0.016243982  0.015362159         3158 
 4312000   0.56053683   -7.6496715    840.76139  0.016248481   0.01535709         3113 
 4313000    0.5557778   -7.6438003    839.07921  0.016212211  0.015352017         3172 
 4314000   0.56554327   -7.6283303    839.67412  0.016219945   0.01534695         3152 
 4315000   0.56586163   -7.6485248    841.37187  0.016248974  0.015341888         3117 
 4316000   0.55354953   -7.6459184    839.96282  0.016218003  0.015336821         3137 
 4317000   0.55551788   -7.6430524    840.08997  0.016216701  0.015331757         3115 
 4318000   0.56898187   -7.6441962    838.61085    0.0161844  0.015326702         3087 
 4319000   0.56053682   -7.6213196    840.11966  0.016209764  0.015321645         3112 
 4320000   0.54875132   -7.6576519    839.08255  0.016186006  0.015316588         3137 
 4321000   0.55680513   -7.6419022    838.96107  0.016179917  0.015311532         3102 
 4322000   0.55139307   -7.6453616    838.61132   0.01616943  0.015306476         3159 
 4323000   0.56587866   -7.6477066    839.63059  0.016185338  0.015301422         3122 
 4324000   0.56495044   -7.6417186     839.3556  0.016176295  0.015296367         3118 
 4325000   0.55793374   -7.6634841    839.89008  0.016182853  0.015291317         3133 
 4326000   0.56708919   -7.6504295    839.56818  0.016172911  0.015286268         3096 
 4327000   0.55341918   -7.6610135    839.41913  0.016166303  0.015281221         3139 
 4328000   0.56820475   -7.6588467    840.20061  0.016177615  0.015276182         3179 
 4329000   0.57288976   -7.6404275     839.1834  0.016154297   0.01527114         3146 
 4330000   0.55580395   -7.6507995    839.58277  0.016158252    0.0152661         3141 
 4331000    0.5633434   -7.6501349    838.73161  0.016138144   0.01526106         3137 
 4332000   0.55453892   -7.6393087    838.84232  0.016136548  0.015256024         3183 
 4333000   0.55883558   -7.6225514    839.73797   0.01615005  0.015250988         3132 
 4334000   0.54371986   -7.6500057    838.68663  0.016126108  0.015245953         3154 
 4335000   0.55985998   -7.6411777    839.28291  0.016133851  0.015240916         3130 
 4336000   0.56214124   -7.6598917    840.27739  0.016149243   0.01523588         3144 
 4337000   0.55513038   -7.6417058    839.66109  0.016133677  0.015230855         3136 
 4338000   0.56594985   -7.6357202    839.75304  0.016131724  0.015225831         3132 
 4339000   0.54281493   -7.6735776    839.93055  0.016131416  0.015220812         3170 
 4340000   0.55798099   -7.6522475    839.04244  0.016110646   0.01521579         3133 
 4341000   0.55046788   -7.6549469    838.46572  0.016095864  0.015210771         3171 
 4342000    0.5523542   -7.6699328     840.0076  0.016121749  0.015205752         3153 
 4343000   0.54688259   -7.6533481    839.20457  0.016102628  0.015200733         3141 
 4344000   0.56029268   -7.6596024    840.18475  0.016117725  0.015195713         3152 
 4345000   0.56942596   -7.6751192    838.57422  0.016083127  0.015190699         3146 
 4346000    0.5542544   -7.6409519    838.59094  0.016079746  0.015185687         3176 
 4347000   0.56434003   -7.6657943    838.30946  0.016070651  0.015180678         3148 
 4348000   0.56106083   -7.6540508    838.00181  0.016061059  0.015175674         3156 
 4349000   0.54546109   -7.6595136    839.02235  0.016076921  0.015170672         3182 
 4350000   0.54337198   -7.6496673    839.13117   0.01607531  0.015165669         3196 
 4351000   0.55952504   -7.6573593    839.71659  0.016082827  0.015160668         3155 
 4352000   0.55597929   -7.6492967    840.06333  0.016085771  0.015155668         3151 
 4353000   0.55897773   -7.6496933     838.7448  0.016056834  0.015150669         3190 
 4354000   0.55859468   -7.6488746    839.81983  0.016073722  0.015145666         3151 
 4355000   0.54760049   -7.6476581     838.5573  0.016045873   0.01514067         3178 
 4356000   0.55909234   -7.6651522    838.51937  0.016041463  0.015135674         3139 
 4357000   0.55056136   -7.6600564    838.89354  0.016044938  0.015130687         3172 
 4358000   0.55150773   -7.6393259    838.05179   0.01602516  0.015125697         3148 
 4359000   0.54763973   -7.6633507    838.69173  0.016033718  0.015120709         3157 
 4360000   0.55713777   -7.6552413    837.57193  0.016008638  0.015115724         3143 
 4361000   0.55292712   -7.6524418    838.09152  0.016014896  0.015110737         3168 
 4362000   0.54938099   -7.6726457    840.06908  0.016049004  0.015105757         3142 
 4363000   0.54969724   -7.6685633    840.82972  0.016059854  0.015100771         3114 
 4364000   0.54008882   -7.6619008    839.31026  0.016027159  0.015095793         3105 
 4365000   0.55667136   -7.6573821    840.93831  0.016054569  0.015090818         3153 
 4366000   0.54788119   -7.6377658      839.373  0.016021015  0.015085846         3221 
 4367000   0.53966409   -7.6740716    839.98363  0.016028998  0.015080868         3160 
 4368000   0.55410563   -7.6631298    839.02413  0.016007023    0.0150759         3151 
 4369000   0.55419245   -7.6550103    838.74726  0.015998078  0.015070925         3180 
 4370000   0.54538984   -7.6440119    838.76914  0.015994835  0.015065957         3154 
 4371000   0.54607767   -7.6728369    839.33838  0.016002028  0.015060988         3167 
 4372000   0.54606092    -7.659119    838.41576  0.015980782  0.015056025         3137 
 4373000   0.53928632   -7.6613604    837.91604  0.015967605  0.015051068         3128 
 4374000   0.55646512   -7.6697109    839.07696  0.015986072   0.01504611         3132 
 4375000   0.54895586   -7.6674183    839.68857  0.015994068  0.015041153         3135 
 4376000   0.53675909   -7.6605557    837.58772  0.015950406  0.015036196         3197 
 4377000   0.54861247   -7.6586772    839.01552  0.015973946  0.015031241         3156 
 4378000     0.551416   -7.6363268    840.23103  0.015993434  0.015026289         3185 
 4379000   0.56496353   -7.6746339    838.95664  0.015965529  0.015021337         3166 
 4380000   0.55530009   -7.6675829     839.0234  0.015963154  0.015016389         3156 
 4381000   0.55589038   -7.6712002    839.23462  0.015963528  0.015011444         3174 
 4382000   0.55060863   -7.6569171    838.42985  0.015944581  0.015006499         3161 
 4383000   0.53057193   -7.6842923    839.69694  0.015965034  0.015001556         3170 
 4384000   0.54948277   -7.6612899    837.70629  0.015923553  0.014996613         3131 
 4385000    0.5576591    -7.666278    838.26151  0.015930473  0.014991673         3144 
 4386000   0.54787242   -7.6612786    838.40074  0.015929487  0.014986742         3100 
 4387000   0.54898666   -7.6508558    839.66561  0.015949882  0.014981808         3161 
 4388000   0.54977946   -7.6736578    837.55722  0.015906207  0.014976868         3158 
 4389000   0.54313184   -7.6663264    839.08552    0.0159316  0.014971934         3198 
 4390000    0.5569876   -7.6642061    840.38077  0.015952558  0.014967007         3150 
 4391000   0.54216313   -7.6634114    839.47135  0.015931666  0.014962078         3158 
 4392000   0.55912617   -7.6582549    838.30023  0.015905818  0.014957156         3087 
 4393000   0.54352863   -7.6819741    839.81979  0.015931023  0.014952231         3141 
 4394000    0.5473046   -7.6758968    839.50624   0.01592145  0.014947313         3119 
 4395000   0.54636222   -7.6710524    839.97325  0.015926683  0.014942393         3151 
 4396000   0.56071458   -7.6619178    837.98826  0.015885431  0.014937473         3129 
 4397000   0.54573812   -7.6705543    839.35887  0.015907795  0.014932555         3156 
 4398000   0.54384084    -7.643982    838.74014  0.015892454  0.014927638         3136 
 4399000   0.54959501   -7.6668175    838.81602  0.015890278  0.014922721         3171 
 4400000   0.55562942   -7.6703429    838.84771  0.015887267  0.014917806         3144 
 4401000   0.54746755   -7.6863907    838.55863  0.015878183   0.01491289         3160 
 4402000   0.54325098   -7.6596425    838.96349  0.015882241  0.014907978         3135 
 4403000   0.55554472   -7.6680107    838.80346  0.015875605   0.01490307         3163 
 4404000   0.54649744   -7.6670587    837.93249  0.015855519  0.014898169         3181 
 4405000      0.55279   -7.6773262    838.82654  0.015868833  0.014893262         3157 
 4406000   0.53906519   -7.6576327    837.95433  0.015848735   0.01488836         3133 
 4407000   0.55350151   -7.6684019     839.8105  0.015880238  0.014883465         3134 
 4408000    0.5334193   -7.6689408    839.09643  0.015863136  0.014878571         3132 
 4409000   0.53983183   -7.6547053    837.67914   0.01583275  0.014873677         3127 
 4410000   0.54522907    -7.683836    838.88436  0.015851934  0.014868784         3106 
 4411000   0.53742618   -7.6742458    838.84471  0.015847592  0.014863896         3117 
 4412000   0.55994849   -7.6623584    839.72584  0.015860642  0.014859008         3133 
 4413000   0.54169397   -7.6662184    837.81576  0.015820979  0.014854118         3147 
 4414000   0.54131317   -7.6757742    839.26534  0.015844762  0.014849231         3123 
 4415000   0.54821501   -7.6514609    838.31783  0.015823289  0.014844344         3144 
 4416000   0.55585528   -7.6612691    839.33648  0.015838928  0.014839462         3158 
 4417000   0.53658894   -7.6649638    837.34885  0.015797843  0.014834579         3156 
 4418000   0.54495117   -7.6669063     838.5872  0.015817625  0.014829697         3144 
 4419000   0.54888498   -7.6692299    839.35479  0.015828521  0.014824816         3192 
 4420000   0.54582546   -7.6917267    839.64876  0.015830482  0.014819941         3167 
 4421000   0.54445581   -7.6698899    838.52595  0.015805737  0.014815067         3218 
 4422000   0.53497644   -7.6721473    838.69562   0.01580536  0.014810191         3195 
 4423000   0.54851771   -7.6793953    838.78865  0.015803539  0.014805319         3166 
 4424000   0.53777073   -7.6650279    837.80054  0.015781354  0.014800452         3204 
 4425000   0.54399612   -7.6788023    838.98465  0.015800088  0.014795583         3160 
 4426000   0.55129367   -7.6683205    838.93569  0.015795596  0.014790716         3242 
 4427000   0.54190567    -7.682553    839.45301  0.015801766  0.014785849         3219 
 4428000   0.53614736   -7.6568185    838.74374  0.015784849  0.014780985         3230 
 4429000   0.54452385   -7.6693546     838.0257  0.015767775  0.014776123         3196 
 4430000   0.53544414   -7.6777209    839.23819  0.015787024  0.014771261         3196 
 4431000   0.54679812   -7.6818598    839.14581  0.015781724  0.014766401         3170 
 4432000   0.53847375   -7.6717917    838.63557  0.015768569  0.014761541         3170 
 4433000   0.54312068   -7.6703408    837.96996  0.015752499  0.014756687         3161 
 4434000   0.54391697   -7.6799778    839.06405  0.015769509  0.014751838         3158 
 4435000   0.55229076   -7.6960875    837.44319  0.015735498  0.014746984         3214 
 4436000   0.55156778   -7.6813016    838.33417  0.015748688  0.014742132         3223 
 4437000   0.54391371   -7.6744021    838.18762  0.015742386  0.014737278         3222 
 4438000   0.54697846    -7.663421    839.66776  0.015766632  0.014732436         3191 
 4439000   0.53816966   -7.6868241    837.89558  0.015729811  0.014727595         3197 
 4440000   0.54900432   -7.6579886    838.14282  0.015730909  0.014722749         3169 
 4441000   0.54201033    -7.685436    838.12892  0.015727106  0.014717909         3195 
 4442000   0.54866872   -7.6856487    837.35621  0.015709069   0.01471307         3160 
 4443000   0.54540847   -7.6819628     837.2928  0.015704344  0.014708229         3191 
 4444000   0.53967909   -7.6721307    837.48639   0.01570444  0.014703389         3149 
 4445000   0.54102685    -7.671942     837.9324  0.015709269  0.014698556         3232 
 4446000   0.54056559   -7.6602968    836.93736  0.015687085  0.014693723         3216 
 4447000   0.53724383   -7.6820387    839.15018  0.015725024   0.01468889         3145 
 4448000    0.5285004   -7.6761365    836.85103  0.015678414  0.014684061         3186 
 4449000   0.53770722   -7.6921814    839.39793  0.015722596  0.014679229         3176 
 4450000   0.55286119   -7.6826172    838.88054  0.015709373  0.014674403         3171 
 4451000   0.54033604   -7.6676905    837.95354  0.015688488  0.014669578         3176 
 4452000   0.52467196   -7.6735771    837.74758  0.015681109  0.014664757         3197 
 4453000   0.53898952   -7.6752074    837.86324  0.015679752  0.014659933         3180 
 4454000   0.53818354   -7.7043721    838.76962   0.01569319  0.014655115         3185 
 4455000   0.54290633   -7.6790928    838.21477  0.015679289  0.014650298         3218 
 4456000   0.53621648   -7.6886864     837.0218   0.01565346  0.014645481         3210 
 4457000   0.53762418   -7.6936286    837.75078  0.015663577  0.014640668         3185 
 4458000   0.53190683   -7.6864801    836.35194  0.015633915  0.014635856         3192 
 4459000   0.53619499   -7.6855997    837.14348  0.015645202  0.014631045         3164 
 4460000   0.54736813   -7.6823831    837.14659  0.015641752  0.014626238         3186 
 4461000   0.53163936    -7.701974    838.04182  0.015654969  0.014621434         3159 
 4462000   0.54373156   -7.6714699    837.80669   0.01564707   0.01461663         3115 
 4463000   0.53672688   -7.6870242    837.29496  0.015634008  0.014611831         3221 
 4464000    0.5409274   -7.6830249    837.50147  0.015634361  0.014607029         3181 
 4465000   0.52487211   -7.7051353    837.96763   0.01563956  0.014602232         3198 
 4466000   0.53891341   -7.6978339    838.52427  0.015646445  0.014597438         3176 
 4467000   0.54280375   -7.6773159    839.75777  0.015665953  0.014592646         3190 
 4468000   0.54112446   -7.6818203    838.98211   0.01564798  0.014587856         3156 
 4469000   0.54529332   -7.6798933    838.60349  0.015637419  0.014583068         3173 
 4470000   0.53917417   -7.6659195    837.09621  0.015605821  0.014578281         3237 
 4471000   0.53431788   -7.6914759     836.4285  0.015589885  0.014573494         3162 
 4472000   0.53174368   -7.7062994    839.32975  0.015640462   0.01456871         3178 
 4473000   0.53802067   -7.6945513    838.16907  0.015615341  0.014563926         3215 
 4474000   0.53961427   -7.6926392    838.11446  0.015610834  0.014559138         3199 
 4475000   0.52313703   -7.7016234    838.55622  0.015615572  0.014554355         3206 
 4476000   0.53645537   -7.6886672    838.64472  0.015613731  0.014549574         3222 
 4477000   0.51465883   -7.6975817    838.65913  0.015610512  0.014544791         3220 
 4478000   0.53932946   -7.6909121    837.57834  0.015586913  0.014540013         3215 
 4479000   0.54136844   -7.7033617    837.55903  0.015583073  0.014535239         3204 
 4480000   0.53344078   -7.6871321    837.85153  0.015585036  0.014530468         3174 
 4481000   0.53018243   -7.6920675    838.34361  0.015590709  0.014525693         3169 
 4482000   0.53145955   -7.6874142    838.67873  0.015593461  0.014520922         3184 
 4483000   0.53854928   -7.6992907    837.84077  0.015574406  0.014516155         3154 
 4484000   0.54261671    -7.691259    838.33975  0.015580206  0.014511387         3179 
 4485000   0.53623326   -7.6816393    838.00209  0.015570459  0.014506622         3209 
 4486000   0.52435146   -7.6826727    838.20617  0.015570779  0.014501857         3218 
 4487000   0.52606188   -7.6925288    837.68387  0.015557608  0.014497094         3185 
 4488000    0.5395341   -7.6912271    837.57241  0.015552072   0.01449233         3198 
 4489000   0.53142635   -7.6949707    838.38108   0.01556362  0.014487573         3190 
 4490000   0.52873626   -7.7119093    838.55194  0.015563325  0.014482817         3212 
 4491000   0.52735071   -7.6934562    837.10475  0.015533006  0.014478063         3162 
 4492000   0.53759028   -7.6845222    837.32105  0.015533561  0.014473307         3229 
 4493000   0.53172819   -7.6812395    836.37568  0.015512569  0.014468559         3187 
 4494000   0.52596721   -7.6805597     837.4018  0.015528145  0.014463808         3206 
 4495000   0.54194649   -7.6748587    838.34788   0.01554223  0.014459059         3187 
 4496000   0.53203671   -7.6929708    839.07297  0.015552213  0.014454312         3208 
 4497000   0.53640747   -7.6925235    837.94045  0.015527768  0.014449567         3177 
 4498000   0.52879834   -7.6979834    836.68191  0.015500999  0.014444824         3201 
 4499000   0.52839435   -7.6916783    838.74399  0.015535748  0.014440083         3127 
 4500000   0.52435098   -7.6903774    836.06603  0.015482704  0.014435345         3188 
 4501000   0.53271605   -7.6984418    836.45464  0.015486459  0.014430606         3204 
 4502000     0.534782   -7.6865627    837.91042  0.015509966   0.01442587         3181 
 4503000   0.52687093   -7.6977959    836.47822  0.015480017  0.014421138         3210 
 4504000   0.53927029   -7.6981185    838.06954  0.015506023  0.014416409         3190 
 4505000    0.5405435   -7.6688976     836.6971  0.015477194  0.014411677         3185 
 4506000   0.53942884   -7.6936455     837.7501  0.015493233  0.014406954         3168 
 4507000   0.52553912   -7.6918398    836.17037  0.015460587  0.014402235         3204 
 4508000   0.52269719   -7.6922525    837.66242  0.015484739  0.014397512         3208 
 4509000   0.52691174   -7.6935041     838.6834  0.015500174  0.014392792         3215 
 4510000   0.53962482   -7.6890646    836.32926  0.015453238  0.014388068         3189 
 4511000   0.53283669   -7.7035273    837.25449  0.015466905  0.014383349         3182 
 4512000   0.52553517   -7.6943931    837.18965  0.015462279  0.014378633         3182 
 4513000   0.53764423   -7.7027654    837.02031  0.015455726   0.01437392         3198 
 4514000   0.53314984   -7.6925739    835.29163  0.015420389  0.014369208         3158 
 4515000   0.53441385   -7.6934258    837.25875  0.015453281  0.014364495         3240 
 4516000   0.52998916   -7.6993551    837.63341  0.015456772  0.014359786         3171 
 4517000   0.53725092   -7.6801488    837.64773  0.015453615  0.014355078         3143 
 4518000    0.5269549   -7.6928734    838.52948  0.015466458  0.014350373         3187 
 4519000   0.53189346   -7.6795823     837.1777  0.015438108   0.01434567         3186 
 4520000   0.53336214   -7.6899871      837.365  0.015438145  0.014340968         3127 
 4521000   0.51714126   -7.6968331    837.57839  0.015438664  0.014336265         3182 
 4522000   0.52026947   -7.7010443    836.73175  0.015419647  0.014331565         3183 
 4523000   0.53536263   -7.6933105    837.31787  0.015427037  0.014326863         3174 
 4524000   0.53540543   -7.7034065    836.42322  0.015407147  0.014322167         3219 
 4525000   0.53697803   -7.7041093    835.99675  0.015395889   0.01431747         3172 
 4526000   0.53386621   -7.6944165    837.04582  0.015411803  0.014312776         3190 
 4527000   0.53471095   -7.7163584    837.79661  0.015422219  0.014308085         3199 
 4528000   0.53258968   -7.6950432    837.55842  0.015414429  0.014303396         3177 
 4529000   0.53264834   -7.7020455    838.03476   0.01541979  0.014298707         3186 
 4530000   0.52014391   -7.7054781    837.30919  0.015403039  0.014294018         3173 
 4531000   0.52514807   -7.6913701    837.51473   0.01540342  0.014289329         3208 
 4532000   0.52750742   -7.6881506    836.39721  0.015379472  0.014284644         3187 
 4533000   0.53046645   -7.7058036    838.55209  0.015415694  0.014279962         3172 
 4534000   0.51494337   -7.7058786    837.77342  0.015397982  0.014275287         3202 
 4535000   0.52391657    -7.690387    836.14452  0.015364655   0.01427061         3195 
 4536000   0.52799387   -7.7026587    837.66616  0.015389223  0.014265934         3191 
 4537000   0.52323511   -7.7129633    837.26681  0.015378496  0.014261258         3140 
 4538000   0.53872843   -7.6903712    835.92063  0.015350386  0.014256591         3197 
 4539000   0.51827465   -7.6960194    837.64944  0.015378744  0.014251922         3183 
 4540000   0.52379785   -7.7026185    835.94223   0.01534402  0.014247256         3229 
 4541000   0.52389086   -7.6812718    836.60379  0.015352782   0.01424259         3212 
 4542000   0.52694931   -7.6986842    838.37547  0.015381907  0.014237929         3173 
 4543000   0.51947509   -7.7098387    837.26275   0.01535811  0.014233265         3199 
 4544000   0.53559706   -7.6970486    837.21296  0.015353818  0.014228604         3170 
 4545000   0.51172132   -7.7146813    836.38269  0.015335216  0.014223945         3204 
 4546000   0.53247026   -7.7063109    838.34586   0.01536783  0.014219296         3187 
 4547000   0.53131135   -7.6959153     837.7418  0.015353379  0.014214641         3181 
 4548000   0.51260718   -7.6843049    836.93378  0.015335198  0.014209991         3196 
 4549000   0.53038896   -7.7002273    836.76953  0.015328818  0.014205339         3140 
 4550000   0.52244278   -7.7054921    836.27307  0.015316357  0.014200687         3173 
 4551000   0.53035327   -7.6972665    837.39111  0.015333463   0.01419604         3190 
 4552000   0.52162285   -7.7101688    838.24437  0.015345716  0.014191394         3223 
 4553000   0.52686241   -7.7112734     838.5144  0.015347287  0.014186752         3201 
 4554000   0.52281882   -7.6960236    837.18327  0.015319559  0.014182108         3207 
 4555000   0.54367994   -7.6866547    837.85464  0.015328479   0.01417747         3209 
 4556000   0.52373454   -7.7139864    837.60036  0.015320463  0.014172828         3212 
 4557000   0.52123293   -7.7179426    837.03363  0.015306737  0.014168191         3197 
 4558000   0.53049282   -7.6963204    836.41836   0.01529213  0.014163556         3171 
 4559000   0.51506555   -7.7037128    837.41698   0.01530703  0.014158922         3156 
 4560000   0.52860718   -7.6981561    835.54387  0.015269442  0.014154288         3199 
 4561000   0.51850822   -7.7088724    836.12674  0.015276744   0.01414966         3157 
 4562000   0.51654032   -7.7200127    836.63887   0.01528275   0.01414503         3209 
 4563000   0.52484361   -7.7081908    838.24266  0.015308691  0.014140405         3200 
 4564000   0.52662869   -7.7227787    837.01857  0.015282986  0.014135778         3201 
 4565000   0.54133579   -7.7091719    836.69591  0.015273748  0.014131154         3205 
 4566000    0.5106532    -7.690431    836.67292  0.015269983  0.014126534         3213 
 4567000   0.52918942   -7.7098265    835.15173  0.015238883  0.014121917         3191 
 4568000   0.52722787   -7.7167792    837.86156  0.015284982  0.014117301         3162 
 4569000   0.53326938   -7.7031992    837.44071  0.015273961  0.014112687         3186 
 4570000    0.5114506   -7.7114516    837.21485    0.0152665  0.014108073         3215 
 4571000   0.52064661   -7.6949653    837.59062  0.015270011   0.01410346         3217 
 4572000     0.522305   -7.6943305    835.86548  0.015235227  0.014098852         3161 
 4573000   0.51836889   -7.7168511    836.64196  0.015246045  0.014094249         3203 
 4574000   0.53535733   -7.7020879    836.65029  0.015242864  0.014089643         3162 
 4575000   0.52376789   -7.6901593    836.81152  0.015242468  0.014085038         3221 
 4576000   0.52509371   -7.7048476    837.30534  0.015248131  0.014080435         3175 
 4577000   0.52262094   -7.6885883     837.3761  0.015246087  0.014075839         3212 
 4578000   0.51828836   -7.7182353     837.7177  0.015248975  0.014071242         3189 
 4579000   0.52349656   -7.7008685     836.5101  0.015223668  0.014066649         3190 
 4580000   0.53139892   -7.7180672    837.59401  0.015240066  0.014062052         3184 
 4581000   0.52312168    -7.713413    837.56613  0.015236232  0.014057462         3161 
 4582000   0.51127303   -7.7154594    837.52501  0.015232159  0.014052873         3168 
 4583000   0.51334393   -7.7128647    835.37131  0.015189674  0.014048283         3195 
 4584000   0.52603401   -7.7029593    837.31203  0.015221641  0.014043695         3179 
 4585000   0.52125554   -7.7030896    835.60128  0.015187228  0.014039114         3162 
 4586000   0.51755195   -7.7238721     836.8713  0.015206994  0.014034533         3174 
 4587000   0.52542385   -7.7217734    836.94329  0.015204987  0.014029951         3159 
 4588000   0.50940999     -7.70771    837.87244  0.015218549  0.014025377         3175 
 4589000   0.52459505   -7.7024799    836.04302  0.015182012  0.014020796         3180 
 4590000   0.52014834   -7.7101192    836.22224  0.015181958  0.014016219         3199 
 4591000   0.51493167   -7.7050471    836.32997  0.015180606  0.014011643         3198 
 4592000   0.51674033   -7.7051542    837.78835  0.015203767  0.014007069         3198 
 4593000   0.52016388   -7.7014616    836.38453  0.015174986  0.014002496         3194 
 4594000   0.52055743   -7.7099573    837.45058  0.015191021  0.013997929         3199 
 4595000   0.52180615   -7.7209275    837.20267  0.015183219  0.013993362         3195 
 4596000   0.51762367   -7.7122409    836.67805  0.015170403  0.013988792         3176 
 4597000   0.50915113   -7.7142504    836.60403  0.015165761  0.013984229         3213 
 4598000   0.51849274   -7.7129568    835.46679  0.015141851  0.013979666         3180 
 4599000   0.51574621   -7.7079014    836.86258  0.015163851  0.013975101         3159 
 4600000   0.52501816   -7.7109299    835.46042  0.015135153  0.013970544         3211 
 4601000   0.51645776   -7.7124715    837.35491  0.015166176  0.013965987         3194 
 4602000   0.51262257   -7.7180248    837.65102  0.015168243  0.013961433         3180 
 4603000   0.50274444   -7.7071777     836.1109  0.015137065  0.013956883         3230 
 4604000   0.51062202   -7.7126231    836.30155  0.015137228  0.013952336         3180 
 4605000   0.52202265   -7.7164037    837.07886  0.015148007  0.013947785         3171 
 4606000   0.50747921   -7.7152055    837.40832  0.015150679  0.013943234         3212 
 4607000   0.50572396   -7.7125272    836.43617  0.015129805  0.013938688         3209 
 4608000   0.51411218   -7.7255751    837.01661  0.015137019  0.013934147         3147 
 4609000   0.49547978   -7.7103674    835.77706  0.015111323  0.013929605         3177 
 4610000    0.5151427   -7.7252856    836.84156  0.015127288  0.013925059         3231 
 4611000   0.51887487   -7.7117303    836.74949  0.015122343  0.013920515         3208 
 4612000   0.51826924   -7.7119515    838.73741  0.015154984   0.01391598         3172 
 4613000   0.51657169   -7.6956311    837.45513  0.015128534  0.013911445         3198 
 4614000   0.52162324   -7.7200084    836.50449  0.015108086  0.013906912         3184 
 4615000   0.53152481   -7.7354247    835.29328  0.015082941  0.013902381         3191 
 4616000   0.51247265   -7.7252956    835.72514   0.01508747  0.013897849         3165 
 4617000   0.50756745   -7.7291508    836.23345  0.015093377  0.013893321         3206 
 4618000   0.52201221   -7.7068058    836.80422  0.015100408  0.013888791         3185 
 4619000   0.50993679   -7.7156811    837.43677  0.015108551  0.013884265         3199 
 4620000   0.50832569   -7.7235703    834.36471  0.015049869  0.013879737         3200 
 4621000   0.50959538   -7.7186767    836.92033  0.015092699   0.01387521         3211 
 4622000   0.50610031   -7.7252588     835.5476  0.015064683  0.013870685         3180 
 4623000   0.51974451   -7.7119067    836.04788  0.015070443  0.013866163         3183 
 4624000   0.51198334   -7.7303421    837.47631  0.015092927  0.013861645         3187 
 4625000   0.50525142   -7.7220834      836.794  0.015077369  0.013857124         3186 
 4626000   0.51777457   -7.7103086    836.87685  0.015075603  0.013852609         3176 
 4627000   0.51064618    -7.721553     837.1735  0.015077687  0.013848097         3208 
 4628000   0.51824694   -7.7206412    836.73671  0.015066564  0.013843585         3189 
 4629000   0.51118572   -7.7280368    836.70603  0.015062757  0.013839078         3205 
 4630000   0.52069492   -7.7087803    837.58357  0.015075298  0.013834573         3158 
 4631000   0.51552028   -7.7152703    835.35599  0.015031958  0.013830069         3179 
 4632000   0.50913239   -7.7080643    836.27567  0.015045259  0.013825563         3213 
 4633000   0.51057737    -7.734986    835.38754  0.015026037   0.01382106         3169 
 4634000   0.51532559   -7.7168025    835.87135  0.015031495   0.01381656         3219 
 4635000   0.51156269   -7.7008187    836.77056  0.015044419  0.013812061         3241 
 4636000   0.50961274   -7.7329383    837.17057  0.015048364  0.013807565         3229 
 4637000   0.51716062   -7.7283425     835.9666  0.015023481  0.013803071         3191 
 4638000   0.51162774    -7.724472    835.83511   0.01501788  0.013798575         3210 
 4639000   0.53082562   -7.7057483    837.92828  0.015052243  0.013794086         3184 
 4640000   0.51177659   -7.7022795    836.42015  0.015021914  0.013789597         3166 
 4641000   0.52377199   -7.7311915     835.7607  0.015006836  0.013785105         3213 
 4642000   0.50471577   -7.7144393    836.40365  0.015015145  0.013780619         3162 
 4643000   0.50112847   -7.7103632    835.80241   0.01500112  0.013776131         3209 
 4644000   0.50677176   -7.7306024    835.93682  0.015000302  0.013771645         3149 
 4645000   0.50693487   -7.7253856    837.45878  0.015024377   0.01376716         3171 
 4646000   0.51449756   -7.7090649    835.94732  0.014994033  0.013762679         3198 
 4647000    0.5037253   -7.7280762    835.83706  0.014988829    0.0137582         3198 
 4648000   0.50217438   -7.7366454    836.62123  0.014999663  0.013753723         3179 
 4649000   0.51047643   -7.7225067    835.14273  0.014969935  0.013749243         3196 
 4650000    0.4990112   -7.7178464    837.14675   0.01500263  0.013744768         3238 
 4651000   0.50006436   -7.7184579    836.77702   0.01499278  0.013740295         3185 
 4652000   0.49992623   -7.7268127    836.94989  0.014992653  0.013735826         3210 
 4653000   0.51215635   -7.7332069    836.19891  0.014975982  0.013731359         3224 
 4654000   0.50686545   -7.7283215    835.76447  0.014964985   0.01372689         3214 
 4655000   0.50418008   -7.7086639     837.9158  0.015000283  0.013722429         3216 
 4656000   0.50208784   -7.7279874    835.94766  0.014961835  0.013717967         3178 
 4657000   0.51444651   -7.7248114    836.31151  0.014965133  0.013713507         3137 
 4658000   0.50577006   -7.7175068    835.79041  0.014952598   0.01370905         3192 
 4659000   0.50515754   -7.7196357    835.65079  0.014946891  0.013704595         3201 
 4660000   0.51729318    -7.729475    837.02369  0.014968235  0.013700141         3203 
 4661000   0.50761348   -7.7257884    836.86165  0.014962126  0.013695684         3216 
 4662000   0.51050399   -7.7176076    835.56693  0.014935774  0.013691234         3224 
 4663000    0.5100299   -7.7128799    835.46566  0.014930761  0.013686779         3195 
 4664000   0.50925745    -7.719067    835.53351  0.014928772  0.013682328         3200 
 4665000   0.51469948   -7.7490419    835.86481   0.01493149  0.013677881         3238 
 4666000   0.50605427   -7.7268691    837.41401  0.014955958  0.013673434         3192 
 4667000   0.49871608   -7.7294849    834.94966  0.014908751   0.01366899         3225 
 4668000    0.5032279    -7.738212    837.58011  0.014952515  0.013664548         3181 
 4669000   0.50230066   -7.7260866    835.25541  0.014907821  0.013660109         3200 
 4670000   0.50025221    -7.735191    836.87432  0.014933517  0.013655673         3171 
 4671000   0.50831801    -7.722609    834.39273  0.014886047  0.013651234         3212 
 4672000   0.49614216   -7.7074537    836.35196  0.014917807  0.013646796         3219 
 4673000   0.50418621    -7.722617    835.81008  0.014904952  0.013642365         3205 
 4674000   0.49991591   -7.7322613    836.10118  0.014906953  0.013637934         3222 
 4675000   0.50165791   -7.7406693    836.07269  0.014903257  0.013633505         3241 
 4676000   0.49848132   -7.7419012    836.87933  0.014914445  0.013629077         3234 
 4677000    0.5103198   -7.7182217    836.73565  0.014908696  0.013624652         3218 
 4678000   0.50984433   -7.7236942    836.75221  0.014905804  0.013620231         3154 
 4679000    0.5074407   -7.7195308    837.23739  0.014911259  0.013615811         3196 
 4680000   0.50062817   -7.7293572    836.77819  0.014899896  0.013611392         3241 
 4681000   0.49611082   -7.7397499    835.82763  0.014879791  0.013606974         3194 
 4682000   0.50123921   -7.7235458    837.15457  0.014900231  0.013602557         3209 
 4683000    0.4953678   -7.7127646    836.15607  0.014879281  0.013598143         3188 
 4684000   0.49239692   -7.7210596    836.12163  0.014875492  0.013593726         3218 
 4685000   0.50674284   -7.7117468    835.46243  0.014860591  0.013589313         3223 
 4686000   0.50751228   -7.7369301    836.52396  0.014876298  0.013584904         3237 
 4687000   0.50758395   -7.7379503     835.8477    0.0148611  0.013580497         3187 
 4688000   0.51864732    -7.735894    836.15022  0.014863307  0.013576088         3194 
 4689000   0.51126615   -7.7079449    835.31788  0.014845345  0.013571683         3220 
 4690000   0.50314195   -7.7273707    835.74731   0.01484981  0.013567278         3230 
 4691000   0.49111153   -7.7347749    836.16812   0.01485412  0.013562873         3170 
 4692000   0.49408138   -7.7200702    835.30797  0.014835677   0.01355847         3239 
 4693000   0.49494051   -7.7275664    834.83306  0.014824083   0.01355407         3197 
 4694000   0.50042621   -7.7460726    835.66273  0.014835654  0.013549669         3194 
 4695000    0.4935488   -7.7298607    834.77355  0.014816712  0.013545273         3231 
 4696000   0.51006163   -7.7205729    836.51388   0.01484444   0.01354088         3197 
 4697000   0.50225599   -7.7451102    836.52593  0.014841493   0.01353649         3195 
 4698000   0.50202358   -7.7377695    835.47022  0.014819608  0.013532099         3198 
 4699000   0.49428275    -7.723939    836.20363  0.014829461  0.013527712         3176 
 4700000   0.49169155   -7.7370504    836.39463  0.014829692  0.013523327         3194 
 4701000   0.48974003   -7.7262442    834.91017  0.014800223  0.013518945         3222 
 4702000   0.49923193   -7.7467174    837.00077  0.014834127  0.013514561         3191 
 4703000   0.49244216   -7.7363957    836.00508   0.01481333   0.01351018         3194 
 4704000   0.50487956   -7.7520835    836.00682  0.014810211    0.0135058         3216 
 4705000   0.50086523   -7.7292116    835.34705  0.014795378   0.01350142         3186 
 4706000   0.50066411   -7.7374376      836.157  0.014806577   0.01349704         3242 
 4707000   0.51446229   -7.7392194    835.70729  0.014795469  0.013492661         3255 
 4708000   0.50298707   -7.7240456    836.16543  0.014800436  0.013488287         3243 
 4709000   0.50167055   -7.7282329    835.68611  0.014788811  0.013483912         3201 
 4710000   0.51261631   -7.7447994    834.75572  0.014769209   0.01347954         3241 
 4711000    0.4976198   -7.7332923     835.2592  0.014774981  0.013475168         3229 
 4712000   0.50253672   -7.7314809    834.58872  0.014759987  0.013470798         3257 
 4713000   0.50122198   -7.7390276    835.31476  0.014769693  0.013466434         3246 
 4714000   0.49985369   -7.7277599    835.57181  0.014771104  0.013462067         3200 
 4715000   0.48850665   -7.7276982    835.71114  0.014770434  0.013457701         3250 
 4716000   0.50068115   -7.7570277    835.59939  0.014765327  0.013453334         3250 
 4717000   0.48747814   -7.7646471    834.25548  0.014738454  0.013448971         3226 
 4718000   0.50094077   -7.7347586    834.50997  0.014739826  0.013444612         3206 
 4719000   0.49757652    -7.733502     834.7766  0.014741411  0.013440255         3206 
 4720000   0.49274204   -7.7420433    835.60977  0.014752997  0.013435899         3261 
 4721000   0.49967441   -7.7363948    834.71693  0.014734112   0.01343155         3235 
 4722000   0.50037604   -7.7281508    835.49321  0.014744692  0.013427196         3190 
 4723000   0.49560829   -7.7433694    835.66143  0.014744538  0.013422844         3207 
 4724000   0.49092326   -7.7315292     834.9924  0.014729615  0.013418496         3185 
 4725000   0.50235051    -7.749437    835.87479   0.01474206  0.013414152         3204 
 4726000   0.49097955   -7.7346477    834.15846  0.014708677  0.013409807         3261 
 4727000   0.48703355   -7.7392821     834.7381  0.014715783  0.013405466         3191 
 4728000   0.50144822   -7.7532958    835.77229  0.014730899  0.013401122         3216 
 4729000    0.4960533   -7.7513944    836.61032  0.014742552  0.013396785         3219 
 4730000   0.50049978   -7.7437663    835.18809  0.014714378  0.013392445         3263 
 4731000   0.48586772   -7.7323349    834.99935  0.014707943  0.013388111         3239 
 4732000    0.4928775   -7.7450698    835.25938  0.014709414  0.013383775         3237 
 4733000   0.49669457   -7.7248621    834.79566  0.014698142   0.01337944         3226 
 4734000   0.49372227   -7.7403023    836.17868  0.014719383  0.013375108         3258 
 4735000   0.50037529   -7.7727547    835.85295  0.014710541  0.013370775         3201 
 4736000   0.48766627   -7.7453273    835.41045  0.014699649  0.013366444         3229 
 4737000   0.49151095   -7.7486675    834.42857  0.014679272  0.013362114         3209 
 4738000   0.49233967   -7.7393118    835.32608   0.01469196   0.01335779         3193 
 4739000   0.49183545   -7.7296609    836.29968   0.01470598  0.013353462         3232 
 4740000   0.49092201   -7.7481295    834.61555  0.014673269   0.01334914         3213 
 4741000   0.49022706   -7.7575419    834.47832  0.014667762  0.013344818         3239 
 4742000   0.48245747   -7.7488301     835.0536  0.014674779    0.0133405         3244 
 4743000   0.48479734   -7.7462362    836.29775  0.014693544  0.013336184         3209 
 4744000   0.49874543    -7.728916     836.1486  0.014687827  0.013331867         3175 
 4745000   0.49586727   -7.7584772    835.90589  0.014680469  0.013327552         3211 
 4746000   0.48400114   -7.7427432    833.64657  0.014637705  0.013323241         3232 
 4747000   0.50118685   -7.7598243    835.50536  0.014667252  0.013318929         3192 
 4748000   0.49383693   -7.7492961    835.62555  0.014666273  0.013314623         3178 
 4749000   0.47873834   -7.7554515    834.49797  0.014643398  0.013310314         3240 
 4750000   0.49282709   -7.7336443    834.96244  0.014648464  0.013306006         3238 
 4751000   0.49262713   -7.7359497    834.53962  0.014637964  0.013301703         3223 
 4752000   0.48176089   -7.7599083      836.273  0.014665281    0.0132974         3249 
 4753000    0.4949324   -7.7495124    833.90625    0.0146207  0.013293104         3252 
 4754000    0.4758755   -7.7506442    835.30847  0.014642204  0.013288808         3232 
 4755000   0.49749962   -7.7309167    833.63815  0.014609852  0.013284515         3220 
 4756000   0.49117098   -7.7537414    836.16555  0.014651064   0.01328022         3233 
 4757000   0.48321502   -7.7427743    835.16187  0.014630402  0.013275927         3206 
 4758000   0.48746697    -7.746994    834.76659  0.014620404  0.013271636         3250 
 4759000   0.48841551   -7.7263556    834.49735  0.014612617  0.013267345         3234 
 4760000   0.49089894   -7.7513916    834.52218  0.014609982  0.013263058         3254 
 4761000   0.47995771   -7.7586808    836.08768  0.014634315  0.013258774         3220 
 4762000   0.48506877   -7.7550697    835.02365  0.014612622  0.013254492         3231 
 4763000   0.47887311   -7.7617922    835.10025  0.014610894  0.013250207         3182 
 4764000   0.48869642   -7.7509534    835.11255  0.014608042  0.013245927         3233 
 4765000   0.48326095   -7.7312913    834.08758  0.014587051  0.013241645         3202 
 4766000   0.48600083   -7.7544743    834.88613  0.014597953  0.013237366         3232 
 4767000   0.49349664   -7.7397091    835.49585   0.01460555   0.01323309         3221 
 4768000   0.48539582   -7.7503181    835.10028  0.014595573  0.013228817         3267 
 4769000   0.48880799   -7.7529895    834.40692  0.014580396  0.013224541         3239 
 4770000   0.49210491   -7.7482928    833.93687  0.014569128   0.01322027         3230 
 4771000   0.48602145   -7.7467643    835.44093  0.014592345     0.013216         3238 
 4772000   0.49071179   -7.7510392    835.92954   0.01459782   0.01321173         3241 
 4773000   0.50014101   -7.7424908    833.47627  0.014551929  0.013207462         3229 
 4774000   0.50081346   -7.7574515    835.51283   0.01458443  0.013203197         3207 
 4775000    0.4911716   -7.7565138     833.1671  0.014540438  0.013198929         3222 
 4776000   0.48584691   -7.7642224    835.23568  0.014573487  0.013194667         3234 
 4777000   0.48204856    -7.747463    834.22075  0.014552731  0.013190404         3230 
 4778000   0.49174257   -7.7571858    834.31727  0.014551369  0.013186148         3227 
 4779000   0.48485981   -7.7411784    836.06129  0.014578735  0.013181891         3245 
 4780000   0.49421768    -7.754779    834.30333  0.014545037  0.013177634         3274 
 4781000   0.48351437   -7.7517289    835.78997  0.014567907  0.013173379         3225 
 4782000    0.4851997   -7.7673381    834.66514  0.014545259  0.013169124         3246 
 4783000   0.48264866   -7.7482248    834.59473  0.014540991  0.013164874         3233 
 4784000   0.49042748   -7.7590321    834.28004   0.01453247  0.013160624         3245 
 4785000   0.49438758   -7.7554522    834.02233  0.014524945  0.013156375         3216 
 4786000   0.47228715   -7.7510486    833.94391  0.014520544  0.013152131         3236 
 4787000   0.47654595   -7.7517795    833.35652  0.014507286  0.013147887         3236 
 4788000   0.47287251   -7.7493022    834.21424  0.014519184  0.013143645         3247 
 4789000   0.47653666   -7.7509857    834.20299  0.014515957  0.013139405         3245 
 4790000   0.47577641   -7.7561489    835.08042  0.014528191  0.013135165         3216 
 4791000   0.49318609   -7.7753345    835.26171  0.014528312   0.01313093         3223 
 4792000   0.49576458   -7.7518286    835.46377  0.014528794  0.013126696         3247 
 4793000   0.48330845   -7.7591476    834.37668  0.014506862  0.013122466         3246 
 4794000   0.48047546   -7.7421147    834.90465  0.014513014  0.013118235         3225 
 4795000   0.48519873   -7.7511114    834.62054  0.014505049  0.013114002         3221 
 4796000   0.48637694   -7.7318938    834.98899  0.014508427  0.013109774         3207 
 4797000   0.48094292   -7.7645966    834.38682  0.014494942  0.013105548         3251 
 4798000   0.48513866   -7.7536904    834.94731  0.014501655  0.013101325         3239 
 4799000   0.48795222   -7.7609798      833.486  0.014473258  0.013097101         3239 
 4800000     0.489759   -7.7579692    834.70479  0.014491403  0.013092878         3219 
 4801000   0.48611571   -7.7357102    834.64482  0.014487343  0.013088656         3225 
 4802000    0.4798249   -7.7522361    834.84184  0.014487745  0.013084438         3208 
 4803000    0.4893673   -7.7568146    833.92276  0.014468783   0.01308022         3219 
 4804000   0.49108623   -7.7698951    834.91086  0.014482911  0.013076003         3257 
 4805000   0.48343743   -7.7600074    834.40558  0.014471134  0.013071788         3231 
 4806000   0.48513903   -7.7547765    835.55138   0.01448799  0.013067577         3174 
 4807000   0.48472667   -7.7638877    835.15164  0.014478047  0.013063367         3222 
 4808000   0.47962804   -7.7606473    835.37235  0.014478861  0.013059157         3217 
 4809000    0.4791122   -7.7613077     835.1741  0.014472415  0.013054952         3228 
 4810000   0.48662092   -7.7693626    835.10659  0.014468236  0.013050749         3260 
 4811000   0.48050092   -7.7611044    834.37085  0.014452485  0.013046545         3224 
 4812000    0.4717351   -7.7692253     834.3454  0.014449041  0.013042346         3230 
 4813000   0.48478796   -7.7790132    834.42454  0.014447409  0.013038146         3221 
 4814000   0.48263962    -7.748792    834.00765  0.014437191  0.013033949         3239 
 4815000   0.48376561   -7.7602238    833.34639  0.014422748  0.013029753         3192 
 4816000   0.48384829   -7.7777632    834.56446   0.01444083  0.013025562         3235 
 4817000   0.48231509   -7.7839389       834.97  0.014444848  0.013021369         3252 
 4818000   0.48294947   -7.7518607    834.02471    0.0144255  0.013017179         3194 
 4819000   0.48098362   -7.7570217    835.76031   0.01445252  0.013012989         3215 
 4820000   0.48138808    -7.753913    835.46615  0.014444435  0.013008803         3198 
 4821000   0.47497121   -7.7663875    834.05579  0.014417061  0.013004622         3255 
 4822000   0.47729708   -7.7633919    835.59941  0.014440747  0.013000439         3248 
 4823000   0.47712267   -7.7671535    834.26985  0.014414781  0.012996257         3234 
 4824000   0.47369648   -7.7636132    834.52684  0.014416232  0.012992077         3271 
 4825000   0.47423294   -7.7645815     834.5195  0.014413117  0.012987894         3227 
 4826000   0.47455374   -7.7658601    834.49089  0.014409637  0.012983716         3226 
 4827000   0.47383758   -7.7629281    834.49829  0.014406779  0.012979538         3209 
 4828000     0.487361    -7.777276    834.27151  0.014399881  0.012975362         3248 
 4829000   0.48124664   -7.7606543    834.88126  0.014407421  0.012971191         3207 
 4830000   0.48140902   -7.7558326    833.34446  0.014377924  0.012967019         3249 
 4831000   0.48604446   -7.7755718    835.29512  0.014408596   0.01296285         3217 
 4832000   0.47729894   -7.7675748     834.4407  0.014390879  0.012958686         3235 
 4833000   0.48471004   -7.7611978    833.92195  0.014378956  0.012954521         3249 
 4834000   0.48692285   -7.7627968    834.61114  0.014387863  0.012950357         3217 
 4835000   0.48540296   -7.7629464     835.0261  0.014392039  0.012946194         3216 
 4836000   0.47987178   -7.7656524    834.14821  0.014373935  0.012942031         3207 
 4837000   0.47040608   -7.7614649    834.20432   0.01437193  0.012937872         3216 
 4838000   0.47002768    -7.771138    834.76921   0.01437869  0.012933711         3219 
 4839000   0.47138443   -7.7549023     834.9052   0.01437806  0.012929555         3235 
 4840000   0.48600329   -7.7575453    833.75744  0.014355328    0.0129254         3208 
 4841000   0.48055921   -7.7713431    834.75306  0.014369501  0.012921248         3222 
 4842000   0.48034387   -7.7671605     833.0229  0.014336757  0.012917095         3219 
 4843000   0.47641776   -7.7707802    833.35588  0.014339526  0.012912942         3226 
 4844000   0.48216393   -7.7580074    834.03611  0.014348268  0.012908792         3251 
 4845000   0.47059528   -7.7656958     834.0776   0.01434602  0.012904647         3206 
 4846000   0.48138279   -7.7647777     834.3824  0.014348301  0.012900499         3239 
 4847000   0.47928814   -7.7655473    836.15232  0.014375771  0.012896354         3244 
 4848000   0.47418077   -7.7695243    832.78289  0.014314887  0.012892211         3253 
 4849000   0.47528893    -7.793256    835.06406  0.014351139  0.012888068         3251 
 4850000   0.46660235   -7.7559679    833.13402  0.014315018  0.012883928         3195 
 4851000   0.46234806   -7.7601515    833.74559  0.014322572   0.01287979         3230 
 4852000   0.48497139   -7.7657189    835.21156  0.014344799  0.012875657         3205 
 4853000    0.4858377   -7.7764576    833.31454  0.014309268  0.012871521         3275 
 4854000   0.48139534   -7.7745168    834.43863  0.014325619  0.012867388         3262 
 4855000   0.46987589   -7.7705519    833.34414  0.014303882  0.012863258         3194 
 4856000   0.46910914   -7.7624894    833.91727  0.014310771  0.012859127         3209 
 4857000   0.47878509   -7.7681886    834.07367  0.014310508  0.012854998         3202 
 4858000   0.48045913   -7.7924936    833.68156  0.014300836  0.012850874         3246 
 4859000   0.46489852   -7.7715997    834.78276  0.014316779  0.012846748         3220 
 4860000   0.46889457   -7.7638696    834.04235  0.014301138  0.012842625         3261 
 4861000    0.4675105   -7.7782813    833.23089  0.014284285  0.012838503         3217 
 4862000   0.48019745   -7.7689485    834.38277  0.014301089   0.01283438         3262 
 4863000   0.47183616   -7.7714408     833.9418  0.014290592  0.012830261         3273 
 4864000   0.47928079   -7.7702144    832.98956   0.01427134  0.012826145         3238 
 4865000   0.48184983   -7.7673696    834.38881  0.014292374  0.012822031         3236 
 4866000   0.46848561   -7.7709116    834.41582    0.0142899  0.012817917         3240 
 4867000   0.48276893   -7.7709771    834.41066  0.014286875  0.012813806         3285 
 4868000   0.47132922   -7.7834693    833.63781   0.01427071  0.012809694         3239 
 4869000   0.46910722   -7.7581739    835.06289   0.01429217  0.012805584         3222 
 4870000   0.47207906   -7.7621249    834.58053  0.014280981  0.012801476         3241 
 4871000   0.47423169   -7.7659119    833.28947  0.014255962  0.012797369         3236 
 4872000   0.46217605   -7.7620323    835.04433  0.014283052  0.012793265         3226 
 4873000   0.47377609   -7.7863709    834.28056  0.014267059  0.012789161         3253 
 4874000   0.46441617   -7.7809682    834.58765  0.014269383  0.012785059         3226 
 4875000    0.4824528   -7.7764858     832.8433  0.014236638  0.012780959         3236 
 4876000     0.471201   -7.7726755     834.8998  0.014268865  0.012776864         3278 
 4877000    0.4772281   -7.7721347    833.88753  0.014248642  0.012772769         3272 
 4878000   0.47455019    -7.787366    834.50964  0.014256349  0.012768675         3250 
 4879000   0.47584617   -7.7677568     834.2827  0.014249551  0.012764582         3256 
 4880000   0.46685406   -7.7796006     833.9135  0.014240326  0.012760494         3270 
 4881000    0.4775192   -7.7778767    834.46257  0.014246783  0.012756403         3216 
 4882000   0.46902186   -7.7883172    835.49251  0.014261445  0.012752318         3218 
 4883000   0.47019491    -7.790391     834.8964  0.014248351   0.01274823         3273 
 4884000   0.47221155   -7.7807774    834.38595  0.014236724  0.012744144         3259 
 4885000   0.47353827   -7.7693571    834.21128   0.01423083   0.01274006         3230 
 4886000    0.4713802   -7.7915411    834.64545  0.014235323  0.012735981         3238 
 4887000   0.46646266   -7.7638347     834.2955  0.014226443  0.012731901         3265 
 4888000   0.47764028   -7.7725624    833.11689  0.014203439  0.012727823         3200 
 4889000   0.47055801   -7.7718897    833.35922  0.014204664  0.012723744         3200 
 4890000   0.46838298   -7.7859962    834.28242  0.014217492  0.012719668         3262 
 4891000   0.45894786     -7.77178    833.49047  0.014201092  0.012715593         3254 
 4892000   0.47038162   -7.7697574    833.50979  0.014198518  0.012711521         3246 
 4893000   0.46419978   -7.7798546    834.61644  0.014214464  0.012707452         3251 
 4894000   0.47119107   -7.7798639    834.56113  0.014210617  0.012703385         3237 
 4895000   0.47246001   -7.7872422    832.98532  0.014180887  0.012699315         3279 
 4896000   0.46076828    -7.772996    833.47377  0.014186305  0.012695251         3258 
 4897000   0.45695607     -7.76862     833.7726  0.014188493  0.012691186         3216 
 4898000   0.47087417   -7.7836379    833.52863  0.014181445  0.012687123         3221 
 4899000   0.47582775   -7.7699969    832.65149   0.01416363  0.012683061         3243 
 4900000    0.4750313   -7.7858131    833.34081  0.014172463     0.012679         3246 
 4901000    0.4677971   -7.8025336    834.90268  0.014196128  0.012674942         3259 
 4902000   0.48175464   -7.7805146    833.31356  0.014166217  0.012670885         3261 
 4903000   0.47172857   -7.7788183    834.47673  0.014183098  0.012666829         3269 
 4904000   0.46922029   -7.7732912    833.06728  0.014156255  0.012662775         3216 
 4905000   0.45561963   -7.7859194    833.66314  0.014163492  0.012658722         3261 
 4906000   0.47665094   -7.7649167    834.12485  0.014168448  0.012654672         3249 
 4907000    0.4635344   -7.7903824    834.70587  0.014175428   0.01265062         3255 
 4908000    0.4686577   -7.7873963    833.27965  0.014148323  0.012646575         3249 
 4909000   0.46980235   -7.7906995    832.37568  0.014130096  0.012642529         3268 
 4910000   0.46265253   -7.7782103    833.46429  0.014145694  0.012638486         3235 
 4911000   0.46176634   -7.7876587    832.97397  0.014134493  0.012634441         3233 
 4912000   0.47149338   -7.7872927    833.59541  0.014142159  0.012630398         3259 
 4913000   0.46453497   -7.7693654     833.2384  0.014133225  0.012626362         3250 
 4914000   0.47325876   -7.7811258    833.07797  0.014127628  0.012622325         3236 
 4915000   0.46698991   -7.7801021    832.82253  0.014120423  0.012618288         3236 
 4916000   0.45388546    -7.786048    833.64108  0.014131426  0.012614253         3246 
 4917000   0.47457219   -7.7746833    833.95008  0.014133789  0.012610222         3279 
 4918000   0.46266726   -7.7764783    832.81247  0.014111639   0.01260619         3266 
 4919000   0.46071649   -7.7954311    834.39647  0.014135605  0.012602163         3240 
 4920000   0.46444598   -7.7886794    833.61292   0.01411946  0.012598132         3236 
 4921000    0.4644553   -7.7869561    832.63562  0.014100041  0.012594107         3241 
 4922000   0.45917169   -7.7833211    833.15005  0.014105886  0.012590083         3226 
 4923000   0.45319302   -7.7991042    833.66391  0.014111719  0.012586059         3303 
 4924000   0.46785739     -7.78873    833.15035  0.014100162  0.012582036         3271 
 4925000   0.46918164   -7.7803179     831.1516  0.014063479  0.012578013         3306 
 4926000   0.47473036   -7.8067448    833.58745  0.014101831  0.012573993         3215 
 4927000   0.45931328    -7.795967    833.77211  0.014102092  0.012569975         3255 
 4928000   0.46609255   -7.7861449    831.86291  0.014066946  0.012565957         3208 
 4929000   0.46277748   -7.8035643     833.8001  0.014096843  0.012561943         3254 
 4930000   0.45917993    -7.795843    833.00525  0.014080549  0.012557932         3262 
 4931000   0.46092132   -7.7793695    833.79166  0.014090983  0.012553919         3264 
 4932000   0.44810568   -7.8027099    834.89694  0.014106802  0.012549909         3231 
 4933000   0.46092846   -7.7797888    834.41076  0.014095729    0.0125459         3251 
 4934000   0.47247368   -7.7936764     832.5322  0.014061144  0.012541891         3280 
 4935000   0.46101929   -7.7826711    833.83775   0.01408034  0.012537886         3222 
 4936000   0.45257978   -7.7929631    833.98732  0.014080013  0.012533882         3262 
 4937000   0.46614057   -7.7777251    832.70813  0.014055569  0.012529878         3226 
 4938000   0.45334928   -7.7975572    834.36481  0.014080681  0.012525877         3255 
 4939000   0.45693332   -7.7854389    832.93633  0.014053728  0.012521878         3230 
 4940000   0.46708359   -7.7858951    833.16132  0.014054678  0.012517882         3257 
 4941000   0.46407851   -7.7962551    833.19484  0.014052399  0.012513889         3271 
 4942000   0.46151231    -7.773092    833.36975  0.014052505  0.012509896         3254 
 4943000   0.47050729   -7.8003548    833.97862  0.014059927  0.012505907         3259 
 4944000   0.47145193   -7.8066857    833.24229  0.014044672  0.012501917         3260 
 4945000   0.46844757   -7.7920519    833.28801  0.014042602  0.012497927         3236 
 4946000   0.46257842   -7.7925863    832.48963  0.014026311  0.012493939         3249 
 4947000     0.458977   -7.8015471    833.30105  0.014037145  0.012489952         3236 
 4948000   0.45711189   -7.7976911    833.54145  0.014038356  0.012485969         3239 
 4949000   0.45462156   -7.8019848    834.34301  0.014049017  0.012481987         3243 
 4950000   0.45962849   -7.7981392    834.37357  0.014046693  0.012478006         3289 
 4951000   0.46229798   -7.7895271    832.14335  0.014006318  0.012474026         3287 
 4952000   0.46386076    -7.770856    832.94225  0.014016933  0.012470049         3264 
 4953000   0.46115443   -7.7959843    833.38592  0.014021568  0.012466075         3274 
 4954000   0.45070074     -7.80772    832.78444   0.01400862  0.012462098         3238 
 4955000   0.47615524   -7.7950445    833.61101  0.014019694  0.012458123         3219 
 4956000   0.44571745   -7.7987868    833.14901  0.014009097  0.012454152         3234 
 4957000   0.45662628   -7.7822143    832.90123  0.014002105  0.012450178         3269 
 4958000   0.44703968   -7.7813156     832.4065  0.013990966   0.01244621         3244 
 4959000   0.45409715   -7.7965045    833.78601  0.014011326  0.012442243         3282 
 4960000   0.45790357   -7.8175107    833.13838  0.013997621  0.012438275         3215 
 4961000   0.46227771   -7.7854597    832.62963  0.013986253  0.012434308         3222 
 4962000   0.45234481   -7.7847631    832.48442  0.013980996  0.012430344         3251 
 4963000   0.45612839   -7.7880707    834.48056  0.014011696  0.012426383         3211 
 4964000   0.44726574   -7.7923286    832.49906  0.013975609  0.012422424         3235 
 4965000    0.4604762   -7.7807035    831.96779  0.013963877  0.012418465         3228 
 4966000   0.46027268   -7.8026185     833.4172  0.013985387  0.012414505         3250 
 4967000   0.44523841    -7.790895    832.75415  0.013971447  0.012410549         3291 
 4968000   0.46117649   -7.8142042    834.88755  0.014004421  0.012406595         3211 
 4969000   0.45639335   -7.7958621    833.59259  0.013979885   0.01240264         3254 
 4970000   0.45667899   -7.7954313     832.9847   0.01396688  0.012398689         3224 
 4971000   0.46232924    -7.788336    833.36358  0.013970421   0.01239474         3261 
 4972000   0.45985307   -7.8053874    832.91791  0.013960142  0.012390793         3255 
 4973000   0.45195343   -7.7925066    832.27747  0.013946603  0.012386846         3233 
 4974000   0.45958569   -7.7990603     833.3524  0.013961808  0.012382902         3242 
 4975000   0.44978405   -7.8040057    832.55538  0.013945651   0.01237896         3265 
 4976000   0.45403089   -7.7736124    831.66455   0.01392793  0.012375018         3255 
 4977000   0.45445609   -7.8103288    831.86827  0.013928542  0.012371079         3281 
 4978000   0.45941206   -7.7966194    832.87076  0.013942526  0.012367142         3245 
 4979000    0.4663288   -7.8025405    832.74406  0.013937606  0.012363206         3292 
 4980000   0.46043034   -7.7940418     832.4465  0.013929828  0.012359271         3299 
 4981000   0.45327952   -7.8020716    832.21197  0.013923107  0.012355335         3289 
 4982000   0.44970992    -7.794007    832.96868   0.01393297  0.012351403         3243 
 4983000   0.45322779   -7.8055908    832.53002  0.013922838  0.012347471         3263 
 4984000   0.44236181   -7.7956743    832.81349  0.013924784  0.012343539         3282 
 4985000     0.470284   -7.7988532    833.59319  0.013935025  0.012339612         3268 
 4986000   0.44721346   -7.8025618    832.86596  0.013920076  0.012335687         3259 
 4987000   0.45466734   -7.7775495    832.96215  0.013918892  0.012331761         3279 
 4988000   0.46039173   -7.7957597    832.88959  0.013914889   0.01232784         3300 
 4989000   0.44743396   -7.7995123    832.51473  0.013905838  0.012323919         3270 
 4990000   0.44631893   -7.7969694    833.00845  0.013911297      0.01232         3245 
 4991000   0.45807477   -7.8132139    832.39866  0.013898328  0.012316081         3284 
 4992000   0.44127611   -7.7972005     832.6492  0.013899726  0.012312164         3277 
 4993000   0.44727221   -7.8070581    833.24784  0.013906934  0.012308248         3288 
 4994000   0.45838727   -7.7994104    832.32746  0.013888791  0.012304335         3244 
 4995000   0.44870492   -7.8110045    832.55204  0.013889757  0.012300423         3288 
 4996000   0.44494967    -7.796175    832.78191  0.013890811  0.012296514         3249 
 4997000    0.4609895   -7.7975281    833.16694  0.013894452  0.012292605         3229 
 4998000   0.44054067   -7.7909693    832.92761  0.013887682  0.012288701         3262 
 4999000   0.46604239   -7.8022033    833.07296  0.013887327  0.012284796         3266 
 5000000   0.45078958   -7.7959683    832.57969  0.013876328  0.012280893         3230 
 5001000   0.44631194      -7.7982      832.734  0.013876125  0.012276992         3274 
 5002000   0.45034298   -7.7956148    833.03794  0.013878414  0.012273089         3271 
 5003000   0.45196298    -7.797264    832.02794  0.013858817  0.012269187         3268 
 5004000    0.4586078   -7.8052286     831.7206  0.013850929  0.012265291         3271 
 5005000   0.43819869   -7.8037445    832.69894  0.013864451  0.012261393         3267 
 5006000   0.45614463    -7.794208    833.47341  0.013874574  0.012257499         3266 
 5007000   0.44626747    -7.799765    831.61213  0.013840825  0.012253604         3277 
 5008000   0.45103422   -7.8098857    831.17875   0.01383085  0.012249709         3251 
 5009000   0.44841678   -7.7985304    832.12887  0.013843896  0.012245819         3281 
 5010000   0.45885057   -7.8026985    833.06671  0.013856732  0.012241931         3271 
 5011000   0.45238051   -7.8073447    832.36789  0.013842345  0.012238043         3283 
 5012000   0.45127639   -7.8128682     831.3193  0.013822149  0.012234158         3287 
Loop time of 10746.1 on 48 procs for 5000000 steps with 4000 atoms

Performance: 80401.569 tau/day, 465.287 timesteps/s
99.4% CPU use with 48 MPI tasks x no OpenMP threads

MPI task timing breakdown:
Section |  min time  |  avg time  |  max time  |%varavg| %total
---------------------------------------------------------------
Pair    | 728.41     | 758.3      | 781.42     |  44.5 |  7.06
Neigh   | 67.022     | 68.066     | 69.308     |   6.4 |  0.63
Comm    | 588.24     | 615.44     | 647.52     |  57.2 |  5.73
Output  | 14.753     | 14.757     | 14.848     |   0.3 |  0.14
Modify  | 9124.4     | 9168.2     | 9206.1     |  20.7 | 85.32
Other   |            | 121.3      |            |       |  1.13

Nlocal:        83.3333 ave          90 max          76 min
Histogram: 2 1 7 3 8 9 6 5 3 4
Nghost:        1792.35 ave        1809 max        1770 min
Histogram: 2 2 6 1 3 7 12 7 7 1
Neighs:        10897.8 ave       12706 max        9676 min
Histogram: 5 2 6 14 10 2 3 3 2 1
FullNghs:      21795.4 ave       24041 max       19695 min
Histogram: 1 2 7 9 9 4 6 4 5 1

Total # of neighbors = 1046178
Ave neighs/atom = 261.54450
Neighbor list builds = 269723
Dangerous builds = 0

#clear
#
#next RN
#
#jump SELF
Total wall time: 2:59:09
