
units lj                  # Use reduced LJ style units
atom_style atomic         # Uncharged point particles
atom_modify map hash      # Needed for indexing of clusters etc
                          # Used to be able to find where atoms are in relation to each other.

lattice fcc 1.0 spacing 1 1 1
Lattice spacing in x,y,z = 1.5874011 1.5874011 1.5874011
region box block 0 10 0 10 0 10 units lattice
create_box 2 box
Created orthogonal box = (0.0000000 0.0000000 0.0000000) to (15.874011 15.874011 15.874011)
  3 by 4 by 4 MPI processor grid
create_atoms 1 box
Created 4000 atoms
  using lattice units in orthogonal box = (0.0000000 0.0000000 0.0000000) to (15.874011 15.874011 15.874011)
  create_atoms CPU = 0.002 seconds
set type 1 type/fraction 2 0.55 78393
Setting atom values ...
  2215 settings made for type/fraction
mass 1 1.0
mass 2 1.0
pair_style lj/cut  3.5
pair_modify tail  yes
pair_coeff 1  1  1.0  1.0   # Intearaction between 1 and 1 set with epsilon = 1 and sigma = 1
pair_coeff 1  2  1.5  0.8
pair_coeff 2  2  0.5  0.88

write_data data.0
System init for write_data ...
Neighbor list info ...
  update every 1 steps, delay 10 steps, check yes
  max neighbors/atom: 2000, page size: 100000
  master list distance cutoff = 3.8
  ghost atom cutoff = 3.8
  binsize = 1.9, bins = 9 9 9
  1 neighbor lists, perpetual/occasional/extra = 1 0 0
  (1) pair lj/cut, perpetual
      attributes: half, newton on
      pair build: half/bin/atomonly/newton
      stencil: half/bin/3d
      bin: standard
WARNING: Not all mixed pair coeffs generated from mixing. Use write_data with 'pair ij' option to store all pair coeffs. (../write_data.cpp:312)


#############################
#   M E L T   S Y S T E M   #
#############################

velocity all create 2.4 5300450 mom yes dist gaussian # Assign velocities
                                                    # Temperature 2.4, random number seed, zero linear momentum
                                                                                # Gaussian distribution

timestep 0.002   # simulation timestep
thermo 1000       # output thermodynamic data every 1000 steps bf 100

# Define a fix  in this case with index 1 applied to all
# particles in the simulation. This fix is for simulations
# in the anisotropic NPT ensemble. Note that we use the MTK
# correction.
fix 1 all npt temp 2.4 2.4 0.1 iso 5.68 5.68 0.5 mtk yes tchain 5 pchain 5 # Use NPT ensemble
                                                                         # Set temperature and pressure and damping
                                                                         # Numbers of thermostats in chain and in barostat
run 10000          # run for 10000 steps
Per MPI rank memory allocation (min/avg/max) = 3.642 | 3.644 | 3.648 Mbytes
Step Temp E_pair E_mol TotEng Press Volume 
       0          2.4   -4.9973821            0   -1.3982821   -4.1559512         4000 
    1000    2.4751919   -4.7478417            0    -1.035982    5.9776428    3600.8316 
    2000    2.3824665    -4.688444            0   -1.1156378    5.5110044    3663.3201 
    3000    2.4433391   -4.6842778            0   -1.0201853    5.7232765    3653.1762 
    4000    2.4106409   -4.6370423            0   -1.0219849    5.4666245    3685.8101 
    5000    2.4091922   -4.7486787            0   -1.1357938    5.4624883    3637.2917 
    6000    2.3681705   -4.7778472            0   -1.2264796    5.4847906    3625.2336 
    7000    2.3918857   -4.7290677            0   -1.1421361      5.76319    3617.2871 
    8000    2.4474363   -4.8257125            0   -1.1554758    5.7142079    3591.2555 
    9000     2.381053   -4.7908772            0   -1.2201906     5.828875    3586.3069 
   10000    2.3780263   -4.7270642            0   -1.1609166     5.846148     3622.123 
Loop time of 2.61303 on 48 procs for 10000 steps with 4000 atoms

Performance: 661301.552 tau/day, 3826.977 timesteps/s
99.6% CPU use with 48 MPI tasks x no OpenMP threads

MPI task timing breakdown:
Section |  min time  |  avg time  |  max time  |%varavg| %total
---------------------------------------------------------------
Pair    | 1.1994     | 1.2616     | 1.3481     |   3.0 | 48.28
Neigh   | 0.21513    | 0.22298    | 0.23609    |   1.0 |  8.53
Comm    | 0.78038    | 0.87111    | 0.94896    |   3.6 | 33.34
Output  | 0.00023588 | 0.00024172 | 0.00031292 |   0.0 |  0.01
Modify  | 0.2201     | 0.24174    | 0.2828     |   3.2 |  9.25
Other   |            | 0.01531    |            |       |  0.59

Nlocal:        83.3333 ave          90 max          73 min
Histogram: 1 2 5 1 9 8 3 2 12 5
Nghost:        1754.73 ave        1784 max        1730 min
Histogram: 2 4 8 8 3 10 6 3 0 4
Neighs:        10544.6 ave       11573 max        8504 min
Histogram: 1 0 2 3 6 6 8 8 5 9

Total # of neighbors = 506139
Ave neighs/atom = 126.53475
Neighbor list builds = 906
Dangerous builds = 201

# Equilibrate just above the melting temperature to avoid step fn in T

fix 1 all npt temp 1.25 1.25 0.1 iso 5.68 5.68 0.5 mtk yes tchain 5 pchain 5
run 2000
Per MPI rank memory allocation (min/avg/max) = 3.644 | 3.646 | 3.649 Mbytes
Step Temp E_pair E_mol TotEng Press Volume 
   10000    2.3780263   -4.7270642            0   -1.1609166     5.846148     3622.123 
   11000    1.2652799   -6.8363647            0   -4.9389193    5.6631878    2807.6772 
   12000    1.2487643   -6.8740084            0   -5.0013302    5.7559175    2792.8933 
Loop time of 0.651207 on 48 procs for 2000 steps with 4000 atoms

Performance: 530706.710 tau/day, 3071.219 timesteps/s
99.6% CPU use with 48 MPI tasks x no OpenMP threads

MPI task timing breakdown:
Section |  min time  |  avg time  |  max time  |%varavg| %total
---------------------------------------------------------------
Pair    | 0.30068    | 0.32041    | 0.36357    |   2.0 | 49.20
Neigh   | 0.041034   | 0.043456   | 0.049242   |   0.7 |  6.67
Comm    | 0.19039    | 0.23936    | 0.26178    |   2.7 | 36.76
Output  | 4.902e-05  | 5.0693e-05 | 6.7586e-05 |   0.0 |  0.01
Modify  | 0.039774   | 0.043128   | 0.047397   |   1.0 |  6.62
Other   |            | 0.004808   |            |       |  0.74

Nlocal:        83.3333 ave          90 max          74 min
Histogram: 2 1 1 7 3 9 12 5 5 3
Nghost:        2101.38 ave        2119 max        2078 min
Histogram: 3 0 2 6 4 10 11 6 2 4
Neighs:        13666.8 ave       15094 max       11748 min
Histogram: 1 0 7 2 8 6 9 7 6 2

Total # of neighbors = 656005
Ave neighs/atom = 164.00125
Neighbor list builds = 143
Dangerous builds = 12

#############################
# L I N E A R  Q U E N C H  #
#############################

# Define solid atoms. This closely follows ten Wolde  Ruiz-Montero and Frenkel  Faraday Discuss  1996  104  93-110
# Compute components of the per-atom q6 vector
compute q6 all orientorder/atom degrees 1 6 components 6 nnn NULL cutoff 1.3 # compute the Q6 parameter.
                                                                             # Use all neighbours within 1.3 unit cell.

# get number of connections
compute coord_number all coord/atom orientorder q6 0.5

# An atom is solid if it has 8 or more connections (of a possible 14)
variable is_solid atom c_coord_number>=8
group solid dynamic all var is_solid    # Must be dynamic to update
dynamic group solid defined

# do clustering
compute cluster solid cluster/atom 1.3 # Create a cluster where all atoms within are solid and max 1.3 units from another member

# define chunks one chunk per cluster
compute clus_chunks solid chunk/atom c_cluster nchunk every compress yes  # Says which atoms are in which chunk

# count the size of each chunk
compute size_chunks solid property/chunk clus_chunks count


# Find the maximum entry in the vector of chunk sizes
variable max_n equal max(c_size_chunks)


# Thermo style which includes this variable
# thermo_style custom step temp pe vol v_max_n

thermo ${N}  # Print the thermo information every 100 steps
thermo 1000  

# Reset the npt fix at a lower temperature (below freezing)
fix 1  all npt temp  ${temp} ${temp}  0.1  iso  5.68  5.68  0.5  mtk yes tchain  5  pchain  5
fix 1  all npt temp  0.45 ${temp}  0.1  iso  5.68  5.68  0.5  mtk yes tchain  5  pchain  5
fix 1  all npt temp  0.45 0.45  0.1  iso  5.68  5.68  0.5  mtk yes tchain  5  pchain  5

dump dmp2 all dcd ${N} traj.dcd
dump dmp2 all dcd 1000 traj.dcd


compute msd all msd com yes
variable twopoint equal c_msd[4]/6/(step*dt+1.0e-6)
fix 9 all vector 10 c_msd[4]
variable fit equal slope(f_9)/6/(10*dt)
thermo_style custom step temp pe c_msd[4] v_twopoint v_fit v_max_n

fix 1 all npt temp 1.25 ${temp} 0.1 iso 5.68 5.68 0.5 mtk yes tchain 5 pchain 5
fix 1 all npt temp 1.25 0.45 0.1 iso 5.68 5.68 0.5 mtk yes tchain 5 pchain 5
run 500000 # 5000000  # Run for this many steps
Neighbor list info ...
  update every 1 steps, delay 10 steps, check yes
  max neighbors/atom: 2000, page size: 100000
  master list distance cutoff = 3.8
  ghost atom cutoff = 3.8
  binsize = 1.9, bins = 8 8 8
  4 neighbor lists, perpetual/occasional/extra = 1 3 0
  (1) pair lj/cut, perpetual
      attributes: half, newton on
      pair build: half/bin/atomonly/newton
      stencil: half/bin/3d
      bin: standard
  (2) compute orientorder/atom, occasional
      attributes: full, newton on
      pair build: full/bin/atomonly
      stencil: full/bin/3d
      bin: standard
  (3) compute coord/atom, occasional
      attributes: full, newton on
      pair build: full/bin/atomonly
      stencil: full/bin/3d
      bin: standard
  (4) compute cluster/atom, occasional
      attributes: full, newton on
      pair build: full/bin/atomonly
      stencil: full/bin/3d
      bin: standard
Per MPI rank memory allocation (min/avg/max) = 9.845 | 9.849 | 9.855 Mbytes
Step Temp PotEng c_msd[4] v_twopoint v_fit v_max_n 
   12000    1.2487643   -6.8740084 1.7964335e-30 1.2475232e-32 8.3333333e+20            3 
   13000    1.2419684   -6.9316558   0.45916068 0.0029433376  0.036977865            2 
   14000     1.258257   -6.9034011   0.84876389 0.0050521658  0.034563659            6 
   15000    1.2378109   -6.9774197    1.2811088  0.007117271  0.034017839            2 
   16000    1.2318432   -6.9573102    1.7008196 0.0088584353  0.034817494            1 
   17000    1.2272061   -6.9319482    2.1088918  0.010337704  0.034790556            2 
   18000    1.2254578   -6.9109541    2.5264944  0.011696733  0.034522737            2 
   19000     1.231972   -6.9475525     2.944974  0.012916552  0.034495879            2 
   20000    1.2464563   -6.9459874    3.3326783  0.013886159  0.034484681            5 
   21000    1.2219051    -6.944345    3.7112876  0.014727332  0.034288802            2 
   22000    1.2499452   -7.0001818    4.0300332  0.015265277  0.033901307            3 
   23000    1.2586107   -7.0018359    4.3715143   0.01583882  0.033381706            6 
   24000    1.2197846   -6.9440279    4.7881577  0.016625547  0.033071924            2 
   25000    1.2238321   -6.9975417    5.0692787  0.016897595  0.032760699            1 
   26000    1.2283063    -6.973008    5.3879491  0.017269067  0.032280808            3 
   27000    1.2180473   -6.9832231    5.7258504  0.017672377  0.031877439            2 
   28000    1.2210024   -6.9926377    6.1109472  0.018187342  0.031544583            1 
   29000    1.2135843   -7.0030954    6.5237969  0.018746543  0.031378092            2 
   30000    1.2009713   -6.9907485    6.8808806  0.019113557  0.031310753            3 
   31000    1.2356558   -7.0086757    7.2834525  0.019579173  0.031242483            1 
   32000    1.1941609   -7.0045313    7.6847371  0.020012336  0.031205538            3 
   33000     1.208671   -7.0383416    7.9538005  0.020085355  0.031157302            2 
   34000    1.2054539   -6.9920431    8.3007657  0.020345014  0.031010092            2 
   35000    1.2105143   -7.0003641    8.5944697  0.020463023  0.030871366            2 
   36000    1.2264997   -7.0121885    8.9912333   0.02081304  0.030753107            1 
   37000    1.2318879   -7.0337821    9.3007049  0.020947533  0.030622485            7 
   38000    1.1977202   -7.0396682    9.5643963  0.020974553  0.030470603            2 
   39000    1.2087772   -7.0385455    9.9484721  0.021257419  0.030334729            2 
   40000    1.2317815   -7.0839781    10.302397  0.021463327  0.030245759            2 
   41000    1.1797691   -6.9940356    10.679999  0.021707315  0.030152212            3 
   42000    1.2032417   -7.0677154    11.055732  0.021935975  0.030097119            2 
   43000     1.213967    -7.082248    11.364424  0.022024077  0.030019238            2 
   44000    1.2124414   -7.0667722    11.659843  0.022083035  0.029965121            2 
   45000    1.2004947   -7.0761542    11.974314  0.022174655  0.029866239            2 
   46000    1.2022128   -7.0647408     12.26617  0.022221322  0.029774113            2 
   47000    1.2077783   -7.0582904    12.604556  0.022348503  0.029665826            2 
   48000    1.1710206   -7.0711343    12.881068  0.022362965   0.02957079            1 
   49000    1.1722273   -7.0613858    13.267678  0.022564079  0.029472806            1 
   50000    1.1800552   -7.0810744    13.577156  0.022628593  0.029388021            4 
   51000    1.2057581   -7.1104717     13.88143  0.022682074   0.02931079            2 
   52000    1.1830374   -7.0414948    14.226721  0.022799233   0.02923564            3 
   53000    1.2081949   -7.0553862    14.571315  0.022910873  0.029152644            2 
   54000    1.2090623   -7.1321596    15.000273  0.023148569  0.029102917            3 
   55000    1.1825676   -7.0605636    15.334346  0.023233857  0.029065591            1 
   56000    1.1833088    -7.065447    15.556113  0.023148977  0.028997246            2 
   57000    1.1732591   -7.1347931    15.853088  0.023177029  0.028948988            2 
   58000    1.1676966   -7.1093889    16.233476   0.02332396  0.028902658            2 
   59000    1.1714685   -7.1421355    16.506613  0.023314425  0.028849083            3 
   60000    1.1986975   -7.1382747    16.861792  0.023419155   0.02879336            3 
   61000    1.2014447   -7.1476927    17.211176  0.023512535  0.028754281            1 
   62000    1.1617164   -7.1263841    17.446625  0.023449765   0.02870963            2 
   63000    1.1532757   -7.1500887    17.727886  0.023449585  0.028649876            4 
   64000    1.2003334   -7.1528403    18.008963   0.02344917  0.028579674            2 
   65000    1.1571199   -7.1297195    18.335176  0.023506635  0.028528818            3 
   66000    1.1522225   -7.1333471    18.558962  0.023433033  0.028451218            3 
   67000    1.1882694   -7.1205959      18.8239   0.02341281  0.028375999            6 
   68000    1.1493536   -7.1036774    19.239578  0.023577914  0.028299649            1 
   69000    1.1698148   -7.1837164    19.404784  0.023435729  0.028224483            4 
   70000    1.1640949    -7.193765    19.644606  0.023386435   0.02814416            2 
   71000    1.1676348   -7.2050891    19.912522  0.023371504  0.028064452            2 
   72000    1.1541489   -7.1736888    20.246704  0.023433686  0.027989716            4 
   73000    1.1458268    -7.224139    20.521202  0.023426029  0.027910994            2 
   74000    1.1484349   -7.1606345    20.851049  0.023480911  0.027836666            2 
   75000    1.1954551   -7.2062686     21.05772  0.023397467  0.027758736            4 
   76000    1.1491886    -7.185732    21.394065  0.023458405  0.027674896            3 
   77000    1.1407681   -7.2105771    21.736134  0.023523954  0.027606673            4 
   78000    1.1731714   -7.1560536    22.000511  0.023504819  0.027536754            3 
   79000    1.1627811   -7.1937476    22.283647  0.023505957  0.027467873            1 
   80000    1.1634371    -7.180697     22.43082  0.023365437  0.027392431            2 
   81000    1.1614825   -7.2293986    22.712065  0.023366322  0.027314574            6 
   82000     1.131891   -7.2542014    23.005655  0.023379731  0.027238979            2 
   83000     1.154755   -7.2527021    23.174266  0.023267335  0.027156583            3 
   84000     1.151231   -7.2527724    23.477476  0.023291146  0.027072098            3 
   85000    1.1381337   -7.2400356    23.737597  0.023272153  0.026997052            3 
   86000    1.1592606   -7.2401486    24.150462  0.023401611  0.026925145            2 
   87000    1.1089804   -7.2773881     24.35819  0.023331599  0.026853739            3 
   88000     1.133636   -7.2480098    24.627006  0.023321028  0.026783769            2 
   89000    1.1467968   -7.2229431    24.927727  0.023340568  0.026714674            2 
   90000    1.1097318   -7.2649685    24.980777  0.023130349  0.026645532            2 
   91000    1.1186049   -7.2793271    25.232481  0.023106667  0.026565595            2 
   92000    1.1209057   -7.2737536     25.51688  0.023113116  0.026482336            3 
   93000     1.123088   -7.2741724    25.612716  0.022950462  0.026394961            3 
   94000    1.1224584   -7.3064958    25.692234  0.022776803  0.026299124            2 
   95000    1.1086384   -7.2623992    26.040623  0.022842652  0.026200216            2 
   96000    1.0867628   -7.3408774    26.078432  0.022637528   0.02609938            6 
   97000     1.116202   -7.3046284     26.22516  0.022530206  0.025995983            2 
   98000    1.1212857   -7.3115366     26.56598  0.022590119  0.025892673            1 
   99000       1.1256   -7.3264014    26.860956  0.022610232  0.025797327            3 
  100000     1.139676   -7.2699562    27.158897  0.022632414  0.025706627            2 
  101000    1.0933138   -7.2946328    27.307987  0.022531342  0.025613217            3 
  102000    1.1089641   -7.2821994    27.581029   0.02253352  0.025518086            2 
  103000    1.0966424   -7.3005229    27.646298  0.022367555  0.025424729            1 
  104000    1.0948615   -7.3432878    27.782695  0.022261775  0.025327364           13 
  105000    1.0988956   -7.3300156    28.135131  0.022329469  0.025228936            3 
  106000    1.0930421   -7.3428237    28.238659  0.022200204  0.025134408            2 
  107000    1.0860318   -7.3108493    28.392703  0.022112697  0.025039073            2 
  108000    1.1257533   -7.3554382     28.68356  0.022132377  0.024945858            2 
  109000    1.0847271   -7.3661583    28.950045  0.022133062  0.024857754            8 
  110000    1.1068854   -7.3337042    29.255034  0.022162904  0.024770336            1 
  111000    1.0904005   -7.3075937    29.491659  0.022140885  0.024686449            2 
  112000    1.0630526   -7.3840314    29.667032  0.022073685  0.024604831           12 
  113000    1.0974957   -7.3287749    30.049961  0.022160738  0.024529049            3 
  114000     1.077119   -7.3778712    30.069536  0.021980655  0.024451921            8 
  115000    1.0837043   -7.3559192     30.30301  0.021958702  0.024372052            4 
  116000     1.106955   -7.3464681    30.541877  0.021941004  0.024291736            2 
  117000    1.0813752   -7.3727771    30.732743  0.021889418   0.02421451            3 
  118000    1.0750239   -7.3654453    30.839845  0.021779552  0.024132634            2 
  119000    1.0977338    -7.440858    30.835726  0.021593646  0.024046759            4 
  120000    1.0763837   -7.3903474    31.044604  0.021558753  0.023960987            4 
  121000    1.0783967   -7.3788765    31.273003  0.021537881  0.023873269            3 
  122000    1.0571694   -7.3603491    31.429116  0.021467975  0.023786731            3 
  123000    1.0657951   -7.3835058    31.655376  0.021446732  0.023698833            3 
  124000    1.0623612   -7.3946747    31.785041  0.021360915  0.023613781            7 
  125000    1.0724683   -7.4152783    32.068113  0.021378742  0.023529615            2 
  126000    1.0557373   -7.3825523    32.367842  0.021407303  0.023447896            7 
  127000    1.0408378   -7.3857204    32.634378  0.021413634  0.023374794            7 
  128000    1.0853777   -7.4363612     32.81107  0.021361374  0.023300336            4 
  129000    1.0607019   -7.4439487    33.031522  0.021338193  0.023227074            6 
  130000    1.0461064   -7.4046679    33.128684  0.021236336  0.023154917            4 
  131000    1.0515854    -7.448757    33.290629  0.021177245  0.023080606            2 
  132000    1.0461657   -7.4749156    33.600654  0.021212534  0.023007567            4 
  133000    1.0548188   -7.4577304    33.765942  0.021156605  0.022936198            3 
  134000    1.0656467   -7.4310299    34.032807  0.021164681  0.022866872            8 
  135000     1.037365   -7.4430661    34.161171  0.021087143  0.022797498            6 
  136000    1.0419261    -7.465996    34.299473  0.021016834  0.022727074            5 
  137000    1.0421351   -7.4668652     34.40102  0.020925195  0.022657782            2 
  138000    1.0106555   -7.5093874     34.62368  0.020908019    0.0225866            5 
  139000     1.050099   -7.4581486    34.723955  0.020817719  0.022516148            4 
  140000    1.0505105   -7.4965587    34.864976  0.020752962  0.022444203            3 
  141000    1.0554525   -7.4887625    34.973629  0.020669993  0.022371286            3 
  142000    1.0296815   -7.4957082     35.14604   0.02062561  0.022299582            7 
  143000    1.0468674   -7.4943363    35.534622  0.020707822  0.022231434            5 
  144000    1.0431518   -7.4854441    35.626431  0.020617147  0.022162872            3 
  145000    1.0262548   -7.4953844    35.800664  0.020575094  0.022093915            5 
  146000    1.0351612   -7.5052386     35.97206  0.020531998  0.022024091            3 
  147000    1.0245374   -7.5584678    35.927732  0.020367195  0.021953579            3 
  148000    1.0176609   -7.4689784    36.199246  0.020382458  0.021881642            4 
  149000    1.0337716   -7.5462338    36.015709  0.020143014  0.021807847            6 
  150000    1.0270534   -7.5388416    36.341402  0.020189668  0.021733947            6 
  151000    1.0215772   -7.5637775    36.502677  0.020144965  0.021660088            2 
  152000    1.0197193   -7.5411403    36.511906  0.020017492  0.021585108            3 
  153000    1.0133117   -7.5272522    36.882892  0.020088721  0.021513646            5 
  154000    1.0159742   -7.5079328    37.181171  0.020119681  0.021444889            2 
  155000    1.0162884   -7.5575337    37.127122  0.019960818  0.021376296            3 
  156000    1.0012326   -7.5489404    37.159858  0.019850351   0.02130588            2 
  157000    1.0073265   -7.5456855    37.358195   0.01982919  0.021234888            9 
  158000    1.0108942   -7.5649403    37.514253  0.019785998  0.021163173            7 
  159000    1.0059191   -7.5612715    37.768587  0.019794857  0.021094183           10 
  160000    1.0251399   -7.5779323    37.767901  0.019670782  0.021025187            3 
  161000    1.0158103   -7.6044025    38.007893  0.019672822  0.020954846            4 
  162000    1.0042259    -7.566191    38.244861  0.019673282  0.020887148            6 
  163000   0.98312769   -7.5688803    38.270967  0.019565934  0.020819974           11 
  164000    1.0164386   -7.6129325    38.401172  0.019512791  0.020751934            3 
  165000   0.98783542   -7.6128845    38.671078  0.019530847  0.020685909            4 
  166000   0.98897897   -7.6208481    38.774744  0.019465233  0.020619197            5 
  167000    1.0034765   -7.5976725    38.826503  0.019374502  0.020553127            7 
  168000   0.98637781   -7.6345812    38.912559  0.019301865  0.020484746            6 
  169000    1.0058163   -7.6232443    39.086706  0.019273524  0.020417336            4 
  170000   0.99624264   -7.6293897    39.031535  0.019133105  0.020348764            5 
  171000   0.99040428   -7.5880161    39.494096  0.019246636  0.020282783            6 
  172000   0.99735617   -7.6337395    39.448642  0.019112714  0.020217461            2 
  173000    1.0121035   -7.6057807    39.675451  0.019111489  0.020151769            4 
  174000    1.0162877   -7.6319049    39.757486  0.019040941  0.020086421            9 
  175000   0.99368991   -7.6062746    39.884538  0.018992637  0.020022379            4 
  176000   0.99219432   -7.6340635    40.047671  0.018961965  0.019958492            4 
  177000   0.98949373   -7.6240394    40.180867  0.018917546  0.019895282            9 
  178000   0.98425381   -7.6625498    40.158131  0.018800623  0.019830209            3 
  179000   0.99474142   -7.6577818    40.398561  0.018807524  0.019765698            6 
  180000    0.9695652   -7.6344659    40.474199  0.018738055  0.019700914            4 
  181000   0.99070614   -7.7212122    40.480973  0.018637649  0.019636226            4 
  182000   0.96514675   -7.6629716    40.728662  0.018648655  0.019572713            5 
  183000   0.96087931   -7.6834373    40.749805  0.018556377  0.019509413            5 
  184000   0.96973975   -7.6464148    40.971538   0.01855595   0.01944625            4 
  185000   0.96261294   -7.6852913    41.075367  0.018502418  0.019383772            4 
  186000   0.93796364   -7.7130282    41.104952  0.018416197  0.019320825            4 
  187000   0.94337317   -7.7278246    41.199812  0.018359987  0.019257618            7 
  188000   0.94912234   -7.6981268    41.469642  0.018381933  0.019195657            2 
  189000   0.95276889   -7.7429383    41.561983  0.018325389   0.01913282            7 
  190000   0.97967288   -7.7165641    41.584926  0.018239003  0.019071236            4 
  191000   0.97311001   -7.7164127    41.682321  0.018186004  0.019008302            6 
  192000   0.95180947   -7.6944836    41.675963  0.018088525   0.01894406            7 
  193000   0.95562241   -7.7202186    42.074565  0.018166911  0.018881786            5 
  194000   0.96076653   -7.7088001    42.136901  0.018100043  0.018821925            8 
  195000    0.9648642   -7.7078655    42.151385  0.018013412  0.018761131            5 
  196000   0.97116246   -7.7684796    42.197882  0.017941276  0.018700684            8 
  197000   0.95247704   -7.7372573    42.412727  0.017941086  0.018639994            5 
  198000   0.96643858   -7.7512233      42.5832  0.017922222  0.018579441           10 
  199000   0.96025011    -7.745558    42.528406  0.017809215   0.01851937            6 
  200000   0.93103634    -7.733419    42.659723  0.017774885  0.018458926            5 
  201000   0.91842972   -7.7353655    42.865824  0.017771901   0.01839854            7 
  202000   0.96172836   -7.7537896    42.976677  0.017729652  0.018339932            8 
  203000   0.94261762   -7.7801526    42.924471  0.017620883  0.018280813            4 
  204000   0.94678815   -7.7554889    43.106508  0.017608868  0.018221172            9 
  205000   0.95429205   -7.7875466    43.165828  0.017547085  0.018162314            8 
  206000   0.94332097   -7.8017282    43.324513  0.017526097  0.018103686            4 
  207000   0.94396456   -7.8333132    43.367009  0.017458538  0.018045453            3 
  208000   0.95552226   -7.7990991    43.373033  0.017377016  0.017987141            6 
  209000   0.95844983   -7.8028179    43.680186  0.017416342  0.017929518            5 
  210000   0.94524445   -7.7961861    43.677707  0.017332424  0.017872265            9 
  211000   0.93660737   -7.7942676    43.890757  0.017334422  0.017815306            7 
  212000   0.90701852     -7.84843    43.878263  0.017247745  0.017758291            3 
  213000   0.93431494   -7.8266824    43.829939  0.017147864  0.017702004            4 
  214000    0.9295666   -7.8324255    44.145197  0.017190497  0.017645187            5 
  215000   0.90849167   -7.8451523    44.200123   0.01713183  0.017588895           11 
  216000   0.92865381   -7.8481167    44.217724  0.017059307  0.017532065            9 
  217000    0.9144018   -7.8474918    44.164457  0.016960237  0.017475356            8 
  218000   0.89752391   -7.8594603    44.266202  0.016921331  0.017418528            8 
  219000   0.92761393   -7.8529382    44.545457  0.016950326  0.017362337           26 
  220000   0.91183791   -7.8209273    44.715736  0.016937779  0.017307309            7 
  221000   0.90485485   -7.8647249    44.741324  0.016870786  0.017252504            4 
  222000   0.90611672   -7.8635678    44.832314  0.016828947  0.017197853            9 
  223000   0.91533049   -7.9024225    44.784272  0.016735527  0.017143202            7 
  224000   0.89399457    -7.875126    44.917871  0.016710517  0.017087629            8 
  225000   0.90445372   -7.8878269    44.940176   0.01664451   0.01703237           14 
  226000   0.91780032   -7.8885934    45.078871  0.016622003  0.016977199           12 
  227000   0.90332687   -7.9240458      45.1047   0.01655826  0.016922047            5 
  228000   0.90417778   -7.8929702    45.198506  0.016519922  0.016867828            5 
  229000   0.90500015   -7.8799699    45.239031   0.01646253  0.016813593            6 
  230000   0.89851569   -7.8799603    45.283589  0.016407097  0.016759092            3 
  231000   0.88119238   -7.9025392    45.460053   0.01639973    0.0167051           11 
  232000   0.89517439   -7.8990026    45.690894  0.016411959  0.016651114           11 
  233000    0.8886799   -7.9042631    45.636764  0.016322162  0.016597878           10 
  234000   0.88380738   -7.9092222    45.642006  0.016254276  0.016545058            9 
  235000   0.87314129   -7.8998622    45.710946  0.016209555  0.016492425            5 
  236000   0.87759179   -7.9165622      46.0115  0.016246999  0.016440194            4 
  237000   0.90184469   -7.9287914    45.963186  0.016161458  0.016388204            7 
  238000   0.88345105   -7.9201192    45.961282  0.016092886  0.016335847            6 
  239000    0.8810577   -7.9460992    45.948095  0.016020954   0.01628313            3 
  240000   0.87014128   -7.9630401    45.920728  0.015944697  0.016230025            5 
  241000   0.88151094   -7.9772574    46.053007  0.015924276  0.016176673           10 
  242000   0.87471365   -7.9702634    46.095367   0.01587306  0.016123491           12 
  243000   0.89043094   -7.9791796    46.148317  0.015825897  0.016070632           17 
  244000   0.88053971    -8.003272    46.272768  0.015803541  0.016017843           10 
  245000   0.87176495   -7.9996914    46.241817  0.015728509  0.015964975            5 
  246000   0.87884394   -7.9922314    46.365847  0.015706588  0.015912094           13 
  247000   0.89806432   -7.9796758    46.384744  0.015649374   0.01585914           14 
  248000   0.84943863   -8.0007343    46.292369  0.015555232  0.015806552            9 
  249000   0.86945829    -8.022561    46.350493  0.015512213  0.015753736           12 
  250000   0.86988699    -8.004652    46.560903  0.015520301  0.015701284           11 
  251000    0.8576433   -8.0165227    46.505528  0.015440082  0.015648649           19 
  252000   0.85891698   -8.0610131    46.411764  0.015347806  0.015595649            8 
  253000   0.85737064    -8.018418    46.848651  0.015431044  0.015543391           17 
  254000   0.86062983   -8.0389254    46.573003  0.015279857   0.01549091           36 
  255000   0.86089318   -8.0342158    46.662579  0.015249209  0.015438813           30 
  256000   0.85347611   -8.0202356    46.818187  0.015240295  0.015387079           41 
  257000    0.8470532   -8.0244911    47.025431  0.015248194  0.015335756           13 
  258000    0.8609891   -8.0482861     46.98082  0.015174684  0.015284764           17 
  259000   0.86239418   -8.0831098    46.941556  0.015103461  0.015233618           14 
  260000   0.85569489   -8.0568596     46.86255  0.015020048  0.015181719           23 
  261000   0.84546925   -8.0754367    46.905709   0.01497628  0.015129957           21 
  262000   0.84876309   -8.0851946    46.900356  0.014917416  0.015077278            7 
  263000    0.8408856     -8.11718    46.804937  0.014830462  0.015024705            9 
  264000   0.85121582   -8.0410329    46.980376  0.014829664  0.014972353            4 
  265000   0.85178168   -8.0925901    46.947306  0.014763304  0.014920059            7 
  266000   0.84123116   -8.0958653    47.178494   0.01478023  0.014868098           12 
  267000   0.84469558   -8.1051657    47.080927  0.014694422   0.01481613           16 
  268000   0.83693856   -8.0692646    47.168487  0.014666818  0.014764402            7 
  269000   0.84579369    -8.094483    47.221454  0.014628703  0.014713205            7 
  270000   0.84151303   -8.0836713     47.23986  0.014580204  0.014661912           12 
  271000   0.83220883    -8.072356    47.309758  0.014547896  0.014610911           15 
  272000    0.8213688   -8.1201533    47.243077  0.014473982  0.014559612           13 
  273000   0.83000521   -8.1304435    47.407263  0.014471082  0.014508954           20 
  274000    0.8245185   -8.1390113     47.17641  0.014348057   0.01445835           23 
  275000     0.816955   -8.1452695    47.394525  0.014361977  0.014407492           16 
  276000   0.82707236   -8.1439056    47.506741  0.014343823  0.014357083           19 
  277000   0.82533547   -8.1319274    47.502818   0.01429086  0.014306705           19 
  278000   0.80649871   -8.1538496    47.455541  0.014225282  0.014256687           31 
  279000   0.82105891   -8.1023118    47.572207  0.014209142  0.014206491           20 
  280000   0.82328295   -8.1423599    47.536913  0.014147891  0.014156622           17 
  281000   0.81472501   -8.1659997    47.687459  0.014142188  0.014106667           34 
  282000   0.83389646   -8.1897137    47.537443  0.014047708   0.01405663            9 
  283000    0.8107708   -8.1597155    47.647215  0.014030393  0.014006618           27 
  284000   0.80403128   -8.1819039    47.612946  0.013970935  0.013956758           31 
  285000   0.81641694   -8.1529614    47.651014  0.013933045  0.013907116           17 
  286000    0.8061148   -8.2088484    47.611676  0.013872866  0.013857497           36 
  287000    0.8130984   -8.1775207    47.710541  0.013853235  0.013807833           12 
  288000   0.80627033   -8.1978287    47.506591   0.01374612  0.013758338           18 
  289000   0.81447662   -8.1903258    47.628084  0.013733588  0.013708599           23 
  290000   0.78598687   -8.1929975    47.563574  0.013667694  0.013658879           19 
  291000   0.79008782   -8.2011403    47.645288  0.013644126  0.013609243           24 
  292000   0.79835476   -8.2172034     47.54081  0.013567583  0.013559205           21 
  293000   0.80537665   -8.2105476    47.466233  0.013500066  0.013509163           30 
  294000   0.81367409   -8.1979102    47.633001  0.013501418  0.013459448           24 
  295000    0.7919986   -8.2221631    47.669857  0.013466061  0.013410057           15 
  296000   0.79003949   -8.2439741    47.682147  0.013424028  0.013360563           13 
  297000   0.78251899   -8.2261475    47.740339  0.013395157  0.013311218           11 
  298000   0.78044783   -8.2609689    47.639976  0.013322141  0.013262329           17 
  299000   0.79707649   -8.2742373     47.65504  0.013281784  0.013213338           27 
  300000   0.78997212   -8.2450611    47.571207  0.013214224  0.013164299           23 
  301000     0.768305   -8.2571458    47.598113  0.013177772    0.0131155           59 
  302000   0.77488339   -8.2858373    47.666484  0.013153003  0.013066704           49 
  303000   0.78493062   -8.2785892    47.653687  0.013106074   0.01301816            6 
  304000    0.7830637   -8.2621204    47.822764   0.01310931  0.012970008           42 
  305000   0.79127411    -8.286665    47.801343  0.013060476  0.012921851           40 
  306000   0.77755382   -8.2742265     47.82572  0.013024433  0.012874024           45 
  307000   0.76855163   -8.2771663    47.931913  0.013010834  0.012826497           48 
  308000   0.77749226   -8.3133995     47.70709  0.012907762  0.012778917           84 
  309000   0.76397251   -8.3135634    47.770884  0.012883194  0.012731296           97 
  310000   0.76753031   -8.2914775    47.786338   0.01284579  0.012683838           84 
  311000   0.77872487   -8.3186031    47.669258  0.012773113  0.012636411           68 
  312000   0.77258393   -8.3452597    47.771969  0.012759607  0.012589095          106 
  313000   0.77433039   -8.3126582    47.802893  0.012727075   0.01254186           70 
  314000   0.77915243   -8.3434248    47.849763  0.012698982   0.01249471           88 
  315000   0.78894223   -8.2936715    47.829186  0.012653224  0.012447927           76 
  316000   0.76044509   -8.3358203    47.795042  0.012604178  0.012401378           78 
  317000   0.76104302   -8.3774213    47.807327  0.012567647  0.012354837           92 
  318000   0.73826164   -8.3700834    47.759192  0.012515512  0.012308223          108 
  319000    0.7620737   -8.3578534     47.79532  0.012485716   0.01226172           54 
  320000   0.75041657   -8.3578433    47.814211  0.012451617   0.01221546          105 
  321000   0.76072248   -8.3685524    47.761069  0.012399031  0.012169416           94 
  322000    0.7575357   -8.3259309    47.931297   0.01240458  0.012123538           80 
  323000   0.74477728   -8.3576215    47.747137  0.012318663  0.012077927           79 
  324000   0.75022523   -8.3612894     47.81307    0.0122976  0.012032169           78 
  325000   0.74372955   -8.3571376    47.844462  0.012267811  0.011986558           79 
  326000   0.73529238   -8.3510318    47.693687  0.012191638  0.011941086          104 
  327000   0.74406854    -8.380014    47.753339  0.012169556  0.011895516           90 
  328000   0.72512306    -8.392195    47.797984  0.012143797  0.011850058           72 
  329000   0.73543908   -8.4233822    47.756146  0.012096288  0.011804662           87 
  330000   0.73254787   -8.4164337    47.651586  0.012033229  0.011759296          106 
  331000    0.7446799   -8.3986328    47.700296  0.012009138  0.011714198           88 
  332000   0.74354068     -8.42766    47.811934  0.012000987  0.011669376           96 
  333000   0.74254929   -8.4092606    47.767643  0.011953864  0.011624655          102 
  334000   0.73311121   -8.4464185    47.614403  0.011879841  0.011580055          103 
  335000    0.7334325   -8.4415416    47.654541  0.011854363  0.011535615           93 
  336000   0.71794959   -8.4078912    47.805912  0.011856625  0.011491387           81 
  337000   0.72706452   -8.4143279    47.745779  0.011806572  0.011447411          116 
  338000   0.73212659   -8.4147152    47.756147  0.011774198  0.011403425          101 
  339000   0.73142561   -8.4729742    47.642455  0.011711518  0.011359566           83 
  340000   0.73158421   -8.4109408     47.68063  0.011686429  0.011315752           88 
  341000   0.70972443   -8.4608478    47.671498  0.011649926  0.011272206          119 
  342000   0.71943199   -8.4656016    47.641892  0.011608648  0.011228895          103 
  343000    0.7187048   -8.4616084    47.648376  0.011576379   0.01118562          118 
  344000   0.71977841    -8.478486    47.624692  0.011536989  0.011142421          106 
  345000   0.70376511   -8.4489318    47.731753  0.011529409  0.011099513          146 
  346000   0.70831318   -8.4834749    47.570074  0.011457147  0.011056608           76 
  347000   0.71516444   -8.4723079    47.668531  0.011447774  0.011013937          111 
  348000   0.71421837   -8.4756702    47.740532   0.01143212   0.01097151           78 
  349000   0.68894317   -8.4954892    47.688006  0.011386821  0.010929242           89 
  350000   0.72262483   -8.5047046    47.667174  0.011349327  0.010887004           92 
  351000   0.70691945   -8.4995294    47.668094  0.011317211  0.010845095          100 
  352000   0.71227089   -8.4911617     47.55299   0.01125781  0.010803173          149 
  353000   0.69964751   -8.5013607    47.704381  0.011261657  0.010761254          112 
  354000    0.6877683   -8.4802253    47.614472   0.01120868  0.010719686          168 
  355000   0.69313877   -8.5214274    47.620064  0.011178419  0.010678105          252 
  356000   0.69985665   -8.5171325    47.704288  0.011166734  0.010636757          128 
  357000   0.70861022     -8.51722    47.548548  0.011099101  0.010595605          172 
  358000   0.71068179   -8.5255829    47.622329  0.011085272  0.010554427          164 
  359000   0.68214447   -8.5089773    47.581714  0.011044966  0.010513447          108 
  360000   0.68261301    -8.531998    47.543079  0.011005342  0.010472643          105 
  361000   0.68259287   -8.5252665     47.61285  0.010990962  0.010431992          206 
  362000   0.69235642   -8.5293992    47.644701  0.010967933  0.010391496          125 
  363000   0.69485978   -8.5217306    47.472052  0.010898084  0.010351163          169 
  364000   0.68579118   -8.5341444    47.545865  0.010885042  0.010311018          127 
  365000   0.69409343   -8.5600594    47.439311  0.010830893  0.010271002          201 
  366000    0.6819076   -8.5407796    47.556951  0.010828085  0.010231272          207 
  367000   0.68043984   -8.5509826    47.504179  0.010786598  0.010191689          102 
  368000   0.67248034   -8.5517183    47.569561  0.010772093  0.010152349          147 
  369000   0.68708282   -8.5931042    47.511351  0.010729754  0.010113322          133 
  370000   0.67302547   -8.5648613    47.617574  0.010724679  0.010074332          125 
  371000   0.66453417   -8.5789322    47.492832  0.010667752  0.010035455          152 
  372000   0.67415575   -8.5908851    47.542804   0.01065027 0.0099965781          162 
  373000   0.67627596   -8.5893127    47.493237  0.010610643 0.0099580138          138 
  374000   0.66178476   -8.6113604    47.605766  0.010607345 0.0099196527          197 
  375000   0.66972614   -8.5859658    47.505367  0.010556748 0.0098813247          241 
  376000    0.6584563   -8.6224552    47.519573   0.01053182 0.0098431255          173 
  377000   0.67179306   -8.5935301    47.513729  0.010502593 0.0098051553          206 
  378000   0.66095256   -8.5939801    47.567784  0.010486725 0.0097674411          311 
  379000   0.67056471   -8.6140199    47.465959  0.010436667 0.0097297777          339 
  380000   0.63702977   -8.6179526    47.505107  0.010417787 0.0096922125          306 
  381000   0.65091363   -8.6263218     47.48125  0.010385225 0.0096547869          182 
  382000   0.64855171   -8.6337494    47.490284   0.01036001 0.0096175739          364 
  383000   0.63145534   -8.6011209     47.44571  0.010323262 0.0095805101          289 
  384000   0.66694662   -8.6238262    47.446665  0.010296585 0.0095436063          220 
  385000   0.64858357   -8.6215601    47.446438  0.010269792 0.0095068981          245 
  386000   0.64127297   -8.6278935    47.494772  0.010253621 0.0094704259          264 
  387000   0.67069645   -8.6324807    47.429513  0.010213073 0.0094341612          256 
  388000    0.6500851   -8.6470383    47.423101  0.010185374 0.0093979714          269 
  389000   0.64495429   -8.6420811    47.330725  0.010139401 0.0093619191          295 
  390000   0.63924999   -8.6675118    47.375478  0.010122965 0.0093259837          282 
  391000   0.64220758   -8.6410927    47.501561  0.010123947 0.0092903144          302 
  392000   0.65520502   -8.6507687    47.490415  0.010095751 0.0092547755          306 
  393000   0.63783287   -8.6534493    47.410604  0.010053139 0.0092193633          242 
  394000   0.64284597   -8.6751351    47.487679  0.010043925 0.0091842407          265 
  395000   0.65062241   -8.6678043    47.464679  0.010013645 0.0091491915          317 
  396000    0.6312196   -8.6662451    47.518088 0.0099995976 0.0091143619          174 
  397000   0.62792875   -8.6402597    47.442865 0.0099586199 0.0090796425          170 
  398000   0.64521234   -8.6742041    47.408112 0.0099263216 0.0090449898          180 
  399000   0.62095247   -8.6579318    47.436284 0.0099073276 0.0090105618          227 
  400000    0.6323027   -8.6880966    47.399338  0.009874862 0.0089763324          300 
  401000   0.65186062   -8.6872292    47.343821 0.0098386993 0.0089421883          309 
  402000   0.62827009   -8.6895564    47.387428 0.0098232645  0.008908183          160 
  403000   0.62144643   -8.6795062    47.401063 0.0098017087 0.0088743673          253 
  404000   0.61687156   -8.6673852    47.418765 0.0097810983 0.0088406647          291 
  405000   0.61075885   -8.6976399    47.311155 0.0097348056 0.0088071625          236 
  406000   0.60285582   -8.7065926    47.393003 0.0097276279 0.0087738051          285 
  407000    0.6217435   -8.7221827    47.324673 0.0096897365 0.0087406069          289 
  408000   0.61701132   -8.6985452    47.340201 0.0096691588 0.0087075772          262 
  409000   0.62404308   -8.6991336    47.351137 0.0096477459 0.0086746286          260 
  410000   0.61922578   -8.7074336    47.342331  0.009622425 0.0086417256          269 
  411000   0.60646354    -8.708197    47.339613 0.0095984616 0.0086090812          285 
  412000   0.61673276   -8.7322357    47.321019 0.0095714034 0.0085766027          285 
  413000   0.59655372   -8.7232478    47.356977 0.0095554836 0.0085443398          350 
  414000   0.61468207   -8.7219252    47.342381 0.0095294647 0.0085122357          324 
  415000   0.60955394   -8.7168397    47.320344  0.009502077 0.0084803087          335 
  416000    0.5913466    -8.747078    47.328601 0.0094808897 0.0084485061          258 
  417000   0.60861597   -8.7263495    47.346353 0.0094617013 0.0084168975          290 
  418000   0.61240216   -8.7250713    47.387739 0.0094473164 0.0083855005          262 
  419000    0.5979309   -8.7437669    47.326239 0.0094125377 0.0083541088          265 
  420000   0.59701294    -8.737611    47.269295 0.0093788284  0.008322911          342 
  421000   0.60288425   -8.7355211    47.343268 0.0093711932 0.0082917951          343 
  422000   0.59641817   -8.7664078    47.334978 0.0093473495 0.0082608426          275 
  423000    0.5952835   -8.7574032    47.244941  0.009307514 0.0082300324          313 
  424000   0.59522479   -8.7754423    47.272683 0.0092910148 0.0081993688          275 
  425000   0.59759524   -8.7690473    47.318722 0.0092781808 0.0081688247          313 
  426000   0.58787923   -8.7782851    47.281902 0.0092491984 0.0081384082          268 
  427000   0.58802745   -8.7621287    47.356015 0.0092420014 0.0081081985          287 
  428000   0.59154241   -8.7630666    47.253696  0.009200486 0.0080780727          268 
  429000   0.57915448    -8.762693    47.229218 0.0091742848 0.0080480604          305 
  430000   0.58006752   -8.7658229    47.166415 0.0091407782 0.0080181661          314 
  431000   0.58877218    -8.763192    47.237569 0.0091333273 0.0079884155          422 
  432000   0.58451103   -8.7721477    47.297944 0.0091238318 0.0079587948          362 
  433000   0.56670735   -8.8107953    47.197459 0.0090834217  0.007929309          316 
  434000    0.5742588   -8.7840078    47.100676 0.0090439086 0.0078999235          351 
  435000   0.56796744   -8.7826678    47.214678 0.0090449574 0.0078707166          335 
  436000   0.58033675   -8.8024371    47.177839 0.0090171711 0.0078416436          333 
  437000   0.56568955   -8.7986464    47.253278 0.0090109227  0.007812719          386 
  438000    0.5598957   -8.8023513    47.227616 0.0089854672 0.0077839212          382 
  439000   0.56414912   -8.8098911     47.20356 0.0089604328 0.0077552443          331 
  440000   0.56409272   -8.8155435    47.106671  0.008921718 0.0077267213          373 
  441000   0.57250483   -8.8014318    47.154557  0.008910536  0.007698273          412 
  442000    0.5567961    -8.809775    47.155182 0.0088904944 0.0076699876          404 
  443000   0.56383723   -8.8072832    47.207052 0.0088801829  0.007641885          290 
  444000   0.55653001    -8.814957    47.168911 0.0088530238 0.0076138597          381 
  445000   0.55737356   -8.8104418    47.124983 0.0088249031 0.0075859726          309 
  446000   0.56743633   -8.8107304    47.150709 0.0088099231 0.0075581645          345 
  447000   0.56229896   -8.8101956    47.149186 0.0087899303  0.007530484          342 
  448000   0.55590363    -8.833887    47.069538 0.0087554945 0.0075029404          350 
  449000   0.56786109   -8.8289457    47.164113 0.0087535473 0.0074755579          380 
  450000   0.54718062   -8.8394799    47.111858 0.0087244181 0.0074482967          299 
  451000   0.55541511   -8.8485909    47.145133  0.008711222 0.0074210874          407 
  452000     0.548322   -8.8106738    47.146784 0.0086922536 0.0073939967          351 
  453000   0.53897703   -8.8319766    47.108222 0.0086659717 0.0073670705          350 
  454000   0.54156293   -8.8269528    47.052117 0.0086365853 0.0073402564          359 
  455000   0.51814534   -8.8379245    47.042591 0.0086158592 0.0073135638          377 
  456000    0.5334066   -8.8622933    47.021676 0.0085931426 0.0072869693          414 
  457000   0.53903109   -8.8405101    47.102294 0.0085890398 0.0072605819          365 
  458000   0.53564236   -8.8496488    47.081259  0.008566459 0.0072342593          362 
  459000   0.53567985   -8.8502478    47.085314 0.0085485319 0.0072080735          393 
  460000   0.53671268   -8.8492531    46.938005 0.0085032617 0.0071820088          402 
  461000   0.53508279   -8.8537601    47.028472   0.00850117 0.0071560835          414 
  462000   0.52936238   -8.8484862     47.03192 0.0084833911 0.0071302459          441 
  463000    0.5300893   -8.8578322    47.060794 0.0084702652  0.007104518          484 
  464000    0.5212755   -8.8663547    46.958489 0.0084336366  0.007078913          400 
  465000   0.52735933   -8.8709034    47.034321 0.0084290897 0.0070534109          395 
  466000   0.52012773   -8.8832272    47.015436 0.0084076244 0.0070280486          422 
  467000   0.52209508   -8.8735794    46.975179 0.0083824373 0.0070027604          429 
  468000   0.52259173     -8.85646    47.041603 0.0083763539  0.006977587          351 
  469000   0.51179571   -8.8722374     46.96919 0.0083456273 0.0069525803          401 
  470000   0.51571839   -8.8989933    46.941723 0.0083230006 0.0069276534          452 
  471000    0.5205807   -8.8992658    46.929134 0.0083031022 0.0069028449          488 
  472000   0.51529328   -8.8870515     47.01194 0.0083001306 0.0068781735          441 
  473000   0.50941438    -8.893075    46.929568 0.0082680705 0.0068535765          387 
  474000   0.49933994   -8.8922006    46.890501  0.008243759 0.0068290825          381 
  475000   0.51333161   -8.8802842     46.96536 0.0082395369 0.0068047408          386 
  476000   0.49587719   -8.9007057    46.911093 0.0082127263 0.0067805035          482 
  477000    0.5119545   -8.9081689     46.93707 0.0082000472 0.0067564051          415 
  478000   0.50721564   -8.8944624    46.918018 0.0081795708  0.006732384          396 
  479000   0.50143366   -8.9089293    46.968063  0.008171201 0.0067084944          428 
  480000    0.5033357   -8.9112005    46.976118  0.008155576 0.0066846775          401 
  481000    0.5011465   -8.9054353    46.942147 0.0081327351 0.0066609923          400 
  482000   0.48690555   -8.9089238    46.955701 0.0081182055 0.0066374395          419 
  483000   0.49599998   -8.9187211    46.907893 0.0080931492 0.0066139903          417 
  484000   0.48947157   -8.9222459    46.897817  0.008074693 0.0065906459          364 
  485000    0.4968491   -8.8912061    46.875404 0.0080541931    0.0065674          431 
  486000   0.49681016   -8.9052296    46.924079 0.0080459669 0.0065442579          426 
  487000   0.49789825   -8.9326449    46.891126 0.0080238066 0.0065212263          435 
  488000   0.48296202    -8.925853    46.941244 0.0080159227 0.0064983022          390 
  489000    0.4926159   -8.9334714    46.865504  0.007986623 0.0064754276          384 
  490000   0.49603648   -8.9408131    46.925505  0.007980528 0.0064526701          390 
  491000   0.47411707   -8.9324093    46.855121 0.0079523288 0.0064300381          402 
  492000   0.47293469   -8.9377738    46.852348 0.0079356958 0.0064075303          336 
  493000   0.47735273   -8.9332085    46.841633 0.0079177879 0.0063851629          431 
  494000   0.48122605   -8.9438098    46.845713 0.0079024482 0.0063628923          392 
  495000   0.48682046   -8.9503918    46.814514 0.0078812313   0.00634069          372 
  496000   0.47593833   -8.9462568    46.863877 0.0078736352 0.0063185831          411 
  497000   0.47036894   -8.9372635     46.83504 0.0078529577  0.006296611          443 
  498000   0.47318044   -8.9575735    46.863784 0.0078419987 0.0062747435          384 
  499000   0.46351279   -8.9338846    46.833397 0.0078212085  0.006252996          450 
  500000   0.47363306   -8.9705222    46.823465 0.0078039109 0.0062313406          446 
  501000   0.47564324   -8.9329707    46.890153 0.0077994267 0.0062098228          450 
  502000   0.46428686   -8.9527355     46.84277 0.0077760243 0.0061883878          447 
  503000   0.46771644   -8.9746435    46.795554 0.0077527425 0.0061670261          371 
  504000   0.46631496   -8.9605967    46.778338 0.0077345135 0.0061457292          423 
  505000    0.4503407   -8.9665972    46.876536 0.0077354019 0.0061245533          360 
  506000   0.44489335    -8.987056    46.862179 0.0077177501 0.0061034579          379 
  507000    0.4561915     -8.98239    46.817855 0.0076952424 0.0060824761          385 
  508000   0.46698029   -8.9800665    46.807939 0.0076784677 0.0060615936          423 
  509000   0.45593643   -8.9632697     46.83431 0.0076676998  0.006040819          392 
  510000   0.44413074   -8.9789396    46.829279 0.0076518429  0.006020114          410 
  511000   0.45307055   -8.9992265    46.814066 0.0076343878  0.005999506          370 
  512000   0.45420155   -8.9797905     46.75914 0.0076105372 0.0059789906          419 
Loop time of 1302.95 on 48 procs for 500000 steps with 4000 atoms

Performance: 66311.075 tau/day, 383.745 timesteps/s
99.4% CPU use with 48 MPI tasks x no OpenMP threads

MPI task timing breakdown:
Section |  min time  |  avg time  |  max time  |%varavg| %total
---------------------------------------------------------------
Pair    | 93.077     | 98.276     | 104.04     |  24.6 |  7.54
Neigh   | 8.8237     | 9.1646     | 9.6834     |   6.0 |  0.70
Comm    | 82.13      | 87.119     | 92.498     |  26.2 |  6.69
Output  | 1.0683     | 1.0692     | 1.0987     |   0.4 |  0.08
Modify  | 1089.1     | 1094.7     | 1099.5     |   7.8 | 84.02
Other   |            | 12.6       |            |       |  0.97

Nlocal:        83.3333 ave          87 max          78 min
Histogram: 1 4 3 4 8 4 6 3 10 5
Nghost:        2377.23 ave        2395 max        2358 min
Histogram: 2 2 1 6 15 8 3 6 3 2
Neighs:        16270.0 ave       18481 max       14441 min
Histogram: 5 5 10 3 4 5 4 6 2 4
FullNghs:      32541.2 ave       34337 max       30286 min
Histogram: 4 2 2 5 7 4 7 8 5 4

Total # of neighbors = 1561976
Ave neighs/atom = 390.49400
Neighbor list builds = 26602
Dangerous builds = 0

#clear
#
#next RN
#
#jump SELF
Total wall time: 0:21:46
