
units lj                  # Use reduced LJ style units
atom_style atomic         # Uncharged point particles
atom_modify map hash      # Needed for indexing of clusters etc
                          # Used to be able to find where atoms are in relation to each other.

lattice fcc 1.0 spacing 1 1 1
Lattice spacing in x,y,z = 1.5874011 1.5874011 1.5874011
region box block 0 10 0 10 0 10 units lattice
create_box 2 box
Created orthogonal box = (0.0000000 0.0000000 0.0000000) to (15.874011 15.874011 15.874011)
  3 by 4 by 4 MPI processor grid
create_atoms 1 box
Created 4000 atoms
  using lattice units in orthogonal box = (0.0000000 0.0000000 0.0000000) to (15.874011 15.874011 15.874011)
  create_atoms CPU = 0.003 seconds
set type 1 type/fraction 2 0.98 78393
Setting atom values ...
  3920 settings made for type/fraction
mass 1 1.0
mass 2 1.0
pair_style lj/cut  3.5
pair_modify tail  yes
pair_coeff 1  1  1.0  1.0   # Intearaction between 1 and 1 set with epsilon = 1 and sigma = 1
pair_coeff 1  2  1.5  0.8
pair_coeff 2  2  0.5  0.88

write_data data.0
System init for write_data ...
Neighbor list info ...
  update every 1 steps, delay 10 steps, check yes
  max neighbors/atom: 2000, page size: 100000
  master list distance cutoff = 3.8
  ghost atom cutoff = 3.8
  binsize = 1.9, bins = 9 9 9
  1 neighbor lists, perpetual/occasional/extra = 1 0 0
  (1) pair lj/cut, perpetual
      attributes: half, newton on
      pair build: half/bin/atomonly/newton
      stencil: half/bin/3d
      bin: standard
WARNING: Not all mixed pair coeffs generated from mixing. Use write_data with 'pair ij' option to store all pair coeffs. (../write_data.cpp:312)


#############################
#   M E L T   S Y S T E M   #
#############################

velocity all create 2.4 5300450 mom yes dist gaussian # Assign velocities
                                                    # Temperature 2.4, random number seed, zero linear momentum
                                                                                # Gaussian distribution

timestep 0.002   # simulation timestep
thermo 1000       # output thermodynamic data every 1000 steps bf 100

# Define a fix  in this case with index 1 applied to all
# particles in the simulation. This fix is for simulations
# in the anisotropic NPT ensemble. Note that we use the MTK
# correction.
fix 1 all npt temp 2.4 2.4 0.1 iso 5.68 5.68 0.5 mtk yes tchain 5 pchain 5 # Use NPT ensemble
                                                                         # Set temperature and pressure and damping
                                                                         # Numbers of thermostats in chain and in barostat
run 10000          # run for 10000 steps
Per MPI rank memory allocation (min/avg/max) = 3.642 | 3.644 | 3.648 Mbytes
Step Temp E_pair E_mol TotEng Press Volume 
       0          2.4   -2.7962588            0   0.80284124   -1.8826162         4000 
    1000    2.4120727   -1.5760405            0    2.0411641    5.5679633    4247.5579 
    2000    2.4244278   -1.6153983            0    2.0203342    5.8957615    4139.2487 
    3000    2.4118724   -1.5858115            0    2.0310927    5.7847733    4194.4308 
    4000    2.3864005    -1.603002            0    1.9757038    5.4469686    4250.1131 
    5000     2.337304    -1.630967            0    1.8741124    5.4179816     4205.662 
    6000    2.3380604   -1.6226083            0    1.8836055    5.4844894    4207.3562 
    7000    2.3567542   -1.5873132            0    1.9469343    5.5612285    4228.5348 
    8000    2.3665237   -1.6039036            0    1.9449945    5.5963346    4206.5994 
    9000    2.4022607   -1.5730144            0    2.0294758    5.6212855     4238.438 
   10000    2.3891289   -1.5493543            0     2.033443    5.8182769    4210.6792 
Loop time of 2.47335 on 48 procs for 10000 steps with 4000 atoms

Performance: 698647.324 tau/day, 4043.098 timesteps/s
99.5% CPU use with 48 MPI tasks x no OpenMP threads

MPI task timing breakdown:
Section |  min time  |  avg time  |  max time  |%varavg| %total
---------------------------------------------------------------
Pair    | 1.0338     | 1.1121     | 1.2433     |   3.1 | 44.96
Neigh   | 0.20649    | 0.21321    | 0.24105    |   1.2 |  8.62
Comm    | 0.68514    | 0.83533    | 0.92211    |   4.4 | 33.77
Output  | 0.00024819 | 0.0002539  | 0.00032243 |   0.0 |  0.01
Modify  | 0.26674    | 0.29743    | 0.32838    |   3.2 | 12.03
Other   |            | 0.01499    |            |       |  0.61

Nlocal:        83.3333 ave          92 max          77 min
Histogram: 6 3 7 3 13 2 7 1 5 1
Nghost:        1582.81 ave        1608 max        1551 min
Histogram: 2 2 5 3 4 12 6 7 4 3
Neighs:        9053.10 ave       10181 max        8269 min
Histogram: 5 5 8 7 5 8 4 2 3 1

Total # of neighbors = 434549
Ave neighs/atom = 108.63725
Neighbor list builds = 911
Dangerous builds = 243

# Equilibrate just above the melting temperature to avoid step fn in T

fix 1 all npt temp 1.25 1.25 0.1 iso 5.68 5.68 0.5 mtk yes tchain 5 pchain 5
run 2000
Per MPI rank memory allocation (min/avg/max) = 3.643 | 3.645 | 3.649 Mbytes
Step Temp E_pair E_mol TotEng Press Volume 
   10000    2.3891289   -1.5493543            0     2.033443    5.8182769    4210.6792 
   11000    1.2481381   -2.4404608            0  -0.56872171    5.7520769    3284.3398 
   12000    1.2367238   -2.4379417            0  -0.58331968    5.8094234    3277.2065 
Loop time of 0.587134 on 48 procs for 2000 steps with 4000 atoms

Performance: 588622.152 tau/day, 3406.378 timesteps/s
99.6% CPU use with 48 MPI tasks x no OpenMP threads

MPI task timing breakdown:
Section |  min time  |  avg time  |  max time  |%varavg| %total
---------------------------------------------------------------
Pair    | 0.25861    | 0.28178    | 0.30774    |   2.1 | 47.99
Neigh   | 0.038971   | 0.041154   | 0.044418   |   0.6 |  7.01
Comm    | 0.18699    | 0.21408    | 0.2427     |   2.8 | 36.46
Output  | 5.3589e-05 | 5.4806e-05 | 7.0137e-05 |   0.0 |  0.01
Modify  | 0.040839   | 0.045307   | 0.048669   |   1.0 |  7.72
Other   |            | 0.00476    |            |       |  0.81

Nlocal:        83.3333 ave          94 max          76 min
Histogram: 3 6 8 10 2 9 6 2 1 1
Nghost:        1880.54 ave        1904 max        1851 min
Histogram: 1 0 6 6 6 4 15 3 3 4
Neighs:        11655.1 ave       13302 max       10235 min
Histogram: 3 3 8 7 5 6 9 4 2 1

Total # of neighbors = 559446
Ave neighs/atom = 139.86150
Neighbor list builds = 144
Dangerous builds = 11

#############################
# L I N E A R  Q U E N C H  #
#############################

# Define solid atoms. This closely follows ten Wolde  Ruiz-Montero and Frenkel  Faraday Discuss  1996  104  93-110
# Compute components of the per-atom q6 vector
compute q6 all orientorder/atom degrees 1 6 components 6 nnn NULL cutoff 1.3 # compute the Q6 parameter.
                                                                             # Use all neighbours within 1.3 unit cell.

# get number of connections
compute coord_number all coord/atom orientorder q6 0.5

# An atom is solid if it has 8 or more connections (of a possible 14)
variable is_solid atom c_coord_number>=8
group solid dynamic all var is_solid    # Must be dynamic to update
dynamic group solid defined

# do clustering
compute cluster solid cluster/atom 1.3 # Create a cluster where all atoms within are solid and max 1.3 units from another member

# define chunks one chunk per cluster
compute clus_chunks solid chunk/atom c_cluster nchunk every compress yes  # Says which atoms are in which chunk

# count the size of each chunk
compute size_chunks solid property/chunk clus_chunks count


# Find the maximum entry in the vector of chunk sizes
variable max_n equal max(c_size_chunks)


# Thermo style which includes this variable
# thermo_style custom step temp pe vol v_max_n

thermo ${N}  # Print the thermo information every 100 steps
thermo 1000  

# Reset the npt fix at a lower temperature (below freezing)
fix 1  all npt temp  ${temp} ${temp}  0.1  iso  5.68  5.68  0.5  mtk yes tchain  5  pchain  5
fix 1  all npt temp  0.45 ${temp}  0.1  iso  5.68  5.68  0.5  mtk yes tchain  5  pchain  5
fix 1  all npt temp  0.45 0.45  0.1  iso  5.68  5.68  0.5  mtk yes tchain  5  pchain  5

dump dmp2 all dcd ${N} traj.dcd
dump dmp2 all dcd 1000 traj.dcd


compute msd all msd com yes
variable twopoint equal c_msd[4]/6/(step*dt+1.0e-6)
fix 9 all vector 10 c_msd[4]
variable fit equal slope(f_9)/6/(10*dt)
thermo_style custom step temp pe c_msd[4] v_twopoint v_fit v_max_n

fix 1 all npt temp 1.25 ${temp} 0.1 iso 5.68 5.68 0.5 mtk yes tchain 5 pchain 5
fix 1 all npt temp 1.25 0.45 0.1 iso 5.68 5.68 0.5 mtk yes tchain 5 pchain 5
run 500000 # 5000000  # Run for this many steps
Neighbor list info ...
  update every 1 steps, delay 10 steps, check yes
  max neighbors/atom: 2000, page size: 100000
  master list distance cutoff = 3.8
  ghost atom cutoff = 3.8
  binsize = 1.9, bins = 8 8 8
  4 neighbor lists, perpetual/occasional/extra = 1 3 0
  (1) pair lj/cut, perpetual
      attributes: half, newton on
      pair build: half/bin/atomonly/newton
      stencil: half/bin/3d
      bin: standard
  (2) compute orientorder/atom, occasional
      attributes: full, newton on
      pair build: full/bin/atomonly
      stencil: full/bin/3d
      bin: standard
  (3) compute coord/atom, occasional
      attributes: full, newton on
      pair build: full/bin/atomonly
      stencil: full/bin/3d
      bin: standard
  (4) compute cluster/atom, occasional
      attributes: full, newton on
      pair build: full/bin/atomonly
      stencil: full/bin/3d
      bin: standard
Per MPI rank memory allocation (min/avg/max) = 9.812 | 9.819 | 9.825 Mbytes
Step Temp PotEng c_msd[4] v_twopoint v_fit v_max_n 
   12000    1.2367238   -2.4379417 1.9129877e-30 1.3284636e-32 8.3333333e+20            1 
   13000    1.2310781   -2.4318572    1.1658997 0.0074737156  0.097729609            1 
   14000    1.2388522   -2.4680547    2.4589554  0.014636639   0.10368069            2 
   15000    1.2284398    -2.438684     3.764494  0.020913855   0.10600436            3 
   16000    1.2289752    -2.465298    5.1378649  0.026759712   0.10850117            1 
   17000    1.2447083   -2.4248583    6.4756167  0.031743218   0.11003703            2 
   18000     1.230845   -2.4458764    7.7472524  0.035866908   0.11014314            2 
   19000    1.2470518   -2.4713961    9.1081645  0.039948089    0.1099372            1 
   20000    1.2300479   -2.4256946    10.420684  0.043419517    0.1101359            4 
   21000    1.2294364   -2.4112072    11.694376  0.046406253   0.11015771            2 
   22000     1.216812   -2.4519183    12.966213   0.04911444   0.10986771            2 
   23000    1.2191211   -2.4865622    14.345926  0.051977992   0.10980633            1 
   24000    1.2074333   -2.4736289      15.8927  0.055182986   0.11015898            2 
   25000     1.244125   -2.5000426    17.297446  0.057658152   0.11091553            1 
   26000    1.2151407   -2.4482178    18.583492  0.059562474   0.11139558            2 
   27000    1.2223869   -2.4357629    19.941813  0.061548806   0.11159001            3 
   28000    1.2377918     -2.45995    21.178262  0.063030539   0.11161118            1 
   29000    1.2279665   -2.4472071    22.597562  0.064935521   0.11167279            2 
   30000    1.2209961   -2.4640706    23.894323  0.066373117   0.11171585            1 
   31000    1.2162575   -2.4482383     25.13642  0.067571021   0.11181643            1 
   32000     1.211915   -2.4652677    26.341505  0.068597668   0.11161526            1 
   33000    1.2126674   -2.4842573     27.73986  0.070050149     0.111477            1 
   34000    1.1906528   -2.4481973     28.98955  0.071052818   0.11130481            2 
   35000    1.2071161   -2.4664675     30.31983   0.07219007   0.11113098            2 
   36000    1.2430006   -2.4888554    31.411366  0.072711493   0.11097383            1 
   37000    1.2287218   -2.4647868    32.934432  0.074176648   0.11079214            2 
   38000    1.2202546   -2.4611872    34.118674  0.074821653   0.11056202            3 
   39000    1.1950768   -2.4923053    35.391856  0.075623623   0.11031639            1 
   40000    1.1859647   -2.4362732    36.643339   0.07634029   0.11006632            1 
   41000    1.1692589   -2.4674003    37.811406   0.07685245   0.10987014            1 
   42000    1.2118428   -2.4767743    38.847959  0.077079284    0.1095394            2 
   43000    1.1795715   -2.5061991    39.933439  0.077390385   0.10925717            1 
   44000     1.195596   -2.5097202    41.163411  0.077961006   0.10896869            2 
   45000    1.2107353   -2.4788488    42.656175  0.078992917    0.1087166            4 
   46000    1.1739927   -2.4869535    43.737611  0.079234803   0.10842769            2 
   47000    1.1873473   -2.5019895    44.722885  0.079295895   0.10813211            2 
   48000    1.1791265   -2.4858694    46.342604  0.080455908   0.10791229            1 
   49000    1.1913869   -2.4933904    47.734443  0.081181025   0.10776471            1 
   50000    1.1686482   -2.5183605    48.872668  0.081454445    0.1076246            1 
   51000     1.178671   -2.5107629    49.786055  0.081349762   0.10744113            2 
   52000    1.2020563   -2.4833335    51.443154  0.082440952   0.10726925            2 
   53000    1.1710671    -2.513534    52.476186  0.082509726   0.10710757            2 
   54000    1.1795352    -2.504823    53.277085  0.082217723   0.10692075            3 
   55000    1.1798603    -2.518738    54.256549  0.082206892   0.10665882            2 
   56000     1.188633   -2.5017788    55.400735   0.08244157   0.10636923            1 
   57000    1.1753571   -2.4966716    56.825118  0.083077657   0.10610088            2 
   58000     1.189231   -2.5320361    57.993244  0.083323626   0.10584807            1 
   59000    1.1538042   -2.5344052    59.466682  0.083992488   0.10565456            2 
   60000    1.1815782   -2.5140956    60.810702  0.084459307   0.10551467            1 
   61000    1.1492036   -2.5135534     62.11472  0.084856174   0.10540222            1 
   62000     1.177587   -2.5126849    63.157638  0.084889298   0.10527086            2 
   63000    1.1947866    -2.509877    64.358177  0.085129863   0.10515436            6 
   64000    1.1610584   -2.5293102    65.803485   0.08568162   0.10506423            2 
   65000    1.1818352   -2.5431238    66.776433  0.085610811    0.1049694            1 
   66000    1.1773209   -2.4918407    68.266391  0.086194937   0.10489449            2 
   67000    1.1620471   -2.5138067    69.697569  0.086688518   0.10481169            2 
   68000    1.1515839   -2.5192927     70.44777  0.086333051   0.10472825            2 
   69000    1.1441641   -2.5162493    71.565002  0.086431161   0.10462383            1 
   70000    1.1715394   -2.5181857    72.931385  0.086823077   0.10453696            4 
   71000    1.1346397   -2.5323606      74.1626  0.087045305   0.10444017            2 
   72000    1.1561821   -2.5375364    75.077618  0.086895391   0.10430567            1 
   73000    1.1710787   -2.5411325    75.954546  0.086706102   0.10415427            2 
   74000    1.1507196    -2.522992    76.478407  0.086124331   0.10394012            2 
   75000    1.1104027   -2.5328189    77.182968  0.085758853   0.10369291            2 
   76000    1.1655346   -2.5461908    78.435713  0.086004071   0.10346261            3 
   77000    1.1441951   -2.5500669    80.029599   0.08661212   0.10325311            1 
   78000    1.1577239   -2.5540598     81.14927  0.086697938   0.10305148            1 
   79000    1.1093683   -2.5400495    82.188899   0.08669715   0.10288014            2 
   80000    1.1394654   -2.5648212    83.296351  0.086767032   0.10270989            4 
   81000    1.1370601   -2.5595516     84.62633  0.087064125   0.10253987            2 
   82000    1.1154376   -2.5776311    85.560323  0.086951548   0.10237937            2 
   83000    1.1307254    -2.556902     86.57641  0.086924105   0.10219947            2 
   84000    1.1353179   -2.5292944    87.142595  0.086450986   0.10197773            1 
   85000    1.1210221    -2.576232    88.307111  0.086575598   0.10175283            5 
   86000    1.1181356   -2.5568211    89.296492  0.086527608   0.10153331            3 
   87000    1.1289816   -2.5509217    90.679797  0.086858043   0.10130731            2 
   88000    1.1334271   -2.5781999     91.06892  0.086239507   0.10107949            3 
   89000    1.1018763   -2.5564356    91.946864  0.086092569   0.10084094            1 
   90000     1.121922   -2.5612689    92.931475  0.086047662   0.10059585            1 
   91000    1.1230056    -2.564753    93.866972  0.085958765   0.10034542            2 
   92000    1.1181915   -2.5712753    94.335501  0.085448823   0.10009143            3 
   93000    1.1075874     -2.59369    95.928968  0.085957856  0.099839667            4 
   94000    1.1111347   -2.5647515    96.911111  0.085914105  0.099591353            1 
   95000    1.1012663   -2.5900392    97.516312  0.085540624  0.099349489            3 
   96000    1.1125043    -2.593024    98.316114  0.085343849  0.099103229            1 
   97000    1.1083884   -2.5822249     99.76874  0.085711975  0.098835098            2 
   98000    1.1053725   -2.5950145    101.16368   0.08602354  0.098587066            3 
   99000    1.0993159   -2.6148566    101.75575  0.085652985   0.09835663            2 
  100000    1.1303052   -2.5784115    103.23929   0.08603274  0.098132618            1 
  101000    1.1166957   -2.5987349    103.81279  0.085654119  0.097911814            2 
  102000    1.1245433   -2.6176943    104.51996  0.085392124  0.097700567            2 
  103000    1.1158445   -2.5691389    105.78083  0.085583198  0.097469458            5 
  104000     1.086033    -2.586321    106.79371  0.085571885  0.097245301            2 
  105000    1.1028624   -2.6108113    107.38891  0.085229295  0.097010009            4 
  106000    1.1082771   -2.5847318    108.72087  0.085472378  0.096797677            2 
  107000    1.0846795   -2.5704039    109.94671  0.085628275   0.09660678            1 
  108000    1.0941054   -2.5797206    110.12315  0.084971566  0.096390225            2 
  109000     1.093148   -2.6140371    111.28747  0.085082165  0.096166251            3 
  110000    1.1152455   -2.6087873    112.29871  0.085074781  0.095943107            1 
  111000    1.1129549   -2.5937798    113.28261  0.085047002  0.095738072            2 
  112000    1.0802972   -2.5953258    114.44347   0.08515139  0.095531708            3 
  113000    1.1024675   -2.6053771    115.33219  0.085053234  0.095328209            2 
  114000    1.0767622   -2.5940667    116.14761  0.084903226  0.095118991            2 
  115000    1.0804671   -2.6249586    116.75498  0.084605061   0.09490725            1 
  116000    1.0784053   -2.6156654    117.66374  0.084528549   0.09471413            2 
  117000    1.0652871   -2.5947056    118.94634  0.084719614  0.094520547            1 
  118000    1.0653502   -2.6052308    119.73248  0.084556835  0.094329405            1 
  119000    1.0891017   -2.6096859    120.41454   0.08432391  0.094130305            1 
  120000     1.095496   -2.6387386    121.17156  0.084146919  0.093926319            2 
  121000    1.0892868   -2.6338434    122.52608  0.084384354  0.093721495            2 
  122000     1.064456   -2.6277023     123.2644  0.084196995  0.093532308            2 
  123000    1.0789214   -2.6516181    123.87545  0.083926455  0.093335784            1 
  124000    1.0873807   -2.6262626    124.09568  0.083397634  0.093120495            2 
  125000    1.0602661   -2.6443426    125.19833  0.083465551  0.092908241            2 
  126000    1.0677084   -2.6445021    126.07298    0.0833816  0.092695928            2 
  127000    1.0528103   -2.6107574    126.67975  0.083123192  0.092488053            2 
  128000    1.0728707   -2.6234813    127.82874  0.083221838  0.092282527            3 
  129000    1.0502968   -2.6471065    128.77459  0.083187722  0.092072518            2 
  130000    1.0509599   -2.6218633    129.23496  0.082842922  0.091853388            3 
  131000    1.0797335   -2.6394079    129.65754  0.082479353  0.091630685            2 
  132000    1.0566082   -2.6598073    130.53214  0.082406653  0.091405015            2 
  133000    1.0704453   -2.6628948    131.92448  0.082659448  0.091192379            1 
  134000    1.0387094   -2.6565106     132.3983  0.082337253  0.090983963            2 
  135000    1.0211667    -2.655778    133.08052  0.082148467  0.090768613            2 
  136000    1.0456099   -2.6627794    134.58581  0.082466798  0.090550752            3 
  137000    1.0652238   -2.6342353    135.16368  0.082216352  0.090346425            1 
  138000    1.0487691    -2.642142    135.66573   0.08192375  0.090147912            1 
  139000    1.0446608   -2.6633038    136.09352   0.08159084   0.08994639            4 
  140000    1.0288327   -2.6418473    137.04888  0.081576715  0.089741206            2 
  141000    1.0277824   -2.6618218    138.51577   0.08186511  0.089536629            2 
  142000    1.0557991   -2.6579246    139.28459  0.081739781  0.089335235            8 
  143000    1.0439653   -2.6918784    139.77913  0.081456368  0.089135693            1 
  144000    1.0373972   -2.6660251     141.1987  0.081712208  0.088942992            2 
  145000     1.042346   -2.6526974    141.33975  0.081229741  0.088745132            2 
  146000    1.0325419   -2.6546968    142.86691  0.081545039  0.088562734            3 
  147000    1.0373537   -2.6659437    144.31223  0.081809654  0.088385432            2 
  148000    1.0275246   -2.6665841    145.01657  0.081653473  0.088210712            6 
  149000    1.0289806   -2.6354003    145.54269  0.081399715  0.088040599            2 
  150000    1.0520812   -2.6784719    146.52191  0.081401059  0.087876643            2 
  151000     1.024182   -2.6803292    147.50029  0.081401925  0.087710432            3 
  152000     1.023884   -2.6704122    148.18141  0.081239805  0.087553292            2 
  153000    1.0315376    -2.662238    149.14157  0.081231792  0.087392714            2 
  154000    1.0454435   -2.6892918    148.93812  0.080594218  0.087224533            2 
  155000     1.015029   -2.6733019    150.39768  0.080858967  0.087051237            5 
  156000    1.0039758   -2.7098247    150.83396  0.080573697     0.086881            3 
  157000    1.0100861   -2.7096942    151.62045  0.080477948  0.086716795            3 
  158000    1.0287847   -2.6841886     153.1332  0.080766456  0.086550257            2 
  159000    1.0133687   -2.7138846    153.48641  0.080443612  0.086390245            3 
  160000    1.0268844   -2.6580548    154.24738  0.080337175  0.086229151            3 
  161000    1.0031988   -2.7184256    155.19496  0.080328652  0.086070091            2 
  162000    1.0392053   -2.7006678    156.34137  0.080422514  0.085912001            2 
  163000    1.0097796   -2.6948544    156.64416  0.080083926  0.085759239            1 
  164000    1.0127659   -2.7305877    157.75842  0.080161801  0.085603926            3 
  165000     1.005663   -2.7006379    158.29521  0.079947074  0.085446013            5 
  166000     1.006281   -2.7034021     159.0567  0.079847739  0.085294115            2 
  167000    1.0222501   -2.7213638    160.07313  0.079876809  0.085146007            2 
  168000    1.0107082   -2.6855736    160.07046  0.079400032  0.084995584            4 
  169000    1.0023079   -2.6972867    161.03653  0.079406573  0.084844205            1 
  170000   0.98533807   -2.6957017      162.537  0.079675001  0.084693232            4 
  171000    1.0162751   -2.7191496    162.80737  0.079340825  0.084541301            5 
  172000   0.98516446   -2.7161846     163.0257  0.078985322  0.084389661            3 
  173000   0.99168559   -2.7227567    164.70764  0.079338939  0.084245469            3 
  174000   0.98704709   -2.7119934    165.34371  0.079187599  0.084103556            2 
  175000   0.99066486   -2.7441745    165.90261  0.079001241  0.083960334            5 
  176000    1.0011155   -2.7414272    167.15632  0.079145985  0.083813041            4 
  177000    0.9946994   -2.7020807    167.60808  0.078911527  0.083664843            6 
  178000   0.96424833   -2.7603914    168.37645  0.078827927  0.083514656            2 
  179000   0.97562311   -2.7167534    168.95446  0.078656636  0.083361483            2 
  180000   0.97822367   -2.7487491    169.35062  0.078403064  0.083213438            4 
  181000   0.98589197   -2.7119371    170.41124  0.078458213  0.083070053            3 
  182000   0.98130122   -2.7464128    172.86234  0.079149424  0.082933483            3 
  183000   0.98701364   -2.7428589    171.52845  0.078109496  0.082795469            3 
  184000   0.96557335   -2.7435908     172.3233  0.078044971  0.082657743            2 
  185000   0.95796577   -2.7387229    173.40722  0.078111359  0.082516093            2 
  186000   0.96813784   -2.7819908    174.12283  0.078012021  0.082373108            2 
  187000   0.96567806   -2.7197417    174.93433  0.077956473  0.082232635            2 
  188000   0.97107169   -2.7456675    175.97847   0.07800464  0.082092608            1 
  189000   0.96304471   -2.7295714    176.29543   0.07773167  0.081950859            3 
  190000   0.97293701   -2.7364068    177.84786  0.078003447  0.081811395            3 
  191000   0.97803227   -2.7582074    178.13989  0.077722466  0.081672556            4 
  192000   0.95923648   -2.7487646    178.78884  0.077599323  0.081536183            8 
  193000   0.96773655   -2.7650499    179.44389  0.077480091  0.081406331            3 
  194000   0.95502497   -2.7736038    180.25572  0.077429432   0.08127638            1 
  195000   0.94801389    -2.766165    180.75899  0.077247431    0.0811471            2 
  196000   0.98620776   -2.7687359    181.16557   0.07702618  0.081015805            3 
  197000   0.97130168   -2.8011222    181.61283  0.076824379  0.080878779            3 
  198000   0.96357106   -2.7794341    183.59277  0.077269685  0.080747122            2 
  199000   0.94682982   -2.7683672    183.65714  0.076908351  0.080614359            2 
  200000    0.9352205   -2.7782524    184.54228  0.076892616  0.080476504            2 
  201000   0.96920536   -2.7436888     185.3227  0.076833622  0.080343473            1 
  202000   0.95467015   -2.7875129    186.12056  0.076782407  0.080213048            2 
  203000   0.95185662   -2.7712731    186.99414  0.076762784  0.080084315            3 
  204000   0.93803225   -2.7636839    187.44027  0.076568738  0.079954277            2 
  205000    0.9302587   -2.7664071    188.83928  0.076763934  0.079828549            1 
  206000   0.95024027   -2.7809241    188.43852  0.076229173  0.079698019            3 
  207000   0.93293512   -2.7939047    188.45801  0.075868764  0.079570542            2 
  208000   0.94300848   -2.7825198    189.44715    0.0759003  0.079439863            5 
  209000   0.93036802   -2.7844647    191.35583  0.076298179  0.079313777            2 
  210000   0.91767527   -2.7770556     190.8872  0.075748888  0.079188663            4 
  211000   0.93884419   -2.7913477    192.69231  0.076102809  0.079060926            3 
  212000   0.94814838   -2.8268096    192.89385  0.075823052  0.078934663            3 
  213000   0.93318123   -2.8093514    193.04659  0.075526836  0.078809259            2 
  214000   0.94748204   -2.8168843    194.31773  0.075668896  0.078681597            2 
  215000   0.93967781    -2.793705    194.78953  0.075499818  0.078555205            2 
  216000   0.92294857   -2.8064927    195.27679  0.075338269  0.078427448            2 
  217000    0.9363805   -2.7918052    195.38145   0.07503128  0.078301529            1 
  218000   0.91957697   -2.8018522    196.44992  0.075095534  0.078172766            3 
  219000   0.90793511   -2.8067029     196.4487   0.07475217  0.078038926            3 
  220000   0.92000298   -2.7999467    197.48411  0.074804586  0.077907799            1 
  221000   0.93233997   -2.8092753    198.36938  0.074799915  0.077778194            2 
  222000    0.9232549   -2.8309084    198.86617  0.074649464   0.07765116            3 
  223000   0.92137385   -2.8037165    199.82524   0.07467311   0.07752363            3 
  224000   0.91436181   -2.8260377     200.1677  0.074467151  0.077398462            2 
  225000   0.91981184   -2.8156068    201.48203  0.074622974  0.077273658            4 
  226000   0.90362106   -2.8277219      201.538   0.07431342  0.077152736            5 
  227000   0.88639076   -2.8484703    201.98147  0.074148851  0.077027738            4 
  228000   0.88951286   -2.8245382    203.52473  0.074387694  0.076906118            4 
  229000   0.89225116    -2.812854    203.31744  0.073987422  0.076782548            6 
  230000   0.88772657    -2.835859    204.67396   0.07415723  0.076661221            2 
  231000   0.91252838   -2.8427075    204.22855  0.073675522  0.076540443            2 
  232000    0.8769082   -2.8399462    204.63806  0.073505052  0.076418154            4 
  233000   0.89494505   -2.8247594    205.94057  0.073655424  0.076294075            3 
  234000   0.88727189   -2.8307457     205.9382  0.073339816  0.076169074            2 
  235000   0.87835495    -2.852625    206.61797  0.073268784  0.076045079            2 
  236000   0.88689952   -2.8416859      207.761  0.073361934  0.075919839            2 
  237000   0.89933908   -2.8512455    209.19689  0.073557276  0.075795569            3 
  238000   0.89430489   -2.8426915    209.78171  0.073452978  0.075675768            3 
  239000   0.89268781   -2.8415014    210.45306  0.073379728  0.075559957            4 
  240000   0.88309996   -2.8566633    209.83177  0.072858253  0.075439944            2 
  241000   0.88273543   -2.8604134    210.70166  0.072856729   0.07531927            3 
  242000    0.8812355   -2.8749865    211.50267  0.072831497  0.075199932            3 
  243000    0.8525674   -2.8686159    212.02696  0.072711576  0.075080329            2 
  244000   0.88050317   -2.8673632    212.89723  0.072710804  0.074963131            3 
  245000   0.87806439   -2.8426724    213.05254   0.07246685  0.074841589            3 
  246000   0.86860535   -2.8830596    213.96119  0.072480077  0.074722441            2 
  247000   0.88812525   -2.8871128    214.43908  0.072347867  0.074604369            3 
  248000   0.85989574   -2.8558167    215.20247  0.072312658  0.074486442            2 
  249000    0.8564827   -2.8958468    214.97552   0.07194629  0.074368829            5 
  250000   0.88346287   -2.8672999    216.04554   0.07201518  0.074247981            2 
  251000   0.88501399   -2.8845006    215.49599  0.071545814  0.074127673            2 
  252000   0.86603788   -2.8717107    216.21479  0.071499599  0.074005798            2 
  253000   0.86771995   -2.8809885    217.32986  0.071584277  0.073882869            3 
  254000   0.87753767   -2.8689713    217.95285  0.071506841  0.073759055            4 
  255000   0.84852155   -2.8846914    217.83941  0.071189351  0.073634847            2 
  256000    0.8551265   -2.8631108    218.12738  0.071005005  0.073508049            3 
  257000     0.856635   -2.9148501     218.2265  0.070760861  0.073381659            2 
  258000   0.87002092   -2.8839127    218.74311  0.070653459  0.073254227            2 
  259000   0.85762198   -2.9210885    219.31964  0.070566166  0.073128349            5 
  260000   0.85014962   -2.9182009    219.78333  0.070443376  0.073002107           10 
  261000   0.86684184   -2.9015829    221.28534  0.070653045   0.07287632            8 
  262000   0.82820136   -2.9112662     221.0416  0.070305851  0.072749836            2 
  263000   0.85206656   -2.9142442    221.95527  0.070328032  0.072623944            4 
  264000    0.8451854   -2.8988285    223.02492  0.070399281  0.072499438            5 
  265000   0.85273385   -2.8936033    222.85546  0.070080334  0.072374088            3 
  266000    0.8384163   -2.9108483    223.27286  0.069947637  0.072248524            3 
  267000   0.83518249   -2.9039742    222.87082  0.069560182  0.072123643            4 
  268000   0.84784033   -2.9172497    224.83615  0.069911737  0.071999453            5 
  269000   0.83648874   -2.9130487    225.44965    0.0698419  0.071872753            5 
  270000   0.83563429    -2.905514     225.4355  0.069578859  0.071747069            5 
  271000   0.83384735   -2.9339006    225.33016  0.069289718  0.071619903            2 
  272000   0.84027072   -2.9135468     225.7412  0.069160906  0.071492695            2 
  273000   0.83840176   -2.9274074    226.37952  0.069102417  0.071367355            7 
  274000   0.82957885   -2.9189179    228.37984  0.069458589  0.071242853            3 
  275000   0.84551522   -2.9477265    227.14575  0.068832045  0.071117763            4 
  276000   0.82883098   -2.9061945     228.8175  0.069087409  0.070993456            4 
  277000   0.84168894   -2.9332423    229.15012  0.068938062  0.070873146            3 
  278000   0.82469182   -2.9468344    229.70541  0.068856538  0.070749907            2 
  279000   0.81916993   -2.9392513    230.34713  0.068801411  0.070629378            5 
  280000   0.81555949   -2.9217968     231.4563  0.068885802  0.070508396            3 
  281000   0.81242744   -2.9234682    231.14102  0.068547159  0.070388657            4 
  282000   0.83555452    -2.954961    230.55549  0.068131056  0.070265995            4 
  283000   0.80792317   -2.9430675    231.29957  0.068109415  0.070141367            2 
  284000   0.80747732   -2.9284877    232.70477  0.068281916  0.070018126            5 
  285000   0.81028115   -2.9338308    231.59026   0.06771645  0.069892805            5 
  286000   0.81333648   -2.9612948    232.36486   0.06770538  0.069766788            7 
  287000   0.80623926    -2.952498    232.92621  0.067632465   0.06964045            2 
  288000   0.80437059   -2.9550998    232.98944  0.067415927  0.069515341            2 
  289000    0.8016946   -2.9382119    234.11933  0.067508456  0.069390871            6 
  290000   0.79795438   -2.9574686    233.85535  0.067199814  0.069268307            2 
  291000   0.79652486   -2.9884553    234.08197  0.067033781  0.069144352            4 
  292000   0.79551695    -2.924196    235.44924  0.067194418  0.069022229            4 
  293000   0.79612222   -2.9656041    236.25509  0.067194281  0.068898779            4 
  294000   0.80003827   -2.9664481    235.52067  0.066757559  0.068772522            7 
  295000   0.79599742   -2.9892495    236.96584  0.066939501  0.068648316            3 
  296000   0.77367441   -2.9985917    237.42022  0.066841278  0.068525261            5 
  297000   0.79745607   -2.9728013    237.65766  0.066682846  0.068401524            2 
  298000   0.78907504   -2.9691533    237.34801  0.066372485  0.068280006            2 
  299000   0.78868622   -2.9648903     238.3715  0.066435759  0.068157155            8 
  300000   0.79113793   -2.9728127    238.03105  0.066119736   0.06803283            5 
  301000   0.78973449   -2.9854977    238.79912  0.066112712  0.067906945            4 
  302000   0.76853588   -2.9758329    240.36442  0.066325722   0.06778436            3 
  303000   0.79410509   -3.0070597    239.47352  0.065861804  0.067660548            4 
  304000   0.77941785   -2.9812334    240.06525   0.06580736  0.067538298            3 
  305000   0.76847905   -2.9910634    240.81542  0.065796562  0.067414105            4 
  306000   0.78729194   -3.0081127    241.19605  0.065685198  0.067289521            4 
  307000   0.77194657   -2.9981091    241.14623  0.065457716  0.067167444            4 
  308000   0.78413008    -3.004579    240.78041  0.065146215  0.067044547            7 
  309000   0.76649368   -3.0168192    241.57737  0.065150316  0.066921556            7 
  310000   0.77034364   -2.9975586    242.78533  0.065264874  0.066801227            5 
  311000   0.77682534   -2.9674438    243.50858  0.065248816  0.066680287            2 
  312000   0.76233697   -3.0041465    243.51395  0.065041119  0.066560578            7 
  313000   0.76173732   -3.0005238    243.95173  0.064949874  0.066439064            5 
  314000   0.78274851    -3.024758    244.01226  0.064759093  0.066316865            4 
  315000    0.7450328   -3.0120495    243.73601  0.064480426  0.066194472            5 
  316000   0.77418419   -3.0208144    244.95875  0.064598827  0.066072843            4 
  317000   0.75588634   -3.0246271    244.60515   0.06430209   0.06595158            4 
  318000   0.77114376   -3.0214016    244.67934  0.064119323  0.065830107            3 
  319000   0.77310541   -2.9880174     246.8304  0.064480251  0.065711965            3 
  320000   0.75808808   -3.0370424    246.08668  0.064085074  0.065592762            3 
  321000   0.75600652   -3.0243326    246.74571  0.064056518  0.065472014            3 
  322000   0.73884703   -3.0252127    247.37047  0.064019274  0.065353278            5 
  323000   0.75470862   -3.0420095    246.77277  0.063666866  0.065230786            8 
  324000   0.74667098   -3.0332256     248.1854  0.063833693  0.065109802            4 
  325000   0.75476025   -3.0385509    248.31348  0.063670124  0.064991591            6 
  326000   0.76933022   -3.0375085    248.84253  0.063610054  0.064871567            3 
  327000   0.75465016    -3.051176    249.22606  0.063513266  0.064750829            2 
  328000   0.75105542   -3.0771426    248.99105  0.063259922  0.064629463            5 
  329000   0.72482436   -3.0509282    249.74697   0.06325911  0.064508083            8 
  330000   0.73350991   -3.0429072    248.97967  0.062873654   0.06438612            5 
  331000   0.73561038   -3.0459064    250.47978  0.063061375  0.064264589            7 
  332000   0.72512415   -3.0528442    249.57967  0.062645498  0.064144855            5 
  333000   0.74057036   -3.0565035    251.18367  0.062858777  0.064024808            4 
  334000   0.73060136   -3.0569137    250.90082  0.062600004   0.06390489           16 
  335000   0.72705978   -3.0545092    251.15755  0.062477003  0.063785581            4 
  336000   0.72471059   -3.0679626     252.3408  0.062584523  0.063666533            4 
  337000   0.72136493   -3.0713266    251.68069  0.062235581  0.063547462            5 
  338000   0.73626804   -3.0761404       252.48  0.062248521  0.063427693            4 
  339000   0.74000487    -3.076599    252.57856  0.062089124  0.063308467            5 
  340000   0.72503295   -3.0796945    252.17211  0.061806889   0.06318906            3 
  341000   0.71950541   -3.0865598    253.08721   0.06184927  0.063069935            4 
  342000   0.71326654   -3.0789055    253.61556  0.061797163  0.062950853            4 
  343000    0.7112258   -3.0798401    253.01439   0.06147094  0.062830738            4 
  344000   0.71272372   -3.0951183    253.33239   0.06136928  0.062709022            5 
  345000   0.72365318   -3.0813171    255.11244  0.061621361  0.062587542           12 
  346000   0.71557521   -3.0969614    254.11938  0.061204089  0.062467395            6 
  347000   0.70258301   -3.0887407    255.24514  0.061298064  0.062346466            4 
  348000   0.71419865   -3.0943225     255.3261  0.061141308  0.062224916            7 
  349000   0.71708142   -3.0979379    255.61808  0.061035835  0.062103364            3 
  350000   0.71463754   -3.0956352     255.1297  0.060745166   0.06198117            3 
  351000   0.69672921    -3.080163     255.2605  0.060603157  0.061860954            9 
  352000   0.70920357   -3.0899281    255.46719  0.060479923  0.061740126            5 
  353000   0.69958667   -3.1061337    255.46508  0.060308093  0.061617051            6 
  354000   0.71807516   -3.0922473    255.87485  0.060234192   0.06149473            9 
  355000   0.70341669   -3.1134925    255.90418  0.060071403  0.061371629            4 
  356000   0.69052759   -3.1125437    254.94333  0.059677746  0.061247222            8 
  357000    0.7018549   -3.0841069    256.52733  0.059880328  0.061124621           10 
  358000   0.68472632   -3.1273933    256.77664  0.059771098  0.061002888            6 
  359000   0.69345132   -3.1334287    257.32157  0.059731097  0.060880955            6 
  360000   0.69129824   -3.0999481    257.17431   0.05953109   0.06075994            5 
  361000   0.68638516   -3.0970202    258.45616  0.059662086  0.060637859            7 
  362000    0.6917653   -3.1304214    258.25122  0.059450097  0.060516924            4 
  363000   0.68960713    -3.123782    257.41074  0.059093375  0.060394757            3 
  364000   0.68333893   -3.1542893    257.91115  0.059045592  0.060272719            6 
  365000   0.68647414   -3.1441173    258.97615  0.059126975   0.06015113            7 
  366000   0.67189588    -3.136339    259.33177  0.059046395  0.060031085            6 
  367000   0.68292396   -3.1178114    259.07953   0.05882823  0.059911107           10 
  368000   0.67319845   -3.1409353    258.69229  0.058580682  0.059788625            4 
  369000   0.69728633   -3.1288987    259.51133  0.058606895  0.059666616            5 
  370000   0.69481672   -3.1507384    259.31936  0.058405261  0.059545537            8 
  371000   0.67193844   -3.1350828     260.6051  0.058536635  0.059424063            8 
  372000   0.67654402   -3.1468537    259.37352  0.058103388  0.059302255           10 
  373000   0.66734032   -3.1583984    260.03816  0.058096104  0.059180204            8 
  374000   0.68429602   -3.1549101    259.60862  0.057845057  0.059057534            4 
  375000   0.66089635   -3.1602472    260.34411  0.057854248  0.058935745            5 
  376000   0.67387838   -3.1684312    260.13808  0.057654716  0.058813493           14 
  377000    0.6448206   -3.1561377    260.17897  0.057510824  0.058689355            7 
  378000   0.65791285   -3.1648694    260.95234  0.057529174  0.058565668            6 
  379000    0.6686493   -3.1660422    260.80659  0.057345336  0.058441892           13 
  380000   0.65279572   -3.1773444    261.24887  0.057291419  0.058317836            8 
  381000   0.66025646   -3.1530571    260.97674  0.057081526  0.058194132            8 
  382000   0.66515734   -3.1759354    261.33922  0.057011173  0.058070459            5 
  383000   0.65996579   -3.1637508    261.18224  0.056828163  0.057947901            5 
  384000   0.66652617   -3.1832637    262.10816  0.056881111  0.057824539            9 
  385000   0.65470501    -3.185734    261.80039  0.056666751  0.057702359            5 
  386000   0.65028484   -3.1670612    262.48379  0.056667484  0.057580541            6 
  387000   0.64849844   -3.1924405    262.03174  0.056423716  0.057457635            9 
  388000   0.65277124   -3.1905499    261.59991  0.056185548  0.057334784           17 
  389000   0.63279159   -3.2033685    262.92486  0.056324948  0.057211991            6 
  390000   0.64157368    -3.213694    261.79689  0.055939506   0.05708945           14 
  391000    0.6324749   -3.1990457    262.45309  0.055936293    0.0569661            8 
  392000   0.63943729   -3.1989417     262.9021  0.055889051  0.056843442           12 
  393000   0.65301533   -3.2313708    262.46474  0.055654102  0.056721245           12 
  394000   0.64618413   -3.2045236    262.19968  0.055456785  0.056597938            6 
  395000   0.63214881   -3.2028605    263.21202  0.055529962  0.056473844            8 
  396000    0.6317047   -3.2008139    263.33326  0.055415248  0.056351322            3 
  397000   0.62692385   -3.1997188    263.04906  0.055216007  0.056229686            3 
  398000   0.63805805   -3.2152459    263.71122  0.055215918  0.056108479            8 
  399000   0.63115537    -3.221571    264.03677  0.055145524  0.055987265            9 
  400000   0.63486791   -3.2168806    263.23911  0.054841481  0.055867062            6 
  401000   0.61947099   -3.2283324    264.73459  0.055015501  0.055746739            5 
  402000   0.62569325   -3.2332528     264.8657  0.054905825  0.055627523            8 
  403000   0.62896698   -3.2260451    265.63561  0.054928786  0.055509247            4 
  404000   0.62143845   -3.2393262    264.75027  0.054610204  0.055389572           14 
  405000   0.62055919   -3.2427845    264.38348  0.054399893  0.055269602           10 
  406000   0.62724771    -3.252502     264.5929  0.054308888  0.055149815            7 
  407000   0.61841526   -3.2269222    265.70832  0.054403832  0.055030706            4 
  408000   0.63018364    -3.239374    265.64522  0.054257602  0.054911785            8 
  409000   0.60801418   -3.2360034    265.27822  0.054050167  0.054793372            7 
  410000   0.62305326    -3.247653    265.84513  0.054033562  0.054674202            8 
  411000   0.61184671   -3.2640521    266.17008  0.053967981  0.054555884           18 
  412000   0.61710317   -3.2469146    266.29234   0.05386172  0.054437771           12 
  413000   0.61660658   -3.2593308    266.27821  0.053728453  0.054319238            4 
  414000    0.5983252   -3.2551484    265.86012  0.053514518  0.054200224            9 
  415000   0.61934202   -3.2754075    265.58866  0.053331057   0.05408102            9 
  416000   0.61381536   -3.2588805    265.97071  0.053279388  0.053962225            8 
  417000   0.59700122   -3.2475714    266.68713   0.05329479  0.053843216            4 
  418000   0.60654095   -3.2679267    265.72229  0.052974938  0.053723985           16 
  419000   0.59295637   -3.2679986     266.7681  0.053056503  0.053605326            7 
  420000   0.59543824   -3.2753614    266.48633  0.052874272  0.053486527            3 
  421000   0.59601455   -3.2937657    266.58831  0.052768865  0.053367237            6 
  422000   0.60033656   -3.2835313    265.94538  0.052516861  0.053248578            7 
  423000   0.58208316   -3.2882027     267.3358  0.052666627  0.053129961           10 
  424000    0.5905057   -3.2802294    267.19084  0.052513922  0.053012174            9 
  425000   0.58337113   -3.2866767    267.64722  0.052479848  0.052894785            7 
  426000   0.59695601   -3.2844266    266.98207  0.052226539  0.052777521            8 
  427000   0.58186671   -3.2869729    266.91178  0.052090511  0.052659677           13 
  428000   0.59241473   -3.2854666    267.15831  0.052016805  0.052542299            4 
  429000   0.57667101   -3.2861164    266.82473  0.051830756   0.05242473            7 
  430000   0.58240789   -3.3010388    267.25914  0.051794408  0.052307275            8 
  431000   0.58838933   -3.2924657    268.13744  0.051844052  0.052190373           19 
  432000   0.58139265   -3.3191607    267.53502  0.051607836  0.052073311            9 
  433000   0.58106392   -3.2889993     266.9209  0.051370457  0.051957352            6 
  434000   0.56704257   -3.3037898    268.02049  0.051463228  0.051841199            7 
  435000   0.56718931   -3.3060226    267.49928  0.051245072  0.051724567           15 
  436000     0.570449   -3.3218265    268.24037  0.051269184  0.051607961           10 
  437000   0.57303479   -3.3261787    269.09962  0.051315716  0.051491835           13 
  438000   0.57040619   -3.3219382    268.47649  0.051080002  0.051376166            8 
  439000    0.5503117    -3.325334    268.18789  0.050908863  0.051260269            4 
  440000    0.5679093   -3.3212716    267.94799  0.050747725  0.051143438            8 
  441000   0.55804848   -3.3394416      267.993  0.050641157   0.05102668            8 
  442000   0.56983722   -3.3256753    268.32109  0.050588441  0.050909631            5 
  443000   0.55190526   -3.3369085    267.98422  0.050410876  0.050792644            6 
  444000   0.55738208   -3.3378622    268.26559  0.050350149  0.050676463            8 
  445000   0.56424606   -3.3318664    268.25751  0.050235488   0.05056026            8 
  446000   0.54856526   -3.3498734    268.28637  0.050128245  0.050444643           11 
  447000   0.57034421   -3.3335313    268.65341  0.050084529  0.050329555            8 
  448000   0.55986304   -3.3384241    267.94194  0.049840391    0.0502146           16 
  449000   0.55226718   -3.3424857    268.27302  0.049790835  0.050098958           11 
  450000   0.56412747   -3.3607603    268.36722  0.049697634   0.04998314           14 
  451000   0.55035813   -3.3539244    268.30677   0.04957627  0.049868253            6 
  452000    0.5407755   -3.3570781    268.50258  0.049502688  0.049752961            7 
  453000   0.53502126   -3.3540444    267.84823  0.049273038  0.049637738           17 
  454000   0.53891671    -3.378722    268.09211  0.049209272  0.049521832            9 
  455000   0.53830595   -3.3628118     268.4599   0.04916848  0.049406401            7 
  456000   0.53627562   -3.3744954    268.55143  0.049077381  0.049291236            7 
  457000   0.53775665   -3.3612334    269.04971  0.049060852   0.04917688            6 
  458000   0.54480428   -3.3534593    268.99554  0.048943875  0.049063109            9 
  459000   0.53546471   -3.3685175    268.72237  0.048787649  0.048949877            9 
  460000   0.53508392   -3.3806186    269.17866  0.048764249  0.048835773           12 
  461000   0.53459745   -3.3875556    268.85794  0.048600495  0.048721526           22 
  462000   0.52453627   -3.3888154    269.29631  0.048574371  0.048607621           30 
  463000   0.51916694   -3.3995066    269.02235   0.04842015  0.048494322           15 
  464000    0.5387516     -3.38857    269.02462  0.048316203  0.048381297           19 
  465000   0.53058667   -3.3891118    268.95446  0.048199724  0.048267829           16 
  466000   0.51780422   -3.3864719    269.28288  0.048155021   0.04815481           17 
  467000   0.51761468    -3.413068    269.54054  0.048097883   0.04804214           10 
  468000   0.51643999   -3.4081933      268.767  0.047857372  0.047929625            5 
  469000   0.52228911   -3.3958534    269.61176   0.04790543  0.047817747           20 
  470000   0.50466447   -3.4116442    269.23455  0.047736622   0.04770558           11 
  471000   0.51818844   -3.4244587    269.67555  0.047713295  0.047593699            9 
  472000   0.50466091   -3.4169316    269.51869  0.047584514  0.047481604           11 
  473000   0.52407196   -3.4233676    269.26067  0.047438454  0.047369375           16 
  474000    0.5111252   -3.4438456    269.30663  0.047346454  0.047257568           13 
  475000   0.49759385   -3.4248538    269.28008  0.047242119   0.04714602           10 
  476000   0.51209321   -3.4215457    269.08667   0.04710901  0.047034551           15 
  477000   0.49802845   -3.4304234    269.64891  0.047108475  0.046922987           15 
  478000   0.50204133   -3.4374511    269.14783  0.046922564  0.046811686           16 
  479000   0.50635734   -3.4495478     269.1054  0.046817223  0.046699865            8 
  480000   0.50693963   -3.4302557    269.06351  0.046712415  0.046588535            7 
  481000   0.50389966   -3.4475964    268.91907  0.046590275  0.046477283           15 
  482000   0.49969081   -3.4369281    269.29989  0.046559456  0.046366347           13 
  483000   0.50767339   -3.4566441    269.92906  0.046571611  0.046255427           19 
  484000   0.48556743   -3.4549143    268.48351    0.0462265  0.046144286           14 
  485000   0.49377808   -3.4527048    269.37039  0.046283572  0.046033515           21 
  486000   0.49707218   -3.4516148    269.67945  0.046241333  0.045923225           12 
  487000   0.48966995   -3.4688385    269.25425  0.046073622  0.045812993           11 
  488000    0.4956031   -3.4498763    268.48958   0.04584863  0.045703134           10 
  489000   0.48046055   -3.4595898    268.97566  0.045837706   0.04559313            6 
  490000   0.48022983   -3.4628076    268.94372  0.045738729  0.045483735           27 
  491000   0.47107237   -3.4286146    269.11788  0.045675132   0.04537504           31 
  492000   0.48039724   -3.4627214    269.13635  0.045585425  0.045266168           38 
  493000   0.48308567   -3.4839359    268.44452  0.045376017  0.045156637           52 
  494000   0.48296181   -3.4820293    269.25052  0.045420128  0.045047271           20 
  495000   0.47588137   -3.4671268    269.18106  0.045316676  0.044938495           17 
  496000   0.46633021   -3.4643581    268.61624  0.045130417  0.044830158           30 
  497000   0.47626152   -3.4849004    269.43789  0.045177379  0.044721765           22 
  498000   0.48213445   -3.4936418    269.26619   0.04505793   0.04461363           41 
  499000   0.47213846   -3.4901022    269.57878  0.045019836   0.04450601           12 
  500000   0.46648955   -3.4895215    269.14874  0.044858124  0.044398772           16 
  501000   0.47529141   -3.4982847    270.11645  0.044929549  0.044292227           19 
  502000   0.46704169   -3.5102675    269.59711  0.044753836  0.044185459           32 
  503000   0.46846315   -3.4846959    269.05844   0.04457562  0.044079085           28 
  504000   0.46941462   -3.5085577    269.37682  0.044539819  0.043973076           28 
  505000   0.45098087   -3.5140013    269.25435   0.04443141  0.043867016           27 
  506000   0.46068015   -3.5148619    269.39674  0.044367052  0.043760817           15 
  507000   0.46302042   -3.5306771     269.1275   0.04423529  0.043654728           27 
  508000   0.45888539   -3.5055564    268.82677  0.044098879  0.043548584          113 
  509000   0.45712686   -3.5228153    269.04759  0.044048395  0.043442748          106 
  510000   0.46415476   -3.5061129    269.39416  0.044018654  0.043337498           19 
  511000   0.44449212   -3.5126598    269.23293  0.043906217  0.043232314           42 
  512000   0.45847124   -3.5339674    269.39242  0.043846423  0.043127039           19 
Loop time of 1215.87 on 48 procs for 500000 steps with 4000 atoms

Performance: 71060.331 tau/day, 411.229 timesteps/s
99.4% CPU use with 48 MPI tasks x no OpenMP threads

MPI task timing breakdown:
Section |  min time  |  avg time  |  max time  |%varavg| %total
---------------------------------------------------------------
Pair    | 77.413     | 82.699     | 87.727     |  30.7 |  6.80
Neigh   | 8.0958     | 8.4392     | 8.7858     |   6.4 |  0.69
Comm    | 75.919     | 81.425     | 88.718     |  34.6 |  6.70
Output  | 0.92007    | 0.92065    | 0.93081    |   0.2 |  0.08
Modify  | 1028       | 1031.9     | 1034.1     |   4.1 | 84.87
Other   |            | 10.46      |            |       |  0.86

Nlocal:        83.3333 ave          92 max          78 min
Histogram: 8 2 11 5 2 12 6 0 0 2
Nghost:        2176.42 ave        2211 max        2154 min
Histogram: 2 8 7 8 11 6 3 2 0 1
Neighs:        14391.7 ave       16717 max       12755 min
Histogram: 3 4 7 11 7 8 5 2 0 1
FullNghs:      28784.7 ave       31967 max       26862 min
Histogram: 6 7 8 7 3 8 7 0 0 2

Total # of neighbors = 1381667
Ave neighs/atom = 345.41675
Neighbor list builds = 27130
Dangerous builds = 0

#clear
#
#next RN
#
#jump SELF
Total wall time: 0:20:19
