
units lj                  # Use reduced LJ style units
atom_style atomic         # Uncharged point particles
atom_modify map hash      # Needed for indexing of clusters etc
                          # Used to be able to find where atoms are in relation to each other.

lattice fcc 1.0 spacing 1 1 1
Lattice spacing in x,y,z = 1.5874011 1.5874011 1.5874011
region box block 0 10 0 10 0 10 units lattice
create_box 2 box
Created orthogonal box = (0.0000000 0.0000000 0.0000000) to (15.874011 15.874011 15.874011)
  3 by 4 by 4 MPI processor grid
create_atoms 1 box
Created 4000 atoms
  using lattice units in orthogonal box = (0.0000000 0.0000000 0.0000000) to (15.874011 15.874011 15.874011)
  create_atoms CPU = 0.002 seconds
set type 1 type/fraction 2 0.62 78393
Setting atom values ...
  2494 settings made for type/fraction
mass 1 1.0
mass 2 1.0
pair_style lj/cut  3.5
pair_modify tail  yes
pair_coeff 1  1  1.0  1.0   # Intearaction between 1 and 1 set with epsilon = 1 and sigma = 1
pair_coeff 1  2  1.5  0.8
pair_coeff 2  2  0.5  0.88

write_data data.0
System init for write_data ...
Neighbor list info ...
  update every 1 steps, delay 10 steps, check yes
  max neighbors/atom: 2000, page size: 100000
  master list distance cutoff = 3.8
  ghost atom cutoff = 3.8
  binsize = 1.9, bins = 9 9 9
  1 neighbor lists, perpetual/occasional/extra = 1 0 0
  (1) pair lj/cut, perpetual
      attributes: half, newton on
      pair build: half/bin/atomonly/newton
      stencil: half/bin/3d
      bin: standard
WARNING: Not all mixed pair coeffs generated from mixing. Use write_data with 'pair ij' option to store all pair coeffs. (../write_data.cpp:312)


#############################
#   M E L T   S Y S T E M   #
#############################

velocity all create 2.4 9622624 mom yes dist gaussian # Assign velocities
                                                    # Temperature 2.4, random number seed, zero linear momentum
                                                                                # Gaussian distribution

timestep 0.002   # simulation timestep
thermo 1000       # output thermodynamic data every 1000 steps bf 100

# Define a fix  in this case with index 1 applied to all
# particles in the simulation. This fix is for simulations
# in the anisotropic NPT ensemble. Note that we use the MTK
# correction.
fix 1 all npt temp 2.4 2.4 0.1 iso 5.68 5.68 0.5 mtk yes tchain 5 pchain 5 # Use NPT ensemble
                                                                         # Set temperature and pressure and damping
                                                                         # Numbers of thermostats in chain and in barostat
run 10000          # run for 10000 steps
Per MPI rank memory allocation (min/avg/max) = 3.642 | 3.644 | 3.648 Mbytes
Step Temp E_pair E_mol TotEng Press Volume 
       0          2.4   -4.6132646            0   -1.0141646   -4.0148013         4000 
    1000    2.3955566   -4.3439401            0  -0.75150349    5.9656964    3598.2104 
    2000    2.4203958   -4.3759943            0  -0.74630823    5.1316556    3658.8355 
    3000    2.4797966   -4.2930736            0  -0.57430854    5.7882371    3637.3304 
    4000    2.3801381   -4.3685655            0  -0.79925094    5.5159277    3617.7273 
    5000    2.3698404    -4.399296            0  -0.84542411    5.3877223    3609.6112 
    6000    2.4316541   -4.3017767            0  -0.65520735    5.8224445    3636.7405 
    7000    2.4381215    -4.351701            0  -0.69543302    5.5758178    3622.0479 
    8000    2.4249493   -4.4064128            0  -0.76989815    5.4514552    3603.0901 
    9000    2.4389085    -4.352027            0  -0.69457879    5.8471453    3608.3664 
   10000     2.411653   -4.3524902            0   -0.7359151    5.9971358    3598.0946 
Loop time of 2.69801 on 48 procs for 10000 steps with 4000 atoms

Performance: 640471.645 tau/day, 3706.433 timesteps/s
99.6% CPU use with 48 MPI tasks x no OpenMP threads

MPI task timing breakdown:
Section |  min time  |  avg time  |  max time  |%varavg| %total
---------------------------------------------------------------
Pair    | 1.2133     | 1.279      | 1.3453     |   2.3 | 47.41
Neigh   | 0.21709    | 0.22512    | 0.2306     |   0.6 |  8.34
Comm    | 0.86421    | 0.90894    | 0.97557    |   3.0 | 33.69
Output  | 0.00025639 | 0.00026339 | 0.00042804 |   0.0 |  0.01
Modify  | 0.229      | 0.26893    | 0.29649    |   3.7 |  9.97
Other   |            | 0.01577    |            |       |  0.58

Nlocal:        83.3333 ave          92 max          73 min
Histogram: 2 1 2 7 3 17 4 8 3 1
Nghost:        1764.98 ave        1798 max        1733 min
Histogram: 2 4 5 5 6 7 9 5 3 2
Neighs:        10617.2 ave       12221 max        8660 min
Histogram: 1 1 2 4 9 11 10 8 1 1

Total # of neighbors = 509628
Ave neighs/atom = 127.40700
Neighbor list builds = 907
Dangerous builds = 205

# Equilibrate just above the melting temperature to avoid step fn in T

fix 1 all npt temp 1.25 1.25 0.1 iso 5.68 5.68 0.5 mtk yes tchain 5 pchain 5
run 2000
Per MPI rank memory allocation (min/avg/max) = 3.644 | 3.646 | 3.650 Mbytes
Step Temp E_pair E_mol TotEng Press Volume 
   10000     2.411653   -4.3524902            0   -0.7359151    5.9971358    3598.0946 
   11000    1.2225424   -6.3082398            0   -4.4748846    5.5614406    2787.0259 
   12000    1.2717569   -6.4122799            0   -4.5051215    5.9180102    2749.4656 
Loop time of 0.671845 on 48 procs for 2000 steps with 4000 atoms

Performance: 514404.519 tau/day, 2976.878 timesteps/s
99.6% CPU use with 48 MPI tasks x no OpenMP threads

MPI task timing breakdown:
Section |  min time  |  avg time  |  max time  |%varavg| %total
---------------------------------------------------------------
Pair    | 0.30649    | 0.32646    | 0.36972    |   2.1 | 48.59
Neigh   | 0.041645   | 0.043896   | 0.049321   |   0.7 |  6.53
Comm    | 0.20747    | 0.25032    | 0.27243    |   2.5 | 37.26
Output  | 5.1632e-05 | 5.2965e-05 | 6.6409e-05 |   0.0 |  0.01
Modify  | 0.039      | 0.046135   | 0.051743   |   1.8 |  6.87
Other   |            | 0.004984   |            |       |  0.74

Nlocal:        83.3333 ave          91 max          76 min
Histogram: 3 2 9 5 6 4 7 4 5 3
Nghost:        2115.08 ave        2142 max        2090 min
Histogram: 2 5 4 5 9 8 9 2 2 2
Neighs:        13890.8 ave       15328 max       12340 min
Histogram: 2 4 4 5 10 3 6 8 2 4

Total # of neighbors = 666760
Ave neighs/atom = 166.69000
Neighbor list builds = 143
Dangerous builds = 13

#############################
# L I N E A R  Q U E N C H  #
#############################

# Define solid atoms. This closely follows ten Wolde  Ruiz-Montero and Frenkel  Faraday Discuss  1996  104  93-110
# Compute components of the per-atom q6 vector
compute q6 all orientorder/atom degrees 1 6 components 6 nnn NULL cutoff 1.3 # compute the Q6 parameter.
                                                                             # Use all neighbours within 1.3 unit cell.

# get number of connections
compute coord_number all coord/atom orientorder q6 0.5

# An atom is solid if it has 8 or more connections (of a possible 14)
variable is_solid atom c_coord_number>=8
group solid dynamic all var is_solid    # Must be dynamic to update
dynamic group solid defined

# do clustering
compute cluster solid cluster/atom 1.3 # Create a cluster where all atoms within are solid and max 1.3 units from another member

# define chunks one chunk per cluster
compute clus_chunks solid chunk/atom c_cluster nchunk every compress yes  # Says which atoms are in which chunk

# count the size of each chunk
compute size_chunks solid property/chunk clus_chunks count


# Find the maximum entry in the vector of chunk sizes
variable max_n equal max(c_size_chunks)


# Thermo style which includes this variable
# thermo_style custom step temp pe vol v_max_n

thermo ${N}  # Print the thermo information every 100 steps
thermo 1000  

# Reset the npt fix at a lower temperature (below freezing)
fix 1  all npt temp  ${temp} ${temp}  0.1  iso  5.68  5.68  0.5  mtk yes tchain  5  pchain  5
fix 1  all npt temp  0.45 ${temp}  0.1  iso  5.68  5.68  0.5  mtk yes tchain  5  pchain  5
fix 1  all npt temp  0.45 0.45  0.1  iso  5.68  5.68  0.5  mtk yes tchain  5  pchain  5

dump dmp2 all dcd ${N} traj.dcd
dump dmp2 all dcd 1000 traj.dcd


compute msd all msd com yes
variable twopoint equal c_msd[4]/6/(step*dt+1.0e-6)
fix 9 all vector 10 c_msd[4]
variable fit equal slope(f_9)/6/(10*dt)
thermo_style custom step temp pe c_msd[4] v_twopoint v_fit v_max_n

fix 1 all npt temp 1.25 ${temp} 0.1 iso 5.68 5.68 0.5 mtk yes tchain 5 pchain 5
fix 1 all npt temp 1.25 0.45 0.1 iso 5.68 5.68 0.5 mtk yes tchain 5 pchain 5
run 2000000 # 5000000  # Run for this many steps
Neighbor list info ...
  update every 1 steps, delay 10 steps, check yes
  max neighbors/atom: 2000, page size: 100000
  master list distance cutoff = 3.8
  ghost atom cutoff = 3.8
  binsize = 1.9, bins = 8 8 8
  4 neighbor lists, perpetual/occasional/extra = 1 3 0
  (1) pair lj/cut, perpetual
      attributes: half, newton on
      pair build: half/bin/atomonly/newton
      stencil: half/bin/3d
      bin: standard
  (2) compute orientorder/atom, occasional
      attributes: full, newton on
      pair build: full/bin/atomonly
      stencil: full/bin/3d
      bin: standard
  (3) compute coord/atom, occasional
      attributes: full, newton on
      pair build: full/bin/atomonly
      stencil: full/bin/3d
      bin: standard
  (4) compute cluster/atom, occasional
      attributes: full, newton on
      pair build: full/bin/atomonly
      stencil: full/bin/3d
      bin: standard
Per MPI rank memory allocation (min/avg/max) = 9.846 | 9.853 | 9.860 Mbytes
Step Temp PotEng c_msd[4] v_twopoint v_fit v_max_n 
   12000    1.2717569   -6.4122799            0            0 8.3333333e+20            2 
   13000    1.2155271   -6.4885906   0.50172499 0.0032161857  0.041469801            3 
   14000    1.2400389   -6.4452495   0.98636611 0.0058712266  0.039884607            1 
   15000    1.2603907   -6.4262952     1.416602 0.0078700106  0.039139513            2 
   16000     1.284214   -6.4500103    1.8265279 0.0095131657  0.037855313            1 
   17000    1.2624949   -6.4475548    2.3296756  0.011419978  0.037732648            5 
   18000    1.2394437   -6.4696448    2.8460334   0.01317608  0.038366017            3 
   19000    1.2727431   -6.4771375    3.2898257   0.01442906  0.038831494            3 
   20000    1.2440975   -6.4783919    3.7363529  0.015568136  0.038653261            3 
   21000     1.244746   -6.4512876    4.2079879  0.016698364  0.038674745            3 
   22000    1.2645879   -6.4971674    4.6300625  0.017538115   0.03855263            2 
   23000    1.2437206    -6.473134     5.049703  0.018296025   0.03835654            3 
   24000    1.2562529    -6.486851    5.4711442  0.018997028  0.038038494            2 
   25000    1.2296088   -6.4551916    5.9709613  0.019903204  0.037879162            2 
   26000     1.248158   -6.5022041    6.4548731  0.020688695  0.037873509            2 
   27000     1.249818   -6.5117372    6.9064338  0.021316153  0.037922888            3 
   28000    1.2264813   -6.4730754     7.366585   0.02192436  0.037930696            4 
   29000    1.2327941   -6.5172227    7.8580008  0.022580462   0.03797727            2 
   30000    1.2335258   -6.5218561    8.3341858  0.023150516  0.038108104            3 
   31000    1.2198086    -6.526257     8.808733  0.023679389   0.03821204            2 
   32000    1.2388684   -6.4549831    9.2433502  0.024071224  0.038286189            2 
   33000    1.2377951   -6.5064719    9.6934928  0.024478517   0.03827661            2 
   34000    1.2562083    -6.470422    10.158427  0.024898105  0.038283643            2 
   35000    1.2080613   -6.5513567     10.44374  0.024866047  0.038201258            4 
   36000    1.2327082   -6.4994674     10.89263  0.025214421  0.038108917            3 
   37000    1.2153505   -6.5120592      11.3304  0.025518918  0.037992402            5 
   38000     1.236627    -6.531012    11.767459  0.025805831  0.037884738            5 
   39000    1.2216765   -6.4779464    12.251443  0.026178296  0.037838463            2 
   40000    1.2410368   -6.4946346    12.759783  0.026582881  0.037786847            2 
   41000    1.2225869   -6.5152798     13.13281  0.026692702  0.037740551            3 
   42000    1.2253978   -6.5130745     13.65085  0.027085019  0.037691738            5 
   43000    1.2282028   -6.4780679    14.154504  0.027431209  0.037688052            1 
   44000    1.2447366    -6.511029    14.579269  0.027612251  0.037715861            4 
   45000     1.227189   -6.5197107    14.844693  0.027490172  0.037692157            4 
   46000    1.2386029   -6.5296234    15.389313   0.02787919  0.037634632            1 
   47000    1.2140524   -6.5003862    15.983991  0.028340409  0.037640391            2 
   48000    1.2418188   -6.4939911    16.539713   0.02871478  0.037693374            2 
   49000    1.2029828    -6.543198    16.813896  0.028595061  0.037706234            2 
   50000     1.228231   -6.5443484    17.254775  0.028757958  0.037701799            2 
   51000    1.2187111   -6.5104884    17.659444    0.0288553  0.037688843            1 
   52000    1.2142849   -6.4903888    18.103391  0.029011845  0.037682139            3 
   53000    1.2030741   -6.4749033    18.452369  0.029013158  0.037647638            6 
   54000    1.2124644    -6.472762    18.986259  0.029299782  0.037607454            2 
   55000    1.2105462   -6.4989846    19.333696  0.029293478  0.037569961            3 
   56000    1.2291859    -6.472416     19.83819  0.029521116  0.037541427            2 
   57000    1.2042293   -6.5496517    20.111825  0.029403253  0.037495679            6 
   58000    1.2338914    -6.492751    20.785177   0.02986376  0.037461781            3 
   59000    1.2280345   -6.4934403    21.274454  0.030048663  0.037454183            3 
   60000     1.233884    -6.568747    21.528956  0.029901327   0.03743106            1 
   61000    1.2048141   -6.4917239    22.110425  0.030205498  0.037417444            2 
   62000    1.2428116   -6.5209426    22.422796  0.030138166  0.037407905            6 
   63000    1.2033533   -6.4889992     22.94818  0.030354736  0.037376273            3 
   64000    1.2436906   -6.5347581    23.347634  0.030400565  0.037350163            3 
   65000    1.2277341   -6.5239383    23.894136  0.030633507  0.037326251            1 
   66000     1.200205   -6.5388182    24.510535  0.030947645  0.037332483            2 
   67000    1.2066032   -6.5047977    24.957865   0.03104212  0.037351142            2 
   68000    1.2444052   -6.4768856     25.45172  0.031190834   0.03737706            1 
   69000    1.2090835   -6.5387226    25.860912  0.031232985  0.037391799            1 
   70000    1.2246172   -6.4729491    26.367407   0.03138977  0.037416913            1 
   71000    1.2298249   -6.5448741    26.896754   0.03156896  0.037453818            4 
   72000    1.2048432   -6.5630767    27.251771  0.031541402  0.037493676            3 
   73000    1.1977267   -6.5277517    27.600001   0.03150685  0.037516918            2 
   74000    1.2236239   -6.5920956    28.116617  0.031662856  0.037536688            4 
   75000    1.2648391   -6.5596445    28.618449  0.031798277  0.037564785            3 
   76000    1.2383506   -6.5346025    29.326292  0.032156022  0.037593831            3 
   77000    1.2136148   -6.5259138     29.66093  0.032100574  0.037628828            4 
   78000    1.2477919   -6.5326967    30.201529  0.032266591   0.03765637            3 
   79000    1.2310048   -6.5057259    30.578925   0.03225625  0.037681303            2 
   80000    1.2186529   -6.5491506    30.957979  0.032247894  0.037691702            2 
   81000    1.2356347   -6.5225472    31.537895  0.032446394  0.037707287            3 
   82000    1.2198552   -6.5664629    31.899757  0.032418452  0.037731118            2 
   83000    1.2439933    -6.576983    32.283309  0.032412961  0.037748601            2 
   84000    1.2145417   -6.5439277    32.860698  0.032599899  0.037766797            1 
   85000    1.1960426   -6.5132165    33.422727  0.032767379  0.037790592            1 
   86000    1.2031905   -6.5386228    33.947969  0.032895319  0.037822159            1 
   87000    1.2102778   -6.5068508    34.286716  0.032841682  0.037844926            2 
   88000    1.2134415   -6.5254894    34.784318  0.032939695  0.037858917            3 
   89000    1.2462233   -6.5414265    35.256368   0.03301158  0.037875622            1 
   90000    1.2149587   -6.5803399    35.775241  0.033125223  0.037899129            3 
   91000    1.2149127   -6.5669885    36.391242  0.033325313  0.037929508            4 
   92000    1.1898309   -6.5280631     36.90032  0.033424203   0.03796338            2 
   93000     1.220213   -6.5028606    37.441505  0.033549735  0.037999388            3 
   94000    1.2130886   -6.5117232    37.751738  0.033467852   0.03803463            2 
   95000    1.2358587   -6.5829504    38.125268  0.033443218  0.038054981            2 
   96000    1.2116656   -6.5485265    38.571675  0.033482357   0.03806764            4 
   97000    1.2325514   -6.5222904    38.850923  0.033377082  0.038078016            3 
   98000    1.1944565   -6.5253694    39.422778   0.03352277  0.038085433            1 
   99000    1.1984261   -6.5988976    39.811207  0.033511117  0.038089878            4 
  100000    1.1973488    -6.605779    40.135636  0.033446363  0.038095661            2 
  101000    1.2219201   -6.5043947    40.763951  0.033633622  0.038102305            1 
  102000    1.2108084   -6.5526565    41.274511  0.033721006  0.038109593            2 
  103000    1.2176677    -6.510291    42.120132  0.034077777  0.038128292            3 
  104000    1.2436952   -6.5207408    42.460045  0.034022472  0.038150348            2 
  105000    1.2176366   -6.5434604    42.748882  0.033927684  0.038167881            2 
  106000    1.2126299   -6.5662772    43.113474   0.03389424  0.038173405            1 
  107000    1.2329531   -6.5932921    43.398287  0.033799289  0.038178765            3 
  108000    1.2167153   -6.5679388    44.131612   0.03405217  0.038193033            1 
  109000    1.2226701   -6.5482217    44.798258  0.034249432  0.038209469            2 
  110000    1.2035901   -6.5783377     45.14976  0.034204364  0.038221623            7 
  111000    1.2014477   -6.5552077    45.427436  0.034104681  0.038228306            4 
  112000     1.207489   -6.5580712     45.88015  0.034137016   0.03823309            1 
  113000    1.2096237   -6.5852616    46.428156  0.034239053   0.03823912            2 
  114000    1.2140644   -6.5726169    46.809166  0.034217226  0.038244409            2 
  115000    1.2193923   -6.5386512    47.463178  0.034393607  0.038251352            2 
  116000    1.2112819   -6.5836252    47.874693  0.034392739  0.038264402            2 
  117000    1.2144601    -6.560201    48.134655  0.034283942  0.038275028            4 
  118000    1.2062372    -6.525699    48.994068   0.03460033  0.038280176            4 
  119000    1.2021402   -6.5676759    49.471258  0.034643738  0.038291145            1 
  120000    1.1973814   -6.5557662    50.132624  0.034814322  0.038308188            6 
  121000    1.1749093   -6.5712932    50.144239    0.0345346  0.038317936            2 
  122000    1.2164309   -6.5661986    50.706846  0.034635823  0.038326985            2 
  123000    1.2050831   -6.5705411      51.2485  0.034721206  0.038338235            2 
  124000    1.2022358   -6.6132073    51.930243  0.034899357  0.038355715            2 
  125000    1.2075821   -6.5791208    52.312656  0.034875104  0.038369383            2 
  126000    1.2213179   -6.6003094    52.612745  0.034796789  0.038384217            1 
  127000     1.209299    -6.618573    52.810575  0.034652608  0.038391828            1 
  128000    1.1905559   -6.6006855    53.205834  0.034639215  0.038389144            3 
  129000    1.2132841   -6.5891616    53.445587  0.034525573  0.038381379            2 
  130000    1.2236425   -6.6312521    53.822693  0.034501726  0.038370797            2 
  131000    1.1827479   -6.5800868    54.189506  0.034471696  0.038357318            2 
  132000    1.2119061   -6.5953172    54.630197   0.03448876  0.038340612            2 
  133000    1.2061027   -6.5759177    55.046849  0.034490507  0.038324086            1 
  134000    1.2191702   -6.6083485    55.380056  0.034440333  0.038306432            4 
  135000    1.1842456   -6.5601091    56.060579  0.034605296  0.038291852            4 
  136000    1.2290221   -6.6052115    56.197645  0.034434831  0.038278995            2 
  137000    1.1616728     -6.57257     56.36511  0.034285346  0.038252902            4 
  138000    1.1827067   -6.6436793    56.487922  0.034111064  0.038218299            5 
  139000    1.2049339   -6.6437069    56.622341  0.033946248  0.038180746            2 
  140000    1.1703985    -6.597747     57.13637  0.034009744   0.03813963            2 
  141000    1.2124548   -6.6207792    57.036254   0.03370937  0.038090742            4 
  142000    1.2164872   -6.6180166    57.679359  0.033849389  0.038040697            2 
  143000    1.2177517   -6.5900692     58.15802   0.03389162  0.037993762            2 
  144000    1.2118852   -6.5843645    58.632231  0.033930689  0.037947007            5 
  145000    1.1990596   -6.6075045    58.850762  0.033822277  0.037898751            2 
  146000    1.1746681   -6.6021447    59.353801   0.03387774  0.037854337            2 
  147000    1.1989907   -6.5940189    59.895784  0.033954526  0.037810171            4 
  148000    1.1891051    -6.596051    60.129171  0.033856515  0.037765574            3 
  149000    1.2093362   -6.5992542    60.568169  0.033874815  0.037722244            5 
  150000    1.2005294   -6.6059778    60.865849   0.03381436  0.037676004            2 
  151000    1.1740075   -6.5802514    61.623011  0.034008284  0.037631032            3 
  152000    1.1902119   -6.5923817    61.554061  0.033746744  0.037589148            4 
  153000    1.1871213   -6.6169652    62.078603  0.033811875  0.037543399            1 
  154000     1.191584   -6.6035781    62.123638  0.033616687  0.037498519            8 
  155000    1.1884424   -6.6127916    62.576937  0.033643514  0.037450386            3 
  156000    1.1959285   -6.6231474    62.906156  0.033603716   0.03739871            4 
  157000     1.214961    -6.615979    63.399075  0.033651314  0.037351871            2 
  158000    1.1818832   -6.6223183    63.862681  0.033682849  0.037307092            3 
  159000     1.180581    -6.601287    64.584039  0.033849077  0.037264202            1 
  160000    1.2043586   -6.6538515    64.907839  0.033806166  0.037225094            1 
  161000    1.2023294   -6.6234718      65.3085  0.033803571   0.03719072            2 
  162000    1.1775206   -6.6100234    65.974399  0.033937448  0.037156982            2 
  163000    1.1969057   -6.6213478    66.442239  0.033968425  0.037123844            3 
  164000    1.1813822   -6.6136408    66.780814  0.033933341  0.037092239            3 
  165000    1.1967574   -6.6151749    67.164048  0.033921236  0.037059411            2 
  166000    1.1771433   -6.6118376    67.590237  0.033930842  0.037029622            2 
  167000    1.1956441    -6.682044    67.863309  0.033863926  0.037000578            1 
  168000    1.1868738   -6.6009862    68.581204  0.034018454  0.036971102            2 
  169000    1.1942447   -6.6359443    69.087392  0.034066761  0.036944659            1 
  170000    1.2144793   -6.6310978    69.075298   0.03386044  0.036917649            3 
  171000    1.2121815   -6.5981094    69.611153  0.033923564  0.036889108            2 
  172000    1.1997379   -6.6476239    70.038944  0.033933597  0.036862189            3 
  173000    1.1915317   -6.6289355    70.547667  0.033982499  0.036835194            4 
  174000    1.1761839   -6.6261815    70.883745  0.033948154  0.036810273            3 
  175000     1.190813    -6.622306    71.431769  0.034015128  0.036784083            2 
  176000    1.1724971   -6.6632554    71.706494  0.033951938  0.036757919            6 
  177000    1.2042197   -6.5900614    72.134203  0.033961489  0.036732621            2 
  178000    1.1746294   -6.6720459    71.834907  0.033630574  0.036701377            3 
  179000    1.2116158   -6.6204606    72.282394  0.033651021   0.03666756            4 
  180000    1.1967403   -6.6154449     72.35484  0.033497611   0.03662855            2 
  181000     1.193254   -6.6040225    72.971787  0.033596587  0.036589676            3 
  182000    1.1862455   -6.6193844    73.107624  0.033474187  0.036551196            4 
  183000    1.1741233    -6.597747    73.598134  0.033514633  0.036512934            2 
  184000    1.1833521   -6.6638906    74.013179  0.033520462  0.036476615            2 
  185000    1.2024086    -6.690657    74.523264  0.033569038  0.036440257            2 
  186000    1.1936771   -6.6430662    74.947768  0.033578749  0.036405322            2 
  187000    1.1501239   -6.6127492    75.680801  0.033725847  0.036374673            2 
  188000    1.1736234   -6.6531267    75.973083  0.033676012  0.036344282            1 
  189000    1.1904394   -6.6845594    76.164807  0.033582366  0.036315123            4 
  190000    1.1691575    -6.632572    76.808876  0.033688103  0.036289342            3 
  191000    1.1730256    -6.604095    77.469183  0.033799818  0.036263117            2 
  192000    1.2035234   -6.6501388    77.517379  0.033644696  0.036237253            2 
  193000    1.1779723    -6.613825    78.429973  0.033864409  0.036210131            2 
  194000    1.1856062   -6.6381804    78.433338  0.033691296  0.036186561            3 
  195000    1.1998618   -6.6906941    78.417754  0.033511861  0.036158329            3 
  196000     1.159795   -6.6454431    79.224696  0.033683969  0.036131143            2 
  197000    1.1563664   -6.6237106    79.280976  0.033536792   0.03610507            4 
  198000    1.1954806   -6.6512005    79.985564  0.033663958   0.03607805            2 
  199000    1.1821747   -6.6216834    80.139321   0.03355918  0.036051698            3 
  200000    1.1883044   -6.6637302     80.51058  0.033546075  0.036025968            1 
  201000    1.1857857   -6.6610621    80.921878    0.0335497  0.035999182            6 
  202000    1.1706491   -6.6520127    81.218569   0.03350601  0.035970173            2 
  203000    1.1863528   -6.6604673    81.282973  0.033367395  0.035940698            3 
  204000    1.1744347   -6.6747401     81.53662  0.033307443  0.035908271            1 
  205000    1.1546401   -6.6734518    81.872825  0.033281636  0.035875646            5 
  206000    1.1972991   -6.7130327    82.455982   0.03335598  0.035843865            1 
  207000    1.1684664   -6.6427917    82.790749  0.033329609  0.035813613            1 
  208000     1.161855    -6.672381    83.217177  0.033340215  0.035781753            3 
  209000    1.1807022   -6.6176108    83.821145  0.033421509  0.035750737            2 
  210000    1.1423366   -6.6560741    84.038765  0.033348716  0.035718577            3 
  211000    1.1569285   -6.6768956    83.900191  0.033135936  0.035682692            1 
  212000    1.1976758   -6.7235913    84.363424  0.033161723  0.035647891            6 
  213000    1.1527732   -6.6494747    84.700725  0.033137999  0.035613249            1 
  214000    1.1487285   -6.6222978    85.212204  0.033182322  0.035578915            2 
  215000    1.1617089   -6.6715476    85.450517  0.033120355  0.035544349            3 
  216000    1.1502218   -6.6842434    85.852644  0.033122162  0.035508269            2 
  217000    1.1800878   -6.6608497    86.040506  0.033041669  0.035472396            5 
  218000    1.1632696   -6.6930659    86.381869  0.033020592  0.035438887            2 
  219000    1.1454032   -6.6603394    86.813159  0.033033926  0.035406433            6 
  220000    1.1614353   -6.6691906    87.137903  0.033006781  0.035372366            2 
  221000    1.1649141   -6.6489765    87.975221   0.03317316  0.035340129            3 
  222000    1.1701765   -6.6633546    88.235758  0.033121531  0.035307607            4 
  223000    1.1576239    -6.674407    88.315995  0.033002987  0.035274732            1 
  224000    1.1410839   -6.7192726    88.305026  0.032851572  0.035243017            3 
  225000    1.1905832   -6.6846646    89.282876  0.033067732  0.035210775            5 
  226000    1.1618282   -6.6152873     89.79945  0.033111892  0.035181836            3 
  227000    1.1371151   -6.6666762    90.014742  0.033045059  0.035155213            4 
  228000    1.1708596   -6.6768013    90.867943  0.033211967    0.0351302            3 
  229000    1.1855163   -6.6392371    91.881498  0.033435771   0.03510933            4 
  230000    1.1819777   -6.6910229    92.048308  0.033350836  0.035090714            2 
  231000    1.1529699   -6.6928798    92.423984  0.033341985  0.035073183            3 
  232000    1.1802598     -6.69382    93.126538  0.033450624  0.035056625            3 
  233000    1.1884604   -6.6834401    93.798051  0.033547229   0.03504017            4 
  234000    1.1451832   -6.6917232    93.425674  0.033271251  0.035024572            4 
  235000    1.1730758   -6.7196675    93.791294  0.033259324  0.035005476            6 
  236000    1.1751735   -6.6561542    94.393628  0.033331083  0.034986622            1 
  237000    1.1721799    -6.701348    94.536469  0.033240671   0.03496884            1 
  238000    1.1698722   -6.7270633    94.860397  0.033214425  0.034949592            3 
  239000    1.1413945   -6.6852725     95.19277  0.033191343  0.034928341            3 
  240000    1.1471958   -6.7098391    95.239367  0.033069225  0.034907343            4 
  241000    1.1696774   -6.6865946    95.804759   0.03312751  0.034886686            3 
  242000    1.1797573   -6.7073732    95.967741  0.033046743  0.034865049            2 
  243000     1.165427   -6.7012493    96.213028  0.032994866  0.034841937            6 
  244000    1.1380145   -6.6834565    96.785872  0.033055284   0.03481868            4 
  245000    1.1586564   -6.7020118    97.215669  0.033066554  0.034795077            2 
  246000    1.1850065    -6.711983    97.122437  0.032900554  0.034770064            7 
  247000    1.1538231   -6.6889753    97.234396  0.032805127  0.034743541            4 
  248000    1.1422221   -6.7161589    97.725782  0.032837964  0.034717136            3 
  249000    1.1538548   -6.7737615    98.056271  0.032816691  0.034691107            4 
  250000    1.1697042   -6.7012692    98.888006  0.032962668  0.034667883            1 
  251000    1.1864261   -6.7038282    98.849799  0.032818658  0.034643636            4 
  252000    1.1462114   -6.7162889     99.15024  0.032787778  0.034620138            2 
  253000    1.1810648   -6.7056714    99.607322  0.032808736    0.0345967            2 
  254000    1.1596765   -6.6749799    100.31241  0.032910895  0.034573273            6 
  255000    1.1633436   -6.7142045    100.42195  0.032817631  0.034549119            4 
  256000    1.1226297   -6.7035139    100.86484  0.032833607  0.034523955            3 
  257000    1.1536965   -6.6674161    101.17815  0.032807442  0.034498507           10 
  258000    1.1386683     -6.66399     101.6319  0.032826842  0.034473876            2 
  259000    1.1453423   -6.7786789    101.40087  0.032625761  0.034447232            4 
  260000    1.1442379   -6.6952753    101.79155  0.032625496  0.034420678            3 
  261000    1.1470545   -6.7470891    101.92118  0.032541885  0.034394197            2 
  262000    1.1520157   -6.7248134    102.73563  0.032676727  0.034367381            4 
  263000    1.1301208   -6.7600503    102.86571  0.032593696  0.034343145            7 
  264000     1.128638   -6.7323263    103.49348  0.032668395  0.034318229            2 
  265000     1.140617   -6.7161076    104.20671  0.032769405  0.034293483            4 
  266000    1.1501307   -6.7228205    103.89022   0.03254706  0.034270184            3 
  267000     1.122593   -6.7247867    104.40661  0.032586333  0.034246848            3 
  268000    1.1817804   -6.7384467    104.97379  0.032641103   0.03422486            4 
  269000    1.1266698   -6.7605505    105.46513  0.032671973  0.034201295            2 
  270000    1.1430184   -6.7386136    105.49355  0.032559737  0.034177845            3 
  271000    1.1467367   -6.7676381     105.7876  0.032530013  0.034154473            2 
  272000     1.146281   -6.6988851    106.62188  0.032666016  0.034132328            1 
  273000    1.1433703   -6.7161032    106.58014   0.03253362  0.034109981            2 
  274000    1.1244288   -6.7387485    106.97274  0.032534289  0.034085482            4 
  275000    1.1281308   -6.7380314    107.41033  0.032548585   0.03406088            4 
  276000    1.1357863   -6.7394726    107.43149  0.032437044  0.034038266            6 
  277000    1.1242247   -6.7325891    108.14801  0.032535502  0.034015656            3 
  278000    1.1450951   -6.7524005    108.88417  0.032639139  0.033992122            3 
  279000    1.1522555   -6.7186768    109.48702  0.032702217   0.03397125            2 
  280000    1.1309172   -6.7884616    108.93607   0.03242145  0.033950606            3 
  281000    1.1470751   -6.7210594    109.64858  0.032517372  0.033928289            1 
  282000    1.1423191   -6.7185001    110.22656  0.032572862  0.033906831            3 
  283000    1.1376737   -6.7729637    109.90441    0.0323629  0.033884992            1 
  284000    1.1508836   -6.7692816    110.50973  0.032426565  0.033862854            2 
  285000    1.1422863   -6.7740433    110.69692  0.032367521  0.033841212            2 
  286000    1.1127664   -6.7411698    111.51308  0.032492156  0.033820877            3 
  287000    1.1334933   -6.7637163    111.26672  0.032307411  0.033800531            3 
  288000    1.1769935   -6.7932784    111.61102  0.032294854  0.033779313            2 
  289000    1.1488547   -6.7518788    112.02172  0.032301533  0.033758029            3 
  290000    1.1532167   -6.7678698    111.99465   0.03218237  0.033736189            3 
  291000    1.1416599    -6.751707    112.61729  0.032250082  0.033713274            2 
  292000     1.131997   -6.7477913    112.80311  0.032192669  0.033689534            5 
  293000    1.1564274   -6.7611436    112.92347  0.032117027  0.033664856            3 
  294000     1.154086   -6.7482771    113.59906  0.032199279  0.033640954            3 
  295000    1.1643619   -6.7311148    114.28412  0.032283649   0.03361709            2 
  296000    1.1388535   -6.7901897    113.49676  0.031952918  0.033593359            2 
  297000    1.1608761   -6.7716899    114.40348  0.032099741  0.033568168            3 
  298000    1.1336731   -6.7727278    114.80588  0.032104552  0.033543901            2 
  299000    1.1422295   -6.7639559    114.84926  0.032009271   0.03351931            7 
  300000    1.1637859   -6.7458253    115.75671  0.032154641  0.033494714            4 
  301000     1.138762   -6.7444656    115.70867  0.032034516  0.033469907            9 
  302000    1.1182016   -6.7450173    115.63402  0.031907842  0.033444441            6 
  303000    1.1397068   -6.7938515    115.77671  0.031841779  0.033418292            3 
  304000    1.1118207    -6.771125    116.33171  0.031889175  0.033391469            3 
  305000    1.1375186   -6.7930113    116.27594  0.031769383  0.033365147            2 
  306000    1.1362629   -6.7838861    116.92073  0.031841158  0.033340039            2 
  307000    1.1309661   -6.7666148    116.98293  0.031754323  0.033313679            3 
  308000    1.1448699    -6.772099    117.56268  0.031808085  0.033288243            2 
  309000    1.1300342   -6.7479677    118.20634  0.031878733  0.033263005            3 
  310000    1.1364924   -6.7871943    118.63144  0.031890171  0.033237733            3 
  311000    1.1372521   -6.7384275    119.02022  0.031891806  0.033213951            3 
  312000    1.1113262   -6.7983511    119.14692  0.031823431  0.033188645            5 
  313000    1.1277089   -6.7850107    118.67556  0.031596263  0.033162165            2 
  314000    1.1273296   -6.7694593    119.87545   0.03181408  0.033136297            3 
  315000    1.1177406   -6.7973545    119.66967  0.031658643  0.033109843            3 
  316000     1.119484   -6.8124277    119.76729  0.031584202  0.033083674            3 
  317000    1.1398244   -6.7594072    120.42899  0.031658515  0.033057795            2 
  318000    1.1477746   -6.8004931      120.576  0.031597485  0.033032123            2 
  319000    1.1183092   -6.7719778    121.14936  0.031648214  0.033006483            4 
  320000     1.127429   -6.7548003    121.38443  0.031610529  0.032980281            3 
  321000    1.1187511     -6.77638    121.43669  0.031525622  0.032953549            5 
  322000    1.1243134   -6.7739521    121.89789  0.031547073  0.032926875            2 
  323000     1.145784   -6.7897023    122.10214    0.0315021   0.03289995            6 
  324000    1.1175419   -6.7977435    122.48512  0.031503373  0.032873742            4 
  325000    1.1067393   -6.7908926     122.3257  0.031365564  0.032846767            2 
  326000    1.1069668   -6.7401282    122.84245  0.031401445  0.032819172            5 
  327000    1.1464959   -6.7583174    123.16688  0.031388093  0.032792936            4 
  328000    1.1225189    -6.762538    123.52668   0.03138381   0.03276605            2 
  329000    1.1360143   -6.8294032    123.13211  0.031188477  0.032737613            6 
  330000    1.1320492   -6.7879773    123.96559  0.031304443  0.032708759            3 
  331000    1.1031368   -6.8226413    124.00708  0.031220313   0.03268025            2 
  332000    1.1217064   -6.7426681    124.45691  0.031239184  0.032652075            1 
  333000    1.1263643   -6.8178633     124.6382   0.03119074  0.032625092            2 
  334000    1.1045739   -6.7729268    125.10357  0.031213465  0.032598179            5 
  335000    1.1228372   -6.8075333    125.36487  0.031185291  0.032570801            4 
  336000    1.1111128   -6.8365386    125.38511  0.031097497  0.032543305            4 
  337000    1.1121842   -6.8056835    126.05654  0.031171252    0.0325171            5 
  338000    1.1321527   -6.7849649    126.53421  0.031196798  0.032491042            2 
  339000    1.1110075   -6.7980707    127.34902  0.031305068   0.03246564            3 
  340000    1.1090431   -6.7906203      126.976  0.031121569  0.032440616            4 
  341000    1.1125811   -6.7855064    127.37506  0.031127826  0.032416534            3 
  342000    1.1087551   -6.8229728    128.03126  0.031196701  0.032392859            2 
  343000    1.1162857   -6.7795665    128.50242  0.031220218  0.032368484            5 
  344000    1.1133042   -6.8236096    128.41505  0.031108298  0.032343916            2 
  345000    1.1229987    -6.823411    128.79583  0.031110104  0.032319713            5 
  346000    1.1227214   -6.7966315    128.98408  0.031065529  0.032294859            2 
  347000    1.1156201   -6.7805364    130.02269  0.031225429  0.032271469            3 
  348000    1.0981581   -6.8002057      130.021  0.031135296  0.032247786            2 
  349000    1.1162271   -6.7904237    130.02809  0.031047776  0.032223985            3 
  350000    1.1183924   -6.8201328    130.10941  0.030978431   0.03219944            2 
  351000    1.1190168   -6.7456496    131.20561   0.03115043  0.032175667            3 
  352000    1.0870216    -6.861853    130.69361  0.030940722  0.032151616            3 
  353000    1.1074811   -6.8178371    131.34708  0.031007337  0.032127519            3 
  354000     1.115761   -6.8248688    131.73675  0.031011476  0.032104029            3 
  355000    1.1198488   -6.8263867    132.31114  0.031058952  0.032080213            2 
  356000    1.0823552   -6.8604699    132.02614  0.030904996  0.032057798            4 
  357000    1.1116822   -6.8274211    132.65685  0.030965652   0.03203463            8 
  358000    1.1115559   -6.8195745    133.10415  0.030983276  0.032011704            3 
  359000    1.0830244    -6.848025    132.63005  0.030786919   0.03198839            2 
  360000    1.1178438   -6.7999835     133.3711  0.030872939  0.031965777            4 
  361000    1.0969008   -6.8715523    133.96836   0.03092529    0.0319431            3 
  362000    1.1133208   -6.8205462    134.06975  0.030863201   0.03192089            6 
  363000    1.1116849   -6.8530261     134.4887  0.030874358  0.031899092            3 
  364000    1.1215595   -6.8100518     135.1527  0.030941552   0.03187704            1 
  365000    1.1081649   -6.7800264     135.7099  0.030983994   0.03185637            6 
  366000    1.0921564   -6.8599839    135.41111   0.03083131  0.031834019            7 
  367000    1.0831539   -6.8155477     136.1852  0.030923071  0.031812201            2 
  368000    1.1153152   -6.8437038    135.97121  0.030790581  0.031789825            3 
  369000    1.0960092   -6.8237348    136.11222  0.030738984  0.031766682            5 
  370000    1.1214191   -6.8262682    136.22397  0.030681073  0.031743125            2 
  371000    1.1129096   -6.8550092    136.17095  0.030586468  0.031720219           10 
  372000    1.1058659   -6.8192728    136.78543  0.030641898  0.031696531            3 
  373000    1.0910061   -6.8119814    137.53038  0.030726179  0.031672273            4 
  374000    1.1213643   -6.8569399    136.47395  0.030408634  0.031647192            2 
  375000    1.0882518   -6.8633002    137.57131  0.030571402  0.031622319            4 
  376000    1.1163185    -6.856738    137.56552  0.030488811  0.031597674            2 
  377000    1.0974567   -6.8728176    137.97906  0.030499349  0.031573577            4 
  378000    1.1246996   -6.8758542    137.98386  0.030419723  0.031549203            1 
  379000    1.1245512   -6.8526372    138.90959  0.030543006  0.031525537            2 
  380000    1.1125444   -6.7868942    139.42678  0.030576049  0.031502896            2 
  381000    1.1133891   -6.8205428    139.08774  0.030421641  0.031480736            2 
  382000    1.1080867   -6.8818951    139.59229   0.03045207  0.031456975            4 
  383000    1.1035512   -6.8294566    140.27715  0.030521573  0.031434312            2 
  384000    1.1136246   -6.8575038    140.29654  0.030446297  0.031412066            3 
  385000      1.10296   -6.8674135     140.7718  0.030470085  0.031389917            2 
  386000    1.1086539   -6.8503748    141.26358  0.030497319  0.031368157            1 
  387000    1.0909966   -6.8613342    141.24044  0.030413532   0.03134563            2 
  388000     1.083746   -6.8805036    141.49081  0.030388919  0.031323079            4 
  389000    1.0851174   -6.8135098    142.11416  0.030444336  0.031301324            3 
  390000    1.0775084   -6.8727426    142.15437  0.030374866  0.031279514            4 
  391000    1.1119011   -6.8535957      142.488  0.030368286  0.031257327            4 
  392000    1.0801055   -6.8653996    143.31081  0.030465734  0.031236571            4 
  393000    1.1002103   -6.8765294    143.10804  0.030345217  0.031215099            4 
  394000    1.1010797   -6.8186229    143.88091  0.030431665  0.031194145            2 
  395000    1.0983599   -6.8521786    143.99888  0.030379511  0.031173543            4 
  396000    1.0939735   -6.8069368    143.99625  0.030302241  0.031152847            2 
  397000    1.0749631   -6.8401294     144.2531  0.030279828  0.031131278            4 
  398000    1.1076325   -6.8927863    144.44293  0.030243494  0.031110422            2 
  399000    1.0918134   -6.8626234    145.15347  0.030316097  0.031089156            2 
  400000    1.1187556   -6.8687457    144.95727  0.030199432  0.031068569            2 
  401000    1.0899665   -6.8490225    145.40168  0.030216475  0.031047218            2 
  402000    1.1040482   -6.8859969    145.38013  0.030136843  0.031025536            5 
  403000    1.0757894   -6.8662817    145.92658  0.030175058  0.031003312            2 
  404000    1.0905835    -6.852457    146.21426  0.030159707  0.030981048            2 
  405000    1.0945069   -6.8831982    145.92022  0.030024738  0.030958697            3 
  406000    1.1048113    -6.847269    146.52985  0.030075914  0.030936674            3 
  407000    1.0941851   -6.8802865     146.7233  0.030041626  0.030914665            2 
  408000    1.0825158   -6.8649294    147.09556  0.030044027  0.030892811            4 
  409000    1.0772018   -6.8951201    147.12221  0.029976001  0.030870455            2 
  410000     1.078676   -6.8489395     147.4084  0.029961058  0.030847999            3 
  411000    1.0971702   -6.8605625    147.72836  0.029953033  0.030826035            4 
  412000    1.1006312   -6.8871936    147.69675  0.029873938  0.030803683            3 
  413000    1.0772058    -6.857208    148.20046  0.029903239   0.03078092            2 
  414000    1.1355314   -6.8588948     148.4952  0.029890338  0.030758392            4 
  415000      1.09984   -6.8317292     149.2662  0.029973132  0.030736683            7 
  416000    1.0758971   -6.9035602    148.94703  0.029837144  0.030714224            4 
  417000    1.0842648   -6.8655074    149.16782  0.029809716  0.030691572            3 
  418000    1.1067513   -6.8361622    150.05721  0.029915712  0.030669291            2 
  419000    1.0895502   -6.9053942    149.97219  0.029827405  0.030647136            2 
  420000    1.0916958   -6.9482073    149.46816   0.02965638  0.030624169            2 
  421000    1.0953195   -6.8958488       150.13  0.029716943  0.030600764            2 
  422000    1.0737588   -6.9106563    150.18428  0.029657243  0.030577393            5 
  423000    1.1049371   -6.8964556     150.7388  0.029696376  0.030554085           10 
  424000    1.0717686   -6.8835516    151.15123  0.029707395   0.03053169            4 
  425000    1.0834992   -6.8764327    151.37611   0.02968159  0.030508739            5 
  426000    1.0909257   -6.8859549     151.1602  0.029569678    0.0304861            2 
  427000    1.0789533   -6.9048568    151.50848    0.0295684  0.030463483            5 
  428000    1.0956001   -6.8868863    152.09745   0.02961399  0.030440182            3 
  429000    1.0584824   -6.8829494    152.34776  0.029593583   0.03041621            2 
  430000    1.0898417   -6.9431873    151.57712   0.02937541   0.03039278            3 
  431000    1.0936614   -6.8783271    152.86485  0.029556235  0.030369577            2 
  432000    1.0801654   -6.8817781     152.8706  0.029488927  0.030346329            4 
  433000    1.1287928   -6.9256681    153.04705  0.029454783   0.03032314            4 
  434000    1.0880433   -6.9447981    152.77759  0.029335174   0.03029993            4 
  435000    1.0590236   -6.8942626    153.65028   0.02943492  0.030277056            4 
  436000    1.0849682   -6.9532945    153.76564  0.029389458  0.030254183            3 
  437000    1.0830445    -6.923901     154.0649  0.029379272   0.03023122            4 
  438000    1.0674669   -6.8868762    154.53079  0.029400835  0.030208127            3 
  439000    1.0501414   -6.9109768    155.23452  0.029467449  0.030185014            2 
  440000    1.0759738   -6.9433882    154.89931   0.02933699  0.030162202            9 
  441000    1.0764034   -6.9264367    154.68285  0.029229563  0.030139784            1 
  442000    1.1126959   -6.8469138    156.00817  0.029413306  0.030118503            4 
  443000    1.0770101    -6.867729    155.86413  0.029319813   0.03009657            6 
  444000    1.0659494    -6.913668    155.75295  0.029232911  0.030074251            6 
  445000    1.0887823   -6.9123047    156.50306  0.029307689  0.030051047            3 
  446000    1.0650486   -6.8998821    157.15671  0.029364109  0.030028111            2 
  447000    1.0833429   -6.8936091    157.11949  0.029291479  0.030005985            5 
  448000    1.0764098   -6.8830041    157.08574  0.029219818  0.029983841            4 
  449000    1.0859932    -6.935299     157.1341  0.029163715  0.029962041            3 
  450000    1.0854019   -6.9269286    157.74576  0.029212178  0.029940232            3 
  451000    1.0646927   -6.9173542     157.6028  0.029120989  0.029917939            4 
  452000    1.0443606   -6.9077645    157.42992   0.02902469  0.029895211            5 
  453000    1.0628732    -6.928843    157.64555  0.029000284  0.029871686            4 
  454000    1.0559396   -6.9367656    157.91004  0.028984957  0.029848855            4 
  455000    1.0650726   -6.9031626    158.62049  0.029051371  0.029826142            2 
  456000    1.0841599   -6.9460247    158.86872  0.029033026  0.029803758            5 
  457000    1.0654084   -6.9582743    159.37782  0.029062331  0.029781015            3 
  458000     1.094312   -6.9305164    159.43608  0.029009477  0.029758099            2 
  459000    1.0922404   -6.9269303    159.46395  0.028951334  0.029735254            3 
  460000    1.1010199   -6.9173065    160.05907  0.028996208  0.029711795            2 
  461000    1.0665873   -6.9501503    159.62838  0.028855455  0.029688342            2 
  462000    1.0781001   -6.9126691    160.01739  0.028863165  0.029664792            4 
  463000    1.0599839   -6.9397672    159.97579   0.02879334  0.029641264            4 
  464000    1.0987062   -6.8928782    160.67436  0.028856746  0.029617596            3 
  465000    1.0833265   -6.9069135    160.67199  0.028794264  0.029594312            5 
  466000    1.0509556    -6.969554    160.25864  0.028658554  0.029570625            2 
  467000    1.0398376   -6.9502829    161.42938    0.0288061  0.029547333            2 
  468000    1.0404854   -6.9464923    161.68727  0.028790468  0.029524047            5 
  469000    1.0627304   -6.9844115    161.18723  0.028640232  0.029500599            4 
  470000    1.0567525   -6.9370641    161.45041  0.028625959  0.029476749            4 
  471000    1.0485812   -6.9861664    161.79633  0.028626385  0.029453042            2 
  472000    1.0809184   -6.9646322    162.13192  0.028624986  0.029429129            5 
  473000    1.0739278   -6.9704751    162.56895  0.028641464  0.029405338            3 
  474000     1.057621   -6.9644759    162.59191  0.028585075  0.029381683            7 
  475000    1.0763958   -6.9707016    162.56182  0.028519617  0.029357942            4 
  476000    1.0808789   -6.9314414    162.65913  0.028476738  0.029334091            5 
  477000     1.046572   -6.9668851    163.23133  0.028517004  0.029310691            2 
  478000    1.0434185   -6.8921659    163.92049  0.028577491  0.029287319            6 
  479000     1.061988   -6.9746474    163.96676   0.02852588   0.02926408            2 
  480000     1.068233    -6.959252    164.56707  0.028570672  0.029241306            3 
  481000    1.0556757   -6.9434163    164.90183   0.02856927  0.029219013            7 
  482000    1.0467649   -6.9631586    164.83811  0.028498982  0.029197356            2 
  483000    1.0673941   -6.9529517    165.58458  0.028568768  0.029175213            7 
  484000    1.0443106   -6.9550502    165.24167  0.028450701  0.029153273            3 
  485000    1.0570917   -6.9491593    165.64934  0.028462086  0.029131258            9 
  486000    1.0685721    -6.959954    165.99112  0.028462127  0.029109328            3 
  487000    1.0616398   -6.9531504    166.02842  0.028410065  0.029087255            5 
  488000    1.0545024   -7.0151674    165.63881  0.028285315  0.029064799            5 
  489000     1.038871    -7.004486    165.98079  0.028285752  0.029041862            5 
  490000    1.0532124   -6.9438688    166.65155    0.0283421  0.029018969            5 
  491000    1.0567937   -6.9432517    166.58986  0.028273907  0.028996825            2 
  492000    1.0650608    -6.947069    167.38828  0.028351674  0.028975096            7 
  493000    1.0580613   -6.9235489    167.94272  0.028387884  0.028952975            2 
  494000    1.0433956   -6.9733413    167.75504  0.028298758  0.028930525            6 
  495000    1.0512667   -6.9670073    167.17763  0.028144382  0.028908058            2 
  496000    1.0502584   -6.9543866    167.23699  0.028097612  0.028885366            5 
  497000    1.0488724   -6.9569732    167.99808  0.028168693  0.028862538            4 
  498000    1.0771057   -6.9964098    168.02293  0.028116286  0.028839426            2 
  499000    1.0597367   -7.0117529    168.30908  0.028107729  0.028816261            2 
  500000    1.0448208   -6.9331725    168.55983  0.028093304  0.028792952            5 
  501000    1.0288466   -6.9962234    168.58114  0.028040774   0.02877016            3 
  502000    1.0529531   -6.9636393    169.36767  0.028115483  0.028747687            4 
  503000    1.0515568   -6.9502062    170.50152  0.028247435  0.028726215            5 
  504000    1.0381854   -7.0185844    169.84518  0.028082867  0.028704578            3 
  505000    1.0344612   -7.0327076    169.84009  0.028026418  0.028682503            2 
  506000    1.0586792   -6.9692965    170.82186  0.028132717  0.028660907            3 
  507000     1.086561   -6.9628895    171.15797  0.028132474  0.028639163            4 
  508000    1.0610784   -6.9540257    171.36746  0.028111461  0.028618053            5 
  509000    1.0615392   -6.9366814    171.49336  0.028076843  0.028597164            7 
  510000    1.0520687   -6.9934337     171.6703  0.028050703  0.028575961            4 
  511000    1.0379823   -6.9786236    172.35021  0.028106687  0.028555189            5 
  512000    1.0462976   -6.9687706    172.14529   0.02801844  0.028534575            2 
  513000    1.0582772   -6.9884508    171.79168   0.02790638  0.028513326            5 
  514000    1.0704847   -7.0023017    172.71053  0.028001059  0.028491867            5 
  515000    1.0494382   -7.0250476    172.58418  0.027926243  0.028470467            7 
  516000    1.0316991   -6.9871233    172.90055  0.027923216  0.028449306            2 
  517000    1.0511376   -6.9874658    172.78351   0.02785034  0.028428022            4 
  518000    1.0272481   -7.0724986    172.97055  0.027826665  0.028406275            4 
  519000    1.0553898   -6.9958364    173.35896  0.027835415  0.028384481            3 
  520000    1.0417002   -7.0107678    172.79838  0.027692047  0.028362424            3 
  521000    1.0465935   -6.9186047     173.6994  0.027783014  0.028340551            2 
  522000    1.0522343   -7.0068294    173.66874  0.027724895  0.028318433           11 
  523000    1.0391358   -7.0713491    173.03302   0.02757059  0.028295757            5 
  524000    1.0449502   -7.0184344    174.37967  0.027732136  0.028272858            2 
  525000    1.0732597   -6.9432161    174.27462  0.027662638  0.028250677            3 
  526000    1.0453946    -6.997934    173.93527  0.027556284  0.028228162            5 
  527000    1.0304187    -7.034257    174.68393   0.02762238   0.02820519            5 
  528000    1.0190606   -7.0155697    175.03646  0.027625703  0.028182218            6 
  529000    1.0444128   -6.9726092    174.91382  0.027554162  0.028160077            3 
  530000    1.0539235   -7.0254285    175.05072  0.027523698  0.028138039            4 
  531000    1.0509175   -6.9732955    175.50202  0.027542689  0.028115804            6 
  532000    1.0432691   -6.9761861    175.81166   0.02753942  0.028093268            4 
  533000    1.0644485   -7.0361467    175.33332  0.027412965  0.028070971            5 
  534000    1.0358051   -7.0279749    175.63227  0.027408281  0.028048029            3 
  535000    1.0561809   -7.0264366    175.84187  0.027389699   0.02802491            3 
  536000    1.0393487   -7.0434553    176.02956   0.02736778  0.028002578            4 
  537000    1.0580307   -7.0271449    176.18564  0.027341037  0.027979572            4 
  538000    1.0556509   -7.0116556    177.06389  0.027426254  0.027957369            3 
  539000    1.0402363   -7.0312158    177.02017   0.02736861  0.027935459            5 
  540000    1.0475553   -7.0144454    177.06366  0.027324639  0.027912724            3 
  541000    1.0231996   -7.0176508    177.13671  0.027285383  0.027890373            2 
  542000    1.0356629   -7.0365705    176.67022  0.027163318  0.027867694            3 
  543000    1.0370971   -7.0200315    177.72797  0.027275625  0.027844719            3 
  544000    1.0354807   -6.9917133    178.06808  0.027277586  0.027821985            6 
  545000    1.0318107   -7.0039238    177.41697  0.027127977  0.027799381            4 
  546000    1.0490812   -7.0147439    178.14456   0.02718934  0.027776555            5 
  547000    1.0209783   -6.9979255     178.0567   0.02712625  0.027753817            2 
  548000    1.0476787   -6.9566754    178.52236   0.02714756  0.027731026            2 
  549000    1.0226378   -7.0385843     178.3554  0.027072769  0.027707944            7 
  550000    1.0393914    -7.047692    178.43976  0.027036328  0.027684564            7 
  551000    1.0431866   -7.0365289    178.98855  0.027070259  0.027661606            4 
  552000    1.0484657   -7.0622816    178.77411  0.026988845  0.027638624            4 
  553000    1.0095612   -7.0220058    178.76928  0.026939312  0.027615601            5 
  554000     1.031385   -7.0313927    179.16239  0.026949818  0.027592396            4 
  555000    1.0117578   -7.0202048     178.8778  0.026858529   0.02756919            5 
  556000    1.0233173   -7.0097491    179.86615  0.026958355  0.027546355            2 
  557000    1.0500382   -7.0115013    180.39979  0.026989796  0.027523577            4 
  558000    1.0364407   -7.0630294    179.81629  0.026854284  0.027500978            9 
  559000    1.0228525   -7.1099599    179.69318  0.026787892  0.027477899            3 
  560000    1.0203581    -7.060181    180.41446   0.02684739  0.027454612            9 
  561000    1.0329912   -7.0675717    180.35313  0.026790424  0.027431317            5 
  562000    1.0231865   -7.0520788    181.17897  0.026865209  0.027408986            4 
  563000    1.0431452   -7.0498691    181.52797  0.026869149  0.027386518            3 
  564000    1.0284786   -7.0319099      181.216  0.026775414  0.027363785            2 
  565000    1.0218494   -7.0319496     181.5346  0.026775015  0.027340983            3 
  566000    1.0410556   -7.0568846    181.54714  0.026729556  0.027318387            4 
  567000    1.0290035   -7.0304671    181.61233  0.026691994   0.02729548            4 
  568000    1.0073842   -7.0402028    182.22332  0.026734643  0.027273192            4 
  569000    1.0344913   -7.0612498    182.16752  0.026679485  0.027251086            3 
  570000    1.0254702   -7.0618505    182.10297  0.026623241  0.027228692            7 
  571000    1.0098537    -7.098139    182.25702  0.026599099   0.02720572            6 
  572000    1.0507979   -7.0863073    183.00619  0.026661741  0.027182922            6 
  573000     1.020598   -7.0504282    183.42984  0.026676823  0.027160176            4 
  574000    1.0490218   -7.1078974    182.82642  0.026542743  0.027137448            3 
  575000    1.0298547   -7.1015521    183.24163  0.026556758  0.027114626            2 
  576000    1.0298896   -7.0604819    183.82612  0.026595215  0.027092021            6 
  577000    1.0162234   -7.0386743    184.39174  0.026630811  0.027069924            2 
  578000    1.0069998     -7.08658    183.68309  0.026482568  0.027048125            4 
  579000    1.0335859   -7.0535631    184.07585  0.026493358  0.027025648            6 
  580000    1.0133893   -7.0828757    183.87581  0.026418939  0.027003142            5 
  581000    1.0265968   -7.0729044    184.12575  0.026409316  0.026980628            4 
  582000    1.0220367   -7.0627706    185.16845  0.026513238  0.026957924            6 
  583000    1.0352081   -7.0386557    185.14827  0.026464875  0.026936011            2 
  584000     1.010953   -7.0751787    185.01519   0.02640057  0.026913983            3 
  585000    1.0376889   -7.0738616    185.18322  0.026379376  0.026891689            2 
  586000   0.99474923   -7.1153887    185.26193  0.026345553  0.026869272            8 
  587000    1.0000678   -7.0714528    185.68722  0.026361047  0.026846802            3 
  588000    1.0263062   -7.0503788    186.51579  0.026433644  0.026824954            4 
  589000    1.0087333   -7.0715301      186.922  0.026446237  0.026802901            5 
  590000    1.0156254   -7.0369485    186.74572  0.026376514  0.026781276            7 
  591000   0.99721838   -7.0399558    186.16253  0.026249652  0.026759374            3 
  592000    1.0238812   -7.0783415    186.88168  0.026306542  0.026737813            3 
  593000   0.99131382   -7.0760269    187.03619  0.026283894  0.026715917            3 
  594000     1.028117   -7.0913067    187.12454   0.02625204  0.026694107            3 
  595000    1.0039701   -7.0866104    187.31094  0.026234026  0.026672235            2 
  596000    1.0211469   -7.0839574    186.48665  0.026074755  0.026650234            2 
  597000   0.99366899   -7.0867266    187.37404  0.026154948  0.026628233            3 
  598000    1.0047151   -7.1077167    187.47321  0.026125029  0.026606213            3 
  599000    1.0296191   -7.1063458    188.05377  0.026162183  0.026584399            2 
  600000    1.0109288   -7.0883745    188.17486  0.026135397  0.026562642            4 
  601000    1.0213498   -7.0684875    189.10932   0.02622148  0.026541097            4 
  602000    1.0210818   -7.0627032    188.94709  0.026155467   0.02652005            3 
  603000    1.0234137   -7.0791847    188.38863  0.026034913  0.026498762            7 
  604000   0.99520249   -7.0892079    188.60422  0.026021553  0.026477239            3 
  605000    1.0107995   -7.0840622    189.29578  0.026073799  0.026456068            6 
  606000    1.0170411   -7.1343865    189.32826   0.02603524   0.02643471            4 
  607000    1.0140371   -7.0940863    189.30018  0.025988493  0.026413405            4 
  608000    1.0076299   -7.1007324    189.47588   0.02596983  0.026392373            4 
  609000    1.0325888    -7.096487     190.2552  0.026033826  0.026371256            5 
  610000     1.023758   -7.0371273    190.34272  0.026003104  0.026350429            4 
  611000    1.0156922   -7.0813021    190.27338  0.025951089  0.026329219            3 
  612000     1.013608    -7.107416    190.89026  0.025992683   0.02630837            3 
  613000    1.0029774   -7.0797817    190.93423  0.025956257  0.026287538            4 
  614000    1.0223609   -7.1381346    191.12827  0.025940319  0.026266553            3 
  615000    1.0028018   -7.0804964    191.41483  0.025936968  0.026245848            2 
  616000    1.0274226   -7.1270623    190.93354  0.025829754  0.026224802            2 
  617000   0.99889524    -7.105322    191.34182  0.025843033  0.026203908            3 
  618000    1.0224203   -7.0981438    191.30172  0.025795809  0.026183357            6 
  619000     1.025274   -7.1138638    191.85838  0.025829076  0.026162515            5 
  620000     1.018474   -7.0724724    191.93428  0.025797618   0.02614144            3 
  621000   0.99068347   -7.0827674    192.02074  0.025767679  0.026120807            3 
  622000   0.99786449   -7.1036466    192.18477  0.025748228  0.026100413            4 
  623000    1.0091275   -7.0973572    192.76377  0.025784345  0.026079858            7 
  624000   0.99910897   -7.1145538    192.53734  0.025712786  0.026059225            5 
  625000    1.0109416   -7.1119204    192.61147   0.02568153  0.026038371            2 
  626000   0.99554632   -7.1290146    193.10037  0.025705587  0.026017101            4 
  627000    1.0260902   -7.1279046    193.01831  0.025653683   0.02599585            2 
  628000   0.99272539   -7.1319562    192.76919  0.025579775  0.025974488            4 
  629000   0.97510888   -7.1181524    193.34552  0.025615464  0.025953482            8 
  630000    0.9863082   -7.1413601    193.56919   0.02560439  0.025932436            4 
  631000   0.99946165   -7.1455461    193.71935  0.025583644  0.025911576            5 
  632000   0.99804788   -7.0743727     193.9417  0.025572482  0.025890564            5 
  633000   0.98129337   -7.1371492    193.92202  0.025529492  0.025869902            6 
  634000   0.99625768   -7.1347591    194.12479  0.025515877  0.025849276            4 
  635000    1.0119071   -7.1385038     194.3993  0.025511719  0.025828681            4 
  636000   0.99095802    -7.104209     194.2393  0.025450642  0.025807944            2 
  637000   0.99282121   -7.1404456    194.29701  0.025418238  0.025787005            2 
  638000    1.0151784   -7.1102865    194.93685  0.025461971  0.025766287            4 
  639000    1.0082421   -7.1242044    194.99503  0.025429712  0.025745885            5 
  640000   0.98936645   -7.1286091    195.38201  0.025440366  0.025725224            5 
  641000    1.0015048   -7.0905973    195.91829  0.025470396  0.025704424            6 
  642000    0.9762055   -7.1527542    194.98204  0.025309196  0.025683874            7 
  643000   0.99180291   -7.1397364    195.98377  0.025399659  0.025663051            4 
  644000     1.005898   -7.1612179    195.45673  0.025292019  0.025642452            2 
  645000   0.99678507    -7.122413    196.22021  0.025351448  0.025621856            2 
  646000    1.0241437   -7.1636339    195.67517  0.025241895  0.025601201            7 
  647000    1.0066029   -7.1105046    196.36303  0.025291477   0.02558038            3 
  648000   0.98899071   -7.1346226    196.47733  0.025267146  0.025559767            2 
  649000   0.98428628   -7.1275476    197.13153  0.025312215  0.025539234            9 
  650000    1.0106354   -7.1276433    197.82864  0.025362646  0.025518932            7 
  651000    1.0133194   -7.1178723    197.92901  0.025336535  0.025498855           12 
  652000    1.0062252   -7.1531415    197.67083  0.025264676  0.025478588            3 
  653000   0.98599638   -7.1689621    197.55791  0.025211577  0.025458325            6 
  654000    1.0015037   -7.2053442    197.83789  0.025208702  0.025437611            6 
  655000   0.98356087   -7.1692217    197.44568  0.025120315  0.025417236            2 
  656000    1.0045494   -7.1649859    198.33362   0.02519482  0.025396849            4 
  657000   0.99383948   -7.1896286    198.19101  0.025138382  0.025376801            7 
  658000   0.96235713   -7.1715629     198.2718   0.02511041  0.025356647            4 
  659000    0.9652812   -7.1418394    198.84357  0.025144609  0.025336399            3 
  660000   0.98404371   -7.1795014    198.59014  0.025074513  0.025316267            7 
  661000    1.0310294   -7.1521634    198.72013  0.025052966  0.025296285            2 
  662000   0.98654143   -7.1785347    199.09588  0.025062422  0.025276318            3 
  663000   0.97543518   -7.1384085    199.33354  0.025054492  0.025256188            3 
  664000   0.98491223   -7.1682818    199.19585  0.024999479  0.025236097            4 
  665000   0.98286367   -7.1465674    199.40611  0.024988234  0.025216195            5 
  666000    1.0110296   -7.1486621    199.78365  0.024997955  0.025196444            4 
  667000     0.997489   -7.1526515    199.59328  0.024936691  0.025176473            8 
  668000   0.99404932   -7.1755331    200.15865  0.024969891  0.025156516            3 
  669000   0.98732244   -7.1483159    200.44841  0.024968661  0.025136932            2 
  670000    1.0051743   -7.1459457    201.41849  0.025052051  0.025117328            6 
  671000   0.99581092   -7.1697742    200.34692  0.024881634   0.02509777            4 
  672000   0.97330418   -7.1922031    200.73489  0.024892719  0.025078062            5 
  673000   0.98640527   -7.1823612    200.32987  0.024805581   0.02505813            4 
  674000     1.011222   -7.1137023    200.89109  0.024838167  0.025038545           10 
  675000   0.98787747    -7.157266    201.07486  0.024824056  0.025018829            8 
  676000   0.98171653   -7.1466909     201.2861  0.024813375  0.024998954            5 
  677000    0.9923531   -7.1564411    201.36917  0.024786949  0.024979214            3 
  678000   0.97018088   -7.1627575    201.95977  0.024822981  0.024959441            6 
  679000   0.96919157   -7.2184389    201.39429  0.024717021  0.024939647            6 
  680000   0.99303184   -7.1829479    201.82369  0.024733295  0.024919829            5 
  681000   0.97305371   -7.1619116    201.58207   0.02466741  0.024900083            6 
  682000   0.98517102   -7.2104358     202.0479   0.02468816  0.024880399            4 
  683000   0.97584803   -7.2243086     201.8838  0.024631991  0.024860458            7 
  684000   0.99233371   -7.1620123    202.55226  0.024677419  0.024840524            6 
  685000   0.99269319   -7.1423363    202.33503  0.024614967  0.024820449            3 
  686000   0.98224708   -7.1935894    202.20988  0.024563882  0.024800508            3 
  687000   0.99262513   -7.1201623    203.71115  0.024710231  0.024780723            4 
  688000   0.98558957   -7.1643818    202.63747  0.024544267  0.024761186            6 
  689000   0.96820189   -7.2086645    202.75616     0.024523  0.024741414            8 
  690000   0.97251886    -7.205999    203.29497  0.024552533  0.024722082            7 
  691000   0.99552607   -7.1681955    203.89912   0.02458986  0.024702528            4 
  692000    1.0144426   -7.1842888    204.19651  0.024590139  0.024683408            3 
  693000   0.97893444   -7.1798608    204.69027  0.024614029  0.024664273            4 
  694000   0.97676549   -7.1994013    204.33888  0.024536368  0.024645024            3 
  695000   0.95540117   -7.2322441    204.00464  0.024460988  0.024625799            4 
  696000   0.98581532   -7.2194152    205.28102  0.024578666  0.024606817            7 
  697000   0.96563321   -7.1959984    205.08165  0.024519566  0.024587867            4 
  698000   0.97581471   -7.2506727    204.53418  0.024419076  0.024568574            3 
  699000   0.97810291   -7.1886938    205.37018  0.024483808  0.024549211           10 
  700000   0.96769806   -7.2059731    205.16562  0.024424478  0.024530067            8 
  701000   0.96793024   -7.2080855    205.66985  0.024449578  0.024511045            3 
  702000   0.97510391   -7.2078052    205.64448  0.024411738   0.02449169            2 
  703000   0.97409695   -7.2250042    205.07645  0.024309679  0.024472485            8 
  704000    0.9696411    -7.197693    205.93342  0.024376589  0.024453042            4 
  705000   0.96559926   -7.1951754    206.19455  0.024372879  0.024433768            4 
  706000   0.97563224   -7.2296093     205.9578  0.024310411  0.024414316            2 
  707000   0.98429219   -7.2264034    205.42131   0.02421279  0.024394681            5 
  708000   0.94750711   -7.1955959      206.003  0.024247058  0.024375487            4 
  709000    0.9739391   -7.1863711    206.68162  0.024292621  0.024356477            5 
  710000   0.97729012   -7.1828051    206.71658   0.02426251   0.02433745            8 
  711000   0.95992305   -7.2133861    206.70993  0.024227605  0.024318285            8 
  712000   0.97660327   -7.1997167    207.50861  0.024287056  0.024299477            3 
  713000   0.96022344   -7.2374832    206.76447   0.02416602  0.024280456            5 
  714000    0.9515846   -7.2190865    206.72497  0.024127565  0.024261086            4 
  715000   0.97443843    -7.237943    207.39616  0.024172047  0.024241951            5 
  716000    0.9711389   -7.2023639    207.30128  0.024127244  0.024222798            5 
  717000   0.96368053   -7.1918954    207.29864  0.024093287  0.024203816            9 
  718000   0.96501333   -7.2304423    207.55487   0.02408947  0.024184803            5 
  719000   0.97925135   -7.2120408    207.60463  0.024061733   0.02416581            3 
  720000   0.96981172   -7.2077364    207.89421  0.024061829  0.024146633            7 
  721000   0.98306501   -7.2264911    208.02985  0.024044134  0.024127397            3 
  722000   0.94672752   -7.2165106    207.76634  0.023980418  0.024108094           12 
  723000   0.95693046   -7.2403719    207.62271  0.023930694  0.024088509            4 
  724000   0.98198008   -7.2777293     207.2988  0.023860359   0.02406905            3 
  725000   0.96920523   -7.2363463    207.99355  0.023907305  0.024049705            6 
  726000   0.95130142   -7.1875324    208.09016  0.023885464  0.024030503            8 
  727000   0.94581623   -7.2195458    208.39369  0.023887401  0.024011075           15 
  728000   0.95595526   -7.2671544     208.2597  0.023839252    0.0239917            9 
  729000   0.94546727   -7.2398138    208.15628  0.023794728  0.023972193            5 
  730000   0.95228425   -7.1843267    209.23236  0.023884973  0.023952843           17 
  731000   0.97492087   -7.2118501    209.32708  0.023863096  0.023933802            5 
  732000   0.95581651   -7.1944216     209.5176  0.023852186  0.023914714            2 
  733000   0.97602529   -7.2284547    209.04819  0.023766279  0.023895431            3 
  734000   0.97771709   -7.1942368    209.82849   0.02382249  0.023876172           11 
  735000   0.95894416   -7.2068805    209.44496  0.023746594  0.023856885            5 
  736000   0.95173112   -7.2519713    209.59259  0.023731045  0.023837329            5 
  737000   0.96040363   -7.2550306    209.60229  0.023699943  0.023817796            4 
  738000   0.95959048    -7.232661    209.59953  0.023667517  0.023797861            3 
  739000   0.96356174   -7.2855697    208.99244  0.023567032  0.023777891            5 
  740000    0.9778787   -7.2955388    208.43176  0.023472045  0.023757802            4 
  741000   0.96452768   -7.2696157    209.32789  0.023541149   0.02373772            6 
  742000   0.96372783   -7.2569607     209.7912  0.023561455  0.023717762            3 
  743000   0.94299588   -7.2570443    210.06496  0.023560448  0.023697738            4 
  744000   0.96050662   -7.2446629    209.52701  0.023468527  0.023677423            5 
  745000   0.94992358   -7.2360492    210.11649  0.023502963   0.02365735           10 
  746000   0.97232075    -7.274708    209.60766  0.023414618  0.023637088            6 
  747000   0.96046608   -7.2753711    209.43275  0.023363761  0.023616926            5 
  748000   0.95794588   -7.2687236    209.42793  0.023331989  0.023596397            3 
  749000   0.91001361   -7.3171989    210.06036  0.023371201  0.023576178            7 
  750000   0.95475266   -7.2951339    210.71678  0.023412976  0.023556134            3 
  751000   0.93623438    -7.257879    210.62574  0.023371698   0.02353605            8 
  752000   0.94932936   -7.3029166    210.07301  0.023279367  0.023515873           10 
  753000   0.96125811   -7.2370864    211.20747     0.023374  0.023496234            4 
  754000   0.95748538    -7.295578    211.14395  0.023335981  0.023476539            4 
  755000   0.95843003   -7.2639563     211.4356  0.023337263  0.023456996            9 
  756000   0.93746564   -7.2534837    212.32435   0.02340436  0.023437475            6 
  757000   0.93959298   -7.3032938      211.184  0.023247909  0.023418126            6 
  758000   0.95522805   -7.2827066     211.3096  0.023231047  0.023398717            5 
  759000   0.95005515   -7.2874405     212.3772  0.023317655  0.023379447            5 
  760000   0.95656398   -7.2908723    211.67376  0.023209842  0.023360139            3 
  761000   0.95318632    -7.272483     212.2926   0.02324711  0.023340883            4 
  762000   0.96026632   -7.2738593    212.12864   0.02319867  0.023321662            3 
  763000   0.97582124   -7.2566193    212.99013  0.023262356  0.023302489            3 
  764000   0.95737923   -7.2850346    213.23306  0.023258405  0.023283351            6 
  765000   0.94648037   -7.3074018    213.69854  0.023278709  0.023264374           11 
  766000   0.95030999   -7.2737743    213.09901  0.023183095  0.023245469            3 
  767000   0.95016654   -7.2816608    213.90666  0.023240619  0.023226409            6 
  768000   0.97000136   -7.2681794    213.82423  0.023201414  0.023207684            8 
  769000   0.97246327   -7.2751748    213.65828   0.02315326  0.023188972            5 
  770000   0.95244926   -7.3346357    213.42464  0.023097905  0.023169888            7 
  771000   0.93625542   -7.2621415    214.62405  0.023197585  0.023150936            7 
  772000   0.93776872    -7.291329    214.20363  0.023122154   0.02313222            7 
  773000   0.91587377    -7.238441    214.78509  0.023154925  0.023113398            8 
  774000   0.94808195    -7.263624     213.2792  0.022962877  0.023094546            7 
  775000   0.95429455   -7.2899565    214.99331  0.023117561  0.023075461            4 
  776000   0.93936969   -7.3183123    213.82228  0.022962014  0.023056415            5 
  777000   0.92807925   -7.3144475     214.2609  0.022979505  0.023037281            6 
  778000    0.9288834   -7.3328441    214.38657  0.022963429  0.023018259            5 
  779000   0.96413368   -7.3195588    214.01798  0.022894521   0.02299926            7 
  780000   0.95958679    -7.276868    215.10728  0.022981547  0.022980421            5 
  781000   0.94251196   -7.3426007    215.29492  0.022972143   0.02296152            3 
  782000   0.94014214   -7.3084135     215.3288  0.022946377  0.022942749            8 
  783000   0.93788057   -7.3223839    214.96043  0.022877866   0.02292395            8 
  784000   0.93118428   -7.2708266    215.80978  0.022938965   0.02290522            5 
  785000   0.93750849   -7.3350093    215.42682  0.022869089  0.022886613            4 
  786000    0.9534527   -7.2832841    216.35134  0.022938013  0.022867976           10 
  787000   0.93618224   -7.2931975    215.44147  0.022812523   0.02284924            8 
  788000   0.92514069   -7.3242314     215.8779  0.022829727  0.022830472            5 
  789000    0.9377799   -7.2898093    216.01603  0.022815382   0.02281207           11 
  790000   0.93756267   -7.3134828    216.34089  0.022820769  0.022793552           10 
  791000   0.95038036   -7.2868285     215.8811  0.022743479  0.022774934            9 
  792000   0.94395977   -7.2973739    217.37245   0.02287168  0.022756469            7 
  793000   0.95486961     -7.30401    217.04491  0.022808418  0.022738157            4 
  794000   0.94564782   -7.3655971    216.26141  0.022697461  0.022719459            9 
  795000   0.93481253   -7.2884668    216.97689  0.022743909  0.022700727            6 
  796000   0.96241266   -7.3355516     216.5138  0.022666855  0.022682187            7 
  797000   0.96893259   -7.2996917    217.12425  0.022702243  0.022663555           10 
  798000   0.92002027   -7.3096175     217.2842  0.022690497  0.022644895            9 
  799000   0.94731324    -7.357954    217.10923  0.022643849  0.022626071            6 
  800000   0.93157193   -7.3287162    217.49514  0.022655744  0.022607545            6 
  801000   0.96145211   -7.2804681    218.09166  0.022689519  0.022589291            6 
  802000   0.94473092    -7.303805    217.95046  0.022646557  0.022571056            7 
  803000   0.94481142    -7.332452    217.89257  0.022612346  0.022552739            2 
  804000   0.93149722   -7.3601461    217.13343  0.022505537  0.022534301           10 
  805000   0.90764775   -7.3524379    217.46747  0.022512161  0.022515976           14 
  806000   0.92475492   -7.3056601    218.29978  0.022570283  0.022497731            5 
  807000   0.94753885   -7.3406089    217.85984  0.022496886  0.022479461            3 
  808000   0.93412002   -7.3672335    218.25749  0.022510054    0.0224608            6 
  809000   0.92717485   -7.3225075    218.65113  0.022522778  0.022442282            4 
  810000   0.89555189    -7.363511    218.07321  0.022435515  0.022423814            7 
  811000    0.9024536   -7.3426034    218.41159  0.022442621  0.022405417           15 
  812000   0.92955831     -7.33668    218.92898   0.02246808   0.02238706            3 
  813000   0.91614851    -7.335283    218.72976  0.022420025  0.022368775            8 
  814000   0.90732336   -7.3031699    219.35702  0.022456698  0.022350689            6 
  815000   0.93004622   -7.3462215    219.25997   0.02241922  0.022332271           10 
  816000   0.92646176    -7.349752    218.87829  0.022352766  0.022313855            3 
  817000    0.9146836   -7.3630218    219.11702  0.022349757  0.022295371            3 
  818000   0.92032129   -7.3574095    219.12828  0.022323581  0.022276788           10 
  819000   0.91883944   -7.3639098    219.37357  0.022321283  0.022258469            5 
  820000   0.92485089     -7.36312    219.07588  0.022263809  0.022240058           10 
  821000   0.92470656   -7.3398446    219.42514  0.022272142  0.022221647            4 
  822000   0.91567007   -7.3436327    219.46425  0.022249011  0.022203071            9 
  823000   0.92841411    -7.350857    219.56711  0.022232393   0.02218493            6 
  824000   0.91854957   -7.3450125    219.48044  0.022196646  0.022166733           14 
  825000   0.93233376   -7.3780869    219.83394  0.022205449  0.022148341            9 
  826000   0.94294289   -7.3065784     220.5552  0.022251332  0.022130205            4 
  827000   0.90458614   -7.3310449     220.0915    0.0221777  0.022111913            7 
  828000    0.9064749   -7.3671582    219.22415  0.022063622  0.022093434            6 
  829000   0.92643868   -7.3638214    220.02781  0.022117794   0.02207499            7 
  830000   0.89897089   -7.3404878    220.69157  0.022157788  0.022056631            3 
  831000   0.92544657   -7.3292567    220.64867  0.022126822  0.022038316           19 
  832000   0.91714478    -7.356735    220.34343  0.022069654   0.02201984            5 
  833000   0.93591361   -7.3964881    219.88396  0.021997195  0.022001086            7 
  834000   0.93632109   -7.3817794    220.05967  0.021988376  0.021982323            7 
  835000     0.914657   -7.4254716    220.39661   0.02199567  0.021963699            5 
  836000   0.93409749   -7.3440825    220.24639  0.021954385  0.021945095            7 
  837000   0.92221398   -7.3308988    220.92933   0.02199615  0.021926709            6 
  838000   0.91352215   -7.3569083    221.36973  0.022013696  0.021908647            7 
  839000   0.91987321   -7.3780751    220.66159  0.021917122  0.021890447            4 
  840000   0.94464835   -7.3489406     221.2813   0.02195251  0.021872145            6 
  841000   0.90699554   -7.3609756    221.59706  0.021957695  0.021853865            7 
  842000   0.92770279   -7.3508266    222.42956   0.02201401  0.021835711            8 
  843000   0.93093419   -7.3498266    221.92591  0.021938109  0.021817605            6 
  844000   0.92896946    -7.407604    221.17482  0.021837956  0.021799563            5 
  845000   0.90579369   -7.3342817    222.44093  0.021936975  0.021781469            4 
  846000   0.91713083   -7.3870187    221.54067  0.021822367  0.021763174            9 
  847000   0.91838031   -7.3906247    221.85842  0.021827865  0.021744777           10 
  848000   0.90238597   -7.3658855     221.8589  0.021802172  0.021726455            2 
  849000   0.92333773   -7.3590871    221.66078  0.021757046  0.021708241            5 
  850000   0.91260673   -7.3852773    222.28043  0.021792199  0.021689959            6 
  851000   0.91112216   -7.4499916    221.80081  0.021719625  0.021671549            9 
  852000   0.89769892   -7.3974308     221.9328  0.021707042  0.021653134           13 
  853000    0.9039956   -7.3656937    222.07965  0.021695941  0.021634915            8 
  854000    0.9048942   -7.3728951    222.72649  0.021733655   0.02161679            6 
  855000   0.91170818   -7.3983572    222.34087   0.02167065  0.021598596            6 
  856000   0.90821009   -7.4061812    222.32493  0.021643782  0.021580223            7 
  857000   0.90118249   -7.4253826    222.33088  0.021619106  0.021561891            7 
  858000   0.90322727   -7.4130244    221.94275  0.021556211   0.02154361            7 
  859000   0.91637289   -7.3919976     222.4451   0.02157985  0.021525448            8 
  860000   0.90953904    -7.426696    221.86766  0.021498804  0.021507143            6 
  861000   0.92232222   -7.4022957    222.99509  0.021582955   0.02148896            4 
  862000   0.89440889   -7.3538696    223.06282  0.021564464  0.021471024            6 
  863000   0.89429159   -7.3523727    223.35791  0.021567971  0.021452801           13 
  864000   0.92281368   -7.4257773    222.83284  0.021492365  0.021434344           10 
  865000   0.90954113   -7.4016742    222.86913  0.021471014  0.021415937            7 
  866000   0.90572857   -7.3791303    222.94304  0.021453334  0.021397538            7 
  867000   0.91874156   -7.4144289    222.83461  0.021418167   0.02137912            6 
  868000   0.90453391   -7.4095027    222.72338  0.021382813   0.02136074            7 
  869000   0.90795181    -7.411643    223.02154  0.021386799  0.021342281            4 
  870000   0.90665856   -7.4002875     223.0298  0.021363008  0.021323772           10 
  871000   0.91506455     -7.40212     223.2266   0.02135731  0.021305384            4 
  872000   0.91062527   -7.4431776    222.76995  0.021289177  0.021286765            3 
  873000   0.90843481   -7.4082867     222.8405  0.021271525  0.021268166            3 
  874000   0.91340335   -7.3761599    223.26553  0.021287712  0.021249551           11 
  875000   0.91020581   -7.3808118     223.3796  0.021274247  0.021230925            4 
  876000   0.90768089    -7.390083    223.11258   0.02122456  0.021212317            9 
  877000   0.90611196   -7.4037814    223.54527  0.021241474  0.021193742            6 
  878000   0.91097046   -7.4042082    223.80138  0.021241589  0.021175278           12 
  879000   0.90747932   -7.3797045    224.10534   0.02124624  0.021156827            7 
  880000   0.89295974   -7.4010608    223.56102  0.021170551  0.021138404            5 
  881000   0.92246624   -7.4065626    223.94053  0.021182419  0.021119913            5 
  882000   0.89079081   -7.4052036    224.43668   0.02120528  0.021101443            9 
  883000   0.92187528   -7.4775517     223.9621  0.021136476  0.021082981            8 
  884000   0.89048503   -7.4231448     223.6283  0.021081099   0.02106441            7 
  885000   0.90573143   -7.4244495    224.12816  0.021104346  0.021045898            5 
  886000   0.89992283   -7.4388712    223.23488  0.020996509  0.021027469            6 
  887000   0.91778789   -7.4481933    223.91725  0.021036946  0.021009069            7 
  888000   0.89370961   -7.4028704    224.59275  0.021076647  0.020990805            6 
  889000   0.89369361   -7.3918639    225.11936  0.021102302  0.020972588            6 
  890000   0.89826542   -7.4351846    224.35778  0.021007283  0.020954401            7 
  891000   0.87712695     -7.41337    224.72548  0.021018096   0.02093619            6 
  892000   0.89080345   -7.4292354    224.47507  0.020971139  0.020917885            9 
  893000   0.88494893   -7.4238862    225.31133  0.021025694  0.020899698           22 
  894000   0.87982228   -7.4204707    225.21994  0.020993656  0.020881582           12 
  895000   0.88511007   -7.4534263     225.1062  0.020959609  0.020863359            6 
  896000   0.89492669   -7.4808049    224.89308  0.020916395  0.020845199            6 
  897000   0.88808744   -7.4761614    225.02805  0.020905616  0.020826863            8 
  898000   0.90509255   -7.4707952    224.96644  0.020876619  0.020808456            8 
  899000   0.89481292    -7.457854    225.29314   0.02088368  0.020790109           11 
  900000   0.88728762   -7.4799476    225.08835  0.020841514   0.02077184            7 
  901000   0.87672017   -7.4987989    225.24227  0.020832618  0.020753578            5 
  902000   0.92365776   -7.4481309    225.45614  0.020829282  0.020735293           10 
  903000   0.89609885   -7.4984376    225.49437  0.020809742  0.020716961           10 
  904000   0.87605178   -7.4644732    225.35647  0.020774011  0.020698552           10 
  905000   0.90339519   -7.4403281    225.79001  0.020790977  0.020680227            7 
  906000   0.89515028   -7.4572848    226.28773  0.020813809  0.020661906            9 
  907000   0.88670178   -7.4430447    225.64505  0.020731813   0.02064372           19 
  908000   0.88820645   -7.4498687    225.31636  0.020678814  0.020625595            3 
  909000   0.89000687   -7.4263207    225.66697  0.020688207  0.020607397            5 
  910000   0.89319521   -7.4487753    225.75461  0.020673499  0.020589422            4 
  911000   0.88748778   -7.4724107    226.07209  0.020679847  0.020571289            9 
  912000   0.87582619   -7.5056276    225.51326  0.020606109  0.020553229            9 
  913000   0.88304796   -7.4814848    225.83669   0.02061306  0.020535095            6 
  914000   0.89349142   -7.4540027    226.11618   0.02061599  0.020516836            5 
  915000   0.90245634    -7.494618    226.08549  0.020590664  0.020498466            8 
  916000    0.8941026     -7.47981     226.3112  0.020588719  0.020480106            4 
  917000    0.8872898   -7.4770191    226.04565  0.020542135  0.020461914            5 
  918000   0.87224064   -7.4686611     226.4295  0.020554602  0.020443841            5 
  919000    0.9130003   -7.4593681     226.7183  0.020558424  0.020425731            7 
  920000   0.88585649   -7.4724609    225.98891   0.02047001  0.020407632            7 
  921000   0.88609183   -7.4339925    226.74713  0.020516389  0.020389632            5 
  922000   0.91238305   -7.4525261     226.6305  0.020483596  0.020371598            4 
  923000   0.88154225   -7.4915041    226.94869  0.020490131  0.020353651            5 
  924000   0.87680905    -7.483966     227.4035  0.020508974  0.020335641           16 
  925000   0.88137496     -7.48639    227.35978  0.020482863  0.020317453            6 
  926000   0.87873522   -7.4763923    226.96139  0.020424891  0.020299252           18 
  927000   0.88271817   -7.4754909    227.21841  0.020425963  0.020281112           10 
  928000    0.9147276   -7.5128913    226.88954   0.02037442  0.020263021            8 
  929000   0.86738268   -7.5076124    226.97322  0.020359995  0.020244909            4 
  930000   0.88837037    -7.516218    226.86863  0.020328731  0.020226686           11 
  931000   0.89713715   -7.4781503    227.11497  0.020328944   0.02020857           24 
  932000   0.87017233    -7.518888    226.85807  0.020284162  0.020190445           16 
  933000   0.89316477   -7.4730333    227.14245  0.020287821  0.020172442            5 
  934000   0.87447378   -7.4775918    227.30706  0.020280787  0.020154612            8 
  935000   0.88803101   -7.4775219    227.56166  0.020281788  0.020136788            7 
  936000   0.87039493    -7.477856     227.9751  0.020296928  0.020119123            7 
  937000   0.87011273   -7.4786521    228.00783  0.020278178  0.020101393            7 
  938000   0.88730653   -7.4879633    227.98387   0.02025443  0.020083593            6 
  939000   0.85921214   -7.5349277    227.95697  0.020230473  0.020065776            4 
  940000   0.89888877   -7.4849575     227.6445   0.02018125  0.020047795            4 
  941000    0.8746668   -7.5025686    227.67837  0.020162803  0.020029925            8 
  942000   0.88200856   -7.5073468    228.18535  0.020186249  0.020012089            6 
  943000    0.8957177    -7.546097    227.47749  0.020102288  0.019994223           16 
  944000   0.88335752   -7.5158298    228.14158  0.020139617    0.0199763           12 
  945000   0.86737753   -7.5321746    228.19515  0.020123029  0.019958256           22 
  946000   0.87691835   -7.5212313    227.78414  0.020065551  0.019940202           12 
  947000   0.86722181   -7.5134199    227.87412  0.020052281  0.019922217           16 
  948000   0.86804057   -7.4905963    227.80827   0.02002534  0.019904363            4 
  949000   0.89402262    -7.514465    227.79867  0.020003396  0.019886517           14 
  950000   0.85614997   -7.5073245    227.96607  0.019997024  0.019868637            9 
  951000   0.88576453   -7.4998022    228.33097  0.020007971   0.01985081           15 
  952000   0.87117951   -7.5207849     228.4411  0.019996595  0.019833146            9 
  953000   0.87763068   -7.5248479    228.52655  0.019983084  0.019815284            6 
  954000   0.87844535   -7.5170617    228.59402  0.019968031   0.01979754           10 
  955000   0.88241092   -7.5316365    229.25965  0.020005205   0.01978003            5 
  956000   0.86989953   -7.4967403    228.84731  0.019948336  0.019762445            7 
  957000   0.86523437   -7.5296112    228.68735  0.019913562  0.019744725            7 
  958000   0.85145806   -7.5735984    228.48248  0.019874955  0.019727059            5 
  959000   0.88277458    -7.528405    229.01593  0.019900585  0.019709348            5 
  960000   0.86326065   -7.5220447    229.57374  0.019928276  0.019691753           13 
  961000   0.87567533   -7.5510488     228.7431   0.01983551  0.019674177            8 
  962000   0.86834009   -7.5284534    229.01138   0.01983813  0.019656435            6 
  963000   0.87164991   -7.5295065    228.81643   0.01980066  0.019638769           10 
  964000   0.85195295    -7.536912    229.10755  0.019805286   0.01962107           11 
  965000   0.85373967   -7.5406756    229.07269  0.019781752  0.019603386            6 
  966000   0.87700758   -7.5413466    228.67552  0.019727011  0.019585701            8 
  967000   0.85906359    -7.548111    229.27507  0.019758279  0.019567915            5 
  968000   0.87279862   -7.5264518    229.38791  0.019747582  0.019550222           11 
  969000   0.84652643   -7.5438162    229.12166  0.019704305   0.01953263            5 
  970000   0.85671363   -7.5152772      229.913  0.019751976  0.019514955            5 
  971000   0.88599905   -7.5332398    229.94001  0.019733952  0.019497447           10 
  972000   0.86621639   -7.5302756    229.27823  0.019656913  0.019479878           14 
  973000   0.84307459   -7.5434146    229.80035  0.019681428   0.01946242           11 
  974000   0.86740197   -7.5420505     229.6042  0.019644438  0.019444969            8 
  975000   0.86777939   -7.5726318    229.22154  0.019591585  0.019427472           13 
  976000    0.8840319   -7.5478304    229.19832  0.019569529  0.019409907           13 
  977000   0.85524009   -7.5390908    229.54837  0.019579356  0.019392409           16 
  978000   0.85151493   -7.5470839    229.21894  0.019531266  0.019374846            6 
  979000   0.86126078   -7.5650159    229.33697  0.019521363   0.01935707           10 
  980000    0.8836731   -7.5568344    229.34136  0.019501816  0.019339274           23 
  981000   0.87491552   -7.5602965    229.39779   0.01948673   0.01932161           20 
  982000   0.85786086   -7.5539589    229.22518  0.019452239   0.01930383           14 
  983000   0.88447061   -7.5132708    229.12844  0.019424249   0.01928605           12 
  984000    0.8682083   -7.5713842    229.65244  0.019448885  0.019268271            6 
  985000   0.86431139    -7.543277     229.5003  0.019416269  0.019250433            7 
  986000   0.83612175   -7.5258878    229.85534  0.019426584  0.019232595            8 
  987000    0.8440654    -7.562198    229.01311  0.019335791  0.019214774            4 
  988000   0.86398745   -7.5637099    229.89364  0.019390489  0.019196886            9 
  989000   0.86687148   -7.5779537    230.15623  0.019393009   0.01917903            9 
  990000   0.85458461   -7.5623426    229.74756   0.01933902  0.019161292           10 
  991000   0.85119249   -7.5683898    229.69003  0.019314668  0.019143472            6 
  992000   0.86563407    -7.571617    229.46343  0.019276161  0.019125674            5 
  993000   0.84795006   -7.5747887    229.27271  0.019240744   0.01910785            9 
  994000   0.87114676   -7.5694164    229.48254  0.019238978  0.019090135            4 
  995000   0.85395438   -7.5762971    229.51873  0.019222674  0.019072321           12 
  996000   0.85076411   -7.5929185    229.99164  0.019242942  0.019054635            9 
  997000   0.85800073   -7.5532411    230.01773  0.019225821  0.019036967           10 
  998000   0.86481939   -7.5499848    230.32277  0.019232028  0.019019456           14 
  999000    0.8702519   -7.5706534    230.04881  0.019189924  0.019001934            8 
 1000000   0.83938391   -7.5693411    229.99916  0.019166597  0.018984452           13 
 1001000   0.86192677   -7.5774134    230.30083  0.019172564  0.018966893            6 
 1002000   0.86536475   -7.5772992    230.13287   0.01913946  0.018949307           10 
 1003000    0.8454355   -7.5655962     230.0666  0.019114872  0.018931637            6 
 1004000   0.86675008   -7.5522514     229.8608  0.019078751  0.018914038            6 
 1005000   0.83810925   -7.5940268    230.12726  0.019081863  0.018896356            9 
 1006000   0.84741245   -7.5847178    229.97008  0.019049874  0.018878676           14 
 1007000   0.84114331   -7.5682672    230.66192  0.019088209  0.018861025           13 
 1008000   0.86871869    -7.566303     231.3548  0.019126554  0.018843508           10 
 1009000   0.85692762     -7.57247    229.94723  0.018991347  0.018825842            8 
 1010000   0.85968477   -7.5690064    230.52223  0.019019986  0.018808161           10 
 1011000   0.84422998   -7.5963428    229.31455  0.018901628  0.018790549           11 
 1012000   0.83075297   -7.5813518    230.46032  0.018977299  0.018772881            9 
 1013000   0.84441781   -7.5997015    230.45955  0.018958502  0.018755317           19 
 1014000   0.86306203   -7.6109555    229.62331  0.018871081  0.018737729           11 
 1015000   0.85124786   -7.6356876    230.19799  0.018899671  0.018720201           10 
 1016000    0.8591227    -7.613833    230.50625  0.018906353  0.018702618           18 
 1017000   0.84862945   -7.5995628     230.7568  0.018908292  0.018685058           15 
 1018000   0.85496668   -7.6239628    230.96663  0.018906895  0.018667606            7 
 1019000   0.85754548   -7.6154392    231.30197  0.018915764  0.018650236            5 
 1020000   0.85259134   -7.6309579    230.61415  0.018841025  0.018632914            8 
 1021000   0.84605549    -7.614584    230.89169  0.018845224  0.018615505           10 
 1022000   0.85309912   -7.6406028    230.73229  0.018813787  0.018598262            6 
 1023000   0.84222461   -7.6125782    231.20044  0.018833532  0.018580986            6 
 1024000   0.85381799   -7.6423042    231.45134  0.018835558   0.01856368            8 
 1025000   0.86620556   -7.6255681    231.00127  0.018780591  0.018546446           17 
 1026000    0.8537796   -7.6085734     232.1177  0.018852964  0.018529312            6 
 1027000   0.86896409    -7.633135    231.68628  0.018799601  0.018512288           10 
 1028000   0.84998714   -7.6457491    231.15233   0.01873803  0.018495175           16 
 1029000   0.85282901   -7.6223947    231.63414  0.018758838  0.018477993           10 
 1030000   0.82970107   -7.6053842    231.41618  0.018722992  0.018460732           15 
 1031000   0.85422989   -7.6108731    231.79441  0.018735403  0.018443613           15 
 1032000   0.83426872   -7.6481991    231.13127  0.018663701  0.018426472           32 
 1033000   0.83359846   -7.6324789    231.53436  0.018678151  0.018409276           21 
 1034000   0.85259175   -7.5962892    231.16205  0.018630082  0.018392139           15 
 1035000   0.83499742   -7.6375204    231.64465  0.018650938  0.018374984           15 
 1036000   0.83526278   -7.6030032     232.0571  0.018666112  0.018357922           18 
 1037000   0.84431238   -7.6178898    231.61774  0.018612805  0.018340981           24 
 1038000   0.84061181   -7.6344087    232.01032  0.018626391  0.018323867           12 
 1039000    0.8382556    -7.625259    231.28686  0.018550438  0.018306774            8 
 1040000   0.85520362   -7.6756742     231.8142  0.018574856  0.018289666           16 
 1041000    0.8307273   -7.6584037    231.43025  0.018526277  0.018272588            9 
 1042000   0.84083134   -7.6367239    231.90661  0.018546594  0.018255487            7 
 1043000   0.85185614   -7.6553854    231.06404  0.018461492  0.018238303            9 
 1044000   0.83747908   -7.6615109    231.05779  0.018443311  0.018221171            7 
 1045000   0.82973717   -7.6253712    232.62685  0.018550786    0.0182042            6 
 1046000   0.83129192   -7.6268896    232.24896  0.018502945  0.018187341           11 
 1047000   0.82241633   -7.5934716    232.39386  0.018496805   0.01817041            4 
 1048000   0.82938134   -7.6116334    232.35868  0.018476358  0.018153498           17 
 1049000    0.8375214   -7.6581917    231.69935  0.018406367  0.018136585           17 
 1050000   0.82785428   -7.6135934    232.67064  0.018465924  0.018119706           11 
 1051000   0.84398799   -7.6371942    232.33323  0.018421601  0.018102791           19 
 1052000   0.81851679   -7.6497064    232.39474  0.018408962  0.018085817            6 
 1053000   0.83197815   -7.6155166    232.15816  0.018372757  0.018068901           11 
 1054000   0.83207642   -7.6373175    232.00058  0.018342867  0.018052087            9 
 1055000   0.85149534   -7.6261415    232.32854  0.018351385  0.018035155            6 
 1056000   0.82770679   -7.6282687    232.55702  0.018352038   0.01801826           11 
 1057000   0.84887803   -7.6345609    232.47504  0.018328212  0.018001357           24 
 1058000   0.81268625   -7.6651964    232.52034  0.018314456  0.017984509           12 
 1059000   0.83854773   -7.6671387     231.6125  0.018225724  0.017967633           14 
 1060000   0.83317289   -7.6679628    232.33638  0.018265439  0.017950682           13 
 1061000   0.83107041   -7.6367276    232.39661  0.018252954  0.017933881           12 
 1062000   0.82974371   -7.6411815    232.76812  0.018264918  0.017917054           16 
 1063000   0.83631613   -7.6480161    232.80576  0.018250686  0.017900306            8 
 1064000   0.84052613   -7.6233922    232.54732  0.018213293  0.017883596           21 
 1065000    0.8167987   -7.6601433    232.49289  0.018191932  0.017866873            8 
 1066000    0.8381426     -7.63526    232.44121  0.018170826  0.017850129            6 
 1067000   0.83821424   -7.6234021    232.95718  0.018194094  0.017833451            9 
 1068000   0.82450305   -7.6552963    233.00096  0.018180474  0.017816791           21 
 1069000   0.83219828   -7.7033268    232.23194  0.018103519   0.01780011            6 
 1070000   0.83533422    -7.671083    232.70545  0.018123477  0.017783429            9 
 1071000   0.82496916   -7.7225873    232.91105  0.018122553  0.017766741           10 
 1072000   0.81461594   -7.6852601    232.04748  0.018038517  0.017749963           10 
 1073000   0.84586143   -7.6878826    231.84918  0.018006305  0.017733191            9 
 1074000    0.8354334   -7.6585781    232.72801  0.018057729  0.017716566            7 
 1075000   0.81114359   -7.6628232    232.81302  0.018047521  0.017699852           36 
 1076000   0.82925331   -7.6692275    232.86134  0.018034491  0.017683254            7 
 1077000   0.82682865   -7.6790833    232.72835  0.018007455  0.017666591           10 
 1078000   0.81940199     -7.66951    233.16364    0.0180244  0.017649996           11 
 1079000   0.83414937    -7.692947    232.95101  0.017991273  0.017633464           16 
 1080000   0.83078362   -7.6765406    232.68424  0.017954031  0.017616788           11 
 1081000   0.81196824   -7.7069562    232.97432  0.017959784  0.017600146            7 
 1082000   0.81367325   -7.6978388    232.83751  0.017932649  0.017583588            8 
 1083000   0.82060097    -7.735941    232.66916  0.017903137  0.017567018            9 
 1084000   0.80201749   -7.7128297    232.19558  0.017850214  0.017550369            8 
 1085000   0.82565992   -7.7117219    232.57835   0.01786316  0.017533737           10 
 1086000   0.82651372   -7.6833581    233.20045  0.017894448  0.017517166           17 
 1087000   0.82599319   -7.6890972    232.69113   0.01783894   0.01750061            6 
 1088000   0.82288648   -7.7073676    232.87439   0.01783658  0.017484093           14 
 1089000   0.85610047   -7.6951183    232.94054  0.017825263  0.017467615            7 
 1090000   0.80990936   -7.6996485    233.12812  0.017823251  0.017451092           10 
 1091000   0.81659465   -7.7233679    232.45252   0.01775531  0.017434553           11 
 1092000   0.81031739   -7.7274695    232.83066  0.017767908  0.017417915           14 
 1093000   0.82076383   -7.7206684    233.18613  0.017778753  0.017401301           27 
 1094000   0.82888724    -7.716577    233.32344  0.017772961  0.017384803           16 
 1095000   0.81461064   -7.7180635    232.86266  0.017721664  0.017368368           25 
 1096000   0.81029179   -7.6879275    233.28261  0.017737424  0.017351922           25 
 1097000   0.80970665   -7.7094727    233.54555   0.01774123  0.017335618           11 
 1098000   0.81619888   -7.7026577    233.57989  0.017727679  0.017319356           11 
 1099000   0.82070429   -7.6945074    234.08302  0.017749698  0.017303168           11 
 1100000   0.81525472   -7.6974046    233.82222  0.017713804  0.017286917            8 
 1101000   0.81043571   -7.6930894    233.75577  0.017692686  0.017270612           14 
 1102000   0.80302143   -7.7118875    233.80256  0.017680169  0.017254374           11 
 1103000   0.80093256   -7.6919994    233.69743  0.017656197  0.017238135           12 
 1104000   0.80791013   -7.6941074    233.57348  0.017630848  0.017221879           13 
 1105000   0.82611579   -7.6936446    233.85377  0.017636031  0.017205639           26 
 1106000   0.80954763   -7.7338367    233.91613  0.017624784  0.017189435           24 
 1107000   0.81900394   -7.7170691    233.40971   0.01757074  0.017173175           20 
 1108000   0.81100979   -7.7520868    233.93203  0.017594166  0.017156923           28 
 1109000   0.81267262   -7.6992005    234.25048   0.01760223  0.017140785           14 
 1110000   0.79821247   -7.7027356     233.8681  0.017557665  0.017124754           12 
 1111000   0.80822403   -7.6833399    234.29815  0.017574119  0.017108778            6 
 1112000   0.82550254   -7.7163848    233.73944  0.017516445  0.017092788            9 
 1113000   0.81932309   -7.7491112    233.42217  0.017476952  0.017076733            6 
 1114000   0.81144535   -7.7272859     233.8019   0.01748967  0.017060658           11 
 1115000   0.81680844   -7.7271069    234.32535  0.017513105  0.017044589           28 
 1116000   0.81284289    -7.737111    233.86592  0.017463106  0.017028507           18 
 1117000   0.81949678   -7.7331475    234.48701  0.017493809  0.017012443            7 
 1118000    0.8104719   -7.7213816    233.70959  0.017420214   0.01699642           11 
 1119000   0.79658831   -7.7620071    233.73106  0.017406245  0.016980407           10 
 1120000   0.81186029   -7.7407246     234.3181  0.017434382  0.016964385           13 
 1121000   0.79630403   -7.7532865    233.96828  0.017392825   0.01694836           19 
 1122000    0.8214766   -7.7343134    234.25236  0.017398422  0.016932341           19 
 1123000   0.80745619   -7.7235605    234.40915  0.017394564  0.016916337           14 
 1124000   0.79550113   -7.7614288    233.80581  0.017334357  0.016900361           20 
 1125000   0.81813272   -7.7338081    234.49479  0.017369985  0.016884395           15 
 1126000   0.80371524   -7.7623097    233.89135  0.017309899  0.016868432            9 
 1127000   0.80233135   -7.7183074    234.11198  0.017310854  0.016852531            8 
 1128000    0.8124556   -7.7399772    234.44134  0.017319839  0.016836573           13 
 1129000   0.82410378   -7.7379197    234.30613  0.017294518  0.016820601            8 
 1130000   0.81533403   -7.7248662    234.35622  0.017282907  0.016804643           13 
 1131000   0.81674824   -7.7677331    233.97149  0.017239279   0.01678868            7 
 1132000   0.80684885   -7.7329123    234.59942  0.017270275    0.0167727           18 
 1133000    0.7931345   -7.7619202     234.4795  0.017246212  0.016756778           19 
 1134000   0.81822044   -7.7593189    234.40636  0.017225629  0.016740898           13 
 1135000   0.78840945   -7.7641221    234.12667  0.017189917  0.016724989           12 
 1136000   0.80210449   -7.7296731    234.19975  0.017180146  0.016709134           29 
 1137000    0.8046483   -7.7587041    234.56871  0.017192078  0.016693253           19 
 1138000   0.79135072   -7.7544419    234.06091  0.017139785  0.016677437           22 
 1139000   0.79241617   -7.7820538    234.50864  0.017157495  0.016661623           15 
 1140000   0.78825906   -7.7831585    233.94238  0.017101052  0.016645815           30 
 1141000   0.81102339   -7.7520406    234.92032  0.017157488   0.01663001           23 
 1142000   0.79918483   -7.7941906    233.93691  0.017070703  0.016614226           47 
 1143000   0.79404867   -7.7944886    234.30444  0.017082563  0.016598397           40 
 1144000   0.79718772   -7.7792535    234.11694  0.017053973  0.016582637           24 
 1145000   0.77956404   -7.8093871    234.25803  0.017049347  0.016566849           33 
 1146000   0.80763535   -7.7931883    234.52999  0.017054246  0.016551065           39 
 1147000   0.80135896   -7.7817864    234.65245  0.017048274  0.016535342           51 
 1148000   0.79721629   -7.8000151    234.14858  0.016996848  0.016519676           24 
 1149000   0.79568532   -7.7924777    234.32589  0.016994915  0.016503971           21 
 1150000   0.79098435    -7.786217    234.44371  0.016988674  0.016488226           47 
 1151000   0.80467445   -7.8242164    234.07573  0.016947273  0.016472492           13 
 1152000   0.79053312   -7.7728767     234.8002  0.016984968  0.016456782            6 
 1153000   0.78761932    -7.784823    234.54876  0.016952064   0.01644111           12 
 1154000   0.78836611   -7.7743572    234.62751  0.016943061  0.016425544            8 
 1155000   0.77700516   -7.7509465    235.09777  0.016962321   0.01641007           12 
 1156000   0.79904599   -7.7659627     234.6968  0.016918743  0.016394658           39 
 1157000   0.80290075   -7.7419869    235.40507  0.016955133  0.016379246           20 
 1158000   0.79130897   -7.7307268    234.84684   0.01690032  0.016363784           30 
 1159000    0.7999463   -7.7894959    234.88554   0.01688852  0.016348302           38 
 1160000   0.79547644   -7.7750469    234.40665  0.016839558  0.016332788           10 
 1161000   0.77877283   -7.7706294    234.90432  0.016860775  0.016317297           23 
 1162000    0.7980003   -7.7980283    234.73383  0.016834038  0.016301729           11 
 1163000   0.78018492   -7.7878346    235.25174  0.016856674  0.016286231           29 
 1164000   0.78756491   -7.7871811    234.44519  0.016784449   0.01627071           22 
 1165000    0.7998512   -7.7928487      234.603   0.01678133  0.016255208           17 
 1166000   0.79963995   -7.7882023    235.01832  0.016796621  0.016239724           26 
 1167000   0.78012817   -7.7722142    234.85296   0.01677042  0.016224219           11 
 1168000    0.7922482   -7.8119756    234.59953   0.01673798   0.01620874           44 
 1169000   0.79102259   -7.7819435    235.29826  0.016773472  0.016193307           32 
 1170000   0.79125226   -7.8079238    234.48016  0.016700866  0.016177916           81 
 1171000   0.78470352   -7.8010756     235.0104  0.016724338  0.016162528           62 
 1172000   0.78118677   -7.7943896    234.98195  0.016708045  0.016147109           68 
 1173000   0.77337747   -7.8203428    234.31355  0.016646316   0.01613161           37 
 1174000   0.77879252   -7.8130928    235.16153  0.016692329  0.016116112           25 
 1175000   0.77915219    -7.813081    234.62041  0.016639745  0.016100645           50 
 1176000   0.78148025   -7.8329332    234.48394  0.016615925   0.01608514           48 
 1177000   0.78600259   -7.8109343     234.5549  0.016606832  0.016069682           48 
 1178000   0.78363168   -7.8143549    235.25684  0.016642391  0.016054256           83 
 1179000   0.78231803   -7.8352659    234.34488  0.016563816  0.016038848           85 
 1180000    0.7803648   -7.8688921    234.27786  0.016545047  0.016023504           77 
 1181000   0.77666444   -7.8680874    234.56497  0.016551296  0.016008124           76 
 1182000   0.77593638   -7.8395194    235.16362  0.016579499  0.015992737           61 
 1183000   0.77248633   -7.8226597    235.05902  0.016558117  0.015977409           52 
 1184000   0.79112864   -7.8711527    234.49635  0.016504529    0.0159621           47 
 1185000   0.78788115    -7.861713    234.58401  0.016496766  0.015946757           51 
 1186000   0.78596317   -7.8391557    234.94971  0.016508552  0.015931417           58 
 1187000   0.78477337   -7.8532931    233.96183   0.01642529   0.01591604           67 
 1188000   0.79136841   -7.8247908     235.1788   0.01649683  0.015900815           42 
 1189000   0.76882075   -7.8498601    235.03263   0.01647271  0.015885681           62 
 1190000   0.79413531   -7.8323986      235.277   0.01647598   0.01587045           92 
 1191000    0.7976582   -7.8133571    235.14802  0.016453122  0.015855197           53 
 1192000   0.78292719   -7.8288609    234.61019  0.016401719  0.015839914           72 
 1193000   0.77482887   -7.8423241    234.32973   0.01636838  0.015824644           62 
 1194000   0.77833677   -7.8744645    234.39494  0.016359222  0.015809257           42 
 1195000   0.77074091   -7.8711115     234.3566  0.016342859  0.015793869           62 
 1196000    0.7725672   -7.8190079    235.25583   0.01639185  0.015778552           79 
 1197000   0.76613347   -7.8376367    235.36576  0.016385809  0.015763309           72 
 1198000   0.77563531   -7.8443626    234.90187  0.016339863  0.015748037           87 
 1199000    0.7690241   -7.8352839    234.47268  0.016296405  0.015732822           84 
 1200000   0.78044897   -7.8644102    234.90801  0.016313056  0.015717552           92 
 1201000   0.77689534   -7.8369111    234.50185  0.016271292  0.015702324           67 
 1202000   0.76622313   -7.8812884    234.75263  0.016275141  0.015687117           81 
 1203000   0.77662688   -7.8824247    234.58757  0.016250178  0.015671883           91 
 1204000   0.78517039   -7.8959489    234.55557  0.016234466   0.01565666          132 
 1205000    0.7668115   -7.8750924    234.60311  0.016224282  0.015641493           99 
 1206000   0.78768165   -7.8800708    234.58123  0.016209316  0.015626321          107 
 1207000   0.76666199    -7.898292    234.11592  0.016163762   0.01561116          120 
 1208000   0.77647872   -7.8584582    235.69848  0.016259553  0.015596003          119 
 1209000   0.76480032   -7.8818301    234.83197  0.016186378  0.015580883          117 
 1210000     0.779223   -7.8622374    234.88612   0.01617673  0.015565749           81 
 1211000   0.76557719   -7.8653542    234.93536   0.01616676   0.01555062          147 
 1212000   0.75347664    -7.907662    234.59277  0.016129866  0.015535509           91 
 1213000   0.78675522   -7.8728535    234.88983  0.016136977  0.015520433          144 
 1214000   0.75367272   -7.8709454    234.98317  0.016130091  0.015505406           87 
 1215000   0.77629158   -7.8820867    234.46688  0.016081405  0.015490354           79 
 1216000   0.76449512   -7.8674518    234.57653  0.016075694   0.01547532           80 
 1217000   0.78352724   -7.8833825    234.82849  0.016079738  0.015460275           79 
 1218000   0.77238936   -7.8917947     234.4156  0.016038287  0.015445249          105 
 1219000   0.75904573   -7.8679438    235.19633  0.016078502  0.015430216          120 
 1220000    0.7604228   -7.8780205     234.2285  0.015999215  0.015415261          111 
 1221000    0.7651792   -7.8540626    235.83095  0.016095479  0.015400381          116 
 1222000   0.75999883   -7.9095821     234.3531  0.015981526  0.015385455          109 
 1223000   0.75615838   -7.8755613    235.13016  0.016021407  0.015370536          208 
 1224000   0.75149707   -7.8696018    235.12822  0.016008185  0.015355601          103 
 1225000   0.76187125   -7.8751947    234.79506  0.015972453  0.015340689          112 
 1226000   0.77541206   -7.9085735    234.60642  0.015946602  0.015325796          122 
 1227000   0.78109565   -7.8942434    235.21802  0.015975144  0.015310891          102 
 1228000    0.7633291   -7.8633019    234.72807  0.015928886  0.015295942          128 
 1229000   0.75352702   -7.8803286    234.72901  0.015915989  0.015281029           99 
 1230000   0.75225945   -7.8902262    234.73623  0.015903539  0.015266122          113 
 1231000   0.76849988    -7.908887    234.98903  0.015907733  0.015251241          131 
 1232000   0.74850591    -7.875395    235.07017  0.015900309  0.015236374          127 
 1233000     0.758199   -7.9089955    234.71612  0.015863485  0.015221488          142 
 1234000   0.76624342   -7.8845083    234.46736   0.01583383  0.015206633          133 
 1235000   0.75480759   -7.8989793    234.12538  0.015797934  0.015191685          138 
 1236000   0.76347214    -7.920592    234.51842  0.015811652  0.015176785          138 
 1237000   0.77198054   -7.9269363    234.16926  0.015775347  0.015161855          184 
 1238000   0.76080758    -7.942057    233.81972  0.015739077  0.015146929          161 
 1239000   0.75990108   -7.9254419    234.62023  0.015780215  0.015132047          146 
 1240000   0.75711364   -7.9339356    234.86456  0.015783908  0.015117156          153 
 1241000   0.74724298   -7.9532263    233.95382  0.015710034  0.015102289          151 
 1242000   0.76970987   -7.9380892     234.2986  0.015720518  0.015087418          187 
 1243000   0.74855105   -7.9522997     234.3237  0.015709554   0.01507255          184 
 1244000   0.75324263   -7.9256462    234.30375  0.015695589  0.015057716          222 
 1245000   0.76216145   -7.9472719    233.83543  0.015651635  0.015042933          190 
 1246000   0.74394616   -7.9059891     235.3375  0.015739533  0.015028213          165 
 1247000   0.77469184   -7.9076661    234.73918  0.015686927   0.01501358          173 
 1248000   0.77578928   -7.9296514    235.02757  0.015693615  0.014998956          147 
 1249000   0.74858042   -7.8954118    234.98191  0.015678003  0.014984329          200 
 1250000   0.75120719   -7.9119882    234.14449  0.015609633  0.014969702          153 
 1251000   0.75168728   -7.9282867    234.79629  0.015640573  0.014955071          174 
 1252000    0.7434795   -7.9317981    234.92546  0.015636679  0.014940492          180 
 1253000   0.75154069   -7.9195851    234.50129  0.015595989  0.014925889          185 
 1254000   0.73152009   -7.9436855     234.3848   0.01557581  0.014911296          161 
 1255000   0.75938676   -7.9314706    234.23602  0.015553521  0.014896701          269 
 1256000   0.75499166   -7.9509004    234.39462   0.01555166  0.014882071          167 
 1257000   0.72393325   -7.9299198    234.46484  0.015543944  0.014867412          281 
 1258000    0.7645866   -7.9403411    234.11041  0.015508109  0.014852768          132 
 1259000   0.76388483   -7.9475002    234.27511  0.015506693  0.014838162          134 
 1260000   0.75894173   -7.9444289    234.00491  0.015476515  0.014823537          133 
 1261000   0.76352242    -7.921209    234.79877  0.015516704  0.014808997          153 
 1262000   0.74686673    -7.950184     234.3487  0.015474689  0.014794471          149 
 1263000   0.74793273    -7.932863    234.89893  0.015498742  0.014779898          135 
 1264000   0.76168463    -7.961609    233.94669    0.0154237  0.014765334          163 
 1265000   0.74301146   -7.9362132    234.88631  0.015473406  0.014750784          156 
 1266000   0.74741764   -7.9419595    234.54181  0.015438508  0.014736282          181 
 1267000   0.74159098   -7.9466853    234.03701  0.015393121  0.014721748          188 
 1268000   0.73597028    -7.962128    234.13808  0.015387624  0.014707217          197 
 1269000   0.75208856   -7.9679433    234.42349   0.01539424  0.014692678          195 
 1270000   0.74665125   -7.9578385    234.69217  0.015399748  0.014678115          260 
 1271000   0.74406815   -8.0153613    234.14265  0.015351603  0.014663623          211 
 1272000   0.75400304   -7.9641839    234.86641   0.01538695  0.014649189          352 
 1273000   0.76343668   -7.9825377    234.02625  0.015319865  0.014634739          243 
 1274000   0.73405945     -7.96595    234.01162  0.015306883  0.014620308          379 
 1275000   0.74103985   -7.9774191    234.68407  0.015338828   0.01460591          321 
 1276000   0.74810009   -7.9595711    234.69292  0.015327385  0.014591489          258 
 1277000   0.75853196   -8.0134482    234.01391  0.015271072  0.014577051          273 
 1278000   0.75728382   -7.9993933    234.13092  0.015266753  0.014562622          440 
 1279000   0.75084955   -7.9916157    234.16734   0.01525719    0.0145482          204 
 1280000   0.72878163   -7.9950866    234.12685  0.015242633  0.014533777          298 
 1281000   0.74026832   -7.9942236    233.82653  0.015211197  0.014519386          295 
 1282000   0.75241597   -7.9642658    234.55508   0.01524669   0.01450503          219 
 1283000   0.74562591   -8.0004389    234.48889  0.015230507  0.014490655          230 
 1284000   0.74202213   -7.9826689    234.23454  0.015202138  0.014476301          259 
 1285000   0.74951811   -7.9998252    233.89861  0.015168522  0.014461934          241 
 1286000   0.74695278   -7.9904811    233.86867  0.015154787  0.014447538          209 
 1287000   0.73674558   -8.0176623    233.91971  0.015146316  0.014433137          433 
 1288000   0.73880174   -8.0148623    233.96687  0.015137608  0.014418794          249 
 1289000   0.74108035    -8.000516    233.49486  0.015095349  0.014404451          260 
 1290000   0.73773996   -7.9993115    234.37852  0.015140731  0.014390133          270 
 1291000   0.72231037   -8.0175445    234.01045  0.015105244  0.014375855          316 
 1292000   0.73495652   -8.0260991    233.75301  0.015076948  0.014361564          277 
 1293000   0.73774568   -7.9882036    233.84745  0.015071375  0.014347278          301 
 1294000   0.72697632   -8.0144465    234.45299  0.015098724  0.014333061          263 
 1295000   0.73626559   -8.0436339    233.69169  0.015038075  0.014318772          300 
 1296000   0.73280922   -8.0181072    233.91626  0.015040912  0.014304487          404 
 1297000   0.73440225   -8.0146656    234.13379  0.015043292  0.014290241          312 
 1298000   0.72364059   -8.0240004    234.04414  0.015025946  0.014276007          371 
 1299000   0.74772206   -8.0273076    233.94466  0.015007997  0.014261746          336 
 1300000   0.73513632   -8.0507544     233.7083  0.014981301  0.014247518          330 
 1301000   0.71908022   -8.0451461    233.94484  0.014984937  0.014233277          285 
 1302000   0.74938851   -8.0182881    233.57237  0.014949589   0.01421906          234 
 1303000   0.74018446   -8.0063512    233.85584  0.014956245  0.014204915          400 
 1304000   0.73179003   -8.0261581    234.16959  0.014964825  0.014190766          236 
 1305000   0.73422109   -7.9949724    233.88713  0.014935321  0.014176622          242 
 1306000   0.72130572   -8.0125954    234.16881  0.014941859  0.014162533          274 
 1307000   0.73307219   -8.0260172    233.96978  0.014917736  0.014148424          208 
 1308000   0.71924241   -8.0210181    234.12069  0.014915946  0.014134346          394 
 1309000    0.7357316   -7.9982707    234.25476  0.014913086  0.014120246          280 
 1310000   0.72909081   -8.0406739    233.88974  0.014878482  0.014106184          301 
 1311000   0.72338583   -8.0452526    233.77484  0.014859829  0.014092137          333 
 1312000   0.72953255   -8.0272284    233.80407   0.01485036  0.014078087          269 
 1313000   0.72209659   -8.0382218    233.94207  0.014847809  0.014064078          290 
 1314000   0.73604671   -8.0381857    234.01519  0.014841146  0.014050083          271 
 1315000   0.72803557   -8.0566405    233.72996  0.014811785  0.014036078          266 
 1316000   0.72944527   -8.0392691    233.67631  0.014797132  0.014022093          288 
 1317000   0.73740254   -8.0516057    233.99832  0.014806272  0.014008163          375 
 1318000   0.70989435   -8.0464752    233.98044  0.014793908  0.013994232          278 
 1319000   0.73261001   -8.0416244    233.51874  0.014753521  0.013980302          209 
 1320000   0.72375121   -8.0263582    234.14194  0.014781688  0.013966363          233 
 1321000   0.75350141   -8.0341754    233.49682  0.014729802  0.013952437          224 
 1322000   0.72701775   -8.0220507    233.74343  0.014734205  0.013938558          245 
 1323000   0.73397348   -8.0041585    234.60929  0.014777607  0.013924705          220 
 1324000   0.71242322   -8.0489394    233.94909  0.014724892  0.013910864          244 
 1325000   0.73513951   -8.0555714    233.69808  0.014697992  0.013897031          221 
 1326000   0.71402472   -8.0299308    233.78392  0.014692303  0.013883235          377 
 1327000   0.72159636   -8.0556941    233.73382  0.014678085  0.013869415          349 
 1328000    0.7328206   -8.0292957    233.71268  0.014665706  0.013855581          215 
 1329000   0.72177228   -8.0568302    233.53199   0.01464334  0.013841733          244 
 1330000   0.73897674   -8.0504848     233.6808  0.014641654  0.013827909          245 
 1331000   0.72771725   -8.0648695    234.15748  0.014660498   0.01381413          256 
 1332000   0.73893868   -8.0461789    233.54233  0.014611006  0.013800338          252 
 1333000   0.73003486   -8.0640382    234.02659   0.01463032   0.01378656          231 
 1334000   0.71334533   -8.0585001    233.94035  0.014613965  0.013772784          286 
 1335000   0.70853484   -8.0656137    233.47311  0.014573852  0.013759029          260 
 1336000   0.71432019    -8.052119     233.5026  0.014564783  0.013745279          458 
 1337000   0.71630636   -8.0243406    233.52956   0.01455557  0.013731541          246 
 1338000   0.72635756    -8.079387    233.49984   0.01454284  0.013717801          268 
 1339000   0.70980031   -8.0589374    233.46534  0.014529832  0.013704113          271 
 1340000   0.73216367   -8.0274358    233.76647  0.014537716  0.013690445          356 
 1341000   0.71241573   -8.0708972    233.43527  0.014506293  0.013676724          290 
 1342000   0.70483093   -8.1000186    233.45161  0.014496498  0.013663001          299 
 1343000   0.71630634   -8.0657548    233.93723  0.014515837  0.013649346          306 
 1344000   0.73481784    -8.063875    233.50716  0.014478371  0.013635671          307 
 1345000     0.721166   -8.0797922    233.62017  0.014474608  0.013621994          429 
 1346000   0.73111964   -8.0660009    233.34496  0.014446815  0.013608384          521 
 1347000   0.71708423   -8.0692006    233.69567  0.014457787  0.013594754          368 
 1348000   0.71741652   -8.0968923    233.18888  0.014415732  0.013581137          298 
 1349000   0.71587324   -8.0798336    233.60515  0.014430761  0.013567573          448 
 1350000    0.7218839   -8.0735624    233.77407  0.014430498  0.013554002          301 
 1351000   0.71507373   -8.0568789     234.0962  0.014439687  0.013540458          290 
 1352000   0.69771715   -8.0749855    232.94749  0.014358203  0.013526948          483 
 1353000   0.70965509   -8.0685481    233.71104  0.014394619  0.013513428          335 
 1354000   0.70466939   -8.0730578    233.57996   0.01437592  0.013499888          406 
 1355000   0.71333183   -8.0809746    233.42186  0.014355588  0.013486396          363 
 1356000   0.70789794   -8.0961061    233.27058  0.014335704  0.013472915          355 
 1357000   0.69097665   -8.1042061    233.42897  0.014334867  0.013459427          370 
 1358000   0.72629157   -8.1179385    233.18719  0.014309474  0.013445968          364 
 1359000   0.71600343   -8.0565878    233.88716  0.014341867  0.013432536          483 
 1360000    0.7087178   -8.1047242    233.70235  0.014319997  0.013419128          553 
 1361000   0.70684313   -8.0822241    233.58213  0.014302114  0.013405699          325 
 1362000   0.72535795    -8.098133      233.344  0.014277044  0.013392291          345 
 1363000   0.70386975    -8.104368    233.10988  0.014252255  0.013378868          360 
 1364000   0.70220607     -8.09816    233.45859   0.01426311   0.01336545          676 
 1365000   0.69224063   -8.0908701    233.27667  0.014241555  0.013352058          537 
 1366000   0.72127619    -8.108056    232.86687  0.014206129  0.013338661          639 
 1367000   0.71263631   -8.1025003     233.3013   0.01422222  0.013325272          371 
 1368000   0.69591618   -8.0944966    232.99318  0.014193055  0.013311912          377 
 1369000   0.70501738   -8.0777624    232.97857  0.014181798   0.01329851          616 
 1370000   0.71257504   -8.1106173    233.01584  0.014173713   0.01328513          349 
 1371000   0.70414366   -8.1156385    233.01522  0.014163337  0.013271808          334 
 1372000   0.70202942   -8.0870722    233.16773  0.014162277  0.013258499          406 
 1373000   0.70452542   -8.0773609     233.5799  0.014176979  0.013245202          618 
 1374000   0.71354565    -8.093876    233.69303  0.014173522  0.013231914          609 
 1375000   0.70800094   -8.0900589    232.93493  0.014117269  0.013218641          439 
 1376000   0.71286461    -8.109774    233.46707  0.014139236  0.013205408          626 
 1377000   0.69807378   -8.1165332    232.97598  0.014099249  0.013192157          683 
 1378000   0.69074619   -8.1065619     232.8586  0.014081918  0.013178904          396 
 1379000   0.70696724    -8.127567    233.34796  0.014101279  0.013165675          623 
 1380000   0.70129508   -8.1192595    233.61987   0.01410748  0.013152488          437 
 1381000   0.70278542   -8.1141888    233.10745  0.014066344  0.013139293          411 
 1382000    0.7098716   -8.0965254     233.2094  0.014062313  0.013126135          396 
 1383000   0.70266684   -8.1157783    233.13663   0.01404776  0.013112961          625 
 1384000   0.71239327   -8.1312329    232.62317  0.014006694  0.013099768          336 
 1385000   0.71393291   -8.0932355    233.12885  0.014027006  0.013086602          398 
 1386000   0.68771622   -8.1054608    232.90817  0.014003618  0.013073465          321 
 1387000   0.70652935   -8.1081568    232.70291  0.013981189  0.013060345          317 
 1388000   0.71359937   -8.1320032    233.33973   0.01400935  0.013047233          373 
 1389000   0.69272961   -8.1223815    232.98475  0.013977966   0.01303412          375 
 1390000   0.72033076   -8.1428285    232.82225  0.013958169   0.01302102          412 
 1391000   0.70704508   -8.1235297    233.22018  0.013971973  0.013007912          367 
 1392000   0.69920806   -8.1278119    232.88852  0.013942081  0.012994831          410 
 1393000   0.69552213   -8.1332661    232.58101  0.013913676  0.012981767          404 
 1394000   0.69930295   -8.1442868    232.85391  0.013920009  0.012968762          385 
 1395000     0.704721   -8.1347445    232.96051  0.013916399  0.012955801          400 
 1396000   0.70948219   -8.1428621    233.47794  0.013937318  0.012942813          463 
 1397000   0.70733363   -8.1287334    233.01685  0.013899836  0.012929863          677 
 1398000   0.69325347   -8.1388006    232.68859  0.013870326  0.012916884          693 
 1399000   0.70217111   -8.1305566    233.10816  0.013885404   0.01290394          398 
 1400000   0.71528648   -8.1243392    232.66154  0.013848901  0.012891015          391 
 1401000   0.69329903   -8.1415088    233.09786  0.013864969  0.012878091          449 
 1402000   0.69189426   -8.1087742    233.12773  0.013856855  0.012865174          507 
 1403000   0.69290464   -8.1459241    233.23985  0.013853638  0.012852273          627 
 1404000   0.70371789   -8.1597353    232.79063  0.013817108  0.012839341          464 
 1405000   0.70447202   -8.1193869    233.15929   0.01382914  0.012826475          386 
 1406000   0.68634995   -8.1548587    233.04196  0.013812349  0.012813577          449 
 1407000   0.67847109   -8.1620332    232.96413  0.013797923  0.012800709          708 
 1408000   0.69582539   -8.1533274    232.70083  0.013772539  0.012787825          839 
 1409000   0.68739467   -8.1412324    232.88751  0.013773806   0.01277497          743 
 1410000   0.70104463   -8.1357475    232.82463  0.013760321  0.012762134          756 
 1411000   0.69605589   -8.1332086    233.10919  0.013767375  0.012749309          780 
 1412000   0.67692956    -8.145375    233.05466  0.013754406  0.012736491          784 
 1413000   0.69262328   -8.1204246    233.33481  0.013761194  0.012723681          703 
 1414000   0.69405725   -8.1582892    232.43624  0.013698505  0.012710912          734 
 1415000   0.70455472   -8.1403318    233.18309  0.013732809  0.012698131          426 
 1416000   0.69333749   -8.1717849    232.49602  0.013682676  0.012685369          736 
 1417000   0.68277914   -8.1556246    232.67278  0.013683415  0.012672594          386 
 1418000   0.69380606   -8.1702393    232.57518  0.013668029  0.012659839          809 
 1419000   0.68317159   -8.1695344    232.66316  0.013663564  0.012647078          384 
 1420000   0.69238568   -8.1800346    232.68715  0.013655349  0.012634358          795 
 1421000   0.69508565   -8.1458306    232.58588    0.0136398  0.012621634          452 
 1422000   0.67801601    -8.178473    232.81144  0.013643427  0.012608949          774 
 1423000   0.67889772   -8.1779901    232.47486  0.013614129  0.012596277          450 
 1424000   0.68390652   -8.1891999     232.2279  0.013590116  0.012583599          824 
 1425000   0.67300712   -8.1654613    232.39889  0.013590578  0.012570938          804 
 1426000    0.6800492   -8.1986988    232.12892  0.013565271  0.012558293          762 
 1427000   0.70224418   -8.1686404    232.78506  0.013594082  0.012545658          711 
 1428000    0.6920124    -8.183096    232.38542  0.013561241  0.012533076          722 
 1429000   0.68984015   -8.1940233     233.3534  0.013608199  0.012520503          783 
 1430000   0.67348764   -8.1610913    232.95812  0.013575648  0.012507929          431 
 1431000   0.68793275    -8.167068     232.8355   0.01355902  0.012495375          456 
 1432000   0.68726817   -8.1785617    232.38103  0.013523104  0.012482805          531 
 1433000    0.6772901   -8.1785579    232.29531  0.013508683  0.012470249          533 
 1434000   0.67311992   -8.1716206    232.72368  0.013524156  0.012457733          537 
 1435000   0.68050312   -8.1819808    233.23808  0.013544604  0.012445231          761 
 1436000   0.67839754   -8.2085942    232.22258   0.01347624  0.012432726          832 
 1437000   0.67393414   -8.1734004    232.46036  0.013480652  0.012420228          466 
 1438000   0.66728514   -8.1851525    232.69562  0.013484911  0.012407754          831 
 1439000   0.70676553   -8.1901595    232.66364  0.013473688  0.012395289          502 
 1440000   0.67303534   -8.1765494    232.72855  0.013468087  0.012382854          812 
 1441000   0.67277963   -8.2079366    232.18319  0.013427203  0.012370435          859 
 1442000   0.68298931   -8.1754677    232.71441  0.013448591   0.01235802          874 
 1443000   0.68038721   -8.1864392    232.73406  0.013440406  0.012345621          526 
 1444000   0.67620506    -8.182837    232.46371  0.013415495  0.012333283          827 
 1445000   0.68246687   -8.2112177    232.22896  0.013392674  0.012320905          887 
 1446000   0.68091467   -8.2035597    232.44569  0.013395902  0.012308557          864 
 1447000   0.67631323   -8.1665964     232.3133   0.01337902  0.012296263          889 
 1448000    0.6594385   -8.2024234    232.72783  0.013393637  0.012283963          900 
 1449000   0.67125017   -8.2057491    232.41874  0.013366617  0.012271654          525 
 1450000   0.67281283   -8.2091368    232.58307  0.013366843   0.01225937          864 
 1451000   0.68094832    -8.203772    232.24754  0.013338361  0.012247085          863 
 1452000   0.66341991   -8.2000512    232.41719  0.013338911  0.012234801          892 
 1453000   0.67594349   -8.1995387    232.47337  0.013332953  0.012222527          894 
 1454000   0.67198373   -8.1817109    232.50029  0.013325326  0.012210287          900 
 1455000   0.67024902   -8.2278055     232.4912  0.013315647  0.012198025          939 
 1456000   0.67222275   -8.1891587    231.94535  0.013275261  0.012185807          891 
 1457000   0.66823497   -8.2307432    232.42298  0.013293467  0.012173604          884 
 1458000   0.67583858   -8.2156945     232.1041  0.013266123  0.012161379          540 
 1459000   0.66845563   -8.2350142    232.18972  0.013261921  0.012149107          895 
 1460000   0.66889064   -8.2476597    232.28622  0.013258346  0.012136868          501 
 1461000   0.66465219   -8.2012945    232.55686  0.013264708  0.012124646          837 
 1462000    0.6719615   -8.2268243    231.84411  0.013215009  0.012112475          840 
 1463000   0.67325038   -8.2151634    231.75945  0.013201154  0.012100298          838 
 1464000   0.67463088   -8.2350237    232.47705  0.013232983  0.012088154          520 
 1465000   0.67481151   -8.2304212    232.00461  0.013197077  0.012075996          929 
 1466000    0.6727722    -8.221089    232.18302  0.013198216   0.01206386          878 
 1467000   0.65542185   -8.2343674    232.26967  0.013194142  0.012051763          597 
 1468000   0.65833746    -8.210399    232.23303  0.013183074  0.012039647          927 
 1469000    0.6844322   -8.2357864    231.66894    0.0131421  0.012027556          949 
 1470000   0.67895294   -8.2440692    232.28697  0.013168195  0.012015495          911 
 1471000   0.68019457   -8.2187049    231.91468  0.013138153  0.012003417          956 
 1472000   0.67408596   -8.2344339    231.84501  0.013125283  0.011991354          954 
 1473000   0.67367412   -8.2495345    231.56855  0.013100733  0.011979283          924 
 1474000   0.65420128   -8.2311733     231.4738  0.013086488  0.011967236          937 
 1475000   0.66655812   -8.2540979    231.58237   0.01308375  0.011955207         1046 
 1476000   0.67116007    -8.253642    231.89207  0.013092371  0.011943209         1067 
 1477000   0.66012463   -8.2404981    232.33195  0.013108325  0.011931214         1066 
 1478000   0.64955691   -8.2599587    231.58293  0.013057224  0.011919232         1026 
 1479000   0.65989022   -8.2353221    232.23781  0.013085295  0.011907272          979 
 1480000   0.65901644   -8.2247467    231.99099  0.013062556  0.011895323          620 
 1481000   0.67294579   -8.2251735    231.83539   0.01304498  0.011883393          999 
 1482000   0.65360481   -8.2520246    231.94183  0.013042163  0.011871465         1015 
 1483000   0.66979026   -8.2531335    231.58325  0.013013219  0.011859554         1051 
 1484000   0.65003795    -8.226292     232.0304   0.01302956  0.011847651         1074 
 1485000   0.66602081    -8.262229    232.23388  0.013032204  0.011835777          664 
 1486000   0.65064879    -8.260132    231.82319  0.013000403  0.011823912          977 
 1487000   0.66267907   -8.2606581    231.82472  0.012991746  0.011812057         1082 
 1488000    0.6525158   -8.2319519    231.74159   0.01297836  0.011800223         1035 
 1489000   0.65342259   -8.2474105    232.00546  0.012984411  0.011788403          972 
 1490000   0.68222207    -8.242133    231.89835  0.012969706  0.011776585         1040 
 1491000    0.6532737   -8.2677136    232.29664  0.012983268  0.011764774         1018 
 1492000   0.63563463   -8.2617386    231.73169  0.012943012   0.01175298          694 
 1493000   0.67069795    -8.277188    231.33581  0.012912247   0.01174121          976 
 1494000   0.64993297   -8.2548972    231.85632  0.012932637  0.011729459         1044 
 1495000   0.65606306    -8.265678    231.83561  0.012922832  0.011717724         1034 
 1496000   0.65352225   -8.2593054    231.54614  0.012898069  0.011706013          960 
 1497000   0.64365704   -8.2606696    231.64448  0.012894927  0.011694301          735 
 1498000   0.65176413   -8.2559064    231.65017  0.012886636  0.011682594         1030 
 1499000   0.64923035   -8.2714333    232.17688   0.01290732  0.011670937         1122 
 1500000   0.65346382   -8.2895443    232.21032  0.012900573  0.011659268          724 
 1501000   0.66141029   -8.2837448    231.91915  0.012875813  0.011647609         1095 
 1502000   0.65407746   -8.2651796    231.90465  0.012866436  0.011635961         1065 
 1503000   0.64464073   -8.2716645    231.74066  0.012848783  0.011624317         1098 
 1504000   0.66014273   -8.2929692    231.18812  0.012809626  0.011612687         1177 
 1505000   0.66515764    -8.271188    231.68076  0.012828392  0.011601072         1153 
 1506000   0.64679923   -8.2644826     231.4391  0.012806502  0.011589458         1118 
 1507000   0.65776066   -8.2555921    231.93369  0.012825353  0.011577878         1070 
 1508000   0.65142814   -8.2699542    231.23999  0.012778514  0.011566306         1051 
 1509000   0.65812729   -8.2888564    231.49561  0.012784162  0.011554741          808 
 1510000   0.65989651   -8.2886943    231.19071  0.012758869  0.011543166         1233 
 1511000    0.6562046   -8.2601997    231.16621  0.012749074  0.011531627         1113 
 1512000   0.65751757   -8.3012682    231.52875  0.012760623  0.011520104         1057 
 1513000   0.64659712   -8.2739676    231.51567  0.012751469  0.011508568         1143 
 1514000   0.66323029   -8.2703312     231.2213  0.012726844  0.011497048         1044 
 1515000   0.64485989   -8.2923422    231.48001  0.012732674  0.011485554         1142 
 1516000   0.64385961   -8.2762067    231.82642  0.012743317  0.011474065         1048 
 1517000   0.63804037   -8.2765094     231.8238  0.012734773  0.011462603         1197 
 1518000   0.65208589   -8.2713476    231.58209  0.012713114  0.011451159         1190 
 1519000    0.6568533   -8.2944972    231.91289  0.012722893  0.011439703         1085 
 1520000   0.64643575   -8.3018679    231.31177  0.012681566   0.01142827          864 
 1521000   0.64553906   -8.2971524    231.36623  0.012676213  0.011416865         1241 
 1522000   0.62647462   -8.2966246    231.57597  0.012679368  0.011405457         1171 
 1523000    0.6426959   -8.2906931    231.42629  0.012662852  0.011394054         1245 
 1524000   0.64357836   -8.2917071    230.95594  0.012628824   0.01138266         1158 
 1525000   0.65317269   -8.3101753    231.08597  0.012627648  0.011371296         1242 
 1526000   0.64976884   -8.2919111    231.26669  0.012629243  0.011359946         1221 
 1527000   0.65103512   -8.2943244    231.32918  0.012624382  0.011348596         1297 
 1528000   0.65745923   -8.2912177     231.1003  0.012603638   0.01133728         1293 
 1529000   0.63420198   -8.2957348    231.21282  0.012601527  0.011325965         1290 
 1530000   0.64512944   -8.2990647    231.59674  0.012614202  0.011314658         1233 
 1531000   0.65150505   -8.3168221     231.6088  0.012606619  0.011303354         1245 
 1532000   0.63643789   -8.2962488    230.98239  0.012564316  0.011292071         1223 
 1533000    0.6376271   -8.2837327    231.78469  0.012599733  0.011280804         1251 
 1534000   0.64512365   -8.2890366    231.38447  0.012569778   0.01126954         1218 
 1535000   0.63583615    -8.303723    231.26977  0.012555362  0.011258295         1261 
 1536000   0.63698424   -8.2997577     231.2279  0.012544917  0.011247082         1208 
 1537000   0.64201712   -8.3087155    231.60969  0.012557454   0.01123586         1180 
 1538000   0.63900874   -8.3231954    231.05607  0.012519293  0.011224646         1279 
 1539000   0.65125262   -8.3011333    231.28686  0.012523655  0.011213446         1263 
 1540000   0.63934725   -8.3157944    231.29356  0.012515886  0.011202268         1237 
 1541000   0.63649511   -8.3087404    230.89871  0.012486411  0.011191117         1208 
 1542000   0.65494292   -8.2999743    230.92173  0.012479557  0.011179948         1268 
 1543000   0.64755772   -8.3048924    230.59088  0.012453601  0.011168802         1251 
 1544000   0.64313897   -8.3132052    231.04399  0.012469991  0.011157678         1238 
 1545000    0.6331187   -8.2981073    231.13146  0.012466638  0.011146577         1206 
 1546000   0.64086102   -8.3011283     231.4703  0.012476838  0.011135495         1289 
 1547000   0.64521827   -8.3049676    230.95377  0.012440949  0.011124424         1273 
 1548000   0.64682513   -8.3113613    231.41914  0.012457964  0.011113356         1283 
 1549000   0.65011814   -8.3025622    231.00179  0.012427469  0.011102311         1229 
 1550000   0.63935395   -8.3066801    231.24127  0.012432326  0.011091279         1267 
 1551000   0.63350049   -8.3121975    231.26235  0.012425443  0.011080275         1323 
 1552000   0.64382829   -8.3065033    231.15889  0.012411882  0.011069271         1261 
 1553000   0.63798794    -8.316538    231.19565  0.012405862  0.011058286         1282 
 1554000   0.63426379   -8.3386663    230.49661  0.012360393  0.011047305         1332 
 1555000   0.63316887   -8.2947872    231.30495  0.012395763  0.011036327         1338 
 1556000   0.62967967   -8.3247856    231.34036  0.012389693  0.011025363         1289 
 1557000   0.63223668   -8.3219968    230.68818   0.01234683  0.011014416         1345 
 1558000   0.64251861   -8.3077928    231.40361  0.012377172  0.011003494         1315 
 1559000   0.63144282    -8.328364    231.09107  0.012352527  0.010992582         1309 
 1560000   0.62895148   -8.3207229    231.04728  0.012342269   0.01098169         1371 
 1561000   0.63149328   -8.2913672    230.85797  0.012324256  0.010970795         1340 
 1562000    0.6125927   -8.3180821    230.77087  0.012311719   0.01095992         1361 
 1563000   0.62379973   -8.3210998    231.41541  0.012338207  0.010949059         1257 
 1564000    0.6441434   -8.3361686    231.44333  0.012331806  0.010938216         1327 
 1565000   0.62676507   -8.3120683    231.31784  0.012317244  0.010927383         1328 
 1566000   0.62470318   -8.2954979    230.89521  0.012286888  0.010916569         1248 
 1567000   0.63429892   -8.3351474     231.2507  0.012297953   0.01090575         1332 
 1568000   0.63145054   -8.3404417    230.68748  0.012260176  0.010894962         1324 
 1569000   0.62550766   -8.3228295    231.42698  0.012291639  0.010884178         1350 
 1570000   0.64111186   -8.3529267    230.75523  0.012248154  0.010873384         1378 
 1571000   0.62292857   -8.3245218    230.93014  0.012249636  0.010862609         1351 
 1572000    0.6224231   -8.3564444     230.7773  0.012233742  0.010851846         1389 
 1573000   0.61360362   -8.3519456    230.30175  0.012200771  0.010841099         1408 
 1574000   0.61354152   -8.3105536    230.79576  0.012219174  0.010830365         1283 
 1575000   0.61694578   -8.3533434    231.50543  0.012248964  0.010819644         1363 
 1576000   0.62674668   -8.3296573    230.83644  0.012205818   0.01080893         1417 
 1577000    0.6195489   -8.3222086    231.52249  0.012234332  0.010798232         1338 
 1578000   0.62463236   -8.3407429     230.7365  0.012185071  0.010787546         1374 
 1579000   0.62551264   -8.3561588    230.91969  0.012187022  0.010776889         1359 
 1580000   0.63119066   -8.3414989    231.21626   0.01219495  0.010766231         1388 
 1581000   0.61199313    -8.349152    230.87435  0.012169215  0.010755579         1313 
 1582000   0.60846645   -8.3410174    230.32034   0.01213234  0.010744931         1304 
 1583000   0.61935411   -8.3496605    230.60052  0.012139425  0.010734295         1337 
 1584000   0.62577247    -8.351023    230.36996  0.012119632  0.010723684         1237 
 1585000     0.621216   -8.3737902    230.77482  0.012133271  0.010713085         1342 
 1586000   0.61318588   -8.3339683    230.99553  0.012137218    0.0107025         1295 
 1587000   0.63582336   -8.3390769    231.22005   0.01214136  0.010691942         1353 
 1588000   0.61871049   -8.3395194    230.99544  0.012121927  0.010681384         1319 
 1589000   0.61862628   -8.3574132    230.98244  0.012113616  0.010670833         1348 
 1590000   0.62149766   -8.3562055    230.95692   0.01210466  0.010660301         1346 
 1591000   0.59956642   -8.3229477    230.68943  0.012083042  0.010649751         1374 
 1592000   0.61851548   -8.3389171    230.57576  0.012069501  0.010639239         1388 
 1593000   0.61472924   -8.3612752     230.6156  0.012064009  0.010628734         1441 
 1594000   0.62690634   -8.3505351    230.83026  0.012067663   0.01061822         1407 
 1595000   0.63776309   -8.3677203    230.36622  0.012035853  0.010607725         1388 
 1596000   0.62072596   -8.3741754    230.50811   0.01203572  0.010597218         1486 
 1597000   0.61093815   -8.3528937    230.37301  0.012021134  0.010586738         1300 
 1598000   0.63702427   -8.3553963    230.50336  0.012020409  0.010576273         1466 
 1599000   0.61129886   -8.3265124    230.44892  0.012010054  0.010565822         1412 
 1600000   0.60988722   -8.3469623    230.20109   0.01198964  0.010555355         1379 
 1601000   0.60243356   -8.3712656    230.32777  0.011988745  0.010544899         1476 
 1602000   0.62389965   -8.3466156     230.3469  0.011982257   0.01053447         1417 
 1603000   0.59888789   -8.3670434    230.43267   0.01197924  0.010524049         1520 
 1604000   0.61147164   -8.3732335    230.65841    0.0119835  0.010513638         1458 
 1605000   0.60333477   -8.3626321    230.54704  0.011970251  0.010503242         1395 
 1606000   0.59889175   -8.3734919    230.25776  0.011947788  0.010492864         1375 
 1607000   0.61710473   -8.3643584     230.1361  0.011934044  0.010482491         1422 
 1608000   0.60523795   -8.3738706    230.31198  0.011935737  0.010472131         1544 
 1609000   0.61860551   -8.3741516    230.47589  0.011936808  0.010461788         1504 
 1610000   0.61182662    -8.356465    230.45536  0.011928331  0.010451459         1490 
 1611000   0.62595425   -8.3724385    230.30454  0.011913125  0.010441147         1495 
 1612000   0.60549408   -8.3380671    230.10959  0.011895657  0.010430839         1455 
 1613000   0.61730602   -8.3754065    229.95764  0.011880432  0.010420544         1546 
 1614000   0.61002296   -8.3835252    229.87235  0.011868668  0.010410262         1481 
 1615000   0.59168657   -8.3674689    230.05856  0.011870926  0.010399988         1501 
 1616000   0.61590309   -8.3812239    230.34023  0.011878106  0.010389721         1499 
 1617000   0.60664653   -8.3784857    229.90861  0.011848516  0.010379478         1510 
 1618000    0.6027181   -8.3955543    230.37913  0.011865427  0.010369243         1513 
 1619000   0.60193858   -8.3853174    230.15898  0.011846766  0.010359018         1482 
 1620000    0.6084254   -8.3941741    230.05969  0.011834346  0.010348796         1468 
 1621000   0.61271327   -8.3902919    229.94695   0.01182125  0.010338599         1520 
 1622000   0.60866755   -8.4076005    229.90002  0.011811551    0.0103284         1524 
 1623000   0.60851762   -8.3969302     230.2613  0.011822823  0.010318227         1497 
 1624000   0.61933254   -8.4034013    230.51281  0.011828449  0.010308065         1499 
 1625000   0.60201526   -8.3673787    230.37942  0.011814329  0.010297928         1410 
 1626000   0.60600584   -8.3892491    230.37533  0.011806854  0.010287799         1446 
 1627000   0.60904755   -8.3944032    229.73253  0.011766673  0.010277678         1493 
 1628000   0.58322312   -8.3833875    230.57543  0.011802591   0.01026756         1427 
 1629000   0.60538315   -8.3940401    230.01051  0.011766447  0.010257466         1478 
 1630000   0.59680987   -8.3890733    230.24863  0.011771402  0.010247381         1473 
 1631000   0.58977733   -8.3994579    230.20015  0.011761708  0.010237296         1540 
 1632000    0.6124333   -8.3981252    230.18467  0.011753711   0.01022723         1527 
 1633000   0.59433439   -8.3896344    229.87003  0.011730457  0.010217178         1497 
 1634000   0.58723986   -8.4011155     230.5717  0.011759063  0.010207134         1485 
 1635000   0.58418055   -8.3988296    230.10953  0.011728314  0.010197112         1566 
 1636000   0.61096821   -8.3805421    230.24435  0.011728013  0.010187103         1517 
 1637000   0.61443289   -8.4101662    230.23195  0.011720217  0.010177113         1501 
 1638000   0.61899811   -8.3849522     230.0649  0.011704563  0.010167135         1501 
 1639000   0.58497252   -8.3858857    230.11593  0.011700017  0.010157174         1590 
 1640000   0.60349118   -8.3835019    229.95616  0.011684764  0.010147217         1529 
 1641000   0.59571766    -8.398023    230.07246  0.011683549   0.01013727         1579 
 1642000   0.59772393   -8.3899218    230.02275  0.011673912  0.010127339         1449 
 1643000   0.60019729   -8.4039089    230.06739   0.01166907  0.010117416         1541 
 1644000   0.59968876   -8.4002615    230.34748   0.01167617  0.010107504         1567 
 1645000   0.60107413   -8.3992083    229.91569  0.011647198  0.010097599         1493 
 1646000    0.5992666   -8.3831113    230.21953  0.011655505  0.010087713         1459 
 1647000   0.58394774   -8.3956056    230.09536  0.011642145  0.010077846         1487 
 1648000   0.60135452   -8.4102456    229.80993  0.011620648  0.010067967         1520 
 1649000   0.59150186   -8.4128824    230.34027  0.011640402  0.010058113         1446 
 1650000   0.58230187   -8.3933522    229.53487   0.01159267  0.010048264         1433 
 1651000   0.58458897   -8.4052877    229.99738  0.011608994  0.010038419         1528 
 1652000    0.5820451   -8.4456993    229.68155  0.011586034  0.010028574         1486 
 1653000   0.58771257   -8.4139246    230.06421  0.011598317  0.010018754         1595 
 1654000   0.59298751   -8.4097581    229.66346  0.011571113  0.010008945         1511 
 1655000   0.59627946   -8.4094219    229.86345  0.011574192  0.009999149         1488 
 1656000   0.59181421   -8.4261656     229.7643  0.011562213 0.0099893706         1560 
 1657000   0.60783447   -8.4126101    230.39008  0.011586707 0.0099796018         1458 
 1658000   0.59438441   -8.4349424    229.78591  0.011549352 0.0099698514         1561 
 1659000    0.5779541    -8.420661    230.23509  0.011564953 0.0099601089         1479 
 1660000   0.58221687   -8.4348109    229.69805  0.011531027 0.0099503693         1358 
 1661000     0.590765   -8.4137656    229.98394  0.011538428 0.0099406418         1517 
 1662000   0.58840551   -8.4064668    229.96956  0.011530764 0.0099309231         1500 
 1663000   0.57813541   -8.4190919    230.03966  0.011527343  0.009921217         1460 
 1664000   0.58804029   -8.4271296    229.46073  0.011491423 0.0099115163         1572 
 1665000   0.58181148   -8.4192644    229.76263  0.011499631 0.0099018405         1538 
 1666000   0.58537902   -8.4347013    229.35978  0.011472578 0.0098921593         1506 
 1667000   0.57170976   -8.4148394    229.68903  0.011482155 0.0098825028         1448 
 1668000   0.58401539   -8.4208016    229.54239  0.011467945 0.0098728567         1466 
 1669000   0.59207844   -8.4341587    229.56113  0.011462009 0.0098632189         1499 
 1670000   0.56963712   -8.4217792    230.00906  0.011477498 0.0098536025         1503 
 1671000   0.58994265   -8.4347143    229.90356  0.011465368 0.0098439919         1555 
 1672000   0.57690165   -8.4055181    229.68599  0.011447667 0.0098343937         1539 
 1673000   0.59178736   -8.4281227    229.14697  0.011413975 0.0098248167         1592 
 1674000    0.5834241   -8.4417757    229.46035  0.011422757 0.0098152392         1519 
 1675000   0.58193871   -8.4237544    229.76406  0.011431048 0.0098056714         1523 
 1676000   0.57048353   -8.4248723    230.02518  0.011437211 0.0097961289         1526 
 1677000    0.5699262   -8.4213589    229.75301  0.011416866 0.0097865917         1554 
 1678000    0.5908024   -8.4299269    230.17793  0.011431164 0.0097770709         1598 
 1679000   0.57790293   -8.4141552    229.80572  0.011405882 0.0097675524         1517 
 1680000   0.58300303   -8.4309295     229.8473  0.011401156 0.0097580555         1621 
 1681000   0.57827051   -8.4337916    229.93548  0.011398745  0.009748567         1523 
 1682000   0.58633704   -8.4215546    229.45381  0.011368104 0.0097390793         1656 
 1683000   0.58319255   -8.4472464    229.44031  0.011360681 0.0097296151         1616 
 1684000   0.59153473   -8.4565908    229.24698  0.011344368 0.0097201668         1656 
 1685000   0.58814145   -8.4335956    229.54224  0.011352237 0.0097107294         1599 
 1686000   0.57093823     -8.42548    229.83243  0.011359847 0.0097013088         1581 
 1687000   0.56863951   -8.4464819    229.71139  0.011347135 0.0096919059         1606 
 1688000   0.58391581   -8.4418966    229.09588  0.011310026  0.009682505         1578 
 1689000   0.58074411   -8.4168919    229.58577    0.0113275 0.0096731122         1543 
 1690000   0.59026842     -8.43227    229.34947  0.011309145 0.0096637341         1537 
 1691000   0.57754891   -8.4319516    229.46876  0.011308337 0.0096543578         1572 
 1692000   0.57944672   -8.4205143     229.3336  0.011294996 0.0096450066         1560 
 1693000   0.56517081   -8.4455169    229.33355  0.011288322 0.0096356666         1604 
 1694000   0.58640422   -8.4271622    229.50026  0.011289859 0.0096263329         1589 
 1695000   0.59387229   -8.4385999    229.55323  0.011285803 0.0096170177         1642 
 1696000   0.58713077   -8.4311899    229.35271  0.011269296 0.0096077053         1513 
 1697000   0.58395335   -8.4253437    229.38346  0.011264165 0.0095984062         1581 
 1698000   0.56379804   -8.4332461    229.45744  0.011261162 0.0095891218         1628 
 1699000   0.58670952   -8.4270829    228.99899  0.011232048 0.0095798335         1588 
 1700000   0.57874466   -8.4500823    228.84348  0.011217818 0.0095705553         1578 
 1701000   0.58059201    -8.442823    229.71867  0.011254099 0.0095612851         1533 
 1702000   0.58227712   -8.4298756    229.26676   0.01122536 0.0095520292         1655 
 1703000   0.58015407   -8.4261523    229.21871  0.011216417 0.0095427898         1623 
 1704000   0.57630318   -8.4430644    229.17968  0.011207926  0.009533555         1596 
 1705000   0.56835286   -8.4722939    229.45284  0.011214704 0.0095243275         1572 
 1706000   0.56833525   -8.4246801    228.81662  0.011177053 0.0095151131         1577 
 1707000   0.57343409   -8.4385243    229.28481  0.011193361 0.0095059027         1541 
 1708000   0.56289796   -8.4392124    229.60801  0.011202577 0.0094967107         1574 
 1709000   0.57393921   -8.4322513    229.85782  0.011208203 0.0094875272         1555 
 1710000   0.57490921   -8.4512979    229.45304  0.011181922 0.0094783565         1586 
 1711000   0.55874314   -8.4554842    229.05645  0.011156071 0.0094692076         1642 
 1712000   0.57171931   -8.4402173    229.37348  0.011164986 0.0094600562         1567 
 1713000   0.57375992   -8.4612744    228.87578  0.011134256 0.0094509197         1697 
 1714000   0.57062326   -8.4585162    229.70404   0.01116803 0.0094417934         1588 
 1715000   0.56558466   -8.4410575    229.08059  0.011131224 0.0094326818         1596 
 1716000   0.57242178   -8.4580496    229.41844  0.011141144 0.0094235894         1686 
 1717000   0.58317225   -8.4487272    229.00352  0.011114518 0.0094145079         1583 
 1718000    0.5592175   -8.4554559    229.35398  0.011125047 0.0094054315         1621 
 1719000   0.56654962   -8.4575073    229.31037  0.011116462 0.0093963623         1562 
 1720000   0.57667616   -8.4739094    229.04906  0.011097338  0.009387305         1588 
 1721000   0.56940636    -8.455374    228.86506   0.01108198 0.0093782538         1613 
 1722000   0.56750988   -8.4476471    229.38034  0.011100481  0.009369218         1631 
 1723000   0.56776971   -8.4590163    229.23719  0.011087115 0.0093601904         1569 
 1724000   0.55808806   -8.4619858    229.31137   0.01108427 0.0093511587         1622 
 1725000   0.56525315   -8.4673269    229.45637  0.011084849 0.0093421482         1534 
 1726000   0.55501619   -8.4755373    229.15819   0.01106403 0.0093331544         1522 
 1727000   0.55792599   -8.4497259    229.49448  0.011073851 0.0093241672         1558 
 1728000   0.55389988   -8.4627611    229.33254  0.011059632 0.0093151899         1615 
 1729000   0.57717242   -8.4719709    229.16239  0.011045035 0.0093062206         1539 
 1730000   0.56698239   -8.4697194    229.12622  0.011036909 0.0092972699         1570 
 1731000   0.56286563   -8.4785572    229.33737  0.011040697 0.0092883341         1534 
 1732000   0.55422448   -8.4715305    229.30251  0.011032646 0.0092793908         1642 
 1733000   0.55121531   -8.4775634    229.23245  0.011022911 0.0092704661         1631 
 1734000   0.57318652   -8.4652665    229.00261  0.011005508 0.0092615484         1604 
 1735000   0.56867319   -8.4566639    229.46314  0.011021284  0.009252649         1572 
 1736000   0.56829257   -8.4544863    229.41176  0.011012469 0.0092437586         1556 
 1737000   0.55567458   -8.4667916    229.02285  0.010987471 0.0092348817         1638 
 1738000   0.55940276   -8.4630872    228.75806  0.010968453 0.0092259997         1639 
 1739000    0.5474115   -8.4706422    228.94723  0.010971211 0.0092171284         1593 
 1740000   0.55814811    -8.463643    229.14447  0.010974352 0.0092082821         1602 
 1741000   0.55898699   -8.4580596    229.38697  0.010979656 0.0091994566         1601 
 1742000   0.55555199   -8.4793156    229.30942  0.010969643 0.0091906295         1665 
 1743000   0.56279101   -8.4549987     228.8884   0.01094322 0.0091818203         1586 
 1744000   0.54862644   -8.4770289    229.17812   0.01095079 0.0091730223         1613 
 1745000   0.55300342   -8.4630638    228.71225  0.010922266 0.0091642363         1565 
 1746000   0.55097411   -8.4676391    228.98336   0.01092895 0.0091554632         1569 
 1747000   0.56289476   -8.4787339    228.85863  0.010916744 0.0091466867         1552 
 1748000   0.56523116   -8.4723047    229.42129  0.010937323 0.0091379219         1624 
 1749000   0.55852934     -8.46717    229.45503  0.010932677 0.0091291574         1571 
 1750000   0.55110715   -8.4805149    228.93265  0.010901555 0.0091204105         1567 
 1751000   0.55977704   -8.4903094    228.36971  0.010868538 0.0091116609         1615 
 1752000    0.5430887   -8.4876905    228.95168  0.010890015 0.0091029393         1498 
 1753000   0.55857386   -8.4710075    228.70212   0.01087194  0.009094225         1605 
 1754000   0.55323001    -8.500398    228.55256  0.010858635 0.0090855216         1596 
 1755000    0.5408849   -8.4930359    228.74842  0.010861748  0.009076831         1602 
 1756000   0.55539012   -8.4902153    228.81634  0.010858786  0.009068157         1655 
 1757000   0.55147802   -8.4386716    228.97592  0.010860175 0.0090594872         1597 
 1758000   0.55736915   -8.4925643    228.97859  0.010854124 0.0090508305         1621 
 1759000   0.54851864   -8.4505808    229.35925  0.010865987 0.0090421756         1627 
 1760000   0.54877882   -8.4929129    229.03704  0.010844557 0.0090335435         1653 
 1761000   0.54767635   -8.4815942    228.59032  0.010817259 0.0090249176         1528 
 1762000   0.55709631   -8.5060205    228.87491   0.01082458 0.0090162891         1657 
 1763000   0.54494369   -8.4775753    228.96016  0.010822469 0.0090076796         1595 
 1764000    0.5568594   -8.4872643    228.99248  0.010817861 0.0089990824         1641 
 1765000    0.5573707   -8.4844695    228.39925  0.010783723 0.0089904825         1585 
 1766000      0.54568   -8.4853113    228.76169  0.010794719 0.0089819007         1625 
 1767000   0.56065966   -8.4982841    228.65821   0.01078373 0.0089733202         1595 
 1768000   0.54019391   -8.4989265    228.65495  0.010777477  0.008964758         1638 
 1769000   0.53840879   -8.4829575    228.92526  0.010784118 0.0089562027         1612 
 1770000   0.54608264   -8.5071648    228.81422  0.010772798 0.0089476718         1560 
 1771000   0.54552112   -8.5011486    228.74379  0.010763401 0.0089391429         1586 
 1772000   0.54463812   -8.4881186    228.99215  0.010769006 0.0089306155         1681 
 1773000   0.54392437    -8.484137    228.68032  0.010748276 0.0089221031         1622 
 1774000   0.54155103   -8.5056848    229.14761  0.010764168 0.0089136023         1601 
 1775000   0.54882188    -8.487329    228.80537  0.010742036 0.0089051245         1608 
 1776000   0.53171856   -8.5001095    228.95141   0.01074284  0.008896659         1663 
 1777000   0.54974312   -8.5279967    228.11023  0.010697347 0.0088881905         1630 
 1778000   0.54218434   -8.5015753    228.36619  0.010703327  0.008879726         1614 
 1779000   0.54478666   -8.4920542    228.41874  0.010699772 0.0088712801         1627 
 1780000   0.55368313   -8.4901535    228.43335  0.010694445 0.0088628526         1651 
 1781000   0.53012029   -8.5010431    228.20732  0.010677865 0.0088544251         1591 
 1782000   0.52907382   -8.4983164    228.42884  0.010682232 0.0088460062         1625 
 1783000   0.54836982    -8.505415    228.66158  0.010687118 0.0088376061         1556 
 1784000   0.54552542   -8.4795514    228.90815  0.010692645 0.0088292175         1624 
 1785000   0.54699146   -8.5123281    228.39174  0.010662546 0.0088208389         1629 
 1786000    0.5336356   -8.4931277    228.30299  0.010652435 0.0088124754         1665 
 1787000   0.54706678   -8.5005544     228.5942  0.010660054 0.0088041217         1615 
 1788000   0.53082176   -8.4826084    228.77009   0.01066229 0.0087957766         1598 
 1789000   0.52729728   -8.5024642    229.00162  0.010667115 0.0087874439         1581 
 1790000   0.54548219   -8.4939287    228.36748  0.010631633 0.0087791204         1626 
 1791000   0.54312367   -8.5015147    228.27768  0.010621519 0.0087708066         1592 
 1792000   0.53671045   -8.5035761    228.09705  0.010607192 0.0087625028         1628 
 1793000   0.53878753   -8.4972282    228.34816  0.010612947   0.00875421         1633 
 1794000   0.54543965    -8.497538    228.27786  0.010603766 0.0087459258         1665 
 1795000   0.53619234   -8.5002086    228.31356  0.010599515 0.0087376483         1570 
 1796000   0.53177546   -8.5177538    228.46459  0.010600621 0.0087293802         1591 
 1797000   0.54298828   -8.5066852    228.59925  0.010600967 0.0087211186         1698 
 1798000   0.54090082   -8.5026915    228.58325  0.010594329 0.0087128739         1642 
 1799000   0.54003604   -8.5150982    228.53889  0.010586386 0.0087046269         1708 
 1800000   0.53441424   -8.5143032    228.69982  0.010587955 0.0086963945         1718 
 1801000   0.52951363   -8.5228144    228.54276  0.010574809 0.0086881737         1635 
 1802000   0.54320562   -8.5195798    228.45582   0.01056492 0.0086799694         1735 
 1803000   0.51537479   -8.5051077    228.31139  0.010552384 0.0086717621         1645 
 1804000    0.5410048   -8.4931121     228.4468   0.01055279 0.0086635649         1736 
 1805000    0.5419285   -8.5383283    228.49741   0.01054928 0.0086553821         1718 
 1806000   0.53408903   -8.5287257    228.12598    0.0105263 0.0086472007         1706 
 1807000    0.5305989   -8.5218554    228.46407  0.010536067 0.0086390343         1718 
 1808000   0.52550199   -8.5155423    228.69757  0.010541002 0.0086308793         1691 
 1809000   0.54339806    -8.516074    228.51532  0.010526779 0.0086227207         1662 
 1810000   0.53181873   -8.5310959    228.14719  0.010504014 0.0086145801         1656 
 1811000   0.53443373   -8.5238852    227.99709  0.010491307  0.008606446         1678 
 1812000   0.53160696   -8.5219381    228.35535  0.010501994 0.0085983343         1723 
 1813000   0.53845796   -8.5404291    228.49655  0.010502691 0.0085902226         1669 
 1814000   0.51544983   -8.5276807    228.36033  0.010490644 0.0085821227         1725 
 1815000   0.52393407   -8.5223207    228.67266  0.010499204 0.0085740407         1652 
 1816000   0.52709203   -8.5118419    228.35535  0.010478861 0.0085659655         1674 
 1817000   0.54418646    -8.526072    228.52786  0.010481006 0.0085579008         1602 
 1818000   0.52829232   -8.5154379     228.5842  0.010477824 0.0085498553         1732 
 1819000   0.51367097   -8.5269572    228.61918  0.010473666 0.0085418172         1691 
 1820000    0.5186881    -8.541752    228.34379  0.010455302 0.0085337863         1715 
 1821000   0.53919597   -8.5394794    228.37535  0.010451005 0.0085257651         1718 
 1822000   0.51922787   -8.5330837    228.41573  0.010447116 0.0085177567         1684 
 1823000   0.52714041   -8.5137561    228.66562  0.010452808 0.0085097678         1620 
 1824000   0.53505031   -8.5025602    228.74485  0.010450697 0.0085017873         1669 
 1825000   0.52817563   -8.5208892    228.63552  0.010439978 0.0084938183         1672 
 1826000   0.52692094   -8.5297008    228.44119  0.010425392 0.0084858569         1703 
 1827000   0.52328997   -8.5225408    228.65135  0.010429271 0.0084778911         1663 
 1828000   0.53103947   -8.5188805    228.59315  0.010420913  0.008469944         1697 
 1829000   0.52363893   -8.5432945    228.45364  0.010408859 0.0084620128         1662 
 1830000   0.52870715   -8.5255335    228.58073  0.010408959 0.0084540839         1650 
 1831000   0.53029314   -8.5239923    228.44647  0.010397163 0.0084461686         1684 
 1832000   0.52061232   -8.5413546    228.06698  0.010374226 0.0084382567         1721 
 1833000   0.51847378   -8.5424773    228.33301  0.010380661 0.0084303527         1649 
 1834000   0.51783441   -8.5328374    228.64737  0.010389285 0.0084224619         1662 
 1835000   0.52465188   -8.5413578    228.05056  0.010356519 0.0084145745         1675 
 1836000   0.51338947   -8.5362156    228.48656  0.010370668 0.0084067008         1607 
 1837000   0.52456794   -8.5471861    228.53851  0.010367379  0.008398843         1680 
 1838000   0.51470841   -8.5263771    227.80558  0.010328508 0.0083909981         1722 
 1839000   0.51377041   -8.5312292    228.30296   0.01034543 0.0083831613         1679 
 1840000   0.51459452   -8.5315944    228.17234  0.010333892 0.0083753378         1644 
 1841000   0.51048382   -8.5509405    228.33477  0.010335631 0.0083675196         1705 
 1842000   0.51396301    -8.538625    228.44111  0.010334831 0.0083597084         1636 
 1843000    0.5204375   -8.5480372    228.23909  0.010320089 0.0083519151         1674 
 1844000   0.51491303   -8.5419234    228.22844  0.010314011 0.0083441226         1720 
 1845000   0.52545304   -8.5383849    228.34475  0.010313674 0.0083363445         1669 
 1846000   0.51575202   -8.5382161    228.66891  0.010322721 0.0083285743         1708 
 1847000   0.50855932   -8.5473617    228.69479  0.010318299 0.0083208107         1583 
 1848000   0.51197471   -8.5552603    228.16915  0.010289013 0.0083130578         1666 
 1849000   0.51323018   -8.5497224    228.41658    0.0102946 0.0083053163         1695 
 1850000   0.51558609   -8.5690742    227.99065  0.010269849 0.0082975834         1730 
 1851000    0.5265991   -8.5494865    227.97783  0.010263724 0.0082898591         1622 
 1852000   0.51310223   -8.5483538    227.98249  0.010258391 0.0082821463         1711 
 1853000   0.49914359   -8.5437125    228.08209  0.010257334 0.0082744444         1715 
 1854000   0.51351151   -8.5626241    227.82991  0.010240467  0.008266749         1662 
 1855000   0.49941524   -8.5467046    227.91185  0.010238627 0.0082590638         1676 
 1856000   0.51831958   -8.5535957    228.06324  0.010239908 0.0082513893         1635 
 1857000   0.50659794   -8.5331399    227.91736  0.010227848 0.0082437171         1652 
 1858000   0.51213292   -8.5549763    228.14181   0.01023241 0.0082360687         1644 
 1859000   0.52220802   -8.5428438    228.02645  0.010221734 0.0082284218         1599 
 1860000   0.50629411   -8.5646012    227.89205  0.010210217 0.0082207817         1758 
 1861000   0.51231784   -8.5525893    228.12009  0.010214942 0.0082131487         1635 
 1862000   0.51304809   -8.5529308    227.98238  0.010203293 0.0082055208         1704 
 1863000   0.52479139   -8.5560827    228.25504  0.010210013 0.0081979019         1729 
 1864000   0.51152338   -8.5488213    228.01065  0.010193609 0.0081902923         1712 
 1865000    0.5004773   -8.5512871    227.91376  0.010183814 0.0081827002         1720 
 1866000   0.50763538   -8.5562984    228.03335  0.010183697 0.0081751102         1661 
 1867000   0.49779034   -8.5528282    228.23932  0.010187436 0.0081675298         1613 
 1868000   0.51880541   -8.5444579    228.06222  0.010174082 0.0081599577         1731 
 1869000   0.49870025   -8.5627672    228.40148  0.010183765 0.0081523998         1745 
 1870000   0.51563129    -8.559805    228.26657  0.010172307 0.0081448456         1689 
 1871000   0.50024659   -8.5694828    227.91318   0.01015113 0.0081373007         1782 
 1872000   0.51129533   -8.5590802    227.70403  0.010136397 0.0081297639         1719 
 1873000   0.50593741   -8.5796458    227.63473  0.010127902 0.0081222354         1708 
 1874000   0.50568033   -8.5674087    228.21321  0.010148222 0.0081147205         1690 
 1875000   0.48841083   -8.5591794    228.16599  0.010140711 0.0081072171         1723 
 1876000    0.5118147   -8.5346832    228.25613  0.010139309 0.0080997196         1714 
 1877000    0.5122827   -8.5634071    227.69261  0.010108889 0.0080922308         1803 
 1878000    0.4989633   -8.5680802    227.79949  0.010108249 0.0080847443         1730 
 1879000   0.49912129   -8.5753589    227.71117  0.010098952 0.0080772724         1683 
 1880000   0.49588455   -8.5647791    227.98781  0.010105843  0.008069814         1755 
 1881000   0.49573077   -8.5705591    228.12486  0.010106542 0.0080623658         1703 
 1882000    0.5015475   -8.5715193    228.01163  0.010096158 0.0080549199         1728 
 1883000   0.49189992   -8.5844781    227.84327  0.010083345 0.0080474883         1748 
 1884000   0.48816066   -8.5559789    228.00036  0.010084942 0.0080400595         1743 
 1885000   0.49831504   -8.5453386    227.73357  0.010067797  0.008032638         1720 
 1886000   0.49047016   -8.5668274    227.70552   0.01006122 0.0080252397         1730 
 1887000   0.50395615   -8.5638512    227.65046  0.010053456 0.0080178426         1763 
 1888000   0.49239399   -8.5605176     228.4497  0.010083408 0.0080104555         1804 
 1889000   0.49772825   -8.5953135    227.98892  0.010057743 0.0080030669         1759 
 1890000   0.49278763   -8.5847384    227.95017  0.010050713 0.0079956959         1694 
 1891000   0.50554227   -8.5958883    227.47443  0.010024433 0.0079883366         1731 
 1892000   0.50801471   -8.5679712    227.90702  0.010038188 0.0079809816         1764 
 1893000   0.50774714    -8.577728    227.75285  0.010026098  0.007973637         1740 
 1894000    0.5012409   -8.5804013    227.64701  0.010016148 0.0079663022         1718 
 1895000   0.50530405   -8.5808549    227.77271   0.01001639 0.0079589736         1781 
 1896000    0.4859662   -8.5626661    227.80561  0.010012553   0.00795167         1701 
 1897000   0.48897945   -8.5693727    227.91124  0.010011915 0.0079443617         1710 
 1898000    0.4932555   -8.5722906    228.02395  0.010011589  0.007937071         1774 
 1899000   0.48545126   -8.5806535    227.55408 0.0099856975 0.0079297798         1773 
 1900000   0.50048927    -8.584691    227.51496 0.0099787262 0.0079224981         1737 
 1901000   0.49321347   -8.5736329    227.71015 0.0099820334 0.0079152168         1760 
 1902000   0.49449936   -8.5825183    227.78091 0.0099798858 0.0079079545         1760 
 1903000     0.488119   -8.5691768    228.03092 0.0099855895 0.0079007024         1728 
 1904000   0.47969274    -8.583083    227.95501 0.0099770225 0.0078934564         1754 
 1905000   0.49360377   -8.5812045    227.72266 0.0099616212  0.007886219         1682 
 1906000   0.48991431   -8.5700759     227.5481 0.0099487628  0.007878996         1765 
 1907000   0.50406598   -8.5896888    227.33881 0.0099344001 0.0078717827         1787 
 1908000   0.49733727   -8.5868106    227.79284 0.0099490235 0.0078645794         1761 
 1909000   0.48219431   -8.5774918    227.78105  0.009943297 0.0078573754         1776 
 1910000   0.49158047   -8.5787655    227.77262 0.0099377236 0.0078501837         1746 
 1911000   0.48864073   -8.5850547    227.31129 0.0099124058 0.0078429947         1703 
 1912000   0.48310054   -8.5854496    227.83072 0.0099298606 0.0078358147         1790 
 1913000   0.50016763   -8.5773952    227.83562 0.0099248831  0.007828644         1670 
 1914000   0.49046357   -8.5880088    227.67281 0.0099126092 0.0078214842         1756 
 1915000   0.47526843   -8.5945053     227.4383  0.009897228 0.0078143306         1742 
 1916000   0.49001627    -8.583319    227.80702 0.0099080993  0.007807189         1746 
 1917000   0.49237226   -8.5856765    227.60626 0.0098942037 0.0078000538         1764 
 1918000   0.47742209   -8.5937685    227.39421 0.0098798319 0.0077929222         1741 
 1919000   0.49673827   -8.6042931    227.32852  0.009871831 0.0077858051         1756 
 1920000   0.47730555   -8.5756218    227.42311 0.0098707948 0.0077787034         1743 
 1921000   0.48773001   -8.5986371    227.55415  0.009871341 0.0077715961         1728 
 1922000   0.48873369   -8.5920044    227.62582 0.0098693123 0.0077644979         1720 
 1923000   0.49024342   -8.6062502    227.34862 0.0098521678 0.0077574096         1728 
 1924000   0.48655176   -8.6045086    227.61783 0.0098587072 0.0077503305         1746 
 1925000   0.48729938   -8.5923883     227.7457 0.0098591212 0.0077432614         1738 
 1926000   0.49307939    -8.597478    227.52951 0.0098446484 0.0077361955         1762 
 1927000   0.48523206    -8.604205    227.56899 0.0098412469 0.0077291457         1700 
 1928000   0.48487526     -8.60252    227.50644 0.0098334386 0.0077221036         1743 
 1929000   0.47564236   -8.6016815    227.77286 0.0098398507 0.0077150684         1751 
 1930000   0.48099497   -8.6061833    227.75142 0.0098338266 0.0077080419         1777 
 1931000    0.4773252   -8.5997794    227.42578 0.0098146807  0.007701026         1738 
 1932000   0.48203505   -8.5792433    227.71866 0.0098222333 0.0076940207         1813 
 1933000   0.48646434   -8.6033353    227.27247 0.0097979166 0.0076870272         1820 
 1934000   0.49016496   -8.6018006    227.62793 0.0098081668 0.0076800393         1748 
 1935000    0.4784092   -8.6076609     227.3771 0.0097922954 0.0076730545         1735 
 1936000   0.47685857   -8.5933713     227.5177 0.0097932893  0.007666081         1796 
 1937000   0.47457864   -8.6141959    227.49808 0.0097873893  0.007659116         1734 
 1938000   0.48372292   -8.5919383    227.38645  0.009777539 0.0076521554         1718 
 1939000   0.48898876    -8.609202    227.67264 0.0097847963  0.007645203         1667 
 1940000   0.48493829   -8.6013231    227.08193 0.0097543785  0.007638268         1723 
 1941000    0.4796156   -8.5922211     227.3956 0.0097628197 0.0076313358         1809 
 1942000   0.46489979   -8.6173406     227.5333 0.0097637017 0.0076244142         1679 
 1943000   0.48743613    -8.603598    227.58081  0.009760714 0.0076175074         1669 
 1944000   0.48633888   -8.6027851    227.75014 0.0097629518 0.0076106074         1768 
 1945000   0.47717978   -8.6124471    227.56621 0.0097500518 0.0076037114         1719 
 1946000   0.47638531    -8.605307    227.56985 0.0097451974 0.0075968264         1728 
 1947000   0.48297651   -8.6233532    227.63309 0.0097428988 0.0075899482         1748 
 1948000    0.4746117   -8.5917947    227.34535 0.0097255882 0.0075830726         1744 
 1949000   0.47714895   -8.5941673    227.44107 0.0097246909  0.007576209         1748 
 1950000   0.45697071   -8.6040823    227.44043 0.0097196767 0.0075693548         1737 
 1951000   0.47701816   -8.6144866    227.23965 0.0097061187 0.0075625026         1718 
 1952000   0.46712157   -8.6013627    227.19318 0.0096991626 0.0075556621         1750 
 1953000    0.4796594   -8.6023838     227.2357 0.0096960106 0.0075488287         1765 
 1954000   0.47566748   -8.6029043    227.55164 0.0097045225 0.0075420078         1685 
 1955000   0.47307826   -8.6048229    227.42778 0.0096942788  0.007535189         1745 
 1956000   0.46681396   -8.6154879    227.50147 0.0096924621 0.0075283836         1719 
 1957000   0.47262643   -8.6137106    227.65421 0.0096940132 0.0075215871         1710 
 1958000   0.46937966   -8.6140862     227.3204 0.0096748555 0.0075147927         1730 
 1959000   0.46366846   -8.6112733     227.1734 0.0096636634 0.0075080144         1757 
 1960000   0.46240535    -8.612107    227.21974 0.0096607032 0.0075012408         1710 
 1961000    0.4780195   -8.6040269    227.23456 0.0096564066  0.007494475         1707 
 1962000   0.48190867   -8.6318198    227.54893 0.0096648373  0.007487716         1717 
 1963000   0.46617471   -8.6265719    227.80248 0.0096706776 0.0074809671         1698 
 1964000   0.47030641   -8.6086735    227.43033  0.009649963 0.0074742173         1679 
 1965000   0.45761369   -8.6353849    226.92578 0.0096236549 0.0074674805         1741 
 1966000   0.45462395   -8.6255734    226.83063 0.0096147268 0.0074607452         1715 
 1967000   0.47332818    -8.622503    227.12581  0.009622344 0.0074540244         1760 
 1968000   0.45411968   -8.6398763    226.93728 0.0096094715 0.0074473128         1732 
 1969000   0.45441162   -8.6028361    227.64287 0.0096344536 0.0074406017         1750 
 1970000   0.45821866   -8.6130185    227.33982 0.0096167438 0.0074339039         1755 
 1971000   0.46389176   -8.6141579    226.91743  0.009594006 0.0074272064         1720 
 1972000    0.4656998    -8.622028    227.17963 0.0096002208 0.0074205217         1774 
 1973000   0.47027679   -8.6363328    227.47393 0.0096077855 0.0074138514         1752 
 1974000     0.467588   -8.6435221    226.98619 0.0095823282 0.0074071826         1784 
 1975000   0.47187816    -8.625961    227.53665 0.0096007024 0.0074005232         1797 
 1976000    0.4673956   -8.6191159     227.2953 0.0095856653 0.0073938685         1785 
 1977000   0.46453392   -8.6167383    227.10329 0.0095727234 0.0073872244         1756 
 1978000   0.46257431   -8.6209455    227.11927 0.0095685572  0.007380584         1771 
 1979000   0.47779472   -8.6226972    227.31035 0.0095717681 0.0073739601         1756 
 1980000   0.46124096   -8.6165285    227.18316 0.0095615807 0.0073673392         1739 
 1981000   0.46073735   -8.6190024    227.00965 0.0095494551  0.007360728         1732 
 1982000    0.4578711   -8.6231971     227.0352 0.0095457114 0.0073541223         1740 
 1983000   0.45783079   -8.6174966    227.57374 0.0095635291 0.0073475278         1802 
 1984000   0.45602392   -8.6198977    227.21523 0.0095436504 0.0073409374         1780 
 1985000   0.46414968   -8.6215876    227.05805  0.009532244 0.0073343563         1774 
 1986000   0.46000604   -8.6334505     226.9805 0.0095241902 0.0073277813         1800 
 1987000   0.45744003   -8.6260833    227.63409 0.0095468078 0.0073212154         1813 
 1988000    0.4541837   -8.6201031    226.96639 0.0095140171 0.0073146643         1816 
 1989000   0.45873434   -8.6466818    226.98743 0.0095101154 0.0073081158         1807 
 1990000    0.4585034   -8.6321358    226.92838 0.0095028636 0.0073015745         1727 
 1991000   0.45006488   -8.6376865    227.34195 0.0095154006 0.0072950363         1766 
 1992000   0.45021579    -8.643263    227.41787 0.0095137999 0.0072885114         1748 
 1993000   0.44822591    -8.629173    227.65796 0.0095190652 0.0072819935         1796 
 1994000   0.45042822   -8.6399787    226.91431 0.0094832124 0.0072754778         1769 
 1995000   0.46176093    -8.638805    227.18149 0.0094896196 0.0072689712         1800 
 1996000   0.46642522   -8.6389132    227.20601  0.009485889 0.0072624734         1747 
 1997000   0.45408086   -8.6278749    226.52878 0.0094528783 0.0072559866         1827 
 1998000   0.46038595   -8.6442629    226.83586 0.0094609552 0.0072495085         1754 
 1999000   0.45120024   -8.6371254    226.94436 0.0094607453 0.0072430382         1794 
 2000000   0.45747866   -8.6381519    227.24529 0.0094685536 0.0072365677         1790 
 2001000   0.45221341   -8.6451909    227.05285 0.0094558074  0.007230116         1774 
 2002000   0.45939276   -8.6340717    226.88516 0.0094441042  0.007223665         1721 
 2003000   0.45860698   -8.6433031    226.73749 0.0094332454 0.0072172304         1817 
 2004000   0.45130548   -8.6520045    227.02474  0.009440483 0.0072107994         1786 
 2005000   0.44571277   -8.6406175    226.95962 0.0094330683 0.0072043753         1769 
 2006000   0.45391308   -8.6446388    227.37638 0.0094456787 0.0071979584         1757 
 2007000   0.45568739   -8.6370136     227.2069 0.0094339352 0.0071915427         1738 
 2008000   0.45222279   -8.6391129    226.91182  0.009416991 0.0071851314         1754 
 2009000   0.44700433   -8.6361648    227.00764 0.0094162784 0.0071787281         1759 
 2010000   0.45028345   -8.6261597    226.92276 0.0094080747 0.0071723395         1724 
 2011000   0.45633778    -8.635178    226.77612 0.0093973197  0.007165953         1770 
 2012000   0.44919129   -8.6516435    226.84209 0.0093953816 0.0071595732         1780 
Loop time of 5267.58 on 48 procs for 2000000 steps with 4000 atoms

Performance: 65608.841 tau/day, 379.681 timesteps/s
99.4% CPU use with 48 MPI tasks x no OpenMP threads

MPI task timing breakdown:
Section |  min time  |  avg time  |  max time  |%varavg| %total
---------------------------------------------------------------
Pair    | 370.92     | 403.93     | 432.27     |  69.3 |  7.67
Neigh   | 36.94      | 38.449     | 39.992     |  12.6 |  0.73
Comm    | 330.25     | 363.44     | 401.17     |  78.2 |  6.90
Output  | 5.6945     | 5.6968     | 5.7457     |   0.3 |  0.11
Modify  | 4390.4     | 4405.5     | 4418.9     |   9.3 | 83.63
Other   |            | 50.55      |            |       |  0.96

Nlocal:        83.3333 ave          89 max          74 min
Histogram: 1 0 6 4 2 4 8 6 13 4
Nghost:        2431.88 ave        2453 max        2416 min
Histogram: 7 3 8 4 7 6 5 4 2 2
Neighs:        16907.4 ave       19440 max       13698 min
Histogram: 1 1 6 5 7 7 5 8 5 3
FullNghs:      33814.8 ave       35955 max       29807 min
Histogram: 1 0 7 3 1 6 4 8 12 6

Total # of neighbors = 1623112
Ave neighs/atom = 405.77800
Neighbor list builds = 106544
Dangerous builds = 0

#clear
#
#next RN
#
#jump SELF
Total wall time: 1:27:51
