
units lj                  # Use reduced LJ style units
atom_style atomic         # Uncharged point particles
atom_modify map hash      # Needed for indexing of clusters etc
                          # Used to be able to find where atoms are in relation to each other.

lattice fcc 1.0 spacing 1 1 1
Lattice spacing in x,y,z = 1.5874011 1.5874011 1.5874011
region box block 0 10 0 10 0 10 units lattice
create_box 2 box
Created orthogonal box = (0.0000000 0.0000000 0.0000000) to (15.874011 15.874011 15.874011)
  3 by 4 by 4 MPI processor grid
create_atoms 1 box
Created 4000 atoms
  using lattice units in orthogonal box = (0.0000000 0.0000000 0.0000000) to (15.874011 15.874011 15.874011)
  create_atoms CPU = 0.003 seconds
set type 1 type/fraction 2 0.45 78393
Setting atom values ...
  1799 settings made for type/fraction
mass 1 1.0
mass 2 1.0
pair_style lj/cut  3.5
pair_modify tail  yes
pair_coeff 1  1  1.0  1.0   # Intearaction between 1 and 1 set with epsilon = 1 and sigma = 1
pair_coeff 1  2  1.5  0.8
pair_coeff 2  2  0.5  0.88

write_data data.0
System init for write_data ...
Neighbor list info ...
  update every 1 steps, delay 10 steps, check yes
  max neighbors/atom: 2000, page size: 100000
  master list distance cutoff = 3.8
  ghost atom cutoff = 3.8
  binsize = 1.9, bins = 9 9 9
  1 neighbor lists, perpetual/occasional/extra = 1 0 0
  (1) pair lj/cut, perpetual
      attributes: half, newton on
      pair build: half/bin/atomonly/newton
      stencil: half/bin/3d
      bin: standard
WARNING: Not all mixed pair coeffs generated from mixing. Use write_data with 'pair ij' option to store all pair coeffs. (../write_data.cpp:312)


#############################
#   M E L T   S Y S T E M   #
#############################

velocity all create 2.4 2750902 mom yes dist gaussian # Assign velocities
                                                    # Temperature 2.4, random number seed, zero linear momentum
                                                                                # Gaussian distribution

timestep 0.002   # simulation timestep
thermo 1000       # output thermodynamic data every 1000 steps bf 100

# Define a fix  in this case with index 1 applied to all
# particles in the simulation. This fix is for simulations
# in the anisotropic NPT ensemble. Note that we use the MTK
# correction.
fix 1 all npt temp 2.4 2.4 0.1 iso 5.68 5.68 0.5 mtk yes tchain 5 pchain 5 # Use NPT ensemble
                                                                         # Set temperature and pressure and damping
                                                                         # Numbers of thermostats in chain and in barostat
run 10000          # run for 10000 steps
Per MPI rank memory allocation (min/avg/max) = 3.642 | 3.644 | 3.648 Mbytes
Step Temp E_pair E_mol TotEng Press Volume 
       0          2.4   -5.5879345            0   -1.9888345   -4.1997978         4000 
    1000    2.3739292   -4.9783926            0    -1.418389    5.8304553    3771.2948 
    2000    2.4077778   -4.9672863            0   -1.3565225    5.5745149     3812.495 
    3000    2.3482855   -4.9988309            0   -1.4772833    5.6991241    3778.8304 
    4000     2.459703   -5.0106686            0   -1.3220365    5.9769102    3761.0552 
    5000    2.3868648    -5.039436            0   -1.4600338    5.5086726    3778.0955 
    6000     2.406531   -4.9866577            0   -1.3777637     5.495338    3806.3335 
    7000    2.4181789   -5.0458107            0   -1.4194491    5.5883328    3767.5927 
    8000     2.385658   -4.9506977            0   -1.3731053    5.8061722    3792.8454 
    9000    2.4226165   -5.0332354            0   -1.4002191    5.7218062    3767.6988 
   10000    2.3795989   -5.0051766            0   -1.4366707    5.5493859    3792.6049 
Loop time of 2.61668 on 48 procs for 10000 steps with 4000 atoms

Performance: 660378.335 tau/day, 3821.634 timesteps/s
99.6% CPU use with 48 MPI tasks x no OpenMP threads

MPI task timing breakdown:
Section |  min time  |  avg time  |  max time  |%varavg| %total
---------------------------------------------------------------
Pair    | 1.1337     | 1.216      | 1.3874     |   3.5 | 46.47
Neigh   | 0.2112     | 0.21905    | 0.24562    |   1.2 |  8.37
Comm    | 0.75027    | 0.89223    | 1.0315     |   5.0 | 34.10
Output  | 0.00024357 | 0.0002516  | 0.00032061 |   0.0 |  0.01
Modify  | 0.217      | 0.27358    | 0.32969    |   6.8 | 10.46
Other   |            | 0.01561    |            |       |  0.60

Nlocal:        83.3333 ave          99 max          75 min
Histogram: 4 6 11 9 7 7 3 0 0 1
Nghost:        1703.73 ave        1730 max        1665 min
Histogram: 1 1 2 2 9 11 7 4 8 3
Neighs:        10060.0 ave       12155 max        8798 min
Histogram: 2 8 7 8 10 8 3 1 0 1

Total # of neighbors = 482878
Ave neighs/atom = 120.71950
Neighbor list builds = 902
Dangerous builds = 189

# Equilibrate just above the melting temperature to avoid step fn in T

fix 1 all npt temp 1.25 1.25 0.1 iso 5.68 5.68 0.5 mtk yes tchain 5 pchain 5
run 2000
Per MPI rank memory allocation (min/avg/max) = 3.643 | 3.645 | 3.649 Mbytes
Step Temp E_pair E_mol TotEng Press Volume 
   10000    2.3795989   -5.0051766            0   -1.4366707    5.5493859    3792.6049 
   11000     1.246241   -7.0569825            0   -5.1880884    5.7444902    2973.5745 
   12000    1.2528967   -7.1318761            0   -5.2530008    5.9882305    2948.0752 
Loop time of 0.625269 on 48 procs for 2000 steps with 4000 atoms

Performance: 552722.225 tau/day, 3198.624 timesteps/s
99.7% CPU use with 48 MPI tasks x no OpenMP threads

MPI task timing breakdown:
Section |  min time  |  avg time  |  max time  |%varavg| %total
---------------------------------------------------------------
Pair    | 0.28476    | 0.30437    | 0.3395     |   2.4 | 48.68
Neigh   | 0.039694   | 0.041988   | 0.046012   |   0.7 |  6.72
Comm    | 0.18817    | 0.22921    | 0.25232    |   3.1 | 36.66
Output  | 5.2279e-05 | 5.3868e-05 | 7.0135e-05 |   0.0 |  0.01
Modify  | 0.041821   | 0.044735   | 0.047904   |   0.8 |  7.15
Other   |            | 0.004907   |            |       |  0.78

Nlocal:        83.3333 ave          90 max          77 min
Histogram: 7 2 3 9 3 6 9 2 3 4
Nghost:        2021.73 ave        2038 max        2009 min
Histogram: 5 4 2 11 7 7 4 5 2 1
Neighs:        12956.4 ave       14725 max       11772 min
Histogram: 4 8 8 4 10 5 3 2 1 3

Total # of neighbors = 621907
Ave neighs/atom = 155.47675
Neighbor list builds = 142
Dangerous builds = 11

#############################
# L I N E A R  Q U E N C H  #
#############################

# Define solid atoms. This closely follows ten Wolde  Ruiz-Montero and Frenkel  Faraday Discuss  1996  104  93-110
# Compute components of the per-atom q6 vector
compute q6 all orientorder/atom degrees 1 6 components 6 nnn NULL cutoff 1.3 # compute the Q6 parameter.
                                                                             # Use all neighbours within 1.3 unit cell.

# get number of connections
compute coord_number all coord/atom orientorder q6 0.5

# An atom is solid if it has 8 or more connections (of a possible 14)
variable is_solid atom c_coord_number>=8
group solid dynamic all var is_solid    # Must be dynamic to update
dynamic group solid defined

# do clustering
compute cluster solid cluster/atom 1.3 # Create a cluster where all atoms within are solid and max 1.3 units from another member

# define chunks one chunk per cluster
compute clus_chunks solid chunk/atom c_cluster nchunk every compress yes  # Says which atoms are in which chunk

# count the size of each chunk
compute size_chunks solid property/chunk clus_chunks count


# Find the maximum entry in the vector of chunk sizes
variable max_n equal max(c_size_chunks)


# Thermo style which includes this variable
# thermo_style custom step temp pe vol v_max_n

thermo ${N}  # Print the thermo information every 100 steps
thermo 1000  

# Reset the npt fix at a lower temperature (below freezing)
fix 1  all npt temp  ${temp} ${temp}  0.1  iso  5.68  5.68  0.5  mtk yes tchain  5  pchain  5
fix 1  all npt temp  0.45 ${temp}  0.1  iso  5.68  5.68  0.5  mtk yes tchain  5  pchain  5
fix 1  all npt temp  0.45 0.45  0.1  iso  5.68  5.68  0.5  mtk yes tchain  5  pchain  5

dump dmp2 all dcd ${N} traj.dcd
dump dmp2 all dcd 1000 traj.dcd


compute msd all msd com yes
variable twopoint equal c_msd[4]/6/(step*dt+1.0e-6)
fix 9 all vector 10 c_msd[4]
variable fit equal slope(f_9)/6/(10*dt)
thermo_style custom step temp pe c_msd[4] v_twopoint v_fit v_max_n

fix 1 all npt temp 1.25 ${temp} 0.1 iso 5.68 5.68 0.5 mtk yes tchain 5 pchain 5
fix 1 all npt temp 1.25 0.45 0.1 iso 5.68 5.68 0.5 mtk yes tchain 5 pchain 5
run 5000000 # 5000000  # Run for this many steps
Neighbor list info ...
  update every 1 steps, delay 10 steps, check yes
  max neighbors/atom: 2000, page size: 100000
  master list distance cutoff = 3.8
  ghost atom cutoff = 3.8
  binsize = 1.9, bins = 8 8 8
  4 neighbor lists, perpetual/occasional/extra = 1 3 0
  (1) pair lj/cut, perpetual
      attributes: half, newton on
      pair build: half/bin/atomonly/newton
      stencil: half/bin/3d
      bin: standard
  (2) compute orientorder/atom, occasional
      attributes: full, newton on
      pair build: full/bin/atomonly
      stencil: full/bin/3d
      bin: standard
  (3) compute coord/atom, occasional
      attributes: full, newton on
      pair build: full/bin/atomonly
      stencil: full/bin/3d
      bin: standard
  (4) compute cluster/atom, occasional
      attributes: full, newton on
      pair build: full/bin/atomonly
      stencil: full/bin/3d
      bin: standard
Per MPI rank memory allocation (min/avg/max) = 9.835 | 9.838 | 9.841 Mbytes
Step Temp PotEng c_msd[4] v_twopoint v_fit v_max_n 
   12000    1.2528967   -7.1318761 4.0176686e-30 2.7900475e-32 8.3333333e+20            2 
   13000    1.2593325   -7.1349387   0.46610611 0.0029878596  0.037895623            3 
   14000    1.2306365   -7.1350163   0.88451883 0.0052649929  0.036161024            1 
   15000     1.258159   -7.1741978      1.26272 0.0070151109  0.034624362            1 
   16000    1.2378071   -7.1436693    1.6948103 0.0088271365  0.034188964            2 
   17000    1.2310038   -7.1471174    2.0837699  0.010214558  0.034160553            2 
   18000    1.2667784   -7.1228055    2.5003961  0.011575908  0.034155268            2 
   19000    1.2439044   -7.1848125    2.8737366  0.012604108  0.033956336            2 
   20000    1.2218338   -7.1618796    3.2622658  0.013592774  0.033800497            1 
   21000    1.2641716   -7.1977497    3.6403599  0.014445872  0.033479391            1 
   22000    1.2461779   -7.1060251    4.0212795  0.015232119  0.033279165            1 
   23000    1.2771305   -7.1478553    4.4148042  0.015995667  0.033054272            1 
   24000    1.2093371   -7.1311797    4.7988693   0.01666274   0.03294135            1 
   25000    1.2602193   -7.1174113    5.1914676  0.017304892   0.03279638            1 
   26000    1.2501133   -7.1200869    5.5784352    0.0178796  0.032714054            2 
   27000    1.2480312   -7.1451489    6.0097101  0.018548488  0.032697679            1 
   28000    1.3042411   -7.1655249    6.3953479  0.019033773  0.032721199       -1e+20 
   29000    1.2663355    -7.148357    6.8854416  0.019785751  0.032837829            3 
   30000    1.2423897   -7.1295621    7.3533794  0.020426054  0.033029407            1 
   31000    1.2290569   -7.1591214    7.7662308  0.020876964  0.033206473            3 
   32000    1.2325179   -7.1277895    8.1520075  0.021229186  0.033316025            1 
   33000    1.2641158   -7.1423999    8.5043595  0.021475655  0.033380792            3 
   34000    1.2753223   -7.1212777    8.8924084  0.021795118  0.033364847            1 
   35000    1.2707813    -7.149879    9.3468145   0.02225432  0.033372032            1 
   36000    1.2517997   -7.1672698    9.7486259  0.022566263  0.033419096            2 
   37000    1.2573664   -7.1984602    10.234133  0.023049849  0.033513513            2 
   38000    1.2493111   -7.1994046    10.719806  0.023508345   0.03367125            1 
   39000    1.2284862   -7.1401928    11.206494    0.0239455   0.03382392            1 
   40000    1.2372613   -7.1544509    11.625582  0.024219961  0.033962628            2 
   41000    1.2462461   -7.1527636     12.01859  0.024428028  0.034075958            2 
   42000    1.2415997   -7.1164788    12.480284  0.024762469  0.034177233            2 
   43000    1.2432358    -7.136841    12.808268  0.024822224  0.034250164            2 
   44000    1.2351723    -7.185273    13.037981  0.024693145  0.034276668            1 
   45000    1.2407787   -7.1214277    13.543672  0.025080874  0.034280152            5 
   46000    1.2560957   -7.1892983    13.977109   0.02532085  0.034271075            1 
   47000    1.2294752    -7.180644    14.375755  0.025488926  0.034284536            4 
   48000    1.2580996   -7.1645669      14.6886  0.025501041  0.034277863            2 
   49000    1.2379552   -7.1613771    15.160431  0.025783046  0.034260792            1 
   50000      1.25322   -7.1798248    15.611532   0.02601922  0.034269956            1 
   51000    1.2561991   -7.1039194     16.03357  0.026198644   0.03430044            2 
   52000    1.2544077   -7.1549351    16.566534  0.026548933  0.034320485            1 
   53000    1.2281386   -7.1196633     16.95262  0.026655063  0.034363867            2 
   54000    1.2471378   -7.1515497    17.357464   0.02678621  0.034386026            1 
   55000    1.2751946   -7.1809184    17.741234  0.026880657  0.034414129            1 
   56000    1.2584627   -7.1394687    18.234882  0.027135241  0.034452719            1 
   57000    1.2469377   -7.1771934    18.620877  0.027223504  0.034481704            2 
   58000    1.2425248   -7.1815928    19.047799  0.027367528  0.034502039            1 
   59000    1.2465307   -7.1557431     19.49173  0.027530692  0.034522198            1 
   60000    1.2605182   -7.1207974    19.879849  0.027610902  0.034542378            1 
   61000    1.2356483   -7.1734509    20.374452  0.027833951  0.034576672            1 
   62000    1.2396722   -7.1408038    20.967699  0.028182391  0.034608027            1 
   63000    1.2635338   -7.1324595    21.353381  0.028245213  0.034658981            1 
   64000    1.2472276   -7.1742256    21.777714  0.028356398  0.034709052            2 
   65000    1.2147366   -7.1450182    22.205493   0.02846858  0.034755662            2 
   66000    1.2687663   -7.1256933    22.729142  0.028698412  0.034802312            1 
   67000    1.2351264   -7.1171358    23.080084  0.028706572  0.034837301            2 
   68000    1.2390933   -7.1162134    23.506925  0.028807506  0.034881252            1 
   69000    1.2260807   -7.1796438     23.89315  0.028856461  0.034913106            2 
   70000    1.2456201   -7.0986938     24.27622  0.028900261  0.034924543            2 
   71000    1.2755927   -7.1774883    24.697596  0.028987789  0.034939533            1 
   72000    1.2476573    -7.211472    24.905359  0.028825647  0.034945438            2 
   73000    1.2406783    -7.188059     25.36998  0.028961165  0.034939429            3 
   74000    1.2318057   -7.1546563    25.679683  0.028918562  0.034926735            3 
   75000    1.2212734   -7.1337017    26.140346  0.029044829  0.034908537            4 
   76000    1.2268375   -7.1508499    26.525232  0.029084684  0.034892426            1 
   77000    1.2450826   -7.2181174     26.84521  0.029053257  0.034877048            1 
   78000    1.2006038   -7.2368898    27.213858  0.029074634  0.034849206            1 
   79000    1.2626596   -7.2010219    27.643347  0.029159648  0.034826665            2 
   80000    1.2444809   -7.1794534    28.080359  0.029250374  0.034805031            1 
   81000    1.2212228   -7.1304963    28.688766  0.029515191  0.034789556            1 
   82000    1.2397053   -7.1338956    28.992237  0.029463655  0.034781657            2 
   83000    1.2431983   -7.1584535    29.396473  0.029514531  0.034773068            1 
   84000    1.2547368   -7.1682133    29.853071  0.029616142  0.034773066            2 
   85000    1.2479126   -7.1364182    30.327762    0.0297331  0.034764905            1 
   86000    1.2174058   -7.1700152    30.847838  0.029891316  0.034763223            1 
   87000    1.2432066   -7.1028174    31.246887  0.029929968  0.034767311            2 
   88000    1.2240372   -7.1914081     31.54985  0.029876752  0.034767916            2 
   89000    1.2125833   -7.2025922    32.129817  0.030084098  0.034775308            3 
   90000    1.2191866   -7.1632382    32.475514   0.03006992  0.034780908            4 
   91000    1.2159346   -7.1606377    32.906037  0.030133733  0.034782516            1 
   92000    1.2518159   -7.1592273    33.212995  0.030084235  0.034775932            1 
   93000    1.2363247   -7.1488126    33.695135  0.030192773  0.034780744            1 
   94000    1.2479135   -7.1649177     34.00065   0.03014242  0.034782247            1 
   95000    1.2133468   -7.1312324    34.565759  0.030320841  0.034783597            1 
   96000     1.223374   -7.1900984    34.936241  0.030326598  0.034781898            1 
   97000     1.257801   -7.1755661    35.434813  0.030442279  0.034782476            1 
   98000    1.2308094   -7.2255338    35.667136  0.030329197  0.034779409            2 
   99000    1.2517349   -7.1642878    36.055003  0.030349329  0.034774471            1 
  100000    1.2648872    -7.175445    36.347201  0.030289334   0.03476473            2 
  101000     1.232777   -7.1586785    36.725442   0.03030152  0.034752046            1 
  102000    1.2215747   -7.1831779    37.301385  0.030474988  0.034736628            1 
  103000    1.2443259   -7.1845815    37.829659   0.03060652  0.034730067            2 
  104000    1.2234852   -7.1656502    38.129183   0.03055223  0.034721493            2 
  105000    1.2318471   -7.2090296    38.577336  0.030616933  0.034722973            1 
  106000    1.2325348   -7.1742874    39.007239  0.030666068  0.034723656            3 
  107000    1.2129609   -7.1706749    39.442328  0.030718323  0.034723506            2 
  108000    1.2262784   -7.1531019    39.984269   0.03085206  0.034725382            3 
  109000    1.2263163   -7.1644003    40.416418  0.030899402  0.034730175            1 
  110000    1.2280043   -7.1690395    40.543108  0.030714476  0.034726153            1 
  111000    1.2584097   -7.2254802    40.730619  0.030578543  0.034714295            4 
  112000    1.2429306   -7.1895317    41.097498  0.030578496  0.034694697            1 
  113000    1.2455492   -7.1753632    41.790927  0.030819268  0.034679932            2 
  114000    1.2140496   -7.1864525    42.166672  0.030823591   0.03466701            3 
  115000    1.2070296   -7.1332517    42.656696  0.030910649  0.034662275            1 
  116000    1.2253388    -7.172813     42.89733  0.030817047  0.034653588       -1e+20 
  117000    1.2169687   -7.1897017    43.311592  0.030848712  0.034637976            1 
  118000    1.2277385   -7.2182758    43.595332  0.030787664  0.034621085            1 
  119000    1.2387695   -7.1514102    44.150052  0.030917403  0.034604918            1 
  120000    1.2389107   -7.1876388    44.378794  0.030818607  0.034588244            1 
  121000    1.2238568   -7.2015174    44.706533  0.030789623  0.034571832            1 
  122000    1.2331895   -7.1719488    45.183138  0.030862799  0.034558138            1 
  123000    1.2462392   -7.1548603    45.577212   0.03087887  0.034542711            1 
  124000    1.2303356   -7.1264613    45.936748  0.030871471  0.034526011            1 
  125000    1.2228663   -7.2014102    46.330567  0.030887045  0.034511704            2 
  126000    1.1931737   -7.2130921    46.790946  0.030946393   0.03449614            2 
  127000    1.2185895   -7.1686421    47.431136  0.031122793  0.034487549            1 
  128000    1.2436321   -7.2212715    47.490122  0.030918048  0.034474017            2 
  129000    1.2340795   -7.2050425    48.025533  0.031024246  0.034458586            2 
  130000    1.2070982   -7.2136293    48.523737   0.03110496  0.034445449            2 
  131000    1.2197374   -7.1629406    48.926596  0.031123789  0.034431967            1 
  132000    1.2446782   -7.1476711    49.598973  0.031312483  0.034427952            2 
  133000    1.2524202   -7.1951163    49.897512  0.031264105  0.034428244            1 
  134000    1.2380354    -7.208443    50.062157  0.031133182  0.034422878            1 
  135000    1.2146774    -7.186054    50.674597  0.031280615  0.034418877            4 
  136000    1.2456703   -7.2348784    51.016344  0.031260014  0.034413366            6 
  137000     1.217994   -7.2321507     51.31429  0.031213072  0.034407932            1 
  138000     1.229664   -7.2067206    52.100926  0.031461912  0.034407086            1 
  139000    1.2220836   -7.1537211     52.70876  0.031599976  0.034410411            1 
  140000    1.2290535   -7.2337201    52.960297  0.031523986  0.034415861            1 
  141000    1.2389973   -7.1830535    53.751539  0.031768049   0.03442286            1 
  142000    1.2524698   -7.1503081    54.252512  0.031838329  0.034437144            2 
  143000    1.2544827   -7.1970654    54.670302   0.03185915  0.034452729            5 
  144000    1.2355799   -7.1558379    54.976298  0.031814987  0.034463729            3 
  145000    1.2255732   -7.1785629    55.314303  0.031789829  0.034474572            2 
  146000    1.2558586   -7.2006045    55.813016  0.031856744  0.034484342            1 
  147000    1.2440729   -7.1906898    56.273285  0.031900955  0.034494679            2 
  148000    1.2010918   -7.1586642    56.961215  0.032072756  0.034509436            1 
  149000    1.2485737   -7.1850028    57.382061  0.032092875   0.03452445            1 
  150000    1.2116876   -7.1814678    57.780018   0.03210001  0.034540909            3 
  151000    1.2179475   -7.2510556    57.964601  0.031989294  0.034554965            1 
  152000    1.2172371   -7.1553245    58.658738  0.032159396  0.034567137            2 
  153000    1.2390776   -7.2074202    58.808954  0.032031021  0.034581904            2 
  154000     1.235871   -7.1889309    59.121725  0.031992276   0.03459313            2 
  155000    1.2655608   -7.2448716    59.513485  0.031996497  0.034600736            2 
  156000    1.2295897   -7.1914304    59.893924  0.031994617  0.034608853            1 
  157000    1.2219514   -7.2233217    60.503987  0.032114643  0.034616255            3 
  158000    1.2286432   -7.2341737    60.591168  0.031957367  0.034620397            1 
  159000    1.2363744   -7.2104774    61.010205  0.031975998  0.034622026            2 
  160000    1.2296413   -7.2248362     61.65042  0.032109594  0.034625196            1 
  161000    1.2254653   -7.2466914    61.994633  0.032088319  0.034628572            2 
  162000    1.2278608   -7.2050801    62.507346  0.032153984  0.034632682            2 
  163000    1.2109066   -7.1886035    62.689233   0.03204971  0.034637088            2 
  164000    1.2274999   -7.1875713    63.274369   0.03215161  0.034640207            2 
  165000    1.2293335   -7.1934927    63.332765  0.031986245  0.034639301            3 
  166000    1.2424207   -7.1851554    63.857607  0.032057032  0.034639415            3 
  167000    1.2283504   -7.1707907    64.608815  0.032239928  0.034640407            2 
  168000    1.2402305   -7.1942393     64.79707  0.032141403  0.034641986            1 
  169000    1.2248575   -7.2170416    65.172203  0.032136195  0.034642237            8 
  170000    1.2438378   -7.2267276    65.414415   0.03206589   0.03463961            1 
  171000     1.200924   -7.2484365    65.717553  0.032026098  0.034636847            1 
  172000    1.1983207   -7.2130543    66.279854  0.032112332  0.034632495            3 
  173000    1.2226722   -7.2654896    66.545054  0.032054458  0.034631604            4 
  174000    1.2185188    -7.219404    66.978708  0.032077925  0.034626664            2 
  175000    1.2277209    -7.262809    67.383598  0.032087428   0.03462422            3 
  176000    1.2170213   -7.2423509    67.696394  0.032053217  0.034620601            3 
  177000    1.2511089   -7.2058038    68.267544  0.032141028   0.03461561            1 
  178000     1.255749   -7.2101325    68.597013  0.032114706  0.034609526            3 
  179000    1.2362482   -7.1833107    68.887354  0.032070463  0.034603881            1 
  180000    1.2323549   -7.2027433    69.283089  0.032075504     0.034595            2 
  181000    1.2184497   -7.2135327    69.539359  0.032016279  0.034585986            2 
  182000      1.22907   -7.1409549    69.967416  0.032036363   0.03457711            1 
  183000    1.1997334   -7.2083889    70.137445  0.031938727  0.034565152            1 
  184000    1.2172792   -7.1935545    70.423468  0.031894687  0.034555002            1 
  185000    1.2360684   -7.2124755    70.764733  0.031876006  0.034542173            2 
  186000    1.2106528   -7.1819279    71.349054  0.031966422  0.034528209            1 
  187000     1.230129   -7.2137255    71.665383  0.031936445  0.034513814            1 
  188000     1.238214   -7.2085665    71.825718  0.031837641  0.034497907            1 
  189000    1.2300103     -7.21753    72.381116  0.031914072  0.034481013            2 
  190000    1.2344797   -7.1605421    72.900998  0.031974122  0.034463463            2 
  191000    1.2386598   -7.2111326    72.918695  0.031814439  0.034448523            2 
  192000    1.2307884   -7.1829069    73.534579   0.03191605  0.034435858            1 
  193000    1.2302097   -7.2506635    73.565812  0.031764167  0.034420531            1 
  194000    1.2273743   -7.1912338    74.074688  0.031819024   0.03440249            1 
  195000    1.1940938   -7.2218448    74.186673  0.031703706  0.034382665            2 
  196000    1.2223181   -7.2111847    74.941762  0.031862994  0.034363655            2 
  197000    1.2165703   -7.1869581    75.331252  0.031866012  0.034347761            1 
  198000    1.2222273   -7.2254962     75.92652  0.031955606  0.034333778            1 
  199000    1.2386436    -7.222741    76.346869   0.03197105  0.034323679            3 
  200000    1.2401213   -7.2183052    76.244735   0.03176864  0.034309357            1 
  201000    1.2058899   -7.1702981     77.10256  0.031966235  0.034295831            6 
  202000    1.2413921   -7.2043102    77.391075  0.031927011  0.034282397            3 
  203000    1.2120547   -7.1718171    77.763955  0.031922806  0.034268175            1 
  204000    1.2099334   -7.1961222    77.944615   0.03184012  0.034252622            3 
  205000    1.2215447   -7.1808764    78.463977  0.031895926  0.034235765            2 
  206000    1.2219627   -7.1653427     78.58789  0.031791218  0.034219599            3 
  207000     1.188403   -7.1767487    79.065937  0.031830087  0.034205535            3 
  208000    1.2015812     -7.23663    79.209168  0.031734442  0.034190402            1 
  209000    1.2461051   -7.2017797    79.795504  0.031816389  0.034175011            4 
  210000    1.2178125   -7.2139612    80.013447  0.031751368  0.034158206            2 
  211000    1.2279034   -7.1937606    80.205472  0.031676727  0.034141837            2 
  212000    1.2163581   -7.2080033    80.982179  0.031832618   0.03412445            2 
  213000    1.1979404   -7.1765593    81.265704  0.031794094  0.034105989            1 
  214000    1.2208397   -7.1965166    81.715671  0.031820744  0.034088067            1 
  215000    1.2311118   -7.2087715    81.865737  0.031730906  0.034068472            2 
  216000     1.209896   -7.1808791    82.180036  0.031705261  0.034050124            1 
  217000    1.1994279   -7.2411859    82.342155  0.031621411  0.034029452            3 
  218000      1.19658   -7.2572574    82.762878  0.031637186  0.034010594            3 
  219000    1.1629631   -7.2287003    82.973697  0.031572944  0.033991123            2 
  220000    1.2270244   -7.1770814      83.5383  0.031643295  0.033971778            1 
  221000    1.2128946   -7.2042732    83.928843  0.031647377  0.033952854            1 
  222000    1.2088916   -7.2652018    84.375715  0.031672566  0.033935336            1 
  223000    1.2387692   -7.2389341    85.024294  0.031772905  0.033918184            1 
  224000    1.2096362   -7.2566544    85.215908  0.031702346  0.033901663            2 
  225000    1.2070948   -7.2226093    85.632175   0.03171562  0.033885407            2 
  226000    1.2022122   -7.2381255    85.910771  0.031678013  0.033868385            1 
  227000    1.1996508   -7.2344947    86.412445   0.03172263  0.033851894            1 
  228000    1.2278242    -7.171401    87.030785  0.031809497  0.033836606            1 
  229000    1.2088218   -7.1938408    87.136891  0.031709203  0.033821172            2 
  230000    1.1997977   -7.2062327    86.939291  0.031499743  0.033803233            1 
  231000    1.2106431   -7.2249746    87.642404  0.031617029  0.033785501            3 
  232000    1.2383544   -7.2253325     88.42976  0.031763563  0.033769829            2 
  233000    1.2236875   -7.2639121    88.177986  0.031537191    0.0337536            1 
  234000    1.2132737   -7.2299523     89.09006  0.031727229  0.033737197            3 
  235000    1.1935683   -7.2098212    89.338395  0.031680282  0.033721731            1 
  236000    1.1971562   -7.3106785    89.273673   0.03152319  0.033706276            2 
  237000     1.231176   -7.2782756     89.89875  0.031609968  0.033689361            1 
  238000    1.2324355   -7.2545011    90.259521  0.031603474   0.03367208            3 
  239000    1.2012713   -7.2359345    90.436011  0.031532779  0.033655174       -1e+20 
  240000    1.2358168   -7.2363175    90.615645  0.031463766  0.033636054            2 
  241000    1.2293435   -7.2653451     90.86249  0.031418565  0.033616398            2 
  242000    1.2151358    -7.231792    91.026532  0.031345225  0.033593871            1 
  243000     1.211037   -7.2194158    91.954793  0.031534566  0.033574542            2 
  244000    1.2336483   -7.1961917    92.501592  0.031592074  0.033556065            1 
  245000    1.1932459   -7.2171707      92.4695  0.031452211  0.033536922            1 
  246000    1.2042183   -7.2262262    92.328459  0.031276578  0.033515921            3 
  247000     1.223494   -7.2564952    92.815309  0.031314207   0.03349565            1 
  248000    1.2269601   -7.2121029    93.701693  0.031485784  0.033475646            1 
  249000    1.2122732   -7.2633748    93.607242  0.031327725  0.033457071            1 
  250000    1.2069752   -7.2313701     93.98337   0.03132779  0.033435014            1 
  251000    1.1869621   -7.2528202    93.740467  0.031122333  0.033413396            2 
  252000    1.2123898   -7.2202969    94.935124   0.03139389  0.033393172            3 
  253000    1.2126003   -7.2083918    94.989567  0.031287736  0.033372519            2 
  254000    1.2213817   -7.2753803    95.076765  0.031193164  0.033350632            2 
  255000    1.2010784   -7.2316231    95.554913  0.031227096  0.033326346            2 
  256000    1.2193598   -7.2171015    95.893004   0.03121517   0.03330307            2 
  257000    1.2220132   -7.2484167    96.011567  0.031132155   0.03328067            1 
  258000    1.2124176   -7.2289565    96.807043  0.031268425  0.033261003            2 
  259000    1.2308825   -7.2276316    97.109617   0.03124505  0.033239697            2 
  260000    1.2020635   -7.1983528      97.7959   0.03134484  0.033220451            2 
  261000    1.2273827   -7.2233152    97.956797  0.031276117  0.033201184            2 
  262000     1.212972   -7.2785187    97.933832  0.031149438  0.033181069            2 
  263000    1.2016002   -7.2158505    98.506437  0.031212432  0.033162108            2 
  264000    1.1962149   -7.2485061    98.764209  0.031175571  0.033142814            1 
  265000    1.1967951   -7.2446531    99.240219  0.031207616  0.033122375            1 
  266000    1.2079593   -7.2512689    99.583571  0.031197861   0.03310275            1 
  267000    1.1870888   -7.2301021    100.03556  0.031222084  0.033083719            2 
  268000    1.2031187   -7.2573106    100.19165   0.03115412  0.033066293            4 
  269000    1.2091302   -7.2137295    101.00203  0.031289354  0.033049254            1 
  270000    1.2139517   -7.2547563    101.36773  0.031286337  0.033032961            2 
  271000    1.2058049    -7.180156    101.86376  0.031323418  0.033016583            1 
  272000    1.2157907   -7.2542748    101.81547  0.031193465  0.032999719            2 
  273000    1.2116239   -7.2698681    102.40577  0.031259392  0.032983459            2 
  274000     1.218721   -7.2289386    102.81682  0.031270324   0.03296773            2 
  275000    1.2026537   -7.2205403    103.51154  0.031367132  0.032952377            1 
  276000    1.1889771   -7.2975065    103.38949  0.031216634  0.032937286            3 
  277000    1.1814385   -7.2115266    103.86528  0.031247077  0.032921478            1 
  278000    1.2350164   -7.2394592    104.38734   0.03129117  0.032905246            1 
  279000    1.1951567   -7.1933075    104.99005  0.031359037  0.032891376            2 
  280000    1.2160276   -7.2060586    104.91879   0.03122583  0.032877871            4 
  281000    1.1753548   -7.2878246    105.38027  0.031251562  0.032865019            3 
  282000    1.2081065   -7.2663599    106.25607  0.031399546  0.032851838            2 
  283000    1.2425366   -7.2226615     106.5403  0.031372292   0.03284019            2 
  284000    1.1897243   -7.2701261    106.51116  0.031253274   0.03282798            1 
  285000     1.248793   -7.2363887    107.40935  0.031406243  0.032815585            1 
  286000    1.2000935   -7.2188135    107.58739  0.031348306  0.032802947            2 
  287000    1.2024176   -7.2374794    107.80967  0.031303619  0.032790872            2 
  288000     1.204153   -7.2361534    107.80038  0.031192241  0.032776152            1 
  289000    1.1912668   -7.2947675    108.11594  0.031175299  0.032761192            3 
  290000    1.1818804   -7.2482794    108.77144  0.031256161  0.032747688            2 
  291000     1.182937   -7.2396696      109.137  0.031253437  0.032734554            2 
  292000    1.2001797   -7.2539929    109.13527  0.031145909  0.032720674            2 
  293000     1.211594   -7.2766701     109.4468  0.031128214  0.032705982            2 
  294000    1.1792631   -7.2771779    109.81909  0.031127859  0.032691006            1 
  295000    1.2116917   -7.2396091    110.39714  0.031185632  0.032676074            1 
  296000    1.1835781   -7.2317393    110.50929   0.03111185  0.032660699            5 
  297000    1.1922809    -7.254673    110.73719   0.03107104  0.032645638            3 
  298000    1.1974883   -7.2426749    111.95099  0.031306205  0.032631793            1 
  299000    1.1708049   -7.2633302    111.30596  0.031021729  0.032617193            2 
  300000    1.2049509   -7.2751903    111.87871  0.031077419  0.032601485            3 
  301000    1.1828766   -7.2565682    112.16752  0.031054129  0.032586212            1 
  302000    1.2189213   -7.2618403    112.75221  0.031112642   0.03257071            1 
  303000    1.2103242   -7.2619898    112.78694  0.031019511  0.032555272            1 
  304000     1.215669   -7.2327462    113.55933  0.031129202  0.032539679            5 
  305000    1.1936334   -7.2512867    113.86864  0.031111651  0.032526336            1 
  306000     1.215124   -7.2649232     114.0705  0.031064951  0.032512446            3 
  307000    1.2112153    -7.241457    114.93296  0.031197871  0.032498927            2 
  308000    1.1878225   -7.2612679    114.87868  0.031081893  0.032485688            1 
  309000      1.17897   -7.2573707    114.88535  0.030983105  0.032471555            1 
  310000    1.1792892    -7.244993    115.98622  0.031179091  0.032456488       -1e+20 
  311000    1.2071131   -7.2386195    116.04669  0.031095039  0.032442481            3 
  312000    1.2190324   -7.2811376    115.91441  0.030960046  0.032427836            3 
  313000    1.2237314   -7.2786193     115.9898  0.030881205  0.032413414            1 
  314000    1.1990054   -7.1930062    117.15201  0.031091297  0.032398018            3 
  315000    1.2130305   -7.2105509    117.26944  0.031023663  0.032383106            1 
  316000    1.2054075   -7.2797559    117.35614   0.03094835  0.032367988            3 
  317000    1.2137311   -7.2062122    117.42378  0.030868502  0.032352922            3 
  318000    1.2333376   -7.2558642    117.69671  0.030842952  0.032338515            2 
  319000    1.1999788   -7.1784547    119.02395  0.031092987  0.032324948            1 
  320000    1.1832953   -7.2391839    119.11717  0.031020097  0.032311259            1 
  321000    1.1946913   -7.2666469    119.56163  0.031038844  0.032297549            1 
  322000    1.2021214    -7.234368      119.816  0.031008282  0.032285318            2 
  323000    1.2154203   -7.2406721    119.93668  0.030943416  0.032272152            2 
  324000    1.2176842   -7.2029699    120.56058   0.03100838  0.032258907            2 
  325000    1.2297657   -7.2655301    120.68058  0.030943739  0.032245202            3 
  326000    1.1836931   -7.3099104    120.91003  0.030907472  0.032231576            1 
  327000    1.1875274   -7.2857947    121.62509  0.030995182  0.032218385            4 
  328000    1.2125483    -7.337799    121.48934  0.030866195  0.032205281            2 
  329000    1.2014203   -7.2561578    122.30348  0.030978591  0.032191518            5 
  330000    1.1937392   -7.2732822     122.4151  0.030912904  0.032178035            2 
  331000    1.1894411   -7.2856984     122.8244  0.030922557  0.032166176            2 
  332000    1.2075659   -7.2449501    123.35441  0.030962451  0.032153686            2 
  333000    1.2029057   -7.2495054    123.80973  0.030983416  0.032140952            2 
  334000    1.1991976   -7.2433065    123.83931  0.030898032  0.032127722            1 
  335000    1.1833203   -7.2919692    123.87778  0.030815368   0.03211536            2 
  336000    1.2116159    -7.303853    124.52102  0.030883188  0.032102933            4 
  337000    1.1938058   -7.2623343     124.7969  0.030859767  0.032090889            2 
  338000    1.2093942   -7.2365437    125.35829  0.030906875  0.032078876            1 
  339000    1.1990013   -7.2368114    125.89551  0.030947766  0.032067202            1 
  340000    1.1995434   -7.2532911    126.56778  0.031021514  0.032056229            4 
  341000    1.1959872   -7.2363272    126.71607  0.030966782  0.032044998            4 
  342000    1.1776443   -7.3201165    126.59964  0.030847865  0.032032721            3 
  343000    1.2011377   -7.2859186    126.87997  0.030826037   0.03202159            1 
  344000    1.1936402   -7.3374045    126.98847  0.030762712  0.032010266            3 
  345000    1.1911427   -7.2562732    128.27491  0.030984277  0.031998645            2 
  346000     1.207064   -7.2348552    128.59329   0.03097141  0.031987703            2 
  347000    1.1867443    -7.284926    129.10926  0.031006066  0.031977637            1 
  348000    1.1895021   -7.2616932    129.40136  0.030986915  0.031968078            1 
  349000    1.2171403   -7.2421178     129.7363  0.030978104  0.031958682            1 
  350000    1.2384678   -7.2762516    129.89188  0.030926638  0.031949401            7 
  351000    1.1872339   -7.2609784    130.29103  0.030933293  0.031940205            1 
  352000    1.2026845   -7.2909168    130.61703  0.030922591  0.031930927            1 
  353000     1.185699   -7.2510931    131.14245   0.03095903  0.031920884            1 
  354000    1.1774602   -7.2907267     131.5632  0.030970621  0.031911309            1 
  355000    1.1809168   -7.3043048    131.75766  0.030929028  0.031902581            1 
  356000    1.1844506   -7.2669147    132.73334  0.031070539  0.031894423            1 
  357000    1.1695444   -7.3191326    132.48703   0.03092601  0.031886255            2 
  358000    1.1906131   -7.2720962      132.951  0.030947626  0.031877949            2 
  359000     1.208407   -7.2649067     133.5278  0.030995311  0.031870413            3 
  360000    1.2017318   -7.2641635    134.14647  0.031052423  0.031862737            3 
  361000    1.1928505   -7.2863126    133.88762  0.030906653  0.031853774            2 
  362000    1.1670733   -7.2901717    134.38575  0.030935947  0.031845005            2 
  363000    1.1917422   -7.2928969    135.11564  0.031018284  0.031837136            1 
  364000    1.1794051   -7.2683602    135.56542  0.031036039  0.031829662            3 
  365000    1.2001803   -7.3818548    135.41032  0.030915599  0.031822195            2 
  366000     1.189318   -7.3073707    135.85189  0.030931668  0.031814347            3 
  367000    1.1843736   -7.3087675    136.35455  0.030961524  0.031806448            7 
  368000    1.1856304   -7.2874313    136.35604  0.030877726  0.031797804            3 
  369000    1.2431643   -7.2903031    137.10826  0.030963925  0.031790134            3 
  370000    1.1663346   -7.2343329    137.75734  0.031026428  0.031783003            3 
  371000    1.1792509   -7.2668438    137.52185  0.030889903  0.031776262            2 
  372000    1.1765585   -7.2873683    138.48792   0.03102328  0.031769538            1 
  373000    1.1814765   -7.3032119    138.83643  0.031017969  0.031763002            1 
  374000    1.1971392   -7.3085882    139.10983  0.030995951  0.031757068            2 
  375000    1.1823736   -7.3429421    139.36817  0.030970705  0.031751145            2 
  376000    1.2104312   -7.3016147    140.15457  0.031062626   0.03174518            2 
  377000    1.1881715   -7.2712816    140.06412  0.030960238  0.031739577            1 
  378000    1.1745702   -7.2833973    140.58801   0.03099383  0.031733283            2 
  379000     1.171765   -7.2711352    140.62993  0.030921268  0.031726775            2 
  380000    1.1859829   -7.2932889    140.97695  0.030915997  0.031719564            2 
  381000    1.1964456   -7.2803464    141.34766  0.030915935  0.031711797            1 
  382000      1.17771    -7.297692    141.75599  0.030924082  0.031704978            2 
  383000    1.1879812   -7.3068577    141.73266  0.030838264  0.031698396            2 
  384000    1.1816817   -7.2577092    142.25145  0.030870539   0.03169079            4 
  385000    1.1946144   -7.2821602    142.85076  0.030920078  0.031682759            2 
  386000    1.1994253   -7.2859253    142.69678  0.030806731  0.031675059            3 
  387000     1.186775   -7.3127328    142.93041  0.030777435  0.031667833            2 
  388000    1.1728258   -7.2590832    144.14554  0.030959095  0.031661015            2 
  389000    1.1555329   -7.2905945    144.36359   0.03092622  0.031653882            2 
  390000     1.189503   -7.2705416    144.65785  0.030909797  0.031647883            2 
  391000      1.19174    -7.273886    145.08651  0.030922103  0.031641144            3 
  392000    1.1942454   -7.3022738    145.30403  0.030889461   0.03163434            1 
  393000    1.1947098   -7.2413394    145.82191  0.030920675  0.031627596            3 
  394000    1.1684925   -7.3017324    145.60909  0.030797184  0.031620238            1 
  395000    1.1807149   -7.2892643    146.00526  0.030802798  0.031613387            6 
  396000     1.200325   -7.2844163    146.71393  0.030874144   0.03160557            3 
  397000    1.2176036   -7.2733854    147.09763  0.030876917  0.031597588            1 
  398000    1.2012352    -7.354297    146.76753   0.03073022    0.0315901            1 
  399000    1.1985394   -7.3014861    147.40651  0.030786656  0.031581861            3 
  400000    1.1625288    -7.303804    147.56212  0.030742109  0.031573374            1 
  401000    1.2054924   -7.2663933    148.41039  0.030841727   0.03156589            1 
  402000    1.1951308   -7.2719021    148.74087  0.030833514  0.031558227            3 
  403000      1.19097   -7.2984995    149.00174  0.030810947   0.03155066            1 
  404000    1.1730742   -7.3130297    149.33941  0.030804333  0.031543346            2 
  405000    1.1878434   -7.3011773    149.35445  0.030731368  0.031535711            3 
  406000    1.1904799    -7.302142    149.44745  0.030674764  0.031527173            2 
  407000    1.2183471   -7.2684722    150.30845  0.030775686  0.031519177            3 
  408000    1.2107486   -7.2719474    150.19243  0.030676558  0.031511084            1 
  409000    1.1706625    -7.329746    150.47271   0.03065866  0.031502456            1 
  410000    1.1907636   -7.2710884    150.65191  0.030620306  0.031493767            2 
  411000    1.1920675   -7.3334404    151.20053  0.030657041  0.031485326            4 
  412000    1.1806698   -7.2881175     151.2744  0.030597573  0.031476086            2 
  413000    1.1978378   -7.3015533    151.67081  0.030603472  0.031466831            1 
  414000    1.1944161   -7.3098855     152.0204   0.03059992  0.031458093            1 
  415000    1.1836355    -7.249182    152.52359  0.030627228  0.031449072            2 
  416000     1.171141   -7.2724578    152.98966  0.030646968  0.031439931            2 
  417000    1.1917137   -7.3604664    152.73964  0.030523509  0.031430834            2 
  418000     1.193685   -7.2972382    153.07559  0.030517461  0.031421461            1 
  419000    1.1926301   -7.3222728    153.99196  0.030626881  0.031412232            2 
  420000    1.1797361   -7.3029406    153.86281  0.030528336  0.031403499            1 
  421000     1.189879   -7.2961816    154.54129  0.030590121  0.031394469            3 
  422000    1.1949662   -7.2912081    155.00289  0.030608785   0.03138617            2 
  423000    1.1850321   -7.2604872    155.51055  0.030636436  0.031378271            2 
  424000    1.1822812   -7.2801314    156.06203  0.030672568  0.031370774            2 
  425000    1.1836057   -7.2654454    156.10361  0.030608552  0.031363222            2 
  426000    1.1823713   -7.2672929    156.84735  0.030682189  0.031355544            1 
  427000    1.2015776   -7.3255382    156.84398  0.030609677  0.031347578            1 
  428000    1.1608114   -7.3126918    156.48474  0.030468213   0.03133943            1 
  429000    1.1844946   -7.3143131    157.33146  0.030561667  0.031331786            1 
  430000    1.2103969   -7.2914199    157.93991   0.03060851   0.03132435            4 
  431000    1.1924676   -7.3110451    158.50463   0.03064668  0.031316921            2 
  432000    1.1991434   -7.3029327     158.4721  0.030569463  0.031309484            1 
  433000    1.1889495    -7.282312    158.69231  0.030541245  0.031301944            1 
  434000    1.2102682   -7.3100485    158.84882  0.030500925  0.031294188            2 
  435000    1.1587249   -7.3203259    159.31214  0.030519567  0.031286635            2 
  436000    1.1744404   -7.3134803    159.80145   0.03054309  0.031278799            3 
  437000    1.1827513      -7.2813    159.95129  0.030501772  0.031270155            1 
  438000     1.178371   -7.3394002    159.67942  0.030380406  0.031260777            3 
  439000    1.1886726   -7.3318068    160.39872  0.030447745  0.031251716            4 
  440000    1.1681086   -7.2956713    160.91786  0.030476868   0.03124281            2 
  441000    1.1955724   -7.3079344    161.23732  0.030468126  0.031233544            1 
  442000    1.1571641   -7.3074971    160.99782  0.030354038  0.031224131            2 
  443000     1.207293    -7.311684     161.7107  0.030419619  0.031215114            1 
  444000    1.2057967   -7.3079191    162.62462  0.030522639  0.031206684            1 
  445000    1.1857247   -7.2728958    162.32382  0.030397718  0.031197736            3 
  446000    1.1805358   -7.3013811    162.69105  0.030398178  0.031188713            1 
  447000    1.1858349   -7.3064975    162.92739  0.030374234  0.031178696            1 
  448000    1.2013459   -7.3620299    163.14108  0.030346182  0.031169583            2 
  449000     1.187751   -7.3380116     163.8266  0.030405828  0.031160325            1 
  450000    1.1845723   -7.3099499    164.36492  0.030437949  0.031150963            1 
  451000    1.1537167   -7.3159819    164.31526  0.030361282  0.031142229            3 
  452000    1.1930416   -7.3271637    164.77817  0.030379457  0.031133248           13 
  453000    1.1750118   -7.3040665     165.4136  0.030429287  0.031124673            1 
  454000    1.1531533   -7.3018301    165.23173  0.030328878  0.031115205            4 
  455000    1.1675436   -7.2666133    165.57715  0.030325485  0.031105462            3 
  456000    1.1978424   -7.3390398    165.00546  0.030154506  0.031095083            1 
  457000    1.1965532   -7.3365795    165.98512  0.030267162  0.031084971            2 
  458000    1.1737601   -7.3119969    166.23317   0.03024621   0.03107447            2 
  459000    1.1882804   -7.3057969    166.38067  0.030207093  0.031064652            1 
  460000    1.1878747   -7.3096996    167.06356  0.030265137  0.031055387            2 
  461000    1.1592577   -7.3284319     167.4963  0.030277711  0.031045881            1 
  462000    1.1780804   -7.3087988    167.94654  0.030293387  0.031036408            4 
  463000    1.2091942   -7.3447242    167.87188  0.030214521  0.031026894            2 
  464000    1.2098172   -7.3371467    167.49424   0.03008158  0.031017286            3 
  465000    1.1844601   -7.2967852    168.20337  0.030143973  0.031006979            1 
  466000    1.1775871   -7.3244453    167.96534  0.030036721   0.03099625            2 
  467000    1.1864993   -7.3157969    168.42161   0.03005382  0.030985587            1 
  468000    1.2162427   -7.3323983    168.64888  0.030030072  0.030974633            1 
  469000    1.1663451   -7.3158405     168.6905  0.029973436    0.0309631            2 
  470000    1.1784953   -7.3103536    169.74266  0.030096217  0.030951986            1 
  471000    1.1633418   -7.3008246    169.45465  0.029981361  0.030941508            1 
  472000     1.195609   -7.3613795    170.26554  0.030061007  0.030930375            1 
  473000    1.1707822   -7.3212106    171.23573  0.030168381  0.030920355            2 
  474000    1.1716661   -7.3534822    170.70518   0.03001146  0.030910896            2 
  475000     1.161133   -7.2975797    171.96637  0.030169539  0.030900729            1 
  476000    1.1898723   -7.3736578    171.65648  0.030051905  0.030890889            3 
  477000    1.1606181   -7.3196124    172.13536  0.030072565  0.030880596            2 
  478000    1.1579924    -7.326118    172.30847  0.030039831  0.030870596            1 
  479000    1.1708765   -7.3243694    172.70386  0.030045905   0.03086037            2 
  480000    1.1667779   -7.3099698     173.2262  0.030073993  0.030849842            1 
  481000    1.1748611   -7.2829522    173.47185  0.030054027  0.030839815            2 
  482000     1.182592   -7.3154877    173.29861  0.029961723  0.030829271            2 
  483000    1.1700376   -7.3033177    173.84275  0.029993574   0.03081808            1 
  484000    1.1665667   -7.2954083     174.4972  0.030044283  0.030808036            4 
  485000    1.1808776   -7.3230718    174.47659  0.029978796  0.030797627            2 
  486000    1.1969377   -7.3353511    174.78736  0.029970398  0.030787172            1 
  487000    1.1384195   -7.2966131    175.31832  0.029999713  0.030776828            1 
  488000    1.2058936    -7.322103    175.68465  0.030000794  0.030766046            2 
  489000    1.1751497   -7.3237432    175.57792  0.029921254  0.030755111            1 
  490000    1.1636267   -7.3086211    175.96921  0.029926736   0.03074457            1 
  491000    1.1786849   -7.3367321    175.80071  0.029837187  0.030733675            6 
  492000    1.1525293   -7.3090026    176.80453  0.029946567  0.030723182            2 
  493000    1.1916953   -7.3355033    176.67659  0.029864197  0.030712719            2 
  494000    1.1697385   -7.3570035    176.80806   0.02982592  0.030701654            2 
  495000    1.1640675   -7.3410516    177.42848  0.029870114  0.030690889            2 
  496000    1.1840235   -7.3575509     177.9054   0.02989002  0.030680762            1 
  497000     1.192996    -7.338352    178.35257  0.029904857  0.030670546            1 
  498000    1.1898098   -7.2510196    179.00377  0.029953776   0.03066066            2 
  499000    1.1845056   -7.3614463    178.94378  0.029883731  0.030650142            1 
  500000     1.162015   -7.3066578    178.48991  0.029748318  0.030638998            1 
  501000    1.1720207   -7.3301783    179.30437  0.029824412  0.030627954            2 
  502000    1.1530694   -7.3283403    180.06104  0.029890611  0.030616793            1 
  503000    1.1918068   -7.3298838    179.18881  0.029686681  0.030606028            3 
  504000    1.1457689   -7.3254335    179.61349  0.029697998  0.030594921            1 
  505000    1.1906657   -7.3182674    180.30106   0.02975265  0.030583986            2 
  506000    1.1689612   -7.3888612    180.13985  0.029667301  0.030572939            4 
  507000     1.187326   -7.3786799     180.6818  0.029697863  0.030561574            2 
  508000    1.1633515   -7.3282426    180.97231  0.029687058  0.030550332            2 
  509000    1.1483572   -7.3490777    181.12678  0.029654024  0.030539386            2 
  510000    1.1754912     -7.32994    181.94089  0.029728903   0.03052843            3 
  511000    1.1615202   -7.3386335    181.98021  0.029677138  0.030517459            2 
  512000    1.1755851   -7.3407187    182.50223   0.02970414   0.03050645            2 
  513000     1.156817   -7.3167689     183.2969  0.029775325  0.030495995            2 
  514000    1.1714595    -7.302559    183.47146  0.029745698  0.030485127            2 
  515000    1.1498639   -7.3404831    183.52092  0.029695941  0.030474699            2 
  516000    1.1619731   -7.2926433    184.83556  0.029850705  0.030464111            1 
  517000    1.1636062   -7.3156382    184.73669  0.029777029  0.030454646            6 
  518000    1.1736265   -7.3394482    185.39068  0.029824756  0.030445369            2 
  519000    1.1546058   -7.3279567     186.2724  0.029908863  0.030436419            6 
  520000    1.1734354   -7.4035388    185.51652  0.029730212  0.030427757            1 
  521000    1.1475815   -7.3510007    186.68057  0.029859335  0.030418294            2 
  522000    1.1387075   -7.3369646    186.98432  0.029850626  0.030409354            2 
  523000    1.1689486   -7.3695049    186.61864  0.029735283  0.030400418            4 
  524000    1.1475374   -7.3051058    187.08413  0.029752565  0.030391203            2 
  525000    1.1628968   -7.3187941    187.99033  0.029839735  0.030382314            2 
  526000    1.1843201   -7.2976535    188.39235  0.029846697  0.030373147            2 
  527000    1.1835721   -7.3191894    188.44981  0.029799148  0.030364467            2 
  528000    1.1756108   -7.3227496    188.91656  0.029816376  0.030355446            2 
  529000    1.1508353   -7.3295493    189.21638  0.029807244  0.030346937            2 
  530000    1.1797076   -7.3429358    189.35923  0.029773463  0.030338432            3 
  531000    1.1784332   -7.3531691    189.76807  0.029781555  0.030329527            1 
  532000     1.170444   -7.3393326    189.77198  0.029726187  0.030320324            1 
  533000    1.1699153   -7.3635435     189.9888  0.029704315  0.030310978            1 
  534000    1.1609668   -7.3700925    190.07006   0.02966137  0.030302006            2 
  535000     1.160195    -7.316108    191.10164   0.02976661  0.030293261            2 
  536000    1.1411771   -7.2922275    191.82934  0.029824213  0.030284916            2 
  537000    1.1925829   -7.3591937    191.06608   0.02965023   0.03027659            2 
  538000    1.1286073   -7.3997466    191.61472  0.029680099   0.03026738            4 
  539000    1.1689546   -7.3206011    192.69216  0.029791615  0.030258665            2 
  540000    1.1629793   -7.2959828    192.93633  0.029774125  0.030250112            2 
  541000    1.1575345   -7.3269395    193.03718  0.029734624  0.030241515            2 
  542000    1.1716996   -7.3317598    192.55192  0.029605154  0.030232773            2 
  543000    1.1733679   -7.3382019    193.11972  0.029637772  0.030223971            3 
  544000    1.1639979   -7.3720007    193.37181  0.029621908  0.030215239            2 
  545000    1.1539742   -7.3883832    193.36183  0.029566029  0.030206059            2 
  546000    1.1600406    -7.307755    194.49982  0.029685564  0.030197037            1 
  547000    1.1461569    -7.316786    195.02909  0.029711928   0.03018872            2 
  548000    1.1488852   -7.3716285    194.55766  0.029586019  0.030180428            3 
  549000    1.1408868   -7.3364371    195.66494  0.029700203  0.030172402            1 
  550000    1.1780449   -7.3409702    196.02174  0.029700264  0.030164369            4 
  551000     1.167294   -7.3517478    196.32543  0.029692292  0.030156082            1 
  552000    1.1492999    -7.327516    196.69961   0.02969499   0.03014853            2 
  553000    1.1548016   -7.3747757    196.37293  0.029592062  0.030140147            2 
  554000    1.1924768   -7.3373989    197.79268  0.029752208  0.030131983            1 
  555000    1.1535577   -7.3430486    196.91184  0.029566343  0.030123227            1 
  556000    1.1429138   -7.3691146    197.33373  0.029576398  0.030114416            1 
  557000     1.144977   -7.3488676    198.29337  0.029666872  0.030106383            2 
  558000     1.192645   -7.3294778    198.32056  0.029617766  0.030098487            1 
  559000    1.1789514   -7.3925334     198.6492  0.029613774  0.030090849            2 
  560000    1.1744286   -7.3571858    199.37279  0.029668569  0.030083444            3 
  561000    1.1589053   -7.3502577     200.4346  0.029773411  0.030075857            1 
  562000     1.160007   -7.3309588    200.30049  0.029700547  0.030068946            1 
  563000    1.1731519   -7.3834805    200.86121  0.029730789  0.030062462            1 
  564000    1.1732879   -7.3489384    201.57923  0.029784165  0.030056116            2 
  565000    1.1549303   -7.3216345    201.28782  0.029688468  0.030049812            2 
  566000    1.1611427   -7.3687402    201.84456  0.029717986  0.030043704            3 
  567000    1.1447928   -7.3337653    202.41197  0.029748966   0.03003778            1 
  568000    1.1657751   -7.3836816    202.28735  0.029678308  0.030031749            5 
  569000    1.1797797   -7.3225527    203.31254  0.029776294  0.030025943            1 
  570000    1.1699418   -7.3500041    203.50728  0.029752527  0.030019936            1 
  571000     1.169897   -7.3676895    203.27869  0.029667059  0.030013451            6 
  572000    1.1661636   -7.3627896    204.01376  0.029722284  0.030007084            1 
  573000     1.166506    -7.377607    204.17052  0.029693211  0.030001452            1 
  574000    1.1865198   -7.3316072    205.20147  0.029791154  0.029995966            2 
  575000    1.1954069   -7.3607286    205.90466  0.029841255  0.029990701            4 
  576000     1.171011   -7.4029049    205.58657  0.029743428  0.029985712            2 
  577000    1.1539568   -7.3692993    205.23918  0.029641708  0.029980075            3 
  578000    1.1510445   -7.3482746    206.23345  0.029733773  0.029974409            2 
  579000     1.152853   -7.3451455    206.89735  0.029777973  0.029969011            2 
  580000      1.13754   -7.3716376    206.60788   0.02968504  0.029963341            1 
  581000    1.1532186   -7.3248017    207.57654  0.029772882  0.029957685            4 
  582000    1.1653395   -7.3415414    207.38765   0.02969468  0.029952189            2 
  583000      1.16359   -7.3327053    207.89179  0.029715807  0.029946957            1 
  584000    1.1755984   -7.3362935    208.75686  0.029788365  0.029941699            1 
  585000    1.1553352   -7.3703384    208.46711  0.029696169  0.029936451            2 
  586000    1.1372067   -7.3852499    208.70642  0.029679525  0.029931557            1 
  587000    1.1383232   -7.3380123    209.36288  0.029722158  0.029926305            1 
  588000    1.1607203   -7.3924224    209.29084    0.0296614  0.029920967            2 
  589000    1.1449777   -7.3967819    209.19182  0.029597032   0.02991485            3 
  590000    1.1212308   -7.3565464    209.62939  0.029608671   0.02990865            3 
  591000    1.1577441   -7.3543231    209.13718  0.029489169  0.029902036            3 
  592000    1.1393598   -7.3585655     210.2213  0.029591963     0.029896            1 
  593000    1.1454465   -7.3923028    209.89824  0.029496661   0.02988962            2 
  594000    1.1531273   -7.3822286    211.02194  0.029604649  0.029883259            1 
  595000    1.1552157   -7.3492418    211.29556  0.029593216  0.029877074            1 
  596000    1.1569302   -7.3935274    210.60186  0.029446569  0.029870414            1 
  597000    1.1596384   -7.3361234    212.31498  0.029636374  0.029863655            4 
  598000    1.1287703   -7.3560681    211.93725  0.029534177  0.029856997            4 
  599000    1.1646626   -7.3671679    212.06672  0.029502882  0.029850605            2 
  600000    1.1707774   -7.3367711    212.88766   0.02956773  0.029844209            2 
  601000    1.1440966   -7.3886173    212.88069  0.029517566  0.029837351            1 
  602000    1.1423145   -7.3454494    212.63937  0.029435128  0.029830404            4 
  603000    1.1363137   -7.3272726     214.3471  0.029622319  0.029823984            1 
  604000    1.1763411   -7.3769008    213.87138  0.029507641  0.029817441            2 
  605000    1.1760166     -7.35047    214.71262  0.029574741  0.029811135            1 
  606000    1.1451643   -7.3791199    215.40025  0.029620496  0.029805152            2 
  607000    1.1595772   -7.4431256    214.96199  0.029511531   0.02979971            2 
  608000    1.1671109   -7.3503723    216.33677  0.029651421  0.029793948            1 
  609000    1.1670261   -7.3741525    216.23492  0.029588796  0.029788755            1 
  610000    1.1500318   -7.3540494    216.33002  0.029553282  0.029783259            2 
  611000    1.1352289   -7.3431998    217.61087  0.029679606  0.029777997            1 
  612000    1.1418501   -7.3618235    217.43299  0.029606889  0.029772714            2 
  613000    1.1319215   -7.3473786    217.30865  0.029541687  0.029767542            3 
  614000    1.1380562   -7.3434092    217.92109  0.029576695  0.029761852            2 
  615000    1.1628786   -7.3945417    217.53146  0.029475808  0.029756517            7 
  616000    1.1498942   -7.3784444    218.03688  0.029496331  0.029751057            1 
  617000       1.1563   -7.3941862    218.47491  0.029507686  0.029745439            1 
  618000    1.1386285   -7.3827161    219.27549  0.029567892  0.029739694            3 
  619000    1.1468732   -7.3514237    219.87176  0.029600398  0.029734199            3 
  620000    1.1387531   -7.3535847    219.62664   0.02951971  0.029728825            1 
  621000    1.1714573   -7.3584912    220.29024  0.029561224   0.02972328            2 
  622000    1.1635198   -7.3987663    219.80804  0.029449094  0.029717269            2 
  623000     1.155194   -7.3732678    220.60195  0.029508019  0.029711638            5 
  624000    1.1623106   -7.3595197    221.23586  0.029545387  0.029706741            1 
  625000    1.1553192   -7.3917672    220.59898  0.029413198  0.029701421            1 
  626000    1.1395036   -7.3909917    220.91228  0.029407918  0.029695932            1 
  627000    1.1641446   -7.3826643    221.35216  0.029419479  0.029690305            2 
  628000    1.1504413   -7.4005134    222.48172  0.029522521  0.029684638            4 
  629000    1.1423543   -7.3858054     221.8209  0.029388037  0.029679121            2 
  630000    1.1336736   -7.3646888    222.55224  0.029438126  0.029673372            6 
  631000    1.1641449   -7.3608993    223.37566   0.02950022  0.029667484            1 
  632000    1.1531361   -7.3752349    222.08645  0.029283551  0.029661838            3 
  633000    1.1268441   -7.3731595    223.80284  0.029463249  0.029655894            2 
  634000    1.1508263   -7.3842485    224.08506  0.029453872  0.029649614            2 
  635000    1.1478539    -7.367299    223.67267  0.029353369  0.029643466            2 
  636000    1.1421538    -7.395879    224.08856  0.029361708  0.029637313            3 
  637000      1.14797   -7.3990195    224.71886  0.029398071  0.029631567            2 
  638000    1.1479512   -7.3741462    225.08228  0.029399462  0.029625577            1 
  639000    1.1532449   -7.4076988    224.86941  0.029325693  0.029619651            1 
  640000    1.1365142   -7.4198491    225.96112  0.029422021  0.029614299            1 
  641000      1.15632   -7.3901096    225.81405  0.029357001  0.029608708            1 
  642000    1.1504669   -7.3770111    225.85376  0.029316428  0.029603563            1 
  643000    1.1596463    -7.408594    227.00165  0.029419602  0.029598387            3 
  644000    1.1610157   -7.3949127    226.63359  0.029326293  0.029592924            3 
  645000    1.1499889   -7.3836798    227.57648  0.029402645  0.029587176            2 
  646000    1.1449038    -7.401977    227.03742  0.029287593  0.029581158            4 
  647000    1.1584443   -7.4034836    227.37982  0.029286427  0.029575329            1 
  648000    1.1470757   -7.3532821    228.14854  0.029340089  0.029569781            1 
  649000    1.1533613    -7.365213    228.51752   0.02934226  0.029563861            2 
  650000    1.1647565   -7.4011865    229.07568  0.029368677  0.029558119            1 
  651000    1.1531204   -7.4094874    229.20574  0.029340212  0.029552163            4 
  652000    1.1672436   -7.3814285    229.51031   0.02933414  0.029546243            5 
  653000    1.1534023   -7.4324819    228.97217  0.029220542  0.029540042            3 
  654000    1.1352125   -7.3664028    229.72824  0.029272202   0.02953393            1 
  655000     1.139591   -7.4291497      229.641  0.029216412  0.029527693            1 
  656000    1.1616821   -7.4012881     230.7723  0.029315587  0.029521908            1 
  657000    1.1552615    -7.437312    230.48603  0.029234656  0.029515512            1 
  658000    1.1394232   -7.3761806    230.47326  0.029188609  0.029509221            3 
  659000    1.1456452   -7.4348196     230.7796  0.029183055  0.029503264            2 
  660000     1.149878   -7.4011938    231.40085  0.029217279  0.029496883            3 
  661000    1.1590077   -7.4042387     232.1773  0.029270966  0.029490603            2 
  662000     1.136002    -7.377212    231.99814  0.029204197  0.029484595            2 
  663000    1.1535354   -7.4161261    231.64267  0.029115469  0.029478343            2 
  664000    1.1697458   -7.3958187      231.671  0.029075175  0.029471684            1 
  665000    1.1574344   -7.3714177     233.3283  0.029239136  0.029465327            2 
  666000    1.1340216   -7.3648664    233.01787   0.02915639   0.02945907            3 
  667000    1.1440196   -7.3938859    233.41119  0.029161817  0.029452358            2 
  668000    1.1204481   -7.3845268    233.77207  0.029163183  0.029445924            2 
  669000       1.1434    -7.376433     234.3701  0.029194083  0.029439361            2 
  670000    1.1273605   -7.4253701    233.70239  0.029067461  0.029432832            2 
  671000    1.1328133   -7.4244959    234.40309  0.029111163  0.029425856            1 
  672000    1.1448283   -7.4112042    234.41943   0.02906987  0.029418755            1 
  673000    1.1297213   -7.3656681    235.13476   0.02911525   0.02941194            2 
  674000    1.1446279   -7.4132494     235.1442  0.029073219  0.029404822            5 
  675000    1.1275395    -7.420813    235.42683  0.029065041  0.029397591            1 
  676000    1.1571975   -7.4251525    235.27277  0.029003053  0.029390303            1 
  677000    1.1497429   -7.4298557    235.22239  0.028954012  0.029383037            2 
  678000    1.1661546    -7.436769    235.12806  0.028899713  0.029375696            2 
  679000    1.1348325   -7.4215913    236.32344  0.029003859  0.029368569            5 
  680000    1.1614624   -7.3934005    237.34472  0.029086363  0.029361591            4 
  681000    1.1391845   -7.4144513    237.21562  0.029027854   0.02935485            3 
  682000    1.1483144   -7.3768277    238.63019  0.029158136  0.029348381            3 
  683000    1.1563394   -7.4476422    237.61909   0.02899208  0.029341755            1 
  684000    1.1261487   -7.4307487    238.08686  0.029006684  0.029334639            4 
  685000    1.1460775    -7.393091    238.56484  0.029022487  0.029327247            3 
  686000    1.1658361   -7.3849241    238.31802  0.028950197  0.029319712            1 
  687000    1.1562379   -7.4266046    238.13831  0.028886258  0.029312296            3 
  688000     1.127647   -7.3989432    239.00735  0.028949533  0.029304918            3 
  689000    1.1666331   -7.3859251    239.18867  0.028929447  0.029297826            2 
  690000    1.1602296   -7.3891812    239.59679   0.02893681  0.029290752            2 
  691000    1.1417196   -7.4084805    239.78574   0.02891772  0.029283271            1 
  692000    1.1206397    -7.444969    239.87541  0.028886731  0.029275744            6 
  693000    1.1524597   -7.4051929    240.10283  0.028872394  0.029268178            1 
  694000    1.1211234   -7.3968135    240.54413  0.028883782  0.029260007            1 
  695000    1.1644701   -7.3847472    240.66759  0.028857025  0.029252156            1 
  696000     1.121831   -7.4501039    239.68874  0.028698365  0.029243969            2 
  697000    1.1405833    -7.414836    241.19648  0.028837456  0.029235861            1 
  698000    1.1348305   -7.4447609    240.89378  0.028760002  0.029228057            1 
  699000    1.1338242   -7.4284243     241.5948  0.028802432  0.029220397            2 
  700000    1.1230317   -7.4437297    242.08425  0.028819554   0.02921258            2 
  701000    1.1288116   -7.3605454    242.80628  0.028864275  0.029204794            1 
  702000    1.1583986   -7.4245486    242.68552  0.028808822  0.029197117            1 
  703000    1.1229812    -7.417123    243.43353  0.028856511  0.029190021            4 
  704000    1.1368491   -7.3957835    243.43426  0.028815608  0.029182534            4 
  705000    1.1128305   -7.4203407    242.44029  0.028657245  0.029174807            2 
  706000    1.1252466   -7.4033904    243.80767  0.028778054  0.029166725            1 
  707000    1.1286904   -7.4081941    244.08353  0.028769865  0.029158613            1 
  708000    1.1500371   -7.4412617    243.81351  0.028697447  0.029150552            1 
  709000    1.1386898   -7.3997541    244.39326  0.028725113  0.029142468            3 
  710000    1.1383749   -7.4270814    243.67827  0.028600736  0.029134138            8 
  711000    1.1233789   -7.4111065    245.41917  0.028764553  0.029126109            2 
  712000    1.1539507   -7.4209122    245.11916  0.028689041  0.029118131            3 
  713000    1.1426797   -7.4702489    244.64048  0.028592857   0.02910979            1 
  714000    1.1271553   -7.3653812    246.64171  0.028786381   0.02910185            3 
  715000    1.1407577   -7.4116605    246.42326   0.02872066  0.029094058            2 
  716000    1.1457927   -7.3896367    246.47069  0.028686067  0.029086141            3 
  717000    1.1253568   -7.4608818    246.68847   0.02867137  0.029078044            2 
  718000    1.1424572    -7.413968    247.16197  0.028686393  0.029070533            4 
  719000     1.143192    -7.356028    248.76468  0.028832254  0.029063129            3 
  720000    1.1317676   -7.4162126    247.99341  0.028702941  0.029056308            2 
  721000    1.0951349   -7.4530758    248.64117  0.028737999  0.029049018            2 
  722000    1.1238175   -7.4087488    249.44353  0.028790804     0.029042            1 
  723000    1.1282868   -7.4195714     249.2362  0.028727086   0.02903512            1 
  724000    1.1569787   -7.4144731    250.18133  0.028796193  0.029028303            1 
  725000    1.1274984   -7.4197948    249.67554  0.028698338  0.029021483            3 
  726000    1.1224033   -7.3953449    250.03086  0.028699594  0.029014577            1 
  727000    1.1334723    -7.407918    250.20279  0.028679825   0.02900705            2 
  728000    1.1259552    -7.411948    249.97337  0.028614168   0.02899952            2 
  729000    1.1260782   -7.3898541     250.1369   0.02859361  0.028991849            3 
  730000    1.1420586   -7.4306854    249.41886  0.028472473  0.028983797            3 
  731000    1.1176462   -7.4118107     250.9721  0.028610591  0.028975825            1 
  732000    1.1437472   -7.4083204    250.89481  0.028562707    0.0289679            2 
  733000    1.1340847   -7.3959945    251.51672  0.028594443   0.02896011            2 
  734000    1.1483423   -7.4024494    250.95406  0.028491605  0.028951904            4 
  735000    1.1277781   -7.4006212    251.41358  0.028504941   0.02894414            1 
  736000    1.1458902   -7.3649539    252.23454  0.028559164  0.028935985            2 
  737000    1.1355442   -7.4058345    251.74658  0.028465239  0.028928132            4 
  738000    1.1502676   -7.4505043    252.73541  0.028538325  0.028920127            2 
  739000    1.1147548   -7.4165032    253.22486  0.028554901  0.028912376            1 
  740000    1.1720839   -7.3802296     253.4348  0.028539955  0.028905156            3 
  741000    1.1114388   -7.4290509    253.78469  0.028540788  0.028897994            2 
  742000    1.1024422   -7.4394557    253.84394  0.028508978  0.028890724            2 
  743000    1.1452888   -7.4138962    255.85065  0.028695676  0.028883327            3 
  744000    1.1333432   -7.4470542    254.37624  0.028491963   0.02887601            2 
  745000    1.1098242   -7.4425181    255.13273  0.028538336  0.028868569            5 
  746000     1.104289   -7.4179139    255.34974  0.028524323  0.028861526            1 
  747000    1.1217173   -7.4132731     256.2649  0.028588231  0.028854302            2 
  748000    1.1008326   -7.3911709     257.0337  0.028635661  0.028847601            2 
  749000    1.1122987   -7.4512564    256.52883  0.028541259  0.028841136            1 
  750000     1.133646   -7.3920477    257.43864  0.028604293  0.028834399            2 
  751000    1.1355245   -7.4222743    257.64667  0.028589289  0.028827787            2 
  752000    1.1221669   -7.3996774    258.75951  0.028674591  0.028821215            1 
  753000      1.13696   -7.4759168    257.47365  0.028494206  0.028814423            1 
  754000    1.1194016   -7.4465306    258.63339  0.028584592  0.028807264            7 
  755000    1.1370278   -7.4629861    257.59068  0.028431643  0.028800202            2 
  756000    1.1385898   -7.4272845    258.16788  0.028457659   0.02879309            2 
  757000    1.1247486    -7.433213    258.88229  0.028498711  0.028786062            2 
  758000    1.1600814   -7.4343155    258.98698  0.028472623  0.028779256            3 
  759000     1.140508   -7.4049268    259.58981  0.028501297  0.028772257            2 
  760000    1.1217337   -7.4348503    259.25049  0.028426589  0.028765318            3 
  761000    1.1094001   -7.4543241    260.35306  0.028509971  0.028758184            2 
  762000    1.1263106    -7.427539    260.30664   0.02846748  0.028751282            4 
  763000    1.1126881   -7.4791482    260.50666  0.028452017  0.028743937            1 
  764000    1.1299609   -7.4713323    259.95019  0.028354078   0.02873661            1 
  765000    1.1363047   -7.4250235    260.68159  0.028396688  0.028729205            3 
  766000    1.1040467   -7.4523939    261.07105  0.028401985  0.028721775            3 
  767000    1.1287209   -7.4468497    260.04706    0.0282537  0.028714133            1 
  768000    1.1387888   -7.4313359    261.17367  0.028339157   0.02870671            3 
  769000     1.113044   -7.4585519    261.58041  0.028346382  0.028699009            3 
  770000    1.1298761   -7.3852255    261.81541  0.028335001  0.028691248            3 
  771000    1.1350011   -7.4285891    262.88818    0.0284142  0.028683238            1 
  772000    1.1274882    -7.464637    261.51989  0.028229694  0.028675347            7 
  773000    1.1140497   -7.4293076    261.99757  0.028244671  0.028667532            1 
  774000    1.1469814   -7.4580397    262.37199  0.028248492   0.02865949            2 
  775000    1.1167442    -7.426065    263.04752  0.028284679   0.02865128            2 
  776000    1.1268387   -7.4402035    262.54253     0.028194  0.028643139            4 
  777000    1.1380516   -7.4740956    262.34993  0.028137058  0.028634957            2 
  778000    1.1284175   -7.4411044    263.67891  0.028243242  0.028626746            2 
  779000    1.1210356   -7.4607348    264.11509  0.028253647  0.028618792            4 
  780000    1.1099283    -7.424662    264.77757  0.028288202  0.028611052            2 
  781000    1.1133439   -7.4850375    264.49298  0.028221616  0.028603177            3 
  782000    1.1642786   -7.4440779    265.72363   0.02831667  0.028595273            2 
  783000    1.1440078    -7.426779    264.85702  0.028188274  0.028587629            3 
  784000    1.1491199   -7.4465413    264.85185   0.02815177  0.028579695            2 
  785000     1.111618   -7.4651245    265.27134   0.02816044  0.028571646            2 
  786000    1.1176207   -7.4631191    264.94993  0.028090536  0.028563652            2 
  787000    1.1491988   -7.3865642    266.91878  0.028263319  0.028555826            1 
  788000    1.1262938   -7.4146505    267.65044  0.028304827  0.028548554            5 
  789000    1.1114245   -7.4868754    266.42964  0.028140013   0.02854072            1 
  790000    1.1316497   -7.4536352     266.6671  0.028129441  0.028532538            2 
  791000    1.1259813   -7.4565907    266.32559    0.0280579  0.028523999            1 
  792000    1.1336468   -7.4409599     267.2501   0.02811975  0.028516077            1 
  793000    1.1393328   -7.4103846    267.61772  0.028122922  0.028508049            1 
  794000    1.0991316   -7.5237424    267.14719  0.028038119  0.028499585            2 
  795000    1.1284126   -7.4310377    267.43168  0.028032671  0.028491349            2 
  796000    1.1052487   -7.4444008     267.9427  0.028050953  0.028482878            2 
  797000    1.1290373   -7.4448356    267.61692  0.027981693  0.028474618            2 
  798000    1.0925819   -7.4849716    268.56605  0.028045744  0.028466314            3 
  799000    1.1221719   -7.4668728    269.10593  0.028066952  0.028457983            2 
  800000    1.1303364   -7.4406591    269.01452  0.028022346  0.028449624            1 
  801000    1.1105841   -7.4570839    268.65193  0.027949639  0.028441178            3 
  802000    1.1213251    -7.446679    268.99181  0.027950105  0.028432712            3 
  803000    1.0990679   -7.4243658    269.48308   0.02796628  0.028424515            1 
  804000    1.1406979   -7.4560825    269.16714   0.02789875  0.028415827            3 
  805000    1.1093983   -7.4638495    269.98428  0.027948683  0.028407307            3 
  806000    1.1442763   -7.4702788    269.98831  0.027914424  0.028398538            2 
  807000    1.1484686   -7.4829906    269.75798  0.027856049  0.028389888            2 
  808000    1.1186897   -7.4672767    270.19595  0.027866744  0.028381165            1 
  809000    1.1186949   -7.5115845    269.89697    0.0278015  0.028372018            2 
  810000    1.0954259   -7.4347959    270.81585  0.027861713  0.028362983            1 
  811000    1.1206806   -7.4881891    270.53878  0.027798888  0.028353936            1 
  812000    1.1468959   -7.4161455    272.19008  0.027934121  0.028345485            3 
  813000    1.1174098   -7.4723969    271.61657  0.027840977  0.028337053            3 
  814000    1.0974243     -7.43374    272.01614   0.02784768  0.028328569            3 
  815000    1.1264249   -7.4461532    272.74033  0.027887559  0.028320046            4 
  816000    1.1428321   -7.4595156    273.53441  0.027934478  0.028311643            1 
  817000    1.1140418   -7.4720927    272.89242  0.027834804  0.028303519            4 
  818000    1.1122119   -7.4728757    273.89603  0.027903018  0.028295463            2 
  819000     1.120428   -7.4821671     274.1909  0.027898952  0.028287358            1 
  820000    1.1225982   -7.4534549    274.17415  0.027863226  0.028279331            2 
  821000     1.102197   -7.4412741    275.50169  0.027964036  0.028271104            1 
  822000     1.123723   -7.4403736    274.18015  0.027796041  0.028262779            2 
  823000     1.108403   -7.4412604    275.29362  0.027875012  0.028254063            1 
  824000    1.0713671    -7.473762    274.75887  0.027787102  0.028245364            2 
  825000     1.119213   -7.4572531    274.78286  0.027755844  0.028236803            2 
  826000    1.1375929   -7.4928719    275.03436  0.027747615  0.028228003            3 
  827000    1.1214473   -7.4513832    276.09546  0.027820986   0.02821953            1 
  828000    1.1042814   -7.4358117    276.31263  0.027809242  0.028211235            1 
  829000    1.1049792   -7.4214018    277.65935  0.027911073  0.028202994            2 
  830000    1.1212326   -7.4725413    276.59017  0.027770097  0.028194882            3 
  831000    1.1290582   -7.4786397    277.15205  0.027793026  0.028186521            1 
  832000    1.1255746   -7.5163039    277.12475  0.027756886  0.028178055            2 
  833000    1.1166226   -7.4905984    278.39947  0.027851088  0.028169839            2 
  834000     1.109457   -7.4097862    278.80084  0.027857798  0.028162068            3 
  835000    1.1151633   -7.4692307    278.58453  0.027802847  0.028154007            3 
  836000    1.0990095   -7.4396245     278.8389  0.027794946  0.028145917            4 
  837000     1.116563   -7.4489293    279.04242  0.027782001  0.028137752            3 
  838000    1.1414189   -7.4425032    279.47541  0.027791907  0.028129594            2 
  839000    1.1043987   -7.5112771    279.02827  0.027714369  0.028121247            2 
  840000    1.1129025    -7.454663    279.97041  0.027774843  0.028113358            2 
  841000    1.1288371   -7.4614936    279.95472  0.027740262  0.028105654            2 
  842000    1.1095734   -7.5013761    279.97667  0.027709488  0.028097711            2 
  843000    1.1242309   -7.5197155    280.98774  0.027776565  0.028089596            1 
  844000    1.0963903   -7.4750368    281.10006  0.027754745  0.028081554            1 
  845000    1.1311191   -7.4339098    281.23959   0.02773566  0.028073602            3 
  846000    1.1001995   -7.4693386    281.26755  0.027705629  0.028065592            2 
  847000    1.1073715   -7.4570651    281.52176   0.02769793  0.028057339            4 
  848000    1.1041113   -7.4561468    281.33349  0.027646766  0.028049013            2 
  849000    1.1387252   -7.4347993     282.3547  0.027714439  0.028041153            4 
  850000    1.1137448   -7.4798148    282.51546  0.027697594    0.0280333            6 
  851000    1.1364776   -7.4955589    281.74975  0.027590065  0.028025505            2 
  852000    1.1130398   -7.4753367    282.72373  0.027652947  0.028017444            2 
  853000    1.1093847   -7.4513095    283.89821  0.027735268  0.028009468            2 
  854000    1.1223157   -7.4362602    284.23453   0.02773561  0.028001853            1 
  855000    1.1331139   -7.4686103    284.30754  0.027710286   0.02799417            3 
  856000    1.1018471   -7.4850603    283.98664  0.027646675  0.027986265            1 
  857000    1.1071671   -7.5031574     283.4918  0.027566297   0.02797796            3 
  858000    1.0989359   -7.4666671    283.87867  0.027571744  0.027969543            2 
  859000    1.1323655   -7.4857279    283.23895  0.027477585  0.027961228            2 
  860000    1.1073382   -7.4871432    284.16887  0.027535743  0.027953069            3 
  861000    1.1246741   -7.4597787    283.79109  0.027467198   0.02794454            6 
  862000    1.0996948   -7.4388855    284.75149   0.02752818  0.027936047            2 
  863000    1.1237143   -7.4851401    284.88356  0.027509035  0.027927479            1 
  864000    1.1229727   -7.4585001     285.4049  0.027527479  0.027918993            3 
  865000     1.092631   -7.4962198    284.66518  0.027424391  0.027910572            1 
  866000    1.1261094   -7.4956344    286.07727  0.027528605  0.027902165            2 
  867000    1.1144544   -7.4489711    286.90484  0.027576398  0.027893622            1 
  868000    1.0835767   -7.4617297    287.17344  0.027570415  0.027885202            2 
  869000    1.1145572   -7.4619757    286.01701  0.027427791  0.027876984            2 
  870000    1.1268179   -7.4972218    286.91847  0.027482612  0.027868218            6 
  871000    1.1054049   -7.4988029    286.18382  0.027380771  0.027859496            1 
  872000    1.1317676   -7.4622027    287.61193   0.02748585  0.027851004            1 
  873000    1.1468476   -7.4975657     286.9858  0.027394598  0.027842447            2 
  874000    1.1043656   -7.4876879    288.29748  0.027488318  0.027833997            1 
  875000      1.11026   -7.4927284    287.53824  0.027384595  0.027825364            2 
  876000    1.1120992   -7.5134368    287.56654  0.027356026  0.027816777            2 
  877000    1.1339002    -7.471363    288.41852  0.027405789  0.027808207            3 
  878000    1.0985367   -7.4844723    288.61928  0.027393629  0.027799504            5 
  879000    1.1090333   -7.4496098    289.29709  0.027426724  0.027790698            2 
  880000    1.1093339   -7.4174248    288.96939  0.027364526  0.027782104            1 
  881000    1.1103639   -7.4702661    289.07796  0.027343734  0.027773298            1 
  882000    1.0797846   -7.4914625    288.22767  0.027232396  0.027764356            4 
  883000     1.110865   -7.4595241    290.12094  0.027380232  0.027755365            1 
  884000    1.1119532   -7.5118499    289.34565  0.027276174  0.027746738            5 
  885000     1.099521   -7.4509561      290.848  0.027386817  0.027738186            7 
  886000    1.1248926   -7.4598357    290.40381  0.027314128  0.027729703            5 
  887000    1.1157071   -7.4722491    290.86746  0.027326894  0.027721172            3 
  888000    1.1112371   -7.4889632    290.17303  0.027230953  0.027712107            3 
  889000    1.1094265   -7.4904797    290.41691  0.027223182  0.027703026            2 
  890000    1.1210541   -7.4912716    290.70536  0.027219603  0.027694108            2 
  891000     1.114432   -7.4883708    291.04838  0.027221135  0.027685098            2 
  892000    1.0925747   -7.5161908    290.05013  0.027097359   0.02767589            7 
  893000    1.1220551   -7.4808181    291.02986  0.027158442  0.027666444            1 
  894000    1.1069254   -7.5222472    291.74022  0.027194279  0.027657256            3 
  895000    1.1448977   -7.4631884    292.50091  0.027234721  0.027648352            2 
  896000    1.0903574    -7.489538    292.18579  0.027175018  0.027639848            2 
  897000     1.085109   -7.4574141     293.3075  0.027248932  0.027631132            2 
  898000    1.0858462   -7.5225189    291.71571  0.027070872   0.02762227            3 
  899000    1.1076232   -7.5060449    292.08168  0.027074683  0.027613403            2 
  900000    1.1111506   -7.4606302    294.03135  0.027225125  0.027604679            3 
  901000    1.0987771   -7.4572295    294.23688  0.027213918   0.02759629            2 
  902000    1.1244353   -7.5076835    293.71447  0.027135483    0.0275878            3 
  903000    1.1075461   -7.5101029    294.84761  0.027210005  0.027579251            3 
  904000    1.0948195   -7.4969194    295.47237  0.027237497  0.027570669            1 
  905000       1.0795    -7.459797     295.2381  0.027185829  0.027561987            2 
  906000    1.1023475   -7.4960644    294.70275  0.027106581  0.027553097            3 
  907000     1.096225   -7.4771102    295.35082  0.027136239    0.0275443            2 
  908000    1.1010873   -7.4581402     294.9139  0.027066254   0.02753531            1 
  909000    1.1203402   -7.4880814    295.49735  0.027089966  0.027526315            1 
  910000    1.0957087   -7.5223686    295.09359  0.027023222  0.027516987            2 
  911000    1.0885834   -7.5091447    295.25013  0.027007878  0.027507648            1 
  912000    1.1007155   -7.5096041     296.2327  0.027068047  0.027498272            3 
  913000    1.1086611   -7.5142254     295.5626  0.026977237  0.027489365            2 
  914000    1.0962978   -7.4897272    296.31421  0.027016248  0.027480125            2 
  915000    1.1053515   -7.5007605    296.18198   0.02697468  0.027470905            1 
  916000    1.0935286   -7.5265189    295.13374  0.026849867  0.027461394            2 
  917000    1.1177065   -7.5072709    296.66268  0.026959531  0.027451884            2 
  918000    1.1082911   -7.4983541     296.8234  0.026944753  0.027442478            3 
  919000    1.1104144   -7.4830012    296.50953  0.026886972   0.02743301            1 
  920000    1.1116645   -7.5358444    296.40132  0.026847946  0.027423827            2 
  921000    1.0769989   -7.4726709    298.26532  0.026987452  0.027414663            2 
  922000    1.1007233   -7.5094056    297.90089  0.026925243  0.027405614            3 
  923000    1.0892436   -7.5244397    297.85746   0.02689215  0.027396443            2 
  924000    1.1041886   -7.4774014    298.91815  0.026958707  0.027387108            2 
  925000    1.0945095   -7.5423635    298.11423  0.026857138  0.027378031            2 
  926000    1.1086135   -7.5073605    298.56252  0.026868478  0.027368917            5 
  927000    1.1051059   -7.4958529    299.18562  0.026895507   0.02735977            2 
  928000     1.116257   -7.4725824    300.00825  0.026940396  0.027350946            1 
  929000    1.1109859   -7.4935354     300.3995  0.026946493  0.027342202            1 
  930000    1.1251928    -7.505921    301.22197  0.026991216  0.027333374            3 
  931000    1.1152713    -7.493122    300.48318  0.026896096   0.02732448            1 
  932000    1.0833557   -7.4677343    301.01908  0.026915154  0.027315556            2 
  933000    1.1151269    -7.502756    300.60897  0.026849675  0.027306519            1 
  934000    1.0938712     -7.45432    301.87096  0.026933526  0.027297589            1 
  935000    1.1024634   -7.4974689     301.8157  0.026899795  0.027288922            2 
  936000    1.0821362   -7.4939362    302.13034  0.026899069  0.027279994            3 
  937000    1.0890609   -7.5137915     301.8942   0.02684936  0.027270969            3 
  938000    1.0824753   -7.5248906    302.42151  0.026867583  0.027262079            1 
  939000    1.1033773   -7.4982714    302.21659  0.026820784  0.027253276            4 
  940000    1.0846708   -7.4947012    301.86675  0.026761237  0.027244514            2 
  941000    1.0949199   -7.5072835    302.20743  0.026762968  0.027235609            3 
  942000    1.0866877   -7.4670496    302.94651  0.026799939  0.027226739            3 
  943000    1.1018383   -7.5172317    302.43076  0.026725942  0.027217789            3 
  944000     1.099129   -7.4934121    304.17104  0.026851257  0.027208959            3 
  945000    1.0949249   -7.5041671    304.28271   0.02683269  0.027200059            2 
  946000    1.0815426   -7.4961805    303.34209  0.026721467  0.027191276            4 
  947000    1.0978154   -7.5243827    303.87718  0.026740336  0.027182371            1 
  948000    1.0945354   -7.5436557    304.40351  0.026758396  0.027173203            2 
  949000     1.085013   -7.5033809    304.67274  0.026753841   0.02716405            3 
  950000    1.1109771   -7.4942014    305.12641  0.026765474  0.027155018            4 
  951000    1.0992175   -7.4906965    305.17559  0.026741639  0.027145934            2 
  952000    1.0919333   -7.5450173    305.34971  0.026728791  0.027136966            2 
  953000    1.1051802   -7.4787228    306.26396  0.026780689  0.027128314            1 
  954000    1.1015133    -7.498404    306.70479  0.026791124  0.027119598            4 
  955000    1.1269774   -7.4867285    307.08387  0.026796149  0.027111122            2 
  956000    1.0988469   -7.5293162    306.56958   0.02672329  0.027102458            1 
  957000    1.1008913   -7.4918261    307.19207  0.026749571  0.027094082            3 
  958000    1.1001302   -7.4686074    308.61027  0.026845013  0.027085623            2 
  959000    1.1123189   -7.5200489    306.43203   0.02662774  0.027076883            1 
  960000    1.0918654   -7.5127095    307.29109  0.026674574  0.027067827            4 
  961000    1.1088614   -7.5251476    306.10365  0.026543848  0.027058691            2 
  962000    1.1061584   -7.5327357    307.05022  0.026598252  0.027049617            1 
  963000    1.0819096   -7.5026013    307.94342  0.026647925  0.027040653            1 
  964000    1.0820445    -7.534767    307.36758  0.026570503  0.027031413            2 
  965000     1.116253   -7.5335436    306.91141  0.026503576   0.02702233            2 
  966000    1.1062447   -7.5001897    308.23012    0.0265899   0.02701344            1 
  967000     1.092818   -7.5388727    308.51449  0.026586908  0.027004646            1 
  968000    1.0965868   -7.5030477     307.9392  0.026509917  0.026995843            2 
  969000    1.1178952   -7.5000185    309.35504  0.026604321  0.026987044            2 
  970000    1.0883391   -7.4911532    308.19619  0.026477336  0.026978134            2 
  971000    1.0999758   -7.5451936    308.62599  0.026486954  0.026969201            1 
  972000    1.1115821   -7.5263623    309.88903  0.026567989  0.026960034            1 
  973000    1.0964064   -7.4963536    308.84579  0.026451335  0.026950994            2 
  974000    1.1074668   -7.5161463    310.13918  0.026534838   0.02694172            2 
  975000     1.090485   -7.5339263    309.01503  0.026411541  0.026932566            2 
  976000    1.0848041   -7.5291655    309.90335  0.026460327  0.026923373            2 
  977000    1.1149164   -7.5007317    310.81766   0.02651123  0.026914051            2 
  978000    1.1010248   -7.5579668    309.42737  0.026365658  0.026904851            2 
  979000    1.1064157   -7.5115618    311.38047  0.026504977  0.026895779            2 
  980000    1.1222188   -7.5682605    311.49295  0.026487496  0.026886882            2 
  981000    1.0927482   -7.5013574    311.23191   0.02643832  0.026877862            1 
  982000    1.0725349   -7.5468663    311.45477   0.02643031  0.026869006            2 
  983000    1.0941473   -7.5059318       312.95   0.02653018  0.026860144            2 
  984000    1.1046154   -7.5362021    312.53408  0.026467995  0.026851258            3 
  985000    1.1286848   -7.4938229    312.72794  0.026457524  0.026842444            1 
  986000    1.1245091   -7.5274281    312.72374  0.026430337  0.026833581            2 
  987000    1.1000932   -7.5277869     313.4526  0.026465096  0.026824638            2 
  988000    1.1016567   -7.5406985    313.24145    0.0264205  0.026815666            1 
  989000     1.082013   -7.5123561    312.64272  0.026343337  0.026806775            2 
  990000    1.0828882   -7.5500084    313.14224  0.026358774  0.026797785            2 
  991000    1.0767014   -7.4951879    314.38319  0.026436528  0.026788983            1 
  992000    1.0767646    -7.509421    314.54819  0.026423739  0.026780317            2 
  993000     1.098197   -7.5214788     314.3161  0.026377652  0.026771549            1 
  994000    1.0994927   -7.5264759    314.93751  0.026403212  0.026762798            2 
  995000    1.0857355   -7.5030079    315.54256   0.02642735  0.026754051            1 
  996000    1.1055735   -7.5257039    314.76238   0.02633554  0.026745348            2 
  997000    1.0925819   -7.5352631    314.08186  0.026252245  0.026736461            3 
  998000    1.0950351   -7.5468051      315.355  0.026332248  0.026727566            9 
  999000    1.1215783   -7.5306137    316.01524  0.026360965  0.026718724            5 
 1000000    1.0718214   -7.5071256    316.67407  0.026389506   0.02670993            5 
 1001000    1.0682516   -7.5386961    316.02638  0.026309222  0.026701126            3 
 1002000    1.1024615   -7.5369848    316.46753  0.026319655  0.026692396            1 
 1003000    1.1034831   -7.5199779    316.94265  0.026332889  0.026683554            3 
 1004000    1.0732931   -7.5101105    316.90438  0.026303485  0.026674707            1 
 1005000    1.1068975   -7.5218827    317.89896  0.026359781  0.026665788            3 
 1006000    1.0937807   -7.5162055    317.16203  0.026272534  0.026657153            1 
 1007000    1.0725728   -7.5141377    317.70407    0.0262913  0.026648654            2 
 1008000    1.1075039   -7.5658394    317.64418  0.026260266  0.026639961            2 
 1009000    1.0875448   -7.5865959    317.20522  0.026197987  0.026631132            4 
 1010000    1.0745185   -7.4984612    318.40522  0.026271058  0.026622467            7 
 1011000    1.0738221   -7.5361995    319.05307  0.026298472  0.026613954            1 
 1012000    1.0998286   -7.5427697     319.5236  0.026311231  0.026605347            2 
 1013000    1.1111193   -7.5541364    319.18306  0.026257245    0.0265968            2 
 1014000    1.0974521    -7.544619    318.51932  0.026176802  0.026588256            1 
 1015000    1.0952656   -7.5821835     318.6919   0.02616518  0.026579441            2 
 1016000    1.0795281   -7.5414471     319.6937  0.026221596  0.026570914            2 
 1017000     1.082564   -7.5107601    320.72912  0.026280656  0.026562432            2 
 1018000    1.0741412   -7.5245052    320.86941  0.026266323  0.026554039            2 
 1019000    1.0968105   -7.5185347    321.20301  0.026267829    0.0265456            3 
 1020000     1.088034   -7.5720885    319.51862  0.026104462  0.026537002            2 
 1021000    1.0861283   -7.5829675    319.58573  0.026084372  0.026528096            3 
 1022000    1.0994855   -7.5497356    320.91925  0.026167584  0.026519628            3 
 1023000    1.0986511   -7.5535142    322.01646  0.026231383  0.026511102            2 
 1024000    1.0986767   -7.5459849    321.18522   0.02613812  0.026502452            2 
 1025000    1.0862161   -7.5321989     321.6107  0.026147211  0.026494164            2 
 1026000    1.0817828   -7.4987473    323.03126  0.026237107  0.026485778            1 
 1027000    1.0993848   -7.5145973    323.57355  0.026255562  0.026477324            2 
 1028000    1.0903482   -7.5604936    322.66223  0.026156147  0.026469065            4 
 1029000    1.1004277     -7.53336    323.60515   0.02620709  0.026460746            1 
 1030000    1.0645431   -7.5724232    323.63948  0.026184424  0.026452398            1 
 1031000    1.0991205   -7.5475285    323.16406    0.0261206   0.02644402            1 
 1032000    1.0991066    -7.533597    323.44691  0.026118129   0.02643553            1 
 1033000    1.0888879     -7.51481     324.1742  0.026151517  0.026427244            2 
 1034000    1.0777954   -7.5154358    324.73185  0.026171168  0.026419029            1 
 1035000    1.0715369   -7.5091177    324.96944  0.026165011  0.026410846            3 
 1036000     1.073564   -7.5336231    325.19862   0.02615819  0.026402756            4 
 1037000    1.1224621   -7.5602514    325.74458  0.026176839  0.026394592            3 
 1038000    1.0481323   -7.5514134    326.03508  0.026174942  0.026386327            2 
 1039000    1.0944027   -7.5625324    325.98613  0.026145823  0.026378303            2 
 1040000    1.0711583   -7.5457841    326.83455  0.026188666  0.026370383            1 
 1041000    1.0823966    -7.536336    326.80882  0.026161449  0.026362413            3 
 1042000    1.1033112   -7.5321991    326.93102  0.026146115  0.026354373            2 
 1043000    1.0633589     -7.53853    326.06127  0.026051556  0.026346226            4 
 1044000    1.0706386   -7.5673955    326.07117  0.026027392  0.026337914            2 
 1045000     1.098972   -7.5845243    326.44345  0.026032173  0.026329616            2 
 1046000    1.1042045   -7.5523966    326.80445  0.026036046  0.026321114            1 
 1047000    1.0655554   -7.5639997    327.36122  0.026055493  0.026312771            2 
 1048000    1.0846028   -7.5490687    328.14571  0.026093011  0.026304543            2 
 1049000    1.0716983   -7.5374994    327.29312  0.026000406  0.026296295            4 
 1050000     1.085647    -7.542741    327.71767  0.026009339  0.026288064            2 
 1051000    1.0834971   -7.5852271    327.42519  0.025961401  0.026279685            2 
 1052000     1.080364    -7.560462    327.96216  0.025979259   0.02627135            2 
 1053000    1.0895944    -7.562423    328.18457  0.025972188  0.026262975            3 
 1054000    1.0939511   -7.5419007    329.45567  0.026048045  0.026254694            1 
 1055000    1.0623541   -7.5301488    329.03083  0.025989797  0.026246698            7 
 1056000    1.1165361   -7.6009589    329.42342  0.025996167  0.026238692            2 
 1057000    1.0776581   -7.5795658    329.63887  0.025988558  0.026230689            3 
 1058000    1.0932172   -7.5805038    329.80137  0.025976794  0.026222609            2 
 1059000     1.093809   -7.5589397    330.60575  0.026015561  0.026214592            3 
 1060000    1.0837481   -7.5210386    330.74518  0.026001979   0.02620653            1 
 1061000    1.1029536    -7.540494    331.41496  0.026030079  0.026198691            1 
 1062000    1.0778125   -7.5505885    331.53085  0.026014662  0.026190865            1 
 1063000     1.070555   -7.6077491    330.64516  0.025920756  0.026183073            3 
 1064000    1.0876289   -7.5875714    331.60622  0.025971665  0.026175411            3 
 1065000    1.0968311   -7.5559661    331.97414  0.025976067  0.026167781            3 
 1066000    1.0848828   -7.6131378    331.70697  0.025930814  0.026160213            5 
 1067000    1.0925885   -7.5730062    332.68731  0.025983077  0.026152511            3 
 1068000    1.0684941   -7.5397931    333.42358  0.026016197  0.026144852            5 
 1069000    1.0951904   -7.5445531    333.01626  0.025960108  0.026137296            2 
 1070000    1.0934095   -7.5001804     336.0789  0.026174369   0.02612974            3 
 1071000    1.0698334   -7.5445309    333.85045  0.025976537  0.026122155            3 
 1072000    1.0833291   -7.5826131     333.4986  0.025924953  0.026114205            3 
 1073000    1.0725808    -7.537645    333.69695  0.025916197  0.026106137            2 
 1074000    1.0636127   -7.5644657    333.36919  0.025866634  0.026098027            1 
 1075000     1.076487   -7.5834364    333.44249  0.025848255  0.026089947            2 
 1076000    1.0872204   -7.5852902    333.81624  0.025853179  0.026082085            3 
 1077000    1.0950582   -7.5603652    334.35188  0.025870619  0.026074298            1 
 1078000    1.0858609   -7.5532522    335.31146  0.025920799  0.026066635            1 
 1079000    1.0765079   -7.5252889    335.57437  0.025917081   0.02605883            2 
 1080000    1.0804867   -7.5648996    336.07127  0.025931425  0.026051288            2 
 1081000    1.0728779   -7.5555283    335.33489   0.02585067  0.026043565            2 
 1082000    1.0802429    -7.564296    336.27499  0.025899182  0.026036061            1 
 1083000    1.0786155   -7.5425777    336.23359  0.025872083  0.026028566            5 
 1084000    1.0588733   -7.5547547    336.64448  0.025879803  0.026021223            2 
 1085000    1.0707345   -7.5335129    337.21136   0.02589949  0.026013702            2 
 1086000    1.0990191   -7.6263227    336.36343  0.025810576   0.02600627            2 
 1087000    1.0900442   -7.5985675    337.31315  0.025859641  0.025998883            3 
 1088000    1.0921377   -7.5274252    339.22292  0.025982148  0.025991571            3 
 1089000    1.0757278   -7.5840713    337.75625  0.025846055  0.025984209            2 
 1090000    1.0704457   -7.5768056    338.54859   0.02588292  0.025977026            2 
 1091000    1.0670622   -7.5553293    338.76344  0.025875607  0.025969737            2 
 1092000    1.0794487   -7.5851684    338.69843   0.02584695  0.025962372            3 
 1093000    1.0768374   -7.5253146    340.46001   0.02595761  0.025955029            3 
 1094000    1.0834659   -7.5712659    339.47868  0.025859131  0.025947854            2 
 1095000    1.0834182   -7.5771127    340.48083  0.025911783  0.025940813            1 
 1096000    1.0914225   -7.5829222    340.95241  0.025923997  0.025933799            2 
 1097000    1.1177526   -7.5739734    340.28322   0.02584953  0.025926927            2 
 1098000    1.0784277   -7.5706097    340.78213  0.025863853  0.025919856            2 
 1099000     1.054642   -7.5579713    341.00574  0.025857275  0.025912959            2 
 1100000    1.0960507   -7.5497776     341.7928  0.025893394  0.025905969            6 
 1101000    1.0739483    -7.532403    342.16775  0.025898255  0.025898984            3 
 1102000    1.0766577    -7.583444    341.69549  0.025839042  0.025891878            4 
 1103000    1.0952649   -7.5908154    341.61919  0.025809851  0.025884633            3 
 1104000    1.0833925   -7.5420371     341.7617   0.02579723  0.025877382            1 
 1105000    1.0534214   -7.5497661    341.62545  0.025763609  0.025870012            4 
 1106000    1.0493274   -7.5882157    341.75767  0.025750277  0.025862539            3 
 1107000    1.0579998   -7.5624068    342.01612  0.025746471  0.025855055            2 
 1108000     1.065125   -7.6280309    340.80661  0.025632266  0.025847379            2 
 1109000    1.0811996   -7.5731024    342.22778  0.025715944  0.025839822            2 
 1110000    1.0684604   -7.5780427    342.44298  0.025708932  0.025832214            3 
 1111000    1.0498645   -7.6003766    342.21811  0.025668925   0.02582467            2 
 1112000    1.0971625   -7.6034816    342.55895  0.025671384  0.025817061            1 
 1113000    1.0743471   -7.5320764     343.8682  0.025746346  0.025809653            3 
 1114000      1.09472   -7.5387305    343.52519  0.025697576   0.02580235            1 
 1115000     1.074053   -7.5546347    344.15398  0.025721523  0.025795018            3 
 1116000    1.0747365   -7.5715016    343.49311  0.025649127  0.025787663            1 
 1117000     1.070191   -7.5677628    344.90535  0.025731524  0.025780142            2 
 1118000    1.0650862   -7.5439332    344.70769  0.025693775  0.025772675            1 
 1119000    1.0707521   -7.5499448      344.936  0.025687816  0.025765227            2 
 1120000    1.0648239   -7.6021394    344.28577  0.025616501  0.025757636            1 
 1121000    1.0698843   -7.5452471    344.84151  0.025634962  0.025750103            1 
 1122000    1.0784821   -7.6138058      344.463  0.025584002  0.025742733            3 
 1123000    1.0553454   -7.5934094    345.23221    0.0256183  0.025735163            4 
 1124000    1.0995036   -7.5887181    346.02819  0.025654522  0.025727629            2 
 1125000    1.0632467   -7.5522552    347.17663  0.025716787  0.025720091            1 
 1126000    1.0685582   -7.5848754    346.48762  0.025642956  0.025712631            4 
 1127000    1.0772793   -7.5972201      346.988  0.025657202  0.025705225            2 
 1128000    1.0836227   -7.5856378    346.80536  0.025620964  0.025697969            1 
 1129000    1.0607926   -7.5921368    347.34328  0.025637975  0.025690811            2 
 1130000    1.0643019   -7.5884557    347.46616  0.025624348  0.025683545            2 
 1131000    1.0923509   -7.5979138    346.87767  0.025558331  0.025676077            2 
 1132000    1.0809253   -7.5792217    346.90558  0.025537807  0.025668611            2 
 1133000    1.0651561    -7.586819    347.21901  0.025538321  0.025661401            2 
 1134000     1.065881   -7.5936782    348.51173  0.025610797  0.025654381            1 
 1135000    1.0563614   -7.5879062    348.42791  0.025582078  0.025647241            2 
 1136000    1.0785626   -7.5586569    349.30523  0.025623917  0.025640157            1 
 1137000    1.0772455   -7.6096121    348.49504  0.025541999   0.02563315            4 
 1138000    1.0571847   -7.5610829    349.45528  0.025589871  0.025626043            1 
 1139000    1.0569577   -7.5474435     351.4007  0.025709738  0.025619089            1 
 1140000    1.0605903   -7.6231719    349.36934  0.025538695  0.025612232            1 
 1141000    1.0716707   -7.5871685    350.18885  0.025576165   0.02560517            1 
 1142000    1.0533506   -7.5523643    349.90555  0.025533096  0.025598054            2 
 1143000    1.0759273   -7.5249607    351.52074  0.025628517  0.025590986            2 
 1144000    1.0836809   -7.6329826    348.80698  0.025408434  0.025583785            2 
 1145000    1.0937667    -7.595023     349.9061  0.025466237  0.025576469            3 
 1146000    1.0443216   -7.6159934    350.62029  0.025495949  0.025569231            2 
 1147000    1.0652099    -7.599202    350.19411  0.025442757  0.025561981            4 
 1148000    1.0533865   -7.5741536    351.32567  0.025502734  0.025554505            6 
 1149000    1.0759563   -7.6161289     350.8894  0.025448897    0.0255471            3 
 1150000    1.0652345    -7.569244    351.03999   0.02543768  0.025539694            3 
 1151000    1.0853058   -7.5918044    352.26623  0.025504361  0.025532471            3 
 1152000     1.068393    -7.552786    352.16515   0.02547491   0.02552511            3 
 1153000    1.1050118    -7.583705    352.51769  0.025478295  0.025517938            1 
 1154000    1.0440658   -7.6232848    351.34024   0.02537119  0.025510707            4 
 1155000    1.0584031   -7.6438007    351.88401  0.025388457  0.025503303            1 
 1156000    1.0444247   -7.6141339    353.46921  0.025480767   0.02549612            3 
 1157000    1.0583177    -7.602149    353.24458  0.025442565  0.025488966            3 
 1158000    1.0471071   -7.6130507    353.06699  0.025407815   0.02548176            1 
 1159000    1.0646641   -7.6037739    353.28267    0.0254014  0.025474455           10 
 1160000    1.0517132   -7.6230481    353.73562  0.025412042  0.025467297            2 
 1161000    1.0622302   -7.6440486     353.0448  0.025340568  0.025460225            2 
 1162000    1.0506426   -7.5814861    354.99781  0.025458821  0.025453113            2 
 1163000    1.0566754   -7.5833334    355.11305  0.025445188  0.025446102            2 
 1164000    1.0755143   -7.6019557    355.18072  0.025428173  0.025439042            1 
 1165000    1.0676898   -7.6124841    354.74095  0.025374889  0.025432003            2 
 1166000     1.045606   -7.5877216    355.76406  0.025426248  0.025424883            2 
 1167000    1.0558323   -7.5985821    354.77562  0.025333878  0.025417702            3 
 1168000    1.0581378   -7.6057957    356.41722  0.025429311  0.025410469            3 
 1169000    1.0806269   -7.6165349    354.87324  0.025297494  0.025403142            4 
 1170000    1.0722319   -7.6206423    354.11737  0.025222035  0.025395716            3 
 1171000    1.0920503   -7.6004421    354.85921  0.025253288  0.025388221            2 
 1172000    1.0909756    -7.585352    356.93859  0.025379593  0.025380788            2 
 1173000    1.0606352   -7.6549288    355.79215  0.025276509   0.02537362            3 
 1174000    1.0468776   -7.6324373    356.50156  0.025305335  0.025366427            2 
 1175000     1.059306   -7.6420856    356.06434   0.02525279  0.025359232            2 
 1176000     1.070788   -7.5671546    357.45422  0.025329806  0.025352199            2 
 1177000    1.0733062   -7.6131231     357.3874  0.025303554  0.025345228            3 
 1178000    1.0781694   -7.5899981    357.95262  0.025322059   0.02533823            3 
 1179000    1.0539503    -7.638269    356.88109  0.025224844  0.025331163            3 
 1180000      1.04776   -7.6390003    358.43223   0.02531301  0.025324058            1 
 1181000    1.0774054    -7.634141     357.9334  0.025256379  0.025316968            5 
 1182000    1.0546582    -7.582988    359.45892  0.025342564  0.025309837            2 
 1183000    1.0781399    -7.597959    358.65756  0.025264692  0.025302729            1 
 1184000    1.0568567   -7.6082703    358.31869  0.025219502  0.025295695            1 
 1185000    1.0589334    -7.602867    358.80539  0.025232447  0.025288693            2 
 1186000    1.0455432     -7.60391    360.11865  0.025303446  0.025281637            1 
 1187000    1.0738544    -7.603469    358.40264  0.025161657   0.02527443            5 
 1188000    1.0689324    -7.627088    358.29368  0.025132834  0.025267186            1 
 1189000    1.0674794   -7.6203897    360.00168  0.025231404  0.025259992            2 
 1190000    1.0531912   -7.6209217    358.78377  0.025124914  0.025252767            1 
 1191000    1.0376915   -7.6318611      359.995  0.025188567  0.025245523            1 
 1192000    1.0942707   -7.6066512    360.69971  0.025216702  0.025238241            1 
 1193000    1.0729759    -7.600477    360.26762  0.025165383  0.025231022            1 
 1194000    1.0538721   -7.6229469    360.66464  0.025172016  0.025223959            1 
 1195000    1.0673942   -7.6247405    360.89137  0.025166762  0.025216773            2 
 1196000    1.0564407   -7.6358655    360.95073  0.025149856  0.025209365            2 
 1197000    1.0357918   -7.5714105    362.60206  0.025243808  0.025202167            1 
 1198000    1.0623294   -7.6223444    360.59159  0.025082888  0.025195089            2 
 1199000    1.0376249   -7.5903724    361.61181  0.025132875  0.025187954            4 
 1200000    1.0480109   -7.6284035    363.06625  0.025212934    0.0251809            3 
 1201000    1.0510363   -7.6251622    362.03811  0.025120601   0.02517391            3 
 1202000    1.0815568   -7.6186807    363.14138  0.025176191  0.025166786            3 
 1203000    1.0398076   -7.6659222    361.64064  0.025051305  0.025159594            2 
 1204000     1.062836   -7.6424896    362.08132     0.025061   0.02515233            3 
 1205000     1.058574   -7.6146614    362.27145   0.02505335  0.025145167            1 
 1206000     1.039668    -7.669944    362.32379  0.025036194  0.025137906            1 
 1207000    1.0604462   -7.6611839    362.72366  0.025043059  0.025130639            1 
 1208000    1.0475443   -7.6154511    363.66311  0.025087135  0.025123505            4 
 1209000    1.0682187   -7.6049714     363.6885  0.025068135    0.0251163            1 
 1210000    1.0500405   -7.6191334    363.49686  0.025034219  0.025109098            1 
 1211000     1.061207   -7.6375824    363.36268  0.025004313  0.025101838            1 
 1212000    1.0663196   -7.6389927    363.91549  0.025021692  0.025094723            2 
 1213000    1.0555227   -7.5991684    364.63638  0.025050589  0.025087557            2 
 1214000    1.0574458   -7.6654555    363.54625  0.024955124  0.025080407            1 
 1215000    1.0467844   -7.6014649    365.55211  0.025072161  0.025073182            1 
 1216000    1.0631882   -7.6252633    365.51863  0.025049248   0.02506626            2 
 1217000    1.0763399   -7.6128388    365.83406  0.025050264  0.025059255            1 
 1218000    1.0394442   -7.6470621    365.92201  0.025035715  0.025052313            2 
 1219000    1.0506864   -7.6048072    366.08682  0.025026444  0.025045289            4 
 1220000    1.0405164   -7.5779308    366.20975  0.025014328  0.025038254            3 
 1221000    1.0672856    -7.639828    365.79117  0.024965272  0.025031101            4 
 1222000    1.0597051    -7.640793    365.68591  0.024937664  0.025023987            3 
 1223000    1.0592986   -7.6189131    366.31156  0.024959905  0.025016833            2 
 1224000    1.0618809   -7.6015358    367.52404  0.025022062  0.025009873            2 
 1225000    1.0682517   -7.6235493    368.53977  0.025070732  0.025002936            3 
 1226000    1.0441523   -7.5945251    367.56815  0.024984241  0.024995922            1 
 1227000    1.0661528    -7.596545    368.20555  0.025007168   0.02498902            1 
 1228000     1.052988   -7.5850478    367.95115  0.024969541  0.024982039            3 
 1229000    1.0541926   -7.5894245    369.28932   0.02503996  0.024975105            2 
 1230000    1.0510768   -7.5890713    369.04222   0.02500286  0.024968132            2 
 1231000    1.0560603   -7.6481121    368.62119  0.024954047  0.024961088            2 
 1232000    1.0688267   -7.5969758    368.67796  0.024937633  0.024954089            2 
 1233000    1.0577197   -7.6386297    367.77534  0.024856403  0.024946955            4 
 1234000    1.0662178    -7.603217    368.68941  0.024897988  0.024939902            3 
 1235000    1.0505973   -7.5850099    369.78215  0.024951562  0.024932911            2 
 1236000    1.0403978   -7.6232178    368.15039  0.024821359  0.024925773            3 
 1237000    1.0309337   -7.6274551    367.69814  0.024770826  0.024918626            2 
 1238000    1.0760935   -7.6365663    369.47552  0.024870458  0.024911337            2 
 1239000    1.0511283   -7.6604805    368.67138    0.0247963  0.024903878            2 
 1240000    1.0505368   -7.6764162    368.07478  0.024736208  0.024896332            2 
 1241000    1.0686794   -7.6188805     368.8292  0.024766935  0.024888882            3 
 1242000    1.0519056   -7.6040201    370.46729  0.024856904  0.024881599            2 
 1243000    1.0577682   -7.6516348    369.92841  0.024800778  0.024874363            2 
 1244000    1.0599292   -7.6404034    370.80918  0.024839843   0.02486705            2 
 1245000    1.0521797   -7.5960946    371.57209  0.024870957  0.024859821            2 
 1246000    1.0586111   -7.6471475    371.02478  0.024814391  0.024852772            1 
 1247000    1.0506831   -7.6014707    372.09637  0.024866103  0.024845747            2 
 1248000    1.0424251   -7.6890532    371.11382   0.02478057  0.024838764            2 
 1249000    1.0413088   -7.6616689     370.9927  0.024752649  0.024831741            3 
 1250000    1.0247994   -7.6516648    372.07594  0.024805062  0.024824628            2 
 1251000    1.0703909   -7.6221328    372.62364  0.024821719  0.024817752            1 
 1252000    1.0628591   -7.5998488    373.58436  0.024865839  0.024810945            3 
 1253000    1.0633336   -7.6343089    374.04099  0.024876362  0.024804151            2 
 1254000    1.0371223   -7.6221634    374.19401  0.024866694  0.024797228            2 
 1255000    1.0485086   -7.6404077    374.03682  0.024836442  0.024790227            2 
 1256000    1.0620188   -7.6596707    372.97503   0.02474622  0.024783326            5 
 1257000    1.0695142   -7.6709845    373.52493  0.024762989   0.02477628            3 
 1258000     1.052139   -7.6719164    373.70132  0.024754989  0.024769126            4 
 1259000    1.0655866   -7.6636108     373.8101  0.024742527  0.024762091            2 
 1260000    1.0281166   -7.5958647    375.15309  0.024811713  0.024755136            2 
 1261000    1.0548241   -7.5909077    375.18416  0.024794089  0.024748463            3 
 1262000    1.0507008   -7.6630068    375.11276  0.024769728  0.024741678            2 
 1263000    1.0600686    -7.626162    376.48186   0.02484045  0.024734934            2 
 1264000    1.0554117   -7.6341409    375.67225  0.024767422  0.024728169            3 
 1265000    1.0337776   -7.6396862    375.91715  0.024763975  0.024721408            1 
 1266000    1.0747642   -7.6113366    377.47785  0.024847146  0.024714664            2 
 1267000    1.0519834   -7.6165879    376.69866  0.024776286   0.02470804            2 
 1268000    1.0576466   -7.6691054    376.45109  0.024740477  0.024701348            2 
 1269000    1.0733075    -7.658668    376.10623  0.024698334   0.02469449            2 
 1270000    1.0513097   -7.6289469    377.66905  0.024781434  0.024687684            7 
 1271000    1.0536943    -7.624802     376.9586  0.024715356  0.024680922            2 
 1272000    1.0398098   -7.6443772     377.7585   0.02474833  0.024674176            3 
 1273000     1.057414   -7.6252826    376.69931  0.024659552  0.024667372            2 
 1274000    1.0573862   -7.6427903     377.4087  0.024686597  0.024660626            2 
 1275000    1.0688179   -7.6709201    377.60583   0.02468012  0.024653886            3 
 1276000    1.0419951   -7.6497828    378.52491  0.024720801  0.024646914            1 
 1277000     1.052695   -7.6743058    377.83987  0.024656739  0.024640053            1 
 1278000    1.0264897   -7.6522839     378.6718  0.024691693  0.024633233            2 
 1279000    1.0368495   -7.7018654    377.69108  0.024608489  0.024626456            3 
 1280000    1.0622429   -7.6441702    378.96415  0.024672145   0.02461963            3 
 1281000    1.0644919   -7.6833668    380.08178  0.024725591  0.024612863            3 
 1282000    1.0716938   -7.7009666    378.78411  0.024621952  0.024606061            4 
 1283000    1.0539517   -7.6548244     380.3815  0.024706515  0.024599317            2 
 1284000    1.0455375   -7.6897674    378.85446  0.024588166  0.024592623            3 
 1285000    1.0298356   -7.6733191    380.19732  0.024656117  0.024585973            3 
 1286000    1.0327296   -7.6131618    380.20872  0.024637683  0.024579452            5 
 1287000    1.0423476   -7.6798382    380.54099  0.024640054  0.024572746            2 
 1288000    1.0597661   -7.6722468    380.92132  0.024645531  0.024566043            3 
 1289000     1.044539   -7.6276895    380.39085  0.024592116  0.024559277            2 
 1290000    1.0459224   -7.6380938    380.59105  0.024585985   0.02455253            4 
 1291000    1.0216346   -7.6510925    381.09054  0.024599183  0.024545882            2 
 1292000    1.0524479   -7.6499631    379.85085  0.024500184  0.024539036            2 
 1293000    1.0811616    -7.673336     381.1479   0.02456483  0.024532155            2 
 1294000    1.0817684   -7.6632651    381.33825  0.024558105  0.024525394            5 
 1295000    1.0403189   -7.6730622    380.61873   0.02449284  0.024518534            8 
 1296000    1.0320087   -7.6397109    381.68539  0.024542528  0.024511693            3 
 1297000    1.0485908   -7.6330519    382.69089  0.024588209  0.024504872            5 
 1298000    1.0376461   -7.6249237    382.23889  0.024540247  0.024498328            8 
 1299000    1.0573054   -7.6374194    383.18466  0.024582028  0.024491607            3 
 1300000    1.0387748   -7.6266563    382.25789  0.024503711  0.024484881            3 
 1301000    1.0383483   -7.6553586    382.99279  0.024531949  0.024478137            3 
 1302000    1.0374439   -7.6689705    382.43107  0.024477155    0.0244715            5 
 1303000     1.044802   -7.6471845    383.33323  0.024516068   0.02446469            4 
 1304000    1.0275831   -7.6602141    382.56161  0.024447956  0.024457871            3 
 1305000    1.0526642   -7.6865773    382.94386  0.024453631  0.024450976            1 
 1306000    1.0241932   -7.6296705      383.667  0.024481049   0.02444404            4 
 1307000    1.0454149   -7.6314227     383.7999  0.024470792  0.024437299            2 
 1308000    1.0296348   -7.6603771    383.85018  0.024455287  0.024430396            1 
 1309000    1.0429719   -7.6655465    383.40867  0.024408497  0.024423571            6 
 1310000    1.0364151   -7.6776487    383.53861   0.02439813  0.024416795            1 
 1311000    1.0496664   -7.6166868    385.31234  0.024492267  0.024409955            3 
 1312000    1.0411708   -7.6673201    385.00869  0.024454312  0.024403193            3 
 1313000    1.0586916   -7.6459216    384.86785  0.024426748  0.024396472            2 
 1314000    1.0521779   -7.6516422    384.95946  0.024413969  0.024389725            1 
 1315000    1.0580212   -7.6551417    384.74839  0.024382027  0.024382989            4 
 1316000    1.0839363   -7.6742657    385.05067  0.024382641  0.024376072            2 
 1317000     1.042494   -7.6759917    386.18567  0.024435945  0.024369368            4 
 1318000    1.0434374    -7.691029    385.51363  0.024374913  0.024362576            1 
 1319000    1.0534533   -7.6476861     386.8657  0.024441856  0.024355817            3 
 1320000    1.0366793   -7.6847962    385.52399  0.024338636  0.024349137            1 
 1321000    1.0447371   -7.6841053    386.51391  0.024382659  0.024342327            1 
 1322000    1.0387413   -7.6364728    387.30276  0.024413941  0.024335617            1 
 1323000    1.0302365   -7.6474555    387.19147  0.024388478  0.024329025            1 
 1324000    1.0373395   -7.6735409    388.55983  0.024456183  0.024322352            1 
 1325000    1.0490731   -7.6553653    387.75011  0.024386799  0.024315634            2 
 1326000    1.0412809   -7.6597268     386.8719  0.024313217  0.024308807            2 
 1327000     1.038229   -7.6711785      388.059  0.024369442  0.024301936            6 
 1328000    1.0548594   -7.6624667    387.47588  0.024314501  0.024295033            4 
 1329000    1.0356586     -7.67369    387.41839    0.0242926  0.024288349            3 
 1330000    1.0397847   -7.6545364    388.86774  0.024365147  0.024281657            2 
 1331000     1.044604   -7.7169481    388.21282  0.024305836  0.024275035            3 
 1332000    1.0445664   -7.7218057    388.44134  0.024301886   0.02426845            2 
 1333000    1.0421184   -7.6760155    389.38243  0.024342487  0.024261747            1 
 1334000    1.0702608   -7.6597363    388.88231  0.024292998  0.024255043            3 
 1335000    1.0473727   -7.6828807    388.85228  0.024272926  0.024248349            1 
 1336000    1.0221493   -7.6406063    390.01238  0.024327119  0.024241669            2 
 1337000    1.0398257   -7.6752233    390.67105  0.024349978  0.024235053            2 
 1338000    1.0379306   -7.6373373    390.62185  0.024328715  0.024228405            1 
 1339000    1.0447862   -7.6733601    390.53692   0.02430526  0.024221698            4 
 1340000    1.0506289   -7.6807232    390.74244  0.024299903  0.024214935            2 
 1341000    1.0516699   -7.6733908    390.91013  0.024292203  0.024208274            4 
 1342000    1.0465644   -7.7065717    390.37882  0.024241109  0.024201666            2 
 1343000    1.0525068      -7.6548    391.45598  0.024289897  0.024195027            3 
 1344000    1.0331038   -7.7183507    389.38519  0.024143427  0.024188352            2 
 1345000    1.0083173   -7.6793102    390.04929  0.024166623  0.024181544            2 
 1346000    1.0127408   -7.7215215    389.62268  0.024122256  0.024174589            3 
 1347000    1.0495845   -7.6469631    392.06066  0.024255175  0.024167789            2 
 1348000    1.0375512   -7.6747572    391.23165  0.024185933  0.024161027            2 
 1349000    1.0325593   -7.6938432    390.83771  0.024143669  0.024154088            1 
 1350000    1.0245652   -7.6895591    391.28786  0.024153572  0.024147127            2 
 1351000    1.0320353   -7.6868116    391.45363  0.024145919  0.024140224            1 
 1352000    1.0338833   -7.6685003    392.46779  0.024190569   0.02413342            2 
 1353000    1.0132171    -7.672596    392.50904   0.02417523  0.024126642            1 
 1354000    1.0502599   -7.6453974    391.72472  0.024109104  0.024119799            1 
 1355000    1.0422728   -7.7254656    392.43583  0.024135045   0.02411287            1 
 1356000    1.0300692   -7.6832294    391.47315  0.024058084  0.024106074            2 
 1357000    1.0238587   -7.6942792    390.97671  0.024009869   0.02409914            2 
 1358000    1.0392297   -7.6598904    392.24557  0.024070052  0.024092123            2 
 1359000    1.0176853   -7.6755848    392.91806  0.024093577   0.02408521            6 
 1360000    1.0553025   -7.6740688    392.78159  0.024067499   0.02407825            4 
 1361000    1.0369436   -7.7037136    392.63037  0.024040556  0.024071205            3 
 1362000    1.0398711      -7.6949    393.17678  0.024056337  0.024064183            2 
 1363000      1.01249    -7.715677     393.2746  0.024044668  0.024057191            2 
 1364000     1.033144   -7.6817665    393.78692   0.02405834  0.024050404            2 
 1365000     1.030112    -7.712428    394.13802   0.02406215  0.024043676            1 
 1366000    1.0215258   -7.6963648    394.13813  0.024044542  0.024036817            2 
 1367000    1.0328035   -7.6895776    394.22895  0.024032489  0.024029981            2 
 1368000    1.0013308   -7.7011155    394.71945  0.024044801  0.024023064            1 
 1369000    1.0295928   -7.6561816    395.65947  0.024084458  0.024016393            2 
 1370000    1.0428112   -7.6951677    395.36729  0.024049105  0.024009786            6 
 1371000    1.0331314   -7.7028448      394.789  0.023996414  0.024002933            1 
 1372000    1.0374531   -7.7283282     395.4445  0.024018738  0.023996173            2 
 1373000    1.0496329   -7.6990474    396.59493  0.024071069  0.023989386            2 
 1374000    1.0332219   -7.6702827    396.16882  0.024027706  0.023982768            2 
 1375000    1.0303974   -7.6823602    396.01649     0.024001  0.023975966            2 
 1376000    1.0357803   -7.6922806    397.04279  0.024045712  0.023969127            2 
 1377000     1.031499   -7.7218863    396.25844  0.023980782   0.02396222            2 
 1378000     1.042981   -7.7379493    396.41245  0.023972693   0.02395533            2 
 1379000    1.0094377   -7.7115316    396.38562  0.023953688  0.023948435            2 
 1380000      1.02384   -7.6969617     396.5831  0.023948255  0.023941627            2 
 1381000    1.0406961   -7.7131588    396.96053  0.023953689  0.023934934            2 
 1382000    1.0287308   -7.7594923    396.21138  0.023891183   0.02392811            2 
 1383000    1.0142162   -7.7245042    397.04008  0.023923842  0.023921314            1 
 1384000    1.0296013    -7.667754    398.61878  0.024001613  0.023914663            2 
 1385000     1.033052     -7.73424    397.32073  0.023906181  0.023907917            7 
 1386000    1.0331308   -7.6927401    399.17505  0.024000424  0.023901222            1 
 1387000     1.024012   -7.6864035    398.46945  0.023940726  0.023894507            1 
 1388000     1.040324   -7.7092304     398.8359  0.023945479  0.023887897            2 
 1389000    1.0472023   -7.6947914    399.57759  0.023972738  0.023881322            3 
 1390000    1.0387487   -7.6738276    398.86802  0.023912951  0.023874742            3 
 1391000    1.0540764   -7.7236388     398.1863  0.023854918   0.02386804            2 
 1392000    1.0322606   -7.7061861    398.65471  0.023865823  0.023861249            2 
 1393000    1.0114401   -7.6867466    399.92226  0.023924519  0.023854506            5 
 1394000    1.0318644   -7.6941798    399.49927   0.02388207  0.023847719            3 
 1395000    1.0363652   -7.6717076    400.04198   0.02389737  0.023841045            2 
 1396000     1.040503   -7.7092211    399.53109  0.023849754  0.023834194            2 
 1397000    1.0338242   -7.6846807    400.25425   0.02387582  0.023827321            2 
 1398000     1.029128    -7.680601    399.71773   0.02382676  0.023820613            4 
 1399000    1.0283814   -7.6960561     401.7649  0.023931672  0.023813859            3 
 1400000    1.0211829   -7.6969774    399.91572  0.023804507  0.023807109            1 
 1401000     1.018567   -7.6420232    402.22234  0.023924717  0.023800594            3 
 1402000    1.0200727   -7.7299653    400.51772  0.023806331  0.023794057            4 
 1403000    1.0192004   -7.7127677    401.90102  0.023871526  0.023787328            3 
 1404000    1.0390964    -7.712917    401.72097  0.023843837   0.02378065            1 
 1405000    1.0145335   -7.6677491    402.50891  0.023873601  0.023774017            3 
 1406000    1.0394107   -7.6972701    401.65481  0.023805999  0.023767496            3 
 1407000    1.0642258   -7.6867665    401.17557  0.023760695  0.023760963            6 
 1408000    1.0424432    -7.690292    402.93685  0.023848062   0.02375439            2 
 1409000    1.0073544   -7.6709485    403.32288  0.023853967  0.023747911            1 
 1410000    1.0128567   -7.6867427    403.55351   0.02385068  0.023741409            2 
 1411000    1.0239855   -7.6635681    404.58849  0.023894903  0.023734955            1 
 1412000     1.009619   -7.6830788    402.87348  0.023776763   0.02372858            5 
 1413000   0.99968429   -7.6875188    404.59869  0.023861683   0.02372215            2 
 1414000    1.0339388   -7.7042105     404.5991  0.023844831   0.02371557            2 
 1415000    1.0155867   -7.6656425    405.80646  0.023899085  0.023709048            2 
 1416000    1.0405231   -7.7490732    404.16783  0.023785771  0.023702578            1 
 1417000    1.0318071    -7.715233    405.29885    0.0238355  0.023696062            4 
 1418000    1.0260087   -7.6705925    405.45674   0.02382797  0.023689559           10 
 1419000    1.0246908   -7.6853028    404.25955  0.023740871  0.023683206            3 
 1420000    1.0334971   -7.7189428    405.31963  0.023786363  0.023676744            3 
 1421000     1.013703   -7.7030025    404.92478  0.023746469  0.023670302            1 
 1422000    1.0254654   -7.7494456    405.79311  0.023780656  0.023663879            1 
 1423000    1.0167548   -7.7524384    405.71627  0.023759444  0.023657377            1 
 1424000    1.0332163    -7.743474    405.63636  0.023738083  0.023650887            2 
 1425000    1.0422726   -7.7435414     406.4455  0.023768742  0.023644377            6 
 1426000    1.0094441   -7.7084129    407.70211  0.023825509  0.023637942            2 
 1427000    1.0188121   -7.7338102    405.58218  0.023685014   0.02363155            3 
 1428000    1.0312142   -7.7217023    407.85189  0.023800881  0.023625112            1 
 1429000    1.0249008   -7.7203812    407.04172  0.023736979  0.023618616            1 
 1430000    1.0237343   -7.7249644    406.84034  0.023708645  0.023612171            5 
 1431000   0.99693766   -7.6970937    407.75636  0.023745421  0.023605876            3 
 1432000    1.0181663   -7.6730878    408.62184  0.023779204  0.023599594            2 
 1433000    1.0340608   -7.7199393    408.38288  0.023748714  0.023593284            4 
 1434000    1.0303097   -7.7001231    407.51548  0.023681745  0.023586952            1 
 1435000    1.0219942   -7.6733578    409.11936  0.023758383  0.023580639            2 
 1436000    1.0029029   -7.7310456     408.1048  0.023682962  0.023574143            3 
 1437000    1.0462802   -7.6958172    408.79406  0.023706452  0.023567693            1 
 1438000     1.030889   -7.7053493    410.05457  0.023763014  0.023561239            1 
 1439000    1.0122094    -7.714022    408.26574  0.023642908  0.023554792            5 
 1440000    1.0197375   -7.6923422    408.47285  0.023638475  0.023548504            2 
 1441000    1.0154171    -7.684509    409.27754  0.023668606  0.023542174            1 
 1442000    1.0171469   -7.7075561    409.41971  0.023660409  0.023535694            2 
 1443000    1.0337217   -7.7311038    409.89507  0.023671464  0.023529155            3 
 1444000    1.0479083   -7.7461901    407.66865  0.023526584  0.023522605            2 
 1445000    1.0339543   -7.7162224    409.48368  0.023614976  0.023515914            2 
 1446000    1.0086858   -7.7193527    409.59709   0.02360518  0.023509181            3 
 1447000    1.0270814   -7.7172483    409.34717  0.023574474  0.023502429            2 
 1448000    1.0190567   -7.7172941    410.22425   0.02360867  0.023495815            3 
 1449000    1.0143395   -7.7101014    409.78564  0.023567152  0.023489031            3 
 1450000    1.0278635     -7.73257     409.4909   0.02353396  0.023482286            6 
 1451000    1.0209394   -7.6971744    410.23787   0.02356064  0.023475565            1 
 1452000    1.0541463   -7.7139824    411.01339  0.023588923  0.023468863            6 
 1453000     1.031759   -7.7056448    410.14414  0.023522834  0.023462194            1 
 1454000    1.0446941   -7.7406649    410.50505  0.023527341  0.023455553            2 
 1455000    1.0084539   -7.6973714    411.00415  0.023539757  0.023448921            2 
 1456000    1.0116055   -7.7185984    410.62465  0.023501869  0.023442383            3 
 1457000      1.02173   -7.7019762    410.95287  0.023504511  0.023435731            3 
 1458000    1.0121952   -7.6656065    413.35387  0.023625621  0.023429212            6 
 1459000    1.0093711   -7.7420973    411.49186  0.023503077  0.023422686            3 
 1460000    1.0193335    -7.719138     409.5215  0.023374515  0.023416039            2 
 1461000    1.0345782   -7.7392669    411.95163  0.023497127  0.023409371            2 
 1462000    1.0138878    -7.721946    411.71693  0.023467677  0.023402858            1 
 1463000    1.0148955   -7.7262208    412.76199  0.023511164  0.023396338            2 
 1464000    1.0198793   -7.7214627    413.19688  0.023519859  0.023389717            4 
 1465000    1.0369808   -7.6991236    412.93668  0.023489003  0.023383123            2 
 1466000   0.99339747   -7.7207977    412.90219   0.02347102    0.0233765            4 
 1467000    1.0349391   -7.7451094    412.77885  0.023448015  0.023369907            2 
 1468000    1.0222517   -7.7159671     412.6161  0.023422803  0.023363411            2 
 1469000    1.0026972   -7.7085768    414.31914  0.023503468  0.023356922            3 
 1470000    1.0125858   -7.7229844    413.69035  0.023451834  0.023350398            2 
 1471000    1.0373032   -7.7422352    413.47759  0.023423838  0.023343875            2 
 1472000      1.01945   -7.7369531    414.34343  0.023456942  0.023337254            3 
 1473000    1.0171114   -7.6909866    414.83239   0.02346868  0.023330794            2 
 1474000    1.0125692   -7.7088966    415.15504     0.023471   0.02332442            2 
 1475000    1.0083173   -7.7362535     413.9643  0.023387814  0.023317979            2 
 1476000    1.0070335   -7.7555794    415.36874  0.023451262  0.023311402            3 
 1477000    1.0189923   -7.7798179    414.19437  0.023369125  0.023304876            2 
 1478000    1.0207387   -7.7482933    415.15749  0.023407617  0.023298481            3 
 1479000    1.0185388   -7.7040791    415.13166  0.023390335  0.023291993            5 
 1480000    1.0283497   -7.7698339     414.4101  0.023333902  0.023285455            1 
 1481000    1.0135787   -7.7167411    415.84277  0.023398761  0.023278922            3 
 1482000    1.0096889    -7.736028    415.62856  0.023370927  0.023272412            3 
 1483000   0.99936354   -7.7498574    416.19428  0.023386957  0.023265975            3 
 1484000   0.99312449   -7.7104883    417.34349  0.023435731  0.023259516            1 
 1485000    1.0036061   -7.7153787    416.15278   0.02335313  0.023253149            1 
 1486000    1.0231951   -7.7561153    416.07569  0.023333091  0.023246717            2 
 1487000    1.0106851   -7.7463946    416.48344  0.023340251  0.023240196            2 
 1488000    1.0057029   -7.7376517    417.26624  0.023368405  0.023233733            3 
 1489000    1.0178848   -7.7174964    417.15038  0.023346227    0.0232272            3 
 1490000    1.0111093   -7.7358439    417.68759  0.023360603  0.023220665            2 
 1491000    1.0339417   -7.7427354    417.84507  0.023353737  0.023214107            2 
 1492000    1.0139181   -7.7557737    417.30824  0.023308101  0.023207561            1 
 1493000   0.99279677   -7.6913265    418.22796  0.023343824  0.023201094            2 
 1494000    1.0267028   -7.7498951    417.75567  0.023301856  0.023194663            3 
 1495000    1.0378486   -7.7339186    417.15781  0.023252944  0.023188203            1 
 1496000    0.9980237   -7.7447779    417.25609  0.023242875  0.023181665            2 
 1497000    1.0408239   -7.7108714    418.05666  0.023271914  0.023175078            2 
 1498000    1.0091213     -7.72162    418.22328  0.023265647  0.023168564            3 
 1499000   0.99542096   -7.7477052    418.03391  0.023239599   0.02316187            4 
 1500000    1.0185135   -7.7534878    417.76987  0.023209437  0.023155251            3 
 1501000    1.0128389   -7.7672307    417.97425  0.023205321  0.023148547            3 
 1502000    1.0223567   -7.7133491    418.21047  0.023202978  0.023141873            6 
 1503000    1.0258677   -7.7579089     417.7493  0.023161971  0.023135177            2 
 1504000    1.0327595   -7.8123234    417.54131  0.023135046   0.02312848            4 
 1505000   0.98197332   -7.7382786    419.84016  0.023246964  0.023121735           10 
 1506000    1.0249543    -7.722386    419.71295  0.023224488  0.023115028            5 
 1507000    1.0267299   -7.7180151    420.60527   0.02325842  0.023108365            2 
 1508000    1.0232694   -7.7136772     419.4641  0.023179935   0.02310172            3 
 1509000    1.0043143   -7.7188755    419.68157  0.023176583  0.023094978            4 
 1510000    1.0298942   -7.6958803    419.54916  0.023153927  0.023088319            3 
 1511000    1.0210215   -7.7409401    417.97693  0.023051894  0.023081562            2 
 1512000    1.0199724   -7.7739504    418.61207  0.023071653  0.023074674            2 
 1513000   0.99083483   -7.7457851    419.24206  0.023091103  0.023067777            3 
 1514000    1.0127885   -7.6872715    419.33374  0.023080897  0.023060972            3 
 1515000     1.000218   -7.7565168    419.71213  0.023086476  0.023054201            3 
 1516000     1.022734   -7.7950601    419.13684  0.023039624  0.023047322            2 
 1517000    1.0050545   -7.7481932     420.4812  0.023098286  0.023040366            2 
 1518000    1.0176233    -7.715447    419.98964  0.023056085  0.023033498            2 
 1519000    1.0064649   -7.7420424    419.79536  0.023030248  0.023026615            2 
 1520000   0.99418124   -7.7457171    418.58542  0.022948762  0.023019727            5 
 1521000   0.99088076   -7.7809191    419.67826  0.022993549  0.023012717            1 
 1522000   0.98409632   -7.7891154    419.51931  0.022969739  0.023005651            7 
 1523000    1.0139122   -7.7785385    418.57863  0.022903186  0.022998501            3 
 1524000     1.009991   -7.8172201    418.87482  0.022904354   0.02299137            5 
 1525000    1.0374877   -7.7599622    420.37725  0.022971434  0.022984297            3 
 1526000    1.0255744   -7.7562579     420.0695  0.022939575  0.022977219            2 
 1527000    1.0185596   -7.7403623    420.38582  0.022941815   0.02297007            2 
 1528000    1.0018038   -7.7505674    419.66176  0.022887313  0.022963023            3 
 1529000    1.0200318    -7.757859    419.99102  0.022890289  0.022956013            1 
 1530000    1.0001206   -7.6996846     421.5525  0.022960376  0.022948966            4 
 1531000     1.003697    -7.757653    420.49189  0.022887649  0.022942058            1 
 1532000   0.99952458   -7.7295547     421.9755   0.02295341  0.022935128            2 
 1533000    1.0433121   -7.7385351    421.32916  0.022903303  0.022928259            3 
 1534000    1.0067343     -7.76997    420.43242  0.022839658  0.022921208            2 
 1535000    1.0189007   -7.7336999    421.98022  0.022908807  0.022914247            4 
 1536000   0.99499138    -7.699225    422.04186  0.022897237  0.022907268            3 
 1537000   0.99149378   -7.7882516    422.06898   0.02288381  0.022900288            3 
 1538000      1.00619   -7.7687169     422.5425  0.022894587  0.022893364            1 
 1539000   0.98965979   -7.7804512    422.76217  0.022891605  0.022886473            1 
 1540000    1.0144728   -7.7558695    423.77133  0.022931349  0.022879663            3 
 1541000    1.0227861    -7.714811     424.1642  0.022937714  0.022872985            1 
 1542000    1.0141235   -7.7474275    424.61052  0.022946958  0.022866249            1 
 1543000    1.0079706   -7.7386619    424.55929   0.02292932  0.022859522            2 
 1544000    1.0093326   -7.7459712    424.31971  0.022901539  0.022852779            2 
 1545000    1.0031194   -7.7550066    424.88744  0.022917338  0.022846084            2 
 1546000      1.00081   -7.7620435    423.86853  0.022847592  0.022839399            4 
 1547000    1.0239926    -7.746164    425.17829  0.022903377  0.022832721            3 
 1548000    1.0105714   -7.7388751     426.9355  0.022983177  0.022826117            2 
 1549000    1.0065778   -7.7197066    427.39353  0.022992981  0.022819593            1 
 1550000    1.0197618   -7.7412211    426.66108  0.022938768  0.022813024            2 
 1551000    1.0158358   -7.7871669    425.32488  0.022852186  0.022806433            1 
 1552000    1.0123127   -7.7615437    426.16387   0.02288251  0.022799861            3 
 1553000    1.0104464    -7.737401    426.24571  0.022872168  0.022793355            1 
 1554000   0.97588565    -7.765384    426.10436  0.022849869  0.022786777            3 
 1555000   0.99649782   -7.7528281    428.07843  0.022940966  0.022780278            3 
 1556000   0.98613831    -7.774686    426.86949  0.022861477   0.02277387            2 
 1557000   0.99590498     -7.79821    427.66778  0.022889519  0.022767405            2 
 1558000     1.019823   -7.7398008    429.03307  0.022947854  0.022761028            3 
 1559000    1.0210714   -7.7518599    429.27533  0.022946084  0.022754737            4 
 1560000     0.974795   -7.7648496    429.15658  0.022925031  0.022748516            1 
 1561000   0.97946362   -7.8107763    428.15052  0.022856637    0.0227422            7 
 1562000   0.99680266   -7.7622899     429.3712  0.022907128  0.022735829            1 
 1563000   0.99120505   -7.7491824    429.76512  0.022913474  0.022729632            2 
 1564000    1.0125391   -7.7577506    428.82566  0.022848767   0.02272336            2 
 1565000    1.0271944   -7.7544813    429.55309  0.022872901  0.022717049            2 
 1566000    1.0150592   -7.7913214    428.63517  0.022809449   0.02271075            7 
 1567000    1.0045054   -7.7523992    430.07908  0.022871681  0.022704416            2 
 1568000   0.99812528   -7.8110391    429.02241  0.022800936  0.022698028            1 
 1569000   0.99896893   -7.7534776    429.13465  0.022792365  0.022691628            2 
 1570000    1.0196415   -7.7640645    429.86098    0.0228164  0.022685222            3 
 1571000    1.0112828   -7.7822483    429.98697   0.02280856  0.022678828            1 
 1572000   0.99161443   -7.7813529    430.20534  0.022805626  0.022672349            3 
 1573000    1.0019741   -7.7574596    432.41102  0.022907979  0.022666028            2 
 1574000    1.0026511   -7.7670117    429.88544  0.022759712  0.022659642            4 
 1575000   0.96314187   -7.8014393    429.72394  0.022736716  0.022653184            1 
 1576000   0.99764213   -7.8356466    429.04047   0.02268615  0.022646698            2 
 1577000    1.0035935   -7.7749369    431.00829   0.02277575  0.022640239            2 
 1578000   0.99917656   -7.7670135    430.85476  0.022753209  0.022633827            8 
 1579000   0.99758253   -7.7716135    431.11064  0.022752303  0.022627421            2 
 1580000   0.96474008   -7.7844809    431.72612  0.022770365  0.022621065            2 
 1581000   0.98621213   -7.7674918    430.78261  0.022706231  0.022614694            3 
 1582000   0.99175784   -7.8011961    431.50686  0.022730029   0.02260832            3 
 1583000   0.99817778   -7.7695281    432.20818  0.022752589   0.02260191            2 
 1584000    1.0039203   -7.7879799    431.69981   0.02271148  0.022595543            3 
 1585000    1.0196604    -7.769993    432.03182  0.022714607  0.022589153            2 
 1586000    1.0113074   -7.7970948    432.60222  0.022730255  0.022582734            2 
 1587000   0.99757188   -7.7912045    431.03399  0.022633585  0.022576206            1 
 1588000    1.0082919   -7.7689746    431.56605  0.022647253  0.022569754            2 
 1589000    1.0018689   -7.7839985    431.55878  0.022632619   0.02256326            2 
 1590000   0.99274602   -7.7732758    433.49698  0.022719967  0.022556803            1 
 1591000    1.0011699   -7.7684501    434.25371  0.022745323  0.022550522            3 
 1592000    1.0403523   -7.7474188    433.72093  0.022703147  0.022544134            1 
 1593000   0.98884643   -7.7623679    434.77544  0.022744059  0.022537855            5 
 1594000   0.97762918   -7.7702982    434.30141  0.022705009  0.022531547            2 
 1595000    1.0113134   -7.7477757    435.97019  0.022777962  0.022525291            2 
 1596000   0.98698759   -7.8022785    434.99169  0.022712598  0.022519042            2 
 1597000    1.0118861    -7.767342    434.26665  0.022660543  0.022512847            2 
 1598000   0.99039482    -7.779727    434.79618  0.022673977   0.02250654            5 
 1599000   0.99407062   -7.7733254    435.35049  0.022688685  0.022500259            2 
 1600000     1.001353   -7.8157235    433.94952  0.022601537  0.022493865            8 
 1601000   0.99737529   -7.7784318    435.44484  0.022665253  0.022487453            1 
 1602000   0.98818635    -7.785401    434.32778  0.022592998  0.022481145            2 
 1603000   0.98638211    -7.754467    435.41868  0.022635614   0.02247467            4 
 1604000    1.0127679   -7.7664946    434.90951   0.02259505   0.02246822            3 
 1605000   0.98057584   -7.7984079    434.07386  0.022537584  0.022461773            2 
 1606000    1.0015392   -7.7788254    434.22078  0.022531174  0.022455398            3 
 1607000   0.99155699   -7.7920054     435.2353  0.022569762  0.022448951            2 
 1608000    1.0071007   -7.7897367    435.46974  0.022567876  0.022442408            3 
 1609000    1.0151126   -7.7388902    435.81027  0.022571487  0.022435939            2 
 1610000    1.0086763    -7.798702    434.93021  0.022511916  0.022429553            2 
 1611000    1.0150377   -7.7767768    436.77269  0.022593249  0.022423119            3 
 1612000   0.98660347   -7.8386663    434.50753  0.022462134  0.022416638            3 
 1613000   0.98597701   -7.7968736    436.85175  0.022569319   0.02241013            1 
 1614000    1.0096502   -7.8213648    436.09866  0.022516453  0.022403594            5 
 1615000   0.99966816   -7.7707863    436.44056  0.022520153  0.022397035            2 
 1616000   0.99480664   -7.7708643    437.46841  0.022559221  0.022390666            3 
 1617000   0.98437227   -7.8084031    436.77849  0.022509714  0.022384338            3 
 1618000   0.98639029   -7.7928673    436.68709  0.022491094  0.022377992            2 
 1619000   0.98744053   -7.7729539    437.81332  0.022535172  0.022371584            2 
 1620000   0.97414214   -7.8038649    437.65895   0.02251332   0.02236523            2 
 1621000    1.0043799   -7.7972425    437.91148  0.022512414  0.022359004           11 
 1622000   0.99946529   -7.8208601    437.33453  0.022468893  0.022352709            1 
 1623000    1.0026017   -7.7766583    439.68076  0.022575516  0.022346403            3 
 1624000   0.99383943    -7.809284     438.0646  0.022478685   0.02234005            2 
 1625000    1.0075607   -7.8033687    436.31028  0.022374886  0.022333643            2 
 1626000   0.99255417   -7.7915399    437.86603  0.022440858  0.022327253            1 
 1627000   0.98857674   -7.8182118    438.24031  0.022446236  0.022320936            1 
 1628000   0.98985039   -7.7830358    439.14147  0.022478576  0.022314585            4 
 1629000   0.99015087   -7.7575211     439.4979  0.022483011  0.022308318            2 
 1630000   0.98839112   -7.8178649    439.07175  0.022447431  0.022302011            4 
 1631000   0.97648558   -7.7793187     440.1899  0.022490798  0.022295678            3 
 1632000   0.97834689   -7.8000442    439.76284   0.02245521  0.022289328            1 
 1633000    1.0152052   -7.7850298    439.29106  0.022417384  0.022282948            1 
 1634000   0.97775529   -7.7939967    439.00899  0.022389279  0.022276642            3 
 1635000   0.96306694   -7.8376756    439.19821   0.02238523  0.022270289            1 
 1636000   0.99209464    -7.803941    440.79151  0.022452705  0.022263981            1 
 1637000   0.97942815   -7.7866749    441.57933  0.022479095  0.022257742            2 
 1638000    0.9919236   -7.8250785    440.81017   0.02242624  0.022251537            2 
 1639000     1.005977   -7.8245419    440.82436  0.022413279  0.022245235            2 
 1640000    1.0109973   -7.7791941    442.20536  0.022469785  0.022238964            3 
 1641000   0.99708919   -7.7877841    441.69229  0.022430037  0.022232678            5 
 1642000   0.99699228   -7.8173332    440.80198  0.022371193  0.022226418            5 
 1643000   0.97441944   -7.8442677    440.51452  0.022342997  0.022220116            3 
 1644000   0.99994775   -7.8028973    441.33877  0.022371187  0.022213807            2 
 1645000   0.97010339   -7.7927024    441.92635  0.022387353  0.022207479            3 
 1646000   0.97565116    -7.797615    442.77007  0.022416467  0.022201274            3 
 1647000   0.97962643   -7.7960289    441.66588  0.022346989  0.022195078            3 
 1648000   0.98691876   -7.7895008    442.11926  0.022356354  0.022188889            1 
 1649000   0.97204078   -7.8315016     441.7481   0.02232404  0.022182636            5 
 1650000   0.98987329   -7.7901774    442.85566  0.022366448  0.022176418            2 
 1651000    1.0080929   -7.8068796    443.27547   0.02237409  0.022170259            1 
 1652000   0.98051207   -7.7957895    444.09069  0.022401669  0.022164096            2 
 1653000    0.9869326   -7.8242429    443.76345   0.02237162  0.022157862            6 
 1654000   0.98021875   -7.7866268    445.55773  0.022448495  0.022151765            3 
 1655000   0.97033247     -7.83184    443.61299  0.022337009  0.022145658            2 
 1656000   0.99232806   -7.8035488    444.10616  0.022348337   0.02213948            2 
 1657000   0.98422062   -7.8417693    443.23993  0.022291286  0.022133413            2 
 1658000   0.98750696    -7.816536    443.94704  0.022313382  0.022127197            2 
 1659000    1.0077598   -7.7981367    443.97286  0.022301228  0.022121042            5 
 1660000    0.9825128   -7.8046649     445.0032  0.022339518  0.022114858            4 
 1661000   0.96928979   -7.8059655     446.0716  0.022379671  0.022108681            1 
 1662000   0.99196094   -7.8114841    444.21934  0.022273332  0.022102449            4 
 1663000    0.9822601    -7.785032    444.80238  0.022289155  0.022096249            2 
 1664000   0.97883375   -7.7987677    443.65368  0.022218233  0.022090045            5 
 1665000   0.96952627   -7.8169895    443.98047  0.022221245  0.022083774            2 
 1666000   0.96784251   -7.8321237    444.21874  0.022219825  0.022077466            5 
 1667000   0.97771701   -7.8394592    444.86785  0.022238945  0.022071144            5 
 1668000   0.99144271   -7.8141943    443.46377  0.022155464  0.022064794            2 
 1669000   0.98447291   -7.8077127    444.63048  0.022200443  0.022058556            2 
 1670000   0.98195539   -7.7873409    444.64646  0.022187947  0.022052221            2 
 1671000   0.98895547   -7.7992385    445.40204   0.02221235  0.022045893            4 
 1672000   0.97025784   -7.8060278     446.5022  0.022253898  0.022039611            4 
 1673000   0.98736338   -7.8335452    444.67395  0.022149529  0.022033398            2 
 1674000   0.98286693   -7.8035033    445.62194   0.02218349  0.022027061            2 
 1675000   0.99556586   -7.8209084    446.95677  0.022236655   0.02202075            2 
 1676000   0.99533469   -7.7878354    446.30479   0.02219097  0.022014443            2 
 1677000   0.97595195   -7.8324754    444.97827   0.02211182   0.02200808            1 
 1678000    1.0060925   -7.7856129    446.36464  0.022167493  0.022001741            7 
 1679000   0.98449492   -7.8274968    446.17817  0.022145035  0.021995387            3 
 1680000   0.99343276   -7.8372327     447.4937  0.022197108  0.021989062            4 
 1681000   0.99611591   -7.8013515    447.54151  0.022186273  0.021982813            3 
 1682000   0.98544996    -7.832057    445.06402  0.022050338  0.021976486            3 
 1683000   0.97186265   -7.8417033    445.93575    0.0220804  0.021970152            2 
 1684000    1.0066458    -7.805353    446.65881  0.022103069  0.021963931            3 
 1685000   0.97173335   -7.8308709    447.79798   0.02214629  0.021957676            5 
 1686000   0.98119253    -7.798063    447.65377  0.022126026   0.02195139            3 
 1687000    1.0031587   -7.7820651    447.09176  0.022085149  0.021945043            3 
 1688000   0.96245875   -7.8022358    448.31631  0.022132519    0.0219387            5 
 1689000    0.9934168   -7.7934414    447.40368  0.022074387  0.021932374            1 
 1690000   0.98337832   -7.8252025    449.53972  0.022166653  0.021926065            2 
 1691000   0.99979456    -7.801675    448.90308   0.02212217  0.021919792            3 
 1692000   0.97945759   -7.8170923    448.33802  0.022081266  0.021913607            2 
 1693000   0.99314628   -7.8618321    447.76524  0.022040029  0.021907239            2 
 1694000   0.99745465   -7.8334586    448.14012   0.02204546  0.021900902            3 
 1695000   0.97635277   -7.8198622    447.71487  0.022011547  0.021894585            2 
 1696000   0.97288024   -7.8179823    448.53089  0.022038664  0.021888322            4 
 1697000    0.9781849   -7.8309737    449.05829  0.022051576  0.021882037            2 
 1698000    0.9739589   -7.8227061    448.68681  0.022020358   0.02187577            2 
 1699000   0.97182719   -7.8254067    449.93068  0.022068407  0.021869543            5 
 1700000    1.0065983   -7.8479164     449.8699  0.022052446    0.0218633            1 
 1701000   0.98485217   -7.7906087    450.20221  0.022055762  0.021857111            1 
 1702000   0.98473798    -7.796607    450.03668  0.022034698  0.021850811            3 
 1703000   0.95688163   -7.8292849    448.69363   0.02195604  0.021844502            1 
 1704000   0.96948329   -7.8253749    449.84375  0.021999401  0.021838225            4 
 1705000   0.97029141   -7.8441272    450.03819  0.021996002  0.021831904            3 
 1706000   0.97581359   -7.8334787    448.75469  0.021920413  0.021825623            3 
 1707000   0.98033759   -7.8319796    449.25388  0.021931941  0.021819299            3 
 1708000    0.9756602   -7.8218873    450.25795  0.021968089  0.021813038            8 
 1709000   0.99979991   -7.8147013    451.31517  0.022006786  0.021806747            2 
 1710000   0.95530568    -7.828193    450.34352  0.021946565  0.021800462            2 
 1711000   0.97969976   -7.8809275    450.40924   0.02193694  0.021794173            2 
 1712000   0.99291863   -7.8080282    451.48907  0.021976687  0.021787901            7 
 1713000   0.97885933   -7.8079046    450.67214  0.021924116   0.02178162            8 
 1714000   0.94673338   -7.8493651    451.22625  0.021938266  0.021775288            1 
 1715000   0.96037261   -7.8093899    451.22445  0.021925386  0.021768982            2 
 1716000   0.99764548   -7.8170036    451.56392  0.021929095  0.021762726            4 
 1717000   0.97174135   -7.8363837    450.37229  0.021858488  0.021756475            3 
 1718000     1.004516   -7.8545968    451.34095  0.021892751  0.021750136            3 
 1719000   0.98569111   -7.8572154    450.92138  0.021859675  0.021743837            2 
 1720000   0.96042505    -7.825081    451.41163  0.021870718  0.021737487            4 
 1721000   0.98685283   -7.8167649    452.65094  0.021918019  0.021731234            2 
 1722000   0.98299713   -7.8114608    451.67504  0.021858064  0.021724951            2 
 1723000   0.99061885   -7.8297726    452.32036  0.021876589  0.021718605            3 
 1724000   0.97417345   -7.8331195    452.04417   0.02185055  0.021712259            3 
 1725000   0.98430918   -7.8458924    451.47166  0.021810225  0.021705956            3 
 1726000   0.96085838    -7.851041    453.29706  0.021885721  0.021699673            2 
 1727000   0.95163346   -7.8414735    452.33483  0.021826618  0.021693423            5 
 1728000   0.98378393   -7.8198488    453.65477  0.021877641   0.02168722            4 
 1729000   0.97421902   -7.8352129    453.12366   0.02183939  0.021681045            3 
 1730000   0.96814953   -7.8491598    453.10399  0.021825818  0.021674907            7 
 1731000   0.99221456   -7.8862225    453.38296   0.02182664  0.021668662            2 
 1732000   0.96110421   -7.8119872    454.80319  0.021882371  0.021662482            4 
 1733000   0.98247777   -7.8407229    454.40093  0.021850401  0.021656315            5 
 1734000   0.98905212    -7.907311    453.21233  0.021780677  0.021650066            4 
 1735000   0.97109519   -7.8392232    454.53467  0.021831636   0.02164387            4 
 1736000   0.98755278   -7.8656655    453.26394  0.021758062  0.021637722            2 
 1737000    0.9842614   -7.8367006    454.74529  0.021816604  0.021631572            2 
 1738000   0.96990783   -7.8625282    454.52611  0.021793542  0.021625395            2 
 1739000   0.97741135   -7.8638161    455.17485  0.021812098  0.021619203            2 
 1740000   0.98439907   -7.8615563    456.41774  0.021859087  0.021613009            8 
 1741000   0.96290974   -7.8389712    454.00996  0.021731283  0.021606754            3 
 1742000   0.97400184   -7.8502427    455.50633  0.021790391  0.021600579            2 
 1743000   0.96190849    -7.819761    455.47901  0.021776583  0.021594366            2 
 1744000   0.95280765   -7.8095969    455.90346  0.021784378  0.021588104            4 
 1745000   0.96801297   -7.8688497    456.42523  0.021796811  0.021581985            3 
 1746000   0.97781739   -7.8390293    456.56698  0.021791093    0.0215758            4 
 1747000    0.9778655   -7.8115566     456.3836  0.021769872  0.021569701            2 
 1748000   0.98703948   -7.8220827    456.92555  0.021783254  0.021563498            2 
 1749000   0.97546427    -7.849739    457.50928  0.021798613  0.021557372            4 
 1750000   0.97663534   -7.8004615    457.68565  0.021794555  0.021551326            1 
 1751000   0.98343629   -7.8254369    457.27808  0.021762711  0.021545213            2 
 1752000   0.97949127   -7.8637143    457.40598  0.021756373  0.021539051            5 
 1753000   0.97570844   -7.8354269    457.23701   0.02173593  0.021532932            4 
 1754000   0.94820468   -7.8620551    456.47368  0.021687271  0.021526789            4 
 1755000   0.97948629    -7.845561    456.67013  0.021684242  0.021520634            3 
 1756000   0.98363404   -7.8443242    457.23657  0.021698774  0.021514505            3 
 1757000   0.96047317   -7.8364673    458.88122  0.021764429   0.02150846            3 
 1758000   0.97480408   -7.8603321    459.12457  0.021763584  0.021502454            2 
 1759000   0.96077541   -7.8349855    458.99125  0.021744895  0.021496458            3 
 1760000   0.94637164    -7.843371     458.9304  0.021729659  0.021490497            3 
 1761000     0.957744   -7.8535104    458.55072  0.021699353  0.021484517            3 
 1762000   0.95322613   -7.8415923    460.98438  0.021802137  0.021478563            3 
 1763000   0.95789495   -7.8275046    457.90506  0.021644217  0.021472658            2 
 1764000   0.96220834    -7.821734    459.01245  0.021684261  0.021466676            4 
 1765000   0.97221722   -7.8223476    460.14501  0.021725449   0.02146072            2 
 1766000   0.98930285   -7.8512728    460.42601  0.021726407  0.021454755            5 
 1767000   0.96278794   -7.8109055    460.54578  0.021719759  0.021448771            1 
 1768000    0.9751421   -7.8584614    459.80133  0.021672385  0.021442749            5 
 1769000   0.98070814   -7.8650459    459.28397  0.021635763  0.021436704            3 
 1770000   0.97761681   -7.8828744    459.67577  0.021641985  0.021430605            2 
 1771000   0.97729183   -7.8813613    458.44153  0.021571689  0.021424476            1 
 1772000   0.96668738   -7.8474008    460.18106  0.021641322  0.021418427            3 
 1773000   0.96832273   -7.8654724    460.16145  0.021628194   0.02141245            1 
 1774000   0.95693997   -7.8703681     460.6839  0.021640544   0.02140646            8 
 1775000   0.94574545   -7.8918029    459.92923  0.021592921  0.021400425            4 
 1776000   0.95655627   -7.8199077     462.7946  0.021715212  0.021394457            2 
 1777000   0.98672896   -7.8477665    461.77522  0.021655188  0.021388483            2 
 1778000   0.98623725   -7.7972696    461.86934   0.02164742  0.021382473            2 
 1779000   0.98323441   -7.8111266     462.8088  0.021679258  0.021376636            2 
 1780000    0.9494171   -7.8448672    461.50272  0.021605932  0.021370715            2 
 1781000    0.9708948   -7.8386223    461.23794  0.021581412  0.021364762            2 
 1782000   0.95885602   -7.8729775     461.5499   0.02158389  0.021358787            5 
 1783000   0.97475196   -7.8542198    462.11321  0.021598112  0.021352862            7 
 1784000   0.97232045   -7.8444904     463.5283  0.021652107  0.021346913            5 
 1785000   0.96245528   -7.8822605     461.5831  0.021549164  0.021340966            2 
 1786000   0.96324781   -7.8791218    461.95697  0.021554543   0.02133492            2 
 1787000    0.9607664   -7.8770715    462.37638   0.02156204  0.021328926            3 
 1788000   0.96642994   -7.8812895    462.98321  0.021578263  0.021322883            3 
 1789000   0.96792006   -7.8952199     460.8976  0.021469051  0.021316814            2 
 1790000   0.94629286   -7.8693933    462.80561  0.021545885  0.021310696            6 
 1791000   0.95787135   -7.8482181    464.12122  0.021595069  0.021304696            4 
 1792000   0.96368484   -7.8575911    462.49098  0.021507207   0.02129868            2 
 1793000   0.95706441    -7.896343    461.46843  0.021447687  0.021292553            3 
 1794000   0.94823322   -7.9248214    461.55013  0.021439527  0.021286442            2 
 1795000   0.94518917   -7.8931538    461.76061  0.021437354  0.021280218            2 
 1796000   0.95325471   -7.8904794    461.98463  0.021435812  0.021274003            3 
 1797000   0.96932238   -7.8774345    462.88756  0.021465756  0.021267853           11 
 1798000   0.96184914   -7.8798118     463.5444   0.02148426  0.021261677            4 
 1799000   0.95673084   -7.8990922    461.77572  0.021390389  0.021255496            3 
 1800000   0.96316656   -7.8606756    463.68281  0.021466797  0.021249363            5 
 1801000   0.96216808   -7.8494741    464.24767  0.021481014  0.021243262            4 
 1802000   0.94920507   -7.8476941    463.01221  0.021411959    0.0212372            2 
 1803000   0.96699081   -7.8453348    464.37738  0.021463181  0.021231155            2 
 1804000   0.96139602   -7.8734547    463.50769  0.021411109  0.021225022            4 
 1805000   0.95895718   -7.8361651    464.39313  0.021440126  0.021218947            4 
 1806000   0.96961488   -7.8727182     463.5444  0.021389092  0.021212869            2 
 1807000   0.94963803    -7.863507    464.10148  0.021402946  0.021206792            2 
 1808000   0.94554551   -7.8649578    464.51418   0.02141013  0.021200666            2 
 1809000   0.96904429   -7.9092391    462.40631  0.021301194  0.021194485            2 
 1810000   0.97817625   -7.9079935    464.02578  0.021363986  0.021188253            3 
 1811000    0.9507948   -7.8779291    463.43319  0.021324921  0.021182036            4 
 1812000   0.97185813   -7.9001888     464.3431  0.021354999  0.021175785            3 
 1813000   0.94734823   -7.8935555    462.82065  0.021273242  0.021169526            2 
 1814000   0.94574343   -7.8984993    463.36637  0.021286584  0.021163265            4 
 1815000   0.97014936   -7.8997355    463.51713  0.021281778  0.021156933            2 
 1816000   0.95338542   -7.9184591    463.95468  0.021290138  0.021150679            2 
 1817000   0.96151626   -7.9116215    464.96302  0.021324666  0.021144413            2 
 1818000   0.95282281   -7.8946225    464.52327  0.021292779  0.021138251            4 
 1819000    0.9492679   -7.8926211    465.39063  0.021320809  0.021132113            3 
 1820000   0.95229327   -7.8574769    466.43744  0.021357026  0.021125899            3 
 1821000   0.97764353   -7.8466569    466.88574  0.021365813  0.021119855            2 
 1822000   0.96903452   -7.8511636    466.76217  0.021348434  0.021113799            3 
 1823000   0.92736792   -7.8793699    466.01058  0.021302367  0.021107709            1 
 1824000   0.95289495   -7.8813747    466.86803  0.021329863  0.021101668            2 
 1825000   0.94944266   -7.8916521    466.16879  0.021286246  0.021095588            3 
 1826000   0.97405336   -7.8926001    467.59718  0.021339776  0.021089511            3 
 1827000   0.95898011   -7.8948371    466.95932  0.021299002  0.021083485            3 
 1828000   0.96783965   -7.8712836    467.45648  0.021310015  0.021077417            4 
 1829000   0.95416736    -7.873938    467.25239  0.021289065  0.021071286            3 
 1830000   0.97013496   -7.8809524     468.5496  0.021336503  0.021065253            4 
 1831000   0.95776251   -7.9012012    468.54361  0.021324577  0.021059256            2 
 1832000   0.94553758   -7.8996048    468.11326  0.021293362  0.021053263            4 
 1833000   0.94917259   -7.9036645     466.8547  0.021224527  0.021047225            2 
 1834000   0.95325151   -7.8582937    468.18656  0.021273471  0.021041229            5 
 1835000   0.95661238   -7.8494977    468.85508  0.021292238  0.021035249            4 
 1836000   0.94119423   -7.9070493     467.0373  0.021198134  0.021029202            2 
 1837000   0.94477713   -7.8619869    468.23053  0.021240725  0.021023081            2 
 1838000   0.95758912   -7.8872029    468.62587  0.021247093  0.021017009            4 
 1839000   0.96697797   -7.9005084    468.06351  0.021210056  0.021011027            3 
 1840000   0.95373759   -7.8766908    468.50454  0.021218503  0.021004981            1 
 1841000   0.94794238   -7.9092361    469.63842  0.021258303  0.020998943            2 
 1842000   0.97021361   -7.9228805     467.7556  0.021161582  0.020992821            6 
 1843000   0.96317735   -7.8745935    468.46358  0.021182112  0.020986729            2 
 1844000   0.96014156   -7.9386733    468.61854  0.021177628  0.020980691            3 
 1845000   0.96796798   -7.9374732    467.40281  0.021111238  0.020974606            3 
 1846000   0.94976164   -7.8965455    469.71649  0.021204248  0.020968511            3 
 1847000   0.96141877   -7.9060831    469.44715  0.021180615  0.020962436            2 
 1848000   0.97189699   -7.9153664    469.30839  0.021162896  0.020956421            4 
 1849000   0.94254619    -7.937102    470.24404   0.02119362   0.02095038            2 
 1850000   0.95191398   -7.8768394    471.87697  0.021255719  0.020944355            2 
 1851000   0.94279636   -7.8904464    470.12486  0.021165355  0.020938348            2 
 1852000   0.94657789   -7.8885273     471.6858  0.021224163  0.020932417            3 
 1853000   0.97319349   -7.8671954    471.66151  0.021211617  0.020926563            2 
 1854000    0.9449108   -7.9193267    469.17568  0.021088443  0.020920623            2 
 1855000   0.95718285   -7.9394406    469.94213  0.021111506  0.020914631            2 
 1856000   0.95950317   -7.9402027    469.05255   0.02106019  0.020908625            1 
 1857000    0.9588197   -7.8793483    471.00947  0.021136666  0.020902583            3 
 1858000   0.95387668    -7.926405    470.17293   0.02108777   0.02089659            2 
 1859000   0.95698136   -7.9317615    470.86204  0.021107318  0.020890556            1 
 1860000   0.93457963   -7.9727755      469.543  0.021036873  0.020884476            1 
 1861000   0.94456475   -7.9314029    471.11237  0.021095843  0.020878415            3 
 1862000   0.94951757   -7.9060382    471.79271  0.021114962  0.020872439            3 
 1863000   0.96240898    -7.946057    470.26117  0.021035121    0.0208664           15 
 1864000   0.95782432    -7.901543    472.25246  0.021112861  0.020860458            2 
 1865000   0.94912385    -7.905121    471.99652  0.021090104  0.020854443           11 
 1866000   0.96927444   -7.9053679    471.39781  0.021052063  0.020848357            4 
 1867000   0.96017642   -7.8749141    472.90464  0.021108045  0.020842394            2 
 1868000   0.94804187   -7.8940679    471.54747    0.0210362  0.020836428            8 
 1869000   0.96350963   -7.8689243    473.00338   0.02108986  0.020830464            1 
 1870000   0.95505225   -7.8896664    473.00196  0.021078519  0.020824484            3 
 1871000   0.94735763   -7.9150021    472.79874  0.021058202  0.020818608            3 
 1872000   0.94842553   -7.8764868     472.6505  0.021040353  0.020812726            3 
 1873000   0.97186724   -7.9011721    472.18575  0.021008442  0.020806768            1 
 1874000   0.96154997   -7.9434214    472.44269  0.021008657  0.020800812            4 
 1875000   0.95341011   -7.8967096    472.94564  0.021019806  0.020794872            3 
 1876000   0.95030573   -7.8797089     474.5116  0.021078163  0.020789047            3 
 1877000   0.95054385   -7.9181534     474.4696  0.021065068  0.020783226            2 
 1878000   0.94604393   -7.9312416    472.86744  0.020982758  0.020777337            2 
 1879000   0.94643243   -7.9404101    473.77615  0.021011892  0.020771366            3 
 1880000   0.95913599   -7.9179561    474.32937  0.021025238  0.020765388            1 
 1881000   0.93775896   -7.9304751    474.77447   0.02103378  0.020759383            4 
 1882000   0.95916379   -7.9068179    473.96411  0.020986721  0.020753445            4 
 1883000    0.9433087   -7.9016052    474.88236  0.021016213  0.020747524            3 
 1884000    0.9406465   -7.8866585    474.91142  0.021006344  0.020741638            3 
 1885000   0.96169153   -7.9242455    474.31252  0.020968723  0.020735706            4 
 1886000   0.95981588   -7.9054755     473.7189  0.020931376  0.020729737            3 
 1887000   0.95419296   -7.9076625    474.94137   0.02097427  0.020723724            4 
 1888000   0.95904321   -7.9231079    474.52723  0.020944881  0.020717704            3 
 1889000   0.95660276   -7.8956162    475.39396  0.020972029  0.020711703            2 
 1890000    0.9505799   -7.9018343    475.19434  0.020952132  0.020705738            4 
 1891000   0.96338703   -7.9013432    474.64962  0.020917047  0.020699797            5 
 1892000    0.9870176   -7.9019371    475.20694  0.020930538  0.020693833            2 
 1893000   0.94329549   -7.9062805    476.00275  0.020954514  0.020687821            5 
 1894000   0.96110278   -7.9042706    476.17336  0.020950957  0.020681809            5 
 1895000   0.93076622   -7.9116683    475.16449  0.020895536  0.020675879            2 
 1896000   0.95672191   -7.9190016    474.03376  0.020834817  0.020669839            4 
 1897000   0.95031496   -7.9000519     473.4685  0.020799003  0.020663692            2 
 1898000   0.94156336   -7.9058052    476.27542  0.020911285  0.020657609            3 
 1899000   0.98699493   -7.9430372    474.25798  0.020811742  0.020651516            2 
 1900000   0.95361416   -7.9001477    474.81497  0.020825218  0.020645446            3 
 1901000   0.96218471    -7.922682    475.30875  0.020835909  0.020639435            4 
 1902000   0.95080528    -7.912025    476.28195  0.020867593  0.020633365            1 
 1903000   0.94745747   -7.9512034    475.00531  0.020800723   0.02062735            1 
 1904000   0.93677859   -7.8950767     476.2498  0.020844266  0.020621316            3 
 1905000     0.969209   -7.9395865    476.19545  0.020830947  0.020615253            9 
 1906000   0.94884839   -7.9485275     475.8627   0.02080547  0.020609222            2 
 1907000   0.95076128   -7.9183774    476.93574   0.02084145  0.020603246            1 
 1908000    0.9635632   -7.9326224    475.84627  0.020782943  0.020597311            4 
 1909000   0.94336269   -7.9043029    477.73523  0.020854515  0.020591347            2 
 1910000   0.92912501   -7.9115351    476.80159  0.020802862  0.020585401            2 
 1911000   0.93162746   -7.8846321    477.84233  0.020837359  0.020579435            5 
 1912000   0.94157962   -7.9117698    478.69811   0.02086376  0.020573509            2 
 1913000   0.92320605   -7.9203362    476.63619  0.020763033  0.020567552            4 
 1914000   0.95615026   -7.9293666    475.87917  0.020719226  0.020561513            2 
 1915000   0.93140355   -7.9022878    478.15557  0.020807466  0.020555544            4 
 1916000   0.93995798   -7.8790775    478.82519   0.02082573  0.020549598            3 
 1917000   0.95514389   -7.9309059    479.10023  0.020826823  0.020543664            3 
 1918000     0.944205   -7.8839778    479.57551  0.020836614  0.020537809            1 
 1919000   0.93376592   -7.9716389    477.50605  0.020735889  0.020531849            2 
 1920000   0.96258805   -7.9460265    479.39501  0.020807075  0.020525935            4 
 1921000    0.9520338   -7.9104126    479.84773  0.020815883  0.020520041            2 
 1922000   0.92740556   -7.8999346    480.40013  0.020829003  0.020514182            3 
 1923000    0.9332657   -7.9526451    479.18348  0.020765448  0.020508372            3 
 1924000   0.93921934   -7.9116991    480.54315  0.020813546  0.020502536            2 
 1925000   0.95135749   -7.9550635    477.96077  0.020690943  0.020496649            3 
 1926000   0.96005161   -7.9161076    479.80429  0.020759964   0.02049079            3 
 1927000   0.92277061   -7.9366552    479.86512  0.020751822  0.020484911            4 
 1928000   0.93582071   -7.9117565    479.40468  0.020721157  0.020478974            4 
 1929000   0.94286484   -7.9292036    478.70838  0.020680334  0.020473122            2 
 1930000   0.96569087   -7.9279131    481.42165  0.020786772  0.020467158            5 
 1931000   0.92239121   -7.9223905     478.8949  0.020666965  0.020461245            4 
 1932000   0.93068132   -7.9141892     479.8346    0.0206968  0.020455303            5 
 1933000   0.93385899   -7.8664155    480.80711  0.020728018  0.020449402            3 
 1934000   0.95903474   -7.9435836    479.64375  0.020667173  0.020443453            1 
 1935000   0.96082545   -7.8980063    479.64896  0.020656716  0.020437526            2 
 1936000   0.94042581   -7.9293875    480.18378  0.020669067  0.020431585            3 
 1937000   0.94487119   -7.9165449    481.29418  0.020706168  0.020425583            3 
 1938000    0.9548405   -7.9365002    480.26641  0.020651291  0.020419559            3 
 1939000   0.93327707    -7.929085    479.95778  0.020627376  0.020413611            4 
 1940000   0.94080085   -7.9305292    479.76917  0.020608641  0.020407688            8 
 1941000   0.91207136   -7.9002353    481.61012  0.020677062  0.020401773            5 
 1942000   0.94928886   -7.9230737    481.34167  0.020654895  0.020395858            1 
 1943000   0.96209699   -7.9147311    482.38931  0.020689197  0.020389959            5 
 1944000   0.92972412   -7.9137222    482.50026   0.02068331  0.020384145            2 
 1945000   0.93851407   -7.9216964    481.85002  0.020644817  0.020378318            2 
 1946000    0.9607188   -7.9286899    481.00764  0.020598135  0.020372469            3 
 1947000   0.93742218   -7.9072746    482.78037   0.02066343  0.020366589            1 
 1948000   0.92680891   -7.9024452     481.4776  0.020597091  0.020360693            4 
 1949000   0.93692641    -7.920782     481.4162  0.020583898  0.020354772            2 
 1950000   0.96289727   -7.9324599    481.93325  0.020595438  0.020348852            2 
 1951000    0.9516588   -7.9355416    480.61824  0.020528713  0.020342935            3 
 1952000   0.92750055    -7.941472    481.04651   0.02053648  0.020336973            6 
 1953000   0.96805098   -7.9429175    482.08314  0.020570197  0.020330994            7 
 1954000   0.95504929   -7.9562915    480.76314  0.020503375  0.020325032            1 
 1955000   0.93677552   -7.9036603    483.10255  0.020592606  0.020319112            3 
 1956000    0.9135227   -7.9146896    481.42322  0.020510532  0.020313148            3 
 1957000   0.93559244   -7.9403357    483.00155  0.020567261  0.020307192            2 
 1958000   0.93289691   -7.9682312    480.67947  0.020457928  0.020301196            5 
 1959000   0.94615199    -7.945421    481.53594  0.020483918  0.020295184            2 
 1960000   0.93104383   -7.9415968    483.05313  0.020537973  0.020289163            3 
 1961000   0.92606842   -7.9366461      482.742  0.020514278  0.020283206            2 
 1962000   0.94471821   -7.9316539    482.72633  0.020503157    0.0202772            2 
 1963000   0.95485065   -7.9644733     482.3476  0.020476634  0.020271112            4 
 1964000   0.95580381    -7.914511    483.36867  0.020509533  0.020265095            3 
 1965000   0.94502662   -7.9591075    482.45827  0.020460487  0.020259123            3 
 1966000   0.95521262    -7.942497    482.60178  0.020456162  0.020253174            2 
 1967000   0.95427229   -7.9048136    483.47553   0.02048278  0.020247157            1 
 1968000   0.94643652    -7.934526    483.73307  0.020483277  0.020241143           10 
 1969000   0.92898402   -7.9229919    482.50514  0.020420905  0.020235115            1 
 1970000   0.92425466   -7.9253555    482.38823  0.020405593  0.020229098            3 
 1971000   0.92593201   -7.9132098    483.04323  0.020422934  0.020223076            3 
 1972000   0.93044066   -7.8977722    483.83443  0.020446012  0.020217047            3 
 1973000    0.9485972   -7.9065772    484.96142   0.02048325  0.020211074            3 
 1974000   0.94318962    -7.929087    484.42036  0.020450032  0.020205103            3 
 1975000   0.92185921   -7.9490168     484.3154  0.020435249  0.020199092            2 
 1976000   0.94504532   -7.9249187    483.67846  0.020398046  0.020193114            3 
 1977000   0.94343348   -7.9464714    483.78191  0.020392089   0.02018712            5 
 1978000    0.9394982   -7.9736867    482.86825  0.020343287  0.020181127            5 
 1979000   0.90983426   -7.9377327     483.5339  0.020361037  0.020175075            5 
 1980000   0.92480049   -7.9265709    484.12489  0.020375627   0.02016904            2 
 1981000   0.93270633   -7.9259121    484.72687  0.020390664  0.020162972            5 
 1982000    0.9392196   -7.9511631    484.49098  0.020370458  0.020156911            3 
 1983000   0.95334284   -7.9717291    484.19251  0.020347643  0.020150832            2 
 1984000   0.91790457   -7.9243691    484.61556  0.020355156  0.020144859            2 
 1985000   0.96357334   -7.9288778    486.59133  0.020427848  0.020138892            2 
 1986000   0.93365043   -7.9185978    484.64654  0.020335957  0.020132975            8 
 1987000   0.93403976   -7.9675399     484.8975  0.020336248  0.020126899            2 
 1988000   0.93883608   -7.9616254    482.92187  0.020243204  0.020120794            6 
 1989000   0.92505867   -7.9741007    484.63921  0.020304978  0.020114777            2 
 1990000   0.92683856    -7.920289    486.48421  0.020372036  0.020108755            7 
 1991000   0.92503687   -7.9870734    484.72521  0.020288181   0.02010269            3 
 1992000    0.9126035   -7.9945022    484.23581  0.020257522  0.020096616           12 
 1993000   0.95206332   -7.9748975    485.03733  0.020280872  0.020090555            2 
 1994000   0.93333457   -7.9779519    485.17454  0.020276435  0.020084464            3 
 1995000   0.93130288   -7.9840838    485.23514  0.020268803  0.020078314            4 
 1996000   0.91830047   -7.9816014     484.7782  0.020239571  0.020072199            1 
 1997000   0.94822496   -7.9949374    485.29132  0.020250848  0.020066156            4 
 1998000   0.93952006   -7.9644083    486.00904  0.020270647  0.020060068            5 
 1999000   0.92920959   -7.9643567    485.74631  0.020249554  0.020053996            3 
 2000000   0.92581583   -7.9373659     486.4358  0.020268158  0.020047995            4 
 2001000    0.9266263   -7.9408126    486.90713  0.020277658  0.020042056            2 
 2002000   0.95158244   -7.9935901    485.67404  0.020216202  0.020036066            1 
 2003000   0.93868615   -7.9543879    486.00565  0.020219906  0.020029967            3 
 2004000   0.93069328   -7.9373825    484.68778  0.020155014  0.020023855            3 
 2005000   0.91834068   -7.9531944    485.59607  0.020182713  0.020017696            4 
 2006000   0.92097453   -7.9824626    485.53622  0.020170165  0.020011577            4 
 2007000   0.92991456   -7.9194907    487.66546  0.020248524  0.020005524            1 
 2008000   0.91140179   -7.9861225    486.84952  0.020204578  0.019999441            1 
 2009000   0.91866024   -7.9706767    485.82846  0.020152168  0.019993362            2 
 2010000   0.94573286   -7.9728933    486.52092  0.020170851  0.019987225            2 
 2011000   0.95079996   -8.0006627     484.9859  0.020097211  0.019981037            2 
 2012000   0.91531958   -7.9622972     487.0657  0.020173364  0.019974928            2 
 2013000   0.92299793   -7.9869579    486.16668  0.020126125  0.019968792            4 
 2014000   0.95604201   -7.9427666    487.03633  0.020152116  0.019962716            5 
 2015000   0.93361596   -7.9646401    486.00469   0.02009945  0.019956636            7 
 2016000   0.91537267   -7.9385402    488.18361  0.020179547  0.019950568            2 
 2017000   0.92903479   -7.9493434    487.71174  0.020150047  0.019944502            3 
 2018000   0.96453652   -7.9778314    487.12593  0.020115871  0.019938393            3 
 2019000   0.94315254   -7.9705435    487.93202  0.020139179  0.019932262            6 
 2020000     0.934043    -7.986635    486.63105  0.020075538  0.019926139            4 
 2021000   0.92249395   -7.9586036    487.80817  0.020114142  0.019920047            2 
 2022000   0.92698959   -7.9414577     488.6264  0.020137916  0.019913895            1 
 2023000   0.92968568   -7.9732833    487.22243  0.020070128  0.019907801            3 
 2024000   0.92780677   -7.9926645    487.58946  0.020075323  0.019901608            3 
 2025000   0.90847809   -8.0195511    485.60825  0.019983879  0.019895426            4 
 2026000   0.90859521   -8.0110561    487.71671   0.02006074  0.019889188            3 
 2027000    0.9218947   -7.9875938     486.8582  0.020015548  0.019882982            2 
 2028000   0.93021867   -8.0033637    487.29373  0.020023575  0.019876828            3 
 2029000   0.92256374   -7.9673022    488.99746  0.020083681   0.01987068            2 
 2030000   0.93434897   -7.9560186    488.78067  0.020064888  0.019864584            2 
 2031000   0.93086493   -8.0121772    487.97439  0.020021926  0.019858453            2 
 2032000     0.910203   -8.0058244    487.64676  0.019998637  0.019852258            1 
 2033000    0.9206968   -7.9797034    488.62678  0.020028971   0.01984611            4 
 2034000   0.91803503   -7.9847921    487.95387  0.019991555  0.019839944            5 
 2035000   0.92743191   -7.9997119    488.25226   0.01999395  0.019833773            2 
 2036000   0.91868071   -8.0001505    488.41508  0.019990794  0.019827593            2 
 2037000   0.92228917   -8.0104559    489.05864  0.020007308  0.019821469            5 
 2038000   0.92584115   -7.9696379    489.45376  0.020013647  0.019815323            4 
 2039000   0.93972254   -7.9990344    488.76329  0.019975613  0.019809182            5 
 2040000   0.91587845    -7.963521    490.06465  0.020018981  0.019803044            6 
 2041000   0.92625824   -7.9528129    489.97945  0.020005694   0.01979704            1 
 2042000    0.9182952   -7.9344026    490.38498  0.020012446  0.019791003            3 
 2043000   0.93046411   -7.9386547    490.56677  0.020010066  0.019784968            5 
 2044000   0.92303978   -7.9737085    489.10084  0.019940511  0.019778904            2 
 2045000   0.94764523    -7.977181    489.62537  0.019952134  0.019772806            2 
 2046000   0.92224211    -7.985392    489.98078  0.019956858   0.01976676            4 
 2047000   0.91378842   -8.0274466    489.76995  0.019938526  0.019760722            3 
 2048000   0.93820947   -7.9947716    490.42258  0.019955346  0.019754625            2 
 2049000   0.92374797   -8.0010649    489.73501  0.019917643  0.019748479            3 
 2050000   0.90647772    -8.031654    489.22826  0.019887328  0.019742349            5 
 2051000   0.91634206   -7.9844978    489.09714  0.019872304  0.019736254            2 
 2052000   0.92780594   -7.9678914    491.74239  0.019970045  0.019730136            3 
 2053000   0.91720129   -7.9905542    489.34482  0.019862998  0.019724066            1 
 2054000   0.91108981   -7.9693096    490.64845  0.019906218  0.019718025            1 
 2055000   0.94684345   -7.9899755    489.71203  0.019858558  0.019711936            9 
 2056000   0.91178156   -7.9537151    491.25412  0.019911403  0.019705793            3 
 2057000   0.93048181   -7.9768456    489.85084  0.019844873   0.01969972            2 
 2058000   0.92432468   -7.9885059    490.70708  0.019869901  0.019693649            2 
 2059000   0.91040232   -7.9636115    492.00842   0.01991292  0.019687574            3 
 2060000   0.91512772   -7.9955571    490.36158  0.019836633  0.019681458            3 
 2061000   0.94017203   -7.9706843    491.04996  0.019854842  0.019675349            4 
 2062000    0.9265618   -7.9608152    492.00345  0.019883748  0.019669284            4 
 2063000   0.91481219   -8.0114882    491.38433    0.0198491  0.019663221            3 
 2064000   0.90602456   -7.9773403    492.59288  0.019888278  0.019657215            3 
 2065000   0.93133655   -7.9646654    493.21159  0.019903615  0.019651242            2 
 2066000   0.93865183   -7.9774407    492.82543  0.019878405  0.019645269            2 
 2067000     0.931727    -7.977574    492.53211  0.019856963  0.019639276            3 
 2068000   0.89324701   -7.9888239    492.93069  0.019863422   0.01963333            3 
 2069000   0.93321053   -7.9916841    493.39482  0.019872516  0.019627322            2 
 2070000   0.90128575    -7.984506    492.08688  0.019810261  0.019621316            2 
 2071000    0.9259005   -7.9632301     492.8182  0.019830123  0.019615282            4 
 2072000   0.91334393    -7.999107    492.65895  0.019814147  0.019609289            6 
 2073000   0.91934661   -8.0219912    492.07417  0.019781081  0.019603256            6 
 2074000   0.90584167    -8.013661     491.4708    0.0197473  0.019597194            2 
 2075000    0.9211601   -7.9888203    493.83296  0.019832649  0.019591183            9 
 2076000   0.90405612   -8.0062116    492.73773  0.019779132  0.019585214            1 
 2077000   0.93408538   -7.9680655    491.95625  0.019738254  0.019579142            1 
 2078000   0.93977215   -8.0036677    493.12028  0.019775436  0.019573079            5 
 2079000   0.95246849   -8.0119374     492.4795   0.01974024  0.019567057            2 
 2080000   0.92418154    -8.017096    493.05293  0.019753723  0.019561017            3 
 2081000   0.92785881   -8.0507954    492.16291   0.01970859  0.019554953            3 
 2082000   0.92485415   -7.9689133    495.41757  0.019829394  0.019548932            3 
 2083000   0.91909464   -7.9802273    494.91542  0.019799785  0.019542989            3 
 2084000    0.9291363   -7.9827675    494.84659  0.019787531  0.019537103            4 
 2085000   0.92993925   -7.9960299    495.06657  0.019786834  0.019531182            3 
 2086000   0.91388123   -7.9756074    495.04941  0.019776662  0.019525282            2 
 2087000   0.92589782   -7.9760935    494.86737  0.019759917  0.019519401            3 
 2088000   0.91116143   -8.0001548    493.77704  0.019706938  0.019513442            1 
 2089000   0.94071258    -7.996793    495.22507  0.019755268  0.019507524            2 
 2090000   0.91085002   -7.9380053    494.50652  0.019717166  0.019501607            6 
 2091000   0.91664043   -7.9505458    496.20742  0.019775523   0.01949574            2 
 2092000   0.90753167   -7.9797982    495.64831  0.019743798  0.019489862            2 
 2093000   0.92470519    -7.997255    495.66418  0.019734997  0.019483902            3 
 2094000   0.90343024    -7.992435    494.98653  0.019698604  0.019477973            2 
 2095000   0.91746032   -7.9896603    495.68726  0.019717075  0.019472035            4 
 2096000   0.92850086   -7.9971069    495.16135  0.019686759  0.019466154            4 
 2097000   0.91249448   -7.9878288    495.37698  0.019685939  0.019460231            5 
 2098000   0.92146712   -7.9774694    496.91419  0.019737615  0.019454316            4 
 2099000   0.92333428   -7.9838656    495.23039  0.019661362  0.019448393            3 
 2100000   0.91772564   -8.0031777    495.34578  0.019656578  0.019442434            5 
 2101000   0.90513225   -7.9981714    496.05587  0.019675388  0.019436403            2 
 2102000   0.91625112   -8.0010748    496.13177  0.019669036   0.01943047            3 
 2103000   0.90810733   -8.0253442    497.08212  0.019697342  0.019424474            4 
 2104000   0.91378387   -8.0088008    495.44784  0.019623251  0.019418501            2 
 2105000   0.91045309   -8.0291422    495.84464  0.019629637  0.019412605            6 
 2106000   0.91762209   -7.9566129    497.12282  0.019670893  0.019406696            1 
 2107000   0.92396913   -8.0218368    496.27709  0.019628108  0.019400812            6 
 2108000   0.91016643   -7.9934681    497.12454  0.019652298  0.019394931            2 
 2109000   0.91516181   -7.9869473    497.78426  0.019669048   0.01938905            2 
 2110000   0.90791347   -7.9926649    496.99904  0.019628714  0.019383158            6 
 2111000   0.90182274   -7.9704069    497.03414  0.019620801  0.019377273            4 
 2112000   0.91563403   -8.0049194    497.15191  0.019616158  0.019371356            1 
 2113000   0.91488836   -8.0217054    497.52723  0.019621677  0.019365455            2 
 2114000   0.89938981    -7.993997     498.0882  0.019634508  0.019359577            2 
 2115000   0.90301376   -7.9927441       497.33  0.019595351  0.019353665            3 
 2116000   0.89522776   -7.9905106    497.70014  0.019600667  0.019347766            3 
 2117000   0.91208861   -8.0208005    496.27484  0.019535303  0.019341818            7 
 2118000    0.9221589    -7.978092    497.91439  0.019590588  0.019335882            2 
 2119000   0.91516181   -7.9800969    498.39972   0.01960043  0.019329954            2 
 2120000     0.884548   -8.0520201    496.14234   0.01950245  0.019323937            3 
 2121000   0.91718985   -8.0062558    498.22078  0.019574917  0.019317926            5 
 2122000   0.90808764   -8.0185709    497.35047  0.019531514  0.019311927            3 
 2123000   0.90689259   -8.0140286    497.26813  0.019519082  0.019305968            2 
 2124000   0.93037864   -8.0307356    496.20993  0.019468374  0.019300001            4 
 2125000   0.91414453   -8.0063082    497.21316  0.019498555  0.019294048            2 
 2126000   0.91928496   -8.0372131    498.53849  0.019541333   0.01928804            2 
 2127000   0.91419411   -8.0395205    498.07805  0.019514106  0.019282023            4 
 2128000   0.92118604   -7.9841235    497.67342  0.019489091   0.01927602            3 
 2129000   0.92185311   -8.0331274    497.66733  0.019479698  0.019270116            6 
 2130000   0.90254306   -8.0088055     498.1084  0.019487809  0.019264201            4 
 2131000   0.90259996   -8.0298975    497.39214  0.019450654  0.019258242            3 
 2132000    0.9067653   -8.0496439    498.44695  0.019482761  0.019252339            3 
 2133000   0.91678977     -8.00008    499.99352  0.019534049   0.01924641            3 
 2134000   0.89494758    -8.018942    499.28209  0.019497114    0.0192405            4 
 2135000   0.89796821   -8.0469792    498.55523  0.019459611   0.01923458            6 
 2136000   0.90783274    -8.069474    497.62624  0.019414257  0.019228601            5 
 2137000   0.90869012   -8.0363239    497.79603  0.019411794  0.019222558            3 
 2138000    0.8969359   -8.0543414    497.74031  0.019400542  0.019216547            2 
 2139000   0.91117888   -8.0367534    499.07495  0.019443468  0.019210558            4 
 2140000   0.91563334   -8.0332898    498.61209  0.019416359  0.019204597            2 
 2141000   0.89851754   -8.0518742    498.36504  0.019397674  0.019198725            2 
 2142000   0.92180035   -8.0042129    499.85844  0.019446718  0.019192882            2 
 2143000   0.89974849   -8.0072785    499.62609  0.019428608  0.019187083            6 
 2144000   0.91408072   -7.9899891    501.42902  0.019489623  0.019181323            6 
 2145000   0.90130365    -8.036679    501.60304  0.019487298  0.019175526            3 
 2146000   0.88953658   -7.9924839    501.19776  0.019462479   0.01916971            3 
 2147000   0.91058411   -7.9758041     501.3048  0.019457569  0.019163891            2 
 2148000   0.92004846   -8.0212354    501.39765  0.019452112  0.019158093            2 
 2149000   0.91430618    -8.028943    501.64419  0.019452621  0.019152294            3 
 2150000   0.91256726   -8.0277102    500.74007   0.01940853  0.019146467            6 
 2151000   0.92133604   -8.0017016    500.44827  0.019388202  0.019140674            3 
 2152000   0.89104823    -8.052638    499.84842  0.019355964  0.019134834            4 
 2153000   0.91646353   -8.0721224    500.72592  0.019380938  0.019128892            4 
 2154000    0.9223421   -8.0714235    500.90188  0.019378748  0.019122941            2 
 2155000   0.90660806   -8.0279571    502.14831  0.019417955  0.019117049            9 
 2156000   0.89653398   -8.0471656    500.91901  0.019361434  0.019111143            4 
 2157000   0.91157442   -8.0271886    502.30733  0.019406094  0.019105268            3 
 2158000   0.90719174   -8.0326008      501.553  0.019367972  0.019099428            2 
 2159000   0.89093206    -7.977514    502.54303  0.019397214  0.019093624            3 
 2160000   0.91299593   -7.9779119    503.04913   0.01940776  0.019087897            3 
 2161000   0.93648443   -8.0009957    503.01305  0.019397387  0.019082116            2 
 2162000   0.88737075   -8.0263094    501.54226  0.019331724  0.019076355            2 
 2163000   0.90360928   -8.0230275    502.58515  0.019362966  0.019070578            2 
 2164000   0.90991065   -8.0088321    502.45269  0.019348918  0.019064836            5 
 2165000   0.90289798   -8.0021064    503.66448  0.019386623  0.019059072            5 
 2166000    0.8936795   -8.0268897    503.32594  0.019364648  0.019053258            3 
 2167000   0.90437628   -8.0540599    502.26966  0.019315092   0.01904746            1 
 2168000   0.92383697   -8.0444452    503.06805  0.019336871  0.019041666            1 
 2169000   0.89663362   -8.0396276    503.90823  0.019360236  0.019035938            5 
 2170000   0.90224703   -8.0324204    504.20535  0.019362725  0.019030179            5 
 2171000   0.90138699   -8.0069853    504.41663  0.019361916  0.019024483            4 
 2172000    0.9059089   -8.0152604    503.37715   0.01931312  0.019018726            1 
 2173000   0.89986695   -8.0496465    503.12363   0.01929451  0.019012973            5 
 2174000   0.88205999    -8.028331     503.0605  0.019283215   0.01900719            6 
 2175000   0.88256591   -8.0669516     502.2971    0.0192451  0.019001355            7 
 2176000   0.91293793   -8.0113351      502.733  0.019252949   0.01899551            2 
 2177000    0.8987092   -8.0462205    502.08079  0.019219139  0.018989671            3 
 2178000    0.9016919   -8.0444589    503.60734  0.019268723  0.018983848            6 
 2179000   0.91493455   -8.0261026    504.34233  0.019287989  0.018978027            4 
 2180000   0.89718565   -8.0595097     502.9075  0.019224293  0.018972233            1 
 2181000   0.90329566   -8.0375758    503.07927  0.019222041  0.018966396            4 
 2182000   0.89671462   -8.0579829    504.59331  0.019271055   0.01896052            2 
 2183000   0.89822035   -8.0359904    503.45251  0.019218679  0.018954699            3 
 2184000   0.89485638   -8.0045765    502.56666  0.019176078  0.018948868            3 
 2185000   0.88325727   -8.0283191    503.37816  0.019198252  0.018943068            5 
 2186000   0.88599569   -8.0345849    504.08437  0.019216391  0.018937227            2 
 2187000   0.89278908     -7.99222    504.38257  0.019218967  0.018931432            2 
 2188000   0.90664513   -8.0419751    503.69172  0.019183871  0.018925633            2 
 2189000   0.89424277   -8.0604438    504.37906  0.019201274  0.018919793            4 
 2190000   0.90007411   -8.0647414    502.65121  0.019126759  0.018913928            3 
 2191000   0.90618322   -8.0626393    502.79825  0.019123621  0.018908081            2 
 2192000   0.89322159   -8.0437654    503.59083  0.019145028  0.018902262            3 
 2193000   0.89151505   -8.0762428    503.73907  0.019141931  0.018896453            3 
 2194000   0.91364441   -8.0775717    503.70641  0.019131966  0.018890622            2 
 2195000   0.89041595   -8.0269614    504.99719  0.019172255  0.018884801            4 
 2196000    0.9002397   -8.0455104    504.96781  0.019162409  0.018878985            2 
 2197000   0.92724688   -8.0815862    503.72162  0.019106418  0.018873133            7 
 2198000    0.8930901   -8.0256749    504.72613   0.01913581   0.01886728            5 
 2199000   0.90075452   -8.0608941    503.79573   0.01909185  0.018861395            5 
 2200000   0.90898941   -8.0570924    505.08863  0.019132145  0.018855519            2 
 2201000   0.90695991   -8.0304787    503.10242  0.019048252   0.01884967            2 
 2202000   0.90144338   -8.0446706    505.15996  0.019117468  0.018843832            3 
 2203000   0.92748285   -8.0281477    504.86543  0.019097648  0.018838026            3 
 2204000   0.92523822   -8.0406532     504.4755   0.01907424  0.018832176            3 
 2205000   0.89606247    -8.035215    504.76022   0.01907635  0.018826356            1 
 2206000   0.92781767   -8.0713075    503.13857  0.019006443  0.018820539            6 
 2207000   0.90155161   -8.0396632     505.1518  0.019073848  0.018814719            2 
 2208000   0.90461043    -8.028702    505.66175  0.019084456  0.018808924            3 
 2209000   0.90377262   -8.0331854     506.0994  0.019092327  0.018803118            4 
 2210000   0.89470754   -8.0433884    505.49754  0.019060993  0.018797276            3 
 2211000   0.88675566   -8.0513374    504.84633  0.019027828  0.018791451            5 
 2212000   0.90395081   -8.0461891    506.14331  0.019068087  0.018785641            4 
 2213000   0.90559266   -8.0561055    505.32912  0.019028811  0.018779826            2 
 2214000   0.92087362   -8.0285824    506.96859  0.019081925  0.018774009            3 
 2215000   0.89745344   -8.0518285    507.10478  0.019078434  0.018768235            3 
 2216000   0.86724294   -8.0537527    506.46652  0.019045823  0.018762476            8 
 2217000   0.90178661   -8.0127548     506.7426   0.01904761  0.018756728            3 
 2218000    0.9080843   -8.0520716    506.10261  0.019014976  0.018750949           12 
 2219000   0.91634453   -8.0681341    507.64496  0.019064329  0.018745162            2 
 2220000   0.90118276   -8.0463057     507.7884  0.019061126  0.018739391            3 
 2221000   0.88729393   -8.0396426    506.68168  0.019011019  0.018733633            3 
 2222000   0.88329699   -8.0678335    506.92199  0.019011476  0.018727825            5 
 2223000    0.9057859   -8.0590666    506.98351   0.01900523  0.018722072            4 
 2224000   0.89354609   -8.0354535    507.24355  0.019006428  0.018716306            2 
 2225000    0.8987536   -8.0494142    507.46567  0.019006205  0.018710526            4 
 2226000   0.88683689   -8.0933275    506.67439  0.018968044  0.018704749            2 
 2227000   0.86820652   -8.0599664     506.4053  0.018949457  0.018698964            3 
 2228000   0.87905488   -8.0544919    506.74819  0.018953777  0.018693172            4 
 2229000   0.91165944   -8.0469333    508.60584  0.019014724  0.018687443            1 
 2230000   0.88618463   -8.0316251    507.86687  0.018978583  0.018681728            1 
 2231000    0.8974807   -8.0660239    506.53076  0.018920169  0.018675984            4 
 2232000   0.90891631   -8.0690712    507.21169  0.018937115  0.018670183            2 
 2233000   0.88236075   -8.0807579    508.11396  0.018962306  0.018664386            3 
 2234000   0.88261597     -8.09238    507.19576  0.018919567  0.018658611            5 
 2235000   0.89643581   -8.0855771    507.07862  0.018906735   0.01865279            3 
 2236000   0.88403987   -8.0684164    506.86425   0.01889029  0.018647015            3 
 2237000   0.88935975   -8.0571336    507.20188  0.018894423  0.018641195            3 
 2238000   0.88750503   -8.0911374    506.73027  0.018868419   0.01863544            1 
 2239000    0.9090261   -8.0917118    507.78135  0.018899112  0.018629629            2 
 2240000   0.90136655   -8.0951628    507.35682  0.018874882  0.018623813            7 
 2241000   0.87143113   -8.0668601    508.75787  0.018918558   0.01861802            1 
 2242000   0.88531013   -8.0569853    509.53996   0.01893919  0.018612218            3 
 2243000   0.87588196   -8.0799376    508.26768  0.018883477  0.018606415            6 
 2244000   0.90048148   -8.0987587    507.09461  0.018831499  0.018600637            4 
 2245000   0.89680733   -8.1052865    508.31429  0.018868385  0.018594827            2 
 2246000   0.89120349   -8.0655263    507.92509  0.018845544  0.018589085            2 
 2247000   0.87843436   -8.0749405    508.48262  0.018857833  0.018583306            4 
 2248000   0.90796745   -8.0781888    508.49625   0.01884995  0.018577508            5 
 2249000   0.89168284   -8.1027538    508.24436  0.018832235  0.018571727            3 
 2250000   0.87964336   -8.0778723    509.27848  0.018862166  0.018565927            4 
 2251000   0.89360971    -8.066149    507.89114  0.018802426  0.018560127            3 
 2252000   0.87900821   -8.0795516    508.94778  0.018833177  0.018554342            4 
 2253000   0.90392425   -8.1078418    508.63716  0.018813329  0.018548541            4 
 2254000   0.89068931   -8.0777235    510.73732  0.018882628  0.018542726           10 
 2255000   0.89789645   -8.0746632    510.99393  0.018883737  0.018536969            3 
 2256000   0.87995149   -8.0622517    508.96484  0.018800415  0.018531258            7 
 2257000   0.88413835   -8.0854794    509.64513  0.018817203  0.018525487            4 
 2258000   0.90223891   -8.0606259    508.95651  0.018783456  0.018519713            2 
 2259000   0.89164081    -8.067451    510.07513  0.018816406  0.018513982            3 
 2260000   0.88841228   -8.0755545    509.15936  0.018774313  0.018508248            3 
 2261000   0.86774805   -8.1170211    508.95732  0.018758562   0.01850249            6 
 2262000   0.88491187   -8.0624664    509.98726  0.018788213  0.018496716            1 
 2263000   0.89514056   -8.0655598    510.42722  0.018796112  0.018490962            4 
 2264000   0.89211354   -8.0842333    509.64097   0.01875887  0.018485182            2 
 2265000   0.86657911   -8.1017213    508.88407   0.01872274  0.018479359            2 
 2266000   0.88442495   -8.0988677    508.55752  0.018702469   0.01847355            2 
 2267000   0.89047615   -8.0634482    510.74268  0.018774544  0.018467755            2 
 2268000   0.87753016   -8.0548063    509.53892  0.018722035  0.018461965           10 
 2269000   0.90690835   -8.0903174    509.31402  0.018705524  0.018456157            6 
 2270000   0.89512487   -8.0843651    509.13991  0.018690892  0.018450293            2 
 2271000   0.89999345   -8.0778015    509.19738  0.018684771  0.018444457            6 
 2272000   0.89106964   -8.1085179    509.03835  0.018670714   0.01843863            2 
 2273000   0.89570154   -8.0467832    510.76706  0.018725878  0.018432835            2 
 2274000    0.8900693   -8.0665628    510.24329   0.01869845  0.018427046            2 
 2275000   0.90245844   -8.0752419    510.15621  0.018687041  0.018421267            3 
 2276000   0.88457417   -8.0824817    511.41048  0.018724754  0.018415476            4 
 2277000   0.86939752   -8.0734063    511.94169  0.018735972  0.018409729            2 
 2278000   0.87733465   -8.0555582    512.50857  0.018748484  0.018403995            3 
 2279000   0.87566844   -8.0444941    510.52907  0.018667876  0.018398262            3 
 2280000   0.87463978   -8.0785351    510.56264  0.018660915  0.018392552           10 
 2281000   0.87638148   -8.1151174    512.03167  0.018706403  0.018386829            8 
 2282000   0.90931481   -8.0691317    512.67881  0.018721838   0.01838112            9 
 2283000   0.88575419   -8.0884682    510.65223  0.018639664  0.018375408            3 
 2284000   0.88023975   -8.0959688    511.92398  0.018677903  0.018369699            4 
 2285000   0.88245148   -8.0597967    512.21599  0.018680379  0.018364026            6 
 2286000   0.88265931   -8.1056097    511.10338  0.018631648  0.018358344            3 
 2287000   0.90073159   -8.0879213     511.9509  0.018654383  0.018352683            6 
 2288000   0.89942748   -8.0892656    510.79163  0.018604007  0.018347034            5 
 2289000   0.87573099   -8.1048214    512.92681  0.018673613   0.01834131            6 
 2290000    0.8676867   -8.0626172    512.85183   0.01866273  0.018335611            5 
 2291000   0.88278229   -8.0963659    512.31747  0.018635147  0.018329901            3 
 2292000   0.88627678   -8.0931198    511.37826  0.018592869  0.018324193            7 
 2293000   0.88514833   -8.0812392    512.15311   0.01861292  0.018318463            2 
 2294000   0.89213969   -8.0915638    512.47252  0.018616409   0.01831271            3 
 2295000   0.88729102   -8.0816368    512.20096  0.018598437  0.018306981            5 
 2296000   0.89321965   -8.0884303    512.02236  0.018583855  0.018301278            5 
 2297000   0.86893511   -8.0657054     512.2957  0.018585681  0.018295577            4 
 2298000   0.89707162   -8.0722789    512.03405  0.018568104  0.018289866            1 
 2299000   0.87706739   -8.0623042    513.07752  0.018597851  0.018284203            3 
 2300000   0.89484886    -8.102678    511.18962  0.018521363  0.018278491            5 
 2301000   0.87039986   -8.0762476    512.67636  0.018567158  0.018272766            3 
 2302000   0.88560826   -8.1054095    512.83185  0.018564721  0.018267018            3 
 2303000   0.87236427   -8.1316099    512.20595  0.018534012  0.018261259            4 
 2304000   0.87808369   -8.1013783    512.46962  0.018535504  0.018255511            7 
 2305000   0.89313403   -8.0949058     514.6749  0.018607191    0.0182498            2 
 2306000   0.86647951   -8.1052279    513.26375  0.018548126   0.01824407            2 
 2307000    0.9020939   -8.0866156     513.6331  0.018553428  0.018238347            2 
 2308000   0.88093833   -8.1042236    513.08236  0.018525504  0.018232632            2 
 2309000   0.89852352   -8.0748788    513.55531   0.01853455  0.018226955            4 
 2310000    0.8904055   -8.0788015     514.0391  0.018543979  0.018221321           20 
 2311000   0.86468364   -8.1036783    514.39273  0.018548707  0.018215712           12 
 2312000   0.88896772   -8.1181877    513.36307  0.018503571  0.018210035            3 
 2313000   0.89530549   -8.1247899    513.10854  0.018486401   0.01820436            7 
 2314000   0.88291818   -8.0935538     513.8722  0.018505913  0.018198701           16 
 2315000    0.8932239   -8.0862687    514.36389  0.018515619  0.018193011            6 
 2316000   0.86401828   -8.1167014    513.72556  0.018484656  0.018187352            5 
 2317000   0.89793889   -8.1100801    514.21444  0.018494261  0.018181633            8 
 2318000   0.87381289   -8.1305464    514.32016  0.018490083    0.0181759            2 
 2319000   0.87693426   -8.1060733    513.97935  0.018469863  0.018170201            6 
 2320000   0.91980621   -8.1115903    513.06258  0.018428972  0.018164478            3 
 2321000   0.86994071   -8.0938364    514.26297  0.018464131  0.018158797            2 
 2322000   0.87894334   -8.0870866    514.52422  0.018465555  0.018153141            4 
 2323000   0.86650122   -8.0909848    515.39114  0.018488705  0.018147487            3 
 2324000   0.86197904   -8.1240541    514.63519  0.018453643  0.018141804            5 
 2325000   0.88444635   -8.1177101    513.86963  0.018418266   0.01813612            2 
 2326000   0.88405009   -8.0624217     516.0426  0.018488199  0.018130463            2 
 2327000   0.86305781   -8.1035585    515.16042  0.018448661  0.018124861            2 
 2328000   0.88833733   -8.0721841    516.43845  0.018486485  0.018119221            1 
 2329000   0.89415914   -8.1061675    515.66865  0.018451004  0.018113562            3 
 2330000   0.87077832   -8.1192688     514.5913  0.018404553  0.018107889            7 
 2331000   0.88755363   -8.1416793    514.89751  0.018407604  0.018102195            3 
 2332000   0.87553072   -8.1310856    515.79806  0.018431892  0.018096513            3 
 2333000   0.88418255   -8.0719068    515.84398  0.018425632   0.01809087            2 
 2334000   0.86538104   -8.1226508    516.42962  0.018438647  0.018085253            4 
 2335000    0.8673593    -8.113652    516.66785  0.018439252  0.018079657            6 
 2336000    0.8772036   -8.0989702    515.51966  0.018390399  0.018074005            4 
 2337000   0.86889358    -8.091094    515.53559  0.018383098  0.018068325            4 
 2338000    0.8717768   -8.1167661    515.70968   0.01838144  0.018062671            7 
 2339000   0.87845933   -8.0997759    516.26217  0.018393265  0.018057027            4 
 2340000   0.89466045   -8.0781212    515.80067   0.01836897  0.018051425            2 
 2341000   0.86713928   -8.0909598    516.05428  0.018370151  0.018045822            2 
 2342000   0.85281431    -8.081789    517.13376  0.018400717  0.018040227            2 
 2343000   0.88782974   -8.1184168    516.72354  0.018378274  0.018034649            5 
 2344000   0.87181226   -8.1025899    518.11407  0.018419869  0.018029018            3 
 2345000   0.89507982   -8.1123245    515.59927  0.018322647  0.018023393            4 
 2346000   0.88832142   -8.1131654    515.65048  0.018316655  0.018017815           12 
 2347000   0.87927076   -8.0740834    517.05272  0.018358639  0.018012267            5 
 2348000   0.89856406   -8.1116041    516.64372  0.018336304  0.018006719            4 
 2349000   0.87073979    -8.094547    516.37329  0.018318905  0.018001137            8 
 2350000   0.88951043    -8.079882    518.27938  0.018378701  0.017995551            5 
 2351000   0.86361995   -8.0982634    518.77951  0.018388612  0.017990012            2 
 2352000   0.86834928   -8.1018444    517.15513   0.01832324  0.017984443            3 
 2353000   0.86743731   -8.1337913    516.91843   0.01830707  0.017978849            9 
 2354000   0.87963265   -8.1165987     516.4073  0.018281199  0.017973232            2 
 2355000   0.87625768   -8.1413281    516.86721   0.01828971  0.017967584            7 
 2356000    0.8754344   -8.1453792    516.51878  0.018269623  0.017961915            4 
 2357000   0.86259537   -8.1404377     517.5208  0.018297299  0.017956268            3 
 2358000   0.87799373   -8.1375891    516.17719  0.018242055  0.017950687            5 
 2359000   0.86756833   -8.1318897    516.98347  0.018262805  0.017945094            8 
 2360000   0.88600011   -8.0965321    516.84725  0.018250256  0.017939512            6 
 2361000   0.87116876   -8.0947275    518.56765  0.018303249  0.017933989            3 
 2362000   0.87511472   -8.1550222    518.48667  0.018292643  0.017928396            7 
 2363000   0.85599128   -8.1164559    517.61566  0.018254185    0.0179228            3 
 2364000   0.88990388   -8.1142359    517.92965  0.018257532  0.017917228            9 
 2365000   0.87816455   -8.1082546    518.44241  0.018267879  0.017911665            2 
 2366000    0.8731817   -8.1223398    517.88112  0.018240389  0.017906091            4 
 2367000   0.86011699   -8.0692934    517.70204  0.018226378  0.017900528            3 
 2368000   0.86264298   -8.0955683    518.10098   0.01823272  0.017894962            1 
 2369000   0.89090809   -8.1428768    517.96188  0.018220131  0.017889347            1 
 2370000   0.87726304    -8.102422    519.12043   0.01825318  0.017883742            2 
 2371000   0.87091541   -8.1169311    518.66957  0.018229635  0.017878107            2 
 2372000    0.8631588   -8.1525352    516.83279   0.01815742  0.017872468            3 
 2373000   0.85900564   -8.1151315    518.08665    0.0181938  0.017866851            2 
 2374000   0.88128262   -8.1581821    517.18827  0.018154601  0.017861219            5 
 2375000   0.88583588   -8.1466121    517.59279   0.01816115  0.017855604            3 
 2376000   0.88186253   -8.1078053    520.06909  0.018240358  0.017850032            2 
 2377000    0.8800353   -8.1150696    519.56086  0.018214867  0.017844487            4 
 2378000   0.87131361   -8.1507966    518.29175  0.018162733  0.017838917            4 
 2379000   0.88032494   -8.1428349    517.84976  0.018139616  0.017833319            2 
 2380000   0.85177289   -8.1163058    518.81193  0.018165684  0.017827743            3 
 2381000    0.8668725   -8.1134354    519.67087  0.018188117  0.017822196            2 
 2382000   0.85640895   -8.1173612    518.56785  0.018141892  0.017816587            6 
 2383000   0.86912367   -8.1580031    518.45608  0.018130371  0.017810985            3 
 2384000   0.86610452   -8.0974242    519.92752    0.0181742  0.017805376            6 
 2385000   0.88421383   -8.1425545    519.26248  0.018143343  0.017799784            4 
 2386000   0.87097965   -8.1469706    519.32184  0.018137812   0.01779417            1 
 2387000    0.8653622   -8.1502422    518.86979  0.018114432  0.017788588            4 
 2388000   0.88288985   -8.1197444    519.74029  0.018137224  0.017782985            2 
 2389000   0.86004762   -8.1279801    518.35366  0.018081263  0.017777386            6 
 2390000   0.88236287   -8.1426548    519.09897  0.018099685  0.017771775            7 
 2391000   0.89061041   -8.1221179    518.82812  0.018082675   0.01776618            7 
 2392000   0.86713213   -8.1629338    518.16566  0.018052037  0.017760564            6 
 2393000   0.88704213   -8.1565315    518.35018  0.018050919  0.017754948            7 
 2394000   0.85641314   -8.1279762    520.00306  0.018100914  0.017749348            2 
 2395000   0.87924498   -8.1405917    519.34734  0.018070541  0.017743768            4 
 2396000   0.89455399   -8.0996691    520.19229  0.018092386  0.017738219            3 
 2397000   0.85794186    -8.103449    519.54027   0.01806217  0.017732654            1 
 2398000   0.86577622   -8.0831952    520.89793  0.018101819  0.017727126            4 
 2399000   0.87239289   -8.1093847    519.18695  0.018034839  0.017721602            6 
 2400000   0.88970933   -8.1215425    520.65113  0.018078164  0.017716044            4 
 2401000   0.86376082   -8.1127699    519.72749  0.018038577  0.017710531            3 
 2402000   0.85686395    -8.125066    521.02356  0.018076032  0.017704981            4 
 2403000   0.87486243   -8.0966409    520.15564  0.018038412  0.017699475            2 
 2404000   0.86260914   -8.1260605    521.39354  0.018073819  0.017693927            5 
 2405000   0.88540764   -8.1236085     520.7213  0.018043011  0.017688366            6 
 2406000   0.85549931    -8.149166    520.44938  0.018026094  0.017682839            9 
 2407000   0.85095037   -8.1220947    521.54046  0.018056379   0.01767732            4 
 2408000    0.8726197   -8.0884933     520.8012  0.018023297  0.017671817           11 
 2409000    0.8511309   -8.1106104    522.19813  0.018064139  0.017666299            4 
 2410000   0.87439594   -8.1113671    522.83991  0.018078835  0.017660789            4 
 2411000    0.8603933   -8.0914382    521.94059  0.018040253  0.017655327            6 
 2412000   0.86327391   -8.1800162    519.78803  0.017958404  0.017649825           10 
 2413000   0.86065248   -8.1287089    522.32379  0.018038534  0.017644281            6 
 2414000   0.89210496   -8.1772408    520.64586  0.017973138  0.017638712            6 
 2415000   0.86288991   -8.1762803    520.67229  0.017966608  0.017633132            7 
 2416000   0.84168658   -8.1560672    520.75514  0.017962029  0.017627572            9 
 2417000    0.8486017   -8.1320931    522.32496  0.018008721  0.017622019           14 
 2418000   0.85794087   -8.1351207    520.47708  0.017937589  0.017616511            3 
 2419000    0.8614196   -8.1642242    521.37689  0.017961172  0.017610974            4 
 2420000   0.85417603   -8.1302894    521.58697  0.017960984  0.017605436            3 
 2421000   0.87358458    -8.128708    522.34419  0.017979629  0.017599918            3 
 2422000   0.89013632   -8.1487952    521.66213  0.017948738  0.017594411            2 
 2423000    0.8771263   -8.1450292     521.2442  0.017926957  0.017588882            3 
 2424000   0.87005285   -8.1533718    521.95223  0.017943902  0.017583309            2 
 2425000   0.85417428   -8.1681127    521.18782  0.017910234  0.017577763            3 
 2426000    0.8638166   -8.1085182    522.22225  0.017938384  0.017572227            3 
 2427000   0.86231411   -8.1397977    521.84033   0.01791788   0.01756673            4 
 2428000   0.87391901   -8.1503495    522.36728  0.017928586  0.017561174            3 
 2429000   0.85502815   -8.1543527    522.06239  0.017910745  0.017555646            7 
 2430000   0.87629422   -8.1879337    521.32057  0.017877935  0.017550064            5 
 2431000    0.8598433   -8.1455343    523.02115  0.017928875    0.0175445            2 
 2432000    0.8685861   -8.1618074    522.60441  0.017907223  0.017538954            4 
 2433000   0.84952955   -8.1198887    522.91782  0.017910598  0.017533447            5 
 2434000   0.86638919   -8.1609022    521.51484  0.017855206  0.017527925           11 
 2435000   0.86592468   -8.1542402    522.29143   0.01787445  0.017522363            4 
 2436000   0.85112374   -8.1565113    522.10611  0.017860773    0.0175168            4 
 2437000   0.85031051   -8.1914696    521.46359  0.017831473   0.01751128            4 
 2438000   0.86709069   -8.1415166    521.90809  0.017839352  0.017505711            7 
 2439000   0.85903088   -8.1480671     521.6568  0.017823452  0.017500173            3 
 2440000   0.86302574   -8.1559833     522.9291    0.0178596  0.017494623            3 
 2441000   0.86230986   -8.1723352    521.26184  0.017795365  0.017489054            8 
 2442000   0.84347248   -8.1696465    522.25538  0.017821983  0.017483489            1 
 2443000   0.86241964   -8.1564961    523.11431  0.017843987  0.017477942            4 
 2444000    0.8519335    -8.201725    521.61103  0.017785428  0.017472377            3 
 2445000   0.86654088   -8.1453726    522.74257   0.01781672  0.017466825            3 
 2446000   0.86822339   -8.1635806    522.14725  0.017789154  0.017461248            3 
 2447000   0.87574749   -8.1920536    521.81451  0.017770553  0.017455651            5 
 2448000   0.88888342   -8.1481828    521.39788  0.017749111  0.017450057            7 
 2449000   0.85908135    -8.139482    523.52218  0.017814148  0.017444486            1 
 2450000   0.87231853   -8.1878476    522.52032    0.0177728  0.017438897            3 
 2451000   0.85116023   -8.1379434    523.81891  0.017809701  0.017433328            2 
 2452000   0.84879695   -8.1392195    522.42567  0.017755087   0.01742772            7 
 2453000   0.86217863   -8.1760024    522.80998  0.017760904  0.017422102            5 
 2454000   0.85533414    -8.186265    521.41125  0.017706168   0.01741651           10 
 2455000    0.8558657     -8.17003     523.1098  0.017756612  0.017410939            2 
 2456000   0.85434164   -8.1543511    522.66749  0.017734375  0.017405354            3 
 2457000   0.83836561   -8.1951931     523.3886  0.017751614  0.017399772            8 
 2458000   0.86481675   -8.1769331    522.99528  0.017731058  0.017394213            4 
 2459000   0.86404138   -8.1690086    523.25594  0.017732681   0.01738864            4 
 2460000   0.85001428   -8.1646104    522.44124  0.017697874  0.017383043            4 
 2461000   0.85291674   -8.1872127    522.97751  0.017708842  0.017377387            6 
 2462000     0.872132   -8.2054417    521.92286  0.017665951  0.017371758            6 
 2463000   0.87067189   -8.2048728    522.72961  0.017686074  0.017366117            2 
 2464000   0.84847994   -8.1985457    523.25963  0.017696822  0.017360502            4 
 2465000   0.83995768   -8.1800992    523.32691  0.017691917  0.017354912            4 
 2466000   0.87532983   -8.1596164    523.05354  0.017675505  0.017349364            4 
 2467000   0.85335841   -8.1796989    524.21946  0.017707724  0.017343814            5 
 2468000   0.86333705   -8.1646598    523.21417  0.017666605   0.01733827            9 
 2469000   0.86543627   -8.1600501    524.10771  0.017689608  0.017332758            4 
 2470000   0.86713495   -8.1708839    524.56019  0.017697712  0.017327269            4 
 2471000   0.85924107   -8.1632208    524.51146  0.017688907  0.017321743            3 
 2472000    0.8524347   -8.1494023    524.39855  0.017677945   0.01731621           11 
 2473000   0.85465086   -8.1596974    524.32262  0.017668238  0.017310688            5 
 2474000   0.87137992   -8.1949658     523.2658  0.017625499  0.017305144            3 
 2475000   0.86714392   -8.1338376    523.72566  0.017633861   0.01729961            6 
 2476000    0.8481605   -8.1705953    522.60258   0.01758894  0.017294075            8 
 2477000     0.854946   -8.1420962    525.01844  0.017663115   0.01728855            9 
 2478000   0.84090474   -8.1835817    523.10646  0.017591689  0.017282976            5 
 2479000   0.87171016   -8.1564844    523.75602  0.017606428  0.017277376            3 
 2480000    0.8584876   -8.1906183    523.79757  0.017600725  0.017271793            5 
 2481000   0.84848837   -8.1929028    523.94198  0.017598481  0.017266194            3 
 2482000   0.83362466   -8.1689899    524.55398  0.017611939  0.017260594            4 
 2483000   0.84306352   -8.1647191    522.98814  0.017552294  0.017254978            4 
 2484000    0.8521753   -8.1923789    523.10021  0.017548987   0.01724937            2 
 2485000   0.83685362   -8.1848173    524.00183  0.017572161  0.017243786            2 
 2486000   0.85627538   -8.1974584    523.27468  0.017540717  0.017238178            4 
 2487000   0.84538768   -8.1596741    524.50284  0.017574817  0.017232572            5 
 2488000   0.85204035   -8.1574784    524.83873  0.017579004  0.017226989            3 
 2489000   0.84751275   -8.1639231    524.58351  0.017563396  0.017221423            2 
 2490000   0.85317311   -8.1694463    523.45119  0.017518447  0.017215825            9 
 2491000    0.8550438   -8.1735263       524.52   0.01754717   0.01721023            2 
 2492000   0.85453342   -8.1367345    525.21476  0.017563362  0.017204642            2 
 2493000   0.83874795    -8.156951    523.79218  0.017508764  0.017199038            6 
 2494000   0.85885685   -8.1986374     523.6133  0.017495767  0.017193436            2 
 2495000    0.8627931   -8.1823163    524.51282  0.017518798   0.01718783            6 
 2496000    0.8628043   -8.1860161    523.96789  0.017493586  0.017182218            4 
 2497000   0.84038284   -8.1911479    523.75342  0.017479423  0.017176617            2 
 2498000   0.82802086   -8.1725857    522.97818  0.017446563  0.017170974            3 
 2499000   0.84282723   -8.1726276     524.6295  0.017494648  0.017165382            2 
 2500000   0.86264198   -8.1663687    525.73132  0.017524377  0.017159789            3 
 2501000   0.85223894     -8.21282    524.27096  0.017468711  0.017154228            5 
 2502000   0.83442963   -8.1700937    523.90469   0.01744953  0.017148654            2 
 2503000   0.84020462   -8.1868957    524.41615  0.017459587  0.017143083            3 
 2504000   0.85309908   -8.1952148    523.23637  0.017413351  0.017137497            5 
 2505000   0.86241991   -8.1729278    524.42086  0.017445804  0.017131914            3 
 2506000   0.84227518   -8.1494934    526.20064  0.017498026  0.017126318            4 
 2507000   0.85379125   -8.2105129    523.39291  0.017397717  0.017120691            3 
 2508000   0.85596461   -8.1788306    523.26788  0.017386625  0.017115074            6 
 2509000   0.85333049   -8.1837548    524.74589  0.017428786  0.017109425            4 
 2510000   0.86194822   -8.1948723     524.2929  0.017406803  0.017103775            3 
 2511000   0.87085164   -8.1935659    523.78842  0.017383128  0.017098116            4 
 2512000   0.86229357   -8.2197893    523.37538  0.017362506  0.017092473            3 
 2513000   0.86137317   -8.2058627    524.53947  0.017394199  0.017086856            4 
 2514000   0.83540547   -8.2003266    525.59959  0.017422421  0.017081217            2 
 2515000   0.84071268    -8.193343    525.30291  0.017405663  0.017075633            8 
 2516000   0.82722336   -8.2248064    524.75178  0.017380491  0.017070029            5 
 2517000   0.85237032   -8.1667196    525.73414   0.01740611  0.017064458            4 
 2518000   0.84209209   -8.2183723    524.19979  0.017348418   0.01705887            2 
 2519000   0.84883629   -8.2070457    524.70638   0.01735829  0.017053242            3 
 2520000   0.85475002   -8.2033591    526.51341  0.017411158  0.017047656            2 
 2521000   0.84592081   -8.1990197    526.07157  0.017389646  0.017042068            6 
 2522000   0.87000642   -8.2068141    524.93763  0.017345283  0.017036486            9 
 2523000   0.83900894   -8.1687382      526.171  0.017379145  0.017030921            7 
 2524000   0.85194221   -8.1900897    526.00679  0.017366838  0.017025343            3 
 2525000   0.86498539   -8.1643616    527.18685  0.017398906    0.0170198            4 
 2526000   0.84139067   -8.1842551    525.82845  0.017347204  0.017014269            9 
 2527000   0.82605742   -8.1763997    526.14088  0.017350642  0.017008679            8 
 2528000   0.83722721   -8.1776047    525.88481  0.017335338  0.017003092            2 
 2529000     0.852089   -8.1994906    524.96157  0.017298062  0.016997544            1 
 2530000   0.85896272   -8.2243098    525.54259  0.017310362  0.016991991            4 
 2531000    0.8482037   -8.1849766    526.95533  0.017350037  0.016986447            3 
 2532000   0.84007517   -8.1677869    525.70868  0.017302155  0.016980921            2 
 2533000   0.85270511   -8.2109813    525.79138  0.017298045  0.016975402            4 
 2534000   0.84856229   -8.2163967    525.40187  0.017278409  0.016969848            3 
 2535000   0.84670901   -8.2039956    525.99449  0.017291075  0.016964294            2 
 2536000   0.85475834   -8.1988674    526.10049   0.01728774   0.01695877            4 
 2537000   0.86227259   -8.1684862    527.80224  0.017336823  0.016953226            3 
 2538000   0.85491793   -8.1906257     526.3773  0.017283205  0.016947698            2 
 2539000   0.84053652   -8.1925769    525.81938  0.017258087  0.016942181            3 
 2540000   0.84602659   -8.2144558    526.38757  0.017269933  0.016936676            3 
 2541000   0.84385972   -8.2078775    525.49809  0.017233966  0.016931133            2 
 2542000   0.85188356   -8.2178842    526.80998  0.017270193  0.016925601            1 
 2543000   0.84220976   -8.1839319    526.91947   0.01726699  0.016920057            5 
 2544000   0.83970249   -8.2015909    527.36384  0.017274759  0.016914528            2 
 2545000   0.84231011   -8.2074393    525.72583  0.017214336  0.016908975            3 
 2546000   0.86019763   -8.1956041    526.73228  0.017240517   0.01690342            3 
 2547000    0.8443453   -8.2119515     527.3158   0.01725284  0.016897859            4 
 2548000   0.83473186   -8.2304456    527.51668  0.017252639   0.01689228            2 
 2549000   0.85650928   -8.2314171    525.16033  0.017168835   0.01688671            6 
 2550000   0.83810262   -8.2012158    526.56194  0.017207906  0.016881084            5 
 2551000   0.82828045   -8.2480149    526.73519  0.017206821  0.016875499            3 
 2552000   0.83811108   -8.2354855    525.84402  0.017170977  0.016869905            4 
 2553000   0.82868663   -8.1948777    527.06503  0.017204107  0.016864324            3 
 2554000   0.84420199   -8.2021485    526.87303  0.017191106  0.016858756            4 
 2555000   0.84445105   -8.1925623    527.11523  0.017192277  0.016853169            2 
 2556000   0.85885248   -8.2175282    526.54611  0.017166996  0.016847616            2 
 2557000   0.83612555   -8.2398228     526.9518  0.017173504  0.016842051            3 
 2558000   0.85250874   -8.1868996    528.67646  0.017222976  0.016836499            5 
 2559000   0.85795409    -8.204206    527.10905  0.017165203  0.016830955            4 
 2560000    0.8478222   -8.2418776    525.29149  0.017099332  0.016825373            3 
 2561000   0.85175659   -8.2198559    526.94169  0.017146352  0.016819806            4 
 2562000   0.83925868   -8.2178626    527.24092  0.017149392  0.016814272            1 
 2563000   0.84642566   -8.2017545    527.19218  0.017141116  0.016808752            2 
 2564000   0.84641653     -8.26195    526.43681  0.017109881  0.016803237            3 
 2565000   0.82600853   -8.2287726    526.74775  0.017113312  0.016797694            4 
 2566000   0.85392282   -8.1915239    527.36801  0.017126786   0.01679216            4 
 2567000   0.83226671   -8.2031821    527.39811  0.017121092  0.016786642            6 
 2568000     0.832371   -8.2391084    525.84494  0.017064023  0.016781088            4 
 2569000   0.83314326   -8.2171914    527.62299  0.017115057  0.016775521            2 
 2570000   0.82024465   -8.2308523    527.41284  0.017101584  0.016769983            3 
 2571000   0.84828544   -8.2168269    526.68677  0.017071398   0.01676443            4 
 2572000   0.82953029   -8.2027133    527.65818  0.017096234  0.016758876            2 
 2573000   0.84863801   -8.2014743    528.26452  0.017109228   0.01675335            2 
 2574000   0.83778966   -8.1901895    528.46913  0.017109205  0.016747834            5 
 2575000    0.8464501   -8.2217342    527.90059  0.017084161   0.01674232            9 
 2576000   0.81969281   -8.2152371    528.83733  0.017107833    0.0167368            5 
 2577000   0.85588692    -8.204235    527.73185  0.017065446  0.016731274            6 
 2578000    0.8397143   -8.2138353    528.04133   0.01706883  0.016725789            3 
 2579000   0.84533176   -8.1884732    527.90226  0.017057718  0.016720275            6 
 2580000   0.84586293   -8.2274441    527.74412  0.017045999   0.01671475            6 
 2581000   0.85903747   -8.2201588    527.37634   0.01702752   0.01670923            2 
 2582000   0.85563754   -8.2429322    526.94482  0.017006998  0.016703677            6 
 2583000   0.85086331   -8.2345036    529.01892  0.017067329  0.016698168            3 
 2584000   0.84744767   -8.2056221    528.71535  0.017050934  0.016692665            5 
 2585000    0.8476024   -8.2603019    526.24826  0.016964805  0.016687118            2 
 2586000   0.84537674   -8.2444546     527.7604  0.017006974  0.016681574            5 
 2587000   0.81786186   -8.2010257    529.79478  0.017065932  0.016676057            3 
 2588000    0.8261256   -8.1973802    527.58789  0.016988276  0.016670522            6 
 2589000   0.83192344   -8.2016688     528.7158  0.017018019  0.016665003            7 
 2590000   0.83385903   -8.1920815    528.23951  0.016996123  0.016659503            3 
 2591000   0.84964827   -8.2161236    528.15665  0.016986898  0.016654001            8 
 2592000   0.82730397   -8.2119023    528.01225  0.016975702  0.016648517            5 
 2593000   0.83680135   -8.2133982    528.51405  0.016985282  0.016643005            3 
 2594000   0.84154287   -8.2258658    528.80464   0.01698807  0.016637474            4 
 2595000   0.82468791   -8.2394151    528.61363  0.016975389  0.016631966            2 
 2596000   0.85772385   -8.1891737    530.23063  0.017020757   0.01662645            6 
 2597000   0.82476406   -8.2220949    528.37036   0.01695451  0.016620971            4 
 2598000   0.80715883   -8.2387692    528.99737  0.016968096  0.016615486            2 
 2599000   0.82299002   -8.2075128    529.18397  0.016967551  0.016610012            4 
 2600000   0.85818344   -8.1996122    528.17221  0.016928596  0.016604524            2 
 2601000   0.83815824   -8.2020875     528.4964  0.016932475  0.016599043            3 
 2602000   0.84395496   -8.2090594     528.8644  0.016937753  0.016593541            4 
 2603000   0.82874328    -8.190778    529.79379     0.016961   0.01658803            7 
 2604000   0.84948585   -8.2386905    528.55139  0.016914727  0.016582563            5 
 2605000   0.81801432   -8.2335929    529.14623  0.016927262  0.016577112            4 
 2606000    0.8255421   -8.2349339     528.8242  0.016910469  0.016571648            9 
 2607000   0.83006333   -8.2361473    530.10934  0.016945063  0.016566171            4 
 2608000   0.85416665   -8.2309769    529.16439  0.016908371  0.016560699            2 
 2609000   0.83282083   -8.2290333    529.48468  0.016912121  0.016555214            1 
 2610000   0.83698357   -8.2171801    529.33959  0.016901009  0.016549765            4 
 2611000    0.8239495   -8.2178169    529.80319  0.016909332  0.016544319            5 
 2612000   0.83762674    -8.216871    528.54455  0.016862703  0.016538839            9 
 2613000   0.84285262     -8.21436    529.98924  0.016902323  0.016533354            5 
 2614000   0.83669016   -8.2330413    528.85334  0.016859645  0.016527858            3 
 2615000   0.85568019   -8.2167184    529.13071  0.016862037  0.016522357            4 
 2616000   0.84661219   -8.2628116    528.81645   0.01684558  0.016516867            6 
 2617000   0.84525758   -8.2507567    528.68207  0.016834864  0.016511341            6 
 2618000   0.84806624   -8.2522532     527.5003  0.016790817  0.016505827            3 
 2619000   0.82194105   -8.2515496    528.82508  0.016826558  0.016500303            3 
 2620000   0.82668806   -8.2811675    529.51744  0.016842158  0.016494789            3 
 2621000   0.83295781   -8.2649259    529.27117  0.016827902  0.016489264            4 
 2622000   0.82551893   -8.2671473    528.96465  0.016811742  0.016483777            6 
 2623000    0.8334934   -8.2527675    529.79403  0.016831682  0.016478287            2 
 2624000   0.84069465   -8.2293128    529.47097  0.016815008  0.016472798            2 
 2625000   0.84384359   -8.2197089    530.30197  0.016834983  0.016467309            3 
 2626000   0.82661104   -8.2226267    529.26035  0.016795518  0.016461797            2 
 2627000   0.82134138   -8.2767512    529.54425   0.01679813  0.016456287            4 
 2628000   0.83083755   -8.2219392    529.42905  0.016788085  0.016450759            4 
 2629000   0.82338805   -8.2447248    528.90172  0.016764984   0.01644525            6 
 2630000   0.82552843    -8.240936    529.59672  0.016780631   0.01643978            3 
 2631000   0.81667372   -8.2356847    529.92531  0.016784661  0.016434301            6 
 2632000   0.83528874   -8.2400285     529.3334  0.016759543  0.016428806            5 
 2633000   0.84948084   -8.2567965    529.95013  0.016772697   0.01642331           10 
 2634000   0.82862588   -8.2503033    529.42062  0.016749577  0.016417827            3 
 2635000   0.83134175   -8.2179999    528.92665  0.016727598  0.016412375            4 
 2636000   0.84343373   -8.2271984    529.31655  0.016733578  0.016406912            3 
 2637000   0.82717852   -8.2363134    529.61758  0.016736746  0.016401433           10 
 2638000   0.82564732    -8.269201    530.16142  0.016747581  0.016395916            8 
 2639000   0.82953826   -8.2395393    530.65225  0.016756734  0.016390395            3 
 2640000   0.80921987   -8.2345864    530.60216  0.016748805  0.016384948            4 
 2641000   0.83212735   -8.2172114    529.78539  0.016716691  0.016379479            2 
 2642000   0.82052544   -8.2125441    530.74102  0.016740506  0.016374003            8 
 2643000   0.83218282   -8.2281842    530.52597  0.016727392  0.016368574            3 
 2644000   0.83312666   -8.2173535    531.12842  0.016740054   0.01636311            4 
 2645000   0.82101474   -8.2084634    530.64554  0.016718511  0.016357662            1 
 2646000   0.83910396   -8.2517924    530.12019  0.016695647  0.016352192            4 
 2647000   0.82563007    -8.250507    530.13225  0.016689719  0.016346721            3 
 2648000   0.84556946   -8.2185314    530.94104   0.01670887  0.016341264            3 
 2649000   0.83859275   -8.2167426    530.19976  0.016679243  0.016335795            5 
 2650000   0.84564055   -8.2167825    530.09158  0.016669547   0.01633033            3 
 2651000   0.82770844   -8.2541557    530.69525  0.016682235  0.016324881            4 
 2652000    0.8316283   -8.2696695    530.19861  0.016660338  0.016319387            3 
 2653000    0.8228961   -8.2419262    530.46514  0.016662431  0.016313903            1 
 2654000   0.82826536   -8.2333937    530.17007  0.016646887  0.016308421            9 
 2655000    0.8333592   -8.2385879    530.14575  0.016639854  0.016302951            7 
 2656000   0.84538538   -8.2305463    530.48008  0.016644079  0.016297481            6 
 2657000   0.84193424   -8.2705033    530.95156  0.016652602  0.016292019            7 
 2658000   0.82086428   -8.2322302    530.81106  0.016641932  0.016286584            2 
 2659000   0.83027351   -8.2144349    531.32782  0.016651868  0.016281142            5 
 2660000   0.82741387   -8.2730486    530.85292  0.016630731  0.016275701            3 
 2661000   0.83375381   -8.2922472    529.78336  0.016590986  0.016270214            4 
 2662000   0.81456531   -8.2373534    530.75098  0.016615045  0.016264719           10 
 2663000   0.83704489   -8.2769129    531.25488  0.016624574  0.016259238           14 
 2664000   0.82285553   -8.2579176    531.39411  0.016622689  0.016253734            8 
 2665000   0.82639318   -8.2731043     530.6206  0.016592264  0.016248254            5 
 2666000   0.83607225   -8.2522631     532.4465  0.016643114  0.016242788            4 
 2667000   0.82529064   -8.2494466    530.05465  0.016562137  0.016237311            3 
 2668000   0.83734659   -8.2666529    530.14093  0.016558625  0.016231865            6 
 2669000   0.82000339   -8.2481217    532.46922  0.016625116  0.016226397            6 
 2670000   0.81430111   -8.3025191    530.35792  0.016552994  0.016220915            3 
 2671000   0.83208373   -8.2730537    530.44021  0.016549364  0.016215437           10 
 2672000   0.82366906   -8.2716865    531.47733  0.016575515  0.016209936           11 
 2673000   0.82043574   -8.2687419    530.76401  0.016547076  0.016204442           11 
 2674000   0.80844925   -8.2647279    531.35308  0.016559246  0.016198958            4 
 2675000   0.83140823   -8.2668673    531.29622  0.016551284  0.016193476            6 
 2676000   0.79267414   -8.2636335    530.70682  0.016526744  0.016187992            2 
 2677000   0.85154746   -8.2533329    532.61332  0.016579919  0.016182509            3 
 2678000   0.81920307   -8.2709401    530.46564  0.016506897  0.016177048            2 
 2679000   0.80707786   -8.2698909    530.50374   0.01650192  0.016171572            5 
 2680000   0.83362918   -8.2862908    531.75298  0.016534608  0.016166075            4 
 2681000   0.81924246   -8.2806662    530.39831  0.016486333  0.016160587            6 
 2682000   0.82395752   -8.2799487    530.99341  0.016498677  0.016155101            4 
 2683000   0.82124006   -8.2801364    532.07332  0.016526069  0.016149591            3 
 2684000   0.80415682   -8.2825091    530.32774  0.016465715  0.016144072            6 
 2685000   0.82408672   -8.2780375    530.81807  0.016474801  0.016138584            2 
 2686000   0.82759361   -8.2738974    530.88833  0.016470847  0.016133102            5 
 2687000   0.79627817   -8.2723655    532.06607  0.016501243  0.016127628            3 
 2688000   0.81360299   -8.2581803    532.24609  0.016500685  0.016122138            4 
 2689000   0.82015728   -8.2711412    531.41508  0.016468795  0.016116649            7 
 2690000   0.81657983   -8.2666597    532.23628  0.016488113  0.016111176            3 
 2691000   0.82000927   -8.2851513    531.60189   0.01646234  0.016105723            4 
 2692000   0.81775069   -8.2846973    531.24008  0.016445025  0.016100296            2 
 2693000   0.80668907    -8.280227    531.43533   0.01644496  0.016094864            6 
 2694000   0.81324367   -8.2519475    532.47472  0.016471007  0.016089421            3 
 2695000   0.82378809   -8.2812227    530.30499  0.016397804  0.016083985            3 
 2696000   0.80363178   -8.2670343    531.08489  0.016415829  0.016078527           13 
 2697000    0.8186083   -8.2817396    531.37834  0.016418809  0.016073038            9 
 2698000   0.81249633    -8.277433    531.48568  0.016416039  0.016067547            2 
 2699000   0.80851307    -8.279109    531.43335  0.016408341  0.016062068            2 
 2700000   0.82607001   -8.2680378    532.33454  0.016430078  0.016056626            7 
 2701000   0.82700245   -8.2702591    532.58201  0.016431631  0.016051179            2 
 2702000   0.82209195   -8.2892075    531.34908  0.016387524   0.01604573            5 
 2703000   0.81498958   -8.3156923    531.36871  0.016382066  0.016040251            8 
 2704000   0.82121309   -8.2907249    532.13967  0.016399768  0.016034777            7 
 2705000   0.82994997   -8.2916822    531.84477   0.01638462  0.016029343            2 
 2706000   0.81411542   -8.2716428    532.58949    0.0164015  0.016023863            8 
 2707000   0.81770992    -8.246739     532.7455  0.016400243  0.016018403            1 
 2708000   0.83357556    -8.268845    532.07149  0.016373446  0.016012967            3 
 2709000   0.83389662   -8.2876265    531.13378  0.016338556  0.016007508            2 
 2710000   0.81053667   -8.2824726    532.29437  0.016368215  0.016002034            4 
 2711000   0.81136342    -8.297609    532.02742  0.016353972  0.015996568            2 
 2712000   0.80992129   -8.2653499    532.92953  0.016375662  0.015991094            3 
 2713000   0.83764923   -8.2843092    531.79287  0.016334712  0.015985629            5 
 2714000    0.8182869   -8.3077747    533.05043  0.016367306  0.015980163            4 
 2715000   0.81345101   -8.3163125    531.36565  0.016309566   0.01597467            5 
 2716000   0.81881748   -8.3055144    530.17115  0.016266911  0.015969211            3 
 2717000   0.82513559   -8.2778718    531.70096  0.016307844  0.015963758            8 
 2718000   0.82444709   -8.2840146    532.53059  0.016327281  0.015958323            4 
 2719000   0.81868087    -8.291033    532.69666  0.016326366  0.015952893            4 
 2720000    0.8282725   -8.2794262     532.5575    0.0163161  0.015947462            7 
 2721000   0.83024916   -8.3091294    531.92672  0.016290785  0.015942012            3 
 2722000    0.8448025   -8.3027991    531.65041  0.016276341  0.015936539            3 
 2723000   0.81884072    -8.307696    530.60774  0.016238455  0.015931056            4 
 2724000   0.81615379   -8.3284063    531.63081  0.016263791  0.015925607            5 
 2725000   0.81862514   -8.2939498    532.16349  0.016274113   0.01592016            3 
 2726000   0.81931919   -8.2901639    533.05683  0.016295452  0.015914698            4 
 2727000   0.82354514   -8.2891513    531.60991  0.016245261  0.015909257            5 
 2728000    0.7905538   -8.3144144    532.54626  0.016267909  0.015903823            7 
 2729000   0.81813006   -8.3093216    532.66253  0.016265498   0.01589838            5 
 2730000   0.83781041   -8.2973707    534.06604  0.016302382  0.015892957            4 
 2731000   0.81041292   -8.2963849     533.1388  0.016268119   0.01588754            3 
 2732000   0.80872141   -8.2719779    532.78174  0.016251273  0.015882142            5 
 2733000   0.81536138   -8.2411195    533.09087  0.016254753  0.015876758            2 
 2734000   0.81281925   -8.2752207    532.19765  0.016221582  0.015871375            3 
 2735000   0.83459071    -8.312531    530.96524    0.0161781  0.015865947            6 
 2736000   0.81812208   -8.2906085    532.47892  0.016218291  0.015860514            4 
 2737000   0.79495912   -8.2867868    533.54749    0.0162449  0.015855053            7 
 2738000   0.82968218   -8.2903513    532.35319  0.016202617  0.015849631            4 
 2739000    0.7969336   -8.2991965    532.80693  0.016210507  0.015844218           11 
 2740000   0.80961617   -8.2890851    533.56854  0.016227754  0.015838785            3 
 2741000   0.81630159   -8.2696775    533.45883  0.016218498  0.015833359            6 
 2742000   0.79891855   -8.2820189    532.56371  0.016185379  0.015827928            5 
 2743000   0.81383346   -8.2607458    533.32272  0.016202537  0.015822481            8 
 2744000   0.82637749    -8.298643    532.64331     0.016176  0.015817039            5 
 2745000   0.80642408    -8.271917    532.47645  0.016165041  0.015811621            7 
 2746000   0.81496119   -8.3173528    533.72787  0.016197131  0.015806236            5 
 2747000   0.83275366   -8.3054059    532.60152  0.016157066  0.015800829            4 
 2748000   0.81595666   -8.2919649    532.60905  0.016151415  0.015795397            6 
 2749000   0.82739917   -8.2858581    533.91328  0.016185076      0.01579           11 
 2750000   0.82435107   -8.2909069    532.71261  0.016142806  0.015784606            4 
 2751000     0.806866   -8.2807803    533.57953  0.016163199  0.015779205            7 
 2752000   0.79685064   -8.2889133    532.87079  0.016135864  0.015773784            3 
 2753000   0.81056819   -8.2743297    533.28977  0.016142686  0.015768381            5 
 2754000   0.80700891   -8.2453931    533.73896  0.016150416  0.015763003            3 
 2755000   0.81284654    -8.270369    534.22792  0.016159344  0.015757605           11 
 2756000   0.82775114   -8.2616926    533.87345  0.016142763  0.015752256            5 
 2757000   0.81578654    -8.293779     533.8843  0.016137235  0.015746898            4 
 2758000   0.82076016   -8.2590507    533.80741  0.016129061  0.015741538            3 
 2759000    0.8140873    -8.303628    532.94949  0.016097302  0.015736159            2 
 2760000   0.78977464   -8.3137484    534.59379  0.016141117  0.015730773            5 
 2761000   0.80883796   -8.2694413    534.26044   0.01612521  0.015725376            7 
 2762000   0.82161764   -8.2716989    533.70082  0.016102487  0.015720001           10 
 2763000    0.8240545   -8.3028726     533.1433  0.016079844  0.015714636           12 
 2764000   0.79884337   -8.2923822    534.25151  0.016107438  0.015709256            4 
 2765000   0.79980068   -8.2980653    533.20482  0.016070067  0.015703871            3 
 2766000   0.80326323   -8.2829399    533.35747  0.016068856  0.015698452            3 
 2767000   0.81006847    -8.293046    534.39889  0.016094413  0.015693032            3 
 2768000   0.81726573    -8.306506    533.12705  0.016050309  0.015687637            2 
 2769000   0.80025704   -8.2654559    533.65003  0.016060251  0.015682241            2 
 2770000   0.81289803    -8.286288    532.43678  0.016017954  0.015676843            7 
 2771000   0.81855685   -8.2908025    532.42869   0.01601193  0.015671447            5 
 2772000   0.81134979   -8.2996216    534.45897  0.016067189  0.015666067            4 
 2773000   0.80256618    -8.282908    533.26879  0.016025628  0.015660684            2 
 2774000   0.82392494   -8.3437527    532.87579  0.016008045   0.01565528            5 
 2775000   0.79477536   -8.3162727     533.1527  0.016010592  0.015649864            3 
 2776000   0.80664582   -8.3062849    532.63127  0.015989171  0.015644455            4 
 2777000   0.80304151   -8.3259994    532.79101  0.015988207  0.015639049            4 
 2778000   0.81224639   -8.2964062    534.25517  0.016026373  0.015633644            4 
 2779000   0.81376251   -8.3119506     533.8742  0.016009182  0.015628227            2 
 2780000   0.80881484   -8.3076949    533.02157  0.015977865  0.015622806            4 
 2781000   0.80009677   -8.3242826    533.32284  0.015981147  0.015617374            5 
 2782000    0.8039081   -8.3309967    532.57426  0.015952979   0.01561193            7 
 2783000    0.8004629   -8.3459044    533.02481  0.015960738  0.015606485            8 
 2784000    0.7924216    -8.328686     533.7337  0.015976224  0.015601071            4 
 2785000   0.80696855   -8.3261803    533.31722  0.015958026  0.015595675            9 
 2786000   0.81018176   -8.3148947     532.9642  0.015941739  0.015590284           13 
 2787000   0.79681455   -8.3536727    533.03621  0.015938172  0.015584875            5 
 2788000   0.80130897   -8.3206909    533.06912  0.015933439  0.015579432            8 
 2789000   0.79654121   -8.3300232    532.29543  0.015904608  0.015573999            5 
 2790000   0.81250748   -8.3121702     534.0719  0.015951968  0.015568583           10 
 2791000    0.8013407   -8.3338351     533.2148  0.015920662  0.015563161            8 
 2792000   0.82620365    -8.342054    532.04094  0.015879923  0.015557737            3 
 2793000    0.7995437   -8.3431808    532.75149  0.015895438   0.01555228            5 
 2794000   0.81522272   -8.3080317     534.5016  0.015941947  0.015546842            7 
 2795000   0.80073501   -8.3369794    532.68168  0.015881982  0.015541422            3 
 2796000   0.79019596   -8.3069172     532.7764  0.015879125  0.015536005            7 
 2797000   0.81116252     -8.32104    534.04829  0.015911342  0.015530592            2 
 2798000   0.78848935   -8.3147036    533.38323  0.015885848  0.015525182            5 
 2799000   0.81275233   -8.3112474    534.22168  0.015905135  0.015519806            3 
 2800000   0.79485155   -8.3013055    533.78985  0.015886603   0.01551441            5 
 2801000   0.79975605   -8.3395505    533.48395   0.01587183  0.015509019            8 
 2802000   0.79964823   -8.3127583    533.33119  0.015861622   0.01550361            3 
 2803000   0.83064098   -8.3104231    534.17316  0.015880995  0.015498209            3 
 2804000   0.81394311   -8.2973622    533.31937  0.015849958  0.015492827            8 
 2805000    0.8240087    -8.315711    535.49714  0.015909006  0.015487455            1 
 2806000   0.81314646   -8.3290249    534.54189  0.015874967  0.015482066            5 
 2807000   0.78728114   -8.3198774    535.42162  0.015895429  0.015476697            9 
 2808000   0.80672779   -8.2875916    535.94514  0.015905304   0.01547132            3 
 2809000   0.79061429   -8.3131418    533.72301  0.015833719  0.015465917            4 
 2810000   0.81448173   -8.3678418    533.46334  0.015820384  0.015460495            4 
 2811000    0.8000458   -8.3137207    533.36695  0.015811898   0.01545507            5 
 2812000   0.81108671    -8.356342    533.51472  0.015810654   0.01544968            7 
 2813000   0.79236744   -8.3410814    533.98414   0.01581894   0.01544427           12 
 2814000   0.80320107    -8.336998    532.58488  0.015771881  0.015438855            9 
 2815000   0.79725066   -8.3335434    533.66458  0.015798241  0.015433418            7 
 2816000   0.81298481   -8.3587523    533.58852   0.01579038  0.015427993            3 
 2817000   0.81557567   -8.3365924    533.51387  0.015782566  0.015422545            4 
 2818000   0.79607536   -8.3239046     533.5399  0.015777735  0.015417113            5 
 2819000   0.79082151   -8.3462367    533.80912  0.015780097  0.015411673            2 
 2820000   0.79321185   -8.3327492     534.0563  0.015781806   0.01540625            3 
 2821000   0.80942171   -8.3568259    534.44578  0.015787716  0.015400859            3 
 2822000   0.78509089   -8.3266776    534.72053  0.015790235  0.015395468            2 
 2823000   0.79539567   -8.3430207    534.29874  0.015772191  0.015390068           10 
 2824000   0.82367646   -8.3484113    533.62235  0.015746646  0.015384674            3 
 2825000   0.80071104   -8.3599928     533.1673  0.015727649  0.015379274            3 
 2826000   0.82147541   -8.3226666    533.66188  0.015736668   0.01537389            2 
 2827000   0.80204558   -8.3268397    535.20883  0.015776702  0.015368522            3 
 2828000   0.79109547   -8.3035516    533.22709  0.015712727  0.015363178            3 
 2829000   0.78359808   -8.3478615     534.4443  0.015743028  0.015357812            3 
 2830000   0.78743936   -8.3395708    534.11888  0.015727882  0.015352426            3 
 2831000   0.79989147   -8.3373467    534.06439  0.015720723  0.015347039            6 
 2832000   0.79780177   -8.2960833    536.48846  0.015786501  0.015341672            3 
 2833000   0.80721227   -8.3282374     534.9597   0.01573596  0.015336313            4 
 2834000   0.79972977   -8.3342852    534.24893  0.015709507   0.01533095            4 
 2835000    0.8112923   -8.3457708    533.91073  0.015694025  0.015325586            3 
 2836000   0.78608862   -8.3362414    535.33113  0.015730228  0.015320229            2 
 2837000   0.81525486    -8.327296    535.50747  0.015729864  0.015314879            2 
 2838000   0.79029749   -8.3327354    534.90184  0.015706537   0.01530952           10 
 2839000   0.78862335    -8.349593    533.35819  0.015655694  0.015304169            5 
 2840000   0.79567636   -8.3506925    533.81857   0.01566369  0.015298799            4 
 2841000   0.80017366   -8.3338322    533.96426   0.01566245  0.015293434            4 
 2842000   0.79606982   -8.3371652    534.64068  0.015676773  0.015288075            6 
 2843000   0.80090169   -8.3478798    533.57158  0.015639922  0.015282712            4 
 2844000   0.81323883   -8.3399765    535.68961  0.015696484  0.015277346            3 
 2845000   0.78707045   -8.3734514    534.73641  0.015663047  0.015271985            8 
 2846000   0.79294808   -8.3418743    535.59933   0.01568281  0.015266605            6 
 2847000   0.79948018   -8.3352599    535.44481  0.015672779  0.015261245           10 
 2848000   0.80603992   -8.3669433    534.62011  0.015643145  0.015255896            8 
 2849000   0.79354304   -8.3659562    533.78205  0.015613141  0.015250546            4 
 2850000   0.79698947   -8.3332614    535.27902  0.015651433  0.015245205            7 
 2851000     0.787525   -8.3776887     534.4674   0.01562222  0.015239854            4 
 2852000   0.80742832    -8.355014    535.20272  0.015638228  0.015234493            4 
 2853000   0.80170681   -8.3658009    534.66681  0.015617093  0.015229158            2 
 2854000    0.7968866   -8.3699009    534.42176  0.015604466  0.015223811            6 
 2855000    0.7940876   -8.3503041     535.4804  0.015629901  0.015218457            3 
 2856000   0.78958382   -8.3797897    533.58514  0.015569127  0.015213105            3 
 2857000   0.79396473    -8.369245    535.35574  0.015615323  0.015207768            1 
 2858000   0.79799427   -8.3520289    534.64245  0.015589061  0.015202414            4 
 2859000   0.80256795     -8.38588    535.03831  0.015595147  0.015197057            2 
 2860000   0.76802708   -8.3589901    535.86678  0.015613834  0.015191712            4 
 2861000   0.78659704    -8.359051     534.0923  0.015556691  0.015186357            6 
 2862000   0.80216054   -8.3841155    534.84464  0.015573161  0.015180991            5 
 2863000   0.79413796   -8.3549056    535.41978  0.015584462  0.015175629            3 
 2864000   0.78321802   -8.3803109     535.3932  0.015578247  0.015170282            7 
 2865000   0.78804521   -8.3599795    535.30198  0.015570157  0.015164944            5 
 2866000   0.78761418   -8.3576845    535.97239  0.015584217  0.015159642            3 
 2867000   0.78757768   -8.3510855    535.89518  0.015576537  0.015154327            3 
 2868000   0.79132951   -8.3534956    535.65937  0.015564254  0.015149006            3 
 2869000   0.80838562   -8.3449224     535.3659  0.015550305  0.015143707            4 
 2870000    0.7695898   -8.3215452     536.5307  0.015578708  0.015138422            2 
 2871000   0.78772762   -8.3271298    534.68928  0.015519833  0.015133139           10 
 2872000   0.80005287   -8.3744246     535.9192  0.015550116  0.015127867            2 
 2873000   0.79784885   -8.3349191    536.68942  0.015567044  0.015122592            3 
 2874000   0.79667047   -8.3177656    536.26767  0.015549399  0.015117335            4 
 2875000   0.79860714   -8.3608893    536.09437  0.015538967  0.015112066            3 
 2876000    0.7816176   -8.3691067    534.72576  0.015493908  0.015106792            3 
 2877000   0.77485568   -8.3320757    536.49955  0.015539901  0.015101523            4 
 2878000   0.79554844   -8.3538394    536.59031   0.01553713  0.015096242            5 
 2879000   0.78656437   -8.3611449    536.30173   0.01552338  0.015090985            4 
 2880000   0.77693193   -8.3718024    535.22182  0.015486743  0.015085703            7 
 2881000   0.79340977   -8.3539537    534.70551  0.015466433  0.015080419            5 
 2882000    0.7699855   -8.3498731    536.03769  0.015499586  0.015075155           10 
 2883000   0.78840257   -8.3451465    535.74473  0.015485742  0.015069878            4 
 2884000    0.7922987   -8.4043271    535.03274  0.015459799  0.015064606            3 
 2885000   0.80795009   -8.3888434    535.47193  0.015467127  0.015059318           11 
 2886000   0.78916877    -8.392671    533.99458  0.015419109  0.015054028            8 
 2887000    0.8069033   -8.3921533    535.19441  0.015448401  0.015048754            6 
 2888000   0.78236027   -8.3796068     536.2434  0.015473321   0.01504348            4 
 2889000   0.78541167   -8.3640522    537.34234  0.015499664  0.015038221            2 
 2890000   0.79075593   -8.3740775    536.09897  0.015458448  0.015032957            6 
 2891000   0.79457027   -8.3782676    536.29839  0.015458849  0.015027703            4 
 2892000   0.78997733   -8.3701514    537.04539  0.015475029  0.015022439            6 
 2893000   0.78589056   -8.3794065    534.97684  0.015410095  0.015017149            6 
 2894000   0.78392508   -8.3963143    535.41803  0.015417474  0.015011839            7 
 2895000   0.79230356   -8.3788419    535.51035  0.015414806  0.015006533            4 
 2896000   0.80987574   -8.3295363    536.51199  0.015438306  0.015001281            5 
 2897000   0.79351747    -8.361533    536.26339  0.015425825  0.014996031            4 
 2898000   0.76856838   -8.3371081    537.54126  0.015457248   0.01499081            2 
 2899000   0.79771519   -8.3370994    536.76785  0.015429684  0.014985609           15 
 2900000   0.78563282   -8.3319055    536.64786  0.015420916  0.014980404            8 
 2901000   0.78291834      -8.3339    537.21102  0.015431777   0.01497522            4 
 2902000   0.79691967   -8.3930177    536.92914  0.015418365  0.014970021            3 
 2903000   0.77726888   -8.3515245    536.84251  0.015410567  0.014964814            4 
 2904000   0.77689426   -8.3403392    537.48237  0.015423622  0.014959623            4 
 2905000    0.7841154   -8.3716743    537.55259  0.015420327  0.014954425            3 
 2906000   0.79843531   -8.3561532    537.30433  0.015407901  0.014949248            5 
 2907000   0.77311758   -8.3827132    537.40049  0.015405357  0.014944054            5 
 2908000   0.78782999   -8.3789805    537.64566  0.015407086  0.014938851            3 
 2909000   0.78684638   -8.3553573    537.38825  0.015394415  0.014933685            6 
 2910000   0.77501981   -8.3615147    538.16862  0.015411473  0.014928513            3 
 2911000   0.79181516    -8.346449    537.07116  0.015374761  0.014923352            6 
 2912000   0.80750015   -8.3430342    538.54092  0.015411542  0.014918194            3 
 2913000   0.79208292    -8.377913    536.62312  0.015351388   0.01491304            6 
 2914000   0.78226269   -8.3597409    538.38353  0.015396463  0.014907877            7 
 2915000    0.7819146   -8.3791195    536.82404  0.015346599  0.014902693            3 
 2916000   0.77872616   -8.3457207    537.84785  0.015370595  0.014897511            5 
 2917000   0.78219148    -8.383242    536.86676  0.015337297  0.014892341            7 
 2918000   0.79333934   -8.3599978    538.41256  0.015376187  0.014887183            4 
 2919000   0.79212124    -8.370011    538.34544  0.015369003  0.014882042            2 
 2920000    0.7936102   -8.3540413    537.29591  0.015333787  0.014876902            3 
 2921000   0.77448422   -8.3498754    538.92902  0.015375129  0.014871754            4 
 2922000   0.77669059   -8.4016788    538.11761  0.015346726  0.014866608            5 
 2923000   0.80067144   -8.3782831    538.94567  0.015365084  0.014861443            6 
 2924000   0.76983217   -8.4220837     537.0278   0.01530517  0.014856276            7 
 2925000   0.76470059   -8.3873663      537.409  0.015310798  0.014851115           17 
 2926000   0.79970364   -8.3801542    538.65101  0.015340938  0.014845941            3 
 2927000   0.76939444   -8.3954901    538.93253  0.015343712  0.014840789           12 
 2928000   0.77462808   -8.3963098    538.21917  0.015318169  0.014835613            7 
 2929000   0.78673295   -8.3526364    538.08471  0.015309113  0.014830448           13 
 2930000   0.77208944   -8.4108876    537.24111  0.015279895  0.014825289            7 
 2931000   0.79626125   -8.3651682    539.73369   0.01534555  0.014820139           15 
 2932000   0.78394638   -8.3435904    539.16513  0.015324157  0.014815005           12 
 2933000   0.80412613   -8.3612298     538.4353  0.015298196  0.014809893            5 
 2934000   0.79225943   -8.3663547    538.09068  0.015283193  0.014804751            4 
 2935000   0.78189769   -8.3670995    537.03734  0.015248079  0.014799599            7 
 2936000   0.78920354   -8.3983814    536.87566  0.015238296  0.014794425            5 
 2937000   0.78731409    -8.408546    538.47113  0.015278377  0.014789237            5 
 2938000   0.78725395   -8.3893175    536.78177   0.01522526  0.014784059            3 
 2939000   0.78841367    -8.399059    536.87586  0.015222748  0.014778874            6 
 2940000   0.77217248   -8.3782151    536.91764  0.015218754  0.014773664            3 
 2941000   0.77830218   -8.4061205    536.31447  0.015196489   0.01476848            6 
 2942000   0.77856915   -8.4005834      536.674  0.015201507  0.014763311            4 
 2943000    0.7858133   -8.4143071    538.02425  0.015234575  0.014758152            7 
 2944000   0.77758778   -8.3942385    537.32139  0.015209505  0.014752993            4 
 2945000    0.7822655   -8.3915588    537.76953  0.015217021  0.014747842            2 
 2946000   0.77635906   -8.4078383    536.87308  0.015186498  0.014742685            6 
 2947000   0.76398611   -8.3970117     538.5587   0.01522901  0.014737547            4 
 2948000   0.79272396   -8.3818701    537.82792  0.015203186    0.0147324            3 
 2949000   0.76610595   -8.4011987    537.70634  0.015194595  0.014727262            7 
 2950000    0.7866987   -8.3734714    537.37405  0.015180058  0.014722131           13 
 2951000   0.78970171   -8.3834915    537.34839  0.015174189  0.014716993            5 
 2952000    0.7735116   -8.3893537    537.59789  0.015176092  0.014711853            7 
 2953000   0.78160337   -8.3659991    538.10361  0.015185224  0.014706737            4 
 2954000   0.76223608   -8.3901447    538.00743   0.01517737  0.014701609            5 
 2955000   0.76759203   -8.3801602     538.3333  0.015181424  0.014696475            4 
 2956000   0.78941576   -8.3898609    537.39682  0.015149888  0.014691338            3 
 2957000   0.78015164    -8.360479    538.42258  0.015173672  0.014686226            5 
 2958000   0.78317395   -8.3631775    538.70553  0.015176514  0.014681115            3 
 2959000   0.76731306   -8.3497912     538.0371   0.01515256  0.014676003            3 
 2960000   0.78147466   -8.3987942    538.23493   0.01515301  0.014670896           20 
 2961000   0.78070111   -8.3922919    536.77763  0.015106879  0.014665775            4 
 2962000   0.78208738   -8.3742572    539.33868  0.015173832  0.014660663            3 
 2963000   0.79325961   -8.3850431    538.91724  0.015156858  0.014655568            7 
 2964000   0.77605636   -8.3873988    538.53525  0.015141005  0.014650475           15 
 2965000    0.7817308   -8.3619168    538.72803  0.015141316  0.014645377            9 
 2966000   0.77746124   -8.3762563    539.19197  0.015149246   0.01464029           10 
 2967000   0.78765726   -8.3749832    538.82304  0.015133778  0.014635195            4 
 2968000   0.78897916   -8.3811716    539.71403  0.015153696  0.014630116            3 
 2969000   0.76450411   -8.3664208    539.37758  0.015139148  0.014625041            4 
 2970000   0.77419716   -8.3845678    539.50208  0.015137544  0.014619972            4 
 2971000   0.79607519   -8.3603616    539.03402  0.015119321  0.014614906            9 
 2972000   0.77844381   -8.3761442    539.28386  0.015121239  0.014609821            2 
 2973000   0.77099097   -8.3652973    539.79846  0.015130577   0.01460476            3 
 2974000   0.76721713   -8.3712238    538.97076  0.015102297  0.014599683            4 
 2975000   0.79229641    -8.361699     540.3638  0.015136241  0.014594607            9 
 2976000   0.77185768   -8.3953702    539.74905  0.015113941   0.01458955           19 
 2977000   0.76968335   -8.4079181    538.40145  0.015071141  0.014584469           12 
 2978000   0.77307012   -8.4111857    538.51864   0.01506936  0.014579365           12 
 2979000   0.77156173   -8.3808551    539.45618  0.015090528  0.014574268            6 
 2980000   0.79283596   -8.4077958     539.3409   0.01508224  0.014569176            5 
 2981000   0.77736263   -8.4021366     539.3961  0.015078724  0.014564105            9 
 2982000   0.77484176   -8.3874612    539.09629  0.015065289  0.014559035           11 
 2983000   0.76627027   -8.3765663    539.09221  0.015060124  0.014553969           11 
 2984000   0.77463441   -8.3969985    538.80701  0.015047113  0.014548893           16 
 2985000   0.76848396    -8.398455    540.67419  0.015094199  0.014543815           12 
 2986000   0.76981009    -8.401417    539.22936  0.015048821  0.014538719           11 
 2987000    0.7658897   -8.4138508    539.09861  0.015040135  0.014533634           15 
 2988000    0.7678869    -8.424031    537.88271  0.015001191  0.014528546            9 
 2989000   0.78918239   -8.3980798    540.64418  0.015073162  0.014523471            6 
 2990000    0.7657449   -8.4098585     538.2445   0.01500124  0.014518405           10 
 2991000   0.76468895   -8.4297482    538.02028  0.014989978  0.014513307            3 
 2992000   0.77790442    -8.440763    539.44235  0.015024575  0.014508217            4 
 2993000   0.77315502   -8.4367349    538.12948  0.014983002  0.014503136           17 
 2994000     0.783816   -8.4037501    539.41191  0.015013692  0.014498065            9 
 2995000   0.76534956   -8.4233031    538.28566  0.014977342  0.014492994           17 
 2996000   0.76849878   -8.4330473    538.42845  0.014976314  0.014487917           14 
 2997000   0.75774538   -8.4403547    539.15683   0.01499157  0.014482844            4 
 2998000   0.77358261   -8.4073204    539.08477  0.014984567  0.014477771           26 
 2999000   0.78955557   -8.4336002    539.36412  0.014987332  0.014472706           24 
 3000000   0.75764653   -8.3941619    540.35704  0.015009918  0.014467645            9 
 3001000   0.77839011   -8.4155243    539.34358  0.014976774  0.014462574            7 
 3002000   0.77687764   -8.4354668    538.98835  0.014961924  0.014457518           10 
 3003000   0.75537274   -8.4337358    538.94887  0.014955846   0.01445245            7 
 3004000   0.77764934   -8.4324826     538.1235  0.014927971  0.014447364            4 
 3005000   0.75760563   -8.4305443    538.77935  0.014941191  0.014442262            5 
 3006000    0.7562642   -8.4490791    538.01469  0.014915022  0.014437162            4 
 3007000   0.77461134   -8.4230816    538.81817  0.014932329  0.014432066            4 
 3008000   0.76511986   -8.4344323    538.46771  0.014917656  0.014426986            2 
 3009000   0.77561948   -8.4370044    539.89579  0.014952249  0.014421902           10 
 3010000   0.77899242   -8.4263564    538.08095  0.014897036  0.014416826           12 
 3011000   0.77149936   -8.4330856    538.71951  0.014909762  0.014411752            4 
 3012000    0.7776138   -8.4175889    538.86211  0.014908757  0.014406656            4 
 3013000   0.77758163   -8.4462682    538.73571  0.014900313  0.014401554            3 
 3014000   0.77876583   -8.4397585    537.13808  0.014851197  0.014396473            6 
 3015000   0.77357767    -8.417644    538.31962  0.014878928  0.014391388            2 
 3016000   0.77738534   -8.4062162     539.3173  0.014901561  0.014386317            7 
 3017000   0.78175765   -8.4602807    539.64215  0.014905595  0.014381245            4 
 3018000   0.76853125   -8.4365475    538.65725  0.014873461  0.014376152            3 
 3019000   0.79086927   -8.4322668    537.67654  0.014841464  0.014371081            2 
 3020000   0.78141409   -8.4353722    538.39708  0.014856432  0.014366002            7 
 3021000   0.77089519   -8.4465637    539.19878  0.014873628  0.014360911            7 
 3022000   0.76613578   -8.4403383    538.35171  0.014845348   0.01435584            6 
 3023000   0.76807713   -8.4270296    538.46548  0.014843574  0.014350788           11 
 3024000   0.78192631   -8.4381208    539.00321  0.014853484  0.014345725            9 
 3025000   0.77085399   -8.4282747    538.91787  0.014846222  0.014340681            9 
 3026000   0.79163054   -8.4528585    538.24926  0.014822903   0.01433562            4 
 3027000   0.76974552   -8.4533758    538.83029  0.014834002  0.014330576            3 
 3028000   0.77573176   -8.4112261    538.90301  0.014831105  0.014325522            8 
 3029000   0.77085321   -8.4325205    539.85131  0.014852297  0.014320456           11 
 3030000   0.77667718   -8.4245441    539.44454  0.014836208  0.014315426            6 
 3031000    0.7827341    -8.449233    537.78198  0.014785604  0.014310379           10 
 3032000   0.77001058   -8.4384971      537.536  0.014773966  0.014305326           14 
 3033000   0.76642983    -8.441421    538.84655  0.014805103  0.014300281            8 
 3034000   0.76372473    -8.427354    538.45018  0.014789337  0.014295226            6 
 3035000   0.75318378   -8.4471391    538.94256  0.014797984  0.014290179            7 
 3036000   0.77907429   -8.4214281    538.97648   0.01479404  0.014285118            3 
 3037000   0.76859365   -8.4275776    538.11558  0.014765546  0.014280078            4 
 3038000   0.77366817    -8.422257    538.96525  0.014783993  0.014275042           13 
 3039000   0.76077889   -8.4372731    538.92928  0.014778142  0.014269994            4 
 3040000   0.76042352   -8.4193567    538.46827  0.014760643   0.01426494            8 
 3041000   0.75768687   -8.4328954    540.36404   0.01480774  0.014259903            7 
 3042000   0.76626169   -8.4540875    538.74752  0.014758589  0.014254839            5 
 3043000   0.77617546   -8.4368248    540.17059   0.01479271  0.014249787            7 
 3044000   0.76337545   -8.4689685    538.20037  0.014733913  0.014244736           14 
 3045000   0.76643313   -8.4479343    540.85796  0.014801805  0.014239712            7 
 3046000   0.76752811   -8.4324443    538.67302   0.01473717  0.014234681           11 
 3047000   0.76622462   -8.4467563    539.00095  0.014741302  0.014229659            2 
 3048000   0.75475419    -8.456945    539.53117  0.014750962  0.014224649            5 
 3049000   0.77781308   -8.4432431     539.2967  0.014739715  0.014219638            9 
 3050000   0.76639057   -8.4448529    539.55118  0.014741836  0.014214633           11 
 3051000   0.76109594   -8.4344721     540.6283  0.014766424  0.014209635           13 
 3052000   0.76724486   -8.4670528    538.06099  0.014691486  0.014204604           22 
 3053000   0.76585755   -8.4577309    540.08316   0.01474187  0.014199566           13 
 3054000   0.76135904   -8.4108195    540.23762  0.014741258  0.014194551            6 
 3055000   0.74270148   -8.4328838    539.95955  0.014728848  0.014189556           13 
 3056000   0.75692674   -8.4165031    540.26326   0.01473231  0.014184552            9 
 3057000   0.75957371   -8.4486634    539.81879  0.014715374  0.014179539            7 
 3058000   0.76801657   -8.4344062    539.09532  0.014690847  0.014174519           12 
 3059000   0.77416073   -8.4337777    539.44387   0.01469554  0.014169518           16 
 3060000   0.75153882   -8.4784418    539.17107  0.014683308    0.0141645           10 
 3061000   0.75873885     -8.46983    539.43991   0.01468583  0.014159483            7 
 3062000   0.76800825   -8.4660559    538.40398  0.014652841  0.014154453           11 
 3063000   0.76286384   -8.4491516    540.45648  0.014703898   0.01414944            8 
 3064000   0.75427607   -8.4484395    539.82254  0.014681858  0.014144428           10 
 3065000   0.76436833   -8.4262117    540.36604  0.014691845  0.014139427            9 
 3066000   0.74861467   -8.4511003    540.23032  0.014683364  0.014134425            4 
 3067000   0.77018676   -8.4541767       539.51  0.014659005  0.014129432            8 
 3068000   0.74451463    -8.438681     539.4017  0.014651285  0.014124432            2 
 3069000   0.77083018   -8.4463483    538.75932  0.014629068  0.014119428            3 
 3070000   0.76869183   -8.4368496    538.99614  0.014630731   0.01411442            4 
 3071000   0.77543367   -8.4675453    539.18133  0.014630992   0.01410943            5 
 3072000   0.76379906   -8.4181307    540.30852  0.014656807  0.014104437            7 
 3073000   0.75988965   -8.4206307    539.89348  0.014640782  0.014099443            6 
 3074000   0.76957177   -8.4337574    539.87739  0.014635583  0.014094474            3 
 3075000   0.75959692   -8.4429554    540.12755  0.014637603  0.014089504            2 
 3076000   0.74193859   -8.4336853    539.89575  0.014626565  0.014084548           10 
 3077000   0.77189808   -8.3912863    540.44978  0.014636816   0.01407959            8 
 3078000   0.75691048   -8.4474748    538.57506  0.014581304   0.01407462            4 
 3079000   0.75747909    -8.481289    539.47204  0.014600845  0.014069628            4 
 3080000    0.7608786   -8.4305567    540.37664   0.01462058  0.014064638            5 
 3081000   0.78080463   -8.4487252    539.76553  0.014599306   0.01405965            2 
 3082000   0.76198501   -8.4560239    539.76715  0.014594612  0.014054658            3 
 3083000   0.77238672   -8.4219556    539.23211  0.014575417  0.014049672            2 
 3084000   0.75162792   -8.4679577    538.99629  0.014564318  0.014044684            5 
 3085000   0.75523316   -8.4439733    539.48504  0.014572799  0.014039681            7 
 3086000    0.7511272   -8.4553911     537.8156  0.014522996  0.014034704            3 
 3087000   0.74691912   -8.4701812    539.13328  0.014553863  0.014029725            1 
 3088000   0.75920052   -8.4534359    538.69219  0.014537246  0.014024747            3 
 3089000   0.75798127   -8.4580352    539.72532  0.014560411  0.014019741            3 
 3090000   0.75722706   -8.4813908    537.69528  0.014500951  0.014014741            2 
 3091000   0.75239157   -8.4633071    539.63271  0.014548493  0.014009752            4 
 3092000   0.74645019   -8.4752004    539.41533  0.014537929  0.014004778            8 
 3093000   0.75590278   -8.4662282    541.03206  0.014576788  0.013999799            3 
 3094000   0.75455234   -8.4571068    541.16454  0.014575645  0.013994823            6 
 3095000   0.74554352   -8.4790459    539.52698  0.014526844  0.013989847            3 
 3096000   0.76093913   -8.4694347    538.98052  0.014507443  0.013984857            4 
 3097000   0.76728572   -8.4673049    539.51332  0.014517095  0.013979885           10 
 3098000   0.77799261   -8.4967123    539.19148  0.014503752  0.013974899            4 
 3099000   0.75911392   -8.4627242    538.88545  0.014490842  0.013969911            2 
 3100000   0.75774903   -8.4652685    538.96197  0.014488225  0.013964922            4 
 3101000   0.75191539   -8.5139289    538.05249  0.014459112  0.013959929            5 
 3102000    0.7597515   -8.4956234     538.2514  0.014459795  0.013954919            5 
 3103000   0.74653289    -8.499441    538.58803  0.014464175  0.013949924            3 
 3104000   0.75030055   -8.4985816    539.48794  0.014483675   0.01394494            4 
 3105000   0.75768278   -8.4813969    538.03032  0.014439891  0.013939952            2 
 3106000   0.76739784   -8.5003212    538.43686  0.014446149  0.013934979            3 
 3107000   0.75368805   -8.5023554    540.22531  0.014489468  0.013929992            3 
 3108000    0.7698523   -8.4826322    539.93997  0.014477155  0.013925017            5 
 3109000   0.75650649   -8.4897748     540.1249  0.014477455  0.013920043            5 
 3110000   0.73566878   -8.4783809    538.77286  0.014436572  0.013915079            6 
 3111000   0.73956133   -8.4957009    538.40161  0.014421987  0.013910103            5 
 3112000   0.74815339   -8.4920099    538.41466  0.014417702  0.013905125            3 
 3113000   0.74496526    -8.483093    538.84419  0.014424569  0.013900161            8 
 3114000   0.76046688    -8.494413     538.5215  0.014411301  0.013895209            5 
 3115000   0.78163154   -8.4610737    539.45656   0.01443169  0.013890251           10 
 3116000   0.75880502   -8.4699309    539.77203  0.014435495  0.013885298            4 
 3117000   0.75061826   -8.4706628    540.56907  0.014452173  0.013880343            5 
 3118000   0.75979278   -8.4840524    539.86776  0.014428794  0.013875375            4 
 3119000   0.74148078   -8.4625901    540.33911  0.014436761  0.013870414            5 
 3120000   0.75794699   -8.4760032     538.7791  0.014390467  0.013865454            3 
 3121000    0.7409557   -8.4752951    539.65805  0.014409325  0.013860479            6 
 3122000   0.73547157   -8.4743405     539.9066  0.014411344  0.013855528            5 
 3123000   0.75826916    -8.472084    538.46033  0.014368138  0.013850581            6 
 3124000   0.75811112   -8.4785366    539.41114  0.014388901  0.013845622            7 
 3125000   0.75163243   -8.4905659    539.19817  0.014378618  0.013840634            4 
 3126000   0.75688589   -8.4557032     540.1447  0.014399251  0.013835654            4 
 3127000   0.75921561   -8.4809048    538.50654   0.01435099  0.013830683            6 
 3128000    0.7591649   -8.4878488    539.13839  0.014363235  0.013825695            6 
 3129000   0.75889237   -8.5101262    538.81511  0.014350035  0.013820714            4 
 3130000   0.74912463   -8.4757215    538.74693  0.014343635  0.013815747            5 
 3131000   0.73518929   -8.4740393    538.84551  0.014341678  0.013810771            8 
 3132000   0.75955565   -8.4599444    539.40226  0.014351912   0.01380581            6 
 3133000   0.74654539   -8.4925581    540.24403  0.014369721   0.01380084            4 
 3134000     0.752653   -8.5008705     539.1561  0.014336208  0.013795866            8 
 3135000   0.74784771    -8.505557    539.57792  0.014342847  0.013790885           20 
 3136000   0.76771324    -8.503886    538.58052   0.01431177  0.013785905           12 
 3137000   0.75667926    -8.484424    538.66554  0.014309466  0.013780926            5 
 3138000   0.75601129   -8.5222612    538.74433  0.014306998  0.013775956            7 
 3139000   0.75761697   -8.4959442    539.52259  0.014323102  0.013770997           12 
 3140000    0.7486352   -8.4989346    539.52286  0.014318547   0.01376603            4 
 3141000   0.74883592   -8.4975048    539.55892  0.014314945  0.013761071            3 
 3142000   0.74365424   -8.4880374    539.55762  0.014310355  0.013756114            4 
 3143000   0.74414709   -8.4948444    538.49093   0.01427752   0.01375116            4 
 3144000   0.73959346   -8.4779894    539.24081  0.014292854  0.013746213            6 
 3145000   0.74311593   -8.4975235    538.29952  0.014263368  0.013741269           19 
 3146000   0.72337818   -8.5000344      539.394  0.014287826  0.013736322            3 
 3147000   0.74719635   -8.4770227    539.62841  0.014289493  0.013731389            3 
 3148000   0.75396733    -8.447024    540.97365  0.014320565  0.013726472           10 
 3149000   0.73531832   -8.4739806    540.08533  0.014292509  0.013721561            4 
 3150000    0.7505629   -8.4899246    539.74199  0.014278889  0.013716632            6 
 3151000   0.76238119   -8.4865882    540.02953  0.014281961  0.013711692           13 
 3152000   0.76439503   -8.4917889    538.61504  0.014240034  0.013706748            3 
 3153000   0.74599204   -8.4764996    539.88597  0.014269108  0.013701827            5 
 3154000   0.74374673   -8.5175733    539.25387  0.014247883  0.013696909            7 
 3155000   0.74891088   -8.4818032    538.66921  0.014227924  0.013692008            4 
 3156000   0.75484661   -8.4795586    539.83988  0.014254327  0.013687105            6 
 3157000   0.76102792   -8.4924924    539.17175  0.014232176  0.013682187            4 
 3158000   0.74449443   -8.5003486    538.84322     0.014219  0.013677267            5 
 3159000   0.76040276   -8.4907722    538.71982  0.014211244  0.013672356            5 
 3160000   0.76167797   -8.5318125     539.9739  0.014239818  0.013667431            9 
 3161000   0.74698222    -8.484311     539.3915  0.014219959  0.013662509            6 
 3162000    0.7441877   -8.4916919    539.91644  0.014229297  0.013657589            3 
 3163000   0.73221643   -8.4852982    541.17388  0.014257927  0.013652656           13 
 3164000   0.75832241   -8.4750521    539.09626    0.0141987  0.013647741            4 
 3165000   0.74355602   -8.4745692    539.33554  0.014200515  0.013642839            7 
 3166000   0.75023306     -8.46268    539.85964  0.014209824  0.013637919            8 
 3167000   0.74064771    -8.486196    540.10348  0.014211753  0.013633013            6 
 3168000   0.74652744   -8.4770486    539.99074  0.014204302  0.013628096           11 
 3169000   0.76807985   -8.4935752    538.00867  0.014147698  0.013623174            3 
 3170000   0.74849841   -8.4975559    540.26744  0.014202614  0.013618262            9 
 3171000   0.76197046   -8.4980634    538.17651  0.014143186   0.01361335            9 
 3172000    0.7488784   -8.5301161    537.84614  0.014130048  0.013608418            5 
 3173000   0.75478661   -8.4813441    539.26954  0.014162978  0.013603501            7 
 3174000   0.76317137   -8.4807408    540.00203  0.014177747  0.013598584            6 
 3175000     0.734309   -8.5121065    539.05256  0.014148361  0.013593661            7 
 3176000   0.74374914   -8.5068405    538.33569  0.014125097  0.013588737            5 
 3177000   0.74356111   -8.4883529    538.54263  0.014126079  0.013583814            5 
 3178000   0.74502873   -8.4998292    538.83589  0.014129324  0.013578903            4 
 3179000   0.73246194   -8.5023255    539.16938  0.014133621  0.013574003            4 
 3180000     0.754735   -8.5071471    540.15819  0.014155089  0.013569104            3 
 3181000   0.74897138   -8.4826755    538.46958  0.014106402  0.013564196            8 
 3182000   0.73750551   -8.4903607    538.76473  0.014109699   0.01355929            7 
 3183000   0.76368917   -8.5140995    540.02715  0.014138317  0.013554384            4 
 3184000   0.74930673   -8.5202822    539.09538   0.01410949  0.013549478            2 
 3185000   0.74212057   -8.5119175    539.99246  0.014128531  0.013544575            2 
 3186000   0.74512203   -8.5088691    540.28991  0.014131877  0.013539657            6 
 3187000   0.75358011   -8.4926237    539.06758  0.014095481  0.013534755            4 
 3188000   0.73297919   -8.5439132    538.74606  0.014082655  0.013529844            6 
 3189000   0.75848133    -8.506252    539.32992  0.014093496   0.01352494            3 
 3190000   0.74060348   -8.5153051    539.75921  0.014100293  0.013520036            4 
 3191000   0.73872551   -8.4888765    538.72902   0.01406897  0.013515131            7 
 3192000   0.75790552   -8.5085749    538.74977  0.014065105  0.013510229            7 
 3193000   0.74124386   -8.5102117    540.30455  0.014101277  0.013505321            6 
 3194000   0.74187111   -8.4687785    540.06966  0.014090734  0.013500421            2 
 3195000   0.73788692   -8.5254996    538.63348  0.014048865  0.013495509            7 
 3196000   0.75394204   -8.5139713    538.32326   0.01403638  0.013490586            5 
 3197000   0.73318056     -8.50158    539.14683  0.014053457  0.013485677            4 
 3198000   0.74190177   -8.5161403    538.58837   0.01403451  0.013480798            3 
 3199000   0.72806656   -8.5002086    540.61897   0.01408302    0.0134759            1 
 3200000   0.72678962   -8.5265751    538.74651  0.014029857     0.013471            4 
 3201000   0.72235785   -8.5519126    538.75331  0.014025651  0.013466094           18 
 3202000   0.75346844   -8.5118451    539.03532   0.01402861  0.013461187           15 
 3203000   0.73745881   -8.5247683    538.71228  0.014015826  0.013456289            5 
 3204000   0.72709669    -8.532188    539.25454  0.014025555    0.0134514           11 
 3205000    0.7313236   -8.5358661    538.46305  0.014000599  0.013446505            3 
 3206000   0.74197887   -8.5168361    538.75216  0.014003747  0.013441608            7 
 3207000   0.74755661   -8.5443809    538.72715  0.013998731  0.013436706           11 
 3208000   0.73703864   -8.5108108    538.78913  0.013995977  0.013431809            7 
 3209000   0.73410855   -8.5206602    539.21778  0.014002747  0.013426906            6 
 3210000   0.73811636     -8.52815    540.10824  0.014021502  0.013422006            6 
 3211000      0.74212   -8.5558093    538.02184  0.013962988  0.013417107            5 
 3212000   0.73631515   -8.5355264    539.26698  0.013990945  0.013412208           10 
 3213000   0.73732325    -8.543484    537.98865  0.013953435  0.013407321            7 
 3214000   0.73643777   -8.5253722    539.28242  0.013982639  0.013402443            5 
 3215000   0.72190675   -8.5370867    537.65256  0.013936044  0.013397554           10 
 3216000   0.74045002   -8.5236513    539.29924  0.013974379  0.013392672            5 
 3217000   0.72717543   -8.5254112    538.27516  0.013943507  0.013387804           14 
 3218000   0.75753727   -8.5337231    538.01418  0.013932416  0.013382927            6 
 3219000    0.7386159   -8.5043843    539.41111  0.013964252  0.013378066           14 
 3220000   0.74417528   -8.5099579    539.31995  0.013957556  0.013373198            7 
 3221000   0.72361449   -8.5170643     538.7149  0.013937569   0.01336835           11 
 3222000   0.73866569   -8.5122761    538.36504  0.013924194  0.013363493           25 
 3223000   0.73804623   -8.5381372    540.12023  0.013965256  0.013358658           10 
 3224000   0.73319971   -8.5099031    539.80579  0.013952796  0.013353814            6 
 3225000    0.7374367   -8.5043315    538.55429  0.013916132  0.013348973           13 
 3226000   0.73768302   -8.5088341    539.45928  0.013935195  0.013344133            3 
 3227000   0.74132579   -8.5263191     539.8937  0.013942095  0.013339306           14 
 3228000   0.75234325    -8.517206    539.57623  0.013929581  0.013334477            7 
 3229000   0.72769002   -8.5186814    539.45321  0.013922092  0.013329648           12 
 3230000   0.73226313   -8.5151581    538.71292  0.013898682  0.013324832           10 
 3231000   0.72405355   -8.5333115    538.41506  0.013886698  0.013320006           16 
 3232000   0.74341169   -8.5138907    539.01092  0.013897765  0.013315156           14 
 3233000   0.73678802    -8.503708    539.70505  0.013911358  0.013310336           12 
 3234000   0.74008976   -8.5370071    538.40244  0.013873491  0.013305508           10 
 3235000   0.73107486   -8.5213704    539.00818  0.013884806   0.01330068           13 
 3236000   0.73600867   -8.5053302     540.6927  0.013923895  0.013295864           15 
 3237000    0.7335183   -8.5230551    539.23998  0.013882195  0.013291041            7 
 3238000   0.74508944   -8.4936996    540.71317  0.013915822  0.013286226            8 
 3239000   0.74599469   -8.5331246    539.30842  0.013875384  0.013281406           10 
 3240000    0.7296164   -8.5323635    540.15059  0.013892762  0.013276591           11 
 3241000    0.7202697   -8.5415437    539.15935  0.013862988  0.013271762           11 
 3242000   0.74196934   -8.5186496    539.22166  0.013860314  0.013266944            4 
 3243000   0.73811768   -8.5391003    538.37049  0.013834168  0.013262123            4 
 3244000   0.72045403   -8.5368677    539.11314  0.013848981  0.013257292            4 
 3245000   0.70695749   -8.5309375    538.20061  0.013821279   0.01325246           11 
 3246000   0.73626084    -8.539846     538.0849  0.013814051  0.013247623           14 
 3247000   0.72912897   -8.5314627    539.19113  0.013838187   0.01324278            9 
 3248000   0.72174679     -8.52724     538.9772  0.013828438  0.013237939            4 
 3249000   0.72668241   -8.5491115    538.74334  0.013818183  0.013233095            6 
 3250000   0.74350899   -8.5327584    539.75996  0.013839999  0.013228252            3 
 3251000   0.73564072   -8.5543776     539.5683  0.013830829  0.013223404            3 
 3252000   0.73677762   -8.5481479    539.67654   0.01382935   0.01321857            5 
 3253000   0.71773166   -8.5313513     538.6302  0.013798294  0.013213747            9 
 3254000   0.72663426   -8.5438892    537.96899   0.01377712  0.013208911            6 
 3255000   0.71825982   -8.5194784    538.97765  0.013798711  0.013204089            1 
 3256000    0.7332869   -8.5254397     539.7411  0.013814013  0.013199277            4 
 3257000   0.72603429   -8.5297627    539.97081  0.013815649   0.01319446            6 
 3258000   0.72644875   -8.5503423    539.78344  0.013806615  0.013189664            3 
 3259000   0.72831785    -8.549299    539.53069  0.013795916  0.013184854            5 
 3260000   0.73896592   -8.5546271    538.69947  0.013770436  0.013180051            3 
 3261000   0.73596622   -8.5536925      539.384  0.013783707  0.013175253           10 
 3262000   0.71917449   -8.5543564    538.16488  0.013748336  0.013170458            6 
 3263000   0.73063142   -8.5498386    537.67111  0.013731513  0.013165644            7 
 3264000   0.72346587   -8.5398962    539.44376  0.013772563  0.013160836            5 
 3265000   0.73125115   -8.5491399    539.35402  0.013766055  0.013156039            6 
 3266000   0.72185062   -8.5578885    538.98887  0.013752523  0.013151225            4 
 3267000   0.73118316   -8.5454996    538.89199  0.013745842  0.013146402           23 
 3268000   0.73338704   -8.5829892    538.05914  0.013720398  0.013141586            6 
 3269000   0.73379942   -8.5495344    538.49638  0.013727347   0.01313677            3 
 3270000   0.73355845    -8.555603    537.82255  0.013705977  0.013131957           13 
 3271000   0.73595665   -8.5486908    540.13565  0.013760717  0.013127154            3 
 3272000   0.72675995   -8.5505403    539.03739   0.01372854  0.013122352            3 
 3273000   0.72814038   -8.5585305    538.55529  0.013712071  0.013117542           14 
 3274000   0.72676095   -8.5620748     539.4274  0.013730081  0.013112746            5 
 3275000   0.73021938   -8.5539453     537.9774  0.013688992  0.013107944            2 
 3276000   0.72514541   -8.5478982     537.8845  0.013682451  0.013103147            9 
 3277000   0.72079345   -8.5778841    538.55064  0.013695215   0.01309833            7 
 3278000    0.7175587   -8.5778858    538.95132  0.013701223  0.013093497           12 
 3279000   0.72659445   -8.5976981    537.30839  0.013655291   0.01308868            8 
 3280000   0.72328453   -8.5706174    537.42699  0.013654141  0.013083869            9 
 3281000    0.7248837   -8.5642367    539.16613  0.013694151  0.013079063            6 
 3282000   0.72474649   -8.5579322    540.34519  0.013719917  0.013074251            6 
 3283000   0.72051494   -8.5600996    539.55718  0.013695735  0.013069456            6 
 3284000   0.72498927   -8.5653483    538.57696  0.013666691  0.013064659            5 
 3285000   0.72096337   -8.5667375    538.29178  0.013655296  0.013059863           10 
 3286000   0.72297603   -8.5718664     538.8989  0.013666537  0.013055066            8 
 3287000    0.7263628   -8.5838403    538.85703  0.013661318  0.013050265            7 
 3288000   0.71639784   -8.5687585    539.61855  0.013676464  0.013045464            5 
 3289000   0.71385973    -8.562111    538.89544  0.013653984  0.013040682            5 
 3290000   0.74733322   -8.5796008    537.99036  0.013626909  0.013035908           14 
 3291000   0.72412258   -8.5509025    539.58071  0.013663038  0.013031134            7 
 3292000   0.71652174    -8.572593    539.23735  0.013650196  0.013026347            4 
 3293000   0.72466285   -8.5794441    538.71454  0.013632821   0.01302156            9 
 3294000   0.73844808   -8.5836252    538.48193  0.013622797  0.013016772           11 
 3295000   0.73873271   -8.5654505    537.79094  0.013601187  0.013011979           10 
 3296000   0.71639323   -8.5491766    538.60647   0.01361768  0.013007196            5 
 3297000   0.72078372   -8.5975357    538.26889  0.013605017  0.013002404            3 
 3298000    0.7245097   -8.5487198    539.13274  0.013622719  0.012997619            3 
 3299000   0.71656979   -8.5400492    537.81848  0.013585391  0.012992847            8 
 3300000    0.7277088    -8.549507    537.70574  0.013578428  0.012988076            7 
 3301000   0.71979662   -8.5664982    538.22692  0.013587471  0.012983306            3 
 3302000   0.74710329   -8.5795692    538.78354  0.013597404  0.012978539            3 
 3303000   0.71715345   -8.5564684    538.09719  0.013575971  0.012973769            5 
 3304000   0.72611603   -8.5477828    539.45531  0.013606116  0.012969004            4 
 3305000   0.71511907   -8.5764361    538.76804  0.013584671  0.012964242            5 
 3306000   0.72186366   -8.6092737    539.27998  0.013593466  0.012959477            7 
 3307000   0.72584397   -8.6039796    538.24304  0.013563225  0.012954701            4 
 3308000   0.72751396     -8.56793    538.65525  0.013569509  0.012949936            6 
 3309000   0.70864613   -8.6040747    538.87603  0.013570969  0.012945177            3 
 3310000   0.71834614    -8.598621    538.81492   0.01356533  0.012940405            7 
 3311000   0.71758987   -8.6066735    537.76347   0.01353477  0.012935635            7 
 3312000   0.73984579    -8.556507     539.2767  0.013568757  0.012930875            4 
 3313000    0.7229379   -8.5848729     538.2199   0.01353808  0.012926111            5 
 3314000   0.73241257   -8.6210167    537.32678  0.013511536  0.012921342            5 
 3315000   0.71602645   -8.5937515    538.10173  0.013526941  0.012916556            6 
 3316000   0.71572858   -8.5981001    537.74052  0.013513785  0.012911777            6 
 3317000   0.70408158   -8.5837786    537.54352  0.013504761  0.012907004           14 
 3318000   0.71838648    -8.612309    537.36689  0.013496255  0.012902233            6 
 3319000   0.72134428   -8.5778343    538.09018  0.013510349  0.012897465            6 
 3320000   0.72622092    -8.583567    536.61592  0.013469275  0.012892701           10 
 3321000   0.71730141   -8.6084601    537.34597  0.013483538  0.012887938           11 
 3322000   0.73236251   -8.5896848    539.28971  0.013528239  0.012883186            9 
 3323000   0.72624342   -8.6010162    537.70249  0.013484364  0.012878439            8 
 3324000    0.7211772   -8.6051225    539.00425  0.013512942  0.012873691           15 
 3325000   0.71804592   -8.5880414    537.67184  0.013475485  0.012868946            6 
 3326000    0.7166759    -8.576538    538.14306   0.01348324  0.012864194           13 
 3327000   0.71762231   -8.6057685    538.12654  0.013478773  0.012859446            8 
 3328000   0.73099856   -8.5736691    539.56331    0.0135107  0.012854701            6 
 3329000   0.70833379   -8.5981281    537.67856  0.013459461  0.012849959            5 
 3330000   0.71929463   -8.5904325     538.7872  0.013483163  0.012845224            8 
 3331000   0.72354014   -8.6021534    538.11807  0.013462375  0.012840492            7 
 3332000   0.71763312   -8.5888683     538.3325  0.013463698  0.012835759           10 
 3333000   0.71588601    -8.597758    537.62744   0.01344203  0.012831025            4 
 3334000   0.72288625   -8.6117262    538.95424  0.013471162  0.012826283            7 
 3335000   0.72009903   -8.5925517    538.45198  0.013454572  0.012821543            5 
 3336000   0.71136394   -8.5638359    539.20354  0.013469313  0.012816808            5 
 3337000   0.72487031   -8.5991666    539.58054  0.013474691  0.012812078            6 
 3338000   0.71794534   -8.5768134    537.79759  0.013426143  0.012807349            7 
 3339000   0.73676072   -8.5981663    538.15246  0.013430979  0.012802624            6 
 3340000   0.71265395   -8.6009145    538.37302  0.013432461  0.012797889            7 
 3341000   0.70480442   -8.5839966    537.93192  0.013417438  0.012793153            7 
 3342000   0.69705004     -8.57167    538.96334  0.013439142  0.012788435            7 
 3343000   0.72550679   -8.5981546    538.27711  0.013418015  0.012783709           14 
 3344000   0.70181524   -8.6015109    536.60897  0.013372432  0.012778979           11 
 3345000   0.71201676    -8.593744    537.37796  0.013387592  0.012774256            9 
 3346000   0.72724292   -8.5925483    538.15383  0.013402915  0.012769546           13 
 3347000   0.73450927    -8.599683    538.87085  0.013416763  0.012764855            5 
 3348000   0.72718424   -8.5971941    538.63076  0.013406779  0.012760155           14 
 3349000   0.70265125   -8.5796758    539.06224  0.013413513  0.012755462           11 
 3350000   0.71201471   -8.5871592    538.72829  0.013401201  0.012750755           12 
 3351000   0.72198846   -8.5816056     538.3543  0.013387902  0.012746045            8 
 3352000   0.71158593   -8.6122186     538.3629  0.013384121   0.01274134            6 
 3353000   0.72102476   -8.5946436    538.45936  0.013382527  0.012736651           11 
 3354000   0.71229635   -8.5750949    537.54018  0.013355699  0.012731954            6 
 3355000   0.71739602   -8.5784762    537.73985  0.013356678  0.012727263            9 
 3356000   0.72169991   -8.5821869    538.96951  0.013383232  0.012722582           11 
 3357000   0.69735993   -8.5970953    538.58533  0.013369708  0.012717901           20 
 3358000   0.72469103   -8.5499782    540.08519  0.013402948  0.012713225            4 
 3359000   0.71333231   -8.5978224    538.21592  0.013352583  0.012708547            8 
 3360000   0.73275796   -8.5895708    538.75894  0.013362077  0.012703865           14 
 3361000   0.72320776   -8.5786853    538.33177   0.01334751  0.012699185           17 
 3362000   0.73260816   -8.6246892    538.27022  0.013342014   0.01269451            4 
 3363000   0.69960295   -8.5876173    539.20567  0.013361227  0.012689845            7 
 3364000   0.69774825   -8.5898783     538.7619  0.013346262   0.01268518           18 
 3365000   0.70867323    -8.578674     539.5733   0.01336239  0.012680522            8 
 3366000   0.69937772   -8.6116203    538.21788  0.013324863   0.01267587           13 
 3367000   0.69742493   -8.6047159    539.28286  0.013347264  0.012671207           13 
 3368000   0.71508305   -8.5902536    538.52001  0.013324426  0.012666566           11 
 3369000   0.72711373   -8.5791925    539.39855  0.013342202  0.012661921           10 
 3370000   0.71342842    -8.604547    538.90423   0.01332602  0.012657271            6 
 3371000   0.70823136   -8.5955328     538.9585  0.013323408  0.012652623            6 
 3372000   0.71567141   -8.5644592    539.57678  0.013334737  0.012647976            7 
 3373000    0.7312067   -8.6125653     538.7505  0.013310369  0.012643326            9 
 3374000   0.72402902   -8.5708226    540.17031  0.013341492  0.012638683           13 
 3375000   0.70384159   -8.5970011     538.5607  0.013297795  0.012634038            7 
 3376000   0.69795502   -8.5922103    539.26071  0.013311135  0.012629401            4 
 3377000   0.70592166   -8.5998474    538.89184  0.013298091   0.01262475           11 
 3378000   0.72732375   -8.6262597      539.089  0.013299018  0.012620092           10 
 3379000   0.72178631   -8.5985715      538.292  0.013275427  0.012615438            7 
 3380000   0.73022072   -8.5960793    539.06108  0.013290461  0.012610794            4 
 3381000   0.73344085   -8.6015974    537.52797  0.013248742  0.012606156            6 
 3382000    0.7132846   -8.5852752    538.83121  0.013276937  0.012601509            9 
 3383000   0.71660131   -8.6069249     539.0362  0.013278062  0.012596866            8 
 3384000   0.70931726   -8.6239735    538.68063  0.013265382  0.012592232           14 
 3385000   0.69868065   -8.5989815    539.04457  0.013270423   0.01258759           12 
 3386000   0.70698996   -8.5921166      538.352  0.013249459   0.01258295           11 
 3387000   0.70426667   -8.6055646    538.68387  0.013253712  0.012578321           13 
 3388000   0.70714827   -8.5749561    538.44442   0.01324391  0.012573694           21 
 3389000    0.7108588   -8.6156276    538.23682  0.013234898  0.012569074           14 
 3390000   0.72073291   -8.6015091    538.78239  0.013244405  0.012564447            8 
 3391000   0.71141222   -8.6276548    538.00907  0.013221495  0.012559829            8 
 3392000   0.70400862   -8.6148124    538.30347   0.01322483  0.012555212           10 
 3393000   0.71586927   -8.6079248    538.12262   0.01321649  0.012550596            5 
 3394000   0.70869474   -8.6002176    539.05838  0.013235572  0.012545977            5 
 3395000   0.69038369   -8.6084965    538.55488  0.013219315  0.012541363           13 
 3396000     0.716416   -8.5956961    540.26822  0.013257465   0.01253676            9 
 3397000   0.69926581   -8.5933521    539.68061  0.013239148  0.012532144           10 
 3398000   0.70666936   -8.6109599    538.22176  0.013199474  0.012527541            4 
 3399000    0.6840572   -8.6171304    538.77188  0.013209078  0.012522927            8 
 3400000   0.71690689   -8.6093856    538.53721  0.013199441  0.012518315            6 
 3401000   0.71052535   -8.6039881    537.94232  0.013180984  0.012513712            3 
 3402000   0.70883749   -8.6025972     538.3276  0.013186547  0.012509113            6 
 3403000   0.69106096   -8.6049069    539.62513  0.013214446  0.012504517            8 
 3404000    0.7021859   -8.5895987    539.40202  0.013205102  0.012499918            6 
 3405000   0.70197431   -8.5826944    538.84402  0.013187568  0.012495323            7 
 3406000   0.72289281     -8.60509    539.32924  0.013195568  0.012490733           10 
 3407000   0.71090927   -8.5832124    539.16274  0.013187622  0.012486145            4 
 3408000   0.67839386   -8.6094888     539.2678  0.013186321  0.012481552            5 
 3409000   0.70224072   -8.6137171     538.5321  0.013164469  0.012476958           11 
 3410000   0.70117059   -8.6190564    538.52935  0.013160541  0.012472358            8 
 3411000   0.68478967   -8.6187669    539.43919  0.013178911  0.012467777            9 
 3412000   0.69586717   -8.6379987    539.35103  0.013172895   0.01246319            3 
 3413000   0.70031238   -8.6268917    538.35037  0.013144603   0.01245861           10 
 3414000   0.71366844   -8.6097558    538.71539  0.013149663  0.012454023            6 
 3415000   0.70073978   -8.6259199    538.87328  0.013149665  0.012449434            6 
 3416000   0.68510905    -8.622871     538.7065  0.013141747  0.012444849            5 
 3417000   0.69262159   -8.6133242    537.75902  0.013114794  0.012440269            8 
 3418000    0.6964575   -8.6098235    540.53401  0.013178613  0.012435693            4 
 3419000   0.70777445    -8.603868    539.01764    0.0131378  0.012431102            7 
 3420000   0.72215308    -8.641171    537.67905  0.013101341  0.012426511            3 
 3421000   0.69496269   -8.6343033    539.62501  0.013144914  0.012421924            5 
 3422000   0.69161351   -8.6408072    538.27307   0.01310815  0.012417338            4 
 3423000   0.70944639   -8.5902552    539.84169  0.013142509  0.012412759            8 
 3424000   0.70899068   -8.6162717    538.72591  0.013111514  0.012408191            6 
 3425000   0.70223713   -8.6339783    539.26846  0.013120887  0.012403629            4 
 3426000   0.70818896   -8.6114967    539.10131  0.013112991  0.012399061           10 
 3427000   0.68861752   -8.6042114    538.70197  0.013099455  0.012394501            9 
 3428000   0.69735871   -8.6333087    538.42686  0.013088946  0.012389932            8 
 3429000   0.71374186   -8.6375459    538.11422   0.01307753  0.012385366            5 
 3430000   0.70737342   -8.6157623    539.35518  0.013103867  0.012380806            7 
 3431000   0.70037382   -8.6128275     536.9669  0.013042041   0.01237624            9 
 3432000   0.71126394   -8.6311376    538.51599  0.013075855  0.012371667            7 
 3433000   0.70142184   -8.6278615    537.89509  0.013056974  0.012367101            7 
 3434000    0.7121225   -8.6204211    538.06905  0.013057393  0.012362545            3 
 3435000   0.70045514    -8.621897    538.35414  0.013060508  0.012357974            8 
 3436000   0.69088179   -8.6324153    539.17827  0.013076695  0.012353411           13 
 3437000   0.70982254   -8.6362938    539.47144  0.013079998  0.012348847            7 
 3438000   0.68790807   -8.6360829    538.76159  0.013058987  0.012344279           11 
 3439000   0.69624747   -8.6370317    537.77169  0.013031203  0.012339709           14 
 3440000   0.70823889   -8.6405366    538.77775  0.013051787  0.012335136            5 
 3441000   0.68681197   -8.6266522    538.78144  0.013048083  0.012330574            6 
 3442000   0.69238106   -8.6612604    537.96333  0.013024485  0.012326016            6 
 3443000   0.68757664   -8.6335706    537.98691  0.013021273  0.012321449            8 
 3444000   0.69342837   -8.6424928    539.24607   0.01304796  0.012316896            6 
 3445000   0.70389269    -8.663895    537.13247  0.012993045   0.01231233            6 
 3446000   0.69016819   -8.6368399    538.85751   0.01303099  0.012307772            5 
 3447000   0.68795061     -8.64283    538.32815  0.013014412  0.012303214            5 
 3448000   0.69640897   -8.6406379    539.35966  0.013035568  0.012298655            5 
 3449000   0.69753343   -8.6404004    538.26515  0.013005343  0.012294093            4 
 3450000    0.7031186   -8.6633438    537.10499   0.01297355  0.012289542            8 
 3451000   0.71063189   -8.6182419      539.033  0.013016348  0.012285001            7 
 3452000   0.70569563   -8.6406209    538.70364  0.013004626  0.012280455            5 
 3453000   0.69583031   -8.6251163    538.08396  0.012985905  0.012275926            4 
 3454000   0.69968349     -8.63332    538.05244  0.012981385  0.012271395            9 
 3455000   0.71673115   -8.6125515    538.48217  0.012987992  0.012266864            6 
 3456000   0.69155569    -8.631194    537.45029  0.012959353  0.012262344            5 
 3457000   0.70321568   -8.6401037     538.6456  0.012984418  0.012257819            5 
 3458000   0.69447145    -8.617469    537.71429   0.01295822  0.012253286            6 
 3459000   0.70468914   -8.6381852    538.42618  0.012971624  0.012248755            9 
 3460000   0.68639767   -8.6368947    538.47822  0.012969129  0.012244232            6 
 3461000   0.69976808    -8.612711    539.12809  0.012981029  0.012239719           10 
 3462000   0.70479049   -8.6151801    538.64326  0.012965609  0.012235206            5 
 3463000   0.69255215   -8.6256594      539.285  0.012977308  0.012230689            6 
 3464000    0.7114829   -8.6384181    538.48656  0.012954353  0.012226185            6 
 3465000   0.70036958   -8.6487405    537.47413  0.012926266  0.012221668            8 
 3466000   0.68251118   -8.6269211    539.18079   0.01296357  0.012217161            6 
 3467000   0.69331681    -8.662512    538.34881  0.012939833  0.012212664            5 
 3468000   0.71274891    -8.648716    537.13762  0.012906998  0.012208158            4 
 3469000   0.69156153   -8.6281692    538.61677   0.01293881  0.012203655            6 
 3470000   0.69352679   -8.6169767     539.4207  0.012954388   0.01219916            9 
 3471000   0.69171085    -8.648442    536.92623  0.012890767  0.012194653           10 
 3472000   0.69701501   -8.6302104    538.29624  0.012919937  0.012190152            9 
 3473000    0.6891117   -8.6522429    537.65189  0.012900756   0.01218565           11 
 3474000   0.69510138   -8.6581122    537.80616  0.012900743  0.012181159           12 
 3475000   0.68938441   -8.6422051    538.88894  0.012922996   0.01217666            6 
 3476000   0.69863035   -8.6104833    538.28865  0.012904887  0.012172165            9 
 3477000   0.70183506   -8.6375124    538.50215  0.012906293  0.012167675           16 
 3478000    0.6959754   -8.6219739    538.30292  0.012897808  0.012163192           11 
 3479000   0.69701039   -8.6465856    538.37934  0.012895931  0.012158695           11 
 3480000   0.69329734    -8.646051     539.3196  0.012914741  0.012154212           16 
 3481000   0.70172868   -8.6600972    539.13232  0.012906548  0.012149726           11 
 3482000   0.68501307   -8.6498495    537.96149   0.01287482   0.01214525            3 
 3483000   0.68884708   -8.6586326    539.14129  0.012899351  0.012140753           10 
 3484000   0.70870672   -8.6385532    538.23394  0.012873946  0.012136261            4 
 3485000   0.71125104   -8.6617244    538.40192  0.012874269  0.012131774           13 
 3486000   0.68940407   -8.6238846    538.45834  0.012871924  0.012127291            7 
 3487000   0.69664501   -8.6463311    538.17006  0.012861344   0.01212281            8 
 3488000   0.69189308   -8.6582111    538.37558  0.012862566  0.012118335           12 
 3489000   0.70204502   -8.6542311    536.83299  0.012822036  0.012113856           12 
 3490000   0.70159865   -8.6193747    538.52559  0.012858777  0.012109388           10 
 3491000   0.69033143   -8.6442831    539.16108  0.012870264  0.012104921            8 
 3492000    0.7252175   -8.6522892    538.65885  0.012854593  0.012100458            8 
 3493000   0.69631184   -8.6566039    538.39131   0.01284453  0.012095993            7 
 3494000   0.69086314   -8.6470252    538.66026  0.012847268  0.012091517           12 
 3495000    0.6911865   -8.6384844    538.02599  0.012828469  0.012087049           10 
 3496000   0.69595055   -8.6591897    538.19551   0.01282884  0.012082581            8 
 3497000   0.66782219   -8.6614292    539.01853  0.012844784  0.012078122           13 
 3498000   0.68738183   -8.6652404     538.0958   0.01281913  0.012073661           15 
 3499000   0.68230651   -8.6481317    539.36363  0.012845661  0.012069204            5 
 3500000   0.69125955   -8.6468847    539.21973  0.012838565  0.012064754            5 
 3501000   0.69515611    -8.649767     539.4003  0.012839196  0.012060302            8 
 3502000   0.69123135   -8.6307297    537.37683  0.012787379  0.012055844            7 
 3503000    0.7021633   -8.6666717    538.47223  0.012809787   0.01205139            8 
 3504000    0.6748009   -8.6489466    538.61842  0.012809609  0.012046941            8 
 3505000   0.70659243    -8.681857    539.14213  0.012818405  0.012042483            5 
 3506000   0.68074749     -8.67628    538.39257  0.012796933  0.012038033            3 
 3507000   0.69155872   -8.6613721      538.674  0.012799972  0.012033588           13 
 3508000    0.6891231   -8.6511388    538.08483  0.012782327  0.012029147            6 
 3509000   0.68524099   -8.6635018     537.7874  0.012771621  0.012024711           18 
 3510000   0.69400609   -8.6242279    539.26574   0.01280308  0.012020268            6 
 3511000   0.69030958   -8.6902405    537.12643  0.012748657   0.01201582            9 
 3512000   0.69606827   -8.6627044    537.77107  0.012760323  0.012011365            9 
 3513000    0.7069509   -8.6610656    537.98252  0.012761707  0.012006921            9 
 3514000   0.68890177   -8.6651919    538.25309  0.012764492  0.012002479           10 
 3515000   0.68420655   -8.6828304    536.63837  0.012722579   0.01199804           12 
 3516000   0.69617911   -8.6528074     538.1374  0.012754489  0.011993597            9 
 3517000   0.67159944   -8.6686491    538.05498   0.01274891  0.011989165            5 
 3518000   0.68296508   -8.6726588    537.35426  0.012728687  0.011984727            7 
 3519000   0.68290542    -8.673297    537.35787  0.012725156  0.011980294            7 
 3520000   0.69419377   -8.6559977    538.29969  0.012743837  0.011975857            8 
 3521000   0.68360532   -8.6632847    538.47907  0.012744463  0.011971423            6 
 3522000   0.68073529   -8.6568334     537.8864  0.012726822  0.011966989            6 
 3523000   0.69065418   -8.6539382    537.95146  0.012724748  0.011962574           20 
 3524000   0.69067397   -8.6722205    537.71514  0.012715549   0.01195815           12 
 3525000   0.68062966   -8.6811485    537.02837  0.012695706  0.011953718           11 
 3526000   0.69597499   -8.6588769    537.85123  0.012711553  0.011949294           10 
 3527000   0.68313772    -8.639692     538.4238  0.012721477  0.011944875            9 
 3528000   0.69237517   -8.6683984    538.80573  0.012726893  0.011940452           13 
 3529000    0.7041194   -8.6666515    537.14435  0.012684055  0.011936039           10 
 3530000   0.67981099   -8.6577219    538.10964  0.012703249  0.011931627           12 
 3531000    0.6907773   -8.6654146    537.85799  0.012693713  0.011927216            9 
 3532000   0.68917216   -8.6869948     536.9301  0.012668226  0.011922802           10 
 3533000   0.69493813   -8.6753021    538.47937  0.012701183  0.011918391            9 
 3534000   0.68893228   -8.6731344    537.65833  0.012678229  0.011913982           16 
 3535000   0.68623002   -8.6858807    538.00402  0.012682792  0.011909577           11 
 3536000    0.6703243   -8.6711958    538.62951  0.012693946  0.011905177           11 
 3537000   0.68897741     -8.69413    537.51327  0.012664058  0.011900767           14 
 3538000   0.68598654   -8.6748153    538.55383  0.012684987  0.011896373           11 
 3539000    0.6971703   -8.6504391     538.7595  0.012686246  0.011891981           15 
 3540000    0.6861357   -8.6680998    537.55889  0.012654399  0.011887593            7 
 3541000   0.68689931   -8.6736032     537.5109  0.012649696  0.011883198            6 
 3542000   0.68508705   -8.6744203    538.82163  0.012676963  0.011878808           11 
 3543000   0.67803873   -8.6622724    538.40967  0.012663695  0.011874416           17 
 3544000   0.69672295   -8.6858697    538.08975  0.012652599  0.011870035           20 
 3545000   0.67862721   -8.6927485    537.53076   0.01263589   0.01186564           17 
 3546000   0.67561784   -8.6811973    538.10864  0.012645907  0.011861253           14 
 3547000   0.67529771   -8.6643758      537.446  0.012626774  0.011856876           11 
 3548000   0.66680637   -8.6824662    537.37105  0.012621455  0.011852488           10 
 3549000   0.69559788   -8.6746649    537.77683  0.012627426  0.011848103           27 
 3550000   0.68122263   -8.6741276    537.84007  0.012625354  0.011843722           18 
 3551000    0.6859113   -8.6902455    539.09493  0.012651247  0.011839336           14 
 3552000   0.68318065    -8.676109    537.87604  0.012619089  0.011834955           13 
 3553000   0.69243936   -8.6756799    536.60048   0.01258562  0.011830576           12 
 3554000   0.68086604   -8.6746515    539.78787  0.012656816  0.011826199           18 
 3555000   0.67549826   -8.6815086     538.3779  0.012620204  0.011821819           24 
 3556000   0.67792689   -8.6735636    537.66836  0.012600027  0.011817443           15 
 3557000   0.67265258   -8.6795536    538.23865  0.012609846  0.011813058           20 
 3558000   0.68113154   -8.6874988    537.88242  0.012597958   0.01180868           15 
 3559000   0.69812562   -8.6849466    537.64321  0.012588817  0.011804307           22 
 3560000   0.67476154   -8.6955162    537.60451  0.012584375  0.011799934           16 
 3561000   0.66498462    -8.670415    537.90655   0.01258791  0.011795558           21 
 3562000   0.68261992   -8.6827784    539.76932  0.012627955  0.011791184           21 
 3563000   0.67689144   -8.6659069    538.56703  0.012596291  0.011786819           18 
 3564000   0.68571665   -8.6914975    537.80693  0.012574984   0.01178245           25 
 3565000    0.6765747   -8.6675504    538.60337  0.012590074  0.011778085           26 
 3566000   0.67669802   -8.6868523    537.74177  0.012566409  0.011773721           16 
 3567000   0.68545628   -8.6935404    537.67564  0.012561341   0.01176935            9 
 3568000   0.68164714   -8.6972075    538.01195  0.012565675  0.011764978            9 
 3569000   0.67756578   -8.6804085    536.10577  0.012517647  0.011760604           18 
 3570000   0.68187352   -8.7131089    537.30728  0.012542187  0.011756242           21 
 3571000   0.67509772   -8.7015698    537.43079  0.012541557  0.011751874           10 
 3572000   0.67953629   -8.6981905    537.43075  0.012538045  0.011747517           11 
 3573000   0.68573489   -8.6863518    538.74297  0.012565141  0.011743161            9 
 3574000   0.68562472   -8.6992221    537.60884  0.012535181  0.011738819           29 
 3575000   0.68786768   -8.7006453    537.79396   0.01253599  0.011734461           15 
 3576000   0.69571487   -8.6961357    536.74244   0.01250798  0.011730103           23 
 3577000   0.68769142   -8.7048592    537.18415  0.012514774  0.011725749           23 
 3578000   0.67413537   -8.6928211    538.24359  0.012535951  0.011721401           16 
 3579000   0.67817136   -8.7087877    537.28348  0.012510093  0.011717047           16 
 3580000   0.67558479   -8.6796367    537.75585  0.012517594  0.011712688           37 
 3581000   0.66945299   -8.6828556     537.7995  0.012515115  0.011708331           20 
 3582000   0.67242627   -8.6934219    537.80235  0.012511687  0.011703982           28 
 3583000   0.68340356   -8.6973579    537.59649  0.012503407  0.011699629           23 
 3584000   0.66543923   -8.6781816    537.69817  0.012502283  0.011695283           22 
 3585000   0.67560048    -8.687636    538.06859  0.012507406  0.011690941           21 
 3586000    0.6914108   -8.7090772    537.80829  0.012497869  0.011686599           16 
 3587000   0.68930139   -8.7027387    537.01087  0.012475859  0.011682252           15 
 3588000   0.69159946   -8.6946106    537.23867  0.012477672  0.011677905           18 
 3589000    0.6857417   -8.7006184      537.015  0.012469002  0.011673556           30 
 3590000   0.67909216   -8.6872731    537.32513  0.012472728   0.01166921           25 
 3591000   0.67522663   -8.7042213    537.49679  0.012473238  0.011664862           23 
 3592000   0.68703707   -8.7200356     537.5887  0.012471898   0.01166051           25 
 3593000   0.67312424   -8.7035638    536.60958  0.012445718  0.011656171           17 
 3594000   0.68828338   -8.6940577    536.88127  0.012448555  0.011651825           21 
 3595000   0.67768628   -8.7024279    537.61065  0.012461999  0.011647487           18 
 3596000   0.68477729   -8.7069008    536.95921  0.012443437  0.011643147           13 
 3597000   0.66374729   -8.7174938    537.25697  0.012446876   0.01163881           13 
 3598000    0.6622855   -8.7120918    536.87096  0.012434476  0.011634478           27 
 3599000   0.68692624   -8.7341656    536.10619  0.012413314   0.01163015           19 
 3600000   0.69411754     -8.70441    537.20805  0.012435371  0.011625817           22 
 3601000   0.67283075   -8.7182647    536.63835  0.012418734  0.011621494           27 
 3602000   0.67013879   -8.7054322    536.70102  0.012416737  0.011617182           20 
 3603000   0.67466463   -8.7253033    538.16843   0.01244723  0.011612856           28 
 3604000    0.6670462    -8.740368    536.65508  0.012408784  0.011608528           32 
 3605000   0.67947809   -8.7086168    536.82665  0.012409308  0.011604204           24 
 3606000   0.69197407   -8.7163076    536.85847  0.012406602  0.011599874           21 
 3607000   0.67702547   -8.7081358    537.62118  0.012420783  0.011595552           28 
 3608000   0.67188194   -8.7314995    536.26216  0.012385952  0.011591231           21 
 3609000    0.6693317    -8.729187    535.96302  0.012375612   0.01158691           38 
 3610000   0.67028731   -8.6916066    537.53048  0.012408368  0.011582588           26 
 3611000   0.67639422   -8.6954759    536.96848  0.012391962  0.011578275           29 
 3612000   0.67127167   -8.7099161    537.39432  0.012398355  0.011573961           17 
 3613000   0.67574681   -8.7295017     536.6278  0.012377244  0.011569643           28 
 3614000   0.66593137     -8.72849    536.42367  0.012369112  0.011565331           48 
 3615000   0.68309374   -8.7314223    537.07645  0.012380739  0.011561027           20 
 3616000   0.67972443   -8.7178527    537.82675  0.012394606  0.011556723           34 
 3617000   0.66416623    -8.737879    536.56951  0.012362213  0.011552429           32 
 3618000   0.68022868   -8.7255304    537.55831  0.012381571  0.011548133           18 
 3619000   0.67321436     -8.70235    538.00565  0.012388451  0.011543839           18 
 3620000   0.67123162   -8.7181661     536.4609  0.012349468  0.011539556           17 
 3621000   0.66170175   -8.7046606    537.44883  0.012368794  0.011535265           27 
 3622000   0.67870373   -8.7262239    537.34338  0.012362953  0.011530974           27 
 3623000   0.67065831   -8.7278632    536.67288  0.012344118  0.011526685           21 
 3624000     0.675204   -8.7320202    537.22357  0.012353375  0.011522383           22 
 3625000   0.67209774   -8.7257405    537.36246   0.01235316  0.011518085           24 
 3626000   0.67606929    -8.736986    536.62265  0.012332751  0.011513786           26 
 3627000   0.66241047   -8.7180862    536.78115  0.012332992  0.011509497           23 
 3628000   0.67678744   -8.7333107    535.43633  0.012298703  0.011505197           26 
 3629000    0.6805272   -8.7415741    536.20839  0.012313043  0.011500903           26 
 3630000   0.65445362   -8.7233867    536.37979  0.012313586  0.011496613           24 
 3631000   0.66507921   -8.7223147    536.54685  0.012314029  0.011492326           15 
 3632000   0.67952236   -8.7400545     537.3575  0.012329238  0.011488039           28 
 3633000    0.6752384   -8.7361819    536.72362  0.012311304  0.011483746           18 
 3634000   0.67863535   -8.7339478    537.09164  0.012316356  0.011479466           35 
 3635000   0.66143552   -8.7364462    536.20197  0.012292572  0.011475188           41 
 3636000   0.67029708    -8.733391    536.06303  0.012286006   0.01147091           23 
 3637000   0.66659586   -8.7231003    536.09298  0.012283315  0.011466637           34 
 3638000   0.66573708   -8.7248809    536.55546  0.012290532  0.011462359           32 
 3639000   0.67621221    -8.736193    536.63291  0.012288928  0.011458092           46 
 3640000   0.69066816   -8.7502549    536.33796  0.012278799  0.011453827           20 
 3641000   0.66164218   -8.7302183    536.28622  0.012274243  0.011449554           33 
 3642000   0.67625355   -8.7481323    536.54082  0.012276698  0.011445284           37 
 3643000   0.67795185   -8.7435741    536.81856  0.012279682  0.011441018           24 
 3644000   0.66306433    -8.707978    536.62127    0.0122718  0.011436751           43 
 3645000   0.67063344   -8.7180576    536.90651  0.012274954  0.011432495           27 
 3646000   0.67796399   -8.7350349    536.35462  0.012258974  0.011428231           32 
 3647000    0.6775389   -8.7109113    535.99236  0.012247335  0.011423969           26 
 3648000   0.65155145   -8.7714445    536.63797  0.012258726  0.011419702           28 
 3649000   0.68211978   -8.7314626    536.69212  0.012256603  0.011415437           37 
 3650000   0.66848552   -8.7445395    536.71243  0.012253708  0.011411175           24 
 3651000   0.66020687   -8.7417849    535.72986  0.012227925  0.011406916           21 
 3652000    0.6709233   -8.7392371    537.56739  0.012266507  0.011402661           15 
 3653000   0.66971247   -8.7203929     537.1634  0.012253933  0.011398404           20 
 3654000   0.67144407   -8.7386679     536.4972  0.012235386  0.011394154           22 
 3655000   0.66539159   -8.7220895    537.04302  0.012244483   0.01138991           21 
 3656000   0.67507696   -8.7313192    536.14026  0.012220557  0.011385667           20 
 3657000   0.65449005   -8.7417685    537.33696  0.012244485  0.011381426           27 
 3658000   0.67289458   -8.7393897    537.15182  0.012236919  0.011377188           30 
 3659000   0.65414176   -8.7416306    537.32139  0.012237437  0.011372947           39 
 3660000   0.65956817   -8.7366731    537.47342  0.012237555  0.011368707           24 
 3661000    0.6715063   -8.7403543    537.19181  0.012227802  0.011364469           27 
 3662000    0.6726889   -8.7428438    537.37082  0.012228537  0.011360233           39 
 3663000   0.67318152    -8.725971    536.78303  0.012211826  0.011356001           26 
 3664000   0.67487937   -8.7276823    536.94538  0.012212186  0.011351771           24 
 3665000   0.65484148   -8.7303745    536.04104  0.012188291  0.011347548           26 
 3666000   0.65574065   -8.7166454    537.21217  0.012211588  0.011343318           34 
 3667000   0.65563232   -8.7304511    536.36554  0.012189018  0.011339094           22 
 3668000   0.64935657    -8.738398     536.3019  0.012184249  0.011334858           30 
 3669000   0.65743256   -8.7674524    535.83246  0.012170266  0.011330624           23 
 3670000   0.67268058   -8.7409244    536.52582  0.012182693  0.011326396           24 
 3671000   0.64920552   -8.7478604    536.35428  0.012175481  0.011322167           12 
 3672000   0.65160769   -8.7391251    536.65155  0.012178911   0.01131793           17 
 3673000   0.66421763   -8.7415669    535.78106  0.012155846  0.011313701           24 
 3674000   0.65432389   -8.7463795    535.53536  0.012146964   0.01130948           20 
 3675000   0.65258463   -8.7599901    536.02067  0.012154664  0.011305251           21 
 3676000   0.65098578    -8.767318    536.35085  0.012158842  0.011301031           24 
 3677000   0.64454456   -8.7505616    535.83739  0.012143899  0.011296807           22 
 3678000   0.66217309   -8.7266664    535.76228  0.012138895  0.011292585           31 
 3679000   0.67696788   -8.7403446    536.07261  0.012142625  0.011288366           28 
 3680000   0.65737798   -8.7184303    536.68638  0.012153224   0.01128415           33 
 3681000   0.65854015   -8.7284896    536.28371  0.012140807  0.011279942           31 
 3682000   0.65547387   -8.7554217    536.12498  0.012133917  0.011275727           24 
 3683000   0.66192907   -8.7262574    536.53264  0.012139846  0.011271514           28 
 3684000   0.66966007   -8.7551511    535.87772  0.012121736  0.011267297           36 
 3685000   0.66274055   -8.7192859    536.15444  0.012124705  0.011263084           48 
 3686000   0.66757557    -8.763365    535.67321  0.012110536  0.011258866           37 
 3687000   0.66027864   -8.7304396    535.35499  0.012100059  0.011254657           32 
 3688000   0.66884236   -8.7589537    536.28466  0.012117784  0.011250449           36 
 3689000   0.65367483   -8.7439019    535.58497  0.012098694  0.011246244           37 
 3690000   0.64178757   -8.7493783    535.97714  0.012104272  0.011242049           40 
 3691000    0.6672186   -8.7296952    536.30387  0.012108369  0.011237852           41 
 3692000   0.66991233   -8.7482114    536.05479  0.012099467  0.011233662           40 
 3693000    0.6586428   -8.7293516    535.74525  0.012089206   0.01122946           38 
 3694000   0.66820501   -8.7420567     536.0228  0.012092195  0.011225265           31 
 3695000   0.66007824   -8.7469682    537.25798  0.012116779  0.011221077           31 
 3696000   0.67676965   -8.7025374    536.77658  0.012102647  0.011216897           37 
 3697000   0.65308127   -8.7365065    537.50468  0.012115785  0.011212715           36 
 3698000   0.64534748   -8.7509635    536.57618  0.012091585  0.011208524           42 
 3699000    0.6551194   -8.7434548    536.73008  0.012091783  0.011204337           28 
 3700000   0.64990661   -8.7494838    536.94565  0.012093371  0.011200156           32 
 3701000   0.66827856   -8.7567093    535.21612   0.01205116   0.01119597           70 
 3702000   0.65612638    -8.757836    536.30615  0.012072442  0.011191799           48 
 3703000   0.65115065   -8.7579265    535.63361  0.012054046  0.011187624           39 
 3704000    0.6646036    -8.764498    537.01792  0.012081937  0.011183454           29 
 3705000   0.65917517   -8.7554899    536.16698  0.012059536  0.011179289           41 
 3706000   0.65706746   -8.7287059    536.17157  0.012056385  0.011175123           24 
 3707000   0.65195932   -8.7500805    536.53879  0.012061388  0.011170959           29 
 3708000   0.65014304   -8.7434258    536.91619  0.012066617  0.011166786           33 
 3709000   0.66583312   -8.7545095    536.78477  0.012060411  0.011162613           31 
 3710000   0.64667293   -8.7520609    535.40056  0.012026068  0.011158444           30 
 3711000   0.66961778    -8.745848    535.89791  0.012033996  0.011154282           27 
 3712000   0.66060614   -8.7417915    535.34315    0.0120183   0.01115012           47 
 3713000   0.64534296   -8.7532563    535.24526  0.012012866  0.011145952           44 
 3714000   0.65448949   -8.7490773    536.62423  0.012040572  0.011141784           38 
 3715000   0.66812072   -8.7363668    536.44007    0.0120332  0.011137626           30 
 3716000   0.66800315   -8.7619271    535.28437  0.012004045  0.011133467           47 
 3717000   0.66732397   -8.7476482     535.5428  0.012006609  0.011129314           48 
 3718000   0.65373612   -8.7507316    535.94486  0.012012391   0.01112516           53 
 3719000   0.66233905   -8.7423344    536.37592   0.01201882  0.011121012           39 
 3720000   0.64903104   -8.7532238    535.80782  0.012002863  0.011116858           50 
 3721000   0.66571095   -8.7416512    536.80118  0.012021884  0.011112712           41 
 3722000   0.64955369   -8.7376239    536.74153  0.012017319  0.011108566           36 
 3723000   0.66474171   -8.7630254    535.78391  0.011992656  0.011104422           29 
 3724000   0.64463287   -8.7426303     535.3558  0.011979856  0.011100278           57 
 3725000    0.6627018    -8.751238    534.48163  0.011957083  0.011096141           28 
 3726000    0.6584617   -8.7503246    535.27809  0.011971687  0.011092009           42 
 3727000   0.65337176   -8.7595299    535.74303  0.011978871  0.011087871           37 
 3728000   0.65146076   -8.7606925    535.17812   0.01196303  0.011083734           51 
 3729000   0.66365839   -8.7692133     536.0362  0.011978998  0.011079599           41 
 3730000   0.65705794    -8.758525     536.0225   0.01197548  0.011075465           44 
 3731000   0.65825736   -8.7666557    535.28989  0.011955907  0.011071339           35 
 3732000   0.64209282   -8.7606434    535.39568  0.011955066  0.011067211           49 
 3733000   0.64633902   -8.7571063    535.82655  0.011961482  0.011063081           33 
 3734000   0.64891885   -8.7602974    536.27092  0.011968196  0.011058954           45 
 3735000   0.64346103   -8.7599293    536.53402  0.011970862  0.011054824           56 
 3736000   0.64534868   -8.7625436    535.99563  0.011955648  0.011050703           27 
 3737000   0.65784834   -8.7514282    536.62413  0.011966465  0.011046582           37 
 3738000   0.64467479   -8.7614491    536.60277  0.011962787  0.011042466           44 
 3739000   0.66193831   -8.7527652    536.79591  0.011963892  0.011038346           37 
 3740000   0.65864756   -8.7745076     536.0714   0.01194455  0.011034224           43 
 3741000   0.65115196   -8.7403537    535.29264   0.01192401   0.01103011           30 
 3742000   0.65541769   -8.7495249    535.45542  0.011924448  0.011025995           34 
 3743000   0.66367416   -8.7399716    536.09481  0.011935498  0.011021889           47 
 3744000    0.6468713    -8.756429    535.41477  0.011917173   0.01101778           35 
 3745000   0.64861297   -8.7642833    537.03221  0.011949982  0.011013673           25 
 3746000    0.6452892   -8.7909702    535.30424  0.011908352  0.011009566           43 
 3747000   0.63724169   -8.7729764    535.62054  0.011912208  0.011005456           41 
 3748000   0.65365678   -8.7686831    536.00375   0.01191755  0.011001346           28 
 3749000   0.65362703   -8.7776389    534.97148  0.011891426  0.010997238           35 
 3750000   0.63824534    -8.773666    536.07652  0.011912812  0.010993136           24 
 3751000   0.65703637   -8.7688981    536.38431  0.011916474  0.010989037           39 
 3752000   0.66082031   -8.7628253    535.07856  0.011884296  0.010984937           39 
 3753000    0.6720724   -8.7472471    536.40317  0.011910542   0.01098084           27 
 3754000   0.65250721   -8.7710141    535.95989  0.011897529   0.01097675           22 
 3755000   0.65741986   -8.7532939    535.42594  0.011882511  0.010972655           36 
 3756000   0.65119784   -8.7805168    534.78688  0.011865169  0.010968562           47 
 3757000   0.63887239   -8.7956347    534.65846  0.011859162  0.010964471           27 
 3758000   0.63868177   -8.7411106    535.52873  0.011875304  0.010960382           36 
 3759000   0.66135045    -8.766877    535.41415  0.011869605  0.010956295           32 
 3760000   0.65505936   -8.7487086    535.64762  0.011871623  0.010952211           22 
 3761000   0.65398367   -8.7497404    536.39141  0.011884947  0.010948124           32 
 3762000   0.65249522    -8.751621    535.45434   0.01186103  0.010944044           26 
 3763000   0.63679755   -8.7423228    535.48563  0.011858571  0.010939967           37 
 3764000    0.6570304   -8.7599408    535.31832  0.011851716  0.010935888           49 
 3765000   0.65936662   -8.7761252    535.60107  0.011854827  0.010931807           39 
 3766000   0.65629928   -8.7636557    536.09842  0.011862684  0.010927725           52 
 3767000   0.64641377   -8.7420611    534.86283  0.011832201  0.010923645           36 
 3768000   0.65202334   -8.7604767    535.07081  0.011833661  0.010919565           41 
 3769000   0.64899607   -8.7522319    535.53238  0.011840726  0.010915493           37 
 3770000   0.65172935   -8.7464784     536.2543  0.011853543  0.010911421           38 
 3771000   0.65704371   -8.7835528    534.34379  0.011808181  0.010907357           31 
 3772000   0.64051151   -8.7885346    535.15662  0.011823008  0.010903288           43 
 3773000   0.65339792   -8.7499699    535.42104  0.011825714  0.010899224           39 
 3774000   0.62842636    -8.768971    535.51769  0.011824715  0.010895161           28 
 3775000   0.64518285    -8.779343    534.76342  0.011804932  0.010891096           42 
 3776000   0.63192802   -8.7671285    535.02634  0.011807608  0.010887036           42 
 3777000   0.64174827   -8.7610586     535.7421  0.011820274  0.010882974           32 
 3778000   0.62149634   -8.7674387    535.27666  0.011806879  0.010878918           36 
 3779000   0.65026204   -8.7625496    535.20861  0.011802254  0.010874861           30 
 3780000   0.64857617   -8.7780112    534.41471  0.011781629  0.010870796           20 
 3781000   0.64125434   -8.7632038    535.23469  0.011796586  0.010866743           25 
 3782000   0.62715303   -8.7601363    535.09479  0.011790384  0.010862695           30 
 3783000   0.64133242   -8.7625176    535.35729   0.01179305  0.010858646           51 
 3784000   0.65245078   -8.7693865     535.5886  0.011795027  0.010854597           38 
 3785000   0.65358309   -8.7778384    535.67086  0.011793722  0.010850551           48 
 3786000   0.64454878   -8.7708766    535.11415  0.011778353  0.010846512           40 
 3787000    0.6437049   -8.7574053    535.96054  0.011793868  0.010842467           43 
 3788000   0.66785392   -8.7866895    534.39194  0.011756246  0.010838432           32 
 3789000   0.63594011   -8.7715438     535.3653  0.011774551  0.010834396           25 
 3790000   0.65497045   -8.7799652    534.99941  0.011763399  0.010830361           31 
 3791000   0.62606658    -8.783813    535.31128  0.011767152  0.010826321           34 
 3792000   0.63542836   -8.7587401    535.25635  0.011762842  0.010822285           23 
 3793000    0.6427691    -8.806875    535.35176  0.011761837  0.010818253           39 
 3794000   0.63898784   -8.7497374    535.43107  0.011760479  0.010814225           33 
 3795000    0.6539224   -8.7790698    536.34784  0.011777511  0.010810201           34 
 3796000    0.6322638    -8.755811    534.86003  0.011741746  0.010806177           42 
 3797000   0.64886805    -8.764959    534.34259  0.011727298   0.01080215           39 
 3798000   0.64407433   -8.7754105    534.84016  0.011735127  0.010798124           32 
 3799000   0.65852003   -8.7738839    535.00087  0.011735564    0.0107941           27 
 3800000   0.65475426    -8.795579    535.20415  0.011736933  0.010790073           29 
 3801000   0.64927557   -8.7890574    535.72569  0.011745279  0.010786046           48 
 3802000   0.63759142   -8.7962252    535.70268  0.011741686  0.010782018           40 
 3803000   0.63803935   -8.7684391    535.04748  0.011724241  0.010777992           36 
 3804000   0.65526108   -8.7899899    534.32399   0.01170531  0.010773969           42 
 3805000   0.64552575   -8.7757014    534.58142  0.011707872  0.010769939           32 
 3806000   0.63557757   -8.8049701    534.84431  0.011710552  0.010765911           34 
 3807000   0.65540783   -8.8030322    534.00464  0.011689096  0.010761881           45 
 3808000   0.64607688   -8.8008021    535.00956  0.011708017  0.010757864           37 
 3809000   0.64786746   -8.7856352    536.20656  0.011731132  0.010753841           37 
 3810000   0.63604753   -8.8015193    535.21826  0.011706436  0.010749825           38 
 3811000   0.63840509   -8.7866008     535.0859   0.01170047  0.010745807           34 
 3812000   0.63791016   -8.7780347    534.66061  0.011688104  0.010741799           54 
 3813000   0.65196053   -8.7963015    534.77539  0.011687547  0.010737786           51 
 3814000   0.64824976   -8.7821327    534.61052   0.01168088  0.010733779           41 
 3815000     0.640426   -8.7922594    535.38742  0.011694788  0.010729775           36 
 3816000   0.63471391   -8.7986905    534.22531  0.011666346   0.01072577           38 
 3817000   0.64394835   -8.7893572    535.21792   0.01168496  0.010721761           40 
 3818000   0.64575814   -8.7999987    533.86426  0.011652354  0.010717759           50 
 3819000   0.64044224     -8.79365    534.79424  0.011669596  0.010713749           48 
 3820000   0.65081893   -8.7792553    536.83552  0.011711072   0.01070975           57 
 3821000   0.64706198   -8.7918115    534.84664  0.011664631   0.01070575           60 
 3822000    0.6438026   -8.8037453    534.38668   0.01165155  0.010701746           48 
 3823000   0.63739941   -8.7965586    534.23021  0.011645091  0.010697741           43 
 3824000   0.64867225   -8.7986341    535.01535  0.011659156   0.01069374           60 
 3825000   0.63720841   -8.7998578    535.08289  0.011657579  0.010689748           50 
 3826000    0.6527296   -8.7789969    534.17141   0.01163468  0.010685755           52 
 3827000   0.64771107   -8.7815439    534.83029  0.011645987  0.010681763           51 
 3828000    0.6365703   -8.7765059    534.06729  0.011626334  0.010677768           44 
 3829000    0.6344274   -8.8167142     534.6408   0.01163578  0.010673779           46 
 3830000   0.63353679   -8.8081936    534.88046  0.011637956  0.010669793           48 
 3831000   0.63899398   -8.7757429    534.66412  0.011630212  0.010665809           63 
 3832000   0.63561562   -8.7964552    534.47977  0.011623168  0.010661819           53 
 3833000   0.62907443   -8.7863229    534.78427  0.011626756   0.01065784           51 
 3834000   0.65174248   -8.8035927    535.48291  0.011638909  0.010653854           58 
 3835000   0.62899472   -8.8031934    534.80171  0.011621072  0.010649878           53 
 3836000   0.65564256    -8.775923    534.96413  0.011621571  0.010645906           59 
 3837000   0.65091796   -8.8107704    534.97176  0.011618707  0.010641936           49 
 3838000   0.63948054   -8.7896393    534.63296  0.011608324  0.010637965           47 
 3839000   0.64221656   -8.7856374    535.44155  0.011622852  0.010633992           47 
 3840000     0.634215   -8.7868638    535.88437  0.011629435  0.010630029           57 
 3841000   0.63245734   -8.8125737    534.27829  0.011591562  0.010626062           52 
 3842000   0.64242349   -8.8158424    534.63194  0.011596216  0.010622095           59 
 3843000   0.64123706   -8.7862243    535.05318  0.011602333  0.010618129           40 
 3844000   0.63870526   -8.8086961     535.2716  0.011604049  0.010614168           80 
 3845000   0.63031833   -8.7819505    534.41547  0.011582477  0.010610204           53 
 3846000   0.62573541   -8.8006583    534.56597  0.011582726  0.010606243           57 
 3847000   0.64294413   -8.7979025    534.30872  0.011574143  0.010602285           47 
 3848000   0.64133643   -8.7901968     535.3411  0.011593492  0.010598331           40 
 3849000   0.63075515   -8.7690154    535.93182   0.01160327  0.010594387           47 
 3850000   0.62418444     -8.79915    535.25468  0.011585599  0.010590436           48 
 3851000   0.62457274   -8.7877932    535.45292   0.01158688  0.010586483           50 
 3852000   0.63839671   -8.8131251    535.17259  0.011577808  0.010582529           44 
 3853000   0.64883932   -8.8084407    534.10589  0.011551732  0.010578585           52 
 3854000   0.63328134   -8.7949634    534.13617   0.01154939  0.010574636           59 
 3855000   0.63349324   -8.8130734    534.79054  0.011560539  0.010570685           55 
 3856000   0.62080519    -8.801878    534.88011  0.011559477  0.010566741           64 
 3857000   0.62954216   -8.7922606     534.9542  0.011558081  0.010562807           46 
 3858000   0.62848943   -8.7827023    534.40267  0.011543172  0.010558872           53 
 3859000   0.64506824    -8.797679    534.97702  0.011552583  0.010554938           73 
 3860000   0.63241708   -8.8038003    534.74673  0.011544619  0.010551009           59 
 3861000   0.63803845   -8.8078405    534.83788  0.011543596  0.010547076           49 
 3862000   0.63744938   -8.8230488     535.0323  0.011544802  0.010543148           44 
 3863000   0.63154382   -8.7867507    534.59587  0.011532399  0.010539214           50 
 3864000   0.63412349   -8.7789639    534.77611  0.011533301   0.01053529           63 
 3865000    0.6339093    -8.808502    534.65013  0.011527601   0.01053137           58 
 3866000   0.62276813   -8.7986635    535.12807  0.011534921  0.010527449           64 
 3867000   0.62192366   -8.8086474    535.23229  0.011534184  0.010523533           45 
 3868000   0.62415406   -8.8177135    533.79946  0.011500333  0.010519615           69 
 3869000   0.63954412   -8.8139394    535.14961  0.011526441  0.010515699           43 
 3870000   0.62400325   -8.8147938    535.01388   0.01152054  0.010511776           50 
 3871000   0.62558269   -8.7945046    535.80986  0.011534699   0.01050786           37 
 3872000    0.6384649   -8.8125273    533.90428  0.011490709  0.010503943           76 
 3873000    0.6251134   -8.8170739     533.8343  0.011486236   0.01050002           61 
 3874000   0.62202259   -8.8352829    534.66983  0.011501244  0.010496103           53 
 3875000    0.6433064   -8.7945509    534.43461  0.011493217  0.010492191           69 
 3876000   0.62604116   -8.7808835    534.34257  0.011488273  0.010488274           65 
 3877000   0.63183919   -8.8102123     535.1497  0.011502659  0.010484362           46 
 3878000    0.6203447   -8.7978163    534.30875  0.011481622  0.010480459           75 
 3879000   0.64169707   -8.8125701    533.65062  0.011464523  0.010476545           52 
 3880000   0.61883148   -8.8092267    534.87845  0.011487939  0.010472644           44 
 3881000   0.61854851   -8.8196491    534.89266  0.011485284  0.010468743           44 
 3882000   0.64194436   -8.8048186    535.33506  0.011491822  0.010464842           38 
 3883000   0.62456713   -8.7832726    535.17258  0.011485376  0.010460949           47 
 3884000    0.6213649   -8.7937861    534.71319  0.011472562  0.010457058           43 
 3885000   0.62377452   -8.8064431    534.96925  0.011475102  0.010453168           63 
 3886000   0.62974209   -8.7947536     535.4169  0.011481749  0.010449278           65 
 3887000   0.62409133    -8.813425    535.48928  0.011480347  0.010445385           61 
 3888000   0.63651821   -8.8189832    534.36196  0.011453231  0.010441501           46 
 3889000   0.63860024   -8.8179526    534.48321  0.011452884  0.010437618           49 
 3890000   0.62462672   -8.8025595    535.20885  0.011465485  0.010433741           52 
 3891000   0.62100046   -8.8010906    533.95456  0.011435676  0.010429863           36 
 3892000   0.63774192   -8.8053345     533.8774  0.011431085  0.010425983           40 
 3893000   0.63396786   -8.8193709    534.23428  0.011435788  0.010422103           36 
 3894000   0.63109579   -8.8057613    534.69655  0.011442744   0.01041822           64 
 3895000   0.62770771    -8.820226    534.60569  0.011437862  0.010414336           42 
 3896000   0.63152695   -8.8090976    534.76677  0.011438372  0.010410455           39 
 3897000   0.62204301   -8.7991337    534.18278  0.011422949  0.010406577           42 
 3898000   0.62518607   -8.8156348    534.37627  0.011424155  0.010402694           43 
 3899000   0.62613369   -8.8318487    533.84755  0.011409925  0.010398813           48 
 3900000   0.64851643   -8.8013833    534.62998  0.011423718  0.010394942           33 
 3901000   0.64392672   -8.8306869    533.84251  0.011403967  0.010391066           52 
 3902000   0.63381662   -8.8349227    534.40318  0.011413019  0.010387195           37 
 3903000   0.63499962   -8.8360079    534.71289  0.011416707  0.010383324           35 
 3904000   0.62704133   -8.8151186     534.2912  0.011404781  0.010379453           50 
 3905000   0.63501934   -8.8255148    534.70634   0.01141072   0.01037558           58 
 3906000   0.61712173   -8.8026347     534.3429  0.011400045  0.010371706           49 
 3907000   0.63338773   -8.8396622    533.58724  0.011381009  0.010367837           55 
 3908000   0.61641241   -8.8194462    534.92447  0.011406612  0.010363975           50 
 3909000   0.61918192   -8.8320347    533.63568  0.011376219  0.010360115           49 
 3910000   0.61359579    -8.844699    533.83409  0.011377538  0.010356253           57 
 3911000    0.6190215   -8.8436044    534.90014  0.011397344  0.010352391           32 
 3912000   0.62699879   -8.8244803    534.35793   0.01138288  0.010348536           36 
 3913000   0.61907739   -8.8539678    533.71997  0.011366385  0.010344684           44 
 3914000   0.63069041   -8.8195238    533.66673  0.011362347  0.010340829           43 
 3915000   0.62919761    -8.822006    534.10383  0.011368749  0.010336984           49 
 3916000   0.62272843   -8.8219272    534.14589  0.011366741  0.010333137           56 
 3917000   0.62581676   -8.8307859    533.60603  0.011352354   0.01032929           53 
 3918000   0.62537958   -8.8212246    533.83899  0.011354411  0.010325443           59 
 3919000   0.61569202   -8.8391825     533.7367  0.011349339  0.010321593           51 
 3920000   0.62349394   -8.8248937    533.37565  0.011338768   0.01031775           43 
 3921000   0.63771779   -8.8139242    534.52369  0.011360276  0.010313913           46 
 3922000   0.62969236   -8.8271188    533.20462  0.011329352   0.01031007           42 
 3923000   0.62491301    -8.819594     534.6926  0.011358072  0.010306235           55 
 3924000   0.62838849   -8.8334979    534.74866  0.011356368  0.010302395           48 
 3925000    0.6224795    -8.828125    534.24608  0.011342804  0.010298558           45 
 3926000   0.61812809   -8.8073303    534.12962  0.011337443  0.010294728           35 
 3927000   0.61711221   -8.8058813    533.51443  0.011321501  0.010290899           38 
 3928000   0.61904489   -8.8268016    534.20555  0.011333281  0.010287071           57 
 3929000   0.61402263   -8.8288091    533.29193  0.011311019  0.010283243           65 
 3930000   0.62268693   -8.8445521    533.74663  0.011317783   0.01027941           34 
 3931000   0.61698193   -8.8188075    534.45086  0.011329833  0.010275582           46 
 3932000   0.64115757   -8.8262664    534.55207  0.011329096  0.010271755           46 
 3933000   0.61942944   -8.8175039    534.38366  0.011322647  0.010267933           44 
 3934000    0.6172737   -8.8412225    534.99302  0.011332677   0.01026411           35 
 3935000   0.62680327   -8.8479079    533.61131  0.011300536  0.010260296           39 
 3936000   0.61976983    -8.831446    533.74465  0.011300488  0.010256478           36 
 3937000   0.62800804   -8.8476293    533.74001   0.01129752  0.010252661           35 
 3938000   0.61832627   -8.8384346    533.89524  0.011297935  0.010248848           65 
 3939000   0.62691884    -8.833582    534.46817  0.011307188  0.010245039           57 
 3940000   0.62691464   -8.8509431    534.32849  0.011301364  0.010241229           70 
 3941000   0.62686706   -8.8404671    533.96208  0.011290749  0.010237417           36 
 3942000   0.63172166   -8.8091818    533.28542   0.01127358   0.01023361           49 
 3943000   0.61982194   -8.8210361    533.68427   0.01127915  0.010229803           47 
 3944000   0.62284537   -8.8300423    533.76432  0.011277982  0.010226001           58 
 3945000   0.61754698   -8.8109969    534.26719  0.011285745  0.010222199           52 
 3946000   0.61854462   -8.8154869    533.69644  0.011270832  0.010218397           39 
 3947000   0.62020822   -8.8462296    533.60454  0.011266036  0.010214599           37 
 3948000   0.61463293   -8.8215369    534.66422   0.01128555  0.010210801           53 
 3949000   0.61382784   -8.8356591    532.49001  0.011236811  0.010206999           43 
 3950000   0.61435711   -8.8125119    534.36924  0.011273613  0.010203199           36 
 3951000   0.62415693   -8.8263883    533.21886  0.011246496  0.010199401           42 
 3952000   0.62367092    -8.837434    533.72648  0.011254354  0.010195605           66 
 3953000   0.63015507   -8.8351403    534.01169  0.011257519  0.010191813           57 
 3954000   0.63231975    -8.844958    533.25397  0.011238703  0.010188024           42 
 3955000   0.61654249   -8.8253344    533.89502  0.011249368  0.010184234           45 
 3956000   0.62435772   -8.8177591    534.50812   0.01125944  0.010180446           47 
 3957000   0.64244246   -8.8028634    534.66963  0.011259996  0.010176662           53 
 3958000   0.61297996     -8.82464     533.1665  0.011225503  0.010172888           62 
 3959000   0.62871041   -8.8229248    533.35142   0.01122656  0.010169106           63 
 3960000   0.62633316   -8.8466974    533.99925  0.011237358  0.010165327           46 
 3961000   0.61119269   -8.8402676    533.44773  0.011222918  0.010161552           45 
 3962000   0.61508126   -8.8307515    534.18374  0.011235566  0.010157781           53 
 3963000   0.61904485   -8.8429919    534.25284  0.011234184     0.010154           57 
 3964000   0.62432458   -8.8403214    534.20873  0.011230422  0.010150226           61 
 3965000    0.6249302   -8.8307179    533.46212  0.011211898  0.010146452           51 
 3966000   0.62292634   -8.8255875    533.98783  0.011220117  0.010142679           67 
 3967000   0.62723225   -8.8426533    533.58813  0.011208893   0.01013891           41 
 3968000   0.60785145   -8.8588817    532.84516  0.011190465  0.010135141           65 
 3969000   0.63257019   -8.8405906    533.94897  0.011210821  0.010131367           52 
 3970000   0.61867821   -8.8298332    533.38828  0.011196228  0.010127599           43 
 3971000    0.6320707   -8.8451768    532.99712  0.011185199  0.010123832           43 
 3972000   0.61443727   -8.8596687    532.94965  0.011181387   0.01012007           52 
 3973000   0.61071933   -8.8497029    534.55133  0.011212168  0.010116309           45 
 3974000   0.61554917   -8.8639684    533.22894  0.011181617  0.010112548           44 
 3975000   0.60916853   -8.8433136    532.60669  0.011165759  0.010108784           33 
 3976000   0.60542833   -8.8506322    533.37411  0.011179035  0.010105025           57 
 3977000   0.61765459   -8.8508963     533.9169  0.011187597  0.010101268           42 
 3978000   0.60042965   -8.8385891    533.77892  0.011181895  0.010097511           43 
 3979000   0.61871544   -8.8601141    533.72768  0.011178011  0.010093755           44 
 3980000   0.60540361   -8.8578217    534.36875  0.011188625      0.01009           48 
 3981000   0.62921398   -8.8465623    534.05294  0.011179204  0.010086249           45 
 3982000   0.60597235   -8.8504153    532.63809  0.011146787  0.010082497           35 
 3983000   0.62142412   -8.8630512    533.71837  0.011166591  0.010078752           50 
 3984000   0.62532557    -8.835721    532.64265  0.011141287  0.010075006           61 
 3985000   0.62020124   -8.8416038    533.35183  0.011153321  0.010071261           48 
 3986000   0.60443366   -8.8397141    533.85583   0.01116106  0.010067516           40 
 3987000     0.609587   -8.8365316    533.86954  0.011158547  0.010063776           48 
 3988000   0.62227721   -8.8602025     532.8624  0.011134704  0.010060036           52 
 3989000   0.62354848   -8.8318228    533.29818  0.011141017  0.010056301           37 
 3990000   0.62238614   -8.8424317    534.00723  0.011153033  0.010052567           45 
 3991000   0.60994773   -8.8584994    532.42277  0.011117155  0.010048829           46 
 3992000   0.59723919   -8.8407931    533.86611    0.0111445  0.010045101           58 
 3993000   0.60908409   -8.8339882    533.23642  0.011128567  0.010041371           49 
 3994000   0.61322695   -8.8655553    533.48285  0.011130922  0.010037642           49 
 3995000   0.61235761   -8.8486432    533.16667  0.011121541   0.01003391           62 
 3996000   0.62583985   -8.8271278    533.31503  0.011121852   0.01003018           59 
 3997000   0.61740886   -8.8524263    533.54119  0.011123784  0.010026461           53 
 3998000   0.62783612   -8.8414091    533.53196  0.011120809  0.010022737           57 
 3999000   0.61239318   -8.8583337    532.70077  0.011100708  0.010019019           56 
 4000000   0.60952158   -8.8482976    533.28489  0.011110102  0.010015299           29 
 4001000   0.59841376   -8.8613732    533.43875   0.01111053  0.010011574           53 
 4002000   0.60837857   -8.8665584     534.0644  0.011120781  0.010007849           47 
 4003000   0.59935922   -8.8508307    532.98428  0.011095517  0.010004129           70 
 4004000   0.62871702   -8.8546071    533.32789  0.011099898  0.010000408           42 
 4005000   0.60750055   -8.8490029    532.88312  0.011087872 0.0099966957           49 
 4006000   0.59788946   -8.8620613    533.02953   0.01108815 0.0099929796           41 
 4007000   0.60898434   -8.8468301    533.70601  0.011099451 0.0099892617           52 
 4008000   0.61117775   -8.8459165    533.18898  0.011085932 0.0099855442           43 
 4009000   0.59392601   -8.8370008    532.50441  0.011068937 0.0099818275           49 
 4010000   0.61181368   -8.8847526    532.41217   0.01106426 0.0099781168           40 
 4011000   0.62074972    -8.850411    531.87354   0.01105031 0.0099744077           39 
 4012000   0.61657556   -8.8495422    533.18256  0.011074746 0.0099707021           59 
 4013000   0.60554024     -8.84745    532.83212  0.011064709 0.0099669956           53 
 4014000   0.61857892   -8.8515153    533.39605   0.01107366 0.0099632922           53 
 4015000   0.59893586   -8.8693294    533.54481  0.011073989 0.0099595913           46 
 4016000   0.62314501   -8.8593989    532.25761  0.011044522 0.0099558912           34 
 4017000   0.61196566   -8.8692937    533.30885  0.011063581  0.009952193           45 
 4018000   0.60848678   -8.8798118    532.42766  0.011042551 0.0099484926           45 
 4019000   0.61364294   -8.8377314    533.32179  0.011058344 0.0099447978           42 
 4020000   0.60059621   -8.8820746    533.64705  0.011062335 0.0099411015           43 
 4021000   0.60472461   -8.8673122    532.95159  0.011045171 0.0099374077           51 
 4022000   0.60366835   -8.8586735    533.81935  0.011060404 0.0099337188           43 
 4023000   0.60904719   -8.8700775    533.07586  0.011042254 0.0099300206           40 
 4024000   0.60344426   -8.8639621    533.60347  0.011050436 0.0099263289           40 
 4025000   0.59492944   -8.8755482    532.36961  0.011022145 0.0099226424           39 
 4026000   0.60198022   -8.8571389    532.51471  0.011022411 0.0099189575           44 
 4027000   0.60496739   -8.8500587    533.64789  0.011043123 0.0099152735           43 
 4028000   0.61750363   -8.8516329     533.4769  0.011036844 0.0099115909           49 
 4029000   0.61135144   -8.8511267    532.44863  0.011012837 0.0099079119           48 
 4030000   0.60309756   -8.8638593    532.46284  0.011010398 0.0099042407           54 
 4031000    0.5867517   -8.8609696    532.23422   0.01100294 0.0099005644           53 
 4032000    0.6017097   -8.8676741    533.78763  0.011032317 0.0098968893           58 
 4033000   0.59591517   -8.8534538    532.49299  0.011002831 0.0098932128           51 
 4034000   0.59854439   -8.8565445    532.63706  0.011003079 0.0098895448           47 
 4035000    0.6083547    -8.829236    533.29631  0.011013968 0.0098858767           51 
 4036000   0.61872003   -8.8586381    533.37387   0.01101284 0.0098822078           39 
 4037000   0.59813366   -8.8574333    533.19213  0.011006361 0.0098785363           46 
 4038000   0.61788257   -8.8565288    532.76361  0.010994791 0.0098748663           69 
 4039000   0.58628218   -8.8644637    533.18486  0.011000761 0.0098712009           44 
 4040000   0.60516367   -8.8533377    533.28967    0.0110002 0.0098675363           52 
 4041000   0.59947593   -8.8650284    532.81886  0.010987768 0.0098638745           55 
 4042000   0.60676477   -8.8617889    532.37378  0.010975874 0.0098602118           64 
 4043000   0.59481896   -8.8655881    532.48391  0.010975429 0.0098565535           40 
 4044000   0.59277072   -8.8605921    533.09822  0.010985374 0.0098528944           38 
 4045000   0.61116602   -8.8670559    533.25055  0.010985796 0.0098492379           52 
 4046000   0.59546954   -8.8780688    532.45606  0.010966717 0.0098455814           61 
 4047000     0.610493   -8.8614384    532.45371  0.010963959  0.009841928           56 
 4048000   0.59038829   -8.8864212    532.71919  0.010966716 0.0098382714           45 
 4049000     0.605246   -8.8606047    531.97463  0.010948683 0.0098346126           56 
 4050000   0.60882818   -8.8710577    531.63297   0.01093895 0.0098309599           43 
 4051000   0.60245225   -8.8784355     533.0886  0.010966194  0.009827307           53 
 4052000   0.60400809   -8.8784384    532.61418   0.01095373 0.0098236514           43 
 4053000   0.59336102   -8.8709369    532.66332  0.010952038 0.0098200025           61 
 4054000    0.6029168   -8.8620183    533.29828  0.010962389 0.0098163548           37 
 4055000   0.60185882   -8.8831158    533.09177  0.010955441 0.0098127099           46 
 4056000   0.58612648   -8.8537259    533.06911  0.010952275 0.0098090653           37 
 4057000   0.60472989   -8.8756189    533.57215  0.010959908 0.0098054255           50 
 4058000   0.61110353   -8.8759695     533.2946  0.010951507 0.0098017931           55 
 4059000   0.59601394   -8.8740882    533.67995  0.010956721 0.0097981562           47 
 4060000   0.61425436   -8.8784643    532.29901  0.010925677 0.0097945181           43 
 4061000   0.59543681   -8.8662471    533.31282  0.010943791 0.0097908863           52 
 4062000   0.60560399   -8.8666147    533.16353  0.010938034 0.0097872549           48 
 4063000   0.59888306   -8.8695641    532.59961  0.010923776  0.009783627           45 
 4064000   0.60503785   -8.8894728    532.37935  0.010916571 0.0097800013           55 
 4065000   0.60552777   -8.8748929    531.75395  0.010901065 0.0097763718           70 
 4066000   0.59604155   -8.8598371    532.99636  0.010923847 0.0097727491           55 
 4067000   0.59976935   -8.8744117    532.55393  0.010912096 0.0097691294           59 
 4068000   0.58912233   -8.8728717    532.79161  0.010914282  0.009765507           48 
 4069000   0.59761397   -8.8498205    532.80507  0.010911876 0.0097618832           48 
 4070000   0.60101853   -8.8682422    532.67886  0.010906611 0.0097582603           44 
 4071000   0.60755398   -8.8796705    531.90774  0.010888147 0.0097546459           57 
 4072000   0.59878938   -8.8661285    531.41418  0.010875372  0.009751031           50 
 4073000    0.5929449   -8.8775176     531.6443   0.01087741 0.0097474125           51 
 4074000   0.60067151   -8.8820781     532.5811  0.010893902 0.0097437968           57 
 4075000    0.5973841   -8.8822625    532.44814   0.01088851 0.0097401835           50 
 4076000   0.58793799   -8.8873788    530.82365  0.010852626 0.0097365725           42 
 4077000   0.59883281   -8.8771048    531.93114  0.010872601 0.0097329667           48 
 4078000   0.60857112   -8.8638821    532.83348  0.010888374 0.0097293569           47 
 4079000   0.59443993   -8.9142668    532.13844  0.010871505 0.0097257491           44 
 4080000   0.60535643   -8.8641469    532.97996  0.010886029 0.0097221464           55 
 4081000   0.59806085    -8.894581    531.94716  0.010862271 0.0097185464           49 
 4082000   0.59807157   -8.8928477    531.51545  0.010850797 0.0097149434           42 
 4083000   0.60835104   -8.8792247    532.49618  0.010868156 0.0097113427           53 
 4084000   0.59667073   -8.8810728    532.34539  0.010862418 0.0097077438           50 
 4085000   0.59402173   -8.8935121    531.57863  0.010844117 0.0097041497           46 
 4086000   0.60899289   -8.8994549     531.9006   0.01084803 0.0097005549           51 
 4087000   0.60777123   -8.8859536    531.93158  0.010846007 0.0096969644           55 
 4088000   0.60004918   -8.8850702    532.51728  0.010855294 0.0096933747           51 
 4089000   0.59537733   -8.8861044    531.67517  0.010835477 0.0096897842           54 
 4090000   0.59966297   -8.8752035    531.60974  0.010831494 0.0096861984           56 
 4091000   0.59855452   -8.8517076    532.03485  0.010837506 0.0096826155           56 
 4092000   0.59340301   -8.8647684    532.39849  0.010842263 0.0096790355           63 
 4093000   0.60563884    -8.862354    532.47323  0.010841136 0.0096754522           63 
 4094000   0.60490041   -8.8616171     532.4627  0.010838274 0.0096718726           65 
 4095000   0.59744859   -8.8785733    532.06495  0.010827532 0.0096682923           66 
 4096000   0.60476785   -8.8745924    531.80979  0.010819698 0.0096647139           46 
 4097000   0.61883344   -8.8833123     532.0585  0.010822116 0.0096611362           58 
 4098000   0.58640008   -8.8687275    532.30718  0.010824532 0.0096575634           37 
 4099000   0.60069432   -8.8842433    532.26882  0.010821111 0.0096539941           45 
 4100000   0.59454157   -8.8858046    532.51843  0.010823545 0.0096504236           50 
 4101000   0.60322002   -8.9074176    531.90823  0.010808507 0.0096468538           51 
 4102000   0.60545457   -8.8799459    532.58825  0.010819687 0.0096432867           52 
 4103000   0.58959257   -8.8822932    532.33191  0.010811843 0.0096397217           57 
 4104000   0.59473243   -8.8779396    532.73366  0.010817366 0.0096361588           51 
 4105000   0.60211891   -8.8867955    532.93592  0.010818837 0.0096326005           50 
 4106000   0.60087994    -8.889359    532.85744  0.010814609 0.0096290467           49 
 4107000   0.59365558   -8.8782156    532.06464   0.01079589 0.0096254857           39 
 4108000   0.58790799   -8.8801963    533.12438  0.010814759  0.009621931           42 
 4109000   0.59349577   -8.8851225    531.90992  0.010787497 0.0096183729           45 
 4110000   0.58900608   -8.8930884    532.18351   0.01079042 0.0096148221           56 
 4111000    0.5937868   -8.8894148    532.27591  0.010789668 0.0096112709           41 
 4112000   0.58946969   -8.8823247    532.29899  0.010787512 0.0096077217           45 
 4113000   0.59288858   -8.8959954    532.50635   0.01078909 0.0096041708           46 
 4114000   0.58975027   -8.9052282    532.81293  0.010792678 0.0096006255           48 
 4115000   0.59386192   -8.8731407    532.84493  0.010790703 0.0095970801           48 
 4116000   0.59040999   -8.9160889    531.98635  0.010770699 0.0095935394           47 
 4117000   0.59702038   -8.8889471    533.07213   0.01079006 0.0095899978           44 
 4118000   0.58838779   -8.8839592    532.84753  0.010782895 0.0095864598           48 
 4119000   0.59669315   -8.8853746    532.40836  0.010771392 0.0095829219           40 
 4120000   0.59574169   -8.8937374    532.85058  0.010777722 0.0095793865           40 
 4121000   0.59311797   -8.8750948    532.76915   0.01077346 0.0095758522           50 
 4122000   0.60655087   -8.8686118    532.62901  0.010768013 0.0095723222           44 
 4123000   0.59482135   -8.8899264     531.2032  0.010736583   0.00956879           50 
 4124000   0.60038788   -8.9000567    532.47805  0.010759741 0.0095652549           49 
 4125000   0.59487732   -8.8710893    533.03466  0.010768377  0.009561725           61 
 4126000   0.59905599   -8.8957557     532.1235  0.010747364 0.0095582014           53 
 4127000    0.5962427   -8.8903035    531.78118  0.010737848 0.0095546725           50 
 4128000   0.58715651   -8.8911273    531.84948  0.010736625 0.0095511481           40 
 4129000    0.5914866   -8.8772907    532.39388  0.010745013 0.0095476281           43 
 4130000   0.58982281   -8.8681159    532.23486  0.010739202  0.009544112           43 
 4131000   0.58299723   -8.8684404    532.63035  0.010744581 0.0095405969           52 
 4132000   0.59148678   -8.8769741     532.5641  0.010740644 0.0095370808           43 
 4133000   0.59457025   -8.8772958    531.70888  0.010720802 0.0095335669           50 
 4134000   0.59906476   -8.8916453    531.82234  0.010720496  0.009530055           48 
 4135000   0.58455114   -8.8972635    531.77706   0.01071699  0.009526544           42 
 4136000    0.5862579   -8.9108313    532.38474  0.010726643 0.0095230306           52 
 4137000    0.5748587   -8.8885069    531.70972  0.010710453 0.0095195217           42 
 4138000   0.58481304   -8.8936059    532.07816  0.010715284 0.0095160179           53 
 4139000   0.59981155   -8.8734092    532.02166  0.010711558 0.0095125126           61 
 4140000    0.5829903    -8.889707    532.57362  0.010720081 0.0095090092           45 
 4141000   0.59152012   -8.8850562    532.46376  0.010715281 0.0095055093           45 
 4142000   0.59297286   -8.8949057    531.95113  0.010702381 0.0095020109           53 
 4143000   0.58223705   -8.9074231    532.04078  0.010701601 0.0094985082           46 
 4144000   0.58850133   -8.8697919    532.05019  0.010699207 0.0094950054           54 
 4145000   0.59069257   -8.8864245    531.69679  0.010689521 0.0094915045           48 
 4146000   0.58629448   -8.9146627    532.92683  0.010711667 0.0094880034           44 
 4147000   0.58027128   -8.9031238    532.49384  0.010700383 0.0094845067           55 
 4148000   0.58180046   -8.8826317    532.04511  0.010688788 0.0094810163           44 
 4149000   0.58424838   -8.8832206    531.19529  0.010669143 0.0094775249           54 
 4150000   0.60119147   -8.8930199    531.79361  0.010678587 0.0094740404           61 
 4151000   0.59985004   -8.8616778    532.03498   0.01068086 0.0094705559           55 
 4152000   0.58567736    -8.899662    531.49206   0.01066739 0.0094670692           54 
 4153000   0.58892995   -8.8924193    531.95281  0.010674067 0.0094635867           44 
 4154000   0.57873484   -8.8862944    531.81474  0.010668728 0.0094601041           49 
 4155000   0.59800305   -8.8739045    532.80347   0.01068599 0.0094566255           50 
 4156000   0.58145359   -8.9017822    531.67105  0.010660712 0.0094531454           54 
 4157000   0.57918149   -8.9027172     532.1516  0.010667781 0.0094496679           39 
 4158000   0.59030168    -8.899989    532.18223  0.010665829 0.0094461945           52 
 4159000   0.60312337   -8.8787077    531.78588  0.010655323 0.0094427246           52 
 4160000    0.5867629   -8.9039159    531.10596  0.010639142 0.0094392554           44 
 4161000   0.59065096   -8.8950806    532.79758  0.010670463  0.009435783           60 
 4162000   0.58623867   -8.8767436    533.24796  0.010676917 0.0094323134           46 
 4163000    0.5910498   -8.8825838    532.41809  0.010657741 0.0094288485           48 
 4164000   0.57715679   -8.9024357    531.56948  0.010638198 0.0094253794           43 
 4165000   0.57665116   -8.8964952    532.97528  0.010663771  0.009421912           34 
 4166000    0.5783689   -8.8931167    532.52492  0.010652203 0.0094184497           35 
 4167000   0.59266971   -8.9127975    531.39684  0.010627087 0.0094149842           32 
 4168000   0.58234047   -8.9146296    532.06053  0.010637806 0.0094115236           53 
 4169000    0.5797835   -8.8993861    532.01356  0.010634316 0.0094080627           61 
 4170000   0.59445208   -8.8899116    532.08672  0.010633228 0.0094046014           46 
 4171000   0.58806674   -8.8973517    532.34078  0.010635754 0.0094011438           47 
 4172000   0.57189074   -8.8866281    532.87254  0.010643827 0.0093976915           52 
 4173000   0.58725444   -8.9107439    531.98275  0.010623507 0.0093942371           53 
 4174000   0.57760256   -8.8833769    532.03521   0.01062201 0.0093907843           57 
 4175000   0.57682074   -8.9023652    531.75263  0.010613825 0.0093873323           55 
 4176000   0.58883375   -8.9123854    531.87145  0.010613654  0.009383887           60 
 4177000   0.57466538   -8.8850033    532.09497  0.010615573 0.0093804357           45 
 4178000   0.57700101   -8.8967045    532.33133  0.010617746 0.0093769905           55 
 4179000   0.58817149   -8.9212755    531.56118  0.010599848 0.0093735409           50 
 4180000   0.58196525   -8.8906719    531.67608  0.010599603  0.009370094           62 
 4181000    0.5868948   -8.8863728    532.31964  0.010609895 0.0093666503           48 
 4182000   0.59315343   -8.9190824    531.77528   0.01059651 0.0093632101           58 
 4183000   0.59259792   -8.8918752    532.01325  0.010598718 0.0093597665           51 
 4184000   0.59150381   -8.8875065    532.99545  0.010615748 0.0093563288           42 
 4185000   0.58839089   -8.8926272    531.18711  0.010577203 0.0093528942           39 
 4186000   0.58845135   -8.8894325    532.81032   0.01060699 0.0093494627           49 
 4187000   0.57994473   -8.9043367    532.65169  0.010601299 0.0093460329           56 
 4188000   0.58457232   -8.8953771    531.85543  0.010582924 0.0093426018           65 
 4189000   0.58373716   -8.9082121    531.36365  0.010570614 0.0093391717           52 
 4190000   0.57285897   -8.9153698    531.96323  0.010580016  0.009335741           56 
 4191000   0.57889044   -8.8929457    532.28741  0.010583938 0.0093323141           58 
 4192000   0.57714757   -8.9198089    531.71127   0.01056996 0.0093288843           48 
 4193000   0.57495569   -8.9053632    532.46071  0.010582334 0.0093254554           37 
 4194000   0.57370539   -8.8906481    530.59575  0.010542754 0.0093220307           46 
 4195000   0.58158235   -8.9103576    532.38225   0.01057573 0.0093186099           52 
 4196000   0.58533644   -8.9119627    531.10328  0.010547809 0.0093151901           62 
 4197000   0.57853496   -8.9253995    530.88194  0.010540901  0.009311767           64 
 4198000    0.5776846    -8.909791    531.43042  0.010549278 0.0093083448           49 
 4199000   0.56513042   -8.9119186    531.04539  0.010539124 0.0093049299           53 
 4200000   0.59362316   -8.9007266    532.42056    0.0105639 0.0093015143           42 
 4201000   0.59111645   -8.9052687    531.84489  0.010549966 0.0092980985           44 
 4202000   0.57461375   -8.9096086    531.77344  0.010546038 0.0092946866           46 
 4203000   0.58083378   -8.9371006    531.24866  0.010533124 0.0092912779           61 
 4204000    0.5955858   -8.8953254    531.28789  0.010531396 0.0092878664           47 
 4205000   0.58306893    -8.921397    531.34539  0.010530031 0.0092844571           42 
 4206000   0.56540036   -8.9185379    531.62494  0.010533067  0.009281046           45 
 4207000   0.58383239   -8.9166408    531.74461  0.010532933 0.0092776355           54 
 4208000   0.57398134   -8.8963717    531.51047  0.010525794 0.0092742278           54 
 4209000   0.58335752   -8.8976199    531.28304   0.01051879 0.0092708199           46 
 4210000   0.57520985   -8.9002571    532.28693  0.010536162 0.0092674179           51 
 4211000    0.5625064   -8.9286881    531.52541   0.01051859 0.0092640146           59 
 4212000   0.57357428    -8.907389    531.80307  0.010521586 0.0092606158           47 
 4213000   0.59331423   -8.9132948    531.42667  0.010511644 0.0092572186           61 
 4214000   0.56639281   -8.9078107    531.12044  0.010503094 0.0092538251           38 
 4215000   0.58111708   -8.8931151    531.74094   0.01051287 0.0092504343           42 
 4216000   0.58604763   -8.9168118    531.95065  0.010514521 0.0092470403           47 
 4217000    0.5828915    -8.904663     531.5371  0.010503855 0.0092436521           53 
 4218000   0.56735877   -8.9204935    531.34635  0.010497597 0.0092402589           54 
 4219000   0.57797467   -8.9323223    531.44153  0.010496988 0.0092368728           55 
 4220000   0.57246213   -8.9147194    532.00702  0.010505668 0.0092334856           47 
 4221000   0.58638854    -8.906084    530.16823  0.010466877 0.0092300977           54 
 4222000   0.56689412   -8.9098679    531.43893  0.010489478 0.0092267129           49 
 4223000    0.5734143   -8.9031978     531.7353  0.010492843 0.0092233303           50 
 4224000   0.57896441   -8.8946046    530.79928  0.010471892 0.0092199498           60 
 4225000   0.57767031    -8.929407    531.85483  0.010490233 0.0092165714           42 
 4226000     0.586122   -8.9041118    531.34205  0.010477639 0.0092131954           47 
 4227000   0.57563645   -8.9234384    530.85476  0.010465554 0.0092098188           47 
 4228000   0.55993959   -8.8840929    531.62671  0.010478294 0.0092064435           47 
 4229000   0.56868996   -8.9235413    531.63758   0.01047603 0.0092030748           57 
 4230000   0.58805892   -8.8823805    531.01362  0.010461261  0.009199704           54 
 4231000   0.57331364   -8.8950963    531.12874  0.010461056  0.009196333           50 
 4232000   0.56827861   -8.9174909    531.48191  0.010465538 0.0091929621           63 
 4233000   0.57497883   -8.9417254    531.48179  0.010463064 0.0091895916           50 
 4234000   0.57734803   -8.9180135    531.83087  0.010467463 0.0091862237           65 
 4235000      0.57731   -8.9014782    532.28865  0.010473999 0.0091828561           44 
 4236000   0.57005131    -8.922004    531.36287  0.010453314 0.0091794923           63 
 4237000   0.57275338   -8.9233501    531.45306  0.010452621 0.0091761288           62 
 4238000   0.57811163   -8.9132169    531.19457  0.010445072 0.0091727683           43 
 4239000   0.57977845    -8.942339    531.02165  0.010439208 0.0091694072           45 
 4240000   0.57471537   -8.9203423    532.59288  0.010467627 0.0091660502           49 
 4241000    0.5680967   -8.9349129    531.84278   0.01045042 0.0091626917           46 
 4242000    0.5783282   -8.9384732    531.20539  0.010435435  0.009159336           46 
 4243000   0.57195512   -8.9072984    531.58251  0.010440382 0.0091559824           52 
 4244000   0.57090985   -8.9289317    530.68868  0.010420372  0.009152632           42 
 4245000   0.56145443   -8.9077675     531.5214  0.010434264 0.0091492792           46 
 4246000   0.57633494   -8.9128393    531.80056  0.010437285 0.0091459314           46 
 4247000   0.56716382   -8.9212095    531.07484  0.010420588 0.0091425854           55 
 4248000   0.56403065   -8.9207068    531.28138  0.010422187 0.0091392368           58 
 4249000   0.57874041   -8.9156291    531.08536  0.010415889 0.0091358894           47 
 4250000   0.56954634    -8.930205    530.64252  0.010404755 0.0091325477           43 
 4251000   0.57067572   -8.9428831    531.74235  0.010423868 0.0091292033           42 
 4252000   0.57049269   -8.9376828    530.77468  0.010402451  0.009125857           51 
 4253000   0.57742786   -8.9261177    530.95078  0.010403456  0.009122514           58 
 4254000   0.55956634   -8.9322259     529.6509  0.010375547 0.0091191723           38 
 4255000   0.56810448   -8.9221224    530.68138   0.01039329 0.0091158304           55 
 4256000   0.56919412     -8.91143    531.06997  0.010398456 0.0091124924           49 
 4257000   0.57860788   -8.9265327    530.43936  0.010383669 0.0091091576           52 
 4258000   0.57439375    -8.936642    530.90721  0.010390387 0.0091058195           49 
 4259000   0.56147102   -8.9376167    530.82637  0.010386366 0.0091024858           62 
 4260000   0.58264864   -8.9309463    531.42915  0.010395719 0.0090991546           56 
 4261000    0.5691197   -8.9222222    531.23375  0.010389458 0.0090958315           43 
 4262000    0.5832067   -8.9404507    531.11122  0.010384624 0.0090925079           52 
 4263000   0.58058621   -8.9444565    530.68394  0.010373836 0.0090891806           67 
 4264000   0.56365294   -8.9370811    532.05842  0.010398265 0.0090858571           42 
 4265000   0.57831402   -8.9305913    531.41574   0.01038327 0.0090825336           56 
 4266000   0.57370827   -8.9288332    531.92607  0.010390805 0.0090792152           45 
 4267000   0.57380458   -8.9216209    530.73718  0.010365151 0.0090758979           60 
 4268000   0.56946801   -8.9347027    531.25806  0.010372892 0.0090725806           52 
 4269000   0.56785142   -8.9316257    530.97647  0.010364966 0.0090692647           39 
 4270000   0.57182084   -8.9264184    531.78565   0.01037833 0.0090659468           45 
 4271000   0.57205355   -8.9184173    530.76409  0.010355968 0.0090626325           58 
 4272000   0.57242569   -8.9358219    531.10568  0.010360208 0.0090593219           58 
 4273000   0.56683287   -8.9380747    532.29704  0.010381017 0.0090560113           47 
 4274000   0.57832617   -8.9298064     531.1572  0.010356364  0.009052707           50 
 4275000   0.56397249   -8.9341029    531.78395  0.010366159 0.0090494005           60 
 4276000   0.56233832   -8.9375272    530.97903  0.010348048 0.0090460952           45 
 4277000   0.56766291   -8.9354699    531.10312  0.010348046 0.0090427893           39 
 4278000   0.56541272   -8.9444108    531.00856  0.010343785 0.0090394839           49 
 4279000   0.57430824   -8.9518407    531.27187  0.010346496 0.0090361839           49 
 4280000   0.56512221   -8.9167625    531.90185  0.010356345 0.0090328835           43 
 4281000    0.5643105   -8.9393513     530.5466  0.010327544 0.0090295864           61 
 4282000   0.55875534   -8.9231267    530.94028  0.010332794 0.0090262893           38 
 4283000   0.56793614   -8.9478299     530.6204  0.010324158  0.009022991           58 
 4284000   0.56506561   -8.9523113    531.45693   0.01033802 0.0090196964           47 
 4285000   0.55745483   -8.9472545    530.20826  0.010311324 0.0090164041           53 
 4286000   0.55614052   -8.9187516    531.02621  0.010324821 0.0090131104           51 
 4287000   0.55936314   -8.9432695      531.476  0.010331156 0.0090098225           62 
 4288000   0.57793223   -8.9365438    531.92859  0.010337543  0.009006536           46 
 4289000   0.56997042   -8.9253792    530.58527  0.010309032 0.0090032499           53 
 4290000   0.57457635   -8.9407147    530.44831  0.010303969 0.0089999593           53 
 4291000   0.55831905   -8.9363303    530.45139  0.010301627 0.0089966729           54 
 4292000    0.5663115   -8.9518689    531.47527  0.010319107 0.0089933906           49 
 4293000   0.56309549   -8.9443802    530.36853   0.01029522 0.0089901071           51 
 4294000   0.56546372   -8.9467718    531.36855  0.010312229 0.0089868214           54 
 4295000   0.56313363   -8.9227458    530.94721  0.010301653 0.0089835425           59 
 4296000   0.57554665    -8.934777     530.3704  0.010288067   0.00898026           44 
 4297000   0.54720828   -8.9167557    530.97959  0.010297486 0.0089769826           54 
 4298000   0.56036838   -8.9341073    531.31467  0.010301587 0.0089737026           52 
 4299000   0.57188266   -8.9568003    530.35065  0.010280504 0.0089704266           60 
 4300000   0.54821904   -8.9562892    530.81351  0.010287083 0.0089671496           55 
 4301000   0.56287085   -8.9287384    531.75247  0.010302884 0.0089638753           60 
 4302000    0.5618614   -8.9601465    530.95103  0.010284965 0.0089606023           49 
 4303000   0.55912671   -8.9256668    530.59814  0.010275741 0.0089573326           56 
 4304000    0.5668561   -8.9402957    530.87336  0.010278682 0.0089540664           60 
 4305000   0.55827806   -8.9521256    530.63998  0.010271777 0.0089508025           56 
 4306000   0.57051709   -8.9369086    531.13634  0.010278997 0.0089475412           60 
 4307000   0.57007247   -8.9509733    530.80802  0.010270258 0.0089442771           51 
 4308000   0.55536099   -8.9315082    530.89769  0.010269609 0.0089410191           52 
 4309000   0.57275517   -8.9385831     530.4641   0.01025884 0.0089377582           59 
 4310000    0.5695916   -8.9311952    531.26082  0.010271864 0.0089345032           57 
 4311000   0.55549254   -8.9440242     530.1956   0.01024889 0.0089312454           60 
 4312000    0.5750341   -8.9501707     531.1082  0.010264151 0.0089279907           62 
 4313000   0.56431468    -8.933588    531.29247  0.010265331  0.008924738           47 
 4314000     0.552238   -8.9578424    530.06091  0.010239161 0.0089214862           52 
 4315000   0.55644906   -8.9472915    530.82514  0.010251548 0.0089182368           68 
 4316000   0.56588723   -8.9473737    529.68965  0.010227248 0.0089149878           49 
 4317000   0.56680177   -8.9609313    530.46759  0.010239896 0.0089117459           48 
 4318000   0.56345898    -8.950054    529.92584   0.01022707 0.0089085034           54 
 4319000   0.55942742   -8.9534125    530.66364  0.010238937 0.0089052594           49 
 4320000   0.56745302   -8.9433158    530.77056   0.01023863 0.0089020186           38 
 4321000   0.56245467    -8.963035    529.44139  0.010210626 0.0088987758           50 
 4322000   0.57419744   -8.9477153    530.20599  0.010223006 0.0088955348           46 
 4323000   0.57329341   -8.9448107      531.082  0.010237528 0.0088922953           48 
 4324000   0.56907009   -8.9663047    530.59908  0.010225853  0.008889058           51 
 4325000   0.55873003   -8.9594367    530.03596  0.010212639 0.0088858181           60 
 4326000   0.55846165   -8.9443317     530.7211  0.010223476 0.0088825808           57 
 4327000   0.55265158   -8.9415504    530.67585  0.010220242 0.0088793457           51 
 4328000    0.5643087   -8.9614159    530.74984  0.010219305 0.0088761124           47 
 4329000   0.56241334   -8.9621423    530.95523  0.010220898 0.0088728829           42 
 4330000    0.5565555   -8.9406829    530.22526  0.010204489 0.0088696566           45 
 4331000   0.57024392   -8.9359972    530.32066  0.010203969 0.0088664297           47 
 4332000   0.55375106    -8.937356    529.20535  0.010180158 0.0088632059           52 
 4333000   0.55577517   -8.9523033     530.8173   0.01020881 0.0088599797           49 
 4334000   0.55767386   -8.9455368     530.9502   0.01020901  0.008856757           49 
 4335000   0.56004693   -8.9474464    529.41533   0.01017715 0.0088535366           60 
 4336000   0.55766873   -8.9512995    530.28169  0.010191453 0.0088503185           45 
 4337000   0.55765389   -8.9622542    529.82026  0.010180237 0.0088470976           43 
 4338000   0.55720574   -8.9416863    530.42893  0.010189583 0.0088438805           48 
 4339000   0.55371595   -8.9523103     531.0868  0.010199869  0.008840664           51 
 4340000   0.55941459   -8.9489435    530.28662  0.010182155  0.008837451           56 
 4341000     0.554581   -8.9471776     530.4512  0.010182969  0.008834237           53 
 4342000   0.54710835   -8.9591599    529.39948  0.010160438  0.008831026           58 
 4343000    0.5341151   -8.9458916    530.86772  0.010186271  0.008827814           53 
 4344000   0.55793612   -8.9460799    530.36631  0.010174308 0.0088246046           55 
 4345000   0.54793305   -8.9596953    530.54557  0.010175404 0.0088213961           41 
 4346000   0.56356886   -8.9533871    530.70868   0.01017619 0.0088181909           54 
 4347000   0.54816752   -8.9372758    530.63727   0.01017248 0.0088149858           50 
 4348000   0.55208042    -8.958402     530.3464  0.010164566 0.0088117826           52 
 4349000   0.54690932   -8.9455737    529.74671  0.010150738 0.0088085796           62 
 4350000   0.55690084   -8.9622331     531.0445  0.010173266 0.0088053768           53 
 4351000   0.55292826   -8.9606514    530.41249  0.010158823 0.0088021763           47 
 4352000   0.56206867   -8.9445669    530.60271  0.010160132 0.0087989762           56 
 4353000   0.56223304   -8.9729409    530.41598  0.010154223 0.0087957765           46 
 4354000   0.56001303   -8.9543972    531.09346  0.010164857 0.0087925778           45 
 4355000   0.54536098   -8.9752113    531.08807   0.01016242 0.0087893845           54 
 4356000   0.54685006   -8.9684028    530.23224  0.010143714 0.0087861901           45 
 4357000   0.55388798   -8.9509816    531.06516  0.010157317 0.0087830014           45 
 4358000   0.55750131   -8.9273964     531.0059  0.010153853 0.0087798138           36 
 4359000   0.55645786   -8.9521059    530.13183  0.010134814  0.008776629           43 
 4360000   0.55618064   -8.9458623    530.34368  0.010136538 0.0087734447           52 
 4361000   0.54264978   -8.9585331    530.55934  0.010138335 0.0087702614           46 
 4362000   0.55527947   -8.9730534    529.41975   0.01011424 0.0087670816           51 
 4363000   0.55620049   -8.9626162    530.29226  0.010128586 0.0087638997           52 
 4364000   0.55863127   -8.9558566    530.85918  0.010137091 0.0087607193           51 
 4365000   0.55773629   -8.9533647     530.1585  0.010121392 0.0087575405           45 
 4366000   0.54799107   -8.9577501    530.99477  0.010135035 0.0087543636           46 
 4367000   0.55844831   -8.9583075    530.26671  0.010118821 0.0087511903           58 
 4368000   0.56396061    -8.965062    530.34706  0.010118038  0.008748017           49 
 4369000   0.56910181   -8.9612344    530.57375  0.010120045 0.0087448457           61 
 4370000   0.54795747   -8.9437903    530.30969  0.010112694 0.0087416762           41 
 4371000   0.55655806   -8.9415979     531.2174  0.010127686 0.0087385112           62 
 4372000   0.54416021   -8.9593816    530.02817  0.010102702 0.0087353449           49 
 4373000   0.55250663   -8.9482015    530.01078  0.010100061 0.0087321803           50 
 4374000   0.55666077   -8.9465034    530.57028  0.010108411 0.0087290156           52 
 4375000    0.5686343   -8.9513591    530.36258  0.010102144 0.0087258558           49 
 4376000    0.5497477   -8.9643125     530.2511  0.010097713 0.0087226979           47 
 4377000   0.55402142   -8.9668091    530.01183  0.010090851 0.0087195394           52 
 4378000   0.54980239   -8.9718144    529.81083   0.01008472 0.0087163805           49 
 4379000   0.55668348   -8.9611325      530.225  0.010090298 0.0087132229           53 
 4380000   0.55413289   -8.9749604    530.27481  0.010088942 0.0087100689           50 
 4381000   0.55641495   -8.9542625    531.30413  0.010106219 0.0087069122           47 
 4382000   0.55030236   -8.9552825    530.52097  0.010089019 0.0087037614           51 
 4383000   0.55647561   -8.9629289    530.18851  0.010080396 0.0087006083           52 
 4384000   0.55229036   -8.9537879    531.24434  0.010098166  0.008697462           48 
 4385000   0.54699245   -8.9907286    530.78973  0.010087224 0.0086943119           42 
 4386000   0.54903109   -8.9645379     530.2209  0.010074116 0.0086911607           47 
 4387000   0.55268076   -8.9580616    530.67696  0.010080483 0.0086880181           53 
 4388000   0.54862866   -8.9584551    530.77359  0.010080021 0.0086848739           52 
 4389000   0.55962843   -8.9790711    530.25992  0.010067971 0.0086817295           50 
 4390000   0.54601158   -8.9580289    530.14516    0.0100635 0.0086785882           70 
 4391000   0.55075025   -8.9475073    531.16083  0.010080483 0.0086754492           52 
 4392000   0.55305465   -8.9760606      530.056  0.010057225 0.0086723109           44 
 4393000    0.5575337   -8.9856435    529.48074  0.010044023 0.0086691733           55 
 4394000   0.54771569   -8.9782411    530.98461  0.010070259 0.0086660384           54 
 4395000   0.55595145    -8.964301    530.18524  0.010052811 0.0086629038           46 
 4396000   0.54935454   -8.9820351    529.93602    0.0100458 0.0086597707           54 
 4397000   0.55235745   -8.9784584    529.85369  0.010041955 0.0086566366           47 
 4398000   0.55056761   -8.9646318    529.60264  0.010034914 0.0086535061           48 
 4399000   0.55765259   -8.9645635    530.73922  0.010054164 0.0086503755           54 
 4400000   0.54084826    -8.979745    530.57434  0.010048756 0.0086472464           49 
 4401000   0.55492907   -8.9473902    529.90094  0.010033722 0.0086441154           49 
 4402000   0.55019183   -8.9723395    530.15969  0.010036341 0.0086409887           40 
 4403000   0.54434299   -8.9585282    530.39129  0.010038445 0.0086378632           53 
 4404000   0.55194587    -8.981062    529.92399  0.010027323 0.0086347362           56 
 4405000   0.55418794   -8.9779885    530.54175  0.010036734 0.0086316135           48 
 4406000   0.54680178   -8.9586948    531.33951  0.010049544 0.0086284928           50 
 4407000   0.54023956   -8.9817421    530.00813  0.010022088 0.0086253747           54 
 4408000   0.54583248   -8.9973091    529.76103  0.010015144  0.008622257           50 
 4409000    0.5526275   -8.9784452    530.24992  0.010022112 0.0086191385           60 
 4410000   0.54870901   -8.9586561    530.26251  0.010020078 0.0086160231           56 
 4411000   0.55057579   -8.9603478    530.07781  0.010014317 0.0086129095           56 
 4412000   0.56017413   -8.9746867    529.95783  0.010009781 0.0086097964           49 
 4413000   0.53849557   -8.9890172    530.20181   0.01001212 0.0086066862           50 
 4414000   0.53345812   -8.9657822    530.01249  0.010006277 0.0086035741           52 
 4415000   0.54328021   -8.9643362    530.74866  0.010017906 0.0086004677           49 
 4416000   0.55038686   -8.9564642     529.5476 0.0099929725 0.0085973592           44 
 4417000   0.55120843   -8.9629665    530.53737  0.010009384 0.0085942559           55 
 4418000   0.53891778   -8.9673161    529.66158 0.0099905987 0.0085911557           54 
 4419000   0.53793779   -8.9957112    530.05293 0.0099957179 0.0085880517           57 
 4420000   0.54936994   -8.9799151    529.84158 0.0099894718 0.0085849481           54 
 4421000   0.54244885   -8.9759849    530.24072 0.0099947358 0.0085818482           47 
 4422000   0.54612464   -8.9712988    530.09963 0.0099898166   0.00857875           57 
 4423000   0.54282785   -8.9780808    530.03248 0.0099862928 0.0085756536           53 
 4424000   0.53639021     -8.94764     531.0945   0.01000404 0.0085725584           48 
 4425000   0.54844048   -8.9536356    530.41837 0.0099890465 0.0085694654           44 
 4426000   0.55539581   -8.9761466    531.21945  0.010001873  0.008566375           52 
 4427000   0.54560895    -8.969189     530.8644 0.0099929297 0.0085632849           48 
 4428000   0.53001304   -8.9683452    530.23026 0.0099787388 0.0085601953           55 
 4429000   0.54168175   -8.9715217    529.39169 0.0099607076 0.0085571075           41 
 4430000   0.54527546   -8.9761129    529.98186  0.009969561 0.0085540223           55 
 4431000   0.54007646   -8.9693959    529.20331 0.0099526688 0.0085509391           58 
 4432000   0.55348322     -8.97029    530.55741 0.0099758839  0.008547855           52 
 4433000    0.5432633   -8.9665824    529.75639 0.0099585757 0.0085447729           53 
 4434000   0.54997145   -8.9793267    529.93118 0.0099596147 0.0085416947           54 
 4435000   0.54438026   -8.9514397    530.71049 0.0099720122 0.0085386165           50 
 4436000   0.53605523   -8.9641748    529.02385 0.0099380795 0.0085355425           56 
 4437000    0.5405165   -8.9543423    529.71625  0.009948844 0.0085324658           46 
 4438000   0.54823956   -8.9836447    530.05291 0.0099529238 0.0085293878           53 
 4439000   0.54752179   -8.9722823    530.01082 0.0099498916  0.008526313           53 
 4440000   0.54607246   -8.9644538    529.23762 0.0099331386 0.0085232383           42 
 4441000   0.54167432   -8.9697895    530.71064 0.0099585425 0.0085201684           57 
 4442000   0.54085205   -8.9813064     529.7135 0.0099375937 0.0085171014           39 
 4443000   0.54269813   -8.9765439    530.06249 0.0099419029 0.0085140321           58 
 4444000   0.54429882    -8.976236    529.46401  0.009928443  0.008510964           55 
 4445000   0.52990243    -8.994587    529.80937 0.0099326842 0.0085078965           60 
 4446000   0.53876519   -8.9735527    530.29841 0.0099396163 0.0085048344           47 
 4447000   0.53139303   -8.9790554    529.39641 0.0099204784 0.0085017704           51 
 4448000   0.53484231   -8.9731626    529.99302 0.0099294256 0.0084987105           44 
 4449000   0.54874399   -8.9745723    529.66597 0.0099210678 0.0084956484           44 
 4450000   0.52970579   -8.9863789    529.52032 0.0099161108 0.0084925885           43 
 4451000   0.54054404   -8.9532228    530.66321 0.0099352806 0.0084895296           45 
 4452000   0.54867438   -8.9993547    529.86951 0.0099181924 0.0084864731           49 
 4453000     0.542007   -8.9553736    529.51257 0.0099092853 0.0084834135           43 
 4454000    0.5345999    -8.997802    529.08202 0.0098990051 0.0084803542           54 
 4455000   0.53875985   -8.9900648    530.01405 0.0099142172 0.0084772964           49 
 4456000   0.54227747   -8.9774492     529.5746 0.0099037739 0.0084742429           49 
 4457000   0.55664431   -8.9858126    529.41277 0.0098985262 0.0084711907           43 
 4458000    0.5433625   -8.9823335     529.5557 0.0098989774 0.0084681401           45 
 4459000   0.53156722   -8.9852821     531.1779 0.0099270745 0.0084650931           50 
 4460000   0.53873315   -8.9777686    529.95759 0.0099020476 0.0084620467           44 
 4461000   0.54666566   -8.9806227     530.3344 0.0099068669     0.008459           49 
 4462000   0.53942803   -8.9897229    528.80741 0.0098761282 0.0084559565           40 
 4463000   0.54421409   -8.9766533    529.58977 0.0098885237  0.008452913           57 
 4464000   0.54485553   -8.9670129     529.7794 0.0098898484 0.0084498748           56 
 4465000   0.54459149   -8.9707481    529.14668 0.0098758245  0.008446832           41 
 4466000   0.53893196   -8.9931477    529.20448 0.0098746917 0.0084437936           50 
 4467000   0.53937983   -8.9794472    530.17471 0.0098905811 0.0084407597           38 
 4468000   0.53821599   -8.9803497    529.98032 0.0098847418 0.0084377236           44 
 4469000   0.53265333   -8.9788085    530.18344 0.0098863177 0.0084346879           45 
 4470000   0.52647243   -8.9805211    528.99065  0.009861869  0.008431655           47 
 4471000   0.53109475   -8.9787328    529.10757 0.0098618425  0.008428623           50 
 4472000   0.54934749   -8.9844427    529.59086  0.009868643 0.0084255946           44 
 4473000   0.53924528   -8.9850814    529.23522 0.0098598111 0.0084225658           43 
 4474000   0.54414784   -8.9817592    529.36916  0.009860102 0.0084195368           42 
 4475000   0.53898203   -8.9788571     529.4604 0.0098595979 0.0084165088           49 
 4476000   0.53922005   -8.9715989    530.32309 0.0098734565 0.0084134858           37 
 4477000   0.53715181   -8.9827423    530.05697 0.0098662976 0.0084104606           46 
 4478000   0.53931227   -8.9774552    529.45511 0.0098528939 0.0084074363           48 
 4479000   0.53549812   -8.9741483    529.44239 0.0098504575 0.0084044183           50 
 4480000   0.53174225    -8.972396    530.03695 0.0098593183    0.0084014           57 
 4481000   0.54315438   -8.9821094    528.95426 0.0098369832 0.0083983806           45 
 4482000   0.53498615   -8.9811225    529.75225 0.0098496253 0.0083953657           44 
 4483000   0.53118762   -8.9865522    529.61502 0.0098448774 0.0083923509           51 
 4484000   0.52649056   -8.9787878    529.22754 0.0098354806 0.0083893384           51 
 4485000   0.53591308   -9.0025967    529.31615 0.0098349341 0.0083863256           53 
 4486000   0.52920683   -8.9761446    529.05886 0.0098279621 0.0083833114           49 
 4487000   0.53309688   -8.9945058      530.136 0.0098457766 0.0083803033           49 
 4488000    0.5401243   -8.9945982     529.8218 0.0098377487 0.0083772953           63 
 4489000   0.53037862   -8.9893935    529.23053  0.009824581 0.0083742884           50 
 4490000   0.51742817    -8.992896    529.24559 0.0098226725 0.0083712795           43 
 4491000   0.53732911   -8.9850079    529.75466 0.0098299314 0.0083682737           40 
 4492000   0.53000327   -8.9568061    530.26581 0.0098372257 0.0083652733           47 
 4493000   0.52815741   -8.9974899    528.37761 0.0098000151 0.0083622708           43 
 4494000   0.52225033   -8.9838329     529.5545 0.0098196577 0.0083592705           43 
 4495000   0.53648669   -8.9855976    528.97845 0.0098067936 0.0083562703           45 
 4496000   0.52781142     -8.98758    529.61826 0.0098164714 0.0083532717           46 
 4497000   0.52157597   -8.9914147    528.85744 0.0098001898 0.0083502742           52 
 4498000    0.5378335   -8.9803548    529.79837 0.0098154434 0.0083472794           37 
 4499000    0.5150458   -8.9920213     529.4035 0.0098059476 0.0083442831           49 
 4500000   0.53107942   -8.9933773    529.50021 0.0098055595 0.0083412895           46 
 4501000   0.53458097   -8.9856096    529.97138 0.0098121044 0.0083382962           44 
 4502000   0.53391648   -8.9925131    529.25871 0.0097967332  0.008335307           55 
 4503000    0.5365471   -9.0003704    529.34095 0.0097960795 0.0083323186           45 
 4504000   0.52628753   -9.0065547    528.50231 0.0097783879 0.0083293283           38 
 4505000   0.53094981   -9.0139099    528.67914 0.0097794883 0.0083263427           60 
 4506000   0.53454674   -8.9981626    528.92024  0.009781777 0.0083233549           40 
 4507000   0.52558878   -9.0083082    530.09678 0.0098013605 0.0083203752           57 
 4508000    0.5269502    -8.997357    529.68808 0.0097916313 0.0083173923           52 
 4509000   0.53300227   -8.9974333    529.82677 0.0097920227  0.008314412           50 
 4510000   0.54216609     -8.99694     529.5551 0.0097848318 0.0083114309           41 
 4511000   0.53390308   -8.9959944    530.10657 0.0097928503 0.0083084497           51 
 4512000   0.52757351   -8.9985082    528.86116  0.009767678 0.0083054692           54 
 4513000   0.53164378    -8.992234    529.70886 0.0097811666 0.0083024914           56 
 4514000   0.52780612   -8.9927335    528.78758  0.009761992 0.0082995161           43 
 4515000   0.53284568   -8.9782521    529.76932 0.0097779498 0.0082965424           53 
 4516000   0.52943646   -8.9987479    530.33103 0.0097861499 0.0082935706           43 
 4517000   0.53350024   -8.9978992    528.77962 0.0097553616  0.008290598           59 
 4518000   0.52561995   -8.9942412    529.53276 0.0097670938 0.0082876294           54 
 4519000   0.52323562    -8.995013    528.55398 0.0097468832 0.0082846631           45 
 4520000    0.5166842   -8.9895267    529.32785 0.0097589944 0.0082816939           38 
 4521000   0.52382508   -8.9748579     529.5661 0.0097612272 0.0082787281           50 
 4522000   0.53367256   -9.0019599     529.7809  0.009763027 0.0082757631           42 
 4523000   0.53160586   -8.9939285    528.03654 0.0097287299 0.0082728021           49 
 4524000    0.5088693   -9.0075798    528.18788 0.0097293671 0.0082698411           46 
 4525000   0.53603764   -9.0017553    529.66023 0.0097543321 0.0082668772           43 
 4526000   0.52864843   -8.9956317    529.79569 0.0097546709 0.0082639167           56 
 4527000   0.52634089   -9.0058648    529.26585 0.0097427629 0.0082609574           55 
 4528000   0.53756456   -9.0147842    529.30371  0.009741308 0.0082579989           58 
 4529000   0.52176503   -9.0086802     529.9002 0.0097501325 0.0082550431           44 
 4530000   0.53542146   -9.0081723    528.11299 0.0097151028 0.0082520907           39 
 4531000    0.5293566   -8.9724474    529.68192 0.0097418142 0.0082491382           46 
 4532000   0.52185318   -8.9957919    529.25208 0.0097317608 0.0082461908           60 
 4533000    0.5286389   -9.0057467    528.45024 0.0097148732 0.0082432422           57 
 4534000   0.52325662   -9.0093141     529.4651 0.0097313832 0.0082402936           47 
 4535000    0.5203194    -9.013596    529.44732 0.0097289106 0.0082373469           50 
 4536000   0.52214336   -9.0180964    528.56526 0.0097105611  0.008234399           44 
 4537000   0.52129536   -9.0104452    529.56679 0.0097268164 0.0082314539           44 
 4538000   0.52277433    -9.000649    529.56466 0.0097246338 0.0082285114           39 
 4539000   0.53106764   -8.9945699    529.30783 0.0097177762 0.0082255683           52 
 4540000   0.52115306    -9.009938    528.62073 0.0097030236 0.0082226283           35 
 4541000   0.53327492   -9.0118369    529.27838 0.0097129557 0.0082196889           55 
 4542000    0.5239923    -8.989092    528.51503 0.0096968118 0.0082167519           52 
 4543000   0.53166055   -8.9922175    529.42661 0.0097113987 0.0082138162           44 
 4544000   0.51386339     -9.01646    528.51141 0.0096924774 0.0082108809           35 
 4545000   0.52624535   -9.0121966    530.02696 0.0097181328 0.0082079459           47 
 4546000   0.52387367   -9.0038282    529.13784 0.0096996965 0.0082050139           60 
 4547000    0.5263631   -9.0182671    529.24194 0.0096994712 0.0082020838           44 
 4548000   0.52711434   -9.0231468    528.13505 0.0096770568 0.0081991554           35 
 4549000   0.53126582   -9.0073292    529.52537 0.0097003988 0.0081962287           45 
 4550000   0.52252679   -9.0177588    528.06453 0.0096715115 0.0081933012           50 
 4551000   0.52754937   -8.9913292    529.67487 0.0096988733 0.0081903738           44 
 4552000   0.52474632    -8.997731     528.8432 0.0096815172 0.0081874495           40 
 4553000   0.52696478   -9.0010772    530.10817 0.0097025436 0.0081845289           41 
 4554000   0.52719411   -9.0194097    528.93627 0.0096789686 0.0081816087           47 
 4555000    0.5272237   -9.0133433    529.64624 0.0096898324 0.0081786873           51 
 4556000   0.52507123   -9.0040399    529.29981  0.009681369 0.0081757699           50 
 4557000   0.52110762   -9.0120259    528.65663 0.0096674828 0.0081728545           44 
 4558000   0.52591366   -9.0102795    528.94491 0.0096706324  0.008169942           52 
 4559000   0.51348386   -9.0035054    529.10017 0.0096713491 0.0081670281           43 
 4560000   0.52086554   -8.9977399    528.73608 0.0096625746 0.0081641138           44 
 4561000   0.52778345   -9.0075689    529.60109 0.0096762605 0.0081612016           44 
 4562000   0.51080822   -9.0025705    529.22035 0.0096671845 0.0081582911           47 
 4563000   0.51727514   -8.9958322    528.59769 0.0096536944 0.0081553814           45 
 4564000   0.50876973   -9.0145351    528.17055 0.0096437801 0.0081524731           48 
 4565000   0.52403583   -9.0004436    529.27263 0.0096617859 0.0081495662           45 
 4566000   0.51373869    -8.999881    529.06195 0.0096558248 0.0081466623           44 
 4567000   0.52438621   -9.0022257    528.39048 0.0096414582 0.0081437593           50 
 4568000   0.51153899   -9.0211571    528.54756 0.0096422132 0.0081408577           40 
 4569000   0.52483559   -8.9935586    529.49631  0.009657407 0.0081379555           43 
 4570000   0.51435067   -8.9990812    529.04362  0.009647039 0.0081350548           42 
 4571000   0.52497452   -9.0225915    529.10206 0.0096459939 0.0081321564           50 
 4572000    0.5186379   -9.0090532    528.48987 0.0096327258 0.0081292589           45 
 4573000   0.52861496   -9.0193752    529.69557 0.0096525907 0.0081263632           56 
 4574000   0.52100079   -9.0130614    528.89892 0.0096359664 0.0081234692           51 
 4575000   0.51088994   -9.0088801    528.73238 0.0096308267 0.0081205773           52 
 4576000   0.51459789   -9.0295867    527.92009 0.0096139294 0.0081176855           48 
 4577000    0.5349974   -9.0063236    528.59855 0.0096241816 0.0081147929           44 
 4578000   0.51548018   -9.0099928    529.43071 0.0096372272 0.0081119028           61 
 4579000   0.51801285   -9.0126233    529.15036 0.0096300204 0.0081090137           53 
 4580000   0.50530291   -9.0217649    528.19136 0.0096104688 0.0081061255           44 
 4581000   0.50886473   -9.0258638    527.95366 0.0096040467 0.0081032379           51 
 4582000   0.52932769   -9.0177327    528.58704   0.00961347 0.0081003528           49 
 4583000   0.52151647   -9.0026405    529.08729 0.0096204685 0.0080974674           49 
 4584000   0.51827072   -9.0147017     529.1982 0.0096203861 0.0080945855           49 
 4585000   0.52320764   -9.0134236     529.7407  0.009628148 0.0080917057           44 
 4586000   0.52541307   -9.0214325     527.7404 0.0095897006 0.0080888269           56 
 4587000   0.52277607   -9.0375549    529.43738 0.0096184394 0.0080859488           54 
 4588000   0.52641956   -9.0183819    528.45354 0.0095984731 0.0080830712           51 
 4589000   0.52031199   -9.0176513    528.82849 0.0096031903 0.0080801943           43 
 4590000   0.51873873     -9.00499    528.67531 0.0095983171 0.0080773201           40 
 4591000   0.51516259   -9.0172867    529.54507 0.0096120138 0.0080744477           44 
 4592000   0.52477478   -9.0143971    528.69989 0.0095945827 0.0080715759           52 
 4593000   0.52323524   -9.0043889    528.34272 0.0095860134 0.0080687078           41 
 4594000    0.5246138   -9.0051121    528.19827 0.0095813066  0.008065839           58 
 4595000   0.50592757   -9.0217225    528.93659 0.0095926113 0.0080629747           48 
 4596000   0.50942522   -9.0206868    529.10291 0.0095935398 0.0080601074           43 
 4597000   0.52765758   -8.9944265    529.49786 0.0095986124 0.0080572453           47 
 4598000   0.51165386   -9.0084208    529.16114 0.0095904224 0.0080543861           39 
 4599000   0.51351961   -9.0436843    528.63977 0.0095788898 0.0080515247           56 
 4600000   0.50762956   -9.0174153    528.67208 0.0095773928 0.0080486614           44 
 4601000    0.5045294   -9.0470907    529.13386 0.0095836749 0.0080457983           50 
 4602000   0.51059361   -9.0259592    528.91718 0.0095776687 0.0080429416           47 
 4603000    0.5168089   -9.0147073    529.32569 0.0095829837 0.0080400844           47 
 4604000   0.50391761   -9.0237919     528.7242 0.0095700152 0.0080372302           52 
 4605000   0.51844584   -9.0296161    527.99988 0.0095548296 0.0080343749           35 
 4606000   0.52550577   -9.0238409    528.64759 0.0095644736 0.0080315198           46 
 4607000   0.52432149   -9.0236801    528.54054 0.0095604613 0.0080286702           43 
 4608000   0.51103391   -9.0127544    528.31186 0.0095542509 0.0080258183           41 
 4609000   0.53398796   -9.0184268    528.62687 0.0095578736 0.0080229685           49 
 4610000    0.5216606    -9.028842    528.68161 0.0095567898 0.0080201195           47 
 4611000   0.52331229    -9.040056    528.67199 0.0095545433 0.0080172726           49 
 4612000   0.51552207   -9.0045772    529.14771 0.0095610673 0.0080144285           40 
 4613000   0.52779986   -9.0328167    529.04696 0.0095571747 0.0080115857           71 
 4614000    0.5183738   -9.0120054    528.89804 0.0095524136 0.0080087422           50 
 4615000   0.51251003   -9.0186296      528.296 0.0095394728 0.0080059038           51 
 4616000   0.51630859   -9.0225163    528.89511 0.0095482219 0.0080030642           56 
 4617000   0.50173277   -9.0167736    529.63904 0.0095595813 0.0080002254           39 
 4618000   0.51536817   -9.0253415    528.81851 0.0095427045 0.0079973882           47 
 4619000   0.50668301   -9.0205946      528.981 0.0095435701 0.0079945534           50 
 4620000   0.50210344   -9.0168775    528.93416 0.0095406595 0.0079917206           43 
 4621000   0.51314022   -9.0204707    528.42713 0.0095294512 0.0079888859           51 
 4622000   0.51559951   -9.0345522    529.04285 0.0095384907 0.0079860544           49 
 4623000   0.51365365   -9.0234484    528.85028 0.0095329563 0.0079832228           37 
 4624000   0.53048342   -9.0294994    528.66202 0.0095275017 0.0079803941           37 
 4625000     0.503071   -9.0268442    528.56613  0.009523714 0.0079775663           42 
 4626000   0.51436047   -9.0244593    528.34229  0.009517623 0.0079747398           56 
 4627000   0.51122514   -9.0305568    528.92632 0.0095260846 0.0079719174           60 
 4628000   0.50065356   -9.0181566    527.97035 0.0095068127 0.0079690952           47 
 4629000    0.5135651   -9.0152424    528.98092 0.0095229517  0.007966271           41 
 4630000   0.50759142   -9.0334815     528.1647 0.0095062041 0.0079634514           61 
 4631000   0.51985506   -9.0266912    528.11494 0.0095032559 0.0079606294           43 
 4632000   0.51274584   -9.0262715    528.86442  0.009514688 0.0079578091           56 
 4633000   0.51169451   -9.0283344    528.41858 0.0095046151  0.007954994           46 
 4634000   0.50258413   -9.0262668    528.54999 0.0095049271 0.0079521772           52 
 4635000   0.50917783   -9.0258276    528.84666 0.0095082103 0.0079493626           48 
 4636000     0.510167    -9.016071    528.49329 0.0094998075 0.0079465481           48 
 4637000   0.52102183   -9.0409675    528.22093 0.0094928642 0.0079437344           58 
 4638000   0.52392944   -9.0231884    528.74613 0.0095002539 0.0079409231           45 
 4639000   0.50873161   -9.0140133    529.31508 0.0095084263 0.0079381123           66 
 4640000    0.5009334   -9.0290875    529.49264 0.0095095661 0.0079353039           44 
 4641000    0.5135582   -9.0219853    528.85164 0.0094960073  0.007932497           44 
 4642000   0.51081168   -9.0256833    529.16183 0.0094995302 0.0079296929           65 
 4643000   0.51127244   -9.0250643    528.34519 0.0094828271 0.0079268879           56 
 4644000   0.49947942   -9.0481393    528.60191 0.0094853917 0.0079240843           63 
 4645000   0.51339903   -9.0250788    528.74058 0.0094858374 0.0079212809           63 
 4646000   0.51048362   -9.0329087    528.08818  0.009472094 0.0079184811           49 
 4647000   0.51114561   -9.0278095    528.42749 0.0094761404 0.0079156783           52 
 4648000   0.51312238   -9.0165548    527.67243 0.0094605643 0.0079128781           44 
 4649000   0.51221229   -9.0396003    528.37231 0.0094710747 0.0079100829           53 
 4650000    0.5091217   -9.0295685    528.14781 0.0094650145 0.0079072867           44 
 4651000    0.5021117   -9.0393117     528.4717 0.0094687826 0.0079044923           58 
 4652000   0.50544593   -9.0305858    529.23787 0.0094804719 0.0079016984           49 
 4653000    0.5087945   -9.0315371    527.99372 0.0094561523  0.007898905           66 
 4654000   0.49490543   -9.0503886    528.46456 0.0094625513 0.0078961117           52 
 4655000    0.5024927   -9.0251406    529.14955  0.009472781 0.0078933221           53 
 4656000   0.50324289   -9.0263469    528.41541 0.0094576069 0.0078905311           45 
 4657000   0.51085353   -9.0361354    528.19002 0.0094515429 0.0078877426           52 
 4658000   0.51719105   -9.0333226    528.34385 0.0094522658 0.0078849552           64 
 4659000   0.49955791   -9.0400587    527.52096 0.0094355184 0.0078821676           41 
 4660000   0.50982608   -9.0408211    528.39244  0.009449078 0.0078793817           52 
 4661000   0.51183384   -9.0408281    528.83404 0.0094549459 0.0078765966           61 
 4662000   0.49818904   -9.0295509    528.77897 0.0094519335 0.0078738137           54 
 4663000   0.51064952   -9.0274972    527.99842 0.0094359571 0.0078710325           48 
 4664000   0.50048006   -9.0234922    528.34051 0.0094400463 0.0078682543           53 
 4665000   0.51398363   -9.0312483     528.4733 0.0094403948 0.0078654763           53 
 4666000   0.50428126   -9.0356693    529.49626 0.0094566413 0.0078626982           49 
 4667000   0.50770501   -9.0250896    528.47747 0.0094364236 0.0078599235           46 
 4668000   0.51427816   -9.0252712    528.25162 0.0094303703 0.0078571503           54 
 4669000   0.49557387   -9.0456831    528.50068 0.0094327958 0.0078543771           47 
 4670000    0.5037809   -9.0122407    528.15002 0.0094245186 0.0078516062           54 
 4671000   0.49261471   -9.0631833    528.83697 0.0094347566 0.0078488342           50 
 4672000   0.49952884   -9.0411923    528.36194  0.009424264 0.0078460629           46 
 4673000    0.4991917   -9.0190131    528.23056 0.0094199044 0.0078432948           48 
 4674000   0.51264573   -9.0398091    528.51628 0.0094229832 0.0078405285           47 
 4675000   0.50428729   -9.0179473    527.99562 0.0094116865  0.007837767           50 
 4676000   0.51179084   -9.0206892    528.59119 0.0094202878 0.0078350046           54 
 4677000   0.50487947   -9.0346989    527.96221 0.0094070667 0.0078322424           53 
 4678000    0.5012531    -9.041555    529.18114 0.0094267697 0.0078294812           50 
 4679000   0.50387893    -9.037637    528.48655 0.0094123842 0.0078267217           58 
 4680000   0.50043432   -9.0339272    528.12002 0.0094038466 0.0078239609           58 
 4681000   0.50666883   -9.0294137     527.9926 0.0093995691 0.0078212027           54 
 4682000   0.50581614   -9.0413096    528.27125 0.0094025211 0.0078184447           50 
 4683000    0.5106835   -9.0552576    528.02285 0.0093960931 0.0078156867           77 
 4684000   0.50354931   -9.0371794     528.0794 0.0093950932   0.00781293           56 
 4685000   0.50492156   -9.0398113    527.93291 0.0093904822 0.0078101731           52 
 4686000   0.50217855   -9.0294063    528.16411 0.0093925898 0.0078074216           56 
 4687000   0.49994079   -9.0344785    528.44065 0.0093955026 0.0078046699           52 
 4688000   0.49728614   -9.0289112    528.48689 0.0093943204 0.0078019195           59 
 4689000   0.50555072   -9.0337491    528.36937 0.0093902284 0.0077991686           56 
 4690000   0.48921174   -9.0266316    528.51034 0.0093907309 0.0077964218           57 
 4691000    0.5186146   -9.0416378    527.84373 0.0093768872 0.0077936751           50 
 4692000   0.49943834   -9.0528195    528.39502 0.0093846799 0.0077909329           44 
 4693000   0.49263801   -9.0454498    527.93348 0.0093744847 0.0077881899           50 
 4694000   0.50768708    -9.038381    527.17629 0.0093590451 0.0077854487           50 
 4695000   0.50149486   -9.0427085    528.29319 0.0093768759  0.007782708           49 
 4696000   0.50161162   -9.0335375    528.39772  0.009376734 0.0077799677           45 
 4697000   0.50960939   -9.0450091    528.60909 0.0093784878 0.0077772304           47 
 4698000   0.49050944   -9.0423407    528.54681 0.0093753868 0.0077744932           55 
 4699000    0.4840641   -9.0560523    527.19721 0.0093494574 0.0077717532           38 
 4700000   0.50136652   -9.0484298    528.45711 0.0093698069 0.0077690147           52 
 4701000   0.48080319   -9.0520669    527.53808 0.0093515223 0.0077662794           45 
 4702000   0.51295116   -9.0389544    528.43932 0.0093655061 0.0077635423           50 
 4703000   0.49987052   -9.0467005    528.21471 0.0093595349 0.0077608079           56 
 4704000   0.51463894   -9.0307505      528.113 0.0093557434 0.0077580754           51 
 4705000   0.49811896   -9.0283098    527.82039 0.0093485723 0.0077553468           46 
 4706000   0.49477915   -9.0342201    528.68753 0.0093619409 0.0077526193           49 
 4707000   0.50733677   -9.0388503    527.91419 0.0093462608 0.0077498917           44 
 4708000   0.49669685   -9.0378743    527.83106 0.0093428041 0.0077471642           59 
 4709000   0.49329621   -9.0424678    528.02102 0.0093441817  0.007744438           62 
 4710000   0.48891987   -9.0353426    528.36956 0.0093483644 0.0077417136           54 
 4711000   0.50016042   -9.0440197    526.97414 0.0093216964 0.0077389904           55 
 4712000   0.49386977   -9.0476181    527.55891 0.0093300599 0.0077362694           48 
 4713000   0.49865737   -9.0345191     527.0683 0.0093194056 0.0077335469           43 
 4714000   0.50027915   -9.0448747    527.83916 0.0093310557 0.0077308278           53 
 4715000   0.50206513   -9.0509532    528.08971  0.009333505 0.0077281092           73 
 4716000   0.50278908   -9.0475868    527.81286 0.0093266337 0.0077253953           68 
 4717000   0.50708817   -9.0552879    528.39351 0.0093349147 0.0077226813           67 
 4718000   0.49511792   -9.0521592    528.31783 0.0093315994 0.0077199698           51 
 4719000   0.50258606   -9.0376515    527.86746 0.0093216688 0.0077172574           47 
 4720000   0.49938515   -9.0460856    528.02657  0.009322503  0.007714547           50 
 4721000   0.49230225   -9.0465047    528.39587  0.009327047 0.0077118389           53 
 4722000   0.48279318   -9.0308659     528.2265 0.0093220828 0.0077091301           50 
 4723000   0.49639161   -9.0622787    528.56174 0.0093260241 0.0077064215           51 
 4724000   0.48967643   -9.0493214    528.28269 0.0093191273 0.0077037155           49 
 4725000   0.49824304   -9.0492154    527.95634 0.0093113993 0.0077010096           58 
 4726000   0.49960046   -9.0433516    527.82101 0.0093070427 0.0076983061           51 
 4727000   0.49591583    -9.055451    528.15299 0.0093109264 0.0076956031           49 
 4728000   0.49180775    -9.040137    527.74605 0.0093017845 0.0076928998           45 
 4729000   0.48901197   -9.0449479    527.78402 0.0093004867 0.0076901973           60 
 4730000   0.49757782   -9.0573928    527.62548 0.0092957273  0.007687497           55 
 4731000   0.49752615   -9.0633815    527.24368 0.0092870372 0.0076847997           54 
 4732000   0.49885956    -9.058452    527.33513 0.0092866851 0.0076821031           49 
 4733000   0.49658401   -9.0632349    527.89321 0.0092945491 0.0076794068           54 
 4734000    0.4891827   -9.0531544    527.20689 0.0092805043  0.007676713           51 
 4735000   0.49168626   -9.0543153    527.28928 0.0092799944 0.0076740198           50 
 4736000   0.49615122   -9.0461182    527.75099 0.0092861591 0.0076713287           59 
 4737000   0.49715345   -9.0527139    527.75902 0.0092843399 0.0076686399           53 
 4738000   0.49834284   -9.0471941    527.66365  0.009280703 0.0076659509           51 
 4739000   0.49856345   -9.0492122    528.16627  0.009287583  0.007663262           53 
 4740000   0.48802553    -9.055281    527.99889 0.0092826808 0.0076605775           43 
 4741000   0.49416362   -9.0580629    528.77361 0.0092943403 0.0076578918           46 
 4742000    0.4917767   -9.0481831    528.40816 0.0092859581 0.0076552094           36 
 4743000   0.48791876   -9.0741432    527.63521 0.0092704197 0.0076525278           52 
 4744000   0.49897226   -9.0489404    527.49236 0.0092659562 0.0076498428           48 
 4745000    0.4951406   -9.0602805    527.84824 0.0092702537 0.0076471626           46 
 4746000    0.4960337   -9.0649856    527.78848  0.009267251 0.0076444829           46 
 4747000   0.48527851   -9.0447996    527.15253 0.0092541348 0.0076418041           52 
 4748000   0.49238812   -9.0543014    527.67615 0.0092613758 0.0076391264           43 
 4749000   0.49182801   -9.0511563    527.07912 0.0092489493 0.0076364522           50 
 4750000   0.49556549    -9.066531    528.04186 0.0092638923 0.0076337794           52 
 4751000   0.49523436   -9.0547447    527.53964 0.0092531334 0.0076311045           50 
 4752000   0.48445409   -9.0626848    527.65055 0.0092531311 0.0076284317           52 
 4753000   0.49047335   -9.0439051    526.71996 0.0092348685 0.0076257617           56 
 4754000   0.49874354   -9.0617221    527.89314 0.0092534907 0.0076230897           53 
 4755000   0.48685161   -9.0581738    527.33922  0.009241837 0.0076204188           53 
 4756000   0.48847293   -9.0474038    528.11457 0.0092534793 0.0076177534           55 
 4757000   0.48932968   -9.0489332    527.58441 0.0092422467 0.0076150872           44 
 4758000   0.49504025   -9.0616312    527.46512 0.0092382149 0.0076124205           65 
 4759000    0.4874869   -9.0629593    527.87823 0.0092435075 0.0076097582           46 
 4760000   0.49017092   -9.0547319    527.95282 0.0092428714 0.0076070948           33 
 4761000   0.48988014   -9.0593935    528.53383 0.0092510997  0.007604431           49 
 4762000   0.48694422    -9.065872    527.86412 0.0092374374  0.007601772           43 
 4763000   0.47729048   -9.0508887    527.76946 0.0092338418 0.0075991122           53 
 4764000   0.50980242   -9.0478291    527.51378  0.009227431 0.0075964562           48 
 4765000   0.47759086   -9.0714869    527.70058 0.0092287614 0.0075937986           39 
 4766000   0.50022019   -9.0577856    526.99907 0.0092145592 0.0075911423           48 
 4767000    0.4821382   -9.0548904    527.99471 0.0092300314 0.0075884881           48 
 4768000    0.5024524    -9.057395    527.92041 0.0092267968 0.0075858348           42 
 4769000   0.48989525   -9.0451272    527.38913 0.0092155785 0.0075831828           48 
 4770000   0.49259396   -9.0687294     527.7904 0.0092206569 0.0075805323           36 
 4771000   0.47695381   -9.0590766    527.41616 0.0092121876 0.0075778827           48 
 4772000    0.4932279   -9.0624602      528.136 0.0092228277 0.0075752335           54 
 4773000   0.48990278   -9.0647922     527.6055 0.0092116332 0.0075725853           49 
 4774000   0.48860227   -9.0632243    528.57692 0.0092266603 0.0075699378           46 
 4775000   0.48417035   -9.0622809    527.36823  0.009203634 0.0075672902           44 
 4776000   0.49287177   -9.0627187    527.34169 0.0092012439 0.0075646464           47 
 4777000   0.49417193   -9.0648112    527.36902 0.0091997945 0.0075620037           49 
 4778000   0.48231436   -9.0768387    526.91765 0.0091899967 0.0075593629           43 
 4779000   0.49493677     -9.06565    528.04233 0.0092076852 0.0075567212           52 
 4780000   0.48151459   -9.0706841     527.6278 0.0091985321 0.0075540797           49 
 4781000   0.49078934   -9.0588351    527.93631 0.0092019855 0.0075514417           45 
 4782000     0.488052   -9.0703143    527.60403 0.0091942707 0.0075488056           54 
 4783000   0.48307305   -9.0396803    527.39533 0.0091887123 0.0075461707           46 
 4784000   0.48457136   -9.0557417    527.72102 0.0091924648 0.0075435374           52 
 4785000   0.50651156   -9.0429867    527.05761 0.0091789901 0.0075409059           40 
 4786000   0.49104285   -9.0672567    526.99711 0.0091760187 0.0075382768           59 
 4787000   0.48785271   -9.0503053    527.04265 0.0091748947 0.0075356483           46 
 4788000   0.48151713   -9.0645046    526.99441 0.0091721388 0.0075330177           45 
 4789000   0.47854444   -9.0768862    527.82948 0.0091847546 0.0075303893           39 
 4790000   0.48391799   -9.0630803    527.53194 0.0091776608 0.0075277623           45 
 4791000   0.48364565   -9.0666514    527.36705 0.0091728771 0.0075251344           48 
 4792000   0.48951979   -9.0690861     527.9313 0.0091807752  0.007522509           48 
 4793000   0.48183497   -9.0770745    527.95401 0.0091792547 0.0075198856           54 
 4794000    0.4837662   -9.0672381     527.1111 0.0091626878 0.0075172633           48 
 4795000   0.48925824   -9.0684296    527.77767 0.0091723613 0.0075146414           43 
 4796000   0.48338494    -9.062542    526.48069  0.009147913 0.0075120205           50 
 4797000   0.50162375   -9.0613285    526.76687 0.0091509774  0.007509401           61 
 4798000   0.48847322   -9.0736205    527.09025 0.0091546868 0.0075067835           47 
 4799000   0.49976192   -9.0792307    527.67976  0.009163016 0.0075041672           40 
 4800000   0.49353528   -9.0753292    527.22303 0.0091531776 0.0075015516           50 
 4801000   0.47754393   -9.0671992    527.12375 0.0091495479 0.0074989366           50 
 4802000   0.48247845   -9.0687481    527.08967 0.0091470511  0.007496324           48 
 4803000   0.48214565    -9.070392    526.81393 0.0091403625 0.0074937112           54 
 4804000   0.48600036   -9.0531235    527.43079 0.0091491602 0.0074910991           50 
 4805000    0.4924822   -9.0772472    526.35282 0.0091285609 0.0074884904           50 
 4806000   0.47453443   -9.0644303    527.59619 0.0091482209 0.0074858827           60 
 4807000   0.48158636   -9.0850545    527.13695 0.0091383564 0.0074832765           47 
 4808000   0.48405848    -9.069966    526.51418 0.0091256618 0.0074806718           58 
 4809000   0.47292182   -9.0693979    527.17114 0.0091351484 0.0074780663           46 
 4810000   0.47794508    -9.062568    526.76738  0.009126254 0.0074754632           51 
 4811000   0.49353652    -9.064394    527.44589 0.0091361098 0.0074728617           58 
 4812000   0.48686252   -9.0747173    527.81086 0.0091405316 0.0074702616           46 
 4813000   0.47675383   -9.0632057    526.53344  0.009116515 0.0074676604           52 
 4814000   0.48077679   -9.0668946     527.5061 0.0091314587 0.0074650618           51 
 4815000   0.48416485   -9.0786163    527.13722 0.0091231779 0.0074624627           61 
 4816000   0.46965557   -9.0694954    527.55174 0.0091284562 0.0074598666           64 
 4817000   0.48202804    -9.085372    527.33512 0.0091228137 0.0074572728           54 
 4818000   0.49044141   -9.0675798    527.23947 0.0091192657  0.007454678           48 
 4819000   0.49085696   -9.0842547    527.32694  0.009118886 0.0074520864           48 
 4820000   0.48502279     -9.08851    527.83931 0.0091258525  0.007449495           46 
 4821000   0.47774728   -9.0960423    526.79602 0.0091059259 0.0074469037           60 
 4822000   0.48246548   -9.0826084    527.44276 0.0091152143 0.0074443138           52 
 4823000    0.4755846   -9.0681902    527.08786 0.0091071923 0.0074417263           50 
 4824000   0.49206147   -9.0762745    527.12846 0.0091060057 0.0074391376           41 
 4825000   0.48081251   -9.0642597    527.62438 0.0091126836 0.0074365534           52 
 4826000   0.48661715   -9.0624137    527.36527 0.0091063211 0.0074339688           57 
 4827000   0.48424536   -9.0827847    527.64644 0.0091092886 0.0074313875           47 
 4828000   0.48285028   -9.0601599    527.01212 0.0090964534 0.0074288072           46 
 4829000   0.47295418   -9.0755154    527.76188 0.0091075081 0.0074262279           44 
 4830000   0.47699685   -9.0878565    526.92427  0.009091171 0.0074236491           41 
 4831000   0.47749322   -9.0882674    528.09791  0.009109534 0.0074210695           41 
 4832000   0.46997189   -9.0684456    527.08245 0.0090901361 0.0074184932           55 
 4833000   0.46781696   -9.0691603    526.59439 0.0090798398 0.0074159142           45 
 4834000   0.47986863   -9.0729551    526.85074 0.0090823808 0.0074133396           40 
 4835000   0.47815632   -9.0772768    527.62371 0.0090938247 0.0074107671           39 
 4836000   0.47121157   -9.0816132    527.07087 0.0090824178 0.0074081934           49 
 4837000   0.47429278   -9.0916645    526.90729 0.0090777219 0.0074056215           55 
 4838000   0.47884453   -9.0679625    528.41807 0.0091018684 0.0074030495           45 
 4839000    0.4850571   -9.0801633    527.32914 0.0090812347 0.0074004804           40 
 4840000   0.47482188   -9.0794428    527.29518 0.0090787738 0.0073979115           47 
 4841000   0.48156842   -9.0775729     527.1067 0.0090736538 0.0073953431           53 
 4842000   0.48926355   -9.0664176    527.16364 0.0090727599 0.0073927749           43 
 4843000   0.47020828   -9.0878188     526.8384 0.0090652901 0.0073902084           54 
 4844000   0.48590287    -9.075422    526.13939 0.0090513934  0.007387646           50 
 4845000   0.47176004   -9.0664152    527.12946 0.0090665542  0.007385083           51 
 4846000   0.47016095   -9.0830975    527.48432 0.0090707856 0.0073825209           43 
 4847000   0.49297882    -9.068797    526.92431  0.009059286 0.0073799613           45 
 4848000   0.48474833   -9.0998416    527.22126 0.0090625217 0.0073774031           54 
 4849000   0.47488051   -9.0791975    527.24108 0.0090609934 0.0073748454           60 
 4850000   0.47206694   -9.0819384    527.13764 0.0090573478 0.0073722879           48 
 4851000   0.46415407   -9.0691533    527.34238 0.0090589978 0.0073697328           49 
 4852000   0.47768923   -9.0755219    526.76997 0.0090472996 0.0073671777           51 
 4853000   0.47218738   -9.0574558     526.7836 0.0090456693 0.0073646241           41 
 4854000   0.47064103   -9.0948808    527.18517 0.0090506999   0.00736207           57 
 4855000   0.47639129   -9.0788511    526.96855 0.0090451175 0.0073595175           44 
 4856000   0.47888902   -9.0926226    527.33153 0.0090494839 0.0073569652           51 
 4857000   0.47008412    -9.079475    527.05947 0.0090429529 0.0073544168           52 
 4858000   0.47586915   -9.0764343    526.76974 0.0090361215 0.0073518663           57 
 4859000   0.47157953   -9.0976479    526.57614 0.0090309416 0.0073493166           52 
 4860000   0.47725815   -9.0964026    526.91662 0.0090349214 0.0073467722           49 
 4861000   0.47182351   -9.0817344     526.7427 0.0090300813 0.0073442261           48 
 4862000   0.46662843   -9.0756686    527.09115 0.0090341963 0.0073416822           52 
 4863000   0.46960963   -9.0737407    526.49431  0.009022111 0.0073391391           48 
 4864000   0.47039679   -9.0744561    527.22496 0.0090327741  0.007336598           51 
 4865000   0.49029629   -9.0921457    526.83452 0.0090242296 0.0073340553           48 
 4866000   0.46955356   -9.0891791    526.57249 0.0090178876 0.0073315148           52 
 4867000    0.4630624   -9.0786289    526.99394 0.0090232509 0.0073289759           61 
 4868000   0.47050314   -9.0910247    527.40196  0.009028382 0.0073264397           48 
 4869000    0.4703136   -9.0904902     527.1215 0.0090217277 0.0073239029           42 
 4870000   0.46175873   -9.0703374     526.5044 0.0090093156 0.0073213671           43 
 4871000   0.48157743   -9.0816242    527.18617 0.0090191297 0.0073188329           43 
 4872000   0.46843396   -9.1032429    527.29191 0.0090190871 0.0073162984           60 
 4873000    0.4663857   -9.1032412    526.53077   0.00900422 0.0073137677           48 
 4874000   0.46247893   -9.0845044    527.18699 0.0090135924 0.0073112361           39 
 4875000   0.46903968     -9.06299    526.69217  0.009003285 0.0073087077           47 
 4876000   0.46383921   -9.0840509    527.14963 0.0090092568 0.0073061786           46 
 4877000    0.4675584   -9.0749316     527.1239 0.0090069698 0.0073036518           48 
 4878000   0.46610235   -9.0999321    527.99699 0.0090200388 0.0073011261           48 
 4879000   0.47910594   -9.0896122    527.26583 0.0090057018 0.0072985999           46 
 4880000   0.45497088   -9.0817075    526.56136 0.0089918265 0.0072960748           49 
 4881000   0.47652049   -9.0961405    527.65474 0.0090086516 0.0072935532           46 
 4882000   0.47472042    -9.070256    527.12243   0.00899772  0.007291032           46 
 4883000   0.48112121   -9.0950288    526.33558  0.008982449 0.0072885109           47 
 4884000   0.46854417   -9.0798718     526.5166 0.0089836985 0.0072859936           49 
 4885000   0.47491013   -9.0624286    527.42258 0.0089973147 0.0072834773           44 
 4886000   0.47992753   -9.0941072    526.71069 0.0089833315 0.0072809632           52 
 4887000   0.47988015   -9.0917033    526.97873 0.0089860639 0.0072784507           37 
 4888000   0.46350826   -9.0868316    526.38133 0.0089740408 0.0072759382           46 
 4889000   0.45995646   -9.0962933     527.0427 0.0089834783 0.0072734238           50 
 4890000    0.4672971   -9.0865094    527.37369 0.0089872817 0.0072709141           43 
 4891000   0.46281698   -9.0836067    525.30359 0.0089501736 0.0072684033           47 
 4892000   0.46838105   -9.0815855    527.26144 0.0089816953 0.0072658935           50 
 4893000   0.47267475   -9.0765598    526.81869 0.0089723191 0.0072633859           45 
 4894000     0.470049   -9.0925192    527.70524 0.0089855816 0.0072608795           48 
 4895000   0.47912811   -9.0990016    527.20045 0.0089751524 0.0072583744           59 
 4896000   0.46502028   -9.0943442    526.19388 0.0089561867 0.0072558682           52 
 4897000    0.4710991   -9.1019464    527.24207 0.0089721951 0.0072533636           48 
 4898000    0.4701148   -9.0787945    526.66185 0.0089604915   0.00725086           43 
 4899000   0.46239469   -9.0945505    527.50509 0.0089730062 0.0072483579           43 
 4900000   0.45908175   -9.0867774    526.36921 0.0089518573 0.0072458582           47 
 4901000   0.46520593   -9.0896596    527.12665 0.0089629097 0.0072433581           43 
 4902000    0.4698455   -9.0902875     527.5434 0.0089681661  0.007240859           44 
 4903000   0.46695359   -9.0842669    527.85091 0.0089715635 0.0072383619           44 
 4904000   0.45985064   -9.0766852    526.93323   0.00895414 0.0072358651           49 
 4905000   0.46483614   -9.0896399    526.22055 0.0089402065 0.0072333714           48 
 4906000   0.46841829   -9.1118958    526.95033 0.0089507802 0.0072308774           53 
 4907000   0.47382101   -9.1013826    526.94069 0.0089487923 0.0072283841           53 
 4908000   0.47498861   -9.0738303    526.74832 0.0089437028  0.007225891           50 
 4909000   0.47643357   -9.1027102    526.67559 0.0089406462 0.0072234007           52 
 4910000   0.47153116   -9.0896915    526.59038 0.0089373792 0.0072209072           52 
 4911000   0.45545625   -9.0947462    527.03703 0.0089431383 0.0072184189           50 
 4912000   0.44879059   -9.0826839    526.02933 0.0089242218 0.0072159311           46 
 4913000   0.46998509   -9.0907418    526.69094 0.0089336275 0.0072134438           50 
 4914000   0.45809655   -9.0870479    525.72707 0.0089154638 0.0072109579           49 
 4915000   0.47832692   -9.0969117    526.34545 0.0089241344 0.0072084739           47 
 4916000   0.46494615   -9.0964588    526.64172 0.0089273414 0.0072059921           48 
 4917000   0.45773955   -9.0944463    527.20253 0.0089350304 0.0072035076           54 
 4918000   0.46970256    -9.089762    526.28006 0.0089175826 0.0072010275           43 
 4919000   0.46274311   -9.1041484    526.82802 0.0089250528 0.0071985469           42 
 4920000   0.46426188   -9.0949516    526.56993 0.0089188674   0.00719607           47 
 4921000   0.46778483   -9.1006696    526.95834 0.0089236323 0.0071935928           46 
 4922000   0.46555297   -9.0944339    526.69294  0.008917326 0.0071911158           52 
 4923000   0.45828441   -9.0980858    525.96054 0.0089031171   0.00718864           45 
 4924000   0.46391191   -9.0888553    526.85234 0.0089164016 0.0071861661           45 
 4925000   0.45684206   -9.0849069    526.20055 0.0089035625 0.0071836921           45 
 4926000   0.45356628   -9.0873767    526.11782 0.0089003555  0.007181218           45 
 4927000   0.47896156   -9.0948525    526.60937 0.0089068631 0.0071787489           42 
 4928000   0.46937037   -9.1101552    526.51081  0.008903389 0.0071762806           38 
 4929000   0.46222573   -9.0880376    526.63196 0.0089036309 0.0071738132           52 
 4930000   0.45876294   -9.0938429    526.06158 0.0088921836 0.0071713458           46 
 4931000   0.46815274   -9.0983466    525.96266 0.0088887085 0.0071688816           50 
 4932000   0.46618255   -9.0863208    527.34817 0.0089103164  0.007166417           45 
 4933000   0.46019715   -9.0875059    526.84446  0.008900001 0.0071639536           42 
 4934000   0.46303209   -9.1018228     526.5935 0.0088939585 0.0071614902           44 
 4935000    0.4659282   -9.0985247    527.51112 0.0089076514 0.0071590291           44 
 4936000    0.4579751   -9.1163077    526.38055 0.0088867597 0.0071565685           42 
 4937000   0.45538316   -9.0833945     526.1324  0.008880771 0.0071541072           46 
 4938000   0.45673522   -9.1203746    526.92692 0.0088923808 0.0071516464           40 
 4939000   0.46669003   -9.1040222    526.15007  0.008877473 0.0071491888           55 
 4940000   0.46522489   -9.0993922    526.06568 0.0088742523  0.007146733           49 
 4941000   0.46401086   -9.0931329    526.94886 0.0088873517 0.0071442787           46 
 4942000   0.46166431   -9.1038009    526.80671 0.0088831564  0.007141822           48 
 4943000   0.45994302   -9.0838037     526.9395 0.0088835981 0.0071393704           43 
 4944000   0.45034275   -9.1019577    525.79155 0.0088624519 0.0071369188           44 
 4945000   0.46505711   -9.1158905    526.81621 0.0088779273 0.0071344678           46 
 4946000   0.46295028   -9.0866637    526.88487 0.0088772892 0.0071320172           50 
 4947000   0.46444626   -9.0860565    526.77624 0.0088736648 0.0071295686           52 
 4948000   0.46748971   -9.0964681    526.25274 0.0088630547 0.0071271208           40 
 4949000   0.46484849   -9.1062007    526.67776 0.0088684205 0.0071246719           45 
 4950000    0.4649014   -9.0948873    526.50145 0.0088636607 0.0071222279           46 
 4951000   0.45958541   -9.1017362    527.09469 0.0088718558 0.0071197846           44 
 4952000   0.45833628   -9.0999314    525.77824 0.0088479106 0.0071173424           45 
 4953000   0.46840012   -9.1066071    526.99055 0.0088665212 0.0071149001           53 
 4954000    0.4656654   -9.1199331    526.29248 0.0088529888 0.0071124596           41 
 4955000    0.4476588   -9.1133852    526.35149 0.0088521946 0.0071100216           47 
 4956000   0.46265936   -9.1088337    525.58437 0.0088375095  0.007107582           46 
 4957000   0.45882068   -9.1071994    526.22214 0.0088464484 0.0071051442           50 
 4958000   0.45723766   -9.1113051    526.39301 0.0088475361 0.0071027083           49 
 4959000   0.45600144   -9.1047356    527.08732 0.0088574196  0.007100271           47 
 4960000   0.45306958   -9.1032613     526.5699 0.0088469406 0.0070978358           47 
 4961000   0.46964354    -9.105459    525.83704 0.0088328468 0.0070954035           45 
 4962000    0.4630679   -9.1039732     526.3336 0.0088394061 0.0070929688           48 
 4963000   0.45098227   -9.1163151    526.29029 0.0088368978 0.0070905368           43 
 4964000   0.46018054    -9.111786    526.68445 0.0088417346 0.0070881089           48 
 4965000   0.45888278   -9.0994308    525.93949 0.0088274504 0.0070856793           44 
 4966000   0.45503372   -9.1062937    525.95243 0.0088258898 0.0070832511           43 
 4967000    0.4508664   -9.1070985    526.31147 0.0088301367 0.0070808251           58 
 4968000   0.45525311   -9.1319948    525.57201 0.0088159555 0.0070783991           46 
 4969000    0.4655636   -9.1120678    526.17474 0.0088242896 0.0070759717           46 
 4970000   0.46076629   -9.1033618     526.2702 0.0088241146 0.0070735464           42 
 4971000   0.45116056   -9.0958933    525.94551 0.0088168965 0.0070711264           49 
 4972000   0.46555304   -9.1109853    526.33864 0.0088217123 0.0070687056           52 
 4973000   0.45665777   -9.1234336    526.36624 0.0088204008  0.007066288           47 
 4974000   0.45727593   -9.1132452    526.22633 0.0088162834 0.0070638681           51 
 4975000    0.4495406   -9.1204869     525.5429 0.0088030637 0.0070614494           51 
 4976000    0.4472291   -9.1194866    526.35433 0.0088148835 0.0070590312           45 
 4977000   0.46513528   -9.1162277    527.04249 0.0088246349 0.0070566151           48 
 4978000   0.46017497     -9.11334    526.12287 0.0088074673 0.0070542004           50 
 4979000   0.45742861   -9.1112886    525.68383 0.0087983503 0.0070517883           52 
 4980000   0.44416954   -9.1205022    526.30554 0.0088069869 0.0070493738           43 
 4981000   0.45646601   -9.1242909    526.82821 0.0088139632 0.0070469617           57 
 4982000   0.46213101    -9.099482    526.87623 0.0088129973 0.0070445499           49 
 4983000    0.4552789   -9.1238899    526.19901 0.0087999031 0.0070421399           43 
 4984000   0.46777354   -9.0967185     526.1164 0.0087967562 0.0070397296           48 
 4985000   0.45883166   -9.1101069    526.40883 0.0087998801 0.0070373221           46 
 4986000     0.450069   -9.1080467    526.38936 0.0087977899 0.0070349158           48 
 4987000    0.4604958   -9.1168727    526.54697 0.0087986594 0.0070325109           48 
 4988000   0.45320688   -9.1100936    526.73278 0.0087999997  0.007030107           49 
 4989000   0.45405663   -9.1135408    526.22645 0.0087897783 0.0070277016           39 
 4990000   0.46453316   -9.1217311    525.97432 0.0087838062  0.007025296           53 
 4991000   0.44327796   -9.1153618    526.76937  0.008795321 0.0070228932           48 
 4992000    0.4531917   -9.1142642    525.81403 0.0087776113 0.0070204934           56 
 4993000    0.4436113   -9.1111535    526.00353 0.0087790161 0.0070180931           49 
 4994000   0.45311541   -9.1214212    525.69039 0.0087720329  0.007015694           54 
 4995000   0.45354504   -9.1224112    525.92615 0.0087742101 0.0070132961           49 
 4996000   0.45399268   -9.1309798    525.96228 0.0087730565 0.0070108997           52 
 4997000   0.46669872   -9.1220055    525.85613 0.0087695305  0.007008503           54 
 4998000   0.45034535   -9.1240616     526.8579 0.0087844789 0.0070061094           53 
 4999000   0.44733575   -9.1127345    525.86651 0.0087661951 0.0070037145           58 
 5000000   0.46160747   -9.1203983     526.4255 0.0087737583 0.0070013217           54 
 5001000   0.45456536   -9.1230626    526.19578 0.0087681761 0.0069989299           46 
 5002000   0.45349727   -9.1182786    527.24899 0.0087839696 0.0069965418           52 
 5003000   0.45547945    -9.109207    525.27832  0.008749389 0.0069941523           51 
 5004000   0.46152723   -9.1135401    525.83494 0.0087569102 0.0069917631           43 
 5005000   0.43674625   -9.1055427    525.78786 0.0087543766 0.0069893761           46 
 5006000   0.45016421   -9.1074001    526.11418 0.0087580599 0.0069869914           48 
 5007000   0.45270876   -9.1180151    526.45359 0.0087619597 0.0069846077           52 
 5008000   0.46221155   -9.1269826    526.32811 0.0087581222 0.0069822233           64 
 5009000   0.44907718    -9.121284    525.80768 0.0087477154  0.006979844           49 
 5010000     0.449633   -9.1038644    525.68161 0.0087438724 0.0069774621           47 
 5011000   0.45976106   -9.1236414    525.91217 0.0087459617 0.0069750806           54 
 5012000   0.44492804   -9.1064768    526.55974 0.0087549838  0.006972702           51 
Loop time of 12614.5 on 48 procs for 5000000 steps with 4000 atoms

Performance: 68492.666 tau/day, 396.370 timesteps/s
99.4% CPU use with 48 MPI tasks x no OpenMP threads

MPI task timing breakdown:
Section |  min time  |  avg time  |  max time  |%varavg| %total
---------------------------------------------------------------
Pair    | 886.82     | 951.45     | 1031.7     | 116.3 |  7.54
Neigh   | 84.071     | 87.041     | 90.852     |  19.1 |  0.69
Comm    | 778.22     | 861.99     | 930.58     | 125.3 |  6.83
Output  | 14.004     | 14.009     | 14.095     |   0.3 |  0.11
Modify  | 10556      | 10589      | 10611      |  11.5 | 83.94
Other   |            | 110.9      |            |       |  0.88

Nlocal:        83.3333 ave          88 max          76 min
Histogram: 1 2 2 7 3 7 6 7 3 10
Nghost:        2253.69 ave        2272 max        2231 min
Histogram: 2 1 6 6 5 7 6 6 4 5
Neighs:        15161.4 ave       16440 max       13354 min
Histogram: 1 3 2 3 7 9 9 3 6 5
FullNghs:      30359.4 ave       32664 max       27601 min
Histogram: 1 2 4 6 6 7 9 8 4 1

Total # of neighbors = 1457251
Ave neighs/atom = 364.31275
Neighbor list builds = 266532
Dangerous builds = 0

#clear
#
#next RN
#
#jump SELF
Total wall time: 3:30:18
