
units lj                  # Use reduced LJ style units
atom_style atomic         # Uncharged point particles
atom_modify map hash      # Needed for indexing of clusters etc
                          # Used to be able to find where atoms are in relation to each other.

lattice fcc 1.0 spacing 1 1 1
Lattice spacing in x,y,z = 1.5874011 1.5874011 1.5874011
region box block 0 10 0 10 0 10 units lattice
create_box 2 box
Created orthogonal box = (0.0000000 0.0000000 0.0000000) to (15.874011 15.874011 15.874011)
  3 by 4 by 4 MPI processor grid
create_atoms 1 box
Created 4000 atoms
  using lattice units in orthogonal box = (0.0000000 0.0000000 0.0000000) to (15.874011 15.874011 15.874011)
  create_atoms CPU = 0.014 seconds
set type 1 type/fraction 2 0.67 78393
Setting atom values ...
  2693 settings made for type/fraction
mass 1 1.0
mass 2 1.0
pair_style lj/cut  3.5
pair_modify tail  yes
pair_coeff 1  1  1.0  1.0   # Intearaction between 1 and 1 set with epsilon = 1 and sigma = 1
pair_coeff 1  2  1.5  0.8
pair_coeff 2  2  0.5  0.88

write_data data.0
System init for write_data ...
Neighbor list info ...
  update every 1 steps, delay 10 steps, check yes
  max neighbors/atom: 2000, page size: 100000
  master list distance cutoff = 3.8
  ghost atom cutoff = 3.8
  binsize = 1.9, bins = 9 9 9
  1 neighbor lists, perpetual/occasional/extra = 1 0 0
  (1) pair lj/cut, perpetual
      attributes: half, newton on
      pair build: half/bin/atomonly/newton
      stencil: half/bin/3d
      bin: standard
WARNING: Not all mixed pair coeffs generated from mixing. Use write_data with 'pair ij' option to store all pair coeffs. (../write_data.cpp:312)


#############################
#   M E L T   S Y S T E M   #
#############################

velocity all create 2.4 3143649 mom yes dist gaussian # Assign velocities
                                                    # Temperature 2.4, random number seed, zero linear momentum
                                                                                # Gaussian distribution

timestep 0.002   # simulation timestep
thermo 1000       # output thermodynamic data every 1000 steps bf 100

# Define a fix  in this case with index 1 applied to all
# particles in the simulation. This fix is for simulations
# in the anisotropic NPT ensemble. Note that we use the MTK
# correction.
fix 1 all npt temp 2.4 2.4 0.1 iso 5.68 5.68 0.5 mtk yes tchain 5 pchain 5 # Use NPT ensemble
                                                                         # Set temperature and pressure and damping
                                                                         # Numbers of thermostats in chain and in barostat
run 10000          # run for 10000 steps
Per MPI rank memory allocation (min/avg/max) = 3.642 | 3.644 | 3.648 Mbytes
Step Temp E_pair E_mol TotEng Press Volume 
       0          2.4   -4.3445498            0  -0.74544977   -3.8717164         4000 
    1000    2.4548978   -4.0149826            0  -0.33355647    5.7380742    3642.9905 
    2000    2.3622866   -4.0510375            0  -0.50849355    5.5436584    3615.9524 
    3000    2.4474121   -4.0104899            0  -0.34028951    5.5720116      3655.25 
    4000    2.3976219   -3.9467353            0  -0.35120153    6.1380181    3633.6211 
    5000     2.435018   -4.0292918            0  -0.37767795    5.7743197    3615.3926 
    6000    2.4027678   -4.0785444            0  -0.47529367    5.7850339    3590.6746 
    7000    2.3900558   -4.0229729            0  -0.43878545    5.4447189    3659.0792 
    8000    2.4515387   -4.0396069            0  -0.36321816    5.9351608    3608.8334 
    9000    2.3764266   -4.0273726            0  -0.46362377    5.5246869    3648.7746 
   10000    2.3853322   -4.0017887            0  -0.42468491    5.8334021    3628.8855 
Loop time of 2.67616 on 48 procs for 10000 steps with 4000 atoms

Performance: 645701.305 tau/day, 3736.697 timesteps/s
99.6% CPU use with 48 MPI tasks x no OpenMP threads

MPI task timing breakdown:
Section |  min time  |  avg time  |  max time  |%varavg| %total
---------------------------------------------------------------
Pair    | 1.1967     | 1.2739     | 1.3372     |   2.8 | 47.60
Neigh   | 0.21436    | 0.22425    | 0.23252    |   0.8 |  8.38
Comm    | 0.80253    | 0.89245    | 0.98757    |   4.1 | 33.35
Output  | 0.00024707 | 0.00025167 | 0.00032671 |   0.0 |  0.01
Modify  | 0.24254    | 0.2698     | 0.29414    |   2.6 | 10.08
Other   |            | 0.01556    |            |       |  0.58

Nlocal:        83.3333 ave          94 max          68 min
Histogram: 1 0 2 3 0 19 13 5 3 2
Nghost:        1753.27 ave        1783 max        1731 min
Histogram: 4 5 6 8 5 9 5 3 2 1
Neighs:        10517.0 ave       11964 max        8249 min
Histogram: 1 0 4 0 4 10 18 6 2 3

Total # of neighbors = 504818
Ave neighs/atom = 126.20450
Neighbor list builds = 908
Dangerous builds = 216

# Equilibrate just above the melting temperature to avoid step fn in T

fix 1 all npt temp 1.25 1.25 0.1 iso 5.68 5.68 0.5 mtk yes tchain 5 pchain 5
run 2000
Per MPI rank memory allocation (min/avg/max) = 3.644 | 3.646 | 3.650 Mbytes
Step Temp E_pair E_mol TotEng Press Volume 
   10000    2.3853322   -4.0017887            0  -0.42468491    5.8334021    3628.8855 
   11000    1.2369641   -5.9052715            0   -4.0502892    5.9524883    2766.4868 
   12000     1.255277   -5.9641435            0   -4.0816987    5.7431214    2766.4005 
Loop time of 0.667692 on 48 procs for 2000 steps with 4000 atoms

Performance: 517603.744 tau/day, 2995.392 timesteps/s
99.6% CPU use with 48 MPI tasks x no OpenMP threads

MPI task timing breakdown:
Section |  min time  |  avg time  |  max time  |%varavg| %total
---------------------------------------------------------------
Pair    | 0.2921     | 0.3265     | 0.36452    |   2.6 | 48.90
Neigh   | 0.040644   | 0.043867   | 0.047663   |   0.7 |  6.57
Comm    | 0.20825    | 0.24724    | 0.28663    |   3.2 | 37.03
Output  | 5.322e-05  | 5.4294e-05 | 7.1563e-05 |   0.0 |  0.01
Modify  | 0.041904   | 0.045084   | 0.048114   |   0.9 |  6.75
Other   |            | 0.004947   |            |       |  0.74

Nlocal:        83.3333 ave          92 max          75 min
Histogram: 1 4 6 4 9 9 7 5 2 1
Nghost:        2101.96 ave        2122 max        2082 min
Histogram: 1 3 3 11 8 6 7 2 4 3
Neighs:        13801.8 ave       15465 max       12190 min
Histogram: 2 1 5 9 9 9 2 6 3 2

Total # of neighbors = 662487
Ave neighs/atom = 165.62175
Neighbor list builds = 143
Dangerous builds = 7

#############################
# L I N E A R  Q U E N C H  #
#############################

# Define solid atoms. This closely follows ten Wolde  Ruiz-Montero and Frenkel  Faraday Discuss  1996  104  93-110
# Compute components of the per-atom q6 vector
compute q6 all orientorder/atom degrees 1 6 components 6 nnn NULL cutoff 1.3 # compute the Q6 parameter.
                                                                             # Use all neighbours within 1.3 unit cell.

# get number of connections
compute coord_number all coord/atom orientorder q6 0.5

# An atom is solid if it has 8 or more connections (of a possible 14)
variable is_solid atom c_coord_number>=8
group solid dynamic all var is_solid    # Must be dynamic to update
dynamic group solid defined

# do clustering
compute cluster solid cluster/atom 1.3 # Create a cluster where all atoms within are solid and max 1.3 units from another member

# define chunks one chunk per cluster
compute clus_chunks solid chunk/atom c_cluster nchunk every compress yes  # Says which atoms are in which chunk

# count the size of each chunk
compute size_chunks solid property/chunk clus_chunks count


# Find the maximum entry in the vector of chunk sizes
variable max_n equal max(c_size_chunks)


# Thermo style which includes this variable
# thermo_style custom step temp pe vol v_max_n

thermo ${N}  # Print the thermo information every 100 steps
thermo 1000  

# Reset the npt fix at a lower temperature (below freezing)
fix 1  all npt temp  ${temp} ${temp}  0.1  iso  5.68  5.68  0.5  mtk yes tchain  5  pchain  5
fix 1  all npt temp  0.45 ${temp}  0.1  iso  5.68  5.68  0.5  mtk yes tchain  5  pchain  5
fix 1  all npt temp  0.45 0.45  0.1  iso  5.68  5.68  0.5  mtk yes tchain  5  pchain  5

dump dmp2 all dcd ${N} traj.dcd
dump dmp2 all dcd 1000 traj.dcd


compute msd all msd com yes
variable twopoint equal c_msd[4]/6/(step*dt+1.0e-6)
fix 9 all vector 10 c_msd[4]
variable fit equal slope(f_9)/6/(10*dt)
thermo_style custom step temp pe c_msd[4] v_twopoint v_fit v_max_n

fix 1 all npt temp 1.25 ${temp} 0.1 iso 5.68 5.68 0.5 mtk yes tchain 5 pchain 5
fix 1 all npt temp 1.25 0.45 0.1 iso 5.68 5.68 0.5 mtk yes tchain 5 pchain 5
run 5000000 # 5000000  # Run for this many steps
Neighbor list info ...
  update every 1 steps, delay 10 steps, check yes
  max neighbors/atom: 2000, page size: 100000
  master list distance cutoff = 3.8
  ghost atom cutoff = 3.8
  binsize = 1.9, bins = 8 8 8
  4 neighbor lists, perpetual/occasional/extra = 1 3 0
  (1) pair lj/cut, perpetual
      attributes: half, newton on
      pair build: half/bin/atomonly/newton
      stencil: half/bin/3d
      bin: standard
  (2) compute orientorder/atom, occasional
      attributes: full, newton on
      pair build: full/bin/atomonly
      stencil: full/bin/3d
      bin: standard
  (3) compute coord/atom, occasional
      attributes: full, newton on
      pair build: full/bin/atomonly
      stencil: full/bin/3d
      bin: standard
  (4) compute cluster/atom, occasional
      attributes: full, newton on
      pair build: full/bin/atomonly
      stencil: full/bin/3d
      bin: standard
Per MPI rank memory allocation (min/avg/max) = 9.843 | 9.851 | 9.855 Mbytes
Step Temp PotEng c_msd[4] v_twopoint v_fit v_max_n 
   12000     1.255277   -5.9641435 1.0562848e-30 7.3353105e-33 8.3333333e+20            3 
   13000    1.2663701   -5.9527691   0.57997755 0.0037178046  0.048361701            6 
   14000    1.2230561   -6.0227987    1.1881022 0.0070720365  0.050068234            2 
   15000     1.266914   -5.9474778    1.7473193 0.0097073291  0.048611154            2 
   16000    1.2499101   -6.0103545    2.3055539  0.012008093  0.048133076            4 
   17000    1.2473081   -5.9772987    2.8511919  0.013976431  0.047522284            6 
   18000    1.2223587   -5.9910986    3.3622434  0.015565941  0.047102396            3 
   19000     1.256594   -5.9683552    3.9250315   0.01721505   0.04665721            2 
   20000    1.2152767   -6.0183219    4.4316952  0.018465396  0.045954911            2 
   21000    1.2631199   -5.9933496    4.9683166  0.019715542  0.045648739            4 
   22000    1.2478235    -5.984966    5.5367493  0.020972535  0.045516165            4 
   23000    1.2499139   -6.0164331    6.1637353  0.022332374  0.045631928            2 
   24000    1.2657131   -6.0022122     6.632759  0.023030413  0.045768129            2 
   25000    1.2481335   -6.0023649    7.2097461  0.024032486  0.045736545            2 
   26000    1.2758174   -5.9859961    7.7913349  0.024972227  0.045738148            3 
   27000    1.2644721   -6.0010528     8.289489  0.025584842  0.045772443            2 
   28000    1.2616903   -5.9955356    8.7906688  0.026162704   0.04562994            1 
   29000    1.2439488   -6.0119526    9.3967486  0.027002151  0.045595484            2 
   30000    1.2285561   -6.0091333    9.9815876  0.027726632  0.045654833            3 
   31000    1.2756075   -6.0432442    10.485036   0.02818558  0.045680798            2 
   32000    1.2516186   -5.9707556     11.07342  0.028837031   0.04569429            3 
   33000    1.2256021   -5.9666661    11.547248  0.029159717    0.0456621            4 
   34000    1.2527158   -5.9961054    12.156987  0.029796538  0.045688697            4 
   35000    1.2265324   -6.0098483    12.648724  0.030116009  0.045729233            2 
   36000    1.2419299   -6.0025821     13.28954  0.030762823     0.045718            3 
   37000    1.2752842   -5.9798729    14.031721  0.031602974  0.045818065            3 
   38000    1.2417465    -6.017459    14.649942  0.032127065  0.046005979            1 
   39000    1.2270541   -6.0203416    15.192404  0.032462402  0.046192036            3 
   40000    1.2243817   -5.9937253    15.764013  0.032841694  0.046363031            2 
   41000    1.2355313   -6.0218061    16.300252  0.033130593  0.046480132            2 
   42000    1.2283979   -6.0029903    16.912513  0.033556573   0.04657726            5 
   43000    1.2130652   -5.9845571    17.384468   0.03369083  0.046641339            3 
   44000    1.2388025   -5.9965688    17.870925  0.033846449  0.046635108            2 
   45000    1.2461642   -5.9957795    18.288173  0.033866987  0.046565093            3 
   46000    1.2599028   -6.0489451    18.659343  0.033803158  0.046480497            3 
   47000    1.2337129    -5.998663    19.306981  0.034232236  0.046394055            3 
   48000      1.26772   -5.9537081     19.91206  0.034569548  0.046331869            1 
   49000    1.2363235   -5.9580774    20.501149    0.0348659  0.046295816            2 
   50000    1.2468044   -5.9802331    21.088778  0.035147964  0.046273093            2 
   51000    1.2438162   -6.0165615    21.576725  0.035256086  0.046252325            3 
   52000    1.2497712   -6.0235174    22.376239  0.035859357  0.046266803            3 
   53000    1.2293957   -6.0054749    22.966753  0.036111247  0.046292766            3 
   54000    1.2398338   -5.9942815    23.438071  0.036169863  0.046325842            2 
   55000    1.2487662   -6.0373945    23.814227  0.036082162   0.04631154            6 
   56000    1.2123358   -6.0072785     24.52816  0.036500238  0.046321412            2 
   57000    1.2457205   -6.0164132    24.894501   0.03639547  0.046309407            2 
   58000    1.2710937   -6.0499875    25.367868  0.036448086   0.04626867            1 
   59000     1.243524    -6.028294    25.819029  0.036467555   0.04623132            2 
   60000    1.2329743   -6.0355099     26.48174  0.036780194  0.046190886            1 
   61000    1.2329032   -5.9642136    26.968937  0.036842809  0.046155191            3 
   62000    1.2352666   -6.0297653    27.452466  0.036898476  0.046116369            2 
   63000    1.2143942   -5.9809168    28.201978  0.037304203  0.046092096            2 
   64000    1.2149056   -5.9847083    28.816196  0.037521088  0.046066339            2 
   65000    1.2502933   -5.9880668    29.305354  0.037570967  0.046066277            2 
   66000    1.2425764    -6.029899    29.696301  0.037495329  0.046038275            2 
   67000    1.2433437   -6.0291653    30.089272  0.037424467  0.046007134            2 
   68000    1.2241913   -6.0146787    30.595455  0.037494429   0.04595968            6 
   69000    1.2471158    -6.007254    31.289974  0.037789824  0.045932984            2 
   70000    1.2228871    -5.994317    31.845909  0.037911796  0.045901079            2 
   71000    1.2274076   -6.0344489    32.283496  0.037891427  0.045868216            3 
   72000    1.2242179   -6.0058345    32.725226  0.037876419  0.045822938            4 
   73000    1.2378873   -6.0035585    33.247943  0.037954273  0.045756389            3 
   74000    1.2203078   -6.0362277    33.728636  0.037982698  0.045698243            2 
   75000    1.2572741   -6.0676266    34.179275  0.037976972   0.04565083            2 
   76000    1.2421626   -6.0055714    34.873716  0.038238723  0.045607275            3 
   77000    1.2236336   -5.9960334    35.523366  0.038445201  0.045571739            3 
   78000    1.2403621   -6.0348219    35.729236   0.03817226  0.045534147            3 
   79000    1.2600998   -6.0172497    36.527779  0.038531412  0.045494616            1 
   80000    1.2281319    -6.017767    37.122233  0.038668992   0.04546211            2 
   81000    1.2534896    -6.042756    37.580531  0.038663098  0.045434126            2 
   82000    1.2616826   -6.0337226    37.891717  0.038507842  0.045405416            3 
   83000    1.2322244   -6.0004964    38.620432  0.038775534  0.045375739            2 
   84000    1.2212757   -6.0166456    39.353699  0.039041368  0.045359826            2 
   85000    1.2274343   -5.9850214    39.866556  0.039084859  0.045350885            2 
   86000    1.2412173   -6.0068804    40.471791  0.039216851  0.045346317            2 
   87000    1.2503513   -6.0325491    41.149064  0.039414812  0.045345885            3 
   88000    1.2500241   -6.0288259    41.779368  0.039563795  0.045366176            4 
   89000      1.26116   -6.0205531     42.29722  0.039604138  0.045387462            1 
   90000     1.233594   -5.9826794     42.72316  0.039558481  0.045398118            2 
   91000    1.2286115    -6.039523    43.244212  0.039600927  0.045396738            1 
   92000     1.275261   -6.0071878    43.860172  0.039728416  0.045400877            2 
   93000    1.2259496    -6.021913    44.378923   0.03976606  0.045410361            3 
   94000    1.2445963   -6.0278203     45.14579  0.040022863  0.045417353            4 
   95000    1.2426445   -5.9984511    45.456173  0.039873836  0.045418749            2 
   96000    1.2228047   -6.0041081    45.960165  0.039895976  0.045413634            1 
   97000    1.2324122    -6.022516    46.052338  0.039563864  0.045398655            3 
   98000     1.188109   -6.0198015    46.539428  0.039574343   0.04537161            2 
   99000    1.2531858   -5.9566439    47.185401  0.039718351  0.045343405            3 
  100000    1.2427869   -6.0429983    47.617311  0.039681092  0.045311666            1 
  101000    1.2457025   -6.0457547     48.26321   0.03982113  0.045282349            2 
  102000    1.2372814   -6.0726651    48.785191  0.039857182  0.045264028            2 
  103000    1.2532681    -6.044864    49.614071  0.040140834  0.045254633            2 
  104000    1.2232658    -5.980488    49.991757  0.040057498  0.045243929            1 
  105000    1.2375828   -6.0844917    50.170035  0.039817488  0.045221975            3 
  106000    1.2449547   -5.9812856    50.877336  0.039997906  0.045191996            3 
  107000    1.2371283   -6.0347122    51.092737  0.039791851  0.045161153            4 
  108000    1.2508087   -6.0350965    51.462069  0.039708387  0.045119005            3 
  109000    1.2185589    -6.031937    51.910222  0.039686714  0.045075387            2 
  110000    1.2280074   -6.0113625    52.736982  0.039952259  0.045035084            3 
  111000    1.2240315   -5.9967215    53.126804  0.039884988  0.044998375            3 
  112000    1.2502589   -6.0276186    53.642466  0.039912549  0.044966405            2 
  113000    1.2364245   -6.0263545    53.897794  0.039747635  0.044929282            2 
  114000    1.2140929   -6.0247873    54.491618  0.039833054  0.044887372            3 
  115000    1.2122537   -6.0279031    54.983986  0.039843468  0.044847776            2 
  116000      1.25077    -6.009987    55.757871  0.040055942   0.04481091            3 
  117000    1.2356724   -6.0409947    56.092621  0.039952009  0.044781668            4 
  118000    1.2246931   -6.0012616     57.04331  0.040284823  0.044756247            2 
  119000    1.2576176   -6.0199943    57.526497  0.040284662  0.044736128            3 
  120000    1.2288633    -6.055532    57.711253  0.040077259  0.044721552            2 
  121000    1.2340373   -5.9973786    58.566269  0.040334896  0.044697652            1 
  122000    1.2142276   -5.9893062    58.915687  0.040242956  0.044675171            1 
  123000    1.2519179   -6.0473377     59.60708    0.0403842  0.044656939            1 
  124000      1.23319   -6.0027305    60.329539  0.040544045   0.04464152            3 
  125000     1.272873   -5.9672252    61.124523  0.040749682  0.044631083            2 
  126000    1.2269896   -5.9966182    61.793051   0.04086842  0.044627218            4 
  127000    1.2327433   -6.0029889    62.127904  0.040766341  0.044618551            4 
  128000    1.2498806   -6.0202818    62.519409   0.04070274  0.044615994            3 
  129000    1.2473985   -6.0323174    63.410633  0.040962941  0.044619245            2 
  130000    1.2148839   -6.0367672    63.663646  0.040810029  0.044622491            4 
  131000    1.2382531    -5.995774    64.128639    0.0407943  0.044623897            2 
  132000     1.238079   -6.0319143    64.606988   0.04078724  0.044615306            2 
  133000    1.2635888   -6.1227194    64.779548  0.040588689  0.044606582            1 
  134000    1.2374868   -5.9835934    65.808829  0.040925889  0.044599293            2 
  135000    1.2035804    -5.993435    66.178814   0.04085112   0.04459426            1 
  136000    1.2431782   -6.0287481    66.836537   0.04095376  0.044586382            2 
  137000     1.234828   -6.0455939    67.211236  0.040882747  0.044580038            2 
  138000    1.2119109   -6.0419174    67.881798  0.040991424  0.044576563            5 
  139000    1.2126443    -6.039828    68.490206  0.041061274  0.044571545            5 
  140000     1.248353   -6.0513243    68.794955  0.040949378  0.044570766            4 
  141000    1.2061208   -6.0534985    69.156478  0.040872623  0.044565198            3 
  142000    1.2524469   -6.0638669    69.640132  0.040868622  0.044554046            2 
  143000    1.2123473   -6.0064032    70.065007  0.040830424  0.044536109            3 
  144000    1.2416683   -6.0440985    70.602006  0.040857642  0.044518185            2 
  145000    1.2215233   -6.0466205    70.931722  0.040765357  0.044502271            2 
  146000     1.233488   -6.0364039    71.917722  0.041048928  0.044487989            3 
  147000    1.2094937   -6.0594414    72.233217  0.040948536  0.044479255            3 
  148000    1.1996557   -6.0220709    73.556198  0.041416778  0.044482091            2 
  149000     1.190846   -6.0578881    74.033637  0.041405837  0.044487438            2 
  150000    1.2338314   -6.0426287    74.461609   0.04136756  0.044491427            2 
  151000    1.2303094   -5.9942804    75.217604  0.041510819  0.044501766            2 
  152000    1.2295042   -5.9995051    75.789613  0.041551323  0.044510778            2 
  153000    1.2173496   -6.0195905    76.359595  0.041590193  0.044516401            3 
  154000    1.2231794   -6.0360054    76.866677  0.041594522  0.044523724            2 
  155000    1.2612202   -6.0260549    76.872165  0.041329121  0.044526373            4 
  156000    1.2457139   -6.0525055    77.527359  0.041414187   0.04452806            3 
  157000    1.2236338   -6.0318464    78.138851  0.041474974  0.044530877            3 
  158000    1.1889565   -6.0844924    78.582834  0.041446642  0.044532272            3 
  159000     1.250813   -6.0646651    78.728651  0.041262396  0.044526116            2 
  160000    1.2154876   -6.0608959    79.520727  0.041417045   0.04452062            3 
  161000    1.2396991   -6.0345484    79.833882  0.041321885  0.044514908            2 
  162000    1.2509631    -6.084542    80.171133  0.041240295  0.044502347            1 
  163000    1.2379992   -6.0584327    81.044917  0.041434007  0.044496481            2 
  164000    1.2397845   -6.0502552    81.054745  0.041186354  0.044489527            1 
  165000    1.2295429   -6.0213476    82.140524  0.041485113  0.044479874            1 
  166000     1.225281    -6.050943    82.560419  0.041445993  0.044471966            2 
  167000    1.2120581   -6.0174822    83.221664  0.041527776  0.044465831            3 
  168000    1.2159845   -6.0718549    83.918158   0.04162607  0.044465097            5 
  169000    1.2125415    -6.066149    84.335182  0.041585395  0.044468541            4 
  170000    1.2618567   -6.0480492    85.059297  0.041695734  0.044470869            3 
  171000    1.2320521   -6.0673051    85.103161  0.041473275  0.044465614            2 
  172000    1.2284264   -6.0261911    85.968744  0.041651523  0.044462715            2 
  173000    1.2166777   -6.0568024    86.201198  0.041522735  0.044461125            6 
  174000    1.2337357   -6.0177034    86.627702  0.041488363  0.044455331            4 
  175000    1.2264678   -6.0809478    87.146169  0.041498176  0.044451848            2 
  176000     1.231796   -6.0223298    88.032465  0.041682038  0.044445005            5 
  177000    1.2388609   -6.0769064    87.696681  0.041288456  0.044432429            2 
  178000    1.1851946   -6.0490761    88.020919  0.041208295  0.044419162            3 
  179000    1.2332134   -6.0343527    88.790141  0.041336192  0.044402788            3 
  180000      1.20597   -6.0574566    89.262014  0.041325006  0.044387341            3 
  181000    1.2036473   -6.0786083    89.615805  0.041259579  0.044372968            3 
  182000    1.2631781   -6.0394003    90.421906  0.041401972   0.04436044            2 
  183000    1.2458828    -6.051704    90.357634  0.041146463  0.044344069            2 
  184000    1.2292905   -6.0505446    91.107372  0.041262397  0.044324077            4 
  185000    1.1932234   -6.0646747    91.791045  0.041347317  0.044307945            8 
  186000    1.2153937   -6.1170569    92.154537  0.041287875  0.044292912            3 
  187000    1.2244867   -6.0587321    92.614633  0.041272118  0.044277865            2 
  188000    1.2189671   -6.0798218     93.30204  0.041357287  0.044262945            2 
  189000    1.2253747   -6.0258728    93.922081  0.041411852  0.044250193            2 
  190000    1.2122147   -6.0502175     94.82993  0.041592075  0.044234318            1 
  191000    1.2222775   -6.0257812    95.013688  0.041454489  0.044221505            3 
  192000    1.2331096   -6.0507752    95.805511  0.041582253   0.04420742            8 
  193000    1.1841395    -6.052098      96.1382  0.041510449  0.044196648            5 
  194000    1.2245641   -6.0641553    96.944669  0.041642899  0.044188167            2 
  195000    1.2271044   -6.0339768    97.643112  0.041727826   0.04418274            1 
  196000    1.2131799   -6.0638575    97.977401  0.041657058  0.044176879            2 
  197000    1.2224969   -6.0886136    98.482549  0.041659285  0.044173348            2 
  198000    1.2221461   -6.0293283    99.194187  0.041748395  0.044168635            1 
  199000     1.255308   -6.0357885    99.601262  0.041709071  0.044163366            3 
  200000    1.1997012   -6.0472325    99.753845  0.041564102  0.044159154            2 
  201000    1.2304108   -6.0326097    100.95954   0.04185719  0.044154581            2 
  202000    1.2055742   -6.0468885    100.91249  0.041630566  0.044147657            1 
  203000    1.2293557   -6.0604427    101.49591  0.041664986  0.044140461            2 
  204000     1.233125   -6.0437024    102.42862  0.041841755  0.044134206            5 
  205000    1.1948732   -6.1023943    102.32638   0.04159609  0.044125963            2 
  206000    1.2268707   -6.0656879    103.10289  0.041708289  0.044118064            2 
  207000     1.200018   -6.0442641    103.31038  0.041590329  0.044109936            2 
  208000    1.1861251   -6.0529723    104.16307  0.041731999  0.044101963            2 
  209000    1.2278772   -6.0427178    104.58645  0.041701136  0.044092994            2 
  210000    1.1969124    -6.028692    104.79294    0.0415845  0.044083384            4 
  211000    1.2180657   -6.0571058    105.27722   0.04157868  0.044073039            2 
  212000     1.214153   -6.0310221    105.94582   0.04164537  0.044059995            4 
  213000    1.2410226   -6.0463903    106.47815  0.041658118  0.044051936            5 
  214000    1.2127168   -6.0345284    106.78914  0.041584555  0.044042039            2 
  215000    1.2358239   -6.0577277    107.45746   0.04165018  0.044031408            4 
  216000     1.234406   -6.0488421    107.70523  0.041552945  0.044019831            2 
  217000    1.2231178   -6.1000718    107.63106  0.041332972  0.044006935            5 
  218000     1.220571   -6.0764626    108.22864  0.041371804  0.043992387            2 
  219000    1.2132367   -6.0602596    109.08679  0.041509433  0.043974488            2 
  220000    1.2114378   -6.0767278    109.43652  0.041453227  0.043958633            2 
  221000    1.2430096   -6.0642186    109.88231   0.04143375  0.043943838            7 
  222000    1.2009808    -6.059131    110.71746  0.041560606  0.043931597            2 
  223000    1.2169251   -6.0778135    111.24552  0.041571569  0.043921215            3 
  224000    1.2019431   -6.0569688    112.05849  0.041688428  0.043910346            2 
  225000    1.2156741    -6.026294    112.24638  0.041572733  0.043899639            3 
  226000    1.1901296   -6.0238905    113.15448  0.041723628  0.043887813            2 
  227000     1.206843   -6.0292996    113.29472  0.041591306  0.043876784            5 
  228000     1.205629    -6.033075    114.07618  0.041694511  0.043868296            3 
  229000    1.2281037   -6.0727631    114.49073  0.041663293  0.043858815            2 
  230000    1.2197377   -6.0950611    114.62539  0.041530937   0.04384839            4 
  231000     1.193678   -6.0131349     115.3068  0.041596968  0.043836221            2 
  232000    1.1911721    -6.032207    115.44355  0.041466791  0.043822232            3 
  233000     1.225017   -6.0385809    116.08984  0.041519971  0.043807109            2 
  234000    1.1965779   -6.0404082    116.46523  0.041476221  0.043793056            3 
  235000    1.2318988   -6.0515761      116.846   0.04143475  0.043777872            3 
  236000    1.2288785   -6.0832351    116.55395  0.041156057  0.043759485            2 
  237000    1.2326795   -6.0751469    116.86687  0.041092428    0.0437411            2 
  238000     1.217564   -6.0773027    117.75026  0.041229084  0.043722863            2 
  239000    1.2201651   -6.1018247    118.58931  0.041349131  0.043706698            2 
  240000     1.203264   -6.0799558    119.30346  0.041424814  0.043692111            3 
  241000    1.2265648   -6.0868854    119.50396  0.041322255   0.04367664            2 
  242000    1.2108712   -6.0389904    120.11431  0.041361678  0.043658343            1 
  243000    1.2006306   -6.0685149    120.43521  0.041301514  0.043642023            3 
  244000    1.2278311   -6.0504656    121.41782  0.041467836  0.043624697            5 
  245000    1.2134122   -6.0701273    121.59708  0.041359552  0.043608018            2 
  246000    1.2297114   -6.0223255    122.41571  0.041468736  0.043592679            1 
  247000     1.229597   -6.0759112    122.70839   0.04139959  0.043576528            4 
  248000    1.2045614   -6.0771136      123.239  0.041410955  0.043564025            2 
  249000    1.2253081   -6.0222848     124.3862  0.041628582  0.043552477            4 
  250000    1.2113642   -6.0696091    124.30892  0.041436307  0.043541141            1 
  251000    1.2347836   -6.1085759    124.59133  0.041364982  0.043530328            2 
  252000    1.2250961   -6.0953264    125.35981  0.041454963  0.043519579            2 
  253000    1.2065757   -6.0564272    125.88745  0.041464903  0.043507475            2 
  254000    1.1827256   -6.1160379    126.15781  0.041390357  0.043495482            3 
  255000     1.206561   -6.0745508    126.90481  0.041472159   0.04348438            2 
  256000    1.2258832   -6.1154599    126.70931   0.04124652  0.043472237            4 
  257000    1.2326153   -6.0743441    127.71027  0.041410594  0.043460845            1 
  258000    1.2066151   -6.1119932    128.02114  0.041350499  0.043447926            4 
  259000    1.2050794   -6.0700922     129.2621  0.041590121  0.043437194            3 
  260000    1.1964805   -6.0746153    129.43506  0.041485595  0.043425533            3 
  261000    1.2154958   -6.0617408    130.74263  0.041744135  0.043417891            5 
  262000    1.2229515   -6.0833556    131.02188  0.041673625  0.043410125            3 
  263000    1.2233636   -6.0756911    131.03345  0.041518838  0.043402485            1 
  264000    1.2231144   -6.0733558    131.55071  0.041524844  0.043393201            1 
  265000    1.1963973   -6.0758371    132.04582  0.041523841  0.043385826            3 
  266000    1.1891699   -6.0731726    132.69085  0.041569816  0.043379331            5 
  267000    1.2022298   -6.1018315    133.38796  0.041631698   0.04337466            2 
  268000    1.2041543   -6.0987367    133.66451  0.041562349  0.043369731            4 
  269000    1.1717187   -6.0427882    135.54677  0.041990944  0.043366705            1 
  270000    1.1813954    -6.090362    135.41835  0.041795786  0.043363983            1 
  271000    1.2236116    -6.125623     135.2403  0.041586808  0.043359238            3 
  272000    1.2245747   -6.0787416    136.16447  0.041717056  0.043354606            2 
  273000    1.1950256   -6.0476405     137.0996  0.041849696  0.043349811            2 
  274000    1.2077786    -6.047474    137.35971  0.041776069  0.043344984            2 
  275000    1.1849193   -6.0786603     137.7634  0.041746485  0.043340025            3 
  276000    1.2377028   -6.0923825    138.19784  0.041726399  0.043334623            4 
  277000    1.2047903   -6.0814862    138.78719  0.041753067  0.043328638            4 
  278000    1.1830748   -6.0484161    138.86594  0.041626481  0.043322924            3 
  279000    1.2076889   -6.0973601    139.23097   0.04158631  0.043312985            1 
  280000    1.2331559   -6.0586583    139.33142  0.041467683  0.043301043            3 
  281000    1.1973476   -6.0672627     139.3781  0.041333955  0.043290299            2 
  282000    1.2111691   -6.0927057    139.96014   0.04135938  0.043278107            3 
  283000      1.21695   -6.0669131    140.90184   0.04149053  0.043265857            2 
  284000    1.1883853   -6.0955458    140.82966  0.041323257  0.043254197            3 
  285000    1.2138759   -6.0636501    141.85166  0.041477095  0.043242598            3 
  286000    1.2037225    -6.112982    141.91641  0.041350935  0.043232107            1 
  287000    1.1823722   -6.0850189    142.47974  0.041370423  0.043221929            2 
  288000    1.2003686   -6.1213271    142.81712  0.041324398  0.043211446            3 
  289000     1.202831   -6.1126321    143.44143  0.041361429  0.043199389            6 
  290000    1.1785665   -6.0461011    144.80781  0.041611439   0.04318976            4 
  291000    1.2220461   -6.0605667    145.55575  0.041682633  0.043181607            2 
  292000    1.2192876   -6.0573688    146.31467  0.041756469  0.043174422            4 
  293000    1.1958374   -6.0962964    146.49337  0.041664782  0.043168701            3 
  294000    1.2151203   -6.0906737    146.66084  0.041570532  0.043161707            1 
  295000    1.2119882   -6.0782752    147.60301  0.041695766  0.043154667            2 
  296000    1.2022715   -6.1035158    147.22638  0.041448868  0.043145405            7 
  297000    1.1959934   -6.0843682    148.00749  0.041528475  0.043137584            3 
  298000    1.2083106   -6.1021853    148.18436  0.041438578  0.043129081            1 
  299000    1.2113673   -6.0885637    149.14173  0.041566814  0.043119917            3 
  300000    1.2389897   -6.0592306    149.21543   0.04144873  0.043110108            3 
  301000     1.199077   -6.0684893    149.85992  0.041489459  0.043099846            3 
  302000    1.1844844   -6.0798571    149.91205  0.041366459  0.043089268            2 
  303000    1.1743749   -6.1031408    150.27995   0.04133112  0.043078991            2 
  304000    1.2324454   -6.1149784    150.75657  0.041325815  0.043068755            2 
  305000    1.1904228   -6.0754653    151.56214  0.041410422  0.043058714            1 
  306000    1.2075083   -6.0622816    152.03212  0.041403082  0.043049178            3 
  307000    1.1999591   -6.1059655    152.71242  0.041452884  0.043039738            3 
  308000    1.2429163   -6.0731564    153.28874  0.041474226  0.043031111            1 
  309000    1.2036798   -6.0841898     153.4779   0.04139102  0.043022809            2 
  310000    1.1767805    -6.084043    154.62303   0.04156533  0.043014828            2 
  311000    1.2011235   -6.0317485    155.14732  0.041572164  0.043007037            1 
  312000     1.205028   -6.1322512    155.41677  0.041510889   0.04299886            3 
  313000    1.2284461   -6.0955798    155.96691  0.041524738  0.042990629            2 
  314000    1.2142949   -6.1126592    156.11598  0.041432054   0.04298486            3 
  315000    1.2173448   -6.0966197    157.29555  0.041612579  0.042975742            4 
  316000    1.1940054   -6.0662789    157.81535  0.041617971   0.04296828            4 
  317000    1.2116377   -6.1411831    157.79308  0.041480832  0.042961588            1 
  318000    1.1750753   -6.0684547     158.4836  0.041531342  0.042955487            3 
  319000      1.20215   -6.1096853    158.51484  0.041409311  0.042949841            4 
  320000    1.2114134   -6.1187188    159.48644  0.041532928  0.042942702            1 
  321000    1.1977593   -6.0952175    159.77881  0.041479441  0.042936832            2 
  322000    1.2248223   -6.1183711    160.29967  0.041485422  0.042932325            2 
  323000    1.1826283    -6.097547    161.46402  0.041657384  0.042926238            3 
  324000    1.1963882   -6.1203375    160.64264  0.041317551  0.042919052            2 
  325000    1.2100144   -6.0691322    162.48365  0.041662474  0.042911649            3 
  326000    1.1781516   -6.0952997    162.72783  0.041597094  0.042906236            2 
  327000    1.2240466   -6.1305602    162.75395  0.041476541  0.042900313            3 
  328000    1.2119789   -6.1147644     163.8584  0.041630691  0.042895139            4 
  329000    1.2098609   -6.0738607    164.41794   0.04164588   0.04288981            3 
  330000    1.2088554   -6.1073867    164.20978  0.041467115  0.042883749            3 
  331000    1.2149901   -6.0723906    165.41259  0.041644661  0.042876827            2 
  332000    1.2198051   -6.1574202    165.21543  0.041469736  0.042871291            2 
  333000    1.1912533   -6.0851619    166.14706  0.041578344  0.042864276            2 
  334000    1.1989763   -6.0992466    166.43097  0.041524692  0.042857739            2 
  335000    1.2092424   -6.1311059     166.5776  0.041437214  0.042851381            2 
  336000    1.1924271   -6.1139015    167.33125  0.041500807   0.04284566            1 
  337000    1.1909727   -6.1020656    168.26258  0.041607958  0.042840094            2 
  338000    1.1689498   -6.1126498    167.91981  0.041400349  0.042833982            4 
  339000    1.1721072   -6.1473869    169.23281  0.041600985    0.0428281            3 
  340000    1.1875847   -6.0812924     169.7435  0.041603798  0.042823476            2 
  341000    1.1840747   -6.0927343    169.64861  0.041458605  0.042817614            3 
  342000    1.1902095    -6.069163    170.56629  0.041560987  0.042811097            1 
  343000    1.1999895   -6.1131793    170.89265  0.041519107  0.042805801            2 
  344000    1.2002403   -6.1068675    171.26422  0.041488426  0.042798623            3 
  345000    1.2140322   -6.0943861    171.88708  0.041518617  0.042791374            3 
  346000    1.1826657   -6.0570445    172.11645  0.041453865  0.042784065            3 
  347000    1.2109284   -6.0963658    172.88237   0.04151834  0.042777653            3 
  348000    1.1891256   -6.0931092    173.96297  0.041657799  0.042771325            3 
  349000    1.1862302    -6.105105    174.44562  0.041653682  0.042765059            9 
  350000     1.171759   -6.1185093    174.36569  0.041515642   0.04275666            4 
  351000    1.2016338   -6.0873031    174.74415  0.041487214   0.04275124            2 
  352000    1.1874644   -6.1199995    175.07531  0.041447753  0.042745831            3 
  353000    1.2327096   -6.1041742    176.43902  0.041652271  0.042740163            2 
  354000    1.2181475   -6.1211148    176.22437  0.041484079  0.042735204            2 
  355000    1.1867151   -6.0819193    177.03464  0.041557426  0.042729995            5 
  356000    1.1835412   -6.1233249    177.31162  0.041505528  0.042724322            4 
  357000    1.2029083   -6.1112592    178.18968  0.041594229  0.042719548            3 
  358000     1.192678   -6.0885415    178.10891  0.041459244  0.042713288            2 
  359000    1.1856875   -6.1386213    178.27973   0.04138341  0.042705748            2 
  360000    1.1737854   -6.1000909    179.28544  0.041501259  0.042698887            2 
  361000    1.2137093   -6.1056595    179.25094  0.041378333  0.042692551            2 
  362000    1.2057424   -6.1429371    179.69937  0.041367258  0.042686072            5 
  363000    1.2111894   -6.0730555    181.54908  0.041677933  0.042679589            3 
  364000    1.1974068   -6.1175544    181.39504   0.04152817  0.042673501            1 
  365000    1.2024889   -6.1460217    181.21377  0.041373007  0.042666768            4 
  366000    1.2159372   -6.0756975    182.59859  0.041575271  0.042661725            4 
  367000    1.1797457   -6.1167835      182.874  0.041524523  0.042656479            5 
  368000    1.2029928   -6.0909069    183.75645  0.041611515  0.042652029            2 
  369000    1.2007326   -6.1552838    184.62052  0.041693884  0.042648345            3 
  370000    1.1863123   -6.1360623    184.33402  0.041516671  0.042644978            5 
  371000    1.1789659   -6.1240299    185.15175  0.041588443  0.042641205            3 
  372000    1.1966649   -6.1261858    186.25392  0.041723548  0.042637864            2 
  373000    1.1794524   -6.1194231     187.2268  0.041829043  0.042636351            3 
  374000    1.1993055   -6.1232872     186.5126  0.041558065  0.042633796            3 
  375000    1.2102334   -6.1342916    187.59887  0.041688638  0.042632148            3 
  376000    1.1825962    -6.126449    187.46346  0.041547753  0.042630153            5 
  377000    1.2056184   -6.1283646    188.02353  0.041561347  0.042628576            3 
  378000    1.1587874   -6.1124798    188.69187  0.041598737  0.042625795            2 
  379000    1.1671849   -6.1519048    188.98487  0.041553402  0.042623041            5 
  380000    1.2003964   -6.1343805    190.92438  0.041869381  0.042620266            1 
  381000    1.1678212   -6.1155003    191.14169  0.041807019  0.042618128            3 
  382000    1.1659387   -6.1255312    191.38971  0.041751682  0.042616285            2 
  383000    1.1736566   -6.0961223    192.47223  0.041878204    0.0426155            2 
  384000    1.1909002   -6.1354915     192.5378  0.041783377  0.042614352            2 
  385000    1.1624802   -6.1159575    193.78852  0.041945566  0.042613701            2 
  386000    1.1956864   -6.1092999    194.12392   0.04190931  0.042614397            5 
  387000    1.1873536   -6.1364634    193.67492  0.041704333  0.042613923            2 
  388000    1.2020035   -6.0992401    195.27421  0.041940337  0.042614037            1 
  389000    1.1982045   -6.1180337    195.69147   0.04192191  0.042614528            2 
  390000    1.1966671   -6.1412207    195.74211  0.041825237  0.042614197            3 
  391000    1.2030258   -6.1723376    195.80938  0.041732604  0.042614211            3 
  392000    1.1733361   -6.1217767    196.33591  0.041738077  0.042613514            2 
  393000    1.1798373   -6.1212594    197.53912  0.041887007  0.042613277            2 
  394000    1.2122164   -6.1059842    198.14833  0.041909546  0.042613373            1 
  395000    1.1941143   -6.1313894    197.42483  0.041650809  0.042611931            4 
  396000     1.191589   -6.1267052    198.33878  0.041737958  0.042609631            3 
  397000    1.1756644   -6.1617885    198.01599  0.041565068  0.042607906            2 
  398000    1.1760083   -6.1572977    199.67007  0.041806966  0.042605762            1 
  399000      1.21259   -6.0880761    200.45801  0.041866753  0.042603808            1 
  400000    1.2228452   -6.1429033    200.24724  0.041718174  0.042602558            2 
  401000    1.1864406   -6.1211939    201.06807   0.04178472  0.042599463            2 
  402000    1.1899097   -6.1389355    200.97315  0.041661101  0.042597127            2 
  403000    1.1948609   -6.1472044    202.15826  0.041802783   0.04259582            4 
  404000    1.1842618   -6.1613003    202.31307  0.041731244  0.042595138            3 
  405000    1.2013267   -6.1044789    202.67614   0.04170291  0.042593488            4 
  406000    1.2140291    -6.071173    203.71106  0.041812616  0.042590366            1 
  407000     1.186111    -6.084666     203.8848  0.041745455  0.042586932            7 
  408000     1.195016    -6.142315    204.37295  0.041742841  0.042583454            3 
  409000    1.2206321   -6.1498114    204.17518  0.041600485  0.042579593            2 
  410000    1.1949431   -6.1137013    203.92012  0.041447179  0.042575603            3 
  411000    1.1849954   -6.1515832      204.757  0.041516018   0.04257078            2 
  412000    1.2072692   -6.1637093    205.16843   0.04149847  0.042565493            3 
  413000    1.1808648   -6.1293804    205.59693  0.041484449  0.042560169            3 
  414000    1.1666434   -6.1442082    206.44021  0.041553988  0.042555101            2 
  415000    1.2059182   -6.1843198    206.77116  0.041520313  0.042550216            3 
  416000    1.1800583   -6.1213048    207.22738  0.041511894  0.042543778            8 
  417000    1.1849798   -6.1874221    205.85601  0.041138292  0.042536294            3 
  418000    1.1743648   -6.1051737    207.63549  0.041394636  0.042529709            4 
  419000    1.1551268   -6.1352184    208.38579  0.041445066  0.042522985            2 
  420000    1.1755688   -6.1473493    208.72395  0.041413483  0.042516413            2 
  421000    1.1828138   -6.0959412     209.6569  0.041499783  0.042509263            3 
  422000    1.1929409   -6.1594746    208.86984   0.04124602  0.042501837            2 
  423000    1.1918268   -6.1456456    209.66621  0.041305399  0.042493583            4 
  424000    1.1981422   -6.1551416    209.88866  0.041251702  0.042485183            2 
  425000    1.1824942   -6.1401004    209.81397  0.041139995  0.042476282            2 
  426000    1.1891798   -6.1221486    210.53622  0.041184707  0.042467156            4 
  427000    1.1937779   -6.1372064    212.14547  0.041402316  0.042459045            2 
  428000    1.1664955    -6.137396    211.94959  0.041267443  0.042449627            3 
  429000    1.1783249   -6.1593345    211.47849  0.041079737  0.042440665            4 
  430000    1.1736249   -6.1641088     212.1299  0.041110446  0.042431143            4 
  431000    1.1746947   -6.1556489    212.68828  0.041123025   0.04242052            4 
  432000    1.1860386   -6.1274344    213.00511  0.041088948  0.042411248            3 
  433000    1.1804223   -6.1221918     214.1126  0.041207197  0.042401266            4 
  434000    1.1624184   -6.1739741    213.96403  0.041083724  0.042391934            2 
  435000    1.1697201   -6.1177488     214.0388  0.041003602  0.042381274            2 
  436000    1.1973892   -6.1495967    214.65374  0.041027092  0.042370745            2 
  437000    1.2004088   -6.1676855    214.51676  0.040907085  0.042359432            4 
  438000    1.1677576   -6.1368448     215.3544   0.04097306  0.042347351            3 
  439000    1.1941563   -6.0924947    216.08147  0.041017742  0.042336304            2 
  440000    1.1915223   -6.1872465    215.74806  0.040861375   0.04232506            3 
  441000    1.1872946    -6.168676    215.91955  0.040801125  0.042313524            2 
  442000    1.1858108   -6.1428602    217.83267  0.041069508  0.042302261            4 
  443000    1.1811098   -6.1359511    217.56529  0.040926503  0.042290263            4 
  444000    1.2020623   -6.1275516    218.31252  0.040974572  0.042278045            3 
  445000    1.1581506   -6.1305572    219.05841  0.041022174  0.042266454            2 
  446000    1.1876389   -6.1275659    220.03284  0.041112264  0.042255847            2 
  447000    1.1845683   -6.1676817    219.26719  0.040877552  0.042245131            5 
  448000    1.1954059   -6.1496653    220.09049  0.040939451  0.042234232            2 
  449000    1.1842986   -6.1251454    221.03303  0.041023206  0.042223674            1 
  450000    1.1846948   -6.1398114    220.63945  0.040859158   0.04221273            2 
  451000    1.1958738   -6.1099035    221.02421  0.040839655   0.04220176            2 
  452000    1.1857977   -6.1625055    221.38181   0.04081523  0.042191458            6 
  453000    1.1582714   -6.1725148    222.03825  0.040845889  0.042180139            4 
  454000    1.1912381   -6.1467594    222.80727  0.040897075  0.042169519            3 
  455000    1.1594926   -6.1638413    224.19118  0.041060655  0.042159386            3 
  456000    1.1787047   -6.1437712    224.40081   0.04100892   0.04214983            5 
  457000    1.1883469   -6.1317832    223.99121  0.040844496  0.042140709            3 
  458000    1.1885993    -6.142906    225.01829  0.040942192  0.042130342            3 
  459000    1.1928252   -6.1741609    224.72294  0.040799371  0.042119993            2 
  460000    1.1727895   -6.1353712    225.54537  0.040859669    0.0421088            3 
  461000    1.1952385    -6.175745     224.8357  0.040642751  0.042098754            3 
  462000    1.1465082   -6.1585871    227.08646   0.04096076  0.042088202            3 
  463000     1.165939   -6.1713393    226.81921  0.040824191  0.042077949            2 
  464000    1.1849335   -6.1766052    227.25317  0.040814147  0.042067655            1 
  465000    1.1774005   -6.1259507    227.88511  0.040839625  0.042057288            2 
  466000    1.1596674    -6.109406    228.69169  0.040896225   0.04204735            3 
  467000    1.1819162   -6.1472759    228.56043   0.04078523  0.042036121            3 
  468000     1.184237   -6.1300593    229.81924   0.04092223  0.042025523            4 
  469000    1.1757582    -6.179611    228.33849   0.04057187  0.042014885            3 
  470000    1.1932302   -6.1496937    229.52063  0.040695148   0.04200362            7 
  471000    1.1724405   -6.1603423    229.65564  0.040632632  0.041992608            2 
  472000    1.1772601   -6.1723296    231.04175  0.040791269   0.04198127            3 
  473000    1.1802993   -6.1580957    230.72173  0.040648649  0.041968485            2 
  474000    1.1706258    -6.137832     231.0483  0.040620305  0.041956423            2 
  475000     1.182275   -6.1111677    231.75155  0.040658166  0.041944028            4 
  476000    1.1822179   -6.1418313    230.31892  0.040321939  0.041930463            3 
  477000    1.1822604   -6.1858977    230.72433  0.040308234   0.04191606            2 
  478000    1.1676809   -6.1440806    232.73334  0.040574153  0.041902224            2 
  479000    1.1518481   -6.1681113    231.92717  0.040349195  0.041889144            5 
  480000    1.1744882   -6.1828192     232.9463  0.040442065  0.041875187            5 
  481000    1.1681801   -6.1576426    234.12088  0.040561483  0.041861792            3 
  482000    1.1819631   -6.1945998    233.94584  0.040447067  0.041848575            4 
  483000    1.1915088   -6.1659373    234.86534   0.04052197  0.041835873            3 
  484000    1.1743915   -6.1641521     235.4222  0.040534125  0.041823481            3 
  485000    1.2039527   -6.1956629    235.57093  0.040476104  0.041812034            3 
  486000    1.2024138    -6.201976    236.56071  0.040562535  0.041800901            2 
  487000    1.1957537   -6.1493996    237.12173  0.040575245  0.041789541            3 
  488000    1.1640786   -6.1910481    237.57375  0.040569288  0.041778191            5 
  489000     1.164165   -6.1600439     236.7623   0.04034804  0.041766849            3 
  490000    1.1872637   -6.1700471     238.1459  0.040501004  0.041754531            2 
  491000    1.1570667   -6.1841607    238.26507  0.040438743    0.0417418            2 
  492000    1.1948521   -6.2032656    238.19412  0.040344533   0.04172863            9 
  493000     1.174173   -6.1540939    238.95893  0.040391977  0.041716569            4 
  494000    1.1632946   -6.1890021    238.43113  0.040221176  0.041703938            3 
  495000    1.1725628   -6.1738712    239.50011  0.040319883  0.041689921            5 
  496000     1.167589    -6.162989    239.31545  0.040207569  0.041676406            2 
  497000    1.1443081   -6.1354667    241.04909  0.040417353  0.041663313            4 
  498000    1.1712205   -6.2014019     241.3336  0.040383801  0.041650676            5 
  499000    1.1470557    -6.204984    241.04561  0.040254777  0.041638296            4 
  500000    1.1469304   -6.1684221    241.55893  0.040259822  0.041624779            2 
  501000     1.194872   -6.2022604    241.58907  0.040184477  0.041610592            2 
  502000    1.1638328   -6.1335509    241.61982  0.040109531  0.041596038            2 
  503000    1.1570313   -6.1513195    243.04048  0.040265156  0.041582731            5 
  504000      1.17578   -6.1260671    243.74012  0.040300946  0.041570083            2 
  505000    1.1976848   -6.1895765    244.21146   0.04029892  0.041557712            2 
  506000    1.1657086   -6.1897931    244.93919  0.040339129  0.041544857            2 
  507000    1.1906061   -6.2047233    243.84286  0.040079365  0.041531142            2 
  508000    1.2023666   -6.1884649    244.77776  0.040153833  0.041517826            2 
  509000    1.1763626   -6.1558484    245.98415  0.040272454  0.041505062            3 
  510000     1.159293   -6.1993322    245.53251  0.040119692  0.041492919            3 
  511000    1.1886947   -6.1628194     246.5223  0.040202593  0.041479822            2 
  512000    1.1613152   -6.1842907    247.16133  0.040228081  0.041466985            3 
  513000     1.141372   -6.1376626    247.78435  0.040250869  0.041454942            2 
  514000    1.1676548   -6.1619107    247.28975  0.040092372  0.041441567            6 
  515000     1.165376    -6.185138    247.88011   0.04011005  0.041427882            3 
  516000    1.1762332   -6.1415394    248.29672    0.0400996  0.041414371            1 
  517000    1.1882812   -6.1867765    248.32461  0.040026533  0.041401281            3 
  518000    1.1686901   -6.1742939    249.54128  0.040144994   0.04138911            2 
  519000    1.1802942   -6.2089884    250.24135   0.04018005  0.041376128            5 
  520000    1.1662366   -6.1851647    249.93525  0.040053727  0.041362623            2 
  521000    1.1984935   -6.1637521    249.82705  0.039959541  0.041349354            3 
  522000    1.1420695   -6.2265158    250.32945  0.039963194  0.041336046            3 
  523000    1.1785988   -6.1559183     251.0764  0.040005799  0.041321855            1 
  524000    1.1534089   -6.1855238    250.89025  0.039899848  0.041307557            1 
  525000    1.1693691   -6.1580578    251.74626  0.039959723  0.041293249            2 
  526000     1.191679    -6.165734    252.33342  0.039976777  0.041280149            2 
  527000    1.1738617   -6.1660212    252.31987  0.039898777  0.041266669            1 
  528000    1.1485895   -6.1554569    252.80612  0.039899956  0.041253373            3 
  529000    1.1666733   -6.1527998    254.03471   0.04001807  0.041239591            3 
  530000    1.1455967   -6.1999387    254.73858  0.040053236  0.041226061            4 
  531000    1.1523304   -6.1857556    254.48131  0.039937431    0.0412125            5 
  532000    1.1506213   -6.1918062    254.41305  0.039851668  0.041199154            2 
  533000     1.152177   -6.1712378    255.67129  0.039973622  0.041186038            2 
  534000    1.1725087   -6.1821993    255.39827  0.039856159  0.041172371            3 
  535000    1.1576306   -6.1666685    256.21491  0.039908865  0.041157981            2 
  536000    1.1775672   -6.1681807    255.86235  0.039779595  0.041144333            2 
  537000    1.1563699   -6.1881135    257.60354   0.03997572  0.041130488            2 
  538000    1.1511243   -6.1569441    257.61552  0.039903271  0.041117597            3 
  539000    1.1610605   -6.1920853    258.66488  0.039991477  0.041105373            2 
  540000    1.1517174   -6.1982601    259.12419  0.039988301  0.041092972            2 
  541000    1.1639237   -6.1995265    258.80546  0.039865289  0.041080685            2 
  542000    1.1446195   -6.1976777     260.1733  0.040002044  0.041068156            3 
  543000    1.1529325   -6.1782783    259.89992  0.039886421  0.041056017            2 
  544000    1.1473663   -6.1704627    260.31864  0.039877243  0.041043222            5 
  545000    1.1580808   -6.1694402    261.36037  0.039963359  0.041031093            3 
  546000    1.1684123   -6.2080797    260.90008  0.039819915   0.04101818            2 
  547000    1.1675824   -6.1367109    261.69834   0.03986873  0.041005663            3 
  548000    1.1644009   -6.1426624    262.82631  0.039967504  0.040993334            3 
  549000    1.1718574    -6.142457    262.85189  0.039898587  0.040980982            2 
  550000    1.1716117   -6.2190156    261.98618  0.039694875  0.040968242            2 
  551000    1.1517158   -6.1994364    262.84236  0.039752323   0.04095547            2 
  552000    1.1817147   -6.1863055    263.38291  0.039761912  0.040943034            3 
  553000    1.1454716   -6.1760938    263.85688  0.039761435  0.040930719            2 
  554000    1.1685919   -6.1971157    263.58849  0.039649291  0.040917942            2 
  555000    1.1662329   -6.1983363    264.62105   0.03973289  0.040906027            4 
  556000    1.1640907   -6.1735273    265.24088  0.039754329  0.040894305            5 
  557000    1.1801944   -6.1836625    265.21024  0.039678372  0.040881844            2 
  558000    1.1523737   -6.1847568    266.08431    0.0397378  0.040868795            2 
  559000    1.1416612   -6.1506605    267.57105   0.03988835  0.040856802            6 
  560000    1.1690737   -6.1877054    266.20991   0.03961457  0.040844489            6 
  561000    1.1662451   -6.1993981    266.92151   0.03964966  0.040831772            2 
  562000    1.1486913   -6.1935265    267.69847  0.039694317   0.04081867            3 
  563000    1.1446871   -6.1498279    269.54973  0.039897828  0.040806098            3 
  564000    1.1495339   -6.1753297    269.14013  0.039766568  0.040793631            3 
  565000     1.169846   -6.1708939     269.4459  0.039741283  0.040781274            4 
  566000    1.1508023   -6.2103732    268.64864  0.039553687  0.040768468            2 
  567000    1.1580062   -6.1907827    269.77283  0.039649152   0.04075554            2 
  568000    1.1619322   -6.1997334    270.44401  0.039677818  0.040743102            2 
  569000    1.1660068   -6.1845583     272.1561  0.039858831  0.040731786            3 
  570000    1.1484457   -6.1408731     271.7743  0.039733084  0.040719863            3 
  571000    1.1580674    -6.141923     271.9388  0.039687507  0.040707533            2 
  572000    1.1447705   -6.2185691    270.96259  0.039475902  0.040694799            5 
  573000    1.1767766   -6.2300765    270.60967  0.039355682  0.040680909            3 
  574000    1.1247013   -6.1658383    272.31873  0.039535239  0.040667015            3 
  575000    1.1493848   -6.1895747    271.75055  0.039384137  0.040653535            4 
  576000    1.1538303   -6.2104586    272.81507  0.039469773  0.040640566            2 
  577000    1.1596538    -6.186691    273.55154  0.039507732  0.040627451            3 
  578000    1.1412194   -6.2437898    272.49874  0.039287592  0.040614161            3 
  579000    1.1556914   -6.2106521    274.21584  0.039466875  0.040600755            3 
  580000    1.1709932   -6.1962548     275.7171  0.039614526  0.040588061            2 
  581000    1.1526308   -6.1695618    275.72895  0.039548043  0.040575789            3 
  582000    1.1554929   -6.1916675    275.42416   0.03943645  0.040563528            4 
  583000    1.1482497   -6.1812398    276.22817  0.039483729  0.040550165            3 
  584000    1.1708586   -6.1700754    277.56531  0.039606922  0.040537589            2 
  585000    1.1521888   -6.1341365    277.29845  0.039501204  0.040524651            2 
  586000    1.1653769   -6.2150245    276.12973  0.039267595  0.040511477            3 
  587000    1.1657812   -6.2300414    277.43611   0.03938616  0.040499037            6 
  588000    1.1520714   -6.1768666    277.82079  0.039373695  0.040486674            3 
  589000    1.1634507   -6.2199113    278.74383  0.039437441  0.040474039            2 
  590000    1.1785591   -6.2133345    277.93413  0.039256233  0.040461023            5 
  591000    1.1863348   -6.2231011     279.0561  0.039348011  0.040448569            2 
  592000    1.1610983   -6.1606907    280.60802  0.039500003  0.040435826            3 
  593000    1.1436918   -6.1736903    281.74699  0.039593449   0.04042435            4 
  594000    1.1779094   -6.1638838    281.99559  0.039561671  0.040412747            2 
  595000    1.1487169   -6.1871341    280.64274  0.039305707  0.040400732            2 
  596000    1.1803781    -6.204226    281.11681  0.039306042  0.040388763            4 
  597000    1.1425397   -6.2279736    280.83594  0.039200996  0.040376087            2 
  598000    1.1527331   -6.2392566     282.0393  0.039303136  0.040363719            4 
  599000    1.1420521   -6.2043887    283.34618  0.039419335  0.040351544            3 
  600000     1.142279   -6.2054594    281.86531   0.03914796  0.040338999            1 
  601000    1.1644767    -6.221222    282.86081  0.039220856  0.040326043            2 
  602000     1.163939   -6.2387955    283.59553  0.039257409  0.040312491            4 
  603000    1.1580606   -6.1806872    284.18374  0.039273596   0.04029885            2 
  604000    1.1382614   -6.2177365    283.69551  0.039141213  0.040285635            8 
  605000    1.1863222   -6.2446289     283.5119  0.039051226  0.040271683            4 
  606000    1.1311726      -6.1777    285.52849  0.039264094  0.040258333            2 
  607000    1.1587312   -6.2442222    284.27021  0.039026663  0.040244663            2 
  608000    1.1260684   -6.1967036    285.17068  0.039085894  0.040230981            5 
  609000    1.1850927   -6.1634052    285.82276  0.039110941  0.040217158            2 
  610000    1.1345144   -6.2289269    285.73471  0.039034797  0.040203176            7 
  611000    1.1622443   -6.2160449     286.9752  0.039140098  0.040189717            2 
  612000    1.1677428   -6.2493571    286.74318  0.039044551  0.040176293            4 
  613000    1.1523453   -6.2769495     287.6652  0.039106198  0.040163065            6 
  614000    1.1223681    -6.214065    287.63329  0.039038178  0.040149949            6 
  615000    1.1771371   -6.2378239    287.99671  0.039023945  0.040136308            2 
  616000    1.1839617   -6.2231243    288.83462  0.039073947  0.040122829            3 
  617000    1.1389448   -6.1993949     288.7223  0.038995449  0.040108804            3 
  618000    1.1750667   -6.2190936    288.60326  0.038916297   0.04009544            3 
  619000    1.1855073   -6.2682031    288.32587  0.038816084  0.040081702            2 
  620000    1.1130398   -6.1988227    289.48458  0.038909218  0.040067639            1 
  621000    1.1518146   -6.2115266     290.4261  0.038972907  0.040054205            1 
  622000    1.1456169   -6.1979041    290.46616  0.038915617  0.040039978            2 
  623000    1.1335473   -6.2410698    288.79575  0.038629715  0.040025217            4 
  624000     1.152246    -6.223472    290.83844  0.038840604  0.040010825            3 
  625000    1.1521571   -6.2502349    291.25787  0.038834382  0.039996767            1 
  626000     1.170219   -6.2088141    291.86007  0.038852511  0.039982852            3 
  627000    1.1624795    -6.213832    292.39528   0.03886168  0.039968581            6 
  628000    1.1652297   -6.2535101    292.80801  0.038854565  0.039954095            6 
  629000    1.1526044   -6.2277355    291.84332  0.038664987  0.039939539            2 
  630000     1.154794   -6.2434309    293.03385  0.038761091  0.039924342            4 
  631000    1.1366495   -6.2417193    294.05321  0.038834286  0.039909766            2 
  632000    1.1506216   -6.1833434    293.98305  0.038763588  0.039895366            4 
  633000    1.1583156     -6.20981    293.84705  0.038684445  0.039880859            4 
  634000    1.1410848   -6.1929668    293.88603  0.038628553  0.039865936            2 
  635000    1.1696153   -6.2319579    294.12125  0.038598589  0.039850743            2 
  636000     1.145685   -6.1950456    294.95626  0.038647308  0.039836042            2 
  637000     1.182337   -6.2201359    295.10257  0.038605778  0.039821248            3 
  638000    1.1450956   -6.2090023    294.71102  0.038494124  0.039805906            6 
  639000    1.1162679   -6.1976017    296.16304  0.038623244  0.039790511            2 
  640000    1.1323638    -6.230414    295.84815  0.038521895  0.039776066            5 
  641000    1.1439038   -6.2072235    297.26951  0.038646582  0.039761422            4 
  642000     1.176493   -6.1983084    297.30043  0.038590399   0.03974701            2 
  643000    1.1418043   -6.2652823    295.83597  0.038340587  0.039731419            2 
  644000    1.1278199   -6.2646077    297.40122  0.038483594  0.039716224            2 
  645000    1.1449639   -6.2220843     298.6624  0.038586873  0.039701052            5 
  646000    1.1784599   -6.2409516    297.81295  0.038417563  0.039685747            2 
  647000    1.1356396   -6.2009313    299.36029  0.038557482  0.039670989            1 
  648000    1.1477784    -6.182414    300.43055  0.038635616  0.039656478            4 
  649000    1.1520655   -6.2309012    300.14149  0.038538969  0.039642113            3 
  650000    1.1467525   -6.2061729    300.55919  0.038533229  0.039627324            4 
  651000    1.1638936   -6.2636527    299.45048  0.038332114  0.039612949            1 
  652000     1.194352   -6.2483714    299.66925  0.038301284  0.039597788            2 
  653000    1.1411187   -6.2580074    301.37518  0.038460334   0.03958327            5 
  654000    1.1383302   -6.1840663    302.59722   0.03855724   0.03956875            3 
  655000     1.137896    -6.244716    301.81072   0.03839831  0.039554348            2 
  656000    1.1268077   -6.2155466    302.76616  0.038461148  0.039539639            3 
  657000    1.1509852    -6.263058    302.88386  0.038417537   0.03952517            4 
  658000    1.1336702   -6.2171891    303.45727  0.038431771  0.039510066            1 
  659000    1.1360109   -6.2116429    304.28548  0.038478184  0.039495577            3 
  660000    1.1163939   -6.2254981    303.63272  0.038337465  0.039481282            4 
  661000    1.1406889   -6.1838608    305.44814  0.038508339   0.03946709            6 
  662000    1.1552978   -6.2479787    305.31534  0.038433452  0.039453254            1 
  663000    1.1254996   -6.2441508    304.92464  0.038326375  0.039439911            3 
  664000    1.1607294   -6.2069236     306.7859  0.038502246  0.039426632            3 
  665000    1.1397337   -6.1866306     307.6032  0.038546767  0.039413528            3 
  666000    1.1505683    -6.248797     307.5557  0.038482945  0.039400779            2 
  667000    1.1597469   -6.1691019    308.42847  0.038534292  0.039387893            3 
  668000    1.1331206   -6.2309781    309.39532  0.038597221  0.039375983            2 
  669000    1.1463821   -6.2628975     309.4228  0.038542949  0.039362851            4 
  670000    1.1448122   -6.1982183     310.4122  0.038608482  0.039349878            1 
  671000     1.133602   -6.2590959     309.1179  0.038390201  0.039338008            4 
  672000    1.1443183   -6.1974972    311.64339  0.038646254  0.039325547            5 
  673000    1.1457894   -6.2440485    309.86644  0.038368801  0.039313125           10 
  674000    1.1603861   -6.2414897    310.18255  0.038350958  0.039300797            1 
  675000    1.1389859     -6.23784    310.78571  0.038368606  0.039287906            3 
  676000    1.1811201    -6.225924    313.09583  0.038596626  0.039275778            4 
  677000    1.1578352   -6.2039028    312.90713  0.038516388   0.03926376            2 
  678000    1.1883092   -6.2277582    313.70201  0.038557278  0.039252009            2 
  679000    1.1581782   -6.2417331    313.11811   0.03842883  0.039240618            2 
  680000    1.1385032   -6.2368252    313.79465  0.038455227  0.039228793            3 
  681000    1.1322887   -6.2296092    314.91057  0.038535313  0.039217123            3 
  682000    1.1377773    -6.236168    314.45329  0.038422934  0.039205791            3 
  683000    1.1922517   -6.2370892    314.25047  0.038341931  0.039194153            1 
  684000     1.150505   -6.2079966     315.7802  0.038472247  0.039182699            2 
  685000    1.1471496   -6.2428156    315.49808  0.038381762  0.039171175            3 
  686000    1.1506231   -6.2237142    317.31744  0.038546822  0.039160172            5 
  687000    1.1337683     -6.22856    317.60176  0.038525202  0.039149464            3 
  688000    1.1397878   -6.2147874    318.37963  0.038563424  0.039138762            4 
  689000    1.1365971   -6.2467694    317.41441  0.038390713  0.039127686            1 
  690000        1.156   -6.2197189    318.75843  0.038497394   0.03911689            5 
  691000    1.1360629   -6.2773297    318.92958  0.038462323  0.039106824            3 
  692000    1.1269976   -6.1893008    321.74691  0.038746015  0.039096632            2 
  693000    1.1602308   -6.2650773    319.21112  0.038385175  0.039086776            5 
  694000    1.1685228   -6.2237512    320.52454  0.038487577  0.039076803            4 
  695000    1.1373699   -6.2404409    320.67533   0.03845028  0.039066284            3 
  696000     1.152325   -6.2425903    321.75967  0.038524865  0.039056176            3 
  697000    1.1577121   -6.2672096    321.37703  0.038423844  0.039045828            3 
  698000      1.14191   -6.2630517    321.49812  0.038383252  0.039034789            2 
  699000    1.1357591   -6.2578915    321.89556  0.038375722  0.039024582            2 
  700000    1.1581512   -6.1998577    323.65883  0.038530814  0.039014929            3 
  701000    1.1514992   -6.2541129     322.4932   0.03833728  0.039004618            5 
  702000    1.1384723   -6.2286872    323.99503  0.038460948  0.038994481            3 
  703000    1.1210472   -6.2599481    324.44039  0.038459031  0.038983772            2 
  704000    1.1579394    -6.253242    324.53833  0.038415996  0.038973205            4 
  705000     1.136167   -6.2470777    325.43768  0.038467811  0.038962873            2 
  706000    1.1467277   -6.2356354    324.63711  0.038318828  0.038952656            2 
  707000    1.1360619   -6.2425018    325.51535  0.038368146  0.038941822            3 
  708000    1.1215806   -6.2583494    326.29569  0.038405802  0.038931928            6 
  709000    1.1379014   -6.2434114    326.03118  0.038320543  0.038921641            6 
  710000    1.1530667   -6.2641905    325.15012   0.03816316  0.038910388            3 
  711000    1.1242179   -6.2858926    326.42074  0.038258408  0.038899545            5 
  712000    1.1244421    -6.219629    327.52823  0.038334297  0.038889295            3 
  713000    1.1446789   -6.2764192    328.21492   0.03836079   0.03887867            1 
  714000    1.1508661   -6.2766653    327.09964  0.038176896  0.038867684            7 
  715000     1.127413   -6.2926609      327.619  0.038184032   0.03885631            2 
  716000    1.1665753   -6.2942642    328.30644  0.038210712  0.038845177            2 
  717000    1.1902489   -6.2701491    327.14235  0.038022124  0.038833856            3 
  718000    1.1633656   -6.2095208    330.31934  0.038337899  0.038822751            2 
  719000    1.1292951   -6.2631832    329.13024   0.03814676  0.038811707            2 
  720000    1.1371554   -6.2291184    329.63415  0.038152101   0.03880102            3 
  721000     1.134148   -6.2669056    329.87541   0.03812707  0.038790238            3 
  722000    1.1572787   -6.2407436    331.45313  0.038256363  0.038779801            2 
  723000    1.1426372   -6.2507763    331.00137  0.038151379  0.038769502            3 
  724000    1.1340936   -6.2652731     331.4404  0.038149217  0.038759198            4 
  725000    1.1342826   -6.2688449    331.27224  0.038077269  0.038748956            2 
  726000    1.1597918   -6.2709126    331.92793  0.038100083  0.038738946            7 
  727000    1.1212414   -6.2569253    333.36871  0.038212828  0.038728845            5 
  728000    1.1155596   -6.3123152     332.9855  0.038116473  0.038718717            4 
  729000    1.1373553   -6.2698992    333.22713  0.038091807   0.03870826            4 
  730000    1.1294067   -6.2869046    333.38901  0.038058106  0.038697782            3 
  731000    1.1341422   -6.2584057    334.82336  0.038169558    0.0386872            4 
  732000     1.125684   -6.2578227    335.69771  0.038216952  0.038677269            4 
  733000    1.1197504   -6.2523784    335.31993  0.038121865   0.03866721            3 
  734000    1.1304686   -6.2801823    336.20215   0.03817009  0.038656739            4 
  735000    1.1191608   -6.2901637    335.38314  0.038025299  0.038646161            4 
  736000    1.1154382   -6.2523182    335.49879  0.037986729  0.038635809            2 
  737000    1.0998283   -6.2824313    334.15786  0.037783566   0.03862453            4 
  738000    1.1324527   -6.2706126    336.66194  0.038015124  0.038613131            8 
  739000    1.1463647   -6.2577379    335.60101  0.037844047  0.038602009            4 
  740000    1.1238762    -6.308913    337.67271  0.038026206  0.038590989            3 
  741000    1.1562061   -6.2598264    337.57288  0.037963661  0.038579709            4 
  742000     1.128235   -6.2578038    339.33673  0.038110594  0.038569079            3 
  743000    1.1321101   -6.2351146    340.08567  0.038143301  0.038558576            1 
  744000    1.1657461   -6.2918575    338.27382  0.037889092  0.038547738            2 
  745000    1.1232475   -6.2585505    339.02991  0.037922808  0.038537208            3 
  746000    1.1163435   -6.2673003    340.46839  0.038032662  0.038527286            2 
  747000    1.1287357   -6.2692455    341.71384  0.038120687  0.038517279            4 
  748000    1.1153356   -6.2747838    340.03494  0.037882681   0.03850702            3 
  749000    1.1348577   -6.2506046    340.76852  0.037913721  0.038496798            1 
  750000    1.1592603   -6.2867079    340.56385  0.037840427  0.038486356            4 
  751000    1.1115517   -6.2594134    340.71284  0.037806574  0.038475888            2 
  752000     1.119513   -6.2490706    342.23747  0.037925252  0.038465736            5 
  753000    1.1316618   -6.2178705    343.47443  0.038011778  0.038456092            2 
  754000    1.1273536   -6.2855743    341.71788  0.037767228  0.038445935            3 
  755000    1.1489281   -6.2565901    343.08056  0.037867612  0.038436119            3 
  756000    1.1555506    -6.275266    343.89128  0.037906887  0.038425971            2 
  757000    1.1156048   -6.2769399    345.00418  0.037979324  0.038415536            4 
  758000    1.1391009   -6.2514444    345.33253  0.037965317  0.038405297            1 
  759000    1.1399639   -6.2620156    345.06839  0.037886297  0.038395297            8 
  760000    1.1320805   -6.2554841     346.8641  0.038033344  0.038385514            2 
  761000    1.1019122   -6.2544368    345.92849  0.037880912   0.03837612            1 
  762000    1.0989388   -6.2710266    346.03413  0.037842752  0.038365897            2 
  763000    1.1312494   -6.2752776    346.60143  0.037855115  0.038355766            4 
  764000    1.1386786   -6.2498453    346.50321  0.037794853   0.03834564            3 
  765000    1.1234808   -6.2854181    347.11412  0.037811996   0.03833511            3 
  766000    1.1296618   -6.2655448    347.39385  0.037793065  0.038324567            2 
  767000    1.1156418   -6.2868399    347.17948  0.037720499   0.03831417            2 
  768000    1.1378063   -6.2818522    348.08799  0.037769964   0.03830354            2 
  769000    1.1323792   -6.2932661    347.58294  0.037666119  0.038292498            4 
  770000     1.110835   -6.2801747    348.12186  0.037675526   0.03828121            3 
  771000    1.1286786   -6.2844185    347.71545  0.037582734  0.038270173            7 
  772000    1.1212508   -6.2973615    347.47003  0.037507559  0.038259271            3 
  773000    1.1380963   -6.2554992    349.64398    0.0376934  0.038247965            2 
  774000    1.1239093   -6.2663748    350.91096  0.037781111  0.038237053            9 
  775000    1.0898258   -6.3427658    349.99934  0.037634337  0.038226343            5 
  776000    1.1224825   -6.2579389    350.94362  0.037687244   0.03821591            2 
  777000    1.1108921   -6.2975727    351.78072   0.03772852  0.038205194            5 
  778000    1.1055187   -6.2673975    351.03943  0.037600624  0.038194581            2 
  779000    1.1267249   -6.2895646    351.56239    0.0376083  0.038184306            3 
  780000    1.1556903   -6.2383239    351.70366  0.037575177  0.038173569            6 
  781000    1.1349799   -6.2835297    351.19631  0.037472931  0.038162407            3 
  782000    1.1403122   -6.2667581    352.40314  0.037553617  0.038151399            3 
  783000    1.1024892   -6.2960787    352.37525  0.037502687  0.038140454            5 
  784000    1.1183029   -6.2880664    353.39385  0.037563121  0.038130019            2 
  785000    1.1336716    -6.295495    353.78929  0.037557249    0.0381194            2 
  786000    1.1305176   -6.2758898      352.921  0.037417409  0.038108684            4 
  787000    1.1412064   -6.2837982    354.34992  0.037521169  0.038097811            4 
  788000    1.1268793   -6.2855931    355.09426  0.037552269  0.038087275            4 
  789000    1.1242168   -6.2976578    354.47238  0.037438992  0.038076568            3 
  790000    1.1185318   -6.2987892    355.59912  0.037510455  0.038065755            4 
  791000    1.1303686   -6.2232137     357.4089  0.037653698  0.038055418            1 
  792000    1.1436206   -6.2978165    355.55933  0.037411546  0.038044741            3 
  793000    1.1124365   -6.2439418    356.41309  0.037454087  0.038034093            3 
  794000    1.1779241   -6.2544272    355.93816  0.037357069  0.038023438            3 
  795000    1.1258682    -6.313753    355.16261  0.037228785  0.038011954            4 
  796000    1.1451701   -6.2755495    357.94778  0.037473595  0.038000116            7 
  797000    1.1097427   -6.2411009    357.39752  0.037369042  0.037988777            4 
  798000    1.1279147   -6.2814021    358.57242  0.037444906  0.037977011            3 
  799000    1.1385583   -6.2790445    356.88142  0.037221675  0.037965405            3 
  800000    1.1163349   -6.2560075    358.97854  0.037393598  0.037954532            2 
  801000     1.100655   -6.2956035    358.93509  0.037342394  0.037942948            3 
  802000    1.1471908   -6.2877734    359.05005  0.037307778   0.03793204            4 
  803000    1.1327911    -6.287685    359.96739  0.037356516  0.037920821            5 
  804000    1.1177006   -6.2607681    361.25424  0.037443433  0.037910108            4 
  805000    1.1174165   -6.2976787    361.56503  0.037429092  0.037899372            3 
  806000    1.1018715   -6.2638467    362.59153  0.037488785  0.037888513            2 
  807000    1.1278358    -6.264076    361.69684  0.037349942   0.03787772            3 
  808000    1.1000865   -6.2961164    361.54753  0.037288317   0.03786646            4 
  809000    1.1366469   -6.2957272     361.4727  0.037234518  0.037855229            2 
  810000    1.1380291   -6.3387413    362.18352  0.037261679  0.037844617            2 
  811000    1.1153263    -6.282885    363.78402  0.037380191  0.037834173            2 
  812000    1.1310093   -6.3190459    362.42885  0.037195079  0.037823571            3 
  813000    1.1169189   -6.2311733    366.09015  0.037524615  0.037813344            3 
  814000    1.1239194   -6.2703194    365.41151  0.037409041  0.037803439            2 
  815000    1.1404489   -6.3154785    365.45665  0.037367756  0.037793338            3 
  816000    1.1203258   -6.2989139    366.21415  0.037399321  0.037782842            2 
  817000    1.1073123   -6.2873227    366.29116    0.0373614  0.037772927            3 
  818000    1.1032819   -6.3022883    365.95873   0.03728186  0.037762949            3 
  819000    1.1335801    -6.308883    365.32607  0.037171965  0.037753272            1 
  820000     1.093549   -6.3203333    366.15477  0.037210851  0.037743265            3 
  821000    1.1434941   -6.2932349    366.98589  0.037249888  0.037732831            4 
  822000    1.1363436   -6.3384206    366.20815  0.037125725  0.037722652            2 
  823000    1.0882307   -6.2906947    367.09625   0.03717054  0.037712064            4 
  824000    1.1212306   -6.2640831    367.14715  0.037130577  0.037701945            3 
  825000    1.1198907   -6.2842997    367.57758  0.037129049  0.037690831            2 
  826000    1.1406378   -6.2593044    369.36265   0.03726419  0.037680103            2 
  827000    1.1342945   -6.3084398    368.88919  0.037171421  0.037669374            5 
  828000    1.1431448    -6.318318    369.19349  0.037157154  0.037658854            4 
  829000    1.1160263   -6.3477809    367.92531  0.036984852  0.037647964            2 
  830000    1.1396974   -6.3195579    369.43935  0.037092304  0.037636989            3 
  831000    1.1137582   -6.3268837    369.73955  0.037077773  0.037626485            3 
  832000    1.1368875   -6.3377816    369.81123  0.037040388  0.037616124            2 
  833000    1.1100197   -6.3322223     368.9914  0.036913906  0.037605622            4 
  834000    1.1468003   -6.2511639       371.81  0.037151279   0.03759506            5 
  835000    1.1248796   -6.3205262    371.24147  0.037050047  0.037584451            2 
  836000    1.1108639   -6.2702615    372.83687   0.03716476  0.037574251            2 
  837000    1.1008004   -6.2975663    371.90902  0.037027978  0.037564127            2 
  838000    1.1179692   -6.3391973    372.51457  0.037044011  0.037553274            5 
  839000    1.1138046   -6.3194091    372.65102  0.037013411  0.037542612            2 
  840000    1.1392533   -6.2985207    372.10606  0.036915284  0.037531491            5 
  841000    1.1144566   -6.3086423    373.27239  0.036986959  0.037520413            2 
  842000    1.1007918   -6.3246641    372.43363  0.036860019  0.037509136            4 
  843000     1.115871   -6.3610401    372.05268  0.036778636  0.037497841            2 
  844000     1.103078   -6.2950891     374.6771  0.036994184  0.037486805            1 
  845000    1.1168652   -6.3016277    374.42547  0.036925589  0.037475824            5 
  846000    1.1279538   -6.2646919    376.14776  0.037051592   0.03746503            4 
  847000    1.1344434   -6.3050088    375.63462  0.036957362  0.037453923            4 
  848000    1.1308064    -6.311051    375.06021  0.036857332  0.037443058            4 
  849000    1.1246966   -6.3154203    374.14893  0.036724473  0.037431933            2 
  850000    1.1042186   -6.2744357    375.15436  0.036779839  0.037420723            5 
  851000    1.1202395   -6.2953353    377.20933  0.036937851  0.037410003            4 
  852000     1.104508   -6.2782535    376.81879  0.036856298  0.037398934            6 
  853000    1.1058564   -6.3177979    377.70801  0.036899962  0.037387812            4 
  854000    1.1016783   -6.2915915    377.18925  0.036806133  0.037376886            4 
  855000    1.1101059   -6.3102465    377.22602  0.036766669  0.037366225            7 
  856000    1.0867524   -6.2932419    377.58138  0.036758312   0.03735517            4 
  857000    1.1255376   -6.2543982    379.13089  0.036866092  0.037344339            1 
  858000    1.1137528    -6.316166    379.36867  0.036846219  0.037333559            2 
  859000     1.137476   -6.3088939    378.11299  0.036681509  0.037322141            2 
  860000    1.0971815    -6.287498    380.06842  0.036828335  0.037310359            5 
  861000    1.1163491   -6.2976303    378.13936  0.036598854  0.037298714            3 
  862000    1.1297846   -6.2831609    379.90066  0.036726668  0.037287527            6 
  863000     1.137523   -6.3107916    378.97001  0.036594245  0.037276252            4 
  864000    1.1030337    -6.297547    380.56116  0.036705359  0.037265304            4 
  865000    1.1162885   -6.3148924    380.68842  0.036675185  0.037253962            6 
  866000    1.1300493   -6.3012969    381.66949  0.036727241  0.037242511            2 
  867000    1.1171893   -6.3113144    380.49983  0.036572456  0.037231227            3 
  868000     1.129305   -6.3323409    381.79163  0.036654343   0.03722003            5 
  869000    1.1110623   -6.3253768    380.43648  0.036482209  0.037208361            2 
  870000    1.1050399   -6.2935029    382.73052  0.036660011  0.037197053            5 
  871000    1.1344422   -6.2951388    381.71952  0.036521194   0.03718567            2 
  872000    1.0882063   -6.3225314    382.84317  0.036586694  0.037174408            3 
  873000    1.1175837   -6.3191296    383.73937  0.036630333  0.037163215            3 
  874000    1.1084182   -6.2952428    384.15748  0.036628288  0.037152258            3 
  875000    1.1248619   -6.2850604    384.05377  0.036576549  0.037141133            2 
  876000    1.1163047     -6.28123    384.16559  0.036545432  0.037129795            2 
  877000     1.119978   -6.2908051    385.03551  0.036586423   0.03711866            5 
  878000    1.1231583   -6.3015758    386.18541  0.036653892  0.037107484            3 
  879000    1.1054451   -6.3332675    385.51464    0.0365486  0.037096082            4 
  880000    1.1082669   -6.2795761     386.0194  0.036554867  0.037084939            3 
  881000     1.103959   -6.3226177    386.53676  0.036562312   0.03707382            3 
  882000    1.1120373   -6.3199859      386.391  0.036507086  0.037062756            3 
  883000    1.1019439   -6.3330562    387.54376  0.036574534  0.037051637            2 
  884000    1.1033366    -6.328168    387.87505   0.03656439  0.037040866            2 
  885000    1.1353382   -6.3357938    387.00391  0.036441046  0.037030149            5 
  886000    1.1207473   -6.3113569    387.67669  0.036463195  0.037018877            2 
  887000     1.097889   -6.3197775    387.93332  0.036446197  0.037007628            4 
  888000     1.126893   -6.3325333    386.72554  0.036291812  0.036996412            3 
  889000    1.1182525    -6.330428    389.24347  0.036487014  0.036985546            4 
  890000    1.1150039   -6.3248092    389.32157  0.036453331  0.036974668            4 
  891000    1.1210016   -6.3662916    388.16589  0.036304329  0.036963266            2 
  892000    1.1287587   -6.3140556    390.39521  0.036471899  0.036952315            3 
  893000    1.1256166   -6.3101038    390.95786  0.036483563  0.036941867            1 
  894000    1.0986962    -6.330297    390.60283  0.036409659  0.036931004           10 
  895000    1.1116649   -6.3261995    389.78338  0.036292679  0.036919856            4 
  896000    1.1208175   -6.3310658     390.4315  0.036312454   0.03690852            1 
  897000    1.1065926   -6.3455089    390.71543  0.036298349  0.036897141            4 
  898000    1.0837801   -6.3635977    389.29027  0.036125675  0.036885335            1 
  899000    1.0935007   -6.3408463     390.7498  0.036220783  0.036873629            4 
  900000    1.0794902   -6.3464443    391.98222   0.03629465   0.03686175            4 
  901000     1.096765   -6.3756292    390.51353  0.036118528  0.036849778            3 
  902000    1.1196682    -6.312276    391.79668  0.036197032  0.036838244            5 
  903000    1.1299583   -6.3307439    392.24374  0.036198204  0.036826938            5 
  904000    1.1101221   -6.3522517    392.34751  0.036167727  0.036815659            3 
  905000    1.1341041   -6.3240353    393.98449  0.036278499  0.036804379            2 
  906000     1.107969   -6.3201007    394.11141  0.036250129  0.036792956           18 
  907000     1.121411   -6.3052749    394.99213  0.036291081  0.036781733            4 
  908000    1.0998621    -6.316096     395.7268  0.036318539  0.036770892            2 
  909000    1.1220731   -6.2933438     396.1142    0.0363141  0.036760265            2 
  910000    1.1063347   -6.3422471    397.30331  0.036383087  0.036749574            3 
  911000    1.1063038   -6.2764477    398.26603  0.036431214  0.036739537            3 
  912000    1.1110238   -6.3366729     396.7276  0.036250694  0.036729326            2 
  913000    1.1149063   -6.3687339    397.51735  0.036283073  0.036718783            3 
  914000    1.1153588   -6.3017246    399.70905  0.036443203  0.036708583            2 
  915000    1.1005359   -6.2954973    398.57404  0.036300004  0.036698401            2 
  916000    1.0999614   -6.3232894    399.21867   0.03631902  0.036688297            3 
  917000    1.0945045   -6.3648269    397.73777  0.036144836  0.036678049            2 
  918000    1.0976234   -6.3450389    399.44593  0.036260524  0.036667861            6 
  919000    1.0993569   -6.3678051    400.40714  0.036308228  0.036657564            2 
  920000    1.0749345   -6.3268221    400.91384  0.036314659  0.036647241            2 
  921000    1.0815822   -6.3397026    400.93708  0.036277332  0.036637418            6 
  922000    1.1005624   -6.3663442    400.31789  0.036182022  0.036627516            3 
  923000    1.0962461   -6.3501948    402.33037  0.036324519  0.036617278            3 
  924000    1.1205394   -6.3296821    403.07825  0.036352656  0.036607627            2 
  925000    1.1103045   -6.3587693    403.54485  0.036355392  0.036597642            3 
  926000    1.1230314    -6.335456    402.15808  0.036191332  0.036587922            3 
  927000    1.0974861   -6.3316157    402.57412  0.036189691  0.036577966            3 
  928000    1.1284031   -6.3246058    404.10153  0.036287853   0.03656789            1 
  929000    1.1075974   -6.3367443     404.1005  0.036248699  0.036557998            5 
  930000    1.1209193    -6.299329    405.00244  0.036290541  0.036547959            3 
  931000    1.1021582   -6.3324155    403.31499  0.036100519  0.036538114            6 
  932000    1.0787563   -6.2666965    405.59254  0.036265427  0.036528223            3 
  933000    1.1013175   -6.3655904     403.9226  0.036077403  0.036518282            3 
  934000    1.1019587   -6.3091849    405.47749  0.036177506  0.036508043            2 
  935000    1.0948075   -6.3278286    404.95172  0.036091954   0.03649824            2 
  936000    1.0935346   -6.3356225    404.90199  0.036048967  0.036487853            5 
  937000     1.081419   -6.2962414    406.27369  0.036132488  0.036477968            2 
  938000    1.0943013   -6.3350865    406.03873  0.036073093  0.036468348            8 
  939000    1.1194627    -6.315537    406.08306   0.03603861  0.036458197            8 
  940000    1.0872355   -6.3539329    407.42899  0.036119592  0.036448683            3 
  941000    1.1186489    -6.346827    407.16737  0.036058039  0.036438686            3 
  942000    1.1230463   -6.3614705    408.19438  0.036110614  0.036429035            2 
  943000    1.1046378   -6.3073119    409.53033  0.036190379  0.036419485            3 
  944000    1.1166573   -6.3553231    410.63162  0.036249261  0.036409998            6 
  945000    1.1021371   -6.3692324    408.82977  0.036052008  0.036400154            3 
  946000    1.0944838   -6.3447714    409.50249  0.036073158  0.036390233            4 
  947000    1.1164123   -6.4070836    409.18614  0.036007228  0.036380273            2 
  948000    1.1138734   -6.3445055    409.78686  0.036022052  0.036369899            4 
  949000     1.099388   -6.3332967    410.37512   0.03603575  0.036359845            6 
  950000    1.1107322   -6.3096914    412.44224  0.036179144  0.036350157            3 
  951000    1.1062659   -6.3622502    408.77066  0.035819371  0.036340226            7 
  952000    1.1223708   -6.3718277    410.78759  0.035958297  0.036330394            1 
  953000    1.1001092   -6.3047321    412.37172  0.036059087  0.036320977            3 
  954000    1.1166799   -6.2974051    411.87744  0.035978113  0.036311444            3 
  955000    1.1061386   -6.3533098    411.22782  0.035883754  0.036301668            5 
  956000    1.1088136   -6.3425504    411.16028  0.035840331   0.03629148            5 
  957000    1.0940309   -6.3261681     413.4876  0.036005538  0.036281346            3 
  958000    1.0886668   -6.3796468    412.26796  0.035861861  0.036271261            4 
  959000    1.0931423   -6.3453162    412.86688   0.03587651  0.036261439            3 
  960000    1.1173626   -6.3524588    414.10268  0.035946413   0.03625128            4 
  961000     1.110264   -6.3222928    414.29464  0.035925654  0.036241044            3 
  962000     1.097695   -6.3110668    415.26023  0.035971953  0.036231471            5 
  963000    1.0821389   -6.3502802    414.48576   0.03586758  0.036221655            3 
  964000    1.1006059   -6.3526445    415.47341  0.035915751  0.036211784            3 
  965000    1.0774366   -6.4115603    413.98277  0.035749807  0.036202029            4 
  966000    1.1100664   -6.3629197     415.6677  0.035858152  0.036191911            3 
  967000    1.0810162   -6.3640677    415.98034  0.035848013  0.036182259            2 
  968000    1.1085756   -6.3478816    415.98892  0.035811718    0.0361726            2 
  969000    1.1009463    -6.349908    416.11465  0.035785573  0.036163006            4 
  970000    1.0990403   -6.3578013    417.54859  0.035871872  0.036153356            3 
  971000    1.1151355   -6.3846934     417.7862  0.035855321  0.036143877            3 
  972000    1.1039263    -6.347755    419.54618  0.035969323   0.03613452            3 
  973000    1.1057995   -6.3579051    419.31036  0.035912159  0.036125158            5 
  974000    1.0706635   -6.3315556    419.06247  0.035854079  0.036116032            6 
  975000    1.0966531     -6.39286    417.74753  0.035704917  0.036106791            2 
  976000    1.0871601   -6.3797433    419.23829  0.035795619  0.036097412            1 
  977000    1.0740886   -6.3108937      422.943  0.036074975   0.03608825            4 
  978000    1.0933696   -6.3450646    421.45274  0.035911106    0.0360793            3 
  979000    1.0781664   -6.3803972    420.36454  0.035781796  0.036070332            6 
  980000     1.091031   -6.3591371    422.45283   0.03592286  0.036061156            3 
  981000    1.1118608   -6.3471733    422.53367  0.035893108  0.036052132            2 
  982000     1.078261   -6.3793022    424.22138  0.035999778   0.03604281            2 
  983000    1.1203974   -6.4089494    421.74945  0.035753599  0.036033615            4 
  984000     1.073141   -6.3718069    422.17854  0.035753603  0.036024587            3 
  985000    1.0843626   -6.3641015    422.67277  0.035759117  0.036015777            5 
  986000    1.0936911   -6.3656082    422.83462  0.035736529  0.036006917            3 
  987000    1.1046685   -6.3720435    424.59186  0.035848688  0.035997983            5 
  988000    1.1161768   -6.3632373    425.39993  0.035880561  0.035989242            4 
  989000    1.0820485   -6.3754175    424.93952  0.035805487  0.035980186            2 
  990000     1.090872   -6.3399926    426.78876   0.03592498  0.035971273            2 
  991000     1.079222   -6.3387137    427.21962  0.035924959  0.035962879            3 
  992000    1.0748544   -6.3470682    426.78775  0.035852465  0.035954495            6 
  993000    1.0948688   -6.3545947    426.46446  0.035789229  0.035946124            4 
  994000    1.0918777   -6.3268716    428.47237   0.03592156  0.035938105            2 
  995000    1.0934025   -6.3348013    428.67929  0.035902788  0.035929813            6 
  996000    1.0930335   -6.3807608    428.02751  0.035812208  0.035921232            3 
  997000    1.1020603   -6.3611155    429.70501    0.0359165  0.035912697            5 
  998000    1.0852616   -6.3539325    429.41054  0.035855924  0.035903904            4 
  999000    1.0918404   -6.3933074    427.62363  0.035670973  0.035894957            6 
 1000000    1.1057284    -6.364072    429.60789  0.035800658  0.035886364            7 
 1001000    1.0780567   -6.3325408    431.60594   0.03593123  0.035877929            3 
 1002000    1.0753618   -6.4017425    429.65988  0.035733523  0.035869562            3 
 1003000    1.1041401   -6.3654526    430.83324  0.035795384  0.035861035            2 
 1004000    1.0824034   -6.4025402    431.29618  0.035798156  0.035852625            5 
 1005000    1.0873741   -6.3513791    432.16683  0.035834729  0.035844419            3 
 1006000     1.085182   -6.4265754    430.82197  0.035687704  0.035836132            3 
 1007000    1.0657744   -6.3723375    433.19848  0.035848931  0.035828092            2 
 1008000    1.1031584   -6.3772284    432.99299  0.035796378  0.035819916            6 
 1009000    1.1294206   -6.3863397    432.83098   0.03574752  0.035811684            6 
 1010000    1.1021692    -6.359138    434.97027  0.035888636  0.035803938            2 
 1011000    1.0791028   -6.3521342    435.08332  0.035862456  0.035795894            4 
 1012000    1.0809854   -6.3312359    433.81727  0.035722766  0.035787761            4 
 1013000    1.0937733   -6.3839507    434.99874  0.035784694  0.035779563            4 
 1014000    1.0870709    -6.400286    434.19194  0.035683098  0.035771304            3 
 1015000    1.0777494   -6.3868401    434.04191  0.035635625  0.035763048            2 
 1016000    1.1069024   -6.3912699    434.46054  0.035634887   0.03575485            2 
 1017000    1.0879348   -6.3681126    436.16686  0.035739664   0.03574648            4 
 1018000    1.1038298   -6.3989189    436.76046  0.035753148  0.035738322            2 
 1019000    1.0934804   -6.3530657    436.22277   0.03567409   0.03572979            3 
 1020000    1.1034482   -6.3798376    436.69899  0.035678022  0.035721563            2 
 1021000    1.0710123   -6.3610125     436.7759  0.035649356  0.035713241            2 
 1022000    1.1136088     -6.36849    435.97615  0.035549262  0.035704706            3 
 1023000    1.1049495   -6.4004685    437.09076  0.035605308  0.035695861            7 
 1024000    1.1030276   -6.3987794    436.56371  0.035527646  0.035687305           13 
 1025000    1.0730976   -6.3896413    438.27305  0.035631955  0.035678448            4 
 1026000    1.0942739   -6.3604649     438.8075  0.035640635  0.035669643            2 
 1027000    1.0732987   -6.3958567    437.76499   0.03552134   0.03566076            2 
 1028000    1.0907276   -6.3542651    439.22849  0.035605423    0.0356521            2 
 1029000    1.0917846   -6.3863118    439.10117  0.035560509  0.035643383            3 
 1030000    1.0975564   -6.3911019    438.17125  0.035450748  0.035634508            2 
 1031000    1.0836238    -6.360303    438.16973   0.03541624  0.035625447            7 
 1032000    1.0738858   -6.3438954    439.42375  0.035483184  0.035616431            5 
 1033000    1.0803296   -6.3910254    439.60933  0.035463805  0.035607353            4 
 1034000    1.1047906   -6.3971606    441.06613  0.035546916  0.035598628            3 
 1035000    1.0960035   -6.4169426    439.54309  0.035389943  0.035589914            5 
 1036000    1.0844699   -6.3704423    441.01423  0.035474118   0.03558158            1 
 1037000    1.0819863    -6.346673     441.5282  0.035481212   0.03557355            3 
 1038000    1.0996601   -6.3890392    441.41373  0.035437839  0.035565143            4 
 1039000    1.1213053   -6.3927288    441.45275  0.035406861  0.035556548            3 
 1040000    1.0927795   -6.4084845    442.39757  0.035448524  0.035548058            5 
 1041000    1.1054011   -6.3828392    443.91663  0.035536074  0.035539372            5 
 1042000    1.0859024   -6.4223605    442.64325  0.035400132  0.035530786            3 
 1043000    1.0872001   -6.3491566    444.19677  0.035490314  0.035522177            3 
 1044000    1.0631112    -6.369706     444.9371  0.035515414  0.035513939            5 
 1045000    1.1001502   -6.3769064    444.63154  0.035457061  0.035505436            3 
 1046000    1.0628477   -6.3780398    445.05053  0.035456543  0.035496761            2 
 1047000     1.079276   -6.3920793    445.44414  0.035454007  0.035488279            2 
 1048000    1.0627135    -6.430857    444.62064  0.035354695  0.035479765            3 
 1049000    1.0903434   -6.3822986    445.21217  0.035367983  0.035470783            6 
 1050000    1.0490954   -6.3778903    446.73536  0.035455188  0.035461976            4 
 1051000    1.0817262   -6.4329924    445.21153  0.035300629  0.035453345            2 
 1052000    1.0662655   -6.3960777    447.39035  0.035439666  0.035444236            3 
 1053000    1.1157848   -6.3924998    445.85238  0.035284297  0.035435244            4 
 1054000    1.0880362   -6.4142157    445.58445  0.035229637   0.03542635            3 
 1055000    1.0860498   -6.3959959    446.82398  0.035294153  0.035417199            3 
 1056000    1.0800768   -6.3911315     445.7791  0.035178275  0.035408168            5 
 1057000    1.0935248   -6.3612765    447.10045  0.035249169  0.035399261            3 
 1058000    1.0876525   -6.3769308    446.93256  0.035202627  0.035390487            4 
 1059000    1.1093888   -6.3639597    447.38627  0.035205089  0.035381738            2 
 1060000    1.0911571   -6.3515208     450.1317  0.035387712  0.035372853            3 
 1061000    1.0810129   -6.3920552    447.62754  0.035157677  0.035364265            7 
 1062000    1.0998734   -6.3719151    449.81362  0.035296109  0.035355616            6 
 1063000    1.0811238   -6.3856043     449.9216  0.035271371  0.035346525            7 
 1064000    1.1058081   -6.3559327    448.47212  0.035124696  0.035337435            3 
 1065000    1.0848561    -6.392744    448.15385  0.035066811  0.035328404            2 
 1066000    1.0963679    -6.383128    450.39338  0.035208988   0.03531898            2 
 1067000    1.0887982   -6.3870506    449.13901  0.035078023  0.035309666            7 
 1068000    1.0734026   -6.4100741    449.37393  0.035063509   0.03530048           10 
 1069000    1.0842985   -6.3463647    450.28768  0.035101939  0.035291377            2 
 1070000    1.0933925   -6.4027976    450.86316  0.035113953   0.03528256            2 
 1071000    1.0926247   -6.3995014    450.99712  0.035091591  0.035273808            3 
 1072000     1.074366   -6.3815252    452.48807  0.035174756  0.035264889            7 
 1073000    1.0903678    -6.379965    452.10351  0.035112109  0.035256111            3 
 1074000    1.0711996   -6.3554089    453.37693  0.035178222  0.035247423            4 
 1075000    1.0770104   -6.4472088    452.16716  0.035051718  0.035238416            4 
 1076000    1.0760791   -6.3940055    452.13806  0.035016888  0.035229077            3 
 1077000    1.0634746   -6.3965046    452.93338  0.035045913  0.035220224            7 
 1078000    1.0837783    -6.390452    453.44476  0.035052934  0.035211199            2 
 1079000    1.0867853    -6.384402    455.35443  0.035167935  0.035202644            2 
 1080000    1.0629101   -6.4058997    454.28982  0.035053227   0.03519395            2 
 1081000    1.0924068   -6.4140994    453.62644  0.034969661   0.03518514            4 
 1082000    1.0654557   -6.3710819    456.28576  0.035142156  0.035176322            5 
 1083000    1.0791503   -6.4074223    456.17413  0.035101118  0.035167401            2 
 1084000    1.0711716   -6.3422407    458.83583  0.035273357  0.035158899            5 
 1085000    1.0736975   -6.3741648    456.63673  0.035071946   0.03515073            1 
 1086000    1.0674172   -6.3983018    457.42147  0.035099867  0.035142357            4 
 1087000    1.0890359   -6.3926898    456.88798  0.035026678  0.035133723            5 
 1088000    1.0870509   -6.3952652    457.71435  0.035057778  0.035125295            3 
 1089000    1.0715714    -6.389542    456.30523  0.034917756  0.035116472            3 
 1090000    1.0973394   -6.4044753    457.60719   0.03498526  0.035107645            1 
 1091000    1.0649011   -6.3587897      458.064  0.034988084  0.035099183            4 
 1092000    1.1138027   -6.4146994    457.49421  0.034912562  0.035090718            5 
 1093000    1.0917243   -6.4062351    458.41427  0.034950767  0.035082226            3 
 1094000    1.0824095   -6.3950375    459.12171  0.034972708  0.035073801            3 
 1095000    1.0813971   -6.4195779    458.89884  0.034923808  0.035065109            2 
 1096000    1.0963121    -6.350965    459.85727  0.034964817  0.035056225            2 
 1097000    1.0792349   -6.3903239    458.00604  0.034792315  0.035047293            2 
 1098000    1.0861443   -6.3864928    459.44385  0.034869752  0.035038444            2 
 1099000    1.0828511   -6.4067684    461.27414  0.034976807  0.035029463            2 
 1100000    1.0645654   -6.4006535     459.6068  0.034818697  0.035020289            3 
 1101000    1.0686913   -6.3812186    460.60365  0.034862523  0.035011466            9 
 1102000    1.0835895   -6.3889765    463.44171  0.035045501  0.035002533            2 
 1103000    1.0841242    -6.427058    462.09034  0.034911631  0.034993678            3 
 1104000     1.056768    -6.393245    462.28388  0.034894617   0.03498473            5 
 1105000    1.0683169   -6.3793904    462.35979  0.034868763  0.034976005            3 
 1106000     1.076721   -6.4028348    461.30872  0.034758041  0.034966822            4 
 1107000     1.070578   -6.4173821      463.156  0.034865703  0.034957709            3 
 1108000    1.0661028   -6.3959369    463.25046   0.03484134  0.034948648            5 
 1109000    1.0786472   -6.4238382    462.74121  0.034771657  0.034939538            5 
 1110000    1.0804329   -6.3664837    462.59267  0.034729179  0.034930481            2 
 1111000    1.0850398   -6.3754187    463.83453  0.034791069  0.034921351            3 
 1112000    1.0893032   -6.3875462    463.73783  0.034752536  0.034912217            7 
 1113000    1.0877522   -6.3746852    462.62451  0.034637954  0.034903114            3 
 1114000    1.0887745   -6.3752018    463.99796  0.034709602  0.034893415            2 
 1115000    1.0643012   -6.4195161     462.2518  0.034547967  0.034883976            3 
 1116000    1.0641614   -6.4119437    463.54612  0.034613659  0.034874348            5 
 1117000    1.0807298   -6.4553648    464.26501  0.034636303  0.034864502            2 
 1118000    1.0760603   -6.4444613     465.2842  0.034681291  0.034854842            2 
 1119000    1.0602339    -6.426425    465.24711  0.034647536  0.034845231            4 
 1120000    1.0709881   -6.4501683    465.44462  0.034631296  0.034835622            6 
 1121000     1.082355   -6.3905349    466.20146  0.034656665  0.034826073            6 
 1122000    1.0564462   -6.4026463    466.30911  0.034633773  0.034816859            3 
 1123000    1.0767488   -6.4036254     465.2175  0.034521928  0.034807633            3 
 1124000    1.0673326   -6.4128118    467.54879  0.034664056  0.034798455            4 
 1125000    1.0343264   -6.4118296    466.95301  0.034589112  0.034789087            3 
 1126000    1.0744579    -6.386069    467.87366  0.034626529  0.034780006            4 
 1127000    1.0572718   -6.4212912    467.77908  0.034588811    0.0347707            4 
 1128000     1.060315   -6.4769239    465.97506  0.034424872  0.034761319            2 
 1129000    1.0860428   -6.4104226    468.93088  0.034612554  0.034752108            8 
 1130000    1.0703857   -6.4442465    468.32185  0.034537009  0.034743027            3 
 1131000    1.0751799   -6.4524928    469.00696  0.034556953  0.034733618            4 
 1132000    1.0615066   -6.4246807    470.14431  0.034610152  0.034724463            4 
 1133000     1.081616   -6.3874093    470.54825  0.034609316  0.034715606            2 
 1134000    1.1083605   -6.3889479     471.6479  0.034659604  0.034706733            4 
 1135000    1.0498076   -6.4200323    471.79507  0.034639873   0.03469811            2 
 1136000    1.0817907   -6.3483592    472.24603  0.034642461  0.034689539            2 
 1137000    1.0780495    -6.385017    471.42886    0.0345521  0.034681129           10 
 1138000    1.0594999   -6.4349047    471.27029  0.034510127  0.034672415            3 
 1139000     1.080123    -6.435745    471.88504  0.034524805  0.034663562            4 
 1140000    1.0734777   -6.3848996    474.44103  0.034681362  0.034654846            4 
 1141000    1.0617144    -6.407006    473.26825  0.034565312  0.034646311            3 
 1142000    1.0460393   -6.4342322    473.93724  0.034583861  0.034637553            4 
 1143000     1.060798    -6.422248    474.03015  0.034560379  0.034628934            3 
 1144000    1.0755408   -6.3934838    475.79952  0.034659056  0.034620756            6 
 1145000    1.0672435    -6.445317    474.41061  0.034527701  0.034612222            2 
 1146000    1.0818727   -6.4465768    474.08528  0.034473915  0.034603685            9 
 1147000     1.082267   -6.4176088    475.70868  0.034561805  0.034595137            4 
 1148000    1.0796128   -6.4337458    475.91328   0.03454655  0.034586924            5 
 1149000    1.0494306   -6.4076757    476.93131  0.034590319  0.034578539            4 
 1150000    1.0379804   -6.4869995    474.38042  0.034375392  0.034570017            4 
 1151000    1.0966728   -6.4443217    477.46958  0.034569184  0.034561583            6 
 1152000    1.0799974   -6.4240217    476.50939  0.034469719  0.034553293            7 
 1153000    1.0827603   -6.4336872    480.00554  0.034692508   0.03454559            3 
 1154000    1.0571098   -6.4098746    480.14974  0.034672858  0.034537673            5 
 1155000    1.0528313   -6.4475236    477.72779  0.034468094   0.03452992            7 
 1156000    1.0354927   -6.4117331    479.69832  0.034580328  0.034521832            2 
 1157000    1.0999643   -6.4076881    480.93052   0.03463919  0.034513827            3 
 1158000    1.0676086   -6.4631823    478.30033  0.034420001  0.034505678            4 
 1159000    1.0552235    -6.428845    480.86178  0.034574473  0.034497557            7 
 1160000    1.0785401   -6.4465766    479.69552  0.034460885  0.034489713            3 
 1161000     1.065316   -6.4358253    481.16419   0.03453662  0.034481692            5 
 1162000    1.0935244   -6.4031947    481.25414  0.034513349  0.034473705            6 
 1163000     1.070559   -6.4551034    482.26278  0.034555946  0.034465568            7 
 1164000    1.0667241   -6.4500577    479.77506  0.034348157  0.034457385            5 
 1165000    1.0646852   -6.4295765    482.29526  0.034498946  0.034449397            3 
 1166000    1.0512317   -6.4481285    480.00394  0.034305599  0.034441253            3 
 1167000    1.0704637   -6.4284151    484.38489  0.034589038  0.034433079            4 
 1168000    1.0700887   -6.4150862     482.2669  0.034408312  0.034424847            3 
 1169000    1.0525235   -6.4301796     482.9461  0.034427295  0.034416675            3 
 1170000    1.0677234   -6.4360608    483.54857  0.034440781  0.034408403           10 
 1171000    1.0458954   -6.3749028    486.01474  0.034586873  0.034400275            3 
 1172000    1.0762653   -6.4086264    485.06963  0.034490162  0.034392469            5 
 1173000    1.0487936   -6.4093929    486.13618  0.034536529  0.034384625            6 
 1174000     1.088074   -6.4357492    484.54641  0.034394266   0.03437655            4 
 1175000    1.0776513   -6.4463252    485.33097  0.034420636    0.0343683            5 
 1176000    1.0781418    -6.428918    486.78797  0.034494612  0.034360268            4 
 1177000    1.0923463   -6.4182324    486.15251  0.034420314  0.034352233            2 
 1178000    1.0706111   -6.4683633    485.07725  0.034315029  0.034344159            9 
 1179000    1.0550028   -6.4275958    485.45563  0.034312668  0.034335947            7 
 1180000    1.0298204   -6.4039656    487.19272  0.034406266  0.034327669            2 
 1181000    1.0620546   -6.4169008    486.11034  0.034300758  0.034319578            3 
 1182000    1.0740109    -6.426202    487.27571  0.034353899  0.034311673            2 
 1183000    1.0623936   -6.4489983    486.84335  0.034294404  0.034303539            3 
 1184000    1.0624903   -6.4444292    489.28749  0.034437464  0.034295691            3 
 1185000    1.0643024   -6.4549395    488.69195  0.034366523  0.034287884            5 
 1186000    1.0835573   -6.4540751    489.28792  0.034379421  0.034280422            4 
 1187000    1.0691755    -6.447288    489.21074  0.034345039  0.034272501            3 
 1188000    1.0897828   -6.4165701     490.2874  0.034391653  0.034264845            2 
 1189000    1.0543517   -6.4559844    489.99146  0.034341986  0.034257186            4 
 1190000    1.0659358   -6.4675837    488.66741  0.034220407  0.034249379            4 
 1191000    1.0653244   -6.4480398    490.58834  0.034326081   0.03424149            2 
 1192000    1.0708707   -6.4440856    490.00102  0.034256223  0.034233634            4 
 1193000     1.059326   -6.4468784    489.54382  0.034195572  0.034225622            4 
 1194000    1.0543113   -6.3938381    491.20759  0.034283054  0.034217381            4 
 1195000    1.0593439   -6.4408105    492.33845  0.034333225  0.034209453            4 
 1196000    1.0561772   -6.4622518    489.33654  0.034095355  0.034201322            3 
 1197000    1.0696994   -6.4517051    491.04892  0.034186085  0.034193231            3 
 1198000    1.0621984   -6.4080158    493.94723  0.034359156  0.034185193            3 
 1199000      1.07525    -6.446934     493.2802  0.034284139  0.034177088            5 
 1200000    1.0506605   -6.4412823    493.73636  0.034287247  0.034168973            4 
 1201000    1.0716522   -6.4140008     493.8809  0.034268727   0.03416083            2 
 1202000    1.0603714   -6.4373022    493.93373   0.03424388  0.034152744            2 
 1203000    1.0670335   -6.4898802     492.3969  0.034108957  0.034144743            4 
 1204000    1.0392318   -6.4246506    494.42487  0.034220991  0.034136637            3 
 1205000    1.0583175   -6.4595093     493.7733  0.034147531   0.03412866            4 
 1206000    1.0578633   -6.4737852    493.28735  0.034085638  0.034120303            5 
 1207000    1.0414321   -6.4816682    494.52968  0.034143171  0.034112013            7 
 1208000    1.0489283   -6.4307825    496.67842  0.034263136  0.034104005            5 
 1209000    1.0500186   -6.4206698    496.69028  0.034235613  0.034095966            5 
 1210000    1.0759103   -6.4320803    496.81673  0.034216029  0.034087727            3 
 1211000     1.051879   -6.4677292    495.56868  0.034101891  0.034079775            2 
 1212000    1.0372702   -6.4307101    497.83964  0.034229898  0.034071824            2 
 1213000    1.0612666   -6.4247158    497.13444  0.034153231  0.034064233            4 
 1214000    1.0520544   -6.4908576    497.79245  0.034170267  0.034056434            4 
 1215000    1.0477309   -6.4461873    498.75513  0.034208171  0.034048823            4 
 1216000    1.0403411    -6.471277    496.16931  0.034002831  0.034041091            3 
 1217000    1.0240121   -6.4634946    497.75767  0.034083653  0.034033163            4 
 1218000      1.07555    -6.448653    498.19454   0.03408556  0.034025473            2 
 1219000    1.0639659   -6.4345976    498.88666  0.034104912  0.034017879            6 
 1220000    1.0517677   -6.4812153    497.67714   0.03399434  0.034010031            4 
 1221000    1.0455998   -6.4845812    498.56811  0.034027307   0.03400204            6 
 1222000    1.0849259   -6.4650949    498.79265  0.034014774   0.03399393            2 
 1223000    1.0771658   -6.4740723    499.86218  0.034059838  0.033985846            6 
 1224000    1.0423287   -6.4821947    499.12977  0.033982147   0.03397764            3 
 1225000    1.0483172   -6.4583084    501.66133  0.034126621  0.033969553            7 
 1226000    1.0426854   -6.4143891    502.42781  0.034150884  0.033961948            2 
 1227000    1.0486025   -6.4260214    502.07571  0.034099138  0.033954367            3 
 1228000    1.0516999   -6.4846864    499.22818  0.033878134    0.0339463            4 
 1229000    1.0631444      -6.4658    500.80807  0.033957694  0.033938264            2 
 1230000    1.0411596   -6.4726126    501.42684  0.033972008  0.033930127            4 
 1231000    1.0377104    -6.472856    503.40669  0.034078438  0.033922023            5 
 1232000    1.0388087   -6.4354337    501.83388  0.033944391  0.033913956            2 
 1233000    1.0528495   -6.4532493     503.0289  0.033997628  0.033906106            3 
 1234000    1.0323665   -6.4585934    502.54693  0.033937529  0.033898444            5 
 1235000     1.075311   -6.4539726    503.22711  0.033955945  0.033890639            9 
 1236000    1.0587064   -6.4752384    503.96389  0.033978148  0.033882901            4 
 1237000    1.0276255   -6.4729044    505.02255  0.034021999  0.033875043            3 
 1238000    1.0540105    -6.443665    505.15302    0.0340033  0.033867272            2 
 1239000    1.0353728   -6.4321919    506.23408  0.034048566  0.033859424            2 
 1240000    1.0280876   -6.4570827    504.68136  0.033916758   0.03385179            3 
 1241000    1.0644344   -6.4463481    505.15527  0.033921251  0.033843978            5 
 1242000    1.0647487    -6.434486    506.84266  0.034007157  0.033836138            4 
 1243000    1.0522148   -6.4898096    504.76354  0.033840409    0.0338282            3 
 1244000    1.0529217   -6.4150886    507.17264  0.033974588  0.033820082            2 
 1245000    1.0431137   -6.5094669    503.83874  0.033724146  0.033812087            5 
 1246000    1.0775361   -6.4425573    505.72135   0.03382299  0.033804014            4 
 1247000    1.0737649   -6.4956016    505.09595  0.033754073   0.03379601            3 
 1248000    1.0585701   -6.4577361    507.04794  0.033857368  0.033788003            5 
 1249000    1.0379355   -6.4750721    506.19682  0.033773474  0.033779924            3 
 1250000    1.0647763   -6.4468098    507.04263  0.033802842  0.033771999            4 
 1251000    1.0489005   -6.4637917     507.7618  0.033823728  0.033764056            4 
 1252000    1.0760292   -6.4588034     507.6848  0.033791587  0.033755886            2 
 1253000     1.067841   -6.4799647    507.73252  0.033767792  0.033747667            2 
 1254000    1.0572657    -6.474725    507.68347  0.033737604  0.033739224            6 
 1255000    1.0216373   -6.4747591    507.37334  0.033690129  0.033730888            5 
 1256000    1.0560521   -6.4856605    508.92867  0.033766499  0.033722662            2 
 1257000    1.0586389    -6.453968    508.94246   0.03374055  0.033714485            4 
 1258000     1.050715   -6.4649136    507.84595  0.033641094  0.033706209            2 
 1259000    1.0575205   -6.4534523    509.67236  0.033735263  0.033697855            2 
 1260000    1.0802078   -6.4678647    508.66056  0.033641572  0.033689604            3 
 1261000    1.0301302   -6.4912422    508.55252  0.033607753   0.03368114            8 
 1262000    1.0281588   -6.4548767    509.19507  0.033623552  0.033672627            2 
 1263000     1.057307   -6.4645242    509.95675  0.033647186  0.033664303            2 
 1264000    1.0402952   -6.4817844    509.11529   0.03356509   0.03365574            2 
 1265000    1.0247611   -6.4567144    509.06531  0.033535264  0.033647195            4 
 1266000    1.0232815   -6.4688569    510.28454   0.03358903  0.033638627            6 
 1267000    1.0639394   -6.5070083     508.5277  0.033446968  0.033629905            4 
 1268000    1.0626948   -6.4833659    508.59358   0.03342492  0.033621257            1 
 1269000    1.0653442   -6.4368096    511.76546  0.033606873  0.033612607            4 
 1270000    1.0490239   -6.4902892    511.01964  0.033531473  0.033604139            5 
 1271000    1.0374813   -6.5078168    510.12827  0.033446648  0.033595462            5 
 1272000     1.039264   -6.4634362    513.33227  0.033630259   0.03358684            5 
 1273000    1.0597397   -6.4733361    511.11126  0.033458449  0.033578487            3 
 1274000    1.0621178   -6.4838793     513.3078  0.033575864  0.033569907            6 
 1275000    1.0473152   -6.4745046    512.50736  0.033497213  0.033561196            5 
 1276000    1.0525333   -6.4995983    512.92191  0.033498035  0.033552353            3 
 1277000    1.0545758    -6.463256    512.68866  0.033456582  0.033543495            4 
 1278000    1.0347909   -6.4756243    513.07994  0.033455917  0.033534604            7 
 1279000    1.0372087   -6.4886024    511.27664  0.033312265  0.033525571            4 
 1280000    1.0436267   -6.5050963    511.39073  0.033293667  0.033516492            4 
 1281000    1.0545447   -6.4726348    514.40236  0.033463593  0.033507639            3 
 1282000    1.0286314   -6.4807432    513.02158  0.033347736  0.033498738            5 
 1283000    1.0544661   -6.4742482    512.09901  0.033261822   0.03348975            3 
 1284000    1.0400424   -6.4725642    514.08346   0.03336471  0.033480719            2 
 1285000    1.0443625   -6.4620395    512.86922  0.033260001  0.033471678            4 
 1286000    1.0705025   -6.4475697    514.36872  0.033331307  0.033462673            2 
 1287000    1.0650744   -6.4696377    514.16833  0.033292433  0.033453694            3 
 1288000    1.0256093   -6.5044825    514.05405  0.033259191  0.033444625            4 
 1289000    1.0526759   -6.4714481    514.78418  0.033280591  0.033435585            3 
 1290000    1.0586946   -6.4820122    515.04326  0.033271528  0.033426329            2 
 1291000    1.0121289   -6.4543529    516.11846   0.03331516  0.033417224            3 
 1292000    1.0440412   -6.4462572     517.0759  0.033351129  0.033408224            6 
 1293000    1.0606178   -6.4871942    514.39246  0.033152388  0.033399134            1 
 1294000    1.0295584   -6.4734676    515.98885  0.033229575  0.033389827            8 
 1295000    1.0067467   -6.4738206    514.91423  0.033134764  0.033380643            6 
 1296000    1.0479665   -6.4827477    516.49035  0.033210542  0.033371364            6 
 1297000    1.0540477   -6.4909043    515.57025  0.033125819  0.033361879            3 
 1298000    1.0459747   -6.5260932    514.67431  0.033042778  0.033352295            4 
 1299000     1.010928   -6.4845307    517.24878  0.033182498   0.03334285            8 
 1300000      1.06659   -6.4744026    515.12849  0.033021057  0.033333387            3 
 1301000    1.0267935   -6.5144231    515.04983  0.032990637   0.03332349            5 
 1302000    1.0420073   -6.4829244    516.41534  0.033052697  0.033313819            3 
 1303000    1.0504563    -6.448089     517.4558  0.033093873  0.033304278            4 
 1304000     1.064575   -6.4872182    516.33755  0.032997031  0.033294758            5 
 1305000    1.0348082   -6.5003077    517.41024  0.033040245  0.033285369            2 
 1306000    1.0499524   -6.5071057    517.89835  0.033046092  0.033275794            3 
 1307000    1.0388491    -6.518166    518.29884  0.033046343  0.033266362            4 
 1308000    1.0600277   -6.4835739    519.34347  0.033087632   0.03325698            6 
 1309000    1.0403155   -6.4940609    519.01701  0.033041572  0.033247665            2 
 1310000    1.0382354    -6.505578    521.30052  0.033161611  0.033238437            5 
 1311000    1.0247042   -6.4897984    519.45574  0.033019053  0.033229163            3 
 1312000    1.0385818    -6.486645    519.31456  0.032984919  0.033219919            3 
 1313000    1.0539378   -6.4970162     520.2058  0.033016362  0.033210498            2 
 1314000    1.0183725   -6.4743487    520.09725  0.032984351  0.033201059            5 
 1315000    1.0577167   -6.5644359     517.2334  0.032777782  0.033191563            2 
 1316000    1.0320264   -6.5094982    519.59737  0.032902569  0.033181862            4 
 1317000    1.0348921    -6.513872     519.6867  0.032883238  0.033172603            4 
 1318000    1.0385876   -6.4741072    522.32479  0.033025088  0.033163409            4 
 1319000    1.0473013   -6.4661363    522.27443  0.032996868  0.033154344            4 
 1320000    1.0441373   -6.4943435    522.78185  0.033003905  0.033145222            3 
 1321000    1.0252086   -6.4662376    522.15278  0.032939237   0.03313604            4 
 1322000    1.0411059   -6.5251651    522.92177  0.032962794  0.033126916            3 
 1323000    1.0685989   -6.5118931     523.5925  0.032980127  0.033117864            3 
 1324000    1.0407661   -6.4594744    524.50569  0.033012694  0.033108965            2 
 1325000    1.0204531   -6.4834888    522.21027  0.032843413  0.033099904            3 
 1326000    1.0140288     -6.42447    526.73115  0.033102762  0.033090959            2 
 1327000    1.0566419    -6.526417    523.98628  0.032905444  0.033082064            7 
 1328000    1.0373788   -6.4879831    525.50936   0.03297624  0.033073058            6 
 1329000    1.0388189   -6.5151602     524.1307   0.03286498  0.033064043            3 
 1330000    1.0441953   -6.5181531    524.69283  0.032875491  0.033054896            5 
 1331000    1.0007426   -6.5307108     525.4297  0.032896926  0.033045833            2 
 1332000    1.0528866   -6.4821899    526.19202  0.032919921   0.03303689            4 
 1333000    1.0682938   -6.4670618    526.55134  0.032917688  0.033027695            4 
 1334000    1.0442382   -6.4850123    526.03427  0.032860712    0.0330189            3 
 1335000    1.0228412   -6.5274749    525.27501  0.032788702  0.033010191            3 
 1336000    1.0421747   -6.4831085    527.55498  0.032906373  0.033001258            3 
 1337000    1.0278518   -6.4660862    525.32091  0.032742515  0.032992342            4 
 1338000    1.0483388   -6.4982313    527.56362  0.032857724  0.032983287            2 
 1339000    1.0432536   -6.5177277    526.08145  0.032740942  0.032974204            4 
 1340000    1.0377675   -6.4596085    528.65102  0.032876307  0.032965283            2 
 1341000    1.0384328    -6.507008    527.96812  0.032809354  0.032956141            2 
 1342000    1.0053155   -6.5492967    527.18798  0.032736462   0.03294687            4 
 1343000    1.0271403   -6.5262176     529.2757   0.03284163  0.032937848            3 
 1344000    1.0088172   -6.5026115    530.14536  0.032871116  0.032928719            5 
 1345000    1.0405111   -6.4821756    529.34812  0.032797281  0.032919521            4 
 1346000    1.0272838   -6.5574974    526.10475  0.032572112  0.032910188            6 
 1347000    1.0473331   -6.5237079    530.20622  0.032801671  0.032900816            3 
 1348000    1.0304339   -6.5060748     529.9735  0.032762951  0.032891721            5 
 1349000    1.0321175   -6.4974664    530.70891  0.032784094  0.032882682            8 
 1350000     1.047683    -6.526881    529.08302  0.032659445  0.032873485            4 
 1351000    1.0355787   -6.5045942     530.9408  0.032749864  0.032864198            5 
 1352000    1.0237043   -6.5286302    529.11532  0.032613124    0.0328548            2 
 1353000    1.0387626   -6.5313335    527.58699  0.032494887  0.032845267            3 
 1354000    1.0261482   -6.4925366    530.10339  0.032625763  0.032836029            3 
 1355000    1.0207371    -6.536039    529.24366  0.032548811  0.032826528            3 
 1356000    1.0298706   -6.5067855    530.06731  0.032575425  0.032817062            3 
 1357000    1.0391336   -6.5299478    529.03567  0.032488066  0.032807481            4 
 1358000    1.0090175   -6.5180084    530.24922  0.032538612  0.032797894            4 
 1359000    1.0406184   -6.4887136     529.4592  0.032466225  0.032788452            3 
 1360000    1.0332428   -6.5049131    530.22784  0.032489451  0.032778877            4 
 1361000    1.0209912   -6.5266671     531.1428  0.032521602  0.032769359            4 
 1362000    1.0274579    -6.536788    528.80246  0.032354531   0.03275963            2 
 1363000     1.038688   -6.5040494    532.25174  0.032541681  0.032750001            6 
 1364000     1.026581   -6.5040066    532.64866  0.032542074  0.032740386            4 
 1365000    1.0328521   -6.4767801    535.47216  0.032690608   0.03273083            5 
 1366000    1.0503454   -6.5074318    533.02435  0.032517347  0.032721385            9 
 1367000    1.0530151   -6.5132811    531.63447  0.032408832  0.032711849            3 
 1368000     1.037783   -6.4846013    532.52569  0.032439431   0.03270232            5 
 1369000    1.0158533   -6.5393918    531.79727  0.032371394  0.032692615            6 
 1370000    1.0257928   -6.5572436    531.55242  0.032332872  0.032682965            6 
 1371000    1.0168871   -6.5123587    533.13544  0.032405509  0.032673196            7 
 1372000    1.0441078   -6.5092728    533.52455  0.032405524  0.032663464            3 
 1373000    1.0211823   -6.5037918    535.19148  0.032483096  0.032653846            5 
 1374000    1.0523485   -6.5395084    533.13222  0.032334559  0.032644215            3 
 1375000    1.0449149   -6.5074989    534.14687  0.032372538  0.032634527            2 
 1376000    1.0355629   -6.5434187    534.43758  0.032366617  0.032624979            4 
 1377000    1.0574158   -6.5193416    535.11692  0.032384224  0.032615595            1 
 1378000    1.0283591   -6.4969411    535.43466  0.032379938  0.032606339            4 
 1379000    1.0136055    -6.486735    536.85517  0.032442299  0.032596925            3 
 1380000    1.0454841   -6.5141495    538.02749  0.032489583  0.032587733            7 
 1381000    1.0476898   -6.5092228    535.36127   0.03230517  0.032578204            2 
 1382000    1.0020308   -6.5090942    535.55415  0.032293424  0.032568674            4 
 1383000     1.011305   -6.4970982    538.63406  0.032455655  0.032559309            3 
 1384000    1.0197045   -6.5111489    536.77495  0.032320264  0.032549785            2 
 1385000    1.0412189   -6.5335019    537.37755  0.032333186  0.032540223            5 
 1386000    1.0170331   -6.5257726     536.0301  0.032228842  0.032530728            5 
 1387000     1.052167    -6.504599     537.9571  0.032321383   0.03252115            5 
 1388000    1.0491729   -6.5344313    538.47372  0.032329114    0.0325117            9 
 1389000    1.0215889   -6.4927298    536.45815  0.032184914  0.032502205            7 
 1390000    1.0403563   -6.5429967    538.88792  0.032307429  0.032492712            2 
 1391000    1.0194951   -6.5225581    538.07001  0.032235203  0.032483496            6 
 1392000    1.0338576    -6.476892    541.58034  0.032422195  0.032474526            1 
 1393000    1.0129003   -6.5455475    541.09381  0.032369814  0.032465371            5 
 1394000    1.0237906   -6.5184402    541.84343  0.032391405  0.032456198            3 
 1395000    1.0223431   -6.5124483    540.78611  0.032305025  0.032446966            6 
 1396000       1.0354   -6.5221083    540.95103  0.032291728  0.032437877            5 
 1397000    1.0220834   -6.5237187    540.12405  0.032219282  0.032428852            4 
 1398000    1.0175377   -6.5285063    540.89119  0.032241964  0.032419754            3 
 1399000    1.0395392   -6.5089835     541.7886  0.032272373  0.032410713            4 
 1400000    1.0200388   -6.4932391    542.12344  0.032269253  0.032401825            3 
 1401000      1.02045   -6.5436403    542.32993  0.032258502  0.032392831            4 
 1402000     1.031602   -6.5296701    543.72343  0.032318321  0.032383829            7 
 1403000    1.0174386   -6.5352254    541.73127  0.032176958  0.032374612            6 
 1404000      1.01696   -6.4840803     544.4923  0.032317919  0.032365472            3 
 1405000    1.0152124   -6.5282362    542.28186  0.032163811  0.032356448            1 
 1406000    1.0230627    -6.539469    543.11358  0.032190231  0.032347302            6 
 1407000    1.0391398   -6.5759944    541.61749  0.032078743  0.032338113            5 
 1408000    1.0270428   -6.5366891    543.84287   0.03218767  0.032329012            6 
 1409000    1.0456743   -6.5214546    543.79429  0.032161953  0.032320061            3 
 1410000    1.0422897   -6.5219412    545.29258  0.032227694  0.032311243            4 
 1411000      1.02091   -6.5589236    544.95202   0.03218474  0.032302089            3 
 1412000     1.044469   -6.4994087    545.39133  0.032187874  0.032293172            4 
 1413000    1.0499656   -6.5254103     546.2614  0.032216407   0.03228432            4 
 1414000    1.0272437   -6.5187577     545.8459  0.032169136  0.032275231            5 
 1415000    1.0088381   -6.5115284    545.75025  0.032140769  0.032266112            3 
 1416000    1.0422136   -6.5829889    545.29959  0.032091548  0.032257016            8 
 1417000    1.0241107   -6.5373056    546.97387  0.032167365  0.032247873            3 
 1418000    1.0021189   -6.5105141    546.17129  0.032097513  0.032238768            4 
 1419000    1.0026588   -6.5537084    546.71605  0.032106885  0.032229638            3 
 1420000    1.0398038   -6.5437153    546.90595   0.03209542  0.032220569            4 
 1421000    1.0287965    -6.505992     550.8104  0.032301806  0.032211614            3 
 1422000    1.0357622   -6.5377453    548.89673  0.032166944  0.032202841            4 
 1423000    1.0348015   -6.5170752    549.18285  0.032161095  0.032193834            5 
 1424000    1.0300778   -6.5022059    550.34746  0.032206663   0.03218498            6 
 1425000    1.0170983   -6.5167701     549.1406  0.032113485  0.032176121            5 
 1426000    1.0124692   -6.5403848    547.38299  0.031988253   0.03216697            7 
 1427000    1.0284919   -6.5036173    548.91159  0.032055104  0.032158014            4 
 1428000    1.0031094   -6.5469706    547.83863  0.031970041  0.032149132            3 
 1429000    1.0227452    -6.501632    549.18931  0.032026435  0.032140054            3 
 1430000    1.0129685   -6.5007015    550.22097  0.032064159  0.032131109            4 
 1431000    1.0430306   -6.5315306    549.72123   0.03201265  0.032121959            5 
 1432000    1.0318112   -6.5629113    548.58861  0.031924384  0.032112792            5 
 1433000    1.0181707   -6.5640677    549.21849  0.031938735  0.032103576            3 
 1434000   0.98827427   -6.5607257    549.71889  0.031945542  0.032094377            3 
 1435000    1.0321536   -6.5049083    552.22227  0.032068657  0.032085285            5 
 1436000    1.0214486   -6.5119879    552.69644  0.032073842  0.032076338            3 
 1437000    1.0258972   -6.5362656    551.79872  0.031999462  0.032067439            6 
 1438000    1.0285095   -6.5331991    552.56353   0.03202153  0.032058393            5 
 1439000    1.0257872   -6.5436077    551.18266  0.031919311  0.032049369            2 
 1440000    1.0083138   -6.5476906     550.6879  0.031868512  0.032040373            4 
 1441000    1.0285279   -6.5392133    552.59754  0.031956832  0.032031668            5 
 1442000    1.0342756   -6.5367774    552.94875  0.031954967  0.032022811            3 
 1443000    1.0287705   -6.5125554    553.88314  0.031986783  0.032014109            2 
 1444000    1.0307051   -6.5318682    555.79262  0.032074828  0.032005349            8 
 1445000    1.0025285   -6.6166758    551.78351  0.031821425   0.03199633            5 
 1446000    1.0077416   -6.5648579    552.20868  0.031823921  0.031987289            4 
 1447000    1.0239224   -6.5250723    552.18151  0.031800364  0.031978346            5 
 1448000    1.0231621   -6.5531287    553.93996  0.031879602  0.031969614            7 
 1449000    1.0185398   -6.5507379    555.39177  0.031941096  0.031960747            3 
 1450000    1.0027525   -6.5237268    556.72117  0.031995469  0.031951997            7 
 1451000    1.0150205   -6.5388743     554.7893  0.031862469  0.031943309            4 
 1452000     1.021991   -6.5274799    556.12499  0.031917183  0.031934681            4 
 1453000     1.018927   -6.5176528    557.35948  0.031966018  0.031925873            4 
 1454000    1.0132563   -6.5499276    556.29388   0.03188296  0.031917202            3 
 1455000    1.0033895     -6.55236    555.45367  0.031812925  0.031908626            6 
 1456000    1.0402659   -6.5104913    557.30552  0.031897065  0.031899991            2 
 1457000    1.0051582   -6.5717074    555.72813  0.031784954  0.031891202           11 
 1458000    1.0305129   -6.5554708    557.49942  0.031864393  0.031882434            9 
 1459000    1.0111949   -6.5828122    558.26669  0.031886377  0.031873764            3 
 1460000    1.0333352    -6.548414    558.12773  0.031856606  0.031865193            7 
 1461000    1.0188802   -6.5303694     558.1085  0.031833704  0.031856502            4 
 1462000    1.0220113   -6.5594528     557.8453  0.031796927  0.031847748            3 
 1463000    1.0353292   -6.5427153    556.62016  0.031705409  0.031838982            1 
 1464000    1.0088005   -6.6058653    556.77758  0.031692713  0.031830271            3 
 1465000    1.0015365   -6.5510512    558.28617  0.031756893  0.031821481            4 
 1466000      1.01926   -6.5282867    560.10256  0.031838481  0.031812742            2 
 1467000    1.0137532   -6.5641663    557.54208  0.031671329  0.031803975            4 
 1468000    1.0094019    -6.557846    559.98688  0.031788537  0.031795248            7 
 1469000   0.99443941   -6.5677165    561.37102  0.031845418  0.031786429            5 
 1470000    1.0540279   -6.5348305    561.87678  0.031852425  0.031777811            4 
 1471000    1.0056188   -6.5590257    559.44665  0.031693103  0.031769103            4 
 1472000    1.0139429   -6.5424948    559.30205  0.031663386  0.031760277            2 
 1473000    1.0405304   -6.5918935    559.98289  0.031680408  0.031751589            4 
 1474000    1.0296181    -6.538298    561.45205  0.031741975  0.031742871            3 
 1475000    1.0378183   -6.5343167    560.79163  0.031683143  0.031734106            8 
 1476000    1.0493838   -6.5461261    559.34308  0.031579894  0.031725478            7 
 1477000    1.0003488   -6.5115076    561.54627  0.031682818  0.031716765            3 
 1478000    1.0258772   -6.5271785    561.56552  0.031662467   0.03170807            4 
 1479000    1.0225985   -6.5764866    559.15911  0.031505472  0.031699029            6 
 1480000     1.038521   -6.5769142    559.25467  0.031489565  0.031690147            3 
 1481000     1.025995   -6.5791557    559.96134  0.031508066  0.031681149            5 
 1482000   0.99290457   -6.5660349    560.49236  0.031516664  0.031671977            3 
 1483000    1.0160069   -6.5489547    562.84732  0.031627743  0.031663028            3 
 1484000    1.0241996    -6.541186    562.79516  0.031603502  0.031654019           14 
 1485000    1.0200636   -6.6177411     560.5275  0.031454966  0.031644839            3 
 1486000    1.0086657   -6.6110467    560.87784  0.031453445    0.0316356            5 
 1487000    1.0148079   -6.5918032    561.25106  0.031453209  0.031626482            6 
 1488000    1.0295813   -6.5485387    562.68257  0.031512241  0.031617506            5 
 1489000     1.030524   -6.5605776    563.32911  0.031527262  0.031608519            1 
 1490000    1.0042608   -6.5504193    563.52995  0.031517335  0.031599511            5 
 1491000    1.0072119    -6.525873    562.79415  0.031455072  0.031590513           10 
 1492000    1.0235272   -6.5162464    565.98077  0.031611973  0.031581625            2 
 1493000    1.0027562   -6.6019017    564.22166  0.031492613  0.031572774            6 
 1494000    1.0026233   -6.5209206     564.9848  0.031514101  0.031563966            4 
 1495000    1.0056276    -6.529393    564.85784  0.031485944   0.03155534            4 
 1496000    1.0103179    -6.575299    566.21875  0.031540706   0.03154673            2 
 1497000    1.0081892   -6.5784028     563.7305  0.031381123  0.031537871            3 
 1498000    1.0340257   -6.5746085    563.87111  0.031367997  0.031528915            4 
 1499000    1.0317983   -6.5524592    566.95477    0.0315185  0.031520138            6 
 1500000    1.0233956   -6.5404115     566.1472  0.031452622  0.031511304            4 
 1501000    1.0091215   -6.5429948    568.85052  0.031581752  0.031502507            4 
 1502000    1.0029977   -6.5722037    566.12884  0.031409723  0.031493842            5 
 1503000    0.9818878   -6.5634756    566.07258  0.031385705  0.031484931            8 
 1504000    1.0013111   -6.5763488    566.17481  0.031370502  0.031475983            7 
 1505000     1.007539   -6.5189633    568.64312   0.03148633   0.03146733            2 
 1506000    1.0181895   -6.5933435    565.66089  0.031300403  0.031458725            4 
 1507000     1.028244   -6.5406245    569.19052  0.031474813  0.031449905            3 
 1508000     1.003606   -6.5845491    566.13525  0.031285104  0.031441129            5 
 1509000    1.0126291   -6.5634764    567.46535  0.031337826  0.031432279            5 
 1510000    1.0059213   -6.6080004    565.60393  0.031214345  0.031423345            4 
 1511000   0.99775477   -6.5848994    567.98181  0.031324829  0.031414491            3 
 1512000    1.0069104   -6.5691597    568.50426  0.031332907  0.031405607           10 
 1513000    1.0022818   -6.5961802    566.62444  0.031208661  0.031396727            5 
 1514000    1.0534602   -6.5771286    569.35192  0.031338173  0.031387935            3 
 1515000    1.0131617   -6.5858778     569.0345  0.031300028   0.03137914            7 
 1516000    1.0115195   -6.5964478    569.16677  0.031286652  0.031370516            4 
 1517000    1.0117586   -6.5944932    569.81249  0.031301499  0.031361671            9 
 1518000    1.0188344    -6.590064    570.97441  0.031344664  0.031352861            5 
 1519000    1.0054853    -6.576934    570.77322  0.031312992  0.031344032            6 
 1520000    1.0055334   -6.6087993    570.29494   0.03126617  0.031335069            2 
 1521000    1.0381087   -6.5922472    570.01738  0.031230406  0.031326163            4 
 1522000   0.99807304   -6.5783039    573.39888  0.031395033   0.03131742            6 
 1523000   0.99611985   -6.5591082    569.68987  0.031171474   0.03130882            4 
 1524000     1.031248   -6.5689525    571.71125  0.031261551  0.031300059            4 
 1525000   0.99576725   -6.6049863    570.85978  0.031194524  0.031291242            3 
 1526000     1.003348   -6.5397297    575.05136  0.031402979  0.031282529            3 
 1527000    1.0043075   -6.5445112    573.55248  0.031300616  0.031273873            2 
 1528000    1.0168249   -6.5824614    572.39983  0.031217268   0.03126519            3 
 1529000   0.99654333   -6.5655744    573.43768  0.031253416  0.031256533            4 
 1530000    1.0217996   -6.5698623    573.96962  0.031261962  0.031247833            5 
 1531000    1.0130512   -6.5931367    573.37729  0.031209301  0.031239203            5 
 1532000    1.0341906   -6.5492703     572.6616      0.03115  0.031230463            9 
 1533000   0.98869267   -6.5906545    572.96685  0.031146274  0.031221852            4 
 1534000    1.0037857   -6.5897677    575.64229  0.031271311  0.031213274            4 
 1535000    1.0408873    -6.591631    573.61639  0.031140955  0.031204475            4 
 1536000   0.99629308   -6.5453085    575.88139  0.031243565  0.031195724            4 
 1537000    1.0092066    -6.558607    574.31305  0.031138205  0.031187034            2 
 1538000    1.0229599   -6.5811931    573.76012  0.031087999  0.031178397            5 
 1539000    1.0019611   -6.6290955    573.66018  0.031062388  0.031169735            4 
 1540000   0.98693946   -6.5814938    575.72707  0.031154062  0.031161081            4 
 1541000    1.0151227   -6.5582795    578.35699  0.031276065  0.031152558            2 
 1542000    1.0125194   -6.5694067    576.24896  0.031141859  0.031143987            2 
 1543000   0.99804653   -6.5710473    576.83382  0.031153263  0.031135366            4 
 1544000    1.0081912   -6.5816288     575.6641  0.031069954  0.031126696            4 
 1545000    1.0144054   -6.6259438    575.04947  0.031016692  0.031118074            3 
 1546000    1.0084773   -6.6167463    576.72992   0.03108721  0.031109218            5 
 1547000    1.0097269    -6.613666    575.02804  0.030975438   0.03110037            3 
 1548000    1.0120833   -6.6136622    576.98749  0.031060911  0.031091674            4 
 1549000   0.99534227   -6.5910234    577.20586  0.031052607  0.031082776            6 
 1550000    1.0065649   -6.5997249    576.33697  0.030985858  0.031073777            5 
 1551000     1.001399    -6.608561    576.71036  0.030985942  0.031064924            4 
 1552000   0.99756777   -6.6007357    578.87422  0.031082164  0.031056207            3 
 1553000    1.0051323   -6.6103925    577.72448  0.031000455   0.03104758            4 
 1554000    1.0071856   -6.5701612    578.78076  0.031037149  0.031038817            3 
 1555000     1.011998   -6.5852007    579.68191  0.031065483  0.031030182            8 
 1556000   0.97799393   -6.6394377    577.68004  0.030938306  0.031021483            4 
 1557000    1.0025075   -6.5676431    580.99861   0.03109605  0.031012904            4 
 1558000    1.0053543   -6.5961069    580.13828  0.031030075  0.031004445            5 
 1559000      1.00172   -6.5841259    581.24858   0.03106952  0.030995876            5 
 1560000    1.0126327   -6.5873955    581.40837  0.031058139  0.030987412            8 
 1561000     1.002759   -6.6243147    579.95318  0.030960558   0.03097899            3 
 1562000    1.0203562   -6.5787206    581.27552  0.031011285  0.030970599            8 
 1563000   0.99766294   -6.6044266    583.37844  0.031103563  0.030962265            3 
 1564000   0.98676921   -6.5591288    583.09108  0.031068365  0.030953923            4 
 1565000   0.97959895   -6.5827644    582.39765   0.03101159  0.030945878            4 
 1566000   0.99638388   -6.5897801    582.33636  0.030988525  0.030937502            3 
 1567000    1.0009864    -6.593416    582.53115  0.030979108  0.030929059            4 
 1568000   0.99694556   -6.6205344     581.7604  0.030918389  0.030920812            5 
 1569000   0.99957282   -6.6134205    579.24218  0.030764934  0.030912235            2 
 1570000    1.0011026   -6.6194084    581.89822  0.030886317  0.030903775            4 
 1571000   0.96214214   -6.5764634     583.8879  0.030972199  0.030895421            4 
 1572000   0.97996599   -6.5930883    585.01307  0.031012143  0.030886931            3 
 1573000   0.98960361    -6.570675    584.30422  0.030954875  0.030878554            3 
 1574000    0.9821789   -6.6092833    583.26287  0.030880076  0.030870184            4 
 1575000   0.99637016   -6.5770523     584.5789    0.0309301  0.030861696            4 
 1576000    0.9894439   -6.6331142    584.56525  0.030909753  0.030853361            4 
 1577000    1.0128223   -6.5454401    586.86365  0.031011607  0.030845199            5 
 1578000    1.0014993   -6.6038431    584.03852  0.030842761  0.030836742            6 
 1579000   0.99944163   -6.6028807    585.82041  0.030917269  0.030828181            3 
 1580000    1.0123451    -6.579848    586.60286  0.030938969  0.030819723            8 
 1581000    1.0116363   -6.5929106    585.41023  0.030856537  0.030811177            3 
 1582000   0.98549138   -6.6027643    585.58896  0.030846448  0.030802736            3 
 1583000   0.98653542   -6.5883391    584.46578  0.030767834  0.030794207            5 
 1584000   0.98578061   -6.5856171    586.54554  0.030857825  0.030785551            2 
 1585000    1.0045343   -6.6471568    583.10774   0.03065761  0.030776676            4 
 1586000    1.0051772   -6.5698906    584.97308   0.03073629  0.030767934            6 
 1587000   0.99974479   -6.6093989    584.69131  0.030702127  0.030759337            5 
 1588000   0.98479749   -6.5816705    586.96162  0.030801932  0.030750649            2 
 1589000    1.0023074   -6.6072876    585.07262  0.030683481  0.030742032            6 
 1590000   0.98835034   -6.6148935    585.13243  0.030667318  0.030733299            5 
 1591000    1.0082642   -6.6264682    585.66969  0.030676183  0.030724526            2 
 1592000   0.99776507   -6.6226544    584.85042   0.03061403  0.030715801            9 
 1593000   0.99603049   -6.5909077    587.89852  0.030754265  0.030707316            6 
 1594000    0.9886431   -6.6148026    588.17862  0.030749614  0.030698604            7 
 1595000   0.99387788   -6.5702667    587.97467   0.03071968  0.030689966           10 
 1596000    1.0022082   -6.6122064    587.80965  0.030691815  0.030681222            3 
 1597000    1.0246237   -6.6223851     587.7865  0.030671389  0.030672574            5 
 1598000    0.9999989   -6.6433788    586.51328  0.030585799  0.030663846           12 
 1599000    1.0026419   -6.5883274    589.66376  0.030730861   0.03065529           14 
 1600000    1.0020952    -6.621087    587.56401  0.030602292   0.03064687            5 
 1601000     1.014638   -6.6110437    588.61439  0.030637851  0.030638336            4 
 1602000   0.98635697   -6.6406428    586.93646  0.030531443  0.030629687            3 
 1603000   0.98760809    -6.585401    590.35214  0.030689964  0.030621187            5 
 1604000    1.0274279   -6.6108573    590.20218  0.030663039  0.030612781            3 
 1605000   0.97786729   -6.6089434    589.59768  0.030612548  0.030604305            5 
 1606000   0.98124777   -6.6355678    591.50465  0.030692437   0.03059591            2 
 1607000    1.0024395   -6.6182601    591.36877  0.030666292  0.030587361            8 
 1608000   0.99022503   -6.6298338     590.1221  0.030582613  0.030578769            5 
 1609000    1.0053677   -6.6147964    589.89592  0.030551892  0.030570212            3 
 1610000    1.0029347   -6.5867967    592.73662  0.030679949  0.030561714            3 
 1611000   0.99725813   -6.6078796    590.15802   0.03052752   0.03055319            4 
 1612000   0.98470508   -6.6106296    590.84085  0.030543882  0.030544689            5 
 1613000   0.99610411   -6.6055002    591.38128  0.030552866  0.030536335            2 
 1614000    1.0103569   -6.6305974    592.02523  0.030567185  0.030527844            2 
 1615000   0.98100067   -6.6223166    592.15092  0.030554743  0.030519268            3 
 1616000   0.99869368   -6.6124919    594.07317  0.030634961  0.030510776            4 
 1617000    1.0083564   -6.6147693    593.42939  0.030582838  0.030502387            5 
 1618000   0.99940043   -6.6277736    590.86545  0.030431883  0.030493923            3 
 1619000    1.0116854   -6.5773008    593.11677  0.030528967  0.030485632            4 
 1620000    0.9886396   -6.6071928    594.44403  0.030578397  0.030477136            5 
 1621000   0.98621825   -6.6330085    592.35438  0.030452107  0.030468613            9 
 1622000   0.96629953    -6.622004    593.38123  0.030486089  0.030459872            6 
 1623000    1.0026146   -6.6112502    594.07849  0.030503106  0.030451385            3 
 1624000    0.9852645   -6.5988327     595.2661  0.030545264  0.030442937            4 
 1625000    0.9900974   -6.6385712    592.37198   0.03037805  0.030434467            9 
 1626000    1.0020896   -6.6137847    593.18549   0.03040106  0.030426141            6 
 1627000   0.99393725   -6.6030341    596.40893  0.030547476  0.030417829            6 
 1628000   0.99566829   -6.6200729    595.25511  0.030469651  0.030409484            4 
 1629000   0.99377881   -6.6202026      596.147  0.030496573  0.030401051            8 
 1630000   0.99258313    -6.593546    595.48689  0.030444115  0.030392729            8 
 1631000   0.99967511   -6.6275722    596.45075  0.030474696  0.030384408            4 
 1632000    1.0038986   -6.6177222    595.58856  0.030411998  0.030376233            6 
 1633000    1.0084887   -6.6285654    598.57692  0.030545873  0.030367807            4 
 1634000    1.0213989    -6.580627    597.50892  0.030472711  0.030359535            3 
 1635000    0.9845746   -6.5982769    597.52614  0.030454951  0.030351242            3 
 1636000    0.9916952   -6.6064748    596.77383  0.030398015  0.030342841            4 
 1637000   0.97829082    -6.618071    596.70782  0.030376085  0.030334399            3 
 1638000   0.97879908   -6.6569163    594.15185  0.030227506  0.030325999            3 
 1639000    1.0131295   -6.6699712    596.25598  0.030316045  0.030317412            7 
 1640000    1.0101216   -6.6388754    597.76084  0.030374026  0.030308881            2 
 1641000    1.0064763   -6.5982501    598.17978  0.030376792  0.030300471            4 
 1642000   0.99580355   -6.6416307     597.9437   0.03034631  0.030292156            5 
 1643000   0.99322213   -6.6407932    597.39363   0.03029994  0.030283818            4 
 1644000   0.98130324   -6.6384686    599.67051  0.030396924  0.030275608            4 
 1645000   0.99674582   -6.6195857     599.8816  0.030389139  0.030267255            8 
 1646000   0.98405313   -6.6481801    599.78244  0.030365656  0.030258994            3 
 1647000   0.98561111   -6.5938955    601.11048  0.030414414  0.030250753            5 
 1648000    1.0065348   -6.6181418    602.08496  0.030445235  0.030242476            3 
 1649000    1.0150609   -6.6405771    600.65219  0.030354366  0.030234179            5 
 1650000   0.97357245   -6.6410597    598.72172  0.030238471  0.030225886            4 
 1651000   0.99448308   -6.6022609    599.03142  0.030235787  0.030217534            3 
 1652000   0.99497891   -6.6257658     599.9329  0.030262959  0.030209138            4 
 1653000   0.99221588   -6.6501217    601.14111  0.030305561  0.030200785            5 
 1654000   0.96986242   -6.6565962    599.12781  0.030185803  0.030192342            6 
 1655000   0.97588426   -6.6400553    599.81153   0.03020199  0.030183963            4 
 1656000   0.97265802   -6.6511226    600.06276  0.030196395  0.030175501           10 
 1657000   0.98489761   -6.6314874    599.85684  0.030167816  0.030167001            5 
 1658000   0.98832969   -6.5915638    602.08614  0.030261668  0.030158759            5 
 1659000   0.96421027   -6.6580164    600.50251  0.030163879  0.030150358            5 
 1660000   0.99890322   -6.6652642    601.10292  0.030175849  0.030141949            6 
 1661000   0.98045852   -6.5909392    602.79586  0.030242618  0.030133715            5 
 1662000   0.96987325   -6.6309198    601.91455  0.030180232  0.030125336            4 
 1663000    1.0026271   -6.6715624    601.67379   0.03015002  0.030117001            9 
 1664000   0.99769593   -6.6191702    603.64171  0.030230454  0.030108646            4 
 1665000   0.97927148   -6.6490476    601.57805  0.030109011  0.030100228            4 
 1666000   0.97872888   -6.6385197    602.04216  0.030114154  0.030091791            8 
 1667000   0.95883897   -6.6396411     602.0379  0.030095876  0.030083443            9 
 1668000   0.98170622   -6.6607869    602.89293   0.03012055  0.030074929            7 
 1669000   0.98397514   -6.6449849     603.5558    0.0301356  0.030066525            8 
 1670000      0.98248   -6.6493153    602.66623  0.030073165  0.030058191            6 
 1671000   0.99327689   -6.6362495    604.18714  0.030131017  0.030049818            3 
 1672000   0.99387663   -6.6394219    601.38659  0.029973415  0.030041305            3 
 1673000   0.97628485   -6.6348963    604.31227  0.030101229  0.030033072            4 
 1674000    1.0032904   -6.6552855    604.45187  0.030090197  0.030024612            6 
 1675000   0.98368156   -6.6074333    606.36303  0.030167315  0.030016394            4 
 1676000   0.98634621   -6.5862505    605.33441  0.030098171  0.030008175            4 
 1677000    1.0041089    -6.648916    605.58608  0.030092729  0.029999841            5 
 1678000   0.99499661   -6.6799389    605.92006  0.030091381  0.029991549            2 
 1679000    1.0034249   -6.6440726     607.2116  0.030137562  0.029983288            5 
 1680000   0.98025985    -6.613423     606.0232  0.030060675  0.029974997            4 
 1681000   0.99217667   -6.6179813    606.22789  0.030052939  0.029966765            3 
 1682000   0.97530561   -6.6372785    607.40543  0.030093412  0.029958505            7 
 1683000    1.0000663   -6.5805277    605.96007  0.030003965  0.029950211            4 
 1684000   0.97439874   -6.6492886    606.11174  0.029993653  0.029941908            6 
 1685000    0.9716579   -6.6461127    609.41401   0.03013917   0.02993362            5 
 1686000   0.98430728   -6.6620664    606.28277  0.029966527  0.029925251            3 
 1687000   0.97839187   -6.6412646    607.72669  0.030020089  0.029916891            4 
 1688000   0.98136273   -6.6227858    609.70734  0.030100086  0.029908592            8 
 1689000   0.98108137   -6.6733574    607.19162  0.029958142  0.029900258            9 
 1690000    0.9669272   -6.6365448    608.10337  0.029985373   0.02989185            4 
 1691000   0.99148281   -6.6993872    606.62652  0.029894861  0.029883387            5 
 1692000   0.96107437   -6.6494714    608.69962  0.029979296  0.029874882            4 
 1693000   0.97148529   -6.6591799    608.31108  0.029942463  0.029866687            4 
 1694000   0.99758569   -6.6786771    607.72286  0.029895851  0.029858259           14 
 1695000   0.98823794   -6.6197083    611.29053  0.030053615  0.029849916            3 
 1696000   0.97566972   -6.6325162    609.72955  0.029959195  0.029841524            4 
 1697000    1.0155384   -6.6395687    609.58587  0.029934486   0.02983331            8 
 1698000   0.97823541   -6.6623542    608.79982  0.029878279  0.029825127            8 
 1699000   0.98356018   -6.6504616    609.12517  0.029876652  0.029816722            4 
 1700000   0.97564528   -6.6720823    608.82257  0.029844244  0.029808495            4 
 1701000    1.0036627   -6.6200918    613.04742  0.030033677  0.029800355            3 
 1702000    0.9887385   -6.6680495    609.21434  0.029828356  0.029792095            4 
 1703000   0.98122923   -6.6427523     611.2623  0.029911054  0.029783737            8 
 1704000   0.97395037   -6.6724268    608.96519  0.029781162  0.029775413            4 
 1705000   0.95060657   -6.6445191    610.74349  0.029850611  0.029767044            2 
 1706000    0.9738816   -6.6373069    611.30854  0.029860714  0.029758713            2 
 1707000   0.99078486   -6.6569907    612.91384  0.029921589  0.029750362            3 
 1708000    0.9595577   -6.6452912    613.14502   0.02991535  0.029742128            4 
 1709000   0.93778442   -6.6668191    612.56505  0.029869566  0.029733916            3 
 1710000   0.98539274   -6.6367502    612.18301   0.02983348  0.029725612            5 
 1711000   0.97339785    -6.625069    611.52259  0.029783879  0.029717359            2 
 1712000   0.98505197   -6.6291119    614.17066  0.029895379  0.029709068            6 
 1713000    0.9642946   -6.6401202    611.42445   0.02974433  0.029700751            3 
 1714000   0.97494461   -6.6718197    610.34846  0.029674663  0.029692302            2 
 1715000   0.96825737   -6.6852909     612.0901  0.029741988  0.029683788            5 
 1716000   0.98940076   -6.6830976     610.7622  0.029660169  0.029675323            2 
 1717000   0.98643802    -6.641628     612.1983  0.029712594  0.029666847           18 
 1718000   0.97388281   -6.6486133    612.74519  0.029721827   0.02965843            7 
 1719000    0.9698928   -6.6448319    612.94307   0.02971413  0.029650036            7 
 1720000   0.96188903   -6.6761883     612.5897  0.029679734  0.029641565            5 
 1721000   0.99573803   -6.6738346    612.41231  0.029653898  0.029633119            4 
 1722000    0.9861051   -6.6457521     611.0571  0.029571095  0.029624686            6 
 1723000   0.98348773   -6.6800158     613.1394  0.029654643  0.029616211            5 
 1724000   0.96572972   -6.6516025    613.33484  0.029646889  0.029607781            4 
 1725000   0.97631577   -6.6083119    612.61212  0.029594789  0.029599415            5 
 1726000   0.97546975   -6.6530644    614.37218   0.02966262  0.029591076           12 
 1727000   0.96948828   -6.6432888    614.13782  0.029634135  0.029582628            7 
 1728000   0.97432991   -6.6401618    615.25245  0.029670739  0.029574342            5 
 1729000   0.98668252    -6.697126    613.49239  0.029568748  0.029565923            6 
 1730000   0.96087768   -6.6671394    614.68934  0.029609313  0.029557595            3 
 1731000   0.99045526   -6.7052712    614.30307  0.029573612  0.029548995            4 
 1732000   0.98557708   -6.6953176    615.19418  0.029599412  0.029540499            5 
 1733000   0.96599092   -6.7051179    615.25479  0.029585247  0.029531979            5 
 1734000   0.95916166   -6.6604213    614.26356  0.029520548  0.029523537            8 
 1735000   0.96456397   -6.7024555    614.45687  0.029512818  0.029514949            5 
 1736000    1.0040969   -6.7191637    615.05056  0.029524317   0.02950642            5 
 1737000   0.95693591   -6.7184444    615.84589  0.029545476  0.029498086            4 
 1738000   0.98052399    -6.663769    618.48486  0.029655009  0.029489709            4 
 1739000   0.95379171   -6.6896867    616.78174  0.029556342  0.029481515            7 
 1740000   0.97119917   -6.6880946    615.60363  0.029482932  0.029473244            5 
 1741000   0.98076555   -6.6531156    618.43663    0.0296016  0.029464957            3 
 1742000   0.98095948   -6.6807807    614.77795  0.029409584  0.029456532            4 
 1743000   0.95220143   -6.6804422    616.36534  0.029468605  0.029448147            3 
 1744000   0.97664078   -6.6753225    617.05316  0.029484574  0.029439762            4 
 1745000   0.98294747    -6.678723    618.13059   0.02951913  0.029431317            3 
 1746000    0.9816965   -6.6659724    615.52601  0.029377912  0.029422844            3 
 1747000   0.98280464    -6.651306    618.09812  0.029483787  0.029414491            2 
 1748000   0.96280315   -6.6701853    615.83847  0.029359195  0.029406158            6 
 1749000    0.9644649   -6.6671057    616.93718  0.029394758  0.029397756            5 
 1750000   0.98192795   -6.6618269    617.55624   0.02940744  0.029389265            7 
 1751000    0.9683726   -6.6872224    618.48479  0.029434837  0.029380677            6 
 1752000   0.95605513   -6.6446185    619.62501   0.02947227  0.029372137            6 
 1753000   0.98251578   -6.6434197    621.35182  0.029537546  0.029363669           10 
 1754000   0.96342507   -6.6904344    616.80781  0.029304818    0.0293552            8 
 1755000   0.97233406   -6.7046472     617.7343  0.029332113  0.029346626            4 
 1756000   0.96890555   -6.7083973    617.47258  0.029302989  0.029338118            8 
 1757000   0.95008365   -6.6589598    617.79275  0.029301496  0.029329606            6 
 1758000   0.96199688     -6.66836    619.51856  0.029366636  0.029321106            5 
 1759000   0.96816305   -6.6631751    621.72892  0.029454658  0.029312694            3 
 1760000     0.959325   -6.6617104    619.96004  0.029354168  0.029304301            8 
 1761000   0.96862862   -6.6577971     621.8224  0.029425629  0.029295872            4 
 1762000   0.95146371   -6.6931807    618.83116  0.029267459  0.029287289            6 
 1763000   0.97380749   -6.6945177    619.73627  0.029293641  0.029278801            7 
 1764000   0.99782151   -6.6956142    618.58723  0.029222753  0.029270176            4 
 1765000   0.98458749   -6.6539444    619.78503  0.029262749  0.029261529            4 
 1766000   0.95608624    -6.684848     620.3623  0.029273419  0.029253074            1 
 1767000   0.97020162   -6.6789676    621.81398  0.029325315  0.029244598            2 
 1768000   0.95403251   -6.7154864    621.04925  0.029272683   0.02923625            2 
 1769000    0.9695456   -6.6768292    621.70494  0.029287024  0.029227914            5 
 1770000   0.96141309   -6.6901305    622.61027  0.029313101  0.029219623            3 
 1771000   0.96087971   -6.6358235    625.70663  0.029442247  0.029211487            7 
 1772000   0.96929688   -6.6555305    625.05409  0.029394944  0.029203304            3 
 1773000    0.9718384   -6.6758542    623.58759  0.029309437  0.029195133            2 
 1774000   0.96463048   -6.7115543    622.46309  0.029240092  0.029186985            5 
 1775000   0.97416333    -6.702331    624.51744  0.029320067  0.029178742           10 
 1776000   0.95908978   -6.6725773    624.84261  0.029318816  0.029170517            5 
 1777000   0.99311046    -6.650148    625.75475  0.029345092  0.029162364            6 
 1778000    0.9826425   -6.6555411    625.53891  0.029318472  0.029154354            3 
 1779000   0.98707724   -6.6332775    626.33913  0.029339476  0.029146406            4 
 1780000   0.96011982   -6.6910407    626.09591  0.029311606  0.029138341            3 
 1781000    0.9709138   -6.6967165    625.27919  0.029256934  0.029130264            6 
 1782000   0.95981873   -6.7050077    624.75054  0.029215794  0.029122159            3 
 1783000   0.98055121   -6.6559665    626.76443  0.029293533  0.029114013            2 
 1784000   0.98490851   -6.6740205    627.64823  0.029318396  0.029105989            4 
 1785000   0.98833494   -6.6678246    629.29125  0.029378677  0.029097958            7 
 1786000   0.96947404   -6.7344775    624.93052  0.029158759  0.029089959            8 
 1787000   0.94180607    -6.706059    627.51969  0.029263183  0.029081999            3 
 1788000    0.9680376   -6.6900377    628.01232  0.029269777  0.029074076            3 
 1789000   0.97293157   -6.6824888    627.46368  0.029227859  0.029066161            7 
 1790000    0.9718007   -6.6549803    630.39188  0.029347853  0.029058256            3 
 1791000   0.96901685   -6.7089875    627.50485  0.029197136   0.02905036            8 
 1792000   0.95722755   -6.6625241    630.38246   0.02931466  0.029042387            4 
 1793000   0.94813059   -6.6630108    629.76095  0.029269425  0.029034492            3 
 1794000    0.9782336   -6.6900704    629.55653  0.029243615  0.029026595            5 
 1795000   0.96421898   -6.7191752    629.13806  0.029207895  0.029018763            8 
 1796000     0.962559   -6.6900331      630.551  0.029257192  0.029010902            3 
 1797000   0.95728813   -6.6610021    628.69187  0.029154696  0.029003053            4 
 1798000   0.96664905   -6.7008904    629.09114  0.029156986   0.02899518            4 
 1799000   0.96369996   -6.7138164    630.20112  0.029192196  0.028987172            4 
 1800000   0.98417621   -6.6775238     630.3188  0.029181426  0.028979349            4 
 1801000   0.96055029   -6.7063224    631.12793  0.029202662  0.028971526            5 
 1802000   0.98704925   -6.6924851    631.34758  0.029196614  0.028963699            3 
 1803000   0.96805073   -6.7005812    631.51868  0.029188329  0.028955952            5 
 1804000   0.98044777   -6.6857749    630.30959  0.029116296   0.02894817           10 
 1805000    0.9557259     -6.68864      631.428    0.0291518   0.02894035            6 
 1806000   0.97032932   -6.7018601    635.43252  0.029320437  0.028932585            8 
 1807000   0.96833477   -6.6931353     632.3179  0.029160575  0.028924884            6 
 1808000   0.95256203    -6.731882    631.56023  0.029109524  0.028917036            9 
 1809000   0.95102128   -6.6942629    632.36817  0.029130651  0.028909129           14 
 1810000   0.97562325   -6.7188332    632.02611  0.029098808  0.028901303            4 
 1811000   0.95076374    -6.723298    633.08246  0.029131348  0.028893371            3 
 1812000   0.96180212   -6.7113365    632.11851   0.02907094  0.028885551            4 
 1813000   0.97155208    -6.713795    633.74501  0.029129666  0.028877701            6 
 1814000   0.96283002   -6.6859387    635.21454  0.029181117   0.02886987            4 
 1815000   0.96240374   -6.6760491    633.44889  0.029083971  0.028862238            5 
 1816000   0.97629696   -6.6711938    635.71544  0.029171964  0.028854518            2 
 1817000   0.97209038   -6.6981837    634.98321  0.029122327  0.028846936            7 
 1818000   0.96567991   -6.6640255    636.63825  0.029182171   0.02883931            3 
 1819000   0.96050734   -6.6985221    637.20414  0.029192053  0.028831808            7 
 1820000   0.94070996   -6.6773003    636.35604  0.029137181  0.028824234            6 
 1821000   0.95717147   -6.7081695    634.91709  0.029055331  0.028816717            4 
 1822000   0.95873443   -6.7344538    635.21058  0.029052807  0.028809171            5 
 1823000    0.9594764   -6.7170028    635.79373  0.029063528  0.028801647            2 
 1824000   0.95325278    -6.694552    637.00223  0.029102807  0.028794125            5 
 1825000   0.96130961   -6.7030607    637.71875  0.029119578  0.028786488           12 
 1826000   0.97754805   -6.7109774    637.98684  0.029115865  0.028778887            5 
 1827000   0.95824078   -6.7200404    637.34635  0.029070715  0.028771259            6 
 1828000   0.95233005   -6.7036751    638.41438    0.0291035  0.028763616            7 
 1829000   0.94737101   -6.7103205    637.01828  0.029023978  0.028755985            9 
 1830000   0.95210655   -6.7188215    634.20676  0.028880089  0.028748198            7 
 1831000   0.94909422   -6.7020718     637.2767  0.029004037    0.0287404            7 
 1832000   0.96900321   -6.7256324    637.23414  0.028986269  0.028732528            4 
 1833000   0.95680787   -6.7123879    636.79407  0.028950449  0.028724695            7 
 1834000   0.95506753   -6.7095154    636.49454  0.028921053  0.028716846            3 
 1835000   0.96017101   -6.7048885    637.14918  0.028935022  0.028709066            5 
 1836000   0.95474095    -6.665317    636.88111  0.028907095  0.028701281            7 
 1837000   0.96187478   -6.6889235    639.05222  0.028989848  0.028693669            4 
 1838000   0.94520197   -6.7292709    638.50123  0.028949094  0.028685933            4 
 1839000   0.96408171   -6.7060762    638.63962  0.028939624  0.028678242            3 
 1840000   0.95846873   -6.7076657    639.30789  0.028954162  0.028670632            6 
 1841000   0.96003777   -6.7366501    639.88351   0.02896449  0.028662948            8 
 1842000    0.9772938   -6.7337722    637.59352  0.028845165  0.028655346            7 
 1843000   0.94549235   -6.7013692    639.85172  0.028931621  0.028647762            6 
 1844000   0.96525632   -6.6974273    640.91053   0.02896378  0.028640263            5 
 1845000   0.97845959   -6.6802523     641.8168  0.028989015  0.028632827            4 
 1846000   0.97013497   -6.7041919     640.5099  0.028914315  0.028625279            4 
 1847000   0.94947597   -6.7184484    641.56484  0.028946257  0.028617632            5 
 1848000   0.94582367   -6.7286746    641.42577  0.028924322  0.028609986            5 
 1849000   0.97274887   -6.7174589    640.58276  0.028870685  0.028602542            5 
 1850000   0.93313384   -6.7027368    643.02873  0.028965258  0.028595065            9 
 1851000   0.96681346   -6.6879576    642.53338  0.028927308  0.028587593            5 
 1852000   0.98125601    -6.677171     643.2656  0.028944636  0.028580194            4 
 1853000   0.95149354    -6.706375    642.51432  0.028895229  0.028572774            2 
 1854000   0.94434157   -6.6946185    642.06817   0.02885959  0.028565371            7 
 1855000   0.95153548     -6.71856     643.6744   0.02891619  0.028557964            4 
 1856000    0.9553307    -6.695268    644.40066  0.028933219  0.028550578            7 
 1857000   0.96585572   -6.7042673    643.50517  0.028877453  0.028543148            5 
 1858000   0.96638295   -6.7379433     643.4531  0.028859576  0.028535822            5 
 1859000   0.98386947   -6.7289744    642.95573  0.028821756  0.028528561            7 
 1860000   0.97691039   -6.7303616    644.80102  0.028888934  0.028521232            9 
 1861000   0.94437577    -6.776706    643.31701  0.028806959  0.028513772            7 
 1862000   0.96080701   -6.7143243    643.01055  0.028777772  0.028506331            4 
 1863000    0.9304176   -6.7362539    644.19907  0.028815489  0.028498707            3 
 1864000   0.95763506   -6.7067804    645.42851  0.028854994  0.028491217            6 
 1865000   0.95343267   -6.6787662     645.6078  0.028847534  0.028483739            5 
 1866000   0.94590157    -6.715073    645.77441  0.028839515  0.028476269            4 
 1867000   0.94958263   -6.7158828     644.6428  0.028773558  0.028468721            3 
 1868000   0.96464173   -6.7247211     643.7086  0.028716479  0.028461143            7 
 1869000    0.9292327   -6.7088247    646.01857  0.028804109  0.028453686            7 
 1870000   0.93760061   -6.7268008    647.40699  0.028850579  0.028446262            4 
 1871000   0.92797605   -6.7296255    644.84966  0.028721257  0.028438767            4 
 1872000   0.97282576   -6.7511743    645.66263  0.028742104  0.028431251            3 
 1873000   0.95334815    -6.684023     645.7419  0.028730286  0.028423734            5 
 1874000   0.94609925   -6.7174596    644.44781  0.028657409  0.028416244            5 
 1875000   0.95409583   -6.7129943     646.9039  0.028751285  0.028408657            5 
 1876000   0.95524482   -6.7648825    643.79057  0.028597662  0.028401134            5 
 1877000   0.94187483   -6.7760213    645.16466  0.028643432  0.028393447           16 
 1878000   0.94185154   -6.7389597    647.31446  0.028723574  0.028385786            6 
 1879000   0.95567249   -6.7045871    648.62805  0.028766545  0.028378252            3 
 1880000   0.95854421   -6.7122816    647.38984  0.028696358  0.028370741            6 
 1881000   0.96929407   -6.7278172     646.5305  0.028643031  0.028363162            5 
 1882000   0.94260148   -6.7160799     647.3376  0.028663549  0.028355589            4 
 1883000   0.95125076   -6.6913025    648.66966  0.028707278  0.028348073            8 
 1884000   0.96282582   -6.6970598    647.51532  0.028640982  0.028340551            4 
 1885000   0.94402193   -6.7239198    647.49516  0.028624897  0.028333158            6 
 1886000   0.94309135   -6.7281692    647.18569  0.028596045  0.028325652            6 
 1887000   0.95001718   -6.7238862    647.22725  0.028582726  0.028318151            3 
 1888000   0.94091751   -6.7093721    648.06311   0.02860448  0.028310612            6 
 1889000   0.95485186   -6.7453795    646.98117  0.028541608  0.028303108            5 
 1890000   0.95054358   -6.7178827    648.70552  0.028602536  0.028295658            4 
 1891000   0.94731281   -6.7026908    649.92072  0.028640962  0.028288307            3 
 1892000   0.95600884   -6.7409177     649.3727  0.028601687    0.0282808            5 
 1893000   0.93147646   -6.7560688    649.73787  0.028602653  0.028273298            6 
 1894000   0.93658767   -6.7105633    651.26328  0.028654667  0.028265848            7 
 1895000   0.94386139   -6.7452851    651.60057  0.028654379  0.028258323            5 
 1896000   0.93920427    -6.732965    651.98615  0.028656213  0.028250946            3 
 1897000   0.94700595   -6.7541842    649.87832  0.028548512  0.028243529            4 
 1898000   0.96271436   -6.7437897    650.25863  0.028550168  0.028236093            7 
 1899000   0.94130959   -6.7059681    651.44969  0.028587401  0.028228644            3 
 1900000   0.95724274   -6.7128244    652.86528  0.028634442  0.028221304            4 
 1901000   0.93976463   -6.7352132    651.41342  0.028555735  0.028213976            7 
 1902000   0.93190386   -6.7518767    651.16739  0.028529942  0.028206613            9 
 1903000   0.95809896   -6.7469682    651.63111  0.028535256  0.028199181            4 
 1904000   0.97246101   -6.7482422     652.6904  0.028566632  0.028191769            5 
 1905000   0.95453588    -6.727175    651.99203  0.028521086  0.028184311            4 
 1906000   0.91082988   -6.7110702     651.9981  0.028506388  0.028176972            5 
 1907000   0.94650264   -6.7647386    651.46909  0.028468322   0.02816952            7 
 1908000   0.95419523   -6.7542014     651.5155  0.028455429  0.028162058            5 
 1909000   0.93009051     -6.75822    650.48256  0.028395432  0.028154479            4 
 1910000   0.93174102   -6.7428304    651.57845  0.028428379  0.028146918            4 
 1911000   0.94175711   -6.7562782    652.10885  0.028436632  0.028139405            4 
 1912000   0.95012995   -6.7028955    653.98957   0.02850373  0.028131847            4 
 1913000   0.94488269   -6.7380102     652.3226  0.028416214  0.028124447            3 
 1914000   0.93342292   -6.7327733     652.9091  0.028426903  0.028116979            3 
 1915000   0.94461133   -6.7193593    654.41752  0.028477699  0.028109419            4 
 1916000    0.9531357   -6.7147785    652.26137  0.028369057  0.028101852            3 
 1917000   0.93848385   -6.7784076    652.48802  0.028364111  0.028094326            9 
 1918000   0.96306796   -6.7346854    653.42528  0.028390045  0.028086889            6 
 1919000   0.93777427   -6.7555216    653.41483  0.028374797  0.028079454            3 
 1920000    0.9563305   -6.7480204    654.53058  0.028408445  0.028071815            4 
 1921000   0.93676074   -6.7392334     654.8618  0.028408026  0.028064264           10 
 1922000   0.93166812   -6.7707844    651.72554  0.028257264  0.028056606            5 
 1923000   0.94580455   -6.7587825    653.05923  0.028300365  0.028049087           14 
 1924000   0.94300336    -6.775758    654.11033  0.028331182  0.028041568            8 
 1925000   0.95523764   -6.7330608    652.72702  0.028256581  0.028033971            5 
 1926000   0.95746058    -6.761467    652.42903  0.028229017   0.02802634            6 
 1927000   0.94116007   -6.7365379     654.6148  0.028308891   0.02801877            8 
 1928000   0.97713731   -6.7470708    655.03173  0.028312229  0.028011269            4 
 1929000   0.93053282   -6.7371879    656.71458  0.028370252  0.028003658            7 
 1930000   0.94707631   -6.7687085    654.28949  0.028250842  0.027996105            4 
 1931000   0.94504374   -6.7525563    655.06844  0.028269827  0.027988544            4 
 1932000   0.95188356   -6.7238335    657.27898  0.028350543  0.027981006            7 
 1933000   0.94340381    -6.777018    654.19701  0.028203009  0.027973477           13 
 1934000   0.95627116   -6.7335844    655.89555  0.028261614  0.027965917            3 
 1935000     0.953763   -6.7404911    656.23463  0.028261612  0.027958465            7 
 1936000    0.9613137    -6.735239    657.41504  0.028297824  0.027950937            4 
 1937000     0.907712    -6.716604    655.94406   0.02821993  0.027943462            4 
 1938000   0.93417151   -6.7220871    657.57039    0.0282753  0.027935999            5 
 1939000   0.94900538   -6.7395142    657.02407  0.028237239  0.027928471           10 
 1940000   0.93263436   -6.7927171    654.73816  0.028124491  0.027920881            5 
 1941000   0.93088796   -6.7119032    656.24008  0.028174484  0.027913242            3 
 1942000    0.9415583   -6.7689978     656.7221   0.02818066  0.027905657            5 
 1943000   0.93142077   -6.7538083     656.1815   0.02814297  0.027897896            6 
 1944000    0.9458156   -6.7476674    656.50063  0.028142174  0.027890176            3 
 1945000   0.93480944   -6.7745263    656.40872  0.028123767  0.027882511            5 
 1946000   0.95935798   -6.7477334    657.27248  0.028146304  0.027874858            3 
 1947000   0.94898651   -6.7402133    657.90143  0.028158767  0.027867232            4 
 1948000   0.94902817   -6.7414928    659.14196   0.02819738  0.027859674            5 
 1949000   0.93604967   -6.7414659    658.12975  0.028139633   0.02785204            5 
 1950000    0.9395216   -6.7431623    659.39634  0.028179331  0.027844496            3 
 1951000   0.92912082   -6.7506827    659.56162  0.028171947  0.027836935            7 
 1952000   0.95741319   -6.7474999    657.45743  0.028067684  0.027829425            3 
 1953000   0.93870226   -6.7652801    659.25146  0.028129863  0.027821818            5 
 1954000   0.93239154   -6.7364186    658.60961  0.028088093  0.027814227            4 
 1955000   0.93381421   -6.7699435    658.49703  0.028068927  0.027806471            6 
 1956000   0.92456018   -6.7729374    658.07224  0.028036479  0.027798675            8 
 1957000   0.93391643   -6.7583284    657.02178  0.027977422  0.027790927            3 
 1958000   0.94910361   -6.7494025    657.95453  0.028002831  0.027783225            3 
 1959000   0.95480615   -6.7909038    657.95405  0.027988517  0.027775434            4 
 1960000   0.95453722   -6.7932488    658.68337  0.028005246  0.027767681            4 
 1961000   0.95262235   -6.7177423    659.06622  0.028007233  0.027759987            6 
 1962000   0.92734615   -6.7637061     658.4588  0.027967159  0.027752316            4 
 1963000   0.93683026   -6.7477017    658.18457  0.027941271  0.027744669            6 
 1964000   0.94792355   -6.8046536     658.0951  0.027923247  0.027736881            4 
 1965000   0.93234282   -6.7541054    658.55887  0.027928705  0.027729011            7 
 1966000   0.93524532    -6.828287    656.53461  0.027828696  0.027720933            5 
 1967000   0.95275897   -6.7535214    658.71577  0.027906955  0.027712941            3 
 1968000   0.93421402   -6.7675769    658.83257  0.027897721  0.027705077            9 
 1969000   0.95442292    -6.753013    658.43661  0.027866794  0.027697256            6 
 1970000   0.93045762   -6.7648709    660.01862  0.027919569  0.027689414            3 
 1971000   0.92792528    -6.745922    662.86073  0.028025568  0.027681487            4 
 1972000   0.93235249   -6.7662958    659.89444  0.027886006  0.027673618            3 
 1973000   0.91906848   -6.7827392    660.99063  0.027918172  0.027665844            4 
 1974000   0.92494313    -6.755061    661.25255  0.027915086  0.027658086           10 
 1975000   0.93858219   -6.7763037    660.07101  0.027851097  0.027650351            3 
 1976000   0.94619427   -6.7662116    662.34089   0.02793273  0.027642599            4 
 1977000   0.92271585    -6.764638    660.57498  0.027844165  0.027634854            4 
 1978000   0.92932918   -6.7896443    662.49194   0.02791085  0.027627145            5 
 1979000   0.91567283   -6.7745448    662.38102  0.027892076  0.027619443            9 
 1980000   0.93564614   -6.7416159    663.77783  0.027936777   0.02761184            7 
 1981000   0.93941835   -6.7687194    662.01449  0.027848498  0.027604118            6 
 1982000   0.94821451   -6.7756645    662.24011  0.027843933  0.027596374           10 
 1983000   0.92535733   -6.7863643    664.06328  0.027906509  0.027588772            2 
 1984000   0.94559589   -6.7750937     663.8866  0.027885022  0.027581045            3 
 1985000   0.92730513   -6.7326304      663.987  0.027875189  0.027573409            3 
 1986000    0.9759427   -6.7594075    664.59193  0.027886536   0.02756588            6 
 1987000    0.9509318   -6.7816353    663.83899  0.027840924  0.027558195            4 
 1988000   0.92206048   -6.7675113    664.66592  0.027861583  0.027550597            8 
 1989000   0.93110312   -6.7589759    664.71643  0.027849691  0.027543037            3 
 1990000   0.96331569   -6.7248958    665.35818   0.02786257  0.027535465            4 
 1991000   0.91719078   -6.7521233    664.18429  0.027799443  0.027527932            7 
 1992000   0.91363573   -6.8059008    663.68365  0.027764544  0.027520326            5 
 1993000   0.95365296   -6.7750724    665.88021  0.027842458  0.027512708            6 
 1994000   0.92573327   -6.7665457      663.899  0.027745695  0.027505123            3 
 1995000   0.94693626   -6.7502284    664.97579  0.027776766  0.027497498            4 
 1996000   0.93306866   -6.7972896     664.5397  0.027744644  0.027489882            2 
 1997000   0.94487291   -6.8074236     663.4512  0.027685328  0.027482214            8 
 1998000   0.92050331   -6.7818007    665.27736  0.027747637  0.027474582            2 
 1999000   0.92824769   -6.7664942    664.74738  0.027711663  0.027466904            5 
 2000000   0.94167802   -6.7715585    663.20885  0.027633702  0.027459214            6 
 2001000   0.93665009     -6.76264    664.54071  0.027675358  0.027451493            4 
 2002000   0.93565924   -6.8033532    664.76868  0.027671024  0.027443815           13 
 2003000   0.92054331   -6.7643969    665.90169  0.027704347  0.027436107            8 
 2004000   0.94634713   -6.7704468    666.40193  0.027711324  0.027428365            5 
 2005000   0.93176782   -6.7976066    663.51381  0.027577465  0.027420595            6 
 2006000   0.94218381   -6.7899468    663.60402  0.027567465  0.027412736            4 
 2007000   0.92309344   -6.7597771    665.62877    0.0276378  0.027405005            5 
 2008000   0.92218491   -6.7972821    665.10746  0.027602401  0.027397256            4 
 2009000   0.92595838   -6.7500172    668.28195   0.02772034  0.027389575            5 
 2010000    0.9274473   -6.8026462    665.06757  0.027573282  0.027381867            2 
 2011000   0.95338233    -6.754687    667.45065  0.027658323  0.027374115            5 
 2012000   0.93262847   -6.7913102    663.88287  0.027496806  0.027366333            2 
 2013000   0.93673563   -6.8020625    665.29042  0.027541415  0.027358592           11 
 2014000   0.94248178   -6.7776673    666.52272  0.027578729  0.027350845            3 
 2015000   0.92793814   -6.7584455    666.08999  0.027547146  0.027343096            7 
 2016000   0.93476491   -6.7722664    666.53614  0.027551924  0.027335354            5 
 2017000   0.91712303   -6.8097415    666.83768  0.027550722  0.027327669            4 
 2018000   0.93052762   -6.7789637    666.95675  0.027541987  0.027319858            4 
 2019000   0.93597867   -6.7644687    665.65547  0.027474635  0.027312092            5 
 2020000   0.92481262   -6.8239339     665.9158  0.027471774  0.027304285            8 
 2021000   0.92562273   -6.7473182    668.82748   0.02757824  0.027296489           12 
 2022000   0.91680641     -6.79149    667.64453  0.027515848  0.027288737            5 
 2023000   0.93073885   -6.7827738    667.18268  0.027483221    0.0272809            3 
 2024000   0.93720135   -6.7665838    667.94081  0.027500857  0.027273177            3 
 2025000   0.91377661   -6.7728514      668.761  0.027521029  0.027265434            5 
 2026000   0.92915883   -6.7906826    667.31613  0.027448015  0.027257681            7 
 2027000   0.90851059    -6.802267    667.24802  0.027431673  0.027249918            5 
 2028000   0.94284788   -6.8051592     666.7794  0.027398891  0.027242093            3 
 2029000   0.93022246   -6.7945309    667.06354  0.027397057  0.027234317            4 
 2030000   0.92168983   -6.7945597    667.38506  0.027396759  0.027226559            5 
 2031000    0.9480853   -6.8033688    667.80785  0.027400618  0.027218722            4 
 2032000   0.92185886   -6.8067555     668.4754   0.02741451  0.027210825            3 
 2033000   0.92097619   -6.8066728    670.32272  0.027476747  0.027203084            7 
 2034000    0.9439339   -6.8002706    669.11026  0.027413564  0.027195241            8 
 2035000   0.91214749   -6.8042032    670.53192   0.02745831  0.027187435            3 
 2036000   0.91986765   -6.7945795    669.53456  0.027404001  0.027179642            3 
 2037000   0.94138723    -6.784104    671.64413  0.027476851  0.027171887            6 
 2038000   0.94638022   -6.8045845    670.26712  0.027407063  0.027164136            4 
 2039000   0.95393853   -6.8294306    669.71359  0.027370999  0.027156355            8 
 2040000   0.92696622   -6.8081587    669.51444  0.027349446  0.027148584            4 
 2041000   0.92990292   -6.7872854     670.3453   0.02736997  0.027140814            3 
 2042000   0.93242205    -6.788564    669.93148  0.027339679  0.027133139            4 
 2043000   0.92813399   -6.7906211    670.56753   0.02735224   0.02712544            6 
 2044000   0.91457315   -6.8119672    668.31739  0.027247121  0.027117599            4 
 2045000   0.93553313   -6.8021931    670.52468  0.027323744  0.027109653           11 
 2046000   0.91840232   -6.8112258    671.31774  0.027342691  0.027101849            3 
 2047000   0.93418523   -6.7966721    669.08603   0.02723848  0.027094011            4 
 2048000   0.93884335   -6.8137959    669.59687  0.027245966  0.027086102            7 
 2049000   0.94078348   -6.7875565    669.87568  0.027244008  0.027078209            5 
 2050000   0.93714518   -6.7598704    670.89482  0.027272147  0.027070554            3 
 2051000    0.9386718    -6.773618    671.98688  0.027303221  0.027062902            7 
 2052000   0.93430547   -6.7968222    671.29228  0.027261707  0.027055181            4 
 2053000   0.90294103   -6.8429947    669.66177  0.027182244  0.027047457            7 
 2054000   0.92055047    -6.817838    671.66274  0.027250192  0.027039605            4 
 2055000   0.91986291   -6.8167772    672.09554  0.027254482  0.027031788            9 
 2056000   0.92193498    -6.802416    673.64911  0.027304195  0.027023968            7 
 2057000    0.9352036   -6.8144606    672.18176  0.027231476  0.027016199            8 
 2058000   0.92304617   -6.8496726    671.49282  0.027190347  0.027008428            6 
 2059000   0.92767348   -6.8130387    672.90486  0.027234291  0.027000571            9 
 2060000   0.92823925   -6.8403019    670.98466  0.027143392  0.026992694            9 
 2061000   0.92107837   -6.7888321    672.33716  0.027184909  0.026984862            7 
 2062000   0.92069444   -6.7801586     673.1739  0.027205541  0.026977047            4 
 2063000   0.94959497   -6.7986693    673.01886  0.027186091  0.026969293            6 
 2064000   0.92972161   -6.7898797    672.22299  0.027140786  0.026961468           11 
 2065000   0.93693117   -6.7980349    673.24326  0.027168816  0.026953814            4 
 2066000   0.92423199   -6.7965644    672.80927   0.02713816    0.0269461            8 
 2067000   0.90822184   -6.7697742    675.70733   0.02724187  0.026938412            2 
 2068000   0.92468178   -6.7794662     675.0717  0.027203083  0.026930712            8 
 2069000   0.93637086    -6.811664    673.90646  0.027143002   0.02692301            4 
 2070000   0.93882088   -6.8215683    674.70348  0.027161976  0.026915237           11 
 2071000   0.91799432   -6.8204155    672.09394  0.027043857  0.026907476            5 
 2072000   0.93511818   -6.8376661    675.48384  0.027167143   0.02689963            6 
 2073000   0.88824575   -6.8041671    673.14129  0.027059868  0.026891791            7 
 2074000   0.90894425    -6.792622    673.02696  0.027042228  0.026884074            5 
 2075000   0.92856442   -6.8311692    672.28938  0.026999574  0.026876242            9 
 2076000   0.94067946   -6.8447843    672.51986   0.02699582  0.026868465            3 
 2077000   0.92337212   -6.8439726     674.1532  0.027048355  0.026860668            7 
 2078000   0.92932038   -6.7770659    676.23466  0.027118811  0.026852957            5 
 2079000   0.90290125   -6.8278342    675.35505  0.027070509  0.026845265            4 
 2080000   0.93588864   -6.8123193    674.97581    0.0270423  0.026837603            7 
 2081000   0.92890061   -6.8045919    675.66612  0.027056949  0.026829835            5 
 2082000   0.91474078   -6.8006317       677.61  0.027121758  0.026822145            6 
 2083000   0.91867995   -6.8046122    674.36871  0.026979065  0.026814478            4 
 2084000   0.92846222   -6.8360646    675.37051  0.027006178   0.02680667            4 
 2085000   0.91187102   -6.7999289    675.28609  0.026989852  0.026798905            4 
 2086000   0.90295453   -6.7750618     678.0217  0.027086198  0.026791234            6 
 2087000   0.91101992   -6.8091331     678.4112  0.027088772  0.026783561            6 
 2088000   0.94421917   -6.8391969     675.9851  0.026978971   0.02677579            7 
 2089000   0.93417785   -6.8661107    675.09196  0.026930428  0.026768074            4 
 2090000   0.92071722   -6.8126935    677.33694  0.027007055  0.026760399            8 
 2091000   0.92705031   -6.8074415    677.92679  0.027017647  0.026752719            4 
 2092000   0.92536379   -6.8119051    677.32609  0.026980803  0.026745007            9 
 2093000   0.90792901   -6.8553488    678.15282  0.027000829  0.026737284           11 
 2094000   0.92342298   -6.8068423     676.7886  0.026933644  0.026729597            6 
 2095000   0.89603415    -6.823807    677.79465  0.026960806  0.026721866            8 
 2096000   0.90075177   -6.8298069    676.80959  0.026908778  0.026714151            9 
 2097000   0.91496857   -6.8649098    677.00002  0.026903514  0.026706454            7 
 2098000    0.9232771   -6.8106051    679.37988  0.026985219  0.026698772           10 
 2099000   0.91527851    -6.795098    678.05804  0.026919884  0.026691071            8 
 2100000   0.92310984   -6.8493557    676.79586  0.026856979  0.026683444            8 
 2101000   0.94297089   -6.8601366    677.91711  0.026888668  0.026675602            5 
 2102000    0.9221269   -6.8113645    678.40897  0.026895376  0.026667891            7 
 2103000   0.91128947   -6.8141211    678.63645  0.026891601    0.0266602            7 
 2104000   0.89825015   -6.7982776    679.60041     0.026917  0.026652508            9 
 2105000   0.91994953   -6.8404929    678.62969  0.026865784  0.026644813           10 
 2106000   0.92658081   -6.8136463    680.93549  0.026944266  0.026637124            6 
 2107000   0.91467551   -6.8665068    677.13465  0.026781152  0.026629347            4 
 2108000   0.93543016   -6.8238271    679.08992  0.026845743  0.026621604            8 
 2109000    0.9272205   -6.8243587     678.0525  0.026792022  0.026613863            4 
 2110000   0.91891666   -6.8196679    680.13066  0.026861401  0.026606106            4 
 2111000   0.92764982   -6.8424365    676.60434  0.026709472  0.026598333            4 
 2112000   0.90042233   -6.8584447    680.00435   0.02683098  0.026590533            7 
 2113000   0.89970162   -6.8434574    678.80451  0.026770962   0.02658277            5 
 2114000   0.92658009   -6.8328481    678.85032  0.026760104  0.026574993            7 
 2115000   0.88228341   -6.8526373    681.98685  0.026871034  0.026567262           13 
 2116000   0.90708511   -6.8540731    679.27513  0.026751541  0.026559542            4 
 2117000   0.92302137   -6.8235536    679.77681  0.026758653  0.026551706            7 
 2118000   0.91570987   -6.8368418    679.15552  0.026721574    0.0265439            6 
 2119000   0.92521906   -6.8298386    680.15905  0.026748429  0.026536119            3 
 2120000   0.93101878    -6.851125    679.99091  0.026729203  0.026528319            4 
 2121000   0.92882181   -6.8518122    678.89723   0.02667363  0.026520494            7 
 2122000   0.90799176   -6.8450489    679.55194  0.026686771   0.02651281           14 
 2123000   0.88864084   -6.8329242    682.32916  0.026783214  0.026505033            6 
 2124000    0.8984703   -6.8287351    679.95105  0.026677301  0.026497302            3 
 2125000   0.89163465   -6.8551389    680.41595  0.026682978  0.026489562            7 
 2126000   0.91533807   -6.8493928    680.45268  0.026671867  0.026481747           20 
 2127000   0.92159442   -6.8714351    679.98949   0.02664118  0.026473891           10 
 2128000   0.92034323   -6.8401591    681.36577  0.026682557  0.026466065            3 
 2129000    0.9211477    -6.862761    680.32858  0.026629426  0.026458257            9 
 2130000   0.90952766   -6.8468031    680.08681  0.026607465  0.026450491            4 
 2131000   0.93673157   -6.8627274     679.5053  0.026572239  0.026442645           18 
 2132000   0.90280154   -6.8358691    680.45813  0.026597019  0.026434871            5 
 2133000   0.90119792   -6.8157113    681.75492  0.026635213  0.026427161            8 
 2134000   0.90566786   -6.8028651    685.25694  0.026759487  0.026419442            5 
 2135000   0.90634306   -6.8338736    680.57876  0.026564354  0.026411735           10 
 2136000   0.91161353   -6.8463705    682.38147  0.026622248  0.026403961            4 
 2137000   0.91006652   -6.8548545    683.13552  0.026639195  0.026396282            5 
 2138000   0.92053655   -6.8605195    682.22668  0.026591311  0.026388566            6 
 2139000   0.92437091   -6.8596942    681.21465  0.026539452  0.026380788           21 
 2140000   0.91538607    -6.856699    681.88213  0.026553043   0.02637304            3 
 2141000   0.91292089   -6.8392119    682.62819  0.026569679  0.026365241            3 
 2142000   0.90139529   -6.8801717    679.33255   0.02642906  0.026357484           10 
 2143000   0.92672163   -6.8353807    684.68359  0.026624809  0.026349613            6 
 2144000   0.88849277   -6.8702975    680.70337  0.026457687  0.026341797            5 
 2145000   0.90285418   -6.8592617    681.77922  0.026487149  0.026333928            3 
 2146000   0.90080308   -6.8376789    684.04053  0.026562618  0.026326011            4 
 2147000   0.89963757   -6.8491702    681.78681   0.02646277   0.02631816            5 
 2148000    0.9007621   -6.8474585    682.70707  0.026486153  0.026310345            6 
 2149000   0.91452553   -6.8289536    683.11766  0.026489749  0.026302645            9 
 2150000   0.90646766   -6.8257734    683.44869  0.026490259  0.026294833            5 
 2151000   0.91107766   -6.8786156    682.53912  0.026442706  0.026286948            3 
 2152000   0.91450673   -6.8546506    682.65728  0.026434994  0.026279092           10 
 2153000    0.9091555   -6.8666958    683.12456  0.026440802  0.026271289            7 
 2154000   0.90829915   -6.8276567    685.35986  0.026515005  0.026263465            8 
 2155000   0.89944496    -6.837818    684.85474  0.026483169  0.026255572            8 
 2156000   0.90579525   -6.8628984    685.06321  0.026478943  0.026247854            6 
 2157000   0.91432792   -6.8405416    684.18496  0.026432737  0.026240089            7 
 2158000   0.91327271   -6.8824862     683.6208  0.026398702  0.026232295            6 
 2159000   0.90654493   -6.8554084    684.00281   0.02640122  0.026224522            8 
 2160000    0.9127138   -6.8636187    684.86238   0.02642216  0.026216718           16 
 2161000   0.93270551   -6.8520177    683.78392  0.026368345   0.02620889            5 
 2162000   0.91122823   -6.8389546    684.57743  0.026386734  0.026201165            4 
 2163000   0.89475573   -6.8694416    684.81301  0.026383611  0.026193414            5 
 2164000   0.91071763    -6.846031    687.18353  0.026462705  0.026185634            9 
 2165000   0.91188361   -6.8798271    685.14206  0.026371904  0.026177873            8 
 2166000   0.90005004   -6.8885336    684.88648  0.026349895  0.026170102            6 
 2167000   0.90363368   -6.8492518    687.21484  0.026427274  0.026162359            5 
 2168000   0.91415256   -6.8656817    687.75712  0.026435929   0.02615466           12 
 2169000   0.89700721   -6.8657579    686.62778  0.026380351  0.026146963            8 
 2170000   0.89970525   -6.8600278    686.99686  0.026382368  0.026139199            4 
 2171000   0.90724019   -6.8518091    687.99857  0.026408666  0.026131518           11 
 2172000   0.92218997   -6.8852031    684.71578  0.026270556  0.026123743            4 
 2173000   0.90614379    -6.884518    686.81595  0.026339007  0.026115903            5 
 2174000   0.92242268   -6.8272643    685.90612  0.026292016  0.026108134            6 
 2175000   0.90430492   -6.8284415    687.42767  0.026338225  0.026100392            9 
 2176000   0.91704317    -6.850304    686.75664  0.026300423  0.026092615            5 
 2177000   0.91231916   -6.8520276    685.49198  0.026239932  0.026084885            5 
 2178000   0.91583001   -6.8287155    688.07329  0.026326649  0.026077063           14 
 2179000   0.92558945    -6.899421    685.46491  0.026214812  0.026069199            9 
 2180000   0.88644711   -6.8582648    685.32224  0.026197333   0.02606133            5 
 2181000   0.90691744   -6.8523732    685.63983  0.026197456  0.026053442            5 
 2182000   0.88837653   -6.8775721    688.42519  0.026291827  0.026045627            6 
 2183000   0.90355743   -6.8641706    687.43468  0.026241971  0.026037814           10 
 2184000   0.88590849   -6.8560758    688.02168  0.026252353  0.026030039            6 
 2185000   0.88950701   -6.8786442    686.83275  0.026194994  0.026022259            5 
 2186000   0.89901172    -6.852259    688.92328  0.026262705  0.026014509            4 
 2187000   0.90168104   -6.8514781    689.00243  0.026253713  0.026006748            5 
 2188000   0.89229142     -6.87021    687.83294  0.026197172  0.025999013            5 
 2189000   0.90382348   -6.8899993    687.54502  0.026174243  0.025991193            7 
 2190000   0.91650516   -6.8578253    688.28033  0.026190271  0.025983392            8 
 2191000   0.89958194   -6.8923467    688.32091  0.026179861  0.025975473            7 
 2192000    0.9069455    -6.843796    687.63152  0.026141709  0.025967597            9 
 2193000   0.89973962    -6.913028     687.7671  0.026134941   0.02595966           18 
 2194000    0.9033145   -6.8418731     688.3519  0.026145241  0.025951779            7 
 2195000   0.88714872   -6.8465155    689.48295   0.02617627  0.025943925           10 
 2196000   0.87703096   -6.8854635    688.16098  0.026114184  0.025936148            7 
 2197000   0.88661125   -6.9097501    688.56016  0.026117439  0.025928346            5 
 2198000    0.9019501   -6.8752275    688.05314  0.026086334  0.025920523            6 
 2199000   0.89491733   -6.8587592    690.28951   0.02615922  0.025912796            6 
 2200000   0.90747164   -6.8915356    688.89723  0.026094592  0.025904928            7 
 2201000   0.87855888   -6.9465868     688.2393  0.026057826  0.025897048            9 
 2202000   0.89298826   -6.9016662    686.25589  0.025970931  0.025889045            9 
 2203000     0.907337   -6.8761659    687.22671  0.025995866  0.025881093            4 
 2204000   0.90699832   -6.8682408     690.7454  0.026117113  0.025873197            5 
 2205000   0.90932147   -6.8654943    688.26928  0.026011689  0.025865402            9 
 2206000    0.9178177   -6.8990871    689.10392  0.026031426  0.025857552            6 
 2207000   0.89608069   -6.8891846    688.75656  0.026006516  0.025849678            7 
 2208000   0.89832874   -6.8861061    688.39461  0.025981077  0.025841749            5 
 2209000   0.90346362   -6.8686514    689.43392  0.026008523   0.02583387            6 
 2210000   0.90988565   -6.8883519    689.64032  0.026004537   0.02582606           11 
 2211000   0.90931546   -6.9261381    688.48175  0.025949109  0.025818093            8 
 2212000   0.89737012   -6.8814765    689.11255  0.025961142   0.02581016            4 
 2213000   0.88420767   -6.9460659    689.51942  0.025964732  0.025802195            3 
 2214000   0.89607538   -6.9257142     688.4759  0.025913727  0.025794209            5 
 2215000   0.89739295   -6.8904443    689.25817  0.025931458  0.025786211            3 
 2216000    0.9148188   -6.8719975    690.93475  0.025982805  0.025778354            3 
 2217000   0.90996657   -6.8896818    689.09477  0.025901923  0.025770555           11 
 2218000   0.90460725    -6.864014    689.52597  0.025906446  0.025762756            3 
 2219000   0.89456195   -6.8602254    689.67172  0.025900245  0.025754962            4 
 2220000    0.9086902   -6.8902951    691.41585  0.025954048  0.025747103           11 
 2221000   0.90491226   -6.8881293     690.2887  0.025900071  0.025739263           10 
 2222000   0.90159949    -6.875455    689.00122   0.02584013  0.025731351            6 
 2223000   0.90065747   -6.8767834    688.41756  0.025806626  0.025723409            9 
 2224000   0.87917416   -6.8979047    691.39045  0.025906417  0.025715525            3 
 2225000   0.87939476   -6.8730123    691.59173  0.025902312  0.025707674           16 
 2226000    0.9034315   -6.8748981    692.01313  0.025906451   0.02569973            9 
 2227000   0.86020922   -6.9136628    689.26579  0.025792014  0.025691868           13 
 2228000   0.89142101   -6.8823184     691.8404  0.025876735  0.025684008            3 
 2229000   0.88931056   -6.8809527    691.96096  0.025869634   0.02567612           15 
 2230000   0.91220285   -6.9233562     689.3192  0.025759312  0.025668204            9 
 2231000   0.89236498   -6.8976003    690.95115  0.025808724  0.025660262            9 
 2232000   0.89011408   -6.8708858     692.7286  0.025863523  0.025652328           12 
 2233000   0.89867555   -6.9116288    692.86667  0.025857093  0.025644411            7 
 2234000   0.88831941   -6.9011682    691.45608  0.025792901  0.025636535            4 
 2235000   0.89647849   -6.8674228     692.0453  0.025803329  0.025628699            7 
 2236000   0.89354519    -6.879887    690.38285  0.025729832  0.025620845           12 
 2237000   0.88885194   -6.8639998    694.07881  0.025856013  0.025613017            6 
 2238000   0.89511946   -6.8886316    692.44639  0.025783676  0.025605241            4 
 2239000   0.89864286   -6.9214571     693.3257  0.025804887  0.025597478            3 
 2240000   0.91207079   -6.8780717    695.28881  0.025866399  0.025589719            5 
 2241000   0.87808263   -6.8690027    694.52224  0.025826351  0.025581933            5 
 2242000   0.87643706   -6.9217263    691.43301  0.025700008  0.025574124            6 
 2243000   0.90642978   -6.9022576    694.33292  0.025796289  0.025566377            7 
 2244000   0.89862803   -6.8695705     695.4674  0.025826924  0.025558639           13 
 2245000   0.91864996   -6.8461017    694.64641  0.025784945  0.025550918            6 
 2246000   0.89286751   -6.8825579    695.48629  0.025804626  0.025543229            6 
 2247000   0.89171337   -6.8944675    694.04994  0.025739873  0.025535412            6 
 2248000   0.89086546   -6.8958941    695.25679  0.025773161  0.025527658            3 
 2249000   0.89008065   -6.8810464    694.44525  0.025731631  0.025519838           10 
 2250000   0.90792552   -6.8861399    694.30679  0.025715066  0.025512128            8 
 2251000   0.89095039   -6.8884917    694.10304    0.0256961   0.02550439           11 
 2252000   0.87748475   -6.8842109    694.96701   0.02571666  0.025496682           15 
 2253000   0.90951229   -6.8779733    697.50887  0.025799263  0.025489009           27 
 2254000   0.90600076   -6.8855254    695.07773  0.025697934  0.025481301            8 
 2255000   0.91004434   -6.9108708    694.44544  0.025663172  0.025473532            6 
 2256000   0.87610741   -6.8782314    696.11529  0.025713479  0.025465733            5 
 2257000   0.89691962   -6.8863255     694.5068  0.025642697  0.025457972            9 
 2258000   0.91356171   -6.9332565    693.81955  0.025605977  0.025450206            8 
 2259000   0.89097338   -6.8928143    697.26488  0.025721738  0.025442428            6 
 2260000   0.88687209   -6.9020826    694.65091  0.025613972  0.025434627            5 
 2261000   0.90340726   -6.9202332    693.83211  0.025572464  0.025426764            6 
 2262000   0.89463964   -6.9007834    695.22414  0.025612442  0.025418932           23 
 2263000    0.8924485   -6.9163248    695.26428  0.025602603  0.025411061            8 
 2264000   0.87399724    -6.937792    693.48971  0.025525976  0.025403228            5 
 2265000   0.89206857   -6.9413795    694.76801  0.025561737  0.025395302            8 
 2266000   0.88735436   -6.8748697    698.26489  0.025679056  0.025387486            4 
 2267000   0.89170556     -6.89751    695.89178  0.025580495  0.025379753            3 
 2268000   0.89224708   -6.9153278    693.07255  0.025465629  0.025372007            7 
 2269000   0.87754609   -6.8929665    696.42734  0.025577616  0.025364129            7 
 2270000   0.88145289   -6.9374415    694.73636  0.025504272  0.025356321            3 
 2271000   0.90157688   -6.9190717    696.34505  0.025552071  0.025348424            4 
 2272000   0.89308058   -6.9302609    692.79821  0.025410732   0.02534051           15 
 2273000   0.89986851   -6.9184702    695.20889  0.025487934  0.025332585           10 
 2274000    0.8796846   -6.8812306    697.19858   0.02554964  0.025324769            7 
 2275000   0.88995306   -6.9081975    697.17057  0.025537384  0.025316958            3 
 2276000   0.88108205   -6.8900133    697.28189  0.025530239    0.0253091            8 
 2277000    0.8815937   -6.9160164    694.34915  0.025411695  0.025301307            6 
 2278000   0.89342926   -6.8927793    696.28016   0.02547118  0.025293537            6 
 2279000   0.88757976   -6.8799011    698.71128  0.025548899  0.025285831            3 
 2280000   0.88447074   -6.9097416    696.91007  0.025471859  0.025278038            4 
 2281000   0.87416203   -6.9195061    697.56843  0.025484745  0.025270198            6 
 2282000   0.90262443     -6.92627    696.89113  0.025448843  0.025262387            5 
 2283000   0.87321871   -6.9090042    697.10079  0.025445349  0.025254552            4 
 2284000   0.87219458    -6.933147    696.65472  0.025417933  0.025246697            6 
 2285000   0.88405896   -6.8960682    696.85144  0.025413984  0.025238794            7 
 2286000   0.88787061   -6.9200366    694.33001  0.025310951  0.025230917           10 
 2287000   0.88849129   -6.8865747    696.54573   0.02538062  0.025223062            5 
 2288000   0.90352503   -6.9041545    699.60083  0.025480799  0.025215179            4 
 2289000   0.86217729   -6.9131607    698.64858     0.025435  0.025207346            3 
 2290000   0.87069091   -6.9266993    698.85066  0.025431247  0.025199504           14 
 2291000   0.90864106   -6.9258687    695.56962  0.025300801  0.025191709            7 
 2292000    0.8660416    -6.945151    695.88852  0.025301357  0.025183832            5 
 2293000    0.8954121   -6.9023104      696.621  0.025316943  0.025175907            4 
 2294000   0.87003887   -6.9100777     698.7382  0.025382817  0.025168016            3 
 2295000   0.87968604   -6.9386222    695.67434  0.025260506  0.025160058           10 
 2296000   0.87336518   -6.9251158    696.00536  0.025261519  0.025152161            4 
 2297000   0.88890817   -6.8822284     699.3108   0.02537044  0.025144275            6 
 2298000   0.86632548   -6.8956023    696.86437  0.025270684  0.025136418            5 
 2299000   0.87068244   -6.9137982    697.83797  0.025294982   0.02512858            8 
 2300000   0.89400138   -6.9172561    695.89101  0.025213443  0.025120662            5 
 2301000   0.87319595   -6.9132819    696.31674  0.025217903  0.025112689           16 
 2302000    0.8993701   -6.9090079    697.74283  0.025258573  0.025104791            6 
 2303000   0.89262822   -6.9146303    699.34505  0.025305581  0.025096907            8 
 2304000   0.89786387   -6.9412152    697.68301  0.025234484  0.025088972           17 
 2305000    0.8827062   -6.9123211    697.77169  0.025226742  0.025081069            6 
 2306000    0.8938062   -6.9204877     698.5899  0.025245371  0.025073153            8 
 2307000   0.87991648   -6.9619424    697.94962    0.0252113  0.025065348           13 
 2308000   0.87885508    -6.936303    697.95892  0.025200712  0.025057474           14 
 2309000   0.88112317   -6.9446408    697.97203  0.025190271  0.025049637           13 
 2310000   0.85357982   -6.9000688    700.94015  0.025286441  0.025041708           12 
 2311000   0.88629582   -6.9534125    698.44761   0.02518562  0.025033882            6 
 2312000   0.87317008   -6.8758717    699.71107  0.025220266  0.025025969            6 
 2313000   0.88283226   -6.9316873     700.2187  0.025227652  0.025018127            7 
 2314000   0.89444816   -6.9355129    697.90129  0.025133293  0.025010216            9 
 2315000   0.87077525    -6.960679    698.01366  0.025126482  0.025002221            5 
 2316000   0.85809466   -6.9579172    697.96331  0.025113821  0.024994295            4 
 2317000   0.87099421   -6.8967376    697.78273  0.025096487  0.024986338            8 
 2318000   0.86091969   -6.8838469    700.71597  0.025191112  0.024978449           21 
 2319000   0.87956615   -6.9317612     698.6353   0.02510548  0.024970542            4 
 2320000   0.89274276   -6.9243541    697.85443   0.02506661  0.024962564            8 
 2321000   0.89031265   -6.9277614    698.53643  0.025080297  0.024954543            8 
 2322000   0.85264836   -6.9080698    700.12096  0.025126362  0.024946572            5 
 2323000   0.87685272   -6.9124387    699.98676  0.025110732  0.024938632            7 
 2324000   0.87464844   -6.9314003    698.40527  0.025043218  0.024930732           13 
 2325000   0.89121913   -6.9509594    699.49955  0.025071669  0.024922875            5 
 2326000   0.90010618   -6.9545073    699.27204  0.025052739  0.024914906           19 
 2327000   0.90424408   -6.9111827     701.4494  0.025119947   0.02490702            6 
 2328000   0.87025891    -6.913258    700.20628  0.025064658  0.024899155            5 
 2329000   0.88642593   -6.9016921    702.41111  0.025132786  0.024891319            8 
 2330000   0.89567027   -6.9256259    702.37393   0.02512067  0.024883451            4 
 2331000   0.88738796   -6.9155028    700.69215  0.025049769  0.024875588            7 
 2332000   0.88447163   -6.9457708    700.55967  0.025034293  0.024867623            7 
 2333000   0.89533983    -6.918617    700.19946  0.025010697  0.024859701            8 
 2334000    0.8922269   -6.9194127    700.54053  0.025012158  0.024851815            6 
 2335000   0.90516831   -6.9309401     700.0796  0.024984997   0.02484391           11 
 2336000   0.88617235   -6.9161823    700.04265  0.024972983  0.024835993           13 
 2337000   0.85887375   -6.9216288    700.64795  0.024983881  0.024828063            7 
 2338000   0.88003136   -6.9368677    700.61532  0.024972032  0.024820204            5 
 2339000   0.86585753   -6.8979505    704.23842  0.025090438  0.024812388            5 
 2340000   0.86924434   -6.9361026    701.91801   0.02499708   0.02480457            5 
 2341000   0.87007916   -6.9057533    703.43961  0.025040567  0.024796792            9 
 2342000    0.8685145   -6.9554986    702.05737  0.024980692  0.024789001           15 
 2343000   0.87425686   -6.9206734    701.49394  0.024949991  0.024781173            4 
 2344000   0.87045319   -6.9123795    703.59979  0.025014213  0.024773346            7 
 2345000   0.87211099   -6.9061638    703.67063  0.025006063  0.024765545           11 
 2346000   0.87437275   -6.9543618    700.03024  0.024866092  0.024757698            4 
 2347000    0.8702878   -6.9357881    703.56863  0.024981133  0.024749832            5 
 2348000   0.88044836   -6.9563726    699.78762  0.024836301  0.024741972            7 
 2349000   0.86952777   -6.9309429    701.26959  0.024878303  0.024734134            5 
 2350000   0.88146082   -6.9245865     701.0123  0.024858592  0.024726307            5 
 2351000   0.86920082   -6.9082627     702.0205  0.024883755  0.024718533           12 
 2352000   0.86622946   -6.9221359    703.15686  0.024913438  0.024710739            3 
 2353000    0.8580023   -6.9375381    702.23001  0.024870024  0.024702865            4 
 2354000   0.87918846   -6.9333688    702.28417  0.024861377  0.024695068            6 
 2355000    0.8602755   -6.9644885    702.67025  0.024864482  0.024687199           10 
 2356000   0.88834529     -6.95673    703.02937   0.02486663  0.024679269            7 
 2357000   0.87362009   -6.9704152    702.30229  0.024830374  0.024671382            4 
 2358000   0.88335859   -6.9534958    702.73846  0.024835258  0.024663555            5 
 2359000   0.88784798   -6.9409835     705.8739  0.024935492  0.024655793           15 
 2360000   0.88848646   -6.9601035    701.27501  0.024762536  0.024648036            5 
 2361000   0.87725742   -6.9220353    703.72615  0.024838563  0.024640285            6 
 2362000    0.8730222   -6.9128524    702.14183   0.02477215  0.024632447           13 
 2363000    0.8806323   -6.9599598    701.94481  0.024754719  0.024624575            4 
 2364000   0.88591923   -6.9506033    703.65934  0.024804686   0.02461678           12 
 2365000   0.85749347   -6.9040195    704.12957  0.024810767  0.024609019           18 
 2366000   0.89386814   -6.9359101    705.87009  0.024861584  0.024601274            8 
 2367000   0.88439049   -6.9334615    705.50452   0.02483821  0.024593456           11 
 2368000   0.87357299   -6.9463729    703.69943  0.024764197  0.024585646            6 
 2369000   0.87017055   -6.9464215    706.18939  0.024841332  0.024577859           10 
 2370000   0.85890794   -6.9393929    704.79413  0.024781791  0.024570034            6 
 2371000   0.89399437   -6.9681329    703.83243  0.024737538  0.024562215           13 
 2372000   0.86570178   -6.9846016    705.00245  0.024768214   0.02455439           11 
 2373000   0.87333855   -6.9403756    703.47234  0.024704043  0.024546541            9 
 2374000   0.87857899   -6.9268007    705.13103  0.024751861  0.024538745            9 
 2375000   0.85999502   -6.9814755    702.46071  0.024647744   0.02453097           14 
 2376000   0.88323779    -6.969842    704.42319  0.024706201  0.024523149            5 
 2377000   0.87161113   -6.9582675    703.78253  0.024673346  0.024515325            4 
 2378000   0.86192238   -6.9216887    705.05759  0.024707653  0.024507537            7 
 2379000   0.87267762    -6.920961    706.47934  0.024747069  0.024499744           10 
 2380000   0.87719958   -6.9410022    704.70319  0.024674481  0.024491998            5 
 2381000   0.86437291   -6.9164767    707.20308  0.024751613  0.024484257            3 
 2382000   0.85015485    -6.903713    705.08342  0.024667066  0.024476545            8 
 2383000   0.88453209   -6.9383719    705.82622  0.024682691  0.024468753            7 
 2384000    0.8584797     -6.96368    706.58346  0.024698807  0.024460973            4 
 2385000   0.85921989   -6.9717824    703.91273  0.024595134  0.024453151            5 
 2386000   0.87496011   -6.9329824    706.26861  0.024667107  0.024445404            8 
 2387000   0.88308565   -6.9497303    704.92789  0.024609967  0.024437662            5 
 2388000   0.87056771   -6.9052132    708.28886  0.024716948  0.024429973            4 
 2389000   0.87774226   -6.9646249    704.88385  0.024587828  0.024422252           11 
 2390000    0.8725246   -6.9786864    704.42678  0.024561603  0.024414442           13 
 2391000   0.87935699   -6.9365885    704.80923   0.02456466  0.024406584           10 
 2392000   0.87816045   -6.9652684    705.76428  0.024587663  0.024398813            5 
 2393000   0.86991886   -6.9366423    704.40675  0.024530114  0.024391056           10 
 2394000   0.85762474   -6.9492775    705.94251  0.024573326  0.024383219           12 
 2395000   0.85060504   -6.9495632    707.14977  0.024605072  0.024375409           19 
 2396000   0.88947975   -7.0208644    705.67001  0.024543337  0.024367602            7 
 2397000   0.86103197   -6.9615846    705.10157  0.024513335  0.024359819           10 
 2398000   0.87127608   -6.9720182     706.5897  0.024554827  0.024352067            6 
 2399000   0.87438646   -6.9715195    705.11214  0.024493266  0.024344345           12 
 2400000   0.85534367   -6.9502934    707.92729  0.024580809   0.02433665            4 
 2401000   0.87253107     -6.95836    706.85544  0.024533369  0.024328941            4 
 2402000   0.86377881   -6.9754171    707.01498  0.024528691  0.024321241            6 
 2403000   0.87460871   -6.9294301    707.45685  0.024533807  0.024313445            9 
 2404000   0.86701569   -6.9670504    706.85261  0.024502656  0.024305714            8 
 2405000    0.8567176   -7.0113042     705.6938  0.024452315  0.024297836            6 
 2406000   0.88248882   -6.9933418    705.57393     0.024438  0.024289944           10 
 2407000   0.85870994   -7.0179988    705.31538  0.024418896  0.024282046            7 
 2408000   0.86957641   -6.9993571    707.47788  0.024483592  0.024274202            7 
 2409000   0.85608571   -6.9711529    705.82122  0.024416121  0.024266474            8 
 2410000   0.87906009   -6.9718915    708.79985  0.024508985  0.024258753            6 
 2411000   0.87676452   -6.9999985     706.4782  0.024418575  0.024251006            5 
 2412000   0.85572163   -6.9935188    707.24471  0.024434933  0.024243212            8 
 2413000   0.86673534   -6.9775014    707.67741   0.02443975  0.024235348            3 
 2414000   0.88955189   -7.0115945     706.6335  0.024393589  0.024227567            8 
 2415000   0.86161897   -6.9706081    708.73393  0.024455967  0.024219733            6 
 2416000   0.87997395   -6.9765873    708.60906  0.024441538  0.024211972            7 
 2417000   0.85612359   -6.9936165    709.24202  0.024453248  0.024204223           20 
 2418000   0.85044939   -6.9482896    708.98236  0.024434186  0.024196454            9 
 2419000   0.87912869   -7.0050824    707.55528  0.024374924  0.024188628            7 
 2420000   0.86195059   -6.9860408    706.91792  0.024342904   0.02418083            4 
 2421000   0.87066271    -6.939889    707.41462  0.024349945   0.02417306            6 
 2422000   0.85754993   -6.9506885    705.74109  0.024282311   0.02416526            5 
 2423000   0.85856671   -6.9745278     707.3637  0.024328095   0.02415747            9 
 2424000   0.85613046   -6.9641437     707.4057  0.024319503  0.024149652            9 
 2425000   0.86605097   -6.9670305    709.40856  0.024378301  0.024141889            6 
 2426000   0.85676063    -6.988255    708.12784  0.024324259  0.024134071            8 
 2427000   0.85440016    -6.953457    708.11971  0.024313958  0.024126295            5 
 2428000   0.88515238   -6.9882746    708.22429  0.024307533  0.024118484           15 
 2429000   0.86987309   -6.9766836    706.68321  0.024244655  0.024110643            6 
 2430000   0.86757466   -6.9701438    709.64233  0.024336157  0.024102788           16 
 2431000   0.85440934   -6.9656331    706.40476  0.024215164   0.02409496           12 
 2432000   0.86135993    -6.947604    708.92598  0.024291597  0.024087163           10 
 2433000   0.86798401   -6.9959847    707.76996  0.024242018  0.024079367           10 
 2434000   0.86928213   -6.9577797    708.29973  0.024250196  0.024071558            6 
 2435000    0.8636843   -6.9790559    708.26633  0.024239094  0.024063757            4 
 2436000   0.85632719   -6.9599811    709.28379   0.02426395   0.02405588            4 
 2437000    0.8693227   -6.9784836    707.31344  0.024186618  0.024048014           15 
 2438000   0.86160174   -6.9733328    711.02125  0.024303433  0.024040168            9 
 2439000   0.86049909   -6.9781221    709.09634  0.024227701  0.024032286            3 
 2440000    0.8708184   -6.9455208    708.26082  0.024189236  0.024024454            4 
 2441000   0.87362663    -6.976179    709.37585  0.024217392   0.02401665            5 
 2442000   0.87142175   -6.9475707    709.49394  0.024211505  0.024008838            7 
 2443000   0.87414456    -6.976048    709.00718   0.02418499  0.024001008            8 
 2444000   0.86522297   -6.9540093    710.96499   0.02424185  0.023993217            7 
 2445000   0.85197618   -6.9643629    708.93797  0.024162848  0.023985438            5 
 2446000   0.87180713   -6.9723815    709.65469  0.024177388  0.023977634           13 
 2447000   0.86278948   -6.9701803    708.54458  0.024129702  0.023969814            6 
 2448000   0.85628003   -6.9806195    709.28983  0.024145215  0.023961991            6 
 2449000   0.86338552   -6.9951174    708.01867  0.024092101  0.023954131           19 
 2450000   0.86018535   -7.0104449    708.57866  0.024101315  0.023946241            5 
 2451000   0.85699388   -6.9644391    709.95493  0.024138275  0.023938366            9 
 2452000   0.86454227   -6.9678664    708.35549  0.024074072  0.023930489            8 
 2453000   0.84463931    -6.980571    710.29095  0.024130009  0.023922629            6 
 2454000    0.8732592   -6.9828489    709.85285  0.024105299  0.023914786           12 
 2455000   0.86853859   -6.9684811    710.85627  0.024129541  0.023906932           16 
 2456000   0.83556076   -7.0034679    707.41098  0.024002815    0.0238991           13 
 2457000   0.83130951   -7.0032828    706.68577   0.02396845  0.023891222           12 
 2458000   0.86680496   -7.0025653     709.7965  0.024064161  0.023883304            7 
 2459000   0.84365598   -6.9712246    710.18522  0.024067548  0.023875489            5 
 2460000   0.85529228   -6.9808084    711.07293  0.024087836  0.023867683           11 
 2461000   0.87122379   -6.9782502    709.98725  0.024041286  0.023859841            7 
 2462000    0.8654422   -6.9735838    710.71956  0.024056308  0.023852032           10 
 2463000   0.85503267    -7.001549    709.98885  0.024021818  0.023844218            7 
 2464000   0.85858316   -6.9780927    710.58278  0.024032156  0.023836455           12 
 2465000   0.84343923   -6.9858811    709.84828  0.023997575   0.02382858            5 
 2466000   0.83673389   -6.9809534    710.73519  0.024017815  0.023820801           10 
 2467000   0.85351635   -6.9646203    711.72393  0.024041478  0.023813026            7 
 2468000   0.84481752   -6.9648337    711.23759  0.024015316  0.023805314            6 
 2469000   0.87535339   -7.0179167     710.0459  0.023965367  0.023797556           12 
 2470000    0.8631314   -7.0061683    709.23993  0.023928473  0.023789804            6 
 2471000   0.85224219   -7.0166527    710.77684   0.02397062  0.023782024            4 
 2472000   0.85735344   -7.0424699    708.89373  0.023897442   0.02377424           10 
 2473000   0.84861603   -7.0076963    712.03632  0.023993676  0.023766399           12 
 2474000   0.85544289   -6.9613421    712.75127   0.02400806  0.023758646            6 
 2475000   0.84763924   -6.9706637    713.28613  0.024016368  0.023750972            4 
 2476000   0.87549881   -6.9811567    712.49115  0.023979912  0.023743272            7 
 2477000   0.84185778   -6.9690298    711.88664  0.023949894  0.023735564            8 
 2478000   0.84362539     -6.98842    708.50362   0.02382646  0.023727833           11 
 2479000   0.85535009   -6.9643202    714.36373  0.024013841  0.023720095            7 
 2480000    0.8534999   -7.0112736    710.73911  0.023882363  0.023712353            7 
 2481000   0.84252786   -6.9938709    713.07795  0.023951295  0.023704619            7 
 2482000    0.8519826   -7.0165142    710.65387  0.023860256  0.023696877            4 
 2483000   0.84041364   -7.0153662    712.19414  0.023902341  0.023689132            7 
 2484000   0.84802532   -7.0082032    712.49501  0.023902812  0.023681397            6 
 2485000   0.86739964   -6.9754732    712.52881  0.023894326   0.02367367            7 
 2486000   0.83392853   -7.0139706    711.43565  0.023848071  0.023665946            8 
 2487000   0.84819458   -7.0462841    709.86158  0.023785739  0.023658205           11 
 2488000   0.85065456   -6.9925563    712.02795  0.023848739  0.023650429            4 
 2489000   0.85249997   -7.0049865    711.61917  0.023825471  0.023642683           10 
 2490000   0.87649129   -6.9918944    713.01437  0.023862596  0.023634987           14 
 2491000   0.87724852   -7.0088022    711.51861  0.023802978   0.02362722           17 
 2492000   0.85139263   -7.0172201    711.57907  0.023795448  0.023619419            8 
 2493000   0.85641387   -6.9820349    711.35837  0.023778525  0.023611671            6 
 2494000   0.85955112   -7.0244108    713.42353  0.023837995  0.023603935            5 
 2495000   0.86390605   -7.0136308     710.6139  0.023734599  0.023596241           16 
 2496000   0.84507897   -6.9703153    713.65843  0.023826737  0.023588514           12 
 2497000   0.85199213   -7.0137908    711.38061  0.023741176  0.023580773           16 
 2498000   0.85310047   -7.0262986    712.45704  0.023767582  0.023572919           13 
 2499000   0.84126488   -7.0376528    712.64442   0.02376432  0.023565171            5 
 2500000    0.8433744   -7.0515922     713.3714  0.023779047  0.023557409            4 
 2501000   0.83368773   -6.9966319     714.1457  0.023795338  0.023549696            9 
 2502000   0.83939349   -7.0154704    713.78305  0.023773749  0.023541991            8 
 2503000   0.84164345   -7.0447838    711.36012  0.023683584  0.023534231            5 
 2504000   0.84225614   -7.0295554    713.25988   0.02373735  0.023526454            8 
 2505000   0.85509647   -7.0389309     713.7786   0.02374513  0.023518735           16 
 2506000   0.86797262   -7.0412054    713.15407  0.023714886  0.023511034           12 
 2507000   0.83836889   -7.0272161    713.08476  0.023703123    0.0235033           15 
 2508000   0.84573989   -7.0047742    717.64764  0.023845283  0.023495657            8 
 2509000   0.85127336   -7.0092986    715.55507  0.023766277  0.023488037            8 
 2510000   0.84797603    -7.000213    716.06641  0.023773785  0.023480419            7 
 2511000   0.86020752   -7.0057459    714.75537  0.023720807   0.02347276            8 
 2512000   0.85010297   -7.0112825    713.48848  0.023669337  0.023465082            8 
 2513000   0.83741495   -6.9742996    714.90225    0.0237068  0.023457478            9 
 2514000   0.85431885   -7.0236805    713.90238  0.023664226  0.023449957           17 
 2515000   0.84554344   -6.9824532    716.46423  0.023739703  0.023442324            6 
 2516000   0.85919226   -7.0042847    713.87315  0.023644447  0.023434751            3 
 2517000   0.86017752   -7.0448536    713.57682  0.023625242  0.023427091            6 
 2518000   0.83907778   -7.0177891    714.83518  0.023657505  0.023419499            7 
 2519000   0.84104988   -7.0085288    716.07985   0.02368929  0.023411916            5 
 2520000   0.84235525   -7.0270076    715.64599  0.023665542  0.023404341           13 
 2521000   0.84099287   -6.9755999    716.38702   0.02368065  0.023396777            8 
 2522000   0.84772523   -6.9759026    716.94412  0.023689668  0.023389247            4 
 2523000   0.84103839   -6.9854548    716.10643   0.02365261  0.023381755            5 
 2524000   0.85307044   -6.9807782    717.54724   0.02369081  0.023374281            5 
 2525000   0.85860298   -7.0235327    716.89993  0.023660064  0.023366767            6 
 2526000   0.83462196   -6.9967669    715.48079  0.023603879  0.023359203            6 
 2527000   0.86870303    -7.021482    716.52293  0.023628905  0.023351592            8 
 2528000   0.84434846   -7.0179272    716.69138  0.023625112  0.023343964            4 
 2529000   0.84846593    -7.041602    715.83558   0.02358757  0.023336323            8 
 2530000   0.85071956   -7.0082316    716.15321  0.023588709  0.023328693            9 
 2531000   0.84206104   -7.0031922    716.83376  0.023601796  0.023321101            4 
 2532000   0.84123329   -6.9940724    717.85803  0.023626186  0.023313552            5 
 2533000   0.82602188   -6.9974392    716.52902  0.023573135  0.023306059            6 
 2534000   0.84466125   -6.9983863    719.16551  0.023650536  0.023298524            7 
 2535000   0.82611932   -7.0089713    717.34922    0.0235815  0.023290965           10 
 2536000    0.8586805   -7.0150969    715.14064  0.023499627  0.023283405           12 
 2537000   0.85018002    -7.008225    719.61485  0.023637329  0.023275887            8 
 2538000   0.84176106   -6.9836736    717.87096  0.023570757  0.023268356            4 
 2539000   0.84714225   -7.0060517     717.9544  0.023564212  0.023260823            5 
 2540000   0.86358485   -7.0602421    716.87383  0.023519483  0.023253243            3 
 2541000   0.83084884   -7.0293621    718.18348  0.023553177  0.023245653            8 
 2542000   0.83412842   -6.9935776    717.03227  0.023506172  0.023238033            8 
 2543000   0.84033741    -7.032296    717.07164  0.023498219  0.023230423            6 
 2544000   0.85883353   -7.0473729    714.69651   0.02341118  0.023222783            6 
 2545000   0.85187654   -7.0121623    716.16685  0.023450126  0.023215209            6 
 2546000   0.83789905   -6.9885239    719.78781  0.023559433  0.023207667            6 
 2547000   0.84047541   -7.0520884    717.63575  0.023479772  0.023200085            6 
 2548000   0.83702123   -7.0398766     718.4053  0.023495725  0.023192519           18 
 2549000   0.82925833   -6.9969287    716.51799  0.023424807  0.023184942            5 
 2550000   0.84889901   -7.0494153    715.44953  0.023380703  0.023177342           10 
 2551000   0.84155262   -7.0532473    716.70366  0.023412507   0.02316971            7 
 2552000   0.85938182   -7.0518058    718.20628  0.023452399   0.02316213            7 
 2553000   0.83887776   -7.0225074    718.21998   0.02344366  0.023154524            6 
 2554000    0.8191895   -7.0530203    717.34085  0.023405796  0.023146973           11 
 2555000   0.83271793   -7.0506345    716.26019  0.023361389  0.023139329            7 
 2556000   0.85479455   -7.0645386    718.96623  0.023440474  0.023131714            8 
 2557000   0.82667256   -7.0195638     718.7432  0.023424039  0.023124168           14 
 2558000   0.83292587    -7.035149    719.80912  0.023449606  0.023116649            4 
 2559000   0.86623726   -7.0259714    720.42931  0.023460639  0.023109142            5 
 2560000    0.8308596   -7.0260168    720.92484  0.023467605  0.023101597            8 
 2561000   0.85517501   -7.0377835     719.8699  0.023424115  0.023094081            7 
 2562000   0.85905769   -7.0346452    717.86104  0.023349631  0.023086538           17 
 2563000   0.85075622   -7.0436908    718.09154  0.023348015  0.023079033            8 
 2564000   0.83911553   -7.0628146    719.43455  0.023382558  0.023071545            9 
 2565000   0.83839891   -7.0397601    719.44718  0.023373852  0.023064073           10 
 2566000   0.84438818   -7.0472824    718.30646  0.023327698  0.023056553           14 
 2567000   0.81904545   -6.9981374    721.36386  0.023417863  0.023049099            6 
 2568000   0.82807577   -7.0353468     720.7352  0.023388344  0.023041613            4 
 2569000   0.84852018   -7.0203254    721.19019  0.023393999  0.023034095            9 
 2570000   0.83728118   -7.0104161    721.77229  0.023403771  0.023026637           13 
 2571000   0.86678038    -7.043416    720.60901  0.023356962  0.023019175           10 
 2572000   0.82497137   -7.0420655    719.59991  0.023315186  0.023011685           11 
 2573000   0.83915217   -7.0210801    720.72423  0.023342539   0.02300421           13 
 2574000   0.84614567   -7.0205457    720.83397  0.023337023  0.022996749            7 
 2575000    0.8507741   -7.0585462    720.12638  0.023305061  0.022989313            5 
 2576000   0.82995997    -7.042637    719.03349  0.023260659  0.022981788           12 
 2577000   0.83773674   -7.0649391    719.98387  0.023282366  0.022974239            7 
 2578000   0.84747784   -7.0450839    720.15756  0.023278949   0.02296673           17 
 2579000   0.85562369   -7.0645101     718.5206  0.023217028  0.022959274            8 
 2580000   0.85662044   -7.0748877    718.01957  0.023191847  0.022951773           11 
 2581000   0.85700586   -7.0706942    718.06988  0.023184485  0.022944243            9 
 2582000   0.84227826    -7.056705    719.51337  0.023222094  0.022936717            8 
 2583000   0.83318934   -7.0845895    717.83676  0.023159013  0.022929215           44 
 2584000   0.81269752   -7.0737278    719.97082  0.023218873  0.022921702            7 
 2585000   0.83840216   -7.0586261    718.51817  0.023163061   0.02291422            7 
 2586000   0.84719419   -7.0880881    719.59395  0.023188771   0.02290668            9 
 2587000   0.87261305   -7.0564098     721.0092  0.023225396   0.02289923            5 
 2588000   0.83429376    -7.043915    720.21866  0.023190967  0.022891794            7 
 2589000   0.83255771   -7.0232073    719.45219  0.023157338  0.022884344           11 
 2590000   0.83239026     -7.03841    721.58525  0.023217029  0.022876948            3 
 2591000   0.83442046   -7.0464127    719.81925  0.023151269  0.022869508            7 
 2592000   0.81477153   -7.0674322    720.23739   0.02315578   0.02286203            6 
 2593000   0.82826844   -7.0693913    720.47433  0.023154465  0.022854482            6 
 2594000   0.83556884   -7.0640248    720.13163  0.023134529  0.022846964            7 
 2595000   0.82504894   -7.0722592    718.47459  0.023072402  0.022839504            9 
 2596000   0.85243226   -7.0572823    718.93591  0.023078323  0.022831964           19 
 2597000   0.84201432   -7.0370673    721.25637  0.023143896  0.022824503            8 
 2598000    0.8536813   -7.0517163    721.03161  0.023127778  0.022817013            5 
 2599000   0.83193757   -7.0415082    720.69561  0.023108106  0.022809515            8 
 2600000   0.83698996     -7.07949    720.90373  0.023105889  0.022801972           33 
 2601000   0.84108155    -7.080481    719.46605  0.023050944  0.022794401           12 
 2602000   0.84451627   -7.0799721    718.61961  0.023014976  0.022786833           19 
 2603000   0.84929767   -7.0716445    722.29981  0.023123954  0.022779281           21 
 2604000   0.84730936   -7.0746805    721.52776  0.023090366  0.022771785            7 
 2605000   0.81661126   -7.0855797    720.95318  0.023063122  0.022764278           11 
 2606000   0.84790233   -7.0900818    720.18411  0.023029679  0.022756778            4 
 2607000    0.8114712   -7.0732829    720.80209  0.023040599  0.022749294           11 
 2608000     0.842671   -7.0445189    721.33196  0.023048695   0.02274183            3 
 2609000   0.82461744   -7.0733893    722.56446  0.023079228  0.022734419            9 
 2610000   0.83084039   -7.0671362    719.37236  0.022968466  0.022726974           11 
 2611000   0.83824094   -7.0799385    721.87495  0.023039543  0.022719536            9 
 2612000   0.81843329   -7.0759446    723.10073  0.023069829  0.022712104           10 
 2613000   0.84379698   -7.0810548    721.58092  0.023012531  0.022704668           16 
 2614000   0.83185544    -7.063937    722.10861   0.02302055  0.022697191           10 
 2615000   0.83089894   -7.0672929    720.95732  0.022975058  0.022689733            4 
 2616000    0.8334058   -7.0973242    721.42796  0.022981268  0.022682264           10 
 2617000   0.85035857   -7.0678285    722.23636  0.022998228   0.02267482            8 
 2618000   0.82103883   -7.0502638    722.55466  0.022999575  0.022667393            9 
 2619000   0.83520877   -7.0749739    723.44948  0.023019266  0.022659996            5 
 2620000   0.84564374   -7.0387814    723.96141  0.023026762  0.022652568            9 
 2621000    0.8236638   -7.0917674    720.11973  0.022895833  0.022645129            6 
 2622000   0.83866266   -7.0477329    723.63784  0.022998914  0.022637704            6 
 2623000   0.82495402   -7.0765808    720.79586  0.022899856   0.02263028           15 
 2624000   0.82960047   -7.0558312    722.58165  0.022947842  0.022622848            9 
 2625000     0.853049   -7.0856913    722.49922  0.022936483  0.022615431            6 
 2626000   0.83366535   -7.0636072    721.66126  0.022901157   0.02260804           18 
 2627000   0.84433647   -7.0841198    722.92372  0.022932487  0.022600657           11 
 2628000   0.83618095   -7.0496498    724.94309  0.022987794  0.022593339            7 
 2629000   0.83586575   -7.0680995    724.11572  0.022952825  0.022585943            7 
 2630000   0.82232322   -7.0590782    723.68234  0.022930366  0.022578524            5 
 2631000    0.8295973   -7.0824151     722.7525  0.022892199  0.022571135           11 
 2632000   0.83127491   -7.0523886    723.35612  0.022902613  0.022563746            7 
 2633000   0.83156381   -7.0853587     723.8811   0.02291053  0.022556376            4 
 2634000   0.84867576   -7.0794782    723.73584  0.022897236  0.022548989            6 
 2635000   0.82473558   -7.0802267    722.93348  0.022863171  0.022541655            7 
 2636000   0.84263385   -7.0717457      723.951  0.022886665  0.022534311           11 
 2637000   0.82593431   -7.0799859    723.35901  0.022859278  0.022526981           17 
 2638000    0.8467321   -7.0649539    722.97389  0.022838447  0.022519617           11 
 2639000   0.81289686   -7.0999169    723.43077   0.02284422  0.022512189            8 
 2640000   0.82581915   -7.0730752    723.76127     0.022846  0.022504767            5 
 2641000     0.846688    -7.097807    722.85196  0.022808657  0.022497379           14 
 2642000   0.81443449   -7.0483254    724.73013  0.022859265  0.022489968            3 
 2643000   0.81025002   -7.0373664    724.37082  0.022839287  0.022482591            6 
 2644000   0.84286148   -7.0596377    725.79893   0.02287566  0.022475217           16 
 2645000    0.8110405    -7.052174    726.55922  0.022890965  0.022467901            8 
 2646000   0.83920354   -7.0390393    726.31208   0.02287453  0.022460613            7 
 2647000   0.81570387   -7.0750233    725.23847  0.022832089  0.022453329           10 
 2648000   0.82581843   -7.0682604    725.78102  0.022840541  0.022445994            7 
 2649000   0.82284065    -7.060931    726.53234  0.022855554  0.022438693            4 
 2650000   0.82947069   -7.0681985    724.58758  0.022785773  0.022431378            6 
 2651000   0.82422101   -7.1014822    724.24418  0.022766383  0.022424033           11 
 2652000   0.80983221   -7.0666978    724.10257  0.022753349  0.022416693           15 
 2653000   0.81674214   -7.0608101    725.78053  0.022797479  0.022409372           10 
 2654000   0.81823474   -7.0816976    723.39849  0.022714095  0.022402037           15 
 2655000   0.81699024   -7.0779964    723.82987  0.022719079  0.022394672           20 
 2656000   0.82945776   -7.0491576    726.56623   0.02279638  0.022387305           31 
 2657000   0.81124852   -7.0753587    722.98077  0.022675347  0.022379927           13 
 2658000   0.83202827    -7.083542    726.52603  0.022777967  0.022372539            3 
 2659000   0.82824581   -7.0456444    726.72534  0.022775647  0.022365225            5 
 2660000   0.80631103   -7.0555016    726.35042  0.022755339  0.022357888           10 
 2661000   0.83688027   -7.0558321    725.13173  0.022708622  0.022350521            5 
 2662000   0.83208181   -7.0684508    726.80097  0.022752347  0.022343171           10 
 2663000   0.83271299   -7.0824925     724.9174   0.02268486  0.022335813           10 
 2664000   0.82741833   -7.0852681    726.50034  0.022725861  0.022328423           14 
 2665000   0.81937627   -7.0755022    727.56625  0.022750664  0.022321042           13 
 2666000    0.8349548   -7.0854717    726.10327  0.022696401  0.022313695           11 
 2667000    0.8243802   -7.0661249    725.43311  0.022666951  0.022306346           10 
 2668000   0.81364386   -7.0924356    725.92527  0.022673828  0.022298997            7 
 2669000   0.84311617    -7.103903    723.62753  0.022593591  0.022291666           12 
 2670000   0.82964481   -7.1165353    724.84523  0.022623135  0.022284309           13 
 2671000   0.82318969   -7.1187542    725.47784  0.022634402  0.022277038           14 
 2672000   0.81861518   -7.0868502    727.05257  0.022675043  0.022269771            6 
 2673000   0.79896887   -7.0776812    727.26023  0.022673034  0.022262589            8 
 2674000   0.82771497   -7.0717565    727.87645  0.022683759   0.02225535           12 
 2675000   0.82583146     -7.05967    727.04101  0.022649253  0.022248137            5 
 2676000   0.81916186   -7.0843492    727.65343   0.02265986  0.022240926            9 
 2677000   0.82425123   -7.1418755    725.87764  0.022596116  0.022233643           12 
 2678000   0.83796405   -7.0863296    727.47568  0.022637406   0.02222636            8 
 2679000   0.83208391   -7.0669816       728.09  0.022648065  0.022219112            6 
 2680000    0.7981292   -7.0696869    727.39768  0.022618087  0.022211845            9 
 2681000    0.7970147   -7.1024487    726.02556  0.022567001   0.02220457            6 
 2682000   0.82550202   -7.0947902     726.1405  0.022562158  0.022197252           11 
 2683000    0.8224635   -7.0915986    726.01139  0.022549739  0.022189968            8 
 2684000   0.79375773   -7.1078862    726.69801  0.022562656  0.022182656           17 
 2685000   0.82006757   -7.0836416    727.89971  0.022591549  0.022175301            8 
 2686000   0.83103946   -7.1041683    724.65239   0.02248239     0.022168           11 
 2687000   0.80977222   -7.1197026    725.61447   0.02250386  0.022160643            7 
 2688000   0.80538958   -7.0993159    726.19629  0.022513526  0.022153294            7 
 2689000   0.82136892   -7.1153936    725.79491  0.022492714  0.022145966           10 
 2690000   0.81757069   -7.0889762    727.98731  0.022552271  0.022138689           13 
 2691000   0.82380157   -7.1057101    725.60899   0.02247024  0.022131356           12 
 2692000   0.80202937   -7.1027173    728.29056  0.022544903  0.022124015            9 
 2693000   0.80755862   -7.1222961    725.78497  0.022458998  0.022116674            7 
 2694000   0.81193188   -7.1281096    724.18396  0.022401137  0.022109298            3 
 2695000   0.82278355   -7.1127156    726.68653  0.022470208  0.022101881           13 
 2696000   0.80981612   -7.0854283     726.5917  0.022458942  0.022094513            4 
 2697000   0.81806952   -7.0973904    725.87484  0.022428465  0.022087177           13 
 2698000   0.82104592   -7.0824926    727.63705  0.022474581  0.022079847           14 
 2699000   0.82324164    -7.102588    726.33235  0.022425971  0.022072501            8 
 2700000   0.81946184   -7.1051824    725.80366  0.022401347  0.022065202           10 
 2701000   0.81696506   -7.0733783     727.4363  0.022443425  0.022057899           10 
 2702000   0.82333594   -7.1166136     727.8369  0.022447474  0.022050579            6 
 2703000   0.82739078   -7.1250384    725.96508  0.022381461  0.022043275           19 
 2704000   0.84022013   -7.1108155    726.27013  0.022382585   0.02203597            9 
 2705000    0.8277572   -7.1361427    726.45392  0.022379973  0.022028593           31 
 2706000   0.82024489   -7.0975484    728.45134  0.022433214  0.022021244           16 
 2707000   0.80661055   -7.0958254    726.27001  0.022357777  0.022013917           13 
 2708000    0.8217437   -7.1082769    726.28785  0.022350069  0.022006602           15 
 2709000    0.8309314   -7.0966979    726.26661  0.022341166   0.02199935            4 
 2710000   0.82530247   -7.1040236    727.95128  0.022384726  0.021992107            6 
 2711000   0.79790949   -7.0733987    728.60107  0.022396443  0.021984901            9 
 2712000   0.79530062   -7.0605575    729.65021  0.022420422  0.021977734            5 
 2713000    0.8184777   -7.0753796    730.28907  0.022431781  0.021970543           12 
 2714000   0.82107999   -7.1197417    728.15525  0.022357997  0.021963266           14 
 2715000   0.81822004   -7.1165827    728.05653  0.022346732  0.021955991            5 
 2716000   0.81172399   -7.1111609    726.85917  0.022301766  0.021948709            6 
 2717000   0.82149127    -7.092818    727.32535  0.022307856  0.021941414            8 
 2718000   0.80642445   -7.0998071    728.78893  0.022344522  0.021934157           14 
 2719000   0.81869128   -7.0898205    730.91315  0.022401408  0.021926881            5 
 2720000   0.80924949   -7.1031729    728.37013  0.022315261  0.021919608            9 
 2721000   0.83993827    -7.087853    729.67861  0.022347134  0.021912384            4 
 2722000    0.8246247   -7.1145819    727.99521  0.022287387  0.021905118           11 
 2723000   0.81347142   -7.0749922     730.7045  0.022362116  0.021897842           19 
 2724000   0.81016535   -7.0999438    727.87164  0.022267243  0.021890559            8 
 2725000    0.8044988   -7.0861466    729.52373  0.022309594  0.021883267            6 
 2726000   0.83307651   -7.1567556    727.95318  0.022253399  0.021876014            5 
 2727000   0.80101671   -7.1208957    727.93013  0.022244534  0.021868748           12 
 2728000   0.80456029   -7.1132302     730.3674  0.022310832  0.021861491           11 
 2729000   0.81161217   -7.0966358    729.00168  0.022260953  0.021854321            5 
 2730000   0.81658883   -7.1021306     729.2271  0.022259679   0.02184709            7 
 2731000   0.81169831   -7.1205848    727.53602  0.022199927  0.021839843            7 
 2732000   0.80259607    -7.126952    727.90858  0.022203166  0.021832575           17 
 2733000   0.80533678   -7.1378909    727.60137  0.022185674  0.021825299            6 
 2734000     0.828073   -7.1432207     728.3749  0.022201137  0.021818007            6 
 2735000   0.80931524   -7.1316749    728.60225  0.022199947  0.021810733           27 
 2736000   0.83290141   -7.1184907    729.85839  0.022230092  0.021803485            9 
 2737000   0.82091343      -7.1145    728.54707  0.022182045  0.021796235            6 
 2738000    0.8065482   -7.1055921    729.59943  0.022205972  0.021788999           11 
 2739000   0.81517509   -7.1266756    728.54325  0.022165731  0.021781783            8 
 2740000   0.81210969   -7.0951479    729.45699  0.022185431  0.021774582           11 
 2741000   0.80519664    -7.130658    728.91879  0.022160975   0.02176736           13 
 2742000   0.81901896   -7.1097401    729.86205   0.02218156  0.021760126           13 
 2743000   0.81884912    -7.113512    729.05812   0.02214905  0.021752829           10 
 2744000   0.80081009   -7.1542978    726.25879  0.022055964  0.021745517           11 
 2745000   0.80058263   -7.1485697    727.93247  0.022098739  0.021738243           13 
 2746000   0.81078368   -7.1448939    728.10159  0.022095824  0.021730953            9 
 2747000   0.82711661   -7.1127586    729.26637  0.022123115  0.021723707            8 
 2748000   0.82355806   -7.1226384    728.38394  0.022088305  0.021716494            8 
 2749000   0.82319052   -7.0867843    729.53399  0.022115132  0.021709269            9 
 2750000    0.7881226   -7.1294612    728.97418  0.022090127  0.021702017           12 
 2751000   0.80820215    -7.108695    728.39029   0.02206441  0.021694722            8 
 2752000   0.81316587   -7.1333481    728.33748  0.022054793  0.021687462           11 
 2753000   0.78745236   -7.1388746    729.44467  0.022080296   0.02168021           10 
 2754000   0.80280197   -7.1204457    728.45364  0.022042291  0.021672944            5 
 2755000   0.80658889   -7.1315794    728.98493  0.022050361   0.02166569           14 
 2756000   0.81214725    -7.125554    730.43936  0.022086338  0.021658456           10 
 2757000   0.81673603   -7.1109818    729.04094  0.022036058  0.021651191           12 
 2758000   0.80674668   -7.1259877      729.453  0.022040518  0.021643937            7 
 2759000   0.80643481   -7.1453673    727.03419  0.021959472   0.02163663            6 
 2760000   0.80953299   -7.1470316    727.80363  0.021974747  0.021629283            6 
 2761000   0.79733822   -7.1601439    727.35549  0.021953262  0.021621926            9 
 2762000   0.80663012   -7.1637036    728.66881  0.021984939  0.021614599           11 
 2763000   0.80375242   -7.1595412    728.32839  0.021966715  0.021607292            8 
 2764000    0.8132308   -7.1384992    727.18801  0.021924385  0.021599943           12 
 2765000   0.81672183   -7.1512855    728.64499  0.021960367  0.021592629           15 
 2766000   0.79783402    -7.120402    730.99526  0.022023236  0.021585349            7 
 2767000   0.80961383   -7.1055451    728.80357   0.02194927  0.021578036           17 
 2768000    0.8037846   -7.1063375    730.22077  0.021984007  0.021570741           11 
 2769000   0.82084752   -7.1220489    729.29837  0.021948308  0.021563492            8 
 2770000   0.82595801    -7.125875    729.54599  0.021947834   0.02155624            9 
 2771000    0.7938271   -7.1276419    728.38639   0.02190504  0.021548968            7 
 2772000   0.80351657   -7.1043435    731.26707  0.021983738  0.021541697           10 
 2773000   0.81049962   -7.1436188     730.1643   0.02194267  0.021534433            7 
 2774000    0.7957373   -7.1311027    727.95424  0.021868368  0.021527208            8 
 2775000   0.80199413   -7.1345411    729.36242  0.021902775   0.02151998            7 
 2776000   0.79420682   -7.1434086    729.74633   0.02190641  0.021512759            5 
 2777000   0.80173729   -7.1268503    728.95167  0.021874675  0.021505504           13 
 2778000   0.80761543   -7.1351878    728.40533  0.021850412  0.021498189            8 
 2779000    0.8126187   -7.1105719    731.84603  0.021945725  0.021490948           11 
 2780000   0.82959668    -7.144468    728.39427  0.021834361  0.021483746           27 
 2781000   0.80489478   -7.1196999    730.67266  0.021894782  0.021476471           12 
 2782000    0.7928882   -7.1416385    730.68021  0.021887138  0.021469259            7 
 2783000   0.80163494   -7.1195204    731.16456  0.021893776    0.0214621           11 
 2784000   0.81582662   -7.1423734    731.34996  0.021891462  0.021454863           12 
 2785000    0.7963048    -7.152078     730.4308  0.021856098  0.021447631            7 
 2786000   0.81682744   -7.1426746    729.33692  0.021815534  0.021440367            9 
 2787000   0.81860991   -7.1586511    729.71935  0.021819141  0.021433136           13 
 2788000   0.79694081   -7.1407008    729.43554  0.021802832  0.021425897           16 
 2789000   0.80600514   -7.1449562    731.34995  0.021852215  0.021418631            6 
 2790000   0.80354182   -7.1308167    731.75688  0.021856538  0.021411428            8 
 2791000   0.81000885   -7.1542175    729.45275   0.02177991  0.021404226            5 
 2792000   0.79497593    -7.124044    731.95809  0.021846887  0.021397012           10 
 2793000   0.80577576    -7.139443    730.25199  0.021788161  0.021389816            8 
 2794000   0.79725349   -7.1492425    728.98751  0.021742648  0.021382639            8 
 2795000   0.79601946   -7.1611906    731.32324  0.021804509  0.021375464           22 
 2796000   0.81859371   -7.1198321    732.88652  0.021843304  0.021368285           14 
 2797000   0.81770354    -7.138714      731.445  0.021792546  0.021361111            6 
 2798000   0.80328672    -7.164282     729.1372  0.021716023  0.021353905           17 
 2799000   0.78842165    -7.164577    730.67695  0.021754107  0.021346672            9 
 2800000   0.80972457   -7.1496769    730.34324  0.021736406   0.02133942           14 
 2801000   0.79085044   -7.1797533    731.21811  0.021754674  0.021332202           41 
 2802000   0.81422958   -7.1274061    731.98923  0.021769844  0.021324981           13 
 2803000   0.81621269   -7.1256693     732.0205  0.021763007  0.021317772           22 
 2804000    0.8195334   -7.1380544    733.45932  0.021798006  0.021310556           10 
 2805000   0.80579179   -7.1593248    729.25024  0.021665188  0.021303345            8 
 2806000   0.79998868    -7.156775    731.48163  0.021723736  0.021296177           20 
 2807000   0.81811405   -7.1649699    731.28134  0.021710051  0.021288972            6 
 2808000   0.81744709   -7.1327742    731.91272  0.021721056  0.021281825           12 
 2809000   0.80601662   -7.1561043    731.49918  0.021701056  0.021274667           11 
 2810000   0.80505133   -7.1508306    731.51606  0.021693833  0.021267518            8 
 2811000   0.79528125   -7.1437467    731.37386    0.0216819  0.021260317           14 
 2812000   0.81218385   -7.1523252    732.60939  0.021710804   0.02125312           12 
 2813000   0.81410446   -7.1322305    731.16173  0.021660201  0.021245956            5 
 2814000   0.80073078    -7.153324     729.9704  0.021617223  0.021238763           18 
 2815000   0.80696223   -7.1784901    730.02176  0.021611065  0.021231564            9 
 2816000   0.79100764   -7.1646619    732.24423  0.021669159  0.021224333           10 
 2817000    0.8006991   -7.1857685    728.99853  0.021565452  0.021217073           10 
 2818000   0.79788973   -7.1591816    729.99116  0.021587153  0.021209792            8 
 2819000   0.81853535   -7.1807322    728.73844  0.021542463  0.021202496           10 
 2820000   0.81592186   -7.1913153    729.57848  0.021559648  0.021195244           17 
 2821000   0.79670741    -7.185292     729.6888  0.021555264  0.021188031           10 
 2822000    0.7975007   -7.1735478    730.71216  0.021577845  0.021180798           15 
 2823000   0.79757062   -7.1615313    729.27189  0.021527686  0.021173544           17 
 2824000   0.79250897   -7.1597689    732.89286  0.021626914  0.021166304            9 
 2825000   0.79652368   -7.1916824    731.57975  0.021580524  0.021159104           26 
 2826000   0.79748364   -7.1368768    732.57157  0.021602134  0.021151947           16 
 2827000   0.79287461   -7.1706435    730.69122  0.021539064  0.021144755            5 
 2828000   0.80263544   -7.1943078    731.72812  0.021562003  0.021137534           23 
 2829000   0.80616481    -7.170551    731.07847  0.021535244  0.021130306           10 
 2830000   0.82011669   -7.1800906     729.6796  0.021486443  0.021123088           23 
 2831000   0.77330603   -7.2068763    731.55764  0.021534135  0.021115867            6 
 2832000   0.81331938   -7.2103087    730.58866  0.021498019  0.021108623            9 
 2833000   0.78269344   -7.1939718    729.08399   0.02144617  0.021101341            6 
 2834000   0.81712315   -7.2037707    730.47312   0.02147945  0.021094091            7 
 2835000   0.81166934   -7.2050992     731.9677  0.021515806   0.02108683           16 
 2836000   0.77157387   -7.1975537    730.53789  0.021466205  0.021079583           13 
 2837000   0.80681378   -7.1571993    731.49556  0.021486769  0.021072382           19 
 2838000   0.79353011   -7.2228014    731.28833  0.021473113  0.021065144            7 
 2839000   0.79310262   -7.1826337    730.85072  0.021452704  0.021057878           10 
 2840000   0.81502912   -7.1782104     731.9744  0.021478122   0.02105068            9 
 2841000   0.78763911   -7.1775221    729.54696   0.02139936  0.021043456            8 
 2842000   0.79665352   -7.1968053    728.61948  0.021364634  0.021036207           18 
 2843000   0.79928618   -7.1698243    731.86475  0.021452244  0.021028952           13 
 2844000   0.81239524    -7.185123    731.09487  0.021422142  0.021021734            9 
 2845000    0.8011646   -7.1706382    732.51808    0.0214563  0.021014516           14 
 2846000   0.79301442   -7.2060062    729.86099  0.021370959  0.021007322            9 
 2847000   0.80851352   -7.1963874    730.36933  0.021378332  0.021000117           11 
 2848000   0.80112458   -7.2001811    730.29885  0.021368763  0.020992876            8 
 2849000   0.80127816   -7.1924239    731.39777  0.021393406  0.020985619           10 
 2850000   0.81059167   -7.1808628    730.28097  0.021353245   0.02097838            6 
 2851000   0.79681337   -7.1925212    731.86185  0.021391963  0.020971148           16 
 2852000   0.79760766   -7.2092373    730.79751  0.021353364  0.020963936           26 
 2853000   0.79334365   -7.1605104    731.35314  0.021362108   0.02095675           13 
 2854000   0.77455609   -7.1982444    731.31448  0.021353495  0.020949573           11 
 2855000    0.8068623   -7.1903916    731.20103  0.021342704  0.020942381           12 
 2856000   0.78515516   -7.2044747    731.40712  0.021341244  0.020935174            6 
 2857000   0.79434962   -7.2120191    730.89032    0.0213187  0.020927991           12 
 2858000   0.80540775   -7.1888842    730.98174  0.021313907  0.020920805            9 
 2859000   0.80086945   -7.2283625    731.16582  0.021311817  0.020913636            9 
 2860000   0.79216395   -7.1929606     731.2563  0.021307002  0.020906418            9 
 2861000   0.80501989   -7.1943016    733.43725   0.02136308  0.020899195           19 
 2862000   0.78854259   -7.2064015    730.10923  0.021258713  0.020891999           16 
 2863000   0.77864435   -7.2139656    730.26718  0.021255885  0.020884798            7 
 2864000   0.77930147   -7.1620711    734.33478  0.021366817  0.020877667            8 
 2865000   0.81341695   -7.1923176    731.19453   0.02126802  0.020870506            6 
 2866000   0.78974266   -7.2171025    731.56114  0.021271259  0.020863371            8 
 2867000   0.78349993   -7.1729204    732.87949  0.021302159  0.020856189           10 
 2868000    0.7897471   -7.1472444    734.10215  0.021330258  0.020849061            9 
 2869000   0.79587137   -7.1668669     733.7774   0.02131339  0.020841947           11 
 2870000   0.78224774   -7.1605944    731.87494  0.021250724  0.020834836            7 
 2871000   0.78524853   -7.1911985    733.97219  0.021304197  0.020827693            8 
 2872000   0.79383037   -7.1754715    733.07549  0.021270761  0.020820605            5 
 2873000   0.80943534   -7.1847122    731.12477  0.021206775  0.020813513            9 
 2874000   0.78539491   -7.1937599    732.72811  0.021245886  0.020806404            8 
 2875000   0.77855928   -7.1908973    732.97362  0.021245612  0.020799349           22 
 2876000   0.80665677   -7.2016062     733.7976    0.0212621  0.020792279            7 
 2877000   0.78396231   -7.1709931    732.85747  0.021227479  0.020785196            8 
 2878000   0.77477026   -7.1768641    732.55441  0.021211328  0.020778122           15 
 2879000    0.8031312    -7.174906    735.08296  0.021277149  0.020771046           11 
 2880000   0.79950697   -7.2043606    732.44574  0.021193453  0.020763964            6 
 2881000   0.80056823     -7.19618    733.07934  0.021204424  0.020756852           13 
 2882000   0.78692929   -7.2250998    732.37076  0.021176578  0.020749739           14 
 2883000   0.78211625   -7.2020215    731.65574  0.021148565  0.020742589            8 
 2884000   0.78785572   -7.2216265    732.84136   0.02117549  0.020735429           12 
 2885000    0.7889178   -7.1986089    733.14018  0.021176782  0.020728309           10 
 2886000   0.78971048   -7.1947335    733.68844  0.021185275  0.020721224           11 
 2887000   0.78916743    -7.183809    732.96414   0.02115703  0.020714117           29 
 2888000   0.79638526   -7.2295474    732.66205  0.021140987  0.020706938           20 
 2889000   0.79676551   -7.2341367    731.21993  0.021092071  0.020699775           23 
 2890000   0.80569275   -7.2288913    732.09011  0.021109865  0.020692595           18 
 2891000   0.77603988   -7.2209243    732.07854  0.021102229  0.020685422           10 
 2892000   0.80035863   -7.2185088    733.09048  0.021124092  0.020678298            8 
 2893000   0.78667188    -7.180384    734.36656  0.021153548   0.02067121            7 
 2894000   0.78662168   -7.1911196    734.52179  0.021150708  0.020664117           16 
 2895000   0.79730823   -7.1670437    734.61633  0.021146124  0.020657053            8 
 2896000   0.80817141   -7.1946435    733.83044  0.021116207  0.020649963           18 
 2897000   0.79269434   -7.1965871    733.30686  0.021093857  0.020642874           14 
 2898000   0.76180489    -7.221943    731.69396  0.021040199  0.020635775           11 
 2899000   0.78881041   -7.2085232    733.41644  0.021082455  0.020628669           12 
 2900000   0.79432839   -7.2358359    733.08331  0.021065612  0.020621578            9 
 2901000   0.77150933   -7.1938424    732.05882  0.021028922  0.020614483           21 
 2902000    0.7856473   -7.1872603    733.50864  0.021063308  0.020607401           20 
 2903000   0.77910786   -7.1899957    732.40204  0.021024286  0.020600328            7 
 2904000   0.79425237    -7.227565    731.91983  0.021003209  0.020593257           17 
 2905000   0.77915761   -7.1966157    732.91756    0.0210246  0.020586177           15 
 2906000   0.78691626   -7.1815583    733.30921  0.021028596  0.020579089           12 
 2907000   0.78359195   -7.2149455    732.43446  0.020996286  0.020571997           10 
 2908000   0.78785462   -7.2501447    731.01242  0.020948316  0.020564888           39 
 2909000   0.78284835   -7.2265602    734.06086  0.021028442  0.020557738           12 
 2910000   0.78127283   -7.2635755    729.72884   0.02089716  0.020550614           16 
 2911000   0.78232858   -7.2245958    732.42464  0.020967154  0.020543462           36 
 2912000   0.80261158   -7.2363097    732.09753  0.020950593  0.020536344           65 
 2913000   0.78450294   -7.2317351     731.6252  0.020929889  0.020529246           12 
 2914000   0.76506159    -7.218172    732.56543  0.020949595  0.020522131           15 
 2915000   0.79454096   -7.2283737    732.38906  0.020937366  0.020515004           15 
 2916000   0.75972283   -7.2038501    734.56544  0.020992382  0.020507937           14 
 2917000   0.78153123    -7.214934    734.48883  0.020982997  0.020500864           12 
 2918000   0.78094016   -7.2204284    733.40577  0.020944876  0.020493767            9 
 2919000   0.79493183    -7.206992    733.08342  0.020928498  0.020486661           15 
 2920000   0.78938589   -7.2316599    734.12296  0.020950998  0.020479575           13 
 2921000   0.77905506   -7.1839213    734.12537  0.020943894  0.020472535           11 
 2922000   0.78261843   -7.2048319    736.71409  0.021010555  0.020465495           16 
 2923000    0.7901871   -7.1862482     734.9243   0.02095234  0.020458482           17 
 2924000   0.78657337   -7.2319548    733.21774  0.020896538  0.020451443           20 
 2925000   0.77117513   -7.1861654    733.95751   0.02091047  0.020444398           14 
 2926000   0.77227817   -7.2193872    733.50743  0.020890506  0.020437367            8 
 2927000   0.77908638   -7.2215558    734.02521   0.02089811  0.020430287           15 
 2928000     0.779143   -7.2024944    732.98212  0.020861285  0.020423195            9 
 2929000   0.78174882   -7.2314939    734.08554  0.020885557  0.020416135           11 
 2930000   0.78875735   -7.1985712    733.19657  0.020853145  0.020409054            7 
 2931000    0.7877654   -7.1946574    736.20664  0.020931612  0.020402005           11 
 2932000   0.75595602   -7.2061077    735.39919  0.020901523  0.020394997            8 
 2933000   0.79407443   -7.1946039    735.07685  0.020885238  0.020387989            8 
 2934000   0.78116674   -7.2087974    733.81535   0.02084229  0.020380998            8 
 2935000   0.78610674   -7.2278947    734.07019  0.020842425  0.020373985           10 
 2936000   0.76426922   -7.2020032    734.22348  0.020839676  0.020366954           29 
 2937000   0.77683491   -7.1963492    736.95363  0.020910045  0.020359935           11 
 2938000   0.78538034   -7.2085294    736.56722  0.020891968   0.02035294            9 
 2939000   0.78155684   -7.2143782    734.67043  0.020831077  0.020345955           11 
 2940000   0.79099489   -7.2243559    734.47179  0.020818361   0.02033895            7 
 2941000   0.77826006   -7.2071005     735.1068  0.020829276  0.020331903           15 
 2942000   0.76583258   -7.2396124    733.02414  0.020763204  0.020324893           19 
 2943000   0.77869692   -7.1946287    736.61954  0.020857955  0.020317891           12 
 2944000   0.78197221   -7.2112339    735.14026  0.020808998  0.020310907           19 
 2945000   0.78882039   -7.2297492     735.3294  0.020807283  0.020303937           24 
 2946000   0.75780902   -7.2146091    736.86419  0.020843635  0.020296956            7 
 2947000   0.78970795   -7.2234107    734.43506  0.020767873   0.02028995           16 
 2948000   0.79284014   -7.2253481     735.7111  0.020796899  0.020282965           14 
 2949000   0.76849045   -7.2479794    735.19285  0.020775202  0.020275955            8 
 2950000   0.77478924   -7.2454022    733.45956  0.020719197  0.020268974           21 
 2951000   0.77240143   -7.2357981    734.97206  0.020754887  0.020261945           23 
 2952000   0.78309853   -7.2628461    735.04417  0.020749892  0.020254951           22 
 2953000   0.80030111   -7.2498691    733.43727  0.020697519  0.020247955           12 
 2954000   0.77311133   -7.2476458    735.32007  0.020743627  0.020240967           13 
 2955000   0.77555007   -7.2330018    736.00746  0.020755991  0.020233969           20 
 2956000   0.77517635   -7.2578654    734.04762   0.02069372  0.020226947           35 
 2957000   0.79241316   -7.2170092    734.63369  0.020703238  0.020219966           25 
 2958000   0.76857633   -7.2446304    735.42704  0.020718589  0.020212958           12 
 2959000   0.77119211    -7.290717    734.30835  0.020680082  0.020205931           37 
 2960000    0.7748107   -7.2386695    736.33148  0.020730053  0.020198922           23 
 2961000   0.78967736   -7.2471696    734.99781  0.020685518  0.020191922           17 
 2962000   0.77012997   -7.2531424    733.98364  0.020650001   0.02018493           28 
 2963000   0.77128004   -7.2745363    735.05067  0.020673042  0.020177985           16 
 2964000   0.77207091   -7.2327515    736.70738  0.020712646  0.020171012           21 
 2965000   0.79564742   -7.2414336    735.58207  0.020674032  0.020164026           30 
 2966000   0.77379531   -7.2502838    735.72712  0.020671137  0.020157023           31 
 2967000   0.78548654   -7.2402521    734.83305  0.020639059  0.020150064           59 
 2968000   0.78037297   -7.2306564    736.66303  0.020683486  0.020143129           22 
 2969000   0.80419839   -7.2440178     734.9354  0.020628028  0.020136194           36 
 2970000   0.78668336   -7.1989963    737.78757   0.02070111  0.020129285           18 
 2971000   0.77916592   -7.2404583    736.94006  0.020670371  0.020122429           12 
 2972000   0.78132747   -7.2206166     737.9295  0.020691159  0.020115556           11 
 2973000   0.75842809   -7.2164683    736.89593  0.020655228  0.020108686            9 
 2974000   0.79161589   -7.2221158     736.7396  0.020643903  0.020101818           14 
 2975000   0.77430343   -7.2353395    737.34827  0.020654013   0.02009496            6 
 2976000   0.77039482   -7.2341513    737.86708  0.020661601  0.020088086           14 
 2977000   0.78523063   -7.2413401    736.16991  0.020607152  0.020081189            9 
 2978000   0.77769667   -7.2534581    736.93892  0.020621752  0.020074258           12 
 2979000    0.7705983   -7.2148592    737.52598  0.020631252  0.020067354           10 
 2980000   0.76649221   -7.2311585    734.29386  0.020533945  0.020060482           14 
 2981000   0.78281717   -7.2402649    737.81092  0.020625375  0.020053593            8 
 2982000   0.76840892   -7.2353821    735.46209  0.020552819  0.020046674            9 
 2983000   0.77722752   -7.2680366    736.05282  0.020562432  0.020039739           17 
 2984000   0.78830243   -7.2433001    736.26964  0.020561596  0.020032805            7 
 2985000   0.79307218   -7.2216663    736.55973  0.020562807   0.02002588           19 
 2986000     0.769832    -7.234098    736.03151  0.020541179  0.020018972            6 
 2987000    0.7755667   -7.2757922    734.10416  0.020480531  0.020012046           10 
 2988000   0.76754711   -7.2717365    735.08741  0.020501099  0.020005087           16 
 2989000   0.78728479   -7.2526888    733.90488  0.020461271  0.019998116           28 
 2990000   0.76993071   -7.2285987    735.65757  0.020503277   0.01999119           12 
 2991000   0.78479112   -7.2602956    736.59193  0.020522454   0.01998427            7 
 2992000    0.7615749   -7.2492544    735.80817  0.020493766  0.019977332           15 
 2993000   0.77802818   -7.2651005    734.64991   0.02045467  0.019970379            8 
 2994000   0.76473847   -7.2509359    736.50629  0.020499507  0.019963379           13 
 2995000   0.77223824   -7.2327444    736.49271  0.020492285  0.019956401            7 
 2996000   0.77921341   -7.2911231    733.08827  0.020390751  0.019949405            9 
 2997000   0.76656096   -7.2864513    733.16932  0.020386201  0.019942393           19 
 2998000   0.77029652   -7.2820293    733.93035  0.020400555  0.019935386           19 
 2999000   0.76233824   -7.2529192    736.01204  0.020451596  0.019928431           12 
 3000000   0.76955794   -7.2656082    735.58742  0.020432984  0.019921495            8 
 3001000   0.79587251   -7.2530114    736.75275  0.020458535  0.019914581           11 
 3002000   0.77592931   -7.2651144    735.63257  0.020420624  0.019907643            8 
 3003000   0.75923279   -7.2636327    736.53154  0.020438771  0.019900731           19 
 3004000   0.77867864   -7.2642383    736.25614  0.020424327  0.019893845           22 
 3005000   0.75713481   -7.2492086    736.98151  0.020437646  0.019886931           14 
 3006000   0.77101883   -7.2374791    736.73565  0.020424031  0.019880032            8 
 3007000   0.76579667   -7.2373406    735.13808  0.020372965  0.019873171           16 
 3008000   0.76625507   -7.2373166    736.53462  0.020404882  0.019866299           13 
 3009000   0.78846459   -7.2579476    734.89274  0.020352629  0.019859405            8 
 3010000   0.75292832   -7.2547282     736.1811  0.020381537  0.019852484           12 
 3011000   0.76477782   -7.2217813    735.74975  0.020362829  0.019845566           19 
 3012000   0.76670764   -7.2640857     735.0664  0.020337163  0.019838653           14 
 3013000   0.77132408   -7.2455893    734.53891  0.020315823  0.019831735           23 
 3014000   0.75728462    -7.247318    736.15866  0.020353867  0.019824802           21 
 3015000   0.77160756   -7.2858192    735.15293  0.020319318  0.019817887           33 
 3016000   0.77440809   -7.2786495    736.08399  0.020338306  0.019810977            9 
 3017000   0.77968303   -7.2521857     736.3842  0.020339858  0.019804078           12 
 3018000   0.77402963   -7.2892345    737.65306  0.020368154  0.019797166           15 
 3019000   0.78119043   -7.2586615    736.65001   0.02033372  0.019790246            9 
 3020000   0.79686462   -7.2598467    736.95509  0.020335405  0.019783342           17 
 3021000   0.76646693   -7.2596819    734.90819  0.020272211  0.019776436           24 
 3022000   0.76424336   -7.2445629    735.86069  0.020291768  0.019769526           22 
 3023000   0.77322157   -7.2637278    735.92634  0.020286866   0.01976262            9 
 3024000   0.76103277   -7.2960585    735.86445  0.020278451  0.019755725           16 
 3025000   0.76432067   -7.2616565    738.70594  0.020350026  0.019748834            9 
 3026000   0.76803112   -7.2665712    739.02015  0.020351954  0.019741973           10 
 3027000   0.75316553     -7.26198    736.76831  0.020283237  0.019735097            6 
 3028000   0.76697005   -7.2766751    734.80176  0.020222417  0.019728215           30 
 3029000   0.76790918   -7.2777779    734.76768  0.020214803  0.019721354           11 
 3030000   0.75252496   -7.2428672    738.14892  0.020301126   0.01971449           11 
 3031000   0.75656322   -7.2377342    738.14195  0.020294236  0.019707664            8 
 3032000    0.7704556   -7.2350509    735.99137  0.020228435  0.019700842           15 
 3033000   0.76343966   -7.2285228    738.60042   0.02029345  0.019694028            7 
 3034000   0.75564865   -7.2490362    738.42504  0.020281945  0.019687185           19 
 3035000   0.78818138   -7.2623787    737.49582  0.020249748  0.019680343           11 
 3036000   0.76597798   -7.2685169    737.64649  0.020247214  0.019673498           22 
 3037000    0.7832589    -7.278336    736.76888  0.020216466  0.019666655           19 
 3038000   0.77148142   -7.3145319    737.15169  0.020220312  0.019659768           38 
 3039000    0.7582908   -7.2636742     736.0764  0.020184172  0.019652941           17 
 3040000   0.77457333   -7.2567249    737.38704  0.020213461  0.019646103           36 
 3041000    0.7614225   -7.2625786    736.88461  0.020193045  0.019639296           15 
 3042000   0.76813124    -7.254663    738.76468   0.02023791  0.019632483           22 
 3043000   0.76520104   -7.2354181    738.67418  0.020228781  0.019625699           14 
 3044000   0.76954767    -7.256094    737.96861   0.02020282  0.019618901           32 
 3045000   0.75246517    -7.272214    737.67076  0.020188034    0.0196121           33 
 3046000   0.75995962   -7.2946779    736.70366  0.020154948   0.01960527           35 
 3047000   0.75703898   -7.2853037    736.83786  0.020152004  0.019598421           25 
 3048000   0.76521584   -7.2764451     738.2814  0.020184859  0.019591596           17 
 3049000   0.76291701   -7.2874103    737.61051  0.020159903  0.019584782           12 
 3050000   0.75734731   -7.2777294    737.44044  0.020148646  0.019577967           18 
 3051000   0.77417076   -7.2591039    738.43305  0.020169153  0.019571195           14 
 3052000   0.75730317   -7.2679652    736.94169  0.020121824  0.019564409           22 
 3053000   0.76731881   -7.2749419    738.46462  0.020156803  0.019557585           16 
 3054000   0.76658146     -7.28111    736.45824  0.020095455  0.019550795           15 
 3055000   0.75430839   -7.2553893    738.71367    0.0201504  0.019543992           17 
 3056000   0.75385361   -7.2853939    736.83859  0.020092675  0.019537215           17 
 3057000   0.75321261    -7.271414    738.77321   0.02013884  0.019530446           21 
 3058000   0.77080858   -7.2774219    738.81509  0.020133396  0.019523708           18 
 3059000   0.75003998   -7.2593685    738.77063  0.020125603  0.019516956           16 
 3060000   0.76050436   -7.2512287     739.6866  0.020143971  0.019510239           16 
 3061000    0.7669807   -7.2664862    737.76157  0.020084982  0.019503518           27 
 3062000     0.756815   -7.2568893    738.58695  0.020100886  0.019496787           21 
 3063000   0.75841037   -7.2918522    737.02718  0.020051888  0.019490038           20 
 3064000   0.76135655   -7.2762546     738.5709  0.020087329  0.019483263           18 
 3065000    0.7648266   -7.2714647    737.85693  0.020061363   0.01947652           13 
 3066000   0.75209638   -7.2760428    739.75511  0.020106412  0.019469818           18 
 3067000   0.74909815    -7.252441    739.01558  0.020079763  0.019463079           10 
 3068000   0.76924492   -7.2302253    740.40786  0.020111035  0.019456397           17 
 3069000   0.76681008   -7.2908359    738.85489  0.020062314  0.019449711           13 
 3070000   0.76767728   -7.2493088    740.65596  0.020104668  0.019443053            6 
 3071000   0.75732803   -7.2431741    739.87974  0.020077058  0.019436404            8 
 3072000   0.75674223    -7.269753    740.25493    0.0200807  0.019429746            7 
 3073000   0.76013253   -7.2928845    738.50333  0.020026666  0.019423048           13 
 3074000    0.7599443    -7.255492    739.97003  0.020059912  0.019416382           20 
 3075000   0.76307527    -7.269679    738.27707  0.020007509  0.019409709            9 
 3076000   0.76380641   -7.2736195     740.1034  0.020050482   0.01940303           12 
 3077000    0.7663707   -7.2878716    738.62961  0.020004052   0.01939634            5 
 3078000   0.74770351   -7.2694088    737.34413   0.01996275  0.019389667           14 
 3079000   0.75817299   -7.2856986    739.03152  0.020001936  0.019382973           14 
 3080000   0.76048731   -7.3017621    740.41036  0.020032748  0.019376296            7 
 3081000   0.75842745   -7.2434776    740.77503  0.020036109  0.019369585           21 
 3082000   0.75590672   -7.2814413    739.40527  0.019992572  0.019362918           12 
 3083000   0.77555262    -7.284083    739.65818  0.019992923  0.019356223           20 
 3084000   0.75833543   -7.3234711    737.72168  0.019934114  0.019349538           20 
 3085000   0.78858707   -7.2901695    738.21929  0.019941094   0.01934284           20 
 3086000   0.76251135   -7.2862156    738.63427  0.019945838  0.019336158           29 
 3087000    0.7614114   -7.2855299    741.37253  0.020013296  0.019329472           11 
 3088000   0.76359031   -7.2530095    740.87402  0.019993362  0.019322769           12 
 3089000   0.74960457   -7.2971764     739.7088  0.019955455  0.019316078            9 
 3090000   0.76541282   -7.2468984     739.7227  0.019949372  0.019309374           16 
 3091000   0.73436276   -7.2672088    740.49854  0.019963834  0.019302691           13 
 3092000   0.74677816   -7.3078096    738.40962  0.019901079  0.019296004           16 
 3093000   0.75846791   -7.3010994    737.36905  0.019866609  0.019289312            8 
 3094000   0.77504018   -7.2880591    738.69531  0.019895909  0.019282607           18 
 3095000   0.74358497   -7.3083409    738.42804  0.019882284  0.019275932            7 
 3096000   0.76394357   -7.3157174    737.28303  0.019845043  0.019269236           11 
 3097000   0.76529167   -7.2850068    737.89032  0.019854976  0.019262541           15 
 3098000   0.77381327    -7.298915    739.84904  0.019901255  0.019255858           10 
 3099000   0.76341948   -7.2981432    739.44587  0.019883991  0.019249179            9 
 3100000   0.78410341   -7.3024763    740.14323  0.019896323  0.019242505           15 
 3101000   0.75338266   -7.3196862    738.54903  0.019847066  0.019235825           10 
 3102000   0.74685976   -7.2994925    739.57589  0.019868254  0.019229129           14 
 3103000   0.74125775   -7.3127169    738.05057  0.019820888  0.019222453           26 
 3104000   0.76057752   -7.3089008    739.10542  0.019842822  0.019215749           14 
 3105000   0.74824833   -7.3081998    739.69742  0.019852319  0.019209073           15 
 3106000   0.75729959   -7.3119367    739.03993  0.019828287  0.019202403           37 
 3107000   0.75517313   -7.3242297    739.25677  0.019827722  0.019195744           28 
 3108000   0.76182496   -7.2921969     740.8845  0.019864985   0.01918908           18 
 3109000   0.74593441   -7.3111778    740.72798  0.019854401  0.019182418           17 
 3110000   0.74283202   -7.3302659    740.28095  0.019836038  0.019175726           45 
 3111000    0.7617371   -7.3232646    738.91133  0.019792975  0.019169057           38 
 3112000    0.7569643   -7.3102831    737.35572  0.019744958   0.01916244           34 
 3113000   0.76497427   -7.3187165    739.33069  0.019791484  0.019155809           52 
 3114000   0.77067339   -7.3151454    739.90189  0.019800414  0.019149187           54 
 3115000   0.75316981   -7.3061593    738.92608  0.019767953  0.019142569           38 
 3116000    0.7427899   -7.3276586    739.43749  0.019775286  0.019135942           35 
 3117000   0.76041626   -7.3186685    741.41521  0.019821816  0.019129322           30 
 3118000   0.74630236   -7.3513193    738.86894  0.019747406  0.019122704           23 
 3119000   0.75305359   -7.3272406    739.96027  0.019770233  0.019116074           56 
 3120000   0.75297346   -7.3330207    740.33125  0.019773805  0.019109431           76 
 3121000   0.74626285   -7.3541514    740.79493   0.01977985  0.019102784           43 
 3122000   0.75919659    -7.322396    740.56248  0.019767309  0.019096159           53 
 3123000   0.74613118   -7.3025998     739.9691  0.019745146  0.019089578           23 
 3124000   0.75200168   -7.3223995    738.52297   0.01970025  0.019082991           11 
 3125000   0.74238633    -7.320136    740.25744  0.019740198  0.019076396           18 
 3126000   0.74704643   -7.3244009    738.83437  0.019695947  0.019069765           25 
 3127000   0.74627189   -7.3094466    740.89667  0.019744608   0.01906314           12 
 3128000   0.74393949   -7.3194792    739.38044  0.019697902  0.019056537           20 
 3129000    0.7577746   -7.3264328      738.744  0.019674656  0.019049963           21 
 3130000   0.75979597   -7.3367821    738.69864  0.019667163  0.019043352           15 
 3131000   0.74164747   -7.3192825    740.13793  0.019699189  0.019036738           29 
 3132000   0.76544514   -7.3376974     739.3599  0.019672198   0.01903012           24 
 3133000   0.75547281   -7.3147226     740.6617  0.019700545  0.019023539           18 
 3134000   0.74966346   -7.3091079    740.79619  0.019697835  0.019016948           10 
 3135000   0.75572509   -7.3234465    741.09763  0.019699565  0.019010394           12 
 3136000   0.76047856   -7.3342354    740.57467  0.019679387  0.019003842           11 
 3137000   0.75118429   -7.3201717    740.39643  0.019668378  0.018997267           14 
 3138000   0.76861814   -7.3303285    740.57117  0.019666751  0.018990676            5 
 3139000   0.75499609   -7.3081206    742.33072  0.019707198  0.018984108            9 
 3140000   0.75581613   -7.3253418     743.1216  0.019721911  0.018977546           11 
 3141000   0.74159904   -7.3425614    741.46416  0.019671659  0.018970966           17 
 3142000   0.75932203   -7.3295702    741.11983  0.019656265  0.018964395           12 
 3143000   0.76217946   -7.3305804    739.68036  0.019611845  0.018957824           15 
 3144000   0.76427174   -7.3175906     741.7986  0.019661753  0.018951284           14 
 3145000   0.74517658   -7.3181958    743.22874  0.019693395  0.018944779           16 
 3146000   0.75047442   -7.3268977    740.03741  0.019602601  0.018938263           16 
 3147000     0.744593    -7.344401    739.84253  0.019591212  0.018931734           41 
 3148000   0.74222551   -7.3407835    741.24168  0.019622027  0.018925184           10 
 3149000   0.75325195    -7.320314    742.74479  0.019655573  0.018918644           10 
 3150000   0.75172301   -7.3504836    740.39305  0.019587118  0.018912135           14 
 3151000   0.74952966    -7.326501     742.0992  0.019626024  0.018905618           19 
 3152000   0.75606259   -7.3323076    741.38885  0.019601017  0.018899078           41 
 3153000   0.73616135   -7.3158868     743.2212  0.019643229  0.018892561           40 
 3154000   0.74363846   -7.3187426    742.12999  0.019608169  0.018886041           16 
 3155000   0.75010468   -7.3432243    742.90556  0.019622439  0.018879534           19 
 3156000   0.73730051   -7.3164854    741.51026  0.019579379  0.018873009            8 
 3157000    0.7494201   -7.3468139    738.18801  0.019485482  0.018866486           15 
 3158000    0.7712133   -7.3209012    741.54401   0.01956787  0.018859925           14 
 3159000   0.74377824   -7.3293265    740.79891   0.01954202  0.018853393           25 
 3160000   0.75801035   -7.3266685    740.40416  0.019525426  0.018846846           15 
 3161000   0.75033512   -7.3154623    741.85596  0.019557523   0.01884034           18 
 3162000   0.73718329   -7.3203536    743.19633  0.019586663  0.018833813           24 
 3163000   0.75749074   -7.3190009    741.28603  0.019530141  0.018827305           18 
 3164000    0.7487212   -7.3238526    740.82914  0.019511935  0.018820763           10 
 3165000   0.73208613   -7.3187043    741.28872   0.01951787  0.018814269           22 
 3166000   0.74558893   -7.3049486    741.41185  0.019514947   0.01880777           40 
 3167000   0.74446554   -7.3277981    740.39851   0.01948212  0.018801224           21 
 3168000   0.75615187   -7.3682464    739.88517  0.019462468  0.018794672           49 
 3169000   0.74063666   -7.3297728     741.8618  0.019508304  0.018788155           22 
 3170000   0.73205961   -7.3442096      740.213  0.019458807  0.018781642           48 
 3171000   0.75727897   -7.3574688      740.922  0.019471302  0.018775124           33 
 3172000   0.74300517   -7.3512445     741.0438  0.019468364  0.018768613           23 
 3173000   0.73371745   -7.3371264    741.55706  0.019475708  0.018762085           35 
 3174000   0.75229986   -7.3380399    742.09023   0.01948357   0.01875559           28 
 3175000   0.73878079   -7.3230945    741.58316  0.019464125  0.018749078           44 
 3176000   0.75561069   -7.3386016    742.05839  0.019470466  0.018742584           25 
 3177000   0.72072472   -7.3274659    742.45939  0.019474856  0.018736095           27 
 3178000   0.72882312   -7.3301871     741.4524  0.019442322  0.018729629           31 
 3179000   0.75462679   -7.3352305    741.10133  0.019427003  0.018723139           36 
 3180000   0.74103181   -7.3107454    743.99906  0.019496831  0.018716666           18 
 3181000   0.73456554    -7.333558    742.48341  0.019450996  0.018710229           12 
 3182000   0.74582592   -7.3675687    741.62618  0.019422433  0.018703752           22 
 3183000   0.74991836    -7.347893    741.17698  0.019404571  0.018697268           26 
 3184000   0.72864381   -7.3266974    740.65598   0.01938484  0.018690812            7 
 3185000   0.74257924   -7.3382571    742.85143  0.019436196  0.018684354           29 
 3186000   0.75726965   -7.3292737     742.5201   0.01942143  0.018677903           22 
 3187000   0.73349318   -7.3322241     742.1592  0.019405899  0.018671442            9 
 3188000   0.74968548   -7.3435936    742.06637  0.019397385  0.018665006            7 
 3189000   0.73649595   -7.3234365    742.81989  0.019410993  0.018658562           25 
 3190000   0.72670517   -7.3485038    741.55817  0.019371948  0.018652123           21 
 3191000   0.75197979   -7.3327462    743.60721  0.019419388  0.018645712           30 
 3192000    0.7421048   -7.3470736     742.8169  0.019392672  0.018639292           15 
 3193000   0.73341052   -7.3484219    741.30891  0.019347242  0.018632879           13 
 3194000   0.74686756   -7.3627821    741.08601  0.019335369  0.018626471           36 
 3195000   0.74748761   -7.3401985    742.63106  0.019369615  0.018620033           18 
 3196000   0.74862748   -7.3359378    744.10686  0.019402035  0.018613622           27 
 3197000   0.75127249   -7.3320363     742.9105  0.019364782  0.018607234           29 
 3198000   0.72881181   -7.3197832     741.8575  0.019331288  0.018600822           12 
 3199000   0.74912322   -7.3530848    742.05624  0.019330422  0.018594399           22 
 3200000   0.73160887   -7.3409243    742.63258   0.01933939  0.018587991            9 
 3201000   0.73971259   -7.3487647    744.13633  0.019372496  0.018581565           10 
 3202000   0.73793277   -7.3514412    739.85869  0.019255119  0.018575162           14 
 3203000   0.75478779   -7.3632262    741.30964  0.019286857  0.018568736           12 
 3204000   0.72713095   -7.3456238    741.05355  0.019274177  0.018562303            9 
 3205000   0.73909395   -7.3350623     743.1294  0.019322137  0.018555874           28 
 3206000   0.73696955   -7.3291932    743.40187  0.019323193   0.01854947           21 
 3207000   0.73602128   -7.3585629    741.80851  0.019275764  0.018543071           25 
 3208000   0.75614836   -7.3302018    741.03781  0.019249735  0.018536681           11 
 3209000   0.74106363   -7.3332237    742.93198  0.019292926  0.018530298           18 
 3210000   0.73373135    -7.340546    742.47274  0.019274993  0.018523913           16 
 3211000   0.75573322   -7.3542968    742.29201    0.0192643  0.018517513           15 
 3212000    0.7419975   -7.3661925    741.31464  0.019232945  0.018511099           12 
 3213000   0.74245487   -7.3439729    743.54236  0.019284738  0.018504672           12 
 3214000   0.72903395   -7.3171568    743.28838  0.019272153   0.01849828            9 
 3215000   0.74102116   -7.3325562    741.52251  0.019220386  0.018491901           15 
 3216000   0.75940074   -7.3544836    742.34917  0.019235831  0.018485519           10 
 3217000   0.73567331   -7.3415689     743.3543  0.019255888  0.018479132           11 
 3218000   0.72520999   -7.3686406    741.92988  0.019213017  0.018472737           11 
 3219000   0.73732803   -7.3797731    741.58974  0.019198243    0.0184663           14 
 3220000   0.73972295   -7.3581476    742.99395  0.019228622  0.018459887           58 
 3221000   0.73876726   -7.3589089    741.61583  0.019186998   0.01845349           19 
 3222000   0.74083884   -7.3430452     741.2855  0.019172499  0.018447084           31 
 3223000   0.74395678   -7.3573243    744.53268  0.019250509  0.018440701           17 
 3224000   0.73822647   -7.3542154     742.6645  0.019196249  0.018434307           10 
 3225000    0.7421596   -7.3863429    742.89373   0.01919622  0.018427941           25 
 3226000   0.72672143   -7.3469988     743.9181  0.019216731  0.018421588           25 
 3227000   0.73987085   -7.3602102     741.1215  0.019138557  0.018415234           20 
 3228000   0.72664506   -7.3516497    741.83396  0.019151021  0.018408881           12 
 3229000   0.73042402    -7.357249    743.93434  0.019199296   0.01840251           20 
 3230000   0.72386798   -7.3447656    743.19235  0.019174209  0.018396155           19 
 3231000   0.72616944   -7.3742213    743.05085  0.019164625  0.018389819           18 
 3232000   0.73291056   -7.3417992    743.03809  0.019158367  0.018383467           38 
 3233000   0.74101598   -7.3624032    741.91947  0.019123607  0.018377125           41 
 3234000   0.73754227   -7.3857161    741.37104  0.019103562  0.018370747           25 
 3235000   0.74432743   -7.3404993    744.54166  0.019179332  0.018364384           17 
 3236000   0.70886841   -7.3535287    742.36551  0.019117365  0.018358049            7 
 3237000   0.74374383   -7.3808965    742.00668  0.019102221  0.018351692           21 
 3238000   0.72015179   -7.3624921    743.75752  0.019141381  0.018345357           17 
 3239000   0.73598966   -7.4090825    742.81677  0.019111268  0.018338978           11 
 3240000    0.7396775   -7.3658858    742.78416  0.019104531  0.018332606           21 
 3241000    0.7364873   -7.3428693    743.22256  0.019109908  0.018326243           19 
 3242000   0.72976127   -7.3707072    741.38226   0.01905671  0.018319876           24 
 3243000   0.72454477   -7.3632259    743.17976  0.019097023  0.018313547           25 
 3244000   0.74025257   -7.3836099    741.97682  0.019060235  0.018307182           19 
 3245000   0.74318147   -7.3821038    741.71719  0.019047694  0.018300823           18 
 3246000   0.73757345   -7.3890342    742.59993  0.019064488   0.01829445           22 
 3247000    0.7337393   -7.3792453    741.99907  0.019043196  0.018288114           19 
 3248000   0.72847624   -7.3848949    742.73606  0.019056241  0.018281791           25 
 3249000   0.72546071   -7.3793139    741.90227   0.01902899  0.018275445           49 
 3250000   0.72423872   -7.3712089    743.44872  0.019062788  0.018269123           40 
 3251000    0.7316496   -7.3778444    743.11193  0.019048291    0.0182628           29 
 3252000   0.72981705   -7.3951423    741.04385  0.018989438  0.018256444           40 
 3253000   0.73090013   -7.4011506    742.36007  0.019017319  0.018250088           28 
 3254000   0.72163711   -7.3955726    743.00682  0.019028038  0.018243732           33 
 3255000    0.7251449   -7.3957143    743.14168  0.019025645   0.01823739           51 
 3256000   0.72376578   -7.4110488    741.75052  0.018984196  0.018231021           25 
 3257000   0.72560277   -7.4089305    742.21363  0.018990217  0.018224688           26 
 3258000   0.72884837   -7.3941826    741.87276  0.018975669  0.018218362           39 
 3259000   0.74136122     -7.39854    742.57852  0.018987893  0.018212026           43 
 3260000   0.73690941   -7.3815614    742.26898  0.018974156  0.018205735           33 
 3261000   0.72618047   -7.3635795    745.86179   0.01906015  0.018199465           21 
 3262000    0.7074013   -7.3453733    743.52309  0.018994561  0.018193207           14 
 3263000   0.73129358   -7.3713461    744.58746  0.019015922  0.018186967           19 
 3264000   0.72680658   -7.3664923    743.26968  0.018976452  0.018180728           19 
 3265000   0.74224033   -7.3752174    745.11676  0.019017783  0.018174487           32 
 3266000   0.72115928   -7.3712851    742.94903   0.01895665   0.01816823           14 
 3267000   0.73148301   -7.3749774    744.19119  0.018982532  0.018161976           14 
 3268000   0.74060572   -7.3645259    744.09861  0.018974363  0.018155726           34 
 3269000      0.73245    -7.375504     744.3055  0.018973832  0.018149488           25 
 3270000   0.72877759   -7.3584699    742.21937  0.018914867  0.018143239           28 
 3271000   0.71524684   -7.3611237    743.77351  0.018948678  0.018136997           28 
 3272000   0.72840619   -7.3746029    743.35582  0.018932249  0.018130762           19 
 3273000   0.73777171   -7.4109371    743.06926  0.018919169   0.01812452           33 
 3274000   0.72977635   -7.3743238    745.06723  0.018964244  0.018118252           25 
 3275000   0.72609162   -7.4022595    742.01482  0.018880784  0.018112006           11 
 3276000   0.72392409    -7.377193    743.72544  0.018918535  0.018105761           13 
 3277000   0.73336625   -7.3958276    744.58441  0.018934605   0.01809953           13 
 3278000   0.71913876    -7.401035    744.38262  0.018923699   0.01809327           18 
 3279000   0.72349078   -7.3680975    745.45891  0.018945281  0.018087028           10 
 3280000   0.72033488    -7.372714    742.75082  0.018870702  0.018080777           11 
 3281000   0.72888129   -7.3589654    743.12579  0.018874474  0.018074508           15 
 3282000   0.71462313   -7.3769703    743.46087  0.018877231  0.018068272           23 
 3283000    0.7184614   -7.3964863    743.83109  0.018880879  0.018062027           14 
 3284000   0.71749718   -7.3804364    743.69679  0.018871721  0.018055754           13 
 3285000   0.71885064   -7.3690386    745.30994  0.018906899  0.018049499           49 
 3286000   0.72258918   -7.3922138    742.74151  0.018836009  0.018043242           13 
 3287000   0.72530094   -7.3731361    744.22146  0.018867799  0.018036976           14 
 3288000   0.74712698   -7.4117283    742.11436  0.018808657  0.018030733           19 
 3289000   0.72422394   -7.3819414    744.82675  0.018871662  0.018024504           19 
 3290000   0.72640487   -7.3784093     741.9092  0.018792026  0.018018261           25 
 3291000   0.72100914   -7.3865616    743.56947  0.018828357  0.018012025           22 
 3292000   0.73014927   -7.4070662    741.63163  0.018773583  0.018005774           23 
 3293000   0.73413987   -7.4046176    742.63519  0.018793278  0.017999485           10 
 3294000   0.72213715   -7.4000884    743.00658  0.018796969  0.017993213           23 
 3295000   0.70699202   -7.3841071    742.92547  0.018789213  0.017986955           18 
 3296000   0.71938011   -7.3897537    744.61621  0.018826259  0.017980724           20 
 3297000   0.71669218   -7.3877239    744.13914  0.018808491  0.017974502           15 
 3298000   0.72229194   -7.4084293     742.3016  0.018756357  0.017968257           13 
 3299000   0.72766548   -7.3841325      741.952  0.018741841  0.017962033           30 
 3300000   0.72607063   -7.3886371    744.27863  0.018794915  0.017955786           13 
 3301000   0.71542173    -7.390534    743.93675   0.01878059  0.017949561           19 
 3302000    0.7314593   -7.4041883    743.10431  0.018753894  0.017943346           16 
 3303000   0.72651088   -7.3893513    740.21841  0.018675406  0.017937081           32 
 3304000   0.72065619   -7.4071306    742.92209  0.018737946  0.017930833           13 
 3305000   0.71762239   -7.4268664    742.65092  0.018725439   0.01792457           16 
 3306000   0.71361726   -7.3900242     746.4146  0.018814645  0.017918313           12 
 3307000   0.71356893   -7.4097785    741.64799  0.018688842  0.017912072           11 
 3308000   0.71935822   -7.4104378     742.2432  0.018698186   0.01790582           16 
 3309000   0.72269675   -7.4084755    743.76593  0.018730884  0.017899582           15 
 3310000   0.73283729   -7.3975839    743.55475  0.018719908  0.017893319           30 
 3311000   0.73037491    -7.418474    743.39352  0.018710196  0.017887082           15 
 3312000   0.70889742   -7.3926083    743.64489  0.018710872  0.017880837           44 
 3313000   0.71463734   -7.4057113    741.20802  0.018643929  0.017874581           12 
 3314000   0.71424643   -7.4016135    742.03019  0.018658977  0.017868332           13 
 3315000   0.70764066   -7.4297777    741.29145  0.018634777  0.017862066           25 
 3316000   0.73363361   -7.4260821    740.77339  0.018616139  0.017855814           14 
 3317000   0.73125412   -7.4355281     743.2787  0.018673467  0.017849549           23 
 3318000   0.72347088   -7.4103243    742.79428  0.018655673  0.017843284           31 
 3319000   0.72011601   -7.4021042    744.00105  0.018680352  0.017837032           49 
 3320000   0.71824801   -7.4010452    744.52879  0.018687972  0.017830802           24 
 3321000   0.71421927   -7.4348587    742.73406  0.018637309  0.017824569           19 
 3322000   0.72362068   -7.4038792    743.36413  0.018647505  0.017818312           18 
 3323000   0.72484138    -7.436045     741.6811  0.018599687  0.017812072           28 
 3324000   0.71250048   -7.4045516    743.44717  0.018638367  0.017805852           39 
 3325000   0.70519648   -7.4287493    741.45349  0.018582794  0.017799628           17 
 3326000   0.70812497   -7.4088754    743.20452  0.018621079  0.017793419           49 
 3327000   0.71965549    -7.423828    742.58693  0.018600013  0.017787206           23 
 3328000   0.72439027   -7.3893406    742.24672  0.018585906   0.01778101           25 
 3329000   0.71851062    -7.394201     743.8009  0.018619227   0.01777481           34 
 3330000   0.72370058   -7.4289674    742.60169  0.018583626  0.017768593            8 
 3331000   0.72414164   -7.4090147     744.0066  0.018613194  0.017762378           33 
 3332000   0.71522592   -7.4339716    742.37479  0.018566796  0.017756167           19 
 3333000   0.72406875   -7.4543677    741.12674  0.018530022  0.017749926           23 
 3334000   0.71466437   -7.4552533    741.60633  0.018536451  0.017743678           17 
 3335000    0.7140873   -7.4305841    741.99645  0.018540641  0.017737431           48 
 3336000    0.7238668   -7.4308244     741.7349   0.01852855  0.017731204           29 
 3337000   0.72438991   -7.4166717    742.58904  0.018544327   0.01772499           40 
 3338000   0.70861258   -7.4403449    742.22779  0.018529753   0.01771877           23 
 3339000   0.72581561   -7.4422676    742.43394  0.018529349  0.017712553           42 
 3340000   0.70411062   -7.4310899    743.87144  0.018559667   0.01770635           26 
 3341000   0.72209306   -7.4382858    742.89603  0.018529782  0.017700121           11 
 3342000    0.7143074   -7.4110096    742.89657  0.018524251  0.017693916           14 
 3343000   0.71158344   -7.4142481    743.39141  0.018531045  0.017687702           19 
 3344000   0.71313855   -7.4298101    742.10093  0.018493345  0.017681505           18 
 3345000   0.71406301   -7.3999455    744.46902  0.018546812    0.0176753           25 
 3346000   0.71019698   -7.4324769    742.66069  0.018496232  0.017669114           32 
 3347000    0.7211791   -7.4164254     742.0676  0.018475939  0.017662917           34 
 3348000   0.72717152   -7.4464813    742.74323  0.018487237  0.017656727           23 
 3349000   0.71195493   -7.4207093    742.78749  0.018482818  0.017650528           35 
 3350000   0.72332918   -7.4402979     742.0691   0.01845943  0.017644337           55 
 3351000   0.70212868   -7.4373459    743.49515  0.018489385  0.017638139           39 
 3352000   0.71354502   -7.4337285    744.46956  0.018508094  0.017631949           51 
 3353000   0.70813417   -7.4470204    742.84716  0.018462252   0.01762578           43 
 3354000   0.72277019   -7.4111282    741.91451  0.018433574  0.017619611           50 
 3355000   0.71823587   -7.4370493    742.83216  0.018450873  0.017613452           28 
 3356000   0.71589077   -7.4159853    743.51834  0.018462414  0.017607299           41 
 3357000   0.72620446   -7.4558477    741.58932  0.018409029   0.01760114           46 
 3358000   0.72392087   -7.4460192     740.8257  0.018384597  0.017594966           44 
 3359000    0.7012408   -7.4440294    744.41756  0.018468234  0.017588785           47 
 3360000   0.71857104   -7.4495292    742.10088   0.01840528  0.017582609           45 
 3361000   0.71820776   -7.4452985    743.18149  0.018426597  0.017576443           28 
 3362000   0.71456989   -7.4324764    742.80469  0.018411776  0.017570302           33 
 3363000   0.70890661   -7.4391264    743.41022  0.018421306  0.017564141           36 
 3364000   0.71852574   -7.4177675    743.01273  0.018405983  0.017558011           36 
 3365000    0.7046564   -7.4357303    742.56664  0.018389466   0.01755187           48 
 3366000   0.71089203   -7.4080089    741.54457  0.018358699  0.017545734           30 
 3367000   0.70451002   -7.4177178    743.87417  0.018410904  0.017539606           51 
 3368000   0.70849165   -7.4348702    742.42121  0.018369488  0.017533504           65 
 3369000   0.71925911   -7.4019463    744.08108  0.018405093  0.017527378           81 
 3370000   0.71664091   -7.4338362    744.57577  0.018411864   0.01752125           37 
 3371000   0.71953981   -7.4328361    744.34122  0.018400604  0.017515123           32 
 3372000   0.72591912   -7.4133485    744.52752  0.018399751   0.01750901           17 
 3373000   0.71083317   -7.4255082    743.33509  0.018364836  0.017502875           41 
 3374000   0.71092946   -7.4370588    743.50842  0.018363674  0.017496725           46 
 3375000   0.70533109   -7.4685125    743.00152  0.018345717  0.017490583           52 
 3376000   0.69623165   -7.4540446    741.12118  0.018293868  0.017484427           35 
 3377000   0.71807559   -7.4437429    742.63202  0.018325733  0.017478288           29 
 3378000   0.70598378   -7.4286527    741.96307  0.018303806  0.017472147           91 
 3379000   0.71049623    -7.440292    743.47787  0.018335747  0.017465985          105 
 3380000   0.71335488   -7.4565162    742.43131  0.018304519  0.017459837           51 
 3381000   0.71515128   -7.4764338    744.43581  0.018348512  0.017453694           36 
 3382000    0.7047813   -7.4598339    742.06852  0.018284756  0.017447563           43 
 3383000    0.7099199   -7.4499277    743.25097  0.018308478  0.017441436           32 
 3384000   0.71187198   -7.4878644    740.68255  0.018239819  0.017435292           66 
 3385000   0.69419301   -7.4456237    742.55498  0.018280526  0.017429156           59 
 3386000   0.70298535   -7.4481829    742.61926   0.01827671  0.017423019           38 
 3387000   0.70860626   -7.4641685    741.25105   0.01823765  0.017416891           62 
 3388000   0.71267815   -7.4599111    742.70969  0.018268145  0.017410765           70 
 3389000   0.70817193   -7.4583218    742.66626  0.018261686  0.017404636           75 
 3390000   0.70390592   -7.4602227    742.86321  0.018261141  0.017398498           68 
 3391000   0.70292233   -7.4699759    742.54982  0.018248054  0.017392374           60 
 3392000   0.69667231   -7.4816195    743.74366  0.018272004   0.01738624           67 
 3393000   0.70929579   -7.4605473    743.20016   0.01825327  0.017380116           39 
 3394000   0.70188839   -7.4638564    743.24598  0.018249017  0.017374001          287 
 3395000   0.72254384   -7.4696197    742.61504  0.018228155  0.017367857           74 
 3396000   0.71401683   -7.4525891    743.71215  0.018249709  0.017361737           77 
 3397000    0.7115715   -7.4810695    741.81678  0.018197841  0.017355607           60 
 3398000   0.72825104   -7.4871061    741.74691  0.018190772  0.017349455           85 
 3399000   0.71350764   -7.4889051    741.06247   0.01816864  0.017343314           96 
 3400000    0.7198329   -7.5004527    742.69167  0.018203227  0.017337163          145 
 3401000    0.7075991   -7.4825939    741.45685  0.018167618  0.017331023          136 
 3402000   0.71487832   -7.4890602    742.29149  0.018182723  0.017324855           97 
 3403000   0.71894399   -7.5050779    742.17616  0.018174556   0.01731871           93 
 3404000   0.69623884   -7.4926368     741.2279  0.018146002  0.017312545          101 
 3405000   0.69571325   -7.4987132    743.61667  0.018199135   0.01730638          156 
 3406000   0.71074474   -7.5021938    742.56521  0.018168066  0.017300229          135 
 3407000    0.7062386   -7.4978991    741.38607  0.018133893  0.017294076          152 
 3408000   0.71291721   -7.4992548    740.23209  0.018100354  0.017287915          113 
 3409000   0.71999138   -7.4802086     743.1152  0.018165523   0.01728176          125 
 3410000   0.69961632   -7.5079599    740.38374  0.018093444  0.017275607          181 
 3411000    0.7046956   -7.4953442    741.56484  0.018116995  0.017269463          109 
 3412000   0.70497277   -7.4863216    741.91262  0.018120179  0.017263314          128 
 3413000   0.71894995   -7.4959398    742.82161  0.018137065  0.017257173           95 
 3414000   0.69601229   -7.5218838    740.13084  0.018066072  0.017251025           82 
 3415000   0.71273494    -7.515216    741.39582   0.01809165  0.017244852          122 
 3416000   0.71541623   -7.5192264    739.46833  0.018039333  0.017238678           89 
 3417000   0.72228249   -7.5019277    739.89548  0.018044471  0.017232506           98 
 3418000   0.70896417   -7.4963385    740.53371  0.018054752  0.017226357          189 
 3419000    0.6975871    -7.507432    741.23428  0.018066547  0.017220217          252 
 3420000   0.69381203   -7.4984845    741.52902  0.018068446  0.017214076          158 
 3421000   0.69943512   -7.5208284    741.70347  0.018067414  0.017207928          132 
 3422000   0.71959406   -7.5152562    740.52361  0.018033402  0.017201788          150 
 3423000   0.71342028   -7.4833494    743.73021  0.018106198  0.017195643           99 
 3424000   0.71612408   -7.5182003    740.83275  0.018030392  0.017189495          176 
 3425000   0.71715771    -7.526463    741.82675  0.018049313  0.017183325          209 
 3426000   0.71432158   -7.4936895        741.3  0.018031232  0.017177164          141 
 3427000   0.70591478   -7.4970137     740.8866  0.018015918  0.017171021          147 
 3428000   0.70482294    -7.517122    740.23627  0.017994853  0.017164883          255 
 3429000   0.70144976   -7.5372472    740.74671   0.01800201  0.017158742          270 
 3430000   0.69934734   -7.5588001    739.22399  0.017959767  0.017152604          303 
 3431000   0.71362052   -7.4988539    741.96477  0.018021101  0.017146476          166 
 3432000   0.70247518       -7.509    741.20505  0.017997403  0.017140357          227 
 3433000   0.70120421   -7.4876694    742.53569  0.018024461  0.017134256          245 
 3434000   0.70549263   -7.5220146    740.29006  0.017964717  0.017128141          234 
 3435000   0.70177295   -7.5339987    740.49225  0.017964392  0.017122022          187 
 3436000   0.70113757   -7.5087178     741.2169  0.017976739   0.01711589          316 
 3437000   0.70207558   -7.5206013    741.36165  0.017975018  0.017109764          374 
 3438000   0.70501542   -7.5388163    741.20398  0.017965968  0.017103662          206 
 3439000   0.71156453   -7.5060122    739.79919  0.017926703  0.017097561          284 
 3440000   0.70302588   -7.4990856    740.63344  0.017941702  0.017091464          293 
 3441000   0.71199042   -7.5174895    741.69492  0.017962194   0.01708536          189 
 3442000   0.70845386    -7.521249    741.13001  0.017943299  0.017079254          214 
 3443000   0.69352861   -7.5086529    741.43987  0.017945587  0.017073155          355 
 3444000    0.6993518   -7.5105792    741.58428  0.017943871  0.017067062          277 
 3445000   0.70258939   -7.5002784    741.17951  0.017928871  0.017060969          401 
 3446000   0.71446743   -7.5140235    741.40369  0.017929089  0.017054889          275 
 3447000   0.70620423   -7.5047377    740.57557  0.017903867  0.017048805          318 
 3448000   0.71005054   -7.5128031    742.33015  0.017941081  0.017042734          322 
 3449000    0.7196436   -7.4910481    743.02519  0.017952672  0.017036668          370 
 3450000   0.69326764   -7.5132715    742.62895  0.017937897  0.017030618          240 
 3451000   0.72142883   -7.5217821    741.35467  0.017901929  0.017024547          366 
 3452000   0.70419361   -7.5139755    740.52747  0.017876773  0.017018481          386 
 3453000   0.69698708   -7.5090814    740.98212  0.017882569  0.017012423          384 
 3454000   0.70525502   -7.5156523    743.51697  0.017938549  0.017006385          389 
 3455000   0.70819741   -7.5068327    742.19535   0.01790148  0.017000329          229 
 3456000   0.69299215   -7.5218379    740.82416  0.017863237  0.016994271          416 
 3457000   0.69040957   -7.5471987    740.92385  0.017860473  0.016988206          540 
 3458000   0.68706206   -7.5605555     741.9932  0.017881078  0.016982132          285 
 3459000   0.69123879   -7.5245431    740.96005  0.017851018  0.016976056          236 
 3460000   0.69070085   -7.5503267    740.11655  0.017825543  0.016969991          234 
 3461000   0.69125268   -7.5206873    741.97479  0.017865135  0.016963926          436 
 3462000   0.70669252   -7.5427299    739.22589  0.017793806   0.01695785          264 
 3463000   0.71574871   -7.5443613    742.07946  0.017857336  0.016951764          521 
 3464000   0.70715218    -7.522119    740.62294  0.017817141  0.016945692          252 
 3465000   0.70898474   -7.5158913    740.17651  0.017801263  0.016939635          246 
 3466000   0.68421203   -7.5468016      741.538  0.017828861   0.01693356          197 
 3467000   0.70083931   -7.5120358    740.94256  0.017809407  0.016927499          330 
 3468000   0.69507474   -7.5508935    741.44751  0.017816405   0.01692144          235 
 3469000   0.68989572   -7.5141406    741.53744  0.017813429  0.016915396          438 
 3470000   0.70217048   -7.5217439    741.34226  0.017803609  0.016909364          278 
 3471000   0.69417722   -7.5427157    741.02761  0.017790925  0.016903332          322 
 3472000   0.71617504    -7.519758    741.44046   0.01779571  0.016897287          425 
 3473000   0.70663871    -7.518994    741.54245  0.017793033  0.016891255          421 
 3474000   0.69128073   -7.5175121    741.51638  0.017787286  0.016885224          472 
 3475000    0.7058333    -7.506313    741.38639   0.01777905  0.016879193          241 
 3476000   0.69669614   -7.4991139    743.60322  0.017827082  0.016873178          318 
 3477000   0.70371029   -7.5329773    741.07506  0.017761362  0.016867149          241 
 3478000    0.7070025   -7.5097357    741.04005  0.017755416  0.016861135          255 
 3479000     0.700525   -7.5191721    741.94535  0.017771997  0.016855125          250 
 3480000   0.70781679   -7.5356617    739.81834  0.017715956  0.016849105          411 
 3481000   0.69730733   -7.5340315    741.47786  0.017750595  0.016843061          467 
 3482000   0.69294607   -7.5172442    740.32916  0.017718006  0.016837028          263 
 3483000   0.69195302    -7.532846    740.28146  0.017711778  0.016830985          284 
 3484000   0.69131965   -7.5325246    741.80412  0.017743114  0.016824943          451 
 3485000   0.70305012   -7.5334677    740.22788  0.017700332  0.016818895          575 
 3486000   0.69050036   -7.5302138    741.31747  0.017721301  0.016812847          255 
 3487000   0.69194094   -7.5390633    739.29264  0.017667829  0.016806816          559 
 3488000   0.69057769   -7.5549211    740.82084  0.017699275  0.016800782          561 
 3489000   0.69031096    -7.559861     740.6638  0.017690451  0.016794737          292 
 3490000   0.69281119   -7.5443028    739.47919  0.017657096  0.016788685          331 
 3491000    0.6917834   -7.5368074    740.64307  0.017679821  0.016782648          454 
 3492000   0.70064145   -7.5474647    742.06068  0.017708588  0.016776629          491 
 3493000   0.68130076   -7.5654855    739.55883  0.017643831  0.016770607          492 
 3494000   0.69011061   -7.5155452    739.72543  0.017642755  0.016764585          470 
 3495000   0.68655073   -7.5616253    741.14466  0.017671546  0.016758563          275 
 3496000     0.691616   -7.5528304    739.74714  0.017633179  0.016752567          495 
 3497000   0.69688719   -7.5295652    741.88643  0.017679116  0.016746546          303 
 3498000   0.69234075   -7.5551091    741.25931  0.017659122  0.016740546          419 
 3499000   0.70240869   -7.5381937    742.55768  0.017684998  0.016734542          318 
 3500000   0.68539009   -7.5292313     741.7495  0.017660702  0.016728531          521 
 3501000   0.69087087   -7.5226671    739.85579  0.017610582  0.016722523          298 
 3502000   0.69490565   -7.5513435    740.12359  0.017611926  0.016716526          584 
 3503000   0.70022914   -7.5439636    740.37889  0.017612972  0.016710516          540 
 3504000   0.69114885   -7.5393269    740.87502  0.017619744  0.016704498          588 
 3505000   0.69936129   -7.5472716    740.00345  0.017593995  0.016698488          572 
 3506000   0.69921883   -7.5691195    740.16131  0.017592729  0.016692485          216 
 3507000   0.67954875   -7.5452732    740.45547  0.017594703  0.016686471          249 
 3508000   0.68120136    -7.549315    740.77444  0.017597264  0.016680472          523 
 3509000   0.68784507   -7.5361961     740.7647  0.017592018  0.016674469          225 
 3510000    0.6900812   -7.5550886    739.12581  0.017548096  0.016668465          294 
 3511000   0.68783997   -7.5478146    739.97928  0.017563355  0.016662468          566 
 3512000   0.69661405   -7.5551114    740.80296  0.017577899  0.016656482          224 
 3513000   0.70797408    -7.563322    739.31975  0.017537711  0.016650489          556 
 3514000   0.67955693   -7.5893941    740.50844   0.01756091  0.016644489          576 
 3515000   0.67575461   -7.5326091    741.72169  0.017584677  0.016638504          429 
 3516000   0.68762077   -7.5227892    742.95067  0.017608804  0.016632529          511 
 3517000   0.68018318   -7.5469828    740.64576  0.017549184  0.016626553          545 
 3518000   0.69059407    -7.559292    740.98766  0.017552294  0.016620586          447 
 3519000   0.67315991   -7.5390036    741.78537  0.017566197   0.01661464          614 
 3520000   0.69263533   -7.5356766    740.92767  0.017540901  0.016608689          433 
 3521000   0.69960767   -7.5152652    742.78771  0.017579942  0.016602746          330 
 3522000   0.68310103   -7.5511278    740.74872  0.017526706  0.016596803          384 
 3523000   0.69525318   -7.5512515    741.08677  0.017529728  0.016590862          503 
 3524000   0.69585131   -7.5351357     740.2237  0.017504344  0.016584911          318 
 3525000   0.68876164   -7.5606008    740.01326  0.017494403  0.016578954          470 
 3526000   0.67948188   -7.5729517    740.21482  0.017494205  0.016573005          397 
 3527000   0.68339835   -7.5717608    741.03637  0.017508656  0.016567047          306 
 3528000   0.69912892   -7.5645245    740.82759  0.017498762  0.016561102          260 
 3529000   0.69321421   -7.5688164    741.02546  0.017498476  0.016555149          279 
 3530000   0.69412344   -7.5654386    739.97287   0.01746867  0.016549193          303 
 3531000   0.68873679    -7.564705    738.88412  0.017438028  0.016543227          361 
 3532000   0.68581453   -7.5660937    738.89195  0.017433275   0.01653728          484 
 3533000   0.68877263   -7.5516607     740.2451  0.017460258  0.016531319          336 
 3534000   0.68304849   -7.5966435    739.58352  0.017439717  0.016525353          572 
 3535000   0.68859614   -7.5805812    740.73114  0.017461837  0.016519372          577 
 3536000   0.68939216   -7.5631166    739.81324  0.017435267   0.01651339          276 
 3537000    0.6859545   -7.5508693    740.39524   0.01744405  0.016507442          518 
 3538000   0.68114646   -7.5638357    737.48645  0.017370606  0.016501495          342 
 3539000   0.68439969   -7.5707359    740.34517  0.017433012  0.016495521          348 
 3540000   0.67730437   -7.5673957    739.92246  0.017418137  0.016489547          601 
 3541000   0.67843862    -7.568999    740.14008  0.017418339  0.016483601          564 
 3542000   0.67006007   -7.5623584    738.84733  0.017383007   0.01647766          572 
 3543000    0.6889666   -7.5903756     738.8439   0.01737802  0.016471708          594 
 3544000   0.69450316   -7.5780761    738.88095  0.017373988  0.016465754          369 
 3545000   0.68918818   -7.5676793    740.56962  0.017408783  0.016459807          447 
 3546000   0.67865302   -7.5495586     741.0233  0.017414535  0.016453866          669 
 3547000   0.69843218   -7.6127284    738.94819  0.017360873  0.016447919          659 
 3548000   0.67239152   -7.5863602    740.08706  0.017382729  0.016441974          480 
 3549000   0.69834528   -7.6212403    738.50243  0.017340622  0.016436024          713 
 3550000   0.69965738   -7.5711138    738.12651  0.017326913  0.016430058          500 
 3551000    0.6874624   -7.6076066    739.11344  0.017345195  0.016424108          657 
 3552000    0.6701427   -7.5868468    739.10293  0.017340065  0.016418158          705 
 3553000    0.6961418    -7.580428    739.89391  0.017353737  0.016412212          476 
 3554000   0.69241766   -7.5879871    739.63825  0.017342859  0.016406266          514 
 3555000   0.68393875    -7.599586    738.48893  0.017311039  0.016400307          498 
 3556000   0.69306891   -7.5701407    739.11265  0.017320788  0.016394366          623 
 3557000    0.6759799   -7.5835841    739.46714  0.017324223  0.016388424          534 
 3558000   0.68500907   -7.5815361    739.17995  0.017312628   0.01638248          645 
 3559000   0.68825538   -7.5817025    738.67253  0.017295882  0.016376541          536 
 3560000   0.69134493   -7.6079643    739.28635  0.017305392  0.016370608          515 
 3561000   0.68364576    -7.588377    740.62211  0.017331791  0.016364674          488 
 3562000   0.67830714   -7.5632561    740.89654  0.017333346  0.016358729          559 
 3563000   0.66629387   -7.5638654    740.69504  0.017323768  0.016352794          479 
 3564000   0.67817207   -7.5888035    739.57655  0.017292755  0.016346869          513 
 3565000   0.67218894    -7.588231    738.82645  0.017270371   0.01634094          498 
 3566000   0.67481849   -7.5577491    740.63236  0.017307729  0.016335017          577 
 3567000    0.6795994   -7.5790615    739.75048  0.017282274  0.016329112          633 
 3568000   0.68754637   -7.5761061    740.55983  0.017296334  0.016323193          534 
 3569000   0.69196319    -7.605335    738.23571  0.017237221  0.016317278          624 
 3570000   0.67902328   -7.5599052    739.41322  0.017259879  0.016311358          720 
 3571000   0.67782102   -7.5942183    737.92971  0.017220426  0.016305433          550 
 3572000   0.68864568   -7.5823501    737.08613  0.017195925  0.016299525          605 
 3573000   0.69172953   -7.6031068    738.41373  0.017222076  0.016293608          647 
 3574000    0.6808481   -7.5908445    739.46862  0.017241854  0.016287676          640 
 3575000   0.69527081   -7.6147254    737.61224  0.017193758  0.016281752          635 
 3576000   0.67916784   -7.5956137    740.33103  0.017252308  0.016275848          516 
 3577000   0.66966133   -7.5979115    739.11251  0.017219097  0.016269938          525 
 3578000   0.68877618    -7.594558    738.73525  0.017205498  0.016264019          676 
 3579000   0.69798274   -7.5852277    737.93986  0.017182171  0.016258104          517 
 3580000    0.6838416    -7.593603    737.89563  0.017176342  0.016252191          536 
 3581000   0.68798559   -7.5984219    738.93147   0.01719565  0.016246279          651 
 3582000    0.6631111    -7.608404    738.75052   0.01718664  0.016240378          741 
 3583000   0.69073832   -7.6070473    738.72598  0.017181272   0.01623446          547 
 3584000   0.67695751   -7.6100184    738.19849  0.017164213  0.016228541          737 
 3585000   0.69764811   -7.6051009    740.37709  0.017210067  0.016222616          472 
 3586000   0.68011054   -7.6219665    737.80927  0.017145596  0.016216716          666 
 3587000   0.67274683   -7.6025173    738.65899  0.017160556  0.016210803          501 
 3588000   0.68090517   -7.6054577    737.64659   0.01713226  0.016204911          712 
 3589000   0.68176467   -7.6224366    738.13575  0.017138844   0.01619902          730 
 3590000   0.67507346   -7.6095081    737.62709  0.017122263   0.01619313          711 
 3591000   0.67819099   -7.5968183    738.77237  0.017144072   0.01618723          509 
 3592000   0.67514461   -7.6267327    737.76183  0.017115855  0.016181336          698 
 3593000   0.68811594   -7.6039932    739.47925  0.017150924  0.016175448          752 
 3594000   0.67554131   -7.6020195    738.77105  0.017129731  0.016169569          803 
 3595000   0.68632201    -7.587868    738.81726  0.017126038  0.016163719          435 
 3596000   0.67740765   -7.6084147    739.93812   0.01714725  0.016157853          703 
 3597000   0.68436805   -7.6006695    739.12343  0.017123608  0.016151986          717 
 3598000   0.68066862   -7.5946091    737.56231  0.017082692  0.016146127          748 
 3599000   0.68692265   -7.5998351    739.67768  0.017126926  0.016140288          463 
 3600000    0.6955522   -7.6193529    738.93303  0.017104931  0.016134437          573 
 3601000   0.67405636   -7.6147577    740.27675  0.017131277   0.01612859          747 
 3602000   0.68723215   -7.6147429    739.75045  0.017114345  0.016122755          448 
 3603000   0.67571167   -7.5848536    740.63448  0.017130042  0.016116918          444 
 3604000    0.6743075   -7.6227789    737.89752  0.017062003  0.016111071          667 
 3605000   0.68793147   -7.6165687    739.16903  0.017086663  0.016105217          715 
 3606000   0.68442355   -7.5959408    739.37012  0.017086572  0.016099387          658 
 3607000    0.6617024   -7.6185955    738.37756  0.017058903  0.016093529          690 
 3608000    0.6683477   -7.6152241    736.89603  0.017019956  0.016087663          807 
 3609000   0.68212704   -7.6349523    738.24051  0.017046285  0.016081792          783 
 3610000   0.68278947   -7.6352021    738.26968  0.017042236  0.016075932          727 
 3611000   0.68084141   -7.6276876    737.04723  0.017009306  0.016070058          805 
 3612000    0.6769459     -7.61604    739.72815  0.017066449  0.016064199          876 
 3613000   0.66863832    -7.624243    738.68442  0.017037651  0.016058337          744 
 3614000   0.68107721   -7.6167516    738.45184  0.017027574  0.016052488          729 
 3615000    0.6620461   -7.6142966    738.35034  0.017020524  0.016046632          746 
 3616000    0.6738254   -7.6132891    737.41229  0.016994199  0.016040792          759 
 3617000   0.66671121   -7.6381376    738.02601   0.01700364  0.016034963          520 
 3618000   0.67387421   -7.6286937    737.39442  0.016984393  0.016029123          710 
 3619000   0.68022709    -7.614485    737.34012   0.01697845  0.016023282          696 
 3620000   0.65214493   -7.6265329    737.20516  0.016970653   0.01601746          574 
 3621000   0.68075337   -7.6216679    738.04124  0.016985208  0.016011628          746 
 3622000    0.6798343   -7.6483239    737.30915  0.016963674  0.016005781          672 
 3623000   0.66285036    -7.647513    737.33628  0.016959616  0.015999935          756 
 3624000   0.67043751   -7.6336232    738.50222  0.016981747  0.015994105          756 
 3625000   0.67449066    -7.619851    737.72554  0.016959208  0.015988256          806 
 3626000   0.67877132   -7.6430852    736.35268  0.016922979  0.015982409          805 
 3627000   0.66733139   -7.6227966    739.09307  0.016981276  0.015976584          776 
 3628000    0.6635169   -7.6141761    739.19699  0.016978983  0.015970765          812 
 3629000   0.66220144    -7.642027     738.0549  0.016948078  0.015964941          834 
 3630000   0.66668035   -7.6527185    737.88572  0.016939525  0.015959127          639 
 3631000   0.67635893   -7.6324075    737.51961  0.016926458    0.0159533          846 
 3632000   0.67509167    -7.637526    737.49198  0.016921163  0.015947483          835 
 3633000   0.66828715   -7.6491117    738.53918  0.016940526  0.015941662          933 
 3634000   0.68604984   -7.6349004    738.61557  0.016937616  0.015935848          798 
 3635000   0.67114805   -7.6136306    737.33303  0.016903554  0.015930029          882 
 3636000   0.65470109   -7.6471925    736.53578  0.016880633  0.015924206          708 
 3637000   0.68178813   -7.6405917    738.68459  0.016925227  0.015918388          694 
 3638000   0.67088797   -7.6581304    737.01197  0.016882261   0.01591258          893 
 3639000   0.67847585    -7.641608      736.975  0.016876775  0.015906772          842 
 3640000   0.65139054   -7.6370648    737.77901  0.016890545  0.015900963          932 
 3641000   0.67636552   -7.6512965    736.92828  0.016866435  0.015895139          723 
 3642000   0.66315333   -7.6060599    738.68918  0.016902096   0.01588933          997 
 3643000   0.66725237   -7.6528906    737.09553  0.016861001  0.015883522          936 
 3644000   0.67236536   -7.6154654    737.09812  0.016856433  0.015877716         1000 
 3645000   0.68175544   -7.6322021    739.29624  0.016902063  0.015871928         1000 
 3646000   0.66904877   -7.6523896    736.63881  0.016836689  0.015866128          645 
 3647000   0.66104657   -7.6159445    736.85024  0.016836903  0.015860339          942 
 3648000   0.67009598    -7.646526    738.12275  0.016861357  0.015854537          767 
 3649000   0.64891895   -7.6528098    736.63175  0.016822685  0.015848735          814 
 3650000   0.68017871   -7.6350463     736.7624  0.016821059  0.015842933          951 
 3651000   0.67951859    -7.645013    737.29526  0.016828615  0.015837135          943 
 3652000   0.66909167   -7.6217236    738.41001  0.016849443  0.015831325          947 
 3653000   0.64896995   -7.6895618    735.87221  0.016786938  0.015825522         1091 
 3654000   0.66508156   -7.6521683    736.47313  0.016796048  0.015819714          868 
 3655000   0.67248838   -7.6802321    737.44761  0.016813671  0.015813907          987 
 3656000   0.66191585   -7.6647441    736.09937  0.016778341  0.015808101          850 
 3657000   0.63188379   -7.6451131    735.98391  0.016771122  0.015802313          958 
 3658000   0.67067802   -7.6598278      737.657  0.016804652  0.015796525          912 
 3659000   0.67306952   -7.6443582    736.44702  0.016772502  0.015790742          987 
 3660000   0.66095384   -7.6411789    737.90892  0.016801205  0.015784958          972 
 3661000    0.6669964   -7.6477447    736.92699  0.016774265  0.015779169          972 
 3662000   0.67014794   -7.6695062    736.57385  0.016761648  0.015773381         1128 
 3663000    0.6695936   -7.6692344    737.14479  0.016770061  0.015767583          645 
 3664000   0.67282295   -7.6667095    735.67034  0.016731949  0.015761803         1074 
 3665000   0.67833116   -7.6348544    736.48432  0.016745892  0.015756031         1052 
 3666000   0.66146148   -7.6678755    736.52331   0.01674221  0.015750243         1027 
 3667000   0.66663761   -7.6569772    737.10792   0.01675093  0.015744467         1096 
 3668000   0.65941408   -7.6742378     736.0128  0.016721483  0.015738676         1017 
 3669000   0.66757151   -7.6770651    735.58005  0.016707097  0.015732895         1066 
 3670000   0.66043829   -7.6570747    735.29218  0.016696008  0.015727117         1014 
 3671000   0.65765879    -7.682287    735.30585   0.01669177  0.015721346         1056 
 3672000   0.66799649   -7.6791559     737.2171  0.016730599   0.01571556          949 
 3673000   0.66463663   -7.6528158    736.87369  0.016718252  0.015709778          926 
 3674000   0.65455238   -7.6466631      735.721  0.016687557  0.015703996          904 
 3675000    0.6589222   -7.6670991    737.08967  0.016714051  0.015698229          980 
 3676000   0.67186445   -7.6433572    737.31551  0.016714624  0.015692472          940 
 3677000   0.66108777   -7.6633024    737.38943  0.016711754  0.015686707         1076 
 3678000   0.67897002   -7.6576368    737.16236  0.016702066  0.015680938          964 
 3679000   0.65958189   -7.6868025    736.64696  0.016685851  0.015675165         1085 
 3680000   0.65030351   -7.6806454    736.48209  0.016677584  0.015669395         1078 
 3681000   0.66199209   -7.6457274    735.31174  0.016646558  0.015663645          961 
 3682000   0.66055105   -7.6741909    736.39399  0.016666531   0.01565788         1137 
 3683000   0.66405554   -7.6817308    736.94565  0.016674487  0.015652118         1158 
 3684000   0.67093343   -7.6480717    737.07204   0.01667282  0.015646369         1119 
 3685000   0.65665911   -7.6708407    736.77206  0.016661512  0.015640614         1117 
 3686000   0.65273339   -7.6722714    736.52825   0.01665148  0.015634867         1011 
 3687000   0.64257789   -7.6624415    735.10164  0.016614719  0.015629116         1147 
 3688000   0.67427793   -7.6621534    735.97829  0.016630023  0.015623348         1196 
 3689000   0.68024246   -7.6620394    735.15719  0.016606967  0.015617599         1124 
 3690000   0.66331602   -7.6731043     736.8234  0.016640095  0.015611859         1097 
 3691000   0.65032739   -7.6706155    735.07207  0.016596046  0.015606108         1122 
 3692000   0.64049382   -7.6703396    735.29723  0.016596633  0.015600365         1129 
 3693000   0.64596003   -7.6788803    736.94128  0.016629237  0.015594616         1036 
 3694000   0.66277869   -7.6650388    735.39545  0.016589863  0.015588868         1129 
 3695000   0.66724721   -7.6729958    736.44298  0.016608998  0.015583121         1154 
 3696000    0.6581903   -7.6925553    736.36521  0.016602751  0.015577371         1124 
 3697000   0.65395833   -7.6849843    736.10472  0.016592388  0.015571634         1215 
 3698000   0.67184764   -7.6788067    737.11665  0.016610705  0.015565903         1199 
 3699000   0.65707685   -7.6593068    736.03879  0.016581932   0.01556016         1202 
 3700000   0.66670477   -7.6766775     736.3455  0.016584358  0.015554426         1146 
 3701000   0.65906804   -7.6870876    735.79466  0.016567474    0.0155487         1088 
 3702000   0.66155795   -7.6671214     735.4303  0.016554797  0.015542975         1101 
 3703000   0.66505594    -7.668725    735.43615  0.016550458  0.015537252         1140 
 3704000   0.66286589    -7.680798    734.70658  0.016529576  0.015531519         1187 
 3705000   0.65423494   -7.6832672    736.06042  0.016555565  0.015525796         1165 
 3706000   0.66521604   -7.6747045    736.76264  0.016566888  0.015520073         1288 
 3707000   0.66421454   -7.6957876    734.73676  0.016516877  0.015514355         1213 
 3708000   0.66123225   -7.6745876    735.79153  0.016536128  0.015508644         1103 
 3709000   0.65061511   -7.6908877    736.05918  0.016537683  0.015502936         1248 
 3710000   0.65489381   -7.7068354    733.52832  0.016476377  0.015497205         1309 
 3711000    0.6510763   -7.6811241    736.72422  0.016543704   0.01549147         1195 
 3712000   0.64573673   -7.6974407    735.03583  0.016501343  0.015485752         1164 
 3713000   0.65964902   -7.6894841    736.36428  0.016526714  0.015480042         1009 
 3714000   0.67099985    -7.696661    735.30703  0.016498542  0.015474348         1116 
 3715000    0.6547658   -7.6845817    736.40798  0.016518797  0.015468642         1110 
 3716000   0.65966485   -7.7058935    735.29961  0.016489496  0.015462932         1076 
 3717000   0.63098256    -7.686902    735.08935  0.016480346  0.015457215         1171 
 3718000   0.64656671   -7.7000601    735.47023   0.01648445  0.015451502         1119 
 3719000   0.67120622   -7.6879124    735.95263  0.016490827  0.015445793         1076 
 3720000   0.66074092   -7.6793363     736.0616  0.016488835   0.01544009         1068 
 3721000   0.65883867   -7.7071247    735.00263  0.016460688  0.015434386         1112 
 3722000   0.65289149   -7.6825695    736.72401  0.016494806  0.015428692         1065 
 3723000   0.66110915   -7.6976999    734.30555  0.016436242  0.015422992         1147 
 3724000     0.652802   -7.6855459    733.12896  0.016405499  0.015417283         1141 
 3725000   0.65809246   -7.6890905    735.47873  0.016453663  0.015411578         1157 
 3726000   0.65323259   -7.7019131    732.46055  0.016381744  0.015405873         1224 
 3727000   0.66338839   -7.6855077    736.95846  0.016477919  0.015400179         1173 
 3728000   0.66357673   -7.6898624    734.87726  0.016426977  0.015394486         1251 
 3729000   0.65549011   -7.7173706    735.34591  0.016433045  0.015388783         1230 
 3730000   0.64873462   -7.7005289    734.73895  0.016415079  0.015383083         1174 
 3731000   0.64573619    -7.713352    734.56516  0.016406798  0.015377394         1262 
 3732000   0.64975802   -7.7142783    734.99038  0.016411897  0.015371701         1271 
 3733000   0.64746046    -7.696863    735.09784  0.016409899   0.01536602         1271 
 3734000   0.66098002   -7.7099666    734.18674  0.016385171  0.015360341         1292 
 3735000   0.65397469    -7.695138    733.39933  0.016363216  0.015354652         1353 
 3736000   0.65555707   -7.6974213    734.42527   0.01638172   0.01534897         1311 
 3737000   0.65388091    -7.714863    734.51668  0.016379375  0.015343286         1291 
 3738000   0.65814635   -7.6918299    735.61631  0.016399507  0.015337607         1362 
 3739000   0.65353825    -7.708388    735.07346  0.016383023  0.015331918         1256 
 3740000    0.6433248   -7.7090647     734.0494  0.016355825  0.015326238         1259 
 3741000   0.65642023   -7.7141425    734.98441   0.01637228  0.015320558         1373 
 3742000   0.64899451   -7.7201498    735.23606  0.016373509  0.015314884         1279 
 3743000   0.65257412   -7.7180829    733.47063   0.01632983  0.015309201         1355 
 3744000   0.64758422   -7.7072521    734.55083  0.016349511  0.015303523         1306 
 3745000   0.65670302   -7.7088623    733.74454  0.016327204  0.015297851         1396 
 3746000   0.65253121   -7.6992251    734.64111   0.01634279  0.015292182         1340 
 3747000   0.64664278   -7.6821682    734.28031  0.016330404  0.015286518         1343 
 3748000   0.63387536   -7.7234259     733.9488  0.016318677  0.015280852         1315 
 3749000   0.64087292   -7.7019689    735.01089  0.016337932   0.01527519         1232 
 3750000   0.65624706   -7.7450441    732.93039  0.016287342  0.015269523         1423 
 3751000   0.63452358    -7.704937    735.34089  0.016336552  0.015263854         1421 
 3752000    0.6518522   -7.7154563    733.98742  0.016302137  0.015258191         1318 
 3753000   0.64064077   -7.7034213    733.33545  0.016283317  0.015252534         1234 
 3754000   0.66676425   -7.7124539    735.53229  0.016327746  0.015246879         1276 
 3755000   0.62556928   -7.7130673    732.72575  0.016261113  0.015241229         1327 
 3756000   0.67513897   -7.7181283    733.27159  0.016268894  0.015235574         1337 
 3757000   0.64546782   -7.7199894    733.62403  0.016272381  0.015229932         1380 
 3758000   0.63821396   -7.6898418    734.66289  0.016291088  0.015224281         1208 
 3759000   0.64034454   -7.7056939    734.07693  0.016273764  0.015218637         1380 
 3760000   0.65032714    -7.718392    734.56165  0.016280178  0.015212981         1410 
 3761000   0.64406456   -7.7141212    732.48741   0.01622989  0.015207326         1426 
 3762000   0.65907679   -7.7242017    733.62902  0.016250864  0.015201682         1494 
 3763000    0.6533416    -7.720613    732.38181  0.016218926  0.015196026         1399 
 3764000   0.66627543   -7.7141104     734.1204  0.016253108  0.015190376         1424 
 3765000   0.66335062   -7.7050287    732.55025  0.016214038  0.015184728         1379 
 3766000   0.64197629   -7.7155967      733.663  0.016234356  0.015179072         1418 
 3767000   0.64330601   -7.7364895    735.03691  0.016260439  0.015173419         1382 
 3768000   0.65291504   -7.7341313    734.09766  0.016235352  0.015167777         1448 
 3769000   0.63570817   -7.7313231    733.64176  0.016220964  0.015162143         1409 
 3770000   0.65903282   -7.7456968    733.06255  0.016203858  0.015156498         1420 
 3771000   0.64802986   -7.7131735    733.79827   0.01621582  0.015150872         1395 
 3772000   0.63550613   -7.7416052    732.80767  0.016189636   0.01514524         1463 
 3773000   0.64620678    -7.726474     732.3119  0.016174395  0.015139615         1428 
 3774000   0.65753477   -7.7160784    734.76949  0.016224375  0.015133989         1394 
 3775000   0.66027211   -7.7198849    733.06398  0.016182428  0.015128349         1478 
 3776000   0.64294956   -7.7415592    733.85964  0.016195702  0.015122717         1526 
 3777000   0.65212228   -7.7508585    733.37689  0.016180763  0.015117087         1516 
 3778000   0.65319427   -7.7293867    733.20008   0.01617258  0.015111456         1415 
 3779000   0.65788317   -7.7570011    733.87356  0.016183152  0.015105819         1469 
 3780000   0.64234304   -7.7305213    732.53318   0.01614932  0.015100175         1453 
 3781000    0.6433055    -7.724702     731.6897  0.016126459  0.015094548         1362 
 3782000   0.62656618   -7.7301569    732.55473  0.016141255  0.015088926         1512 
 3783000   0.65534057   -7.7418736    732.95949  0.016145905  0.015083296         1456 
 3784000   0.64287348   -7.7225081    733.60081  0.016155761  0.015077681         1429 
 3785000   0.64093903   -7.7590626    733.36163  0.016146227  0.015072059         1510 
 3786000   0.65539211   -7.7528133    733.51795  0.016145403  0.015066445         1530 
 3787000   0.63912164   -7.7278151    733.25503  0.016135354  0.015060836         1565 
 3788000   0.65060851   -7.7370313    733.07247  0.016127078  0.015055229         1481 
 3789000   0.64267724   -7.7315755    734.02665  0.016143808  0.015049629         1515 
 3790000   0.64508376   -7.7463828    733.17764   0.01612088  0.015044033         1464 
 3791000    0.6328344   -7.7366606    732.61404  0.016104239   0.01503843         1478 
 3792000   0.64494929    -7.737601     731.9166  0.016084665  0.015032837         1487 
 3793000   0.65649185   -7.7697992    730.99262  0.016060124  0.015027227         1559 
 3794000   0.64946485   -7.7373085     732.7065  0.016093536  0.015021625         1481 
 3795000   0.63708802   -7.7381782    732.35624  0.016081604  0.015016028         1396 
 3796000   0.65113394   -7.7393972    733.68014  0.016106431  0.015010438         1381 
 3797000   0.64606698    -7.739091    732.83254  0.016083587  0.015004852         1429 
 3798000    0.6441163   -7.7345036    734.08405  0.016106812  0.014999279         1428 
 3799000    0.6449045   -7.7561234    733.66846  0.016093456  0.014993701         1460 
 3800000    0.6406531   -7.7421495    733.31153  0.016081393  0.014988122         1409 
 3801000   0.64906715   -7.7442801    733.05072  0.016071444   0.01498255         1560 
 3802000   0.64894037   -7.7522633    733.82397  0.016084166  0.014976982         1453 
 3803000   0.64407586   -7.7357468    733.42464  0.016071186  0.014971414         1557 
 3804000   0.64860477   -7.7510304    733.02568  0.016058221  0.014965849         1484 
 3805000   0.63432185   -7.7523473     731.4393  0.016019258  0.014960281         1569 
 3806000   0.64410102   -7.7585301    732.78645  0.016044545   0.01495472         1560 
 3807000   0.65948015    -7.764931    732.86427  0.016042034   0.01494914         1647 
 3808000   0.65256858   -7.7587115    733.06879  0.016042297  0.014943572         1568 
 3809000   0.63835505   -7.7478908    733.73842  0.016052735  0.014938006         1437 
 3810000   0.65016146   -7.7426068    732.88476   0.01602985  0.014932441         1587 
 3811000     0.635258   -7.7579093    732.87258  0.016025378  0.014926873         1575 
 3812000   0.64998839   -7.7371418    733.25699  0.016029578  0.014921321         1557 
 3813000   0.64896909   -7.7352129    732.13266  0.016000801  0.014915777         1601 
 3814000   0.63984983   -7.7641755    733.01894   0.01601597  0.014910221         1521 
 3815000   0.65480958   -7.7571892    733.45161  0.016021224  0.014904668         1604 
 3816000   0.63254114   -7.7489337    732.55627  0.015997473   0.01489912         1614 
 3817000   0.63946243   -7.7498184    732.60978   0.01599445  0.014893571         1596 
 3818000   0.64296425   -7.7523758    734.37328  0.016028752  0.014888027         1656 
 3819000   0.64295265    -7.748746    732.56169  0.015985024   0.01488248         1520 
 3820000   0.65099749   -7.7405764    733.03155   0.01599109  0.014876934         1617 
 3821000   0.63210453   -7.7457664    733.45743  0.015996193  0.014871394         1568 
 3822000   0.64227503    -7.765433    731.20088  0.015942807  0.014865863         1662 
 3823000   0.64570403   -7.7505033    731.91816  0.015954271  0.014860328         1655 
 3824000   0.64053292   -7.7432673    733.55136   0.01598569  0.014854795         1692 
 3825000    0.6297031   -7.7695206    731.38715  0.015934361  0.014849262         1651 
 3826000   0.63142518   -7.7665409    731.98935  0.015943312  0.014843722         1712 
 3827000   0.64226262   -7.7981745    732.44237  0.015949011  0.014838186         1758 
 3828000   0.64121738   -7.7660288    732.62459  0.015948811  0.014832662         1644 
 3829000   0.63610316   -7.7677443    732.55671  0.015943169   0.01482714         1638 
 3830000    0.6435433   -7.7371856    731.87239  0.015924116  0.014821619         1663 
 3831000    0.6396437   -7.7372319    732.15696   0.01592615  0.014816104         1732 
 3832000   0.64383889   -7.7679255    731.60595  0.015910011  0.014810588         1678 
 3833000   0.64688014   -7.7578903    731.77704   0.01590958  0.014805068         1713 
 3834000   0.63972056   -7.7577251    733.30861   0.01593872  0.014799563         1582 
 3835000   0.62871265   -7.7508477    732.34559  0.015913637  0.014794056         1774 
 3836000   0.63559621   -7.7429925    732.06365  0.015903364  0.014788547         1674 
 3837000   0.63650386   -7.7599341      732.665   0.01591228  0.014783054         1768 
 3838000   0.62727003   -7.7888891    732.95596  0.015914451  0.014777554         1679 
 3839000   0.65629171   -7.7762236    732.16596  0.015893157  0.014772052         1693 
 3840000   0.64083037   -7.7821261    731.09432  0.015865762  0.014766558         1727 
 3841000   0.63030654   -7.7292289    732.70433  0.015896562  0.014761054         1587 
 3842000   0.65078693   -7.7440186     731.5564  0.015867526  0.014755572         1546 
 3843000   0.61284918   -7.7752907    731.82732  0.015869271  0.014750077         1659 
 3844000   0.62778369   -7.7668239    731.27406  0.015853149  0.014744585         1542 
 3845000   0.64561863   -7.7575159    732.77594  0.015881577  0.014739094         1559 
 3846000   0.63590917   -7.7860377    733.16333  0.015885841  0.014733606         1568 
 3847000   0.63231911   -7.7565118    731.55481  0.015846868  0.014728138         1533 
 3848000   0.63896081    -7.769016    731.43936   0.01584025   0.01472266         1556 
 3849000   0.64036947   -7.7558288    733.37304     0.015878   0.01471719         1631 
 3850000   0.63430906   -7.7481081    732.62912  0.015857773  0.014711722         1548 
 3851000     0.635795   -7.7455522    731.60707  0.015831539  0.014706245         1684 
 3852000   0.63601571   -7.7592983     732.7428  0.015851999  0.014700772         1661 
 3853000   0.63297435   -7.7720089    732.27731  0.015837817    0.0146953         1693 
 3854000   0.64030386   -7.7711509    731.10135   0.01580828  0.014689817         1560 
 3855000   0.63183508    -7.784851    731.86383  0.015820662  0.014684343         1634 
 3856000    0.6388287   -7.7651627    731.38182  0.015806142  0.014678871         1708 
 3857000   0.64400683   -7.7466741    732.77533  0.015832152  0.014673399         1669 
 3858000   0.62526949   -7.7792064    730.84002  0.015786245  0.014667935         1670 
 3859000    0.6319967   -7.7495779    732.43337  0.015816562  0.014662468         1670 
 3860000   0.63776317   -7.7910045    731.03263  0.015782224   0.01465702         1803 
 3861000   0.63026509   -7.7670138    732.02924  0.015799647  0.014651565         1821 
 3862000   0.63850697   -7.7763372    732.72023  0.015810466  0.014646108         1743 
 3863000   0.62726526   -7.7603995    732.46545  0.015800877  0.014640663         1725 
 3864000   0.63107165   -7.7820941    731.57864  0.015777662  0.014635212         1734 
 3865000   0.62528151   -7.7554299    733.42039   0.01581329  0.014629765         1712 
 3866000   0.62807868   -7.7702692      732.897  0.015797918  0.014624321         1741 
 3867000   0.63307939     -7.76983    732.36693  0.015782409  0.014618876         1673 
 3868000   0.63484414   -7.7749948    731.57504  0.015761269  0.014613433         1793 
 3869000   0.64124289   -7.7651327    730.75138  0.015739454     0.014608         1760 
 3870000   0.63154414   -7.7611247    732.57146  0.015774579  0.014602572         1742 
 3871000   0.64655314   -7.7733033    730.57172  0.015727454  0.014597153         1787 
 3872000   0.63447506   -7.7563251    731.98972  0.015753911  0.014591729         1571 
 3873000   0.62958431   -7.7981988    731.25112  0.015733951  0.014586308         1627 
 3874000   0.63032442   -7.7710856      732.228  0.015750903  0.014580877         1639 
 3875000   0.64354504    -7.791511     731.5603   0.01573248  0.014575448         1610 
 3876000   0.62169234    -7.784677    731.50184  0.015727164  0.014570019         1653 
 3877000   0.63853764   -7.8017661    730.29943  0.015697262  0.014564593         1692 
 3878000    0.6335034   -7.7847893    733.15749  0.015754631  0.014559165         1752 
 3879000    0.6239608   -7.7623882    733.80665  0.015764515  0.014553752         1703 
 3880000   0.62822065   -7.7953341    731.85541  0.015718544  0.014548331         1782 
 3881000   0.63028683   -7.7695131    730.85035  0.015692913  0.014542917         1646 
 3882000   0.62699236    -7.779892    731.48176  0.015702425  0.014537513         1714 
 3883000   0.64192343   -7.7838076    732.51514  0.015720559  0.014532108         1593 
 3884000    0.6363746   -7.7447909    733.15992  0.015730345   0.01452671         1684 
 3885000   0.64373824    -7.779894    731.94414  0.015700217  0.014521311         1620 
 3886000   0.63528885   -7.8071804    731.47539  0.015686125  0.014515914         1787 
 3887000   0.63696945   -7.7789755    731.69031  0.015686697  0.014510515         1694 
 3888000   0.63589713   -7.7836028    730.99939  0.015667854  0.014505121         1670 
 3889000   0.62916566   -7.8001323    732.02108  0.015685718  0.014499712         1732 
 3890000   0.62847759   -7.7894769    730.81492  0.015655847  0.014494316         1825 
 3891000   0.63210896   -7.7643382    732.73651  0.015692978  0.014488922         1686 
 3892000   0.63378963   -7.7696757    731.77731  0.015668408   0.01448353         1766 
 3893000   0.61900366   -7.7956009    732.78042  0.015685855  0.014478141         1825 
 3894000   0.63007603   -7.7992441    731.03539  0.015644483  0.014472751         1808 
 3895000   0.63192361    -7.800964    732.00774   0.01566127  0.014467362         1763 
 3896000   0.63586641   -7.7822012    731.20812  0.015640146  0.014461979         1829 
 3897000    0.6327538   -7.8150711     731.6605  0.015645807  0.014456597         1909 
 3898000   0.63246198   -7.7992816    731.09404  0.015629683  0.014451215         1949 
 3899000   0.63554564   -7.8051865    731.63666  0.015637272  0.014445832         1882 
 3900000   0.62065937   -7.8190249    730.91605  0.015617864  0.014440448         1943 
 3901000   0.63394215   -7.8078264    730.67097  0.015608625   0.01443506         1906 
 3902000   0.63248913   -7.8129707    731.13198  0.015614471  0.014429687         1863 
 3903000     0.631434   -7.7681749    730.92524  0.015606056  0.014424307         1951 
 3904000   0.63155753   -7.7854714    731.93819  0.015623681  0.014418934         1887 
 3905000   0.61434173   -7.7783201    730.69475  0.015593144  0.014413567         1819 
 3906000   0.61477223   -7.8021193    730.91283  0.015593805  0.014408186         1775 
 3907000   0.64310394   -7.8075515    730.60856  0.015583324  0.014402815         1862 
 3908000   0.61896197   -7.8044544    731.32958  0.015594711  0.014397449         1917 
 3909000   0.63001325   -7.7882111    729.60593  0.015553977  0.014392085         1838 
 3910000   0.63046083   -7.8089053    731.75227  0.015595743  0.014386721         1958 
 3911000   0.63822018   -7.7929941    730.55858  0.015566321  0.014381363         1898 
 3912000   0.62569486   -7.8004047    730.79485  0.015567375  0.014376009         1825 
 3913000   0.62841097    -7.807583    732.55401  0.015600861   0.01437065         1921 
 3914000   0.62077489   -7.8034301    730.72446  0.015557921    0.0143653         1864 
 3915000   0.62669313   -7.8053024    731.28011  0.015565775  0.014359947         1849 
 3916000   0.63555914   -7.8131689    732.03479   0.01557786   0.01435459         1882 
 3917000   0.62816997   -7.8306181    730.18723  0.015534576  0.014349237         1863 
 3918000   0.62920691   -7.7905597    731.56604  0.015559938   0.01434389         1868 
 3919000   0.63350592   -7.7884572    730.78829  0.015539429  0.014338548         1973 
 3920000   0.62305558   -7.8170874    731.34131  0.015547222  0.014333198         1832 
 3921000   0.63330992   -7.7983779    730.62874  0.015528112  0.014327861         1829 
 3922000   0.63368616   -7.7902587    732.01488  0.015553605  0.014322529         1940 
 3923000   0.62949941   -7.8003625    731.52246   0.01553918  0.014317196         1974 
 3924000    0.6098989   -7.8222422    730.11135  0.015505253  0.014311853         1971 
 3925000   0.62418982   -7.8087195    730.54918  0.015510598  0.014306518         2016 
 3926000   0.62822153   -7.8087871    730.95574  0.015515277  0.014301186         1860 
 3927000   0.61803233   -7.8017179    731.38832  0.015520506  0.014295862         1955 
 3928000   0.61541887   -7.8174216    730.39046  0.015495385  0.014290539         1966 
 3929000   0.62400902   -7.8025719    731.11037   0.01550671  0.014285216         1927 
 3930000   0.61862111   -7.8297076    730.66608  0.015493343  0.014279888         1882 
 3931000   0.62692751   -7.7942181    731.71565  0.015511652  0.014274567         1951 
 3932000   0.61916225   -7.8255894     729.9141  0.015469526  0.014269245         1905 
 3933000   0.63061673   -7.8067644    731.68781  0.015503174  0.014263924         1875 
 3934000   0.62181499   -7.7973406    731.36626  0.015492422  0.014258612         1917 
 3935000   0.61141224   -7.8160742    730.59009  0.015472048    0.0142533         1933 
 3936000   0.62086417    -7.807873    730.75352  0.015471577  0.014247992         1976 
 3937000   0.61490368   -7.8076373    730.43827  0.015460974  0.014242685         1962 
 3938000   0.61841276   -7.7964011    728.98708  0.015426339  0.014237375         1723 
 3939000   0.60468327     -7.79136    731.98015  0.015485744  0.014232071         1888 
 3940000   0.62819921   -7.8081547    730.91864  0.015459362  0.014226768         1799 
 3941000   0.62775232   -7.8059189    730.43709  0.015445257  0.014221474         1926 
 3942000   0.62302778   -7.8050484    731.65252  0.015467033  0.014216173         1959 
 3943000   0.61944351   -7.8200539    729.63376  0.015420445  0.014210877         1961 
 3944000   0.61795005   -7.8075345    728.61813  0.015395075   0.01420558         1976 
 3945000   0.61728988   -7.8215386    729.95432  0.015419398  0.014200286         1963 
 3946000   0.62910453   -7.8112966    730.25098  0.015421756     0.014195         1970 
 3947000   0.62592744   -7.8097403    730.69575  0.015427239  0.014189716         1856 
 3948000   0.62174131   -7.8026805    729.86575  0.015405812  0.014184427         1936 
 3949000   0.63112686   -7.8052609    731.05206  0.015426945  0.014179143         1900 
 3950000   0.61724619    -7.803453    731.00798  0.015422109  0.014173868         1881 
 3951000   0.61721461   -7.8111519    730.93284  0.015416621  0.014168595         1884 
 3952000   0.62173283   -7.8377094    731.31917  0.015420866  0.014163321         1912 
 3953000   0.61151206   -7.8251643    731.23287  0.015415146  0.014158053         1867 
 3954000    0.6266594   -7.8169414    731.25082  0.015411626  0.014152793         1852 
 3955000   0.61972088   -7.8076286    730.09342  0.015383342  0.014147537         1910 
 3956000   0.63108521   -7.8084428    730.68516  0.015391919  0.014142272         1890 
 3957000   0.63481168   -7.8235937    731.84101  0.015412371  0.014137012         1913 
 3958000   0.62777914   -7.8015497    730.59759  0.015382297  0.014131746         1887 
 3959000   0.61888776   -7.8095531    730.89446  0.015384661  0.014126494         1877 
 3960000   0.61856258   -7.8227632    729.72713  0.015356211  0.014121245         1842 
 3961000   0.60363816   -7.8225566    729.67437  0.015351224  0.014115985         2017 
 3962000   0.61483729   -7.8203055    730.53938  0.015365543  0.014110732         1922 
 3963000   0.62852136   -7.8343203      728.171  0.015311864  0.014105484         1816 
 3964000    0.6122291   -7.8096627    731.02065  0.015367908   0.01410023         1856 
 3965000   0.61801258   -7.8319579    730.41859  0.015351379  0.014094978         1876 
 3966000   0.61262065   -7.8237383    730.70448  0.015353515   0.01408972         1874 
 3967000   0.61039286   -7.8032293    730.35637  0.015342332   0.01408447         1880 
 3968000    0.6184037   -7.8136813    730.36068  0.015338556  0.014079221         1871 
 3969000     0.628693   -7.8384753    730.12807  0.015329807  0.014073972         1931 
 3970000   0.63133009   -7.8098455    730.71125  0.015338187  0.014068726         1904 
 3971000   0.61526845   -7.8266392    729.58458  0.015310681  0.014063485         1915 
 3972000   0.60480521    -7.841725    729.56136  0.015306339  0.014058244         1898 
 3973000   0.61882395    -7.849089    730.01957  0.015312098     0.014053         1875 
 3974000   0.61730927   -7.8417539     730.8276  0.015325189   0.01404776         1830 
 3975000   0.60067235   -7.8410004    729.79564  0.015299699  0.014042518         1905 
 3976000    0.6243203   -7.8524754    729.76793   0.01529527  0.014037283         1904 
 3977000   0.61663736    -7.833192    729.50277  0.015285868  0.014032053         1958 
 3978000   0.60873374    -7.843711    729.65108  0.015285132  0.014026823         1929 
 3979000   0.62084597   -7.8226739    731.15212  0.015312728  0.014021594         1800 
 3980000   0.60378083   -7.8245631    729.45597  0.015273366  0.014016372         1971 
 3981000   0.61462453   -7.8243757    729.63879  0.015273357  0.014011149         1882 
 3982000   0.61649127   -7.8178228     730.4395  0.015286278  0.014005932         1890 
 3983000   0.61210097   -7.8427229    729.01711   0.01525268  0.014000719         1898 
 3984000   0.61375207   -7.8445362    729.24848  0.015253691  0.013995501         1970 
 3985000   0.60484194    -7.835385    728.63272  0.015236987   0.01399028         1998 
 3986000   0.61026826   -7.8268266     730.3722  0.015269531  0.013985067         1828 
 3987000   0.61206147   -7.8265796    729.61948  0.015249968  0.013979847         1901 
 3988000   0.60797925   -7.8295914    729.22695  0.015237942  0.013974639         1868 
 3989000   0.60702938   -7.8546624    728.19236  0.015212509  0.013969423         1949 
 3990000    0.5996599   -7.8431188    730.05232  0.015247542  0.013964212         1912 
 3991000   0.63024419   -7.8201176    730.17573  0.015246299   0.01395901         1859 
 3992000   0.61569712   -7.8339894    729.76362  0.015233876  0.013953808         1892 
 3993000   0.59456238   -7.8364245    729.92933   0.01523352  0.013948605         1885 
 3994000   0.61983526   -7.8441474      728.961  0.015209502  0.013943408         1904 
 3995000   0.60620244   -7.8217779    729.71511  0.015221425   0.01393821         1890 
 3996000   0.61866008   -7.8515006     728.9881  0.015202455   0.01393302         2017 
 3997000   0.61735399   -7.8556697    728.49876  0.015188449  0.013927833         1957 
 3998000   0.61883479   -7.8184726    730.37084  0.015223671  0.013922645         1893 
 3999000   0.62050027   -7.8522375    730.02547  0.015212667   0.01391746         1821 
 4000000   0.60462944   -7.8396529    728.58553  0.015178865  0.013912279         1880 
 4001000   0.61075817   -7.8477416    728.76829  0.015178878  0.013907103         1971 
 4002000   0.62041886   -7.8419093    730.06244  0.015202033  0.013901932         1969 
 4003000   0.60769905   -7.8268784    729.63951  0.015189431  0.013896761         2014 
 4004000   0.61130757   -7.8353059    730.45332  0.015202575  0.013891591         2020 
 4005000   0.61185816   -7.8508484    728.19368  0.015151762  0.013886417         1968 
 4006000   0.60076655   -7.8478997     729.4624  0.015174372   0.01388125         1954 
 4007000    0.6090517   -7.8232572     729.7317  0.015176185  0.013876082         1901 
 4008000   0.62049541   -7.8318911    730.26938  0.015183578   0.01387092         1891 
 4009000   0.61446068   -7.8437468    729.27842  0.015159192  0.013865757         1961 
 4010000   0.62553376   -7.8411226     729.1225  0.015152172  0.013860596         1940 
 4011000   0.61429247   -7.8332375    729.52929  0.015156846  0.013855435         1997 
 4012000   0.61120501    -7.856045    729.84601  0.015159646  0.013850277         1924 
 4013000   0.60020227   -7.8424965    730.28017  0.015164884  0.013845125         2054 
 4014000    0.6161278   -7.8489126    728.70412  0.015128387  0.013839971         1971 
 4015000   0.60562733   -7.8382417    728.76109  0.015125801  0.013834817         1953 
 4016000   0.61071368   -7.8440134    728.65187  0.015119768  0.013829667         2005 
 4017000   0.60457482   -7.8390753      730.289  0.015149967  0.013824525         1944 
 4018000    0.6069353   -7.8269426    728.49433  0.015108975  0.013819383         1961 
 4019000   0.62087325    -7.848464    729.05425  0.015116825  0.013814248         2044 
 4020000    0.6069104   -7.8389527    730.30453  0.015138983  0.013809113         1954 
 4021000   0.62163143    -7.833829    729.58768  0.015120362  0.013803979         1987 
 4022000   0.60816878   -7.8283737    730.93189  0.015144453  0.013798853         1955 
 4023000   0.61908892   -7.8462713    729.40359  0.015109031  0.013793728         1999 
 4024000   0.61586663   -7.8516434    730.01628  0.015117965  0.013788604         1982 
 4025000   0.61088333   -7.8463467    730.46143  0.015123425  0.013783483         1939 
 4026000   0.59900604   -7.8314248    729.52258  0.015100236  0.013778368         1953 
 4027000   0.60708876   -7.8383036    729.36686  0.015093263  0.013773253         1918 
 4028000   0.60460068   -7.8308548    729.57145  0.015093749   0.01376814         1962 
 4029000   0.61088581   -7.8310267    728.63073  0.015070545   0.01376303         1842 
 4030000   0.60318484   -7.8458942    730.93819   0.01511452  0.013757923         1889 
 4031000   0.60333711   -7.8110789    730.25103  0.015096565  0.013752825         1881 
 4032000    0.6007895   -7.8523951    728.62121  0.015059135  0.013747727         1920 
 4033000   0.60664179   -7.8288054    730.41847  0.015092538   0.01374263         1981 
 4034000   0.60253583   -7.8410538    729.74493  0.015074883  0.013737534         1967 
 4035000   0.61134162    -7.835689    728.15281  0.015038265  0.013732433         1978 
 4036000   0.62539978   -7.8562662    729.01136  0.015052266  0.013727336         1963 
 4037000   0.60874274    -7.860735    728.38475  0.015035603  0.013722237         2019 
 4038000    0.5912153   -7.8521572     728.6382   0.01503711  0.013717143         1936 
 4039000   0.60715681   -7.8478189    729.72006  0.015055708   0.01371205         1942 
 4040000   0.62623675   -7.8339581    729.03434  0.015037837   0.01370696         2001 
 4041000   0.60017371   -7.8413669    730.90517  0.015072696  0.013701871         2022 
 4042000   0.60978924   -7.8439963    728.94655  0.015028586  0.013696785         1998 
 4043000   0.60333081   -7.8604714    728.68558   0.01501949  0.013691707         1986 
 4044000   0.61555273   -7.8514998    728.83173  0.015018788  0.013686628         1942 
 4045000    0.6079949   -7.8585186    729.59404   0.01503078  0.013681549         1964 
 4046000   0.60008515   -7.8553301    730.30603  0.015041729  0.013676473         2054 
 4047000   0.60698926   -7.8518071    728.94452  0.015009977  0.013671406         1985 
 4048000   0.59433172   -7.8629028    728.28973  0.014992789  0.013666331         2051 
 4049000   0.60034428   -7.8491038    729.53754  0.015014768  0.013661257         1954 
 4050000   0.59913734   -7.8376868    728.15239  0.014982559  0.013656186         2044 
 4051000   0.59538589   -7.8548949    728.74417  0.014991034  0.013651116         1984 
 4052000   0.59524035    -7.862106    728.38418  0.014979931  0.013646049         2052 
 4053000   0.61872862   -7.8379262    728.71577  0.014983053  0.013640988         1924 
 4054000   0.59699318   -7.8408781    729.23849  0.014990102  0.013635923         1937 
 4055000    0.6103618    -7.863209    729.69899  0.014995869  0.013630861         1957 
 4056000   0.60358328   -7.8589355      729.034  0.014978509  0.013625801         1928 
 4057000   0.60817379   -7.8409362    728.81976  0.014970417  0.013620743         2025 
 4058000   0.59764133   -7.8675783    728.52914  0.014960759   0.01361569         1989 
 4059000   0.60835783   -7.8254974    728.18229  0.014949953  0.013610639         1952 
 4060000   0.60193304   -7.8642608     727.5687  0.014933676   0.01360558         2024 
 4061000   0.60964631   -7.8370545    729.40455  0.014967671   0.01360053         2024 
 4062000    0.6002061   -7.8536247    729.78832  0.014971859  0.013595485         1922 
 4063000   0.61096925   -7.8118639    729.46721  0.014961589  0.013590447         1906 
 4064000   0.61535829   -7.8489951    729.41513  0.014956839  0.013585411         2011 
 4065000   0.59175189   -7.8509841    728.32378  0.014930787   0.01358037         1959 
 4066000   0.60390087   -7.8927664    728.95095  0.014939969  0.013575328         2004 
 4067000   0.60220918   -7.8587782    728.31296  0.014923223  0.013570295         1996 
 4068000   0.59093645   -7.8661181    728.96715  0.014932955  0.013565263         2025 
 4069000   0.60623713    -7.846555    728.67722  0.014923348  0.013560232         2059 
 4070000   0.58839231   -7.8719278    728.82407  0.014922688  0.013555197         1961 
 4071000   0.59678022   -7.8605328    728.24735  0.014907217  0.013550161         1994 
 4072000   0.60345028   -7.8638846    729.60608  0.014931362  0.013545136         2002 
 4073000   0.58399513   -7.8824764    727.95895  0.014893996  0.013540098         2045 
 4074000    0.5941658   -7.8611024    728.54957  0.014902421  0.013535069         2055 
 4075000    0.5892949   -7.8416388    729.40723  0.014916303  0.013530041         2071 
 4076000   0.60989619   -7.8660021    728.25358  0.014889057  0.013525005         2076 
 4077000   0.59526722   -7.8693097    728.79803  0.014896534   0.01351998         1973 
 4078000   0.60276444   -7.8708539    727.55724  0.014867526  0.013514955         2028 
 4079000   0.60400505   -7.8759354    728.32751  0.014879617  0.013509941         1997 
 4080000   0.60868815   -7.8622984    728.61053  0.014881751  0.013504932         1999 
 4081000   0.59696848   -7.8624473    729.62698   0.01489886  0.013499919         2046 
 4082000   0.60958954   -7.8582818    728.82427  0.014878823  0.013494904         1984 
 4083000   0.59784507     -7.87281    727.90167  0.014856349  0.013489894         1952 
 4084000   0.59601649   -7.8674928    728.13706  0.014857514  0.013484886         1966 
 4085000   0.59973181   -7.8611355    727.76455  0.014846278  0.013479885         1974 
 4086000   0.58560433   -7.8697519     729.1339  0.014870572  0.013474884         2001 
 4087000   0.59590453   -7.8739852    727.76733   0.01483907  0.013469877         2085 
 4088000   0.59399959   -7.8789871    728.37826  0.014847893  0.013464878         1981 
 4089000   0.59464566   -7.8713709     728.3083  0.014842836  0.013459879         1937 
 4090000    0.5978413   -7.8628826    728.86219  0.014850493   0.01345487         1979 
 4091000   0.59897278   -7.8823153    727.18003  0.014812597   0.01344987         2008 
 4092000   0.58602163   -7.8701405     728.2104  0.014829961  0.013444878         1941 
 4093000   0.60949293   -7.8778161    727.40391  0.014809918  0.013439883         1990 
 4094000   0.59604087   -7.8556096     729.3416  0.014845742  0.013434892         1987 
 4095000    0.5962068   -7.8736032    726.93403  0.014793122    0.0134299         2077 
 4096000   0.58956975   -7.8708488    728.51555  0.014821687  0.013424903         2039 
 4097000   0.59519662   -7.8707952    727.22431  0.014791805  0.013419917         2062 
 4098000   0.59607631   -7.8771222    727.97364  0.014803433  0.013414932         2083 
 4099000   0.58125539   -7.8618854    728.68735  0.014814332  0.013409949         2049 
 4100000   0.57818995   -7.8717949    728.12602  0.014799309  0.013404973         1874 
 4101000   0.60721606   -7.8658808    728.05067   0.01479417  0.013399996         1987 
 4102000   0.59863102   -7.8862203    726.83757  0.014765919  0.013395022         2007 
 4103000   0.59712357   -7.8849125     728.3274  0.014792579  0.013390046         2002 
 4104000   0.58142681   -7.8687736    728.32364  0.014788898  0.013385073         1988 
 4105000   0.57916736   -7.8689542    728.93434  0.014797693  0.013380101         1987 
 4106000   0.58981823   -7.8756404    728.35306  0.014782291  0.013375134         2012 
 4107000   0.58727192   -7.8592398     728.4457  0.014780572  0.013370173         1991 
 4108000   0.58770416   -7.8690008    727.59772  0.014759772  0.013365218         1961 
 4109000   0.59108397   -7.8703403    728.27699  0.014769956   0.01336027         1968 
 4110000   0.58544559   -7.8670787    729.03564  0.014781744  0.013355327         2031 
 4111000   0.58833208   -7.8680351    728.95371  0.014776488  0.013350384         2007 
 4112000   0.58800877     -7.84666    728.21403  0.014757904  0.013345438         2008 
 4113000   0.59572516   -7.8708176    727.36964  0.014737208  0.013340487         2022 
 4114000   0.58667423   -7.8751265     728.1577  0.014749589  0.013335529         2078 
 4115000   0.58000376     -7.88573    728.02045  0.014743225  0.013330581         2109 
 4116000   0.58709979   -7.8697184    728.04827  0.014740206  0.013325626         2122 
 4117000   0.59247867   -7.8828206    728.54431  0.014746666  0.013320681         2152 
 4118000    0.5843983    -7.861691    727.64834  0.014724954  0.013315736         2093 
 4119000   0.59858719   -7.8653864    729.12714  0.014751298  0.013310791         2097 
 4120000    0.5986288   -7.8677106    727.11627  0.014707044  0.013305853         2020 
 4121000   0.61193549   -7.8870289    727.84929  0.014718298  0.013300917         2076 
 4122000   0.58542804   -7.8715477    727.58824   0.01470945  0.013295976         2110 
 4123000   0.58483292    -7.896512    728.25512  0.014719361  0.013291035         2037 
 4124000   0.58689685   -7.8856198    728.90976   0.01472902  0.013286104         2095 
 4125000    0.5850404    -7.916695    727.25612  0.014692043  0.013281176         2108 
 4126000   0.58626347   -7.8939686    728.53241  0.014714259  0.013276243         2037 
 4127000   0.60109732   -7.9016516    726.32373  0.014666096  0.013271319         2015 
 4128000   0.58919649   -7.8847102    727.22037  0.014680644  0.013266387         2138 
 4129000   0.59906216   -7.8686456    728.31141  0.014699108  0.013261461         2071 
 4130000   0.59671758   -7.9013304    727.55392  0.014680265  0.013256537         2115 
 4131000   0.59451086   -7.8838585    728.02438  0.014686201  0.013251614         2132 
 4132000   0.59163132   -7.8917689    727.64761  0.014675049  0.013246701         2054 
 4133000   0.58260306   -7.8884488    728.26498  0.014683946  0.013241783         2084 
 4134000   0.58578485   -7.8827795    726.94749  0.014653836  0.013236869         2133 
 4135000   0.59073329   -7.8826104    728.77196  0.014687061  0.013231959         1908 
 4136000   0.59544456   -7.8844162    727.94046  0.014666757   0.01322705         2049 
 4137000   0.58167331   -7.8703688    726.64504  0.014637117  0.013222142         2098 
 4138000   0.58784178   -7.9132107    727.26217  0.014646008  0.013217239         2175 
 4139000   0.59008284   -7.8859031       727.31  0.014643432  0.013212335         2048 
 4140000   0.59026476   -7.8869409    726.64954  0.014626601  0.013207427         2003 
 4141000   0.59945675   -7.8748065     727.7979  0.014646179  0.013202532         2012 
 4142000   0.58973574   -7.8818021    725.68069  0.014600046  0.013197638         2022 
 4143000   0.60077579   -7.8750318    727.21317  0.014627347  0.013192747         2129 
 4144000   0.57621704   -7.8904327    727.83128  0.014636247  0.013187857         2045 
 4145000   0.58505971   -7.8880097    727.19459  0.014619915   0.01318297         2086 
 4146000   0.59192715   -7.8779058    727.01075  0.014612694  0.013178088         1994 
 4147000   0.59791165   -7.8900789    726.26224  0.014594129  0.013173208         2135 
 4148000   0.58414222   -7.8968726    728.33082  0.014632168   0.01316832         2178 
 4149000   0.58201682   -7.8842035     726.7144  0.014596176  0.013163438         2090 
 4150000   0.58680136   -7.8829959    727.01834  0.014598762  0.013158555         2118 
 4151000   0.58495635   -7.8860898    727.31172  0.014601135  0.013153676         2135 
 4152000   0.58637819   -7.8899756    727.84202  0.014608261  0.013148792         2188 
 4153000   0.57338949   -7.8841336    726.41092  0.014576028  0.013143918         2177 
 4154000   0.57291214   -7.8695773    727.69961  0.014598371  0.013139047         2091 
 4155000   0.59793733   -7.8945415    727.52993  0.014591455  0.013134178         2179 
 4156000   0.59072758   -7.8630563    727.47886   0.01458692  0.013129312         2135 
 4157000   0.60095909   -7.8753498    728.26232  0.014599116   0.01312445         2100 
 4158000   0.56650794   -7.8863979    727.11442  0.014572599  0.013119585         2129 
 4159000   0.59319228   -7.8944716    726.44304  0.014555643  0.013114718         2171 
 4160000   0.58806264   -7.8756241    727.66341  0.014576591  0.013109865         2052 
 4161000   0.57202343   -7.8887498    725.81656    0.0145361  0.013105008         2053 
 4162000   0.60360598   -7.9055122    726.45501  0.014545391  0.013100156         2108 
 4163000    0.5847822    -7.906554    726.94734  0.014551752  0.013095303         2086 
 4164000   0.59116327   -7.9034642    726.03339  0.014529967  0.013090451         2131 
 4165000   0.60073075   -7.9044347    727.03468  0.014546512  0.013085598         2155 
 4166000   0.58673273   -7.8732126     726.7752   0.01453783  0.013080751         2069 
 4167000   0.59000359   -7.9058897    727.40277  0.014546892   0.01307591         2202 
 4168000   0.60479649   -7.8828189    726.56279  0.014526607  0.013071066         2084 
 4169000   0.59939043   -7.8901544    726.31011  0.014518072  0.013066231         2016 
 4170000    0.5809538   -7.8613217    726.87541  0.014525888  0.013061401         2087 
 4171000   0.58992938   -7.9009005    726.19029  0.014508717  0.013056565         2008 
 4172000   0.58784108   -7.8925691    727.36211  0.014528646  0.013051739         2113 
 4173000    0.5765541   -7.8879423     725.5519  0.014489015  0.013046913         2096 
 4174000   0.57581088   -7.9097207    726.72106  0.014508886   0.01304209         2057 
 4175000   0.58321954    -7.887491    725.81541  0.014487333  0.013037275         2057 
 4176000   0.59857546   -7.8685551    727.78629  0.014523194  0.013032458         1998 
 4177000   0.57612727   -7.8953176    727.54711  0.014514945  0.013027645         2031 
 4178000   0.57896918   -7.8927136    726.71854  0.014494945   0.01302283         2154 
 4179000   0.58826357   -7.8991392     727.9303   0.01451564  0.013018016         2024 
 4180000   0.58128081   -7.8947102    727.84718   0.01451051  0.013013208         2111 
 4181000   0.58111701   -7.9078626    726.92157  0.014488591  0.013008395         2110 
 4182000   0.57955938   -7.9020431    727.12365  0.014489153   0.01300359         2093 
 4183000   0.57452432   -7.9025503    726.54242   0.01447411  0.012998784         2145 
 4184000   0.59324377   -7.8891967     727.6911  0.014493529  0.012993981         2169 
 4185000   0.58675628   -7.8893009    726.75688  0.014471463  0.012989177         2167 
 4186000   0.58109134    -7.904728    726.52402   0.01446337  0.012984375         2100 
 4187000   0.57616417   -7.8996238    727.57629  0.014480859  0.012979581         2083 
 4188000   0.58006868   -7.9071631    727.13703  0.014468661  0.012974787         2116 
 4189000   0.57126681   -7.9115776    726.88465  0.014460186  0.012969991         2126 
 4190000    0.5823928   -7.9192971     727.4516  0.014468011  0.012965197         2152 
 4191000   0.58415791   -7.9053975    725.12799  0.014418357  0.012960398         2125 
 4192000    0.5907844   -7.8938585    726.25055  0.014437233   0.01295561         2081 
 4193000   0.58317566    -7.901507    725.99104  0.014428632  0.012950826         2102 
 4194000   0.58355482   -7.9011876    726.28456  0.014431024  0.012946043         2098 
 4195000   0.58216296   -7.8995758    727.63376  0.014454385   0.01294126         2080 
 4196000   0.58720648   -7.9030476    728.43202  0.014466794  0.012936482         2168 
 4197000   0.59491359   -7.9223321    726.29257  0.014420868  0.012931705         2058 
 4198000    0.5718468   -7.9039597    728.05486  0.014452415   0.01292693         2078 
 4199000   0.56902342   -7.9192245    724.80836  0.014384543  0.012922151         2110 
 4200000   0.58507144   -7.9202185    725.71485  0.014399104  0.012917374         2006 
 4201000   0.57293869   -7.9235637     726.5934  0.014413104  0.012912605         2061 
 4202000   0.58606381    -7.908095    726.81957  0.014414159  0.012907837         2065 
 4203000   0.56403488   -7.9200462    727.27426  0.014419745  0.012903068         2034 
 4204000    0.5729592   -7.8971069    726.60421  0.014403033  0.012898299         2165 
 4205000   0.58820628   -7.9096408    727.94219  0.014426123  0.012893543         2100 
 4206000   0.57974305   -7.9006134    727.48084  0.014413553  0.012888778         2049 
 4207000   0.58163621    -7.910453    726.35431  0.014387812  0.012884023         2018 
 4208000   0.59325864   -7.9166745    726.30507  0.014383418  0.012879268         2121 
 4209000   0.58014328   -7.9071453    726.56103  0.014385068  0.012874514         2067 
 4210000   0.58247709   -7.9069114    726.22489  0.014374998  0.012869761         2096 
 4211000   0.59061009   -7.8963548    727.69312   0.01440064  0.012865016         2062 
 4212000   0.58348706    -7.917914    726.24952  0.014368659   0.01286027         2016 
 4213000   0.58150738   -7.9051757    726.59875  0.014372157   0.01285552         2015 
 4214000     0.585283    -7.920694    726.03829  0.014357663  0.012850776         2011 
 4215000   0.57205349   -7.9194935    726.14734  0.014356412  0.012846032         2055 
 4216000   0.56553879   -7.8857534     726.2848  0.014355724  0.012841297         2052 
 4217000    0.5660415   -7.9054017    726.27899  0.014352205  0.012836557         2124 
 4218000   0.58391501   -7.9099957    727.15702  0.014366149  0.012831818         2059 
 4219000   0.57811993   -7.9121649    725.78441  0.014335633  0.012827086         2051 
 4220000   0.56567308    -7.913054    726.92096  0.014354679  0.012822351         2080 
 4221000    0.5751869   -7.9018369    726.20789  0.014337201  0.012817624         2026 
 4222000    0.5715778   -7.8941408    726.54567  0.014340472  0.012812901         2066 
 4223000   0.57988962   -7.9017296    726.58862  0.014337924  0.012808176         1978 
 4224000   0.58033823   -7.9142409    725.59336  0.014314894  0.012803455         2048 
 4225000    0.5683681   -7.9351981    726.12459  0.014321984  0.012798737         2123 
 4226000   0.56401813   -7.9146502    726.08537  0.014317822  0.012794016         2061 
 4227000   0.57135211   -7.9050569     725.6333  0.014305522  0.012789298         2135 
 4228000   0.57365649   -7.9165201    726.02384  0.014309836  0.012784586         2037 
 4229000   0.58370084    -7.918332    725.32839  0.014292748  0.012779874         2163 
 4230000   0.56968726   -7.9199123    727.00899  0.014322478  0.012775166         2131 
 4231000   0.57747905   -7.9038359    727.76301  0.014333944  0.012770456         1993 
 4232000   0.57324089   -7.9081328    726.50229  0.014305732  0.012765749         2056 
 4233000   0.57913041   -7.8979608    725.76559  0.014287849  0.012761051         2070 
 4234000   0.56042073   -7.9260681     725.9455  0.014288016  0.012756352         2030 
 4235000   0.58429292   -7.9163717    726.66696  0.014298838  0.012751661         2077 
 4236000   0.58035817    -7.910383    726.59595  0.014294066  0.012746965         2078 
 4237000   0.58206717   -7.9237702    726.63221  0.014291405  0.012742269         2111 
 4238000   0.57982745   -7.9068119    725.79534  0.014271577  0.012737572         2075 
 4239000   0.57939637   -7.9318825    727.93374  0.014310249  0.012732882         2101 
 4240000   0.58333536   -7.9264933    726.02881  0.014269434  0.012728187         2097 
 4241000   0.57851409   -7.9327134    725.53956  0.014256456  0.012723501         2103 
 4242000   0.58415184   -7.8967633    727.15231  0.014284777  0.012718812         2041 
 4243000   0.56277334   -7.8914415     725.1369  0.014241828  0.012714131         2103 
 4244000   0.56194116   -7.8959075    726.00604  0.014255538  0.012709446         2042 
 4245000   0.56540725    -7.917082    727.04343  0.014272545  0.012704771         2059 
 4246000   0.56920408   -7.9156179    725.17625  0.014232537  0.012700096         2055 
 4247000   0.57745455   -7.9223095    727.14142  0.014267746  0.012695425         2059 
 4248000   0.56853632   -7.9333817    725.30563  0.014228375  0.012690751         2136 
 4249000   0.56652607   -7.9032192     726.7136   0.01425264  0.012686082         2046 
 4250000   0.56289574   -7.8962884    725.87742  0.014232891  0.012681415         2015 
 4251000   0.56369146   -7.9023089    726.42456  0.014240268  0.012676753         2052 
 4252000    0.5690571   -7.9279219    725.95117  0.014227641   0.01267209         2091 
 4253000   0.56618905   -7.9175985    725.62541  0.014217913  0.012667426         1983 
 4254000   0.56375722   -7.9236232    726.39372  0.014229621  0.012662762         2042 
 4255000   0.57461697   -7.9126248    726.30368  0.014224514  0.012658106         2101 
 4256000   0.56974634   -7.9222479    726.60278  0.014227028  0.012653451         2021 
 4257000    0.5788632   -7.9431001    725.34271   0.01419902  0.012648799         2179 
 4258000   0.56840045    -7.907827     726.2905  0.014214234   0.01264415         2068 
 4259000   0.59256276   -7.9234242    725.41999  0.014193864  0.012639495         2109 
 4260000   0.57306296   -7.9293159    725.99749  0.014201829  0.012634844         2056 
 4261000   0.56197912   -7.9126526    726.51183  0.014208555  0.012630198         2064 
 4262000   0.56823517   -7.9124681    725.82089  0.014191711  0.012625551         2034 
 4263000     0.568945   -7.9372326    724.55012  0.014163541  0.012620912         2053 
 4264000   0.57380408   -7.9220379    725.71288  0.014182944  0.012616272         2136 
 4265000   0.56398074   -7.9187743    726.27612  0.014190624  0.012611637         2135 
 4266000   0.56938515   -7.9043152    725.61886  0.014174458  0.012606999         2061 
 4267000   0.56953165   -7.9335344    726.24456  0.014183356  0.012602362         2038 
 4268000   0.57085504   -7.9306989    726.36657  0.014182415  0.012597727         2121 
 4269000    0.5738229   -7.9279552    726.16135  0.014175087  0.012593099         2098 
 4270000   0.57222446   -7.9302482    725.95808    0.0141678  0.012588478         2114 
 4271000   0.58128098   -7.9338893      724.948  0.014144775  0.012583857         2174 
 4272000   0.57212274   -7.9240917    725.61696  0.014154513  0.012579233         2014 
 4273000   0.57133483   -7.9138432    726.61821  0.014170727  0.012574614         2017 
 4274000   0.57221752    -7.902634    726.83709  0.014171679  0.012569995         2085 
 4275000   0.57271151   -7.9290211    725.78016  0.014147761  0.012565384         2081 
 4276000   0.56751709   -7.9330349    726.70988  0.014162572  0.012560771         2068 
 4277000   0.56943165   -7.9111489    726.11404  0.014147651  0.012556156         1995 
 4278000   0.56485022   -7.9353202    724.56376  0.014114145  0.012551543         2154 
 4279000   0.56234328   -7.9302688    724.86882  0.014116788  0.012546932         2059 
 4280000   0.56746378   -7.9272413    726.48559  0.014144969  0.012542321         2087 
 4281000   0.56232907   -7.9209065    725.87268  0.014129734  0.012537714         2142 
 4282000   0.56604118   -7.9225766    726.60238  0.014140635  0.012533112         2144 
 4283000   0.57364561   -7.9089221     725.3537  0.014113038   0.01252851         2145 
 4284000   0.58435019   -7.9379982    726.37583  0.014129626  0.012523911         2112 
 4285000   0.56657751   -7.9213317    726.54465  0.014129612  0.012519314         2098 
 4286000   0.57313449   -7.9209591    724.73893  0.014091207  0.012514715         2073 
 4287000   0.57053275   -7.9100243    725.45104  0.014101762   0.01251012         2097 
 4288000   0.56558517   -7.9129421    725.61969  0.014101751  0.012505528         2096 
 4289000   0.56212948   -7.9215821    726.62613  0.014118018  0.012500936         2089 
 4290000   0.57713365   -7.9384745    724.92523  0.014081687  0.012496348         2063 
 4291000   0.57330373   -7.9117047    726.71945   0.01411325  0.012491763         2111 
 4292000   0.55916931   -7.9210854    726.33149  0.014102429  0.012487176         2071 
 4293000   0.56046164   -7.9373942    724.90665  0.014071486  0.012482588         2146 
 4294000    0.5608882   -7.9322594    725.86696  0.014086845  0.012478005         2188 
 4295000   0.57167194   -7.9208309    725.26986   0.01407198  0.012473426         2115 
 4296000   0.57724321   -7.9442659    724.84316  0.014060428  0.012468844         2196 
 4297000   0.55705425   -7.9276228    725.04601  0.014061089  0.012464267         2095 
 4298000   0.56301649   -7.9296862    725.79323  0.014072306  0.012459692         2179 
 4299000    0.5684659   -7.9408919    725.48439  0.014063045  0.012455124         2097 
 4300000   0.55510269   -7.9343184    724.66755  0.014043945  0.012450555         2119 
 4301000   0.56362978   -7.9392313    724.68941  0.014041103  0.012445991         2146 
 4302000   0.56560934   -7.9074836    726.21254  0.014067344  0.012441428         2107 
 4303000   0.56182326   -7.9264536    724.79159  0.014036556  0.012436869         2117 
 4304000   0.54428297   -7.9243559    727.54733  0.014086651  0.012432314         2047 
 4305000    0.5656577   -7.9260484    726.00319  0.014053488  0.012427764         2062 
 4306000   0.56171737   -7.9328619    724.67577  0.014024535  0.012423213         2107 
 4307000   0.57768641   -7.9365989    726.06417  0.014048142  0.012418664         2079 
 4308000   0.55684999   -7.9258325     726.2111  0.014047723  0.012414115         2110 
 4309000   0.55245452    -7.930406    726.00583  0.014040493  0.012409567         2035 
 4310000   0.55809532   -7.9353812    724.86284  0.014015136  0.012405026         2122 
 4311000   0.55493409   -7.9253849    725.72741  0.014028598  0.012400481         2123 
 4312000   0.54783492   -7.9289975    724.51042  0.014001825  0.012395942         2089 
 4313000   0.54949923   -7.9406557    725.27173  0.014013288  0.012391403         2040 
 4314000   0.56031164   -7.9241883    725.85158  0.014021241  0.012386866         2025 
 4315000    0.5625706   -7.9371233    726.04802  0.014021785  0.012382334         2073 
 4316000   0.56040019   -7.9439037    724.48365  0.013988331  0.012377809         2111 
 4317000   0.56545793   -7.9289905    724.55935  0.013986552  0.012373273         2113 
 4318000   0.56927626   -7.9474893    724.55166  0.013983165  0.012368746         2171 
 4319000   0.57448743   -7.9236588    725.98952   0.01400767  0.012364217         2104 
 4320000   0.55857516   -7.9202697    725.13777  0.013987997  0.012359694         2188 
 4321000   0.55512871   -7.9367916    724.69667  0.013976253  0.012355178         2105 
 4322000   0.55978348   -7.9452131    725.94491  0.013997087  0.012350659         2145 
 4323000   0.56021574   -7.9572979    725.29496   0.01398132  0.012346135         2122 
 4324000    0.5713986   -7.9352409       725.52  0.013982424  0.012341616         2207 
 4325000   0.56979775   -7.9315623     725.5645  0.013980048  0.012337103         2196 
 4326000   0.55932644   -7.9470954    725.07738  0.013967433  0.012332588         2113 
 4327000   0.55376682   -7.9445505    724.91733  0.013961123  0.012328072         2149 
 4328000   0.56466233   -7.9269878    725.35074  0.013966242  0.012323564         2140 
 4329000   0.56057781   -7.9531121    724.83108  0.013953012  0.012319058         2156 
 4330000   0.56763731   -7.9422036    725.62033  0.013964979  0.012314556         2116 
 4331000   0.54870625   -7.9495122    724.94941  0.013948846  0.012310058         2158 
 4332000   0.55839986    -7.941664    726.53138  0.013976058  0.012305557         2068 
 4333000   0.54301525   -7.9290129    725.54801   0.01395392  0.012301059         2088 
 4334000   0.55368948   -7.9347646    725.34657  0.013946827  0.012296571         2133 
 4335000   0.55488977   -7.9287501    726.32478  0.013962414  0.012292078         2152 
 4336000   0.55871802   -7.9412701    723.09476  0.013897116  0.012287587         2080 
 4337000   0.55402995   -7.9355554      727.147  0.013971774  0.012283098         2061 
 4338000   0.55821835   -7.9464532    724.44655  0.013916677  0.012278607         2084 
 4339000   0.54190768    -7.922877    725.60969  0.013935809  0.012274119         2093 
 4340000   0.55072205   -7.9423679     724.5402  0.013912062  0.012269633         2088 
 4341000   0.55058459   -7.9489162    724.35575  0.013905317  0.012265153         2157 
 4342000   0.55511525   -7.9241626    724.97879  0.013914072  0.012260669         2172 
 4343000   0.55871114   -7.9381763    724.26339  0.013897141  0.012256187         2091 
 4344000    0.5587627   -7.9440452     725.0689  0.013909394   0.01225171         2152 
 4345000   0.55343699    -7.951514    725.57522  0.013915904  0.012247234         2094 
 4346000   0.54460046   -7.9260736     725.7392  0.013915846  0.012242762         2090 
 4347000   0.55106577   -7.9443847    725.83116  0.013914408  0.012238283         2146 
 4348000   0.56331771    -7.940983    724.42004  0.013884162  0.012233811         2198 
 4349000   0.55819972   -7.9334795    725.26128  0.013897089  0.012229341         2137 
 4350000   0.54891032   -7.9392865    725.81958   0.01390459  0.012224877         2015 
 4351000   0.55116694   -7.9335952    725.28069  0.013891073   0.01222042         2090 
 4352000   0.55670266   -7.9155568    724.91045  0.013880791  0.012215962         2023 
 4353000   0.56572036   -7.9365484    725.11689  0.013881555  0.012211511         2126 
 4354000   0.55001787   -7.9297254    725.75094  0.013890502  0.012207052         2084 
 4355000   0.56406182   -7.9452472    725.23888  0.013877514  0.012202597         2059 
 4356000   0.54933227   -7.9372824    724.92273   0.01386828  0.012198142         2072 
 4357000   0.54223369   -7.9502877    723.62932  0.013840359  0.012193687         2099 
 4358000   0.56257173   -7.9382062    724.20294  0.013848152  0.012189229         2090 
 4359000   0.55880736   -7.9549564    725.00797  0.013860365  0.012184777         2126 
 4360000   0.55304028   -7.9381225    724.50208  0.013847517  0.012180333         2091 
 4361000    0.5636932   -7.9503564    725.13744  0.013856482  0.012175894         2195 
 4362000   0.55227229   -7.9445035    725.90886  0.013868043   0.01217145         2091 
 4363000   0.55806674   -7.9581654    724.33803  0.013834862  0.012167012         2184 
 4364000   0.55334754   -7.9505728    725.02816   0.01384487  0.012162573         2188 
 4365000   0.55126603   -7.9467333    724.02533  0.013822553  0.012158138         2100 
 4366000   0.56487648   -7.9476132    725.91298  0.013855417  0.012153711         2083 
 4367000   0.56282374   -7.9484136    724.82401  0.013831464  0.012149279         2126 
 4368000   0.55281489   -7.9424736    725.16904  0.013834879  0.012144852         2179 
 4369000   0.54648783    -7.928938    725.20939  0.013832482  0.012140431         2127 
 4370000   0.55251912   -7.9479042    726.30736  0.013850255  0.012136008         2066 
 4371000   0.55631277   -7.9545295    725.10311  0.013824127  0.012131585         2107 
 4372000   0.55731296   -7.9345536    725.59713  0.013830381  0.012127174         2152 
 4373000   0.56777337   -7.9455093    725.33479   0.01382222  0.012122752         2185 
 4374000   0.55371599   -7.9431159    725.21916  0.013816856  0.012118332         2123 
 4375000   0.53944474   -7.9638715    725.17208  0.013812802  0.012113915         2113 
 4376000    0.5575118    -7.948852    723.88371   0.01378511  0.012109495         2080 
 4377000    0.5471341    -7.965834    724.62682  0.013796109  0.012105081         2146 
 4378000   0.55726808   -7.9340603    724.70699  0.013794484  0.012100667         2149 
 4379000   0.55797798   -7.9610841    724.59222  0.013789149  0.012096256         2204 
 4380000    0.5462975   -7.9542456    725.51217  0.013803504  0.012091851         2119 
 4381000   0.56058677   -7.9587169    724.68144  0.013784552  0.012087447         2153 
 4382000   0.55713483   -7.9766235    723.33574  0.013755814  0.012083039         2181 
 4383000   0.54414416    -7.961797    723.43711  0.013754603  0.012078636         2175 
 4384000   0.53384183   -7.9424087    724.51761  0.013772004  0.012074231         2162 
 4385000   0.53870031   -7.9662525    724.27046  0.013764167  0.012069835         2105 
 4386000   0.55036944   -7.9638911    723.83581   0.01375277  0.012065437         2180 
 4387000   0.54619052   -7.9509872    724.32386  0.013758906  0.012061038         2059 
 4388000   0.53403964   -7.9398232    724.78203  0.013764472  0.012056643         2160 
 4389000   0.55451374   -7.9697114    723.53481  0.013737655  0.012052249         2149 
 4390000   0.54251469   -7.9505154    725.27942  0.013767643  0.012047862         2173 
 4391000   0.55661719   -7.9537485    723.82793  0.013736961  0.012043478         2184 
 4392000   0.55324204   -7.9692966    724.17119  0.013740346   0.01203909         2188 
 4393000   0.54141645   -7.9436336    724.54503   0.01374431  0.012034712         2119 
 4394000    0.5528432   -7.9553656     724.8165   0.01374633  0.012030336         2180 
 4395000   0.54979235   -7.9512779    724.86339  0.013744092  0.012025958         2145 
 4396000   0.54682253   -7.9681597    723.97711  0.013724164  0.012021584         2119 
 4397000   0.55235782   -7.9695756    723.73082  0.013716375   0.01201721         2160 
 4398000   0.54944809   -7.9499494    724.89652  0.013735344  0.012012842         2099 
 4399000   0.54862308   -7.9548438    725.59841  0.013745518  0.012008476         2138 
 4400000    0.5564701   -7.9644235    723.49411   0.01370254  0.012004109         2207 
 4401000   0.55598047   -7.9648116     724.9569  0.013727125  0.011999745         2145 
 4402000   0.55372507   -7.9465841     726.0836  0.013745335  0.011995383         2024 
 4403000   0.55881683   -7.9506192    724.00972  0.013702962  0.011991029         2165 
 4404000   0.54043933   -7.9673077    723.89633  0.013697705  0.011986671         2082 
 4405000   0.54960597   -7.9353401    724.47549  0.013705552  0.011982316         2128 
 4406000   0.54409982   -7.9573105    723.59816  0.013685848  0.011977959         2171 
 4407000   0.55132396   -7.9517478    724.83825  0.013706192  0.011973605         2159 
 4408000   0.55864654   -7.9655785    723.90506  0.013685441  0.011969256         2178 
 4409000   0.54845127   -7.9509138    724.41664  0.013692006  0.011964905         2149 
 4410000   0.54507058     -7.95326       724.38  0.013688209  0.011960558         2223 
 4411000   0.55179107   -7.9508833    725.75618  0.013711104  0.011956216         2199 
 4412000   0.55314337   -7.9549404    723.94025  0.013673698  0.011951877         2187 
 4413000   0.54949377   -7.9547764      725.411  0.013698372  0.011947536         2196 
 4414000   0.55726437   -7.9661022    723.61736  0.013661406  0.011943201         2158 
 4415000   0.54501253   -7.9786388    723.13655  0.013649237  0.011938865         2134 
 4416000   0.53467781   -7.9676762    723.60903  0.013655062  0.011934527         2109 
 4417000   0.54840516   -7.9682707    723.74844    0.0136546   0.01193019         2138 
 4418000   0.54093142   -7.9590139    723.57935   0.01364832   0.01192586         2191 
 4419000   0.54069274   -7.9772748    723.46982  0.013643166  0.011921529         2213 
 4420000   0.54874887   -7.9499995    725.13897  0.013671549  0.011917204         2160 
 4421000   0.54026974   -7.9801031    724.05897  0.013648099  0.011912879         2151 
 4422000    0.5332913    -7.969474    724.03241  0.013644512  0.011908551         2144 
 4423000   0.54487221   -7.9404588    724.93234  0.013658383  0.011904223         2142 
 4424000   0.54868071    -7.963394    725.14395  0.013659282  0.011899897         2148 
 4425000    0.5451794   -7.9452052    723.99978  0.013634647  0.011895576         2104 
 4426000   0.53612197   -7.9743076    723.73045  0.013626496  0.011891257         2129 
 4427000   0.53456977   -7.9781297    724.11688  0.013630692  0.011886939         2114 
 4428000   0.55378808   -7.9549058    723.87816  0.013623121  0.011882618         2065 
 4429000   0.54901027   -7.9668124    724.55315  0.013632745  0.011878305         2147 
 4430000    0.5448152   -7.9590138    724.26848  0.013624313  0.011873993         2167 
 4431000   0.54638196   -7.9736035    724.20737  0.013620089  0.011869683         2095 
 4432000   0.53022649   -7.9706891    723.37982  0.013601456   0.01186538         2150 
 4433000   0.54381874    -7.958086    723.25376  0.013596018  0.011861074         2123 
 4434000   0.54858937   -7.9649011    723.61444   0.01359973  0.011856772         2115 
 4435000   0.53607781   -7.9860854    723.64815  0.013597297  0.011852471         2187 
 4436000   0.52572234   -7.9553958    723.31067  0.013587892  0.011848172         2151 
 4437000   0.53421652   -7.9677696    724.52973  0.013607725  0.011843875         2210 
 4438000   0.55809667   -7.9776472    725.37693  0.013620567  0.011839581         2117 
 4439000   0.54155881   -7.9610333     724.3966  0.013599095  0.011835288         2120 
 4440000   0.54033326   -7.9484866    723.11335  0.013571947  0.011830998         2246 
 4441000   0.53536958   -7.9667288    725.39423  0.013611691  0.011826709         2101 
 4442000   0.54118567   -7.9605674    725.17567  0.013604526   0.01182243         2162 
 4443000   0.54311348   -7.9612192    725.63785  0.013610133  0.011818148         2211 
 4444000   0.55008248   -7.9667543    724.84486    0.0135922  0.011813869         2198 
 4445000   0.53766475   -7.9777903    724.10757   0.01357532  0.011809593         2151 
 4446000   0.54131172   -7.9498593    724.80967  0.013585426  0.011805315         2152 
 4447000   0.55925421   -7.9661604    723.07519  0.013549869  0.011801043         2157 
 4448000   0.53402907   -7.9708892    724.69458  0.013577162  0.011796769         2241 
 4449000   0.54847134    -7.982876    723.01175  0.013542589  0.011792501         2190 
 4450000   0.52728275   -7.9694151    724.15283  0.013560914  0.011788236         2181 
 4451000   0.53065181   -7.9846313    723.55127  0.013546605  0.011783969         2197 
 4452000   0.53209938   -7.9734108    723.75442  0.013547365  0.011779703         2138 
 4453000   0.54137507   -7.9808369    723.98665  0.013548669  0.011775445         2242 
 4454000   0.53569967   -7.9598334    724.28464  0.013551202  0.011771185         2280 
 4455000   0.53882459    -7.972105    723.54817  0.013534384  0.011766928         2256 
 4456000   0.53544188   -7.9826056    723.62545  0.013532792  0.011762673         2260 
 4457000   0.54671251   -7.9855026    723.00795   0.01351821  0.011758421         2223 
 4458000   0.54268708   -7.9686056    722.89361   0.01351304  0.011754167         2214 
 4459000   0.54946503   -7.9636239    723.56691  0.013522593  0.011749916         2174 
 4460000    0.5320777   -7.9779412    722.99289  0.013508836  0.011745667         2198 
 4461000   0.53731499   -7.9843771    723.66846  0.013518427  0.011741422         2211 
 4462000    0.5420268   -7.9668606    723.55299  0.013513241  0.011737184         2241 
 4463000   0.55039917   -7.9707574     722.9889  0.013499681  0.011732942         2268 
 4464000   0.53879825   -7.9779248    723.50307  0.013506255  0.011728701         2260 
 4465000   0.53527344   -7.9588951    725.14474   0.01353387  0.011724466         2158 
 4466000   0.52639638   -7.9841625     723.8315  0.013506335  0.011720229         2249 
 4467000   0.53083509   -7.9651892    723.58605  0.013498732  0.011715992         2188 
 4468000   0.53527954    -7.965124    723.04492  0.013485618  0.011711763         2157 
 4469000   0.54390561   -7.9894761    722.10133  0.013465006  0.011707529         2151 
 4470000    0.5408549    -7.985123    723.05566  0.013479785  0.011703302         2217 
 4471000     0.537302   -7.9643253    722.68065   0.01346978  0.011699075         2163 
 4472000   0.53294323   -7.9733376    723.70279  0.013485815  0.011694853         2235 
 4473000   0.53932371   -7.9673288    724.27882  0.013493532  0.011690628         2235 
 4474000   0.54808397   -7.9794113    723.20825  0.013470575  0.011686405         2227 
 4475000   0.52879672   -7.9773866    723.61868  0.013475208  0.011682183         2228 
 4476000   0.53529105   -7.9687024    724.48449  0.013488317  0.011677962         2227 
 4477000   0.53310453   -7.9745307    724.35983  0.013482984  0.011673745         2217 
 4478000   0.53853544   -7.9854086    723.59309  0.013465704  0.011669529         2212 
 4479000   0.54287528   -7.9798931    723.41423   0.01345937  0.011665316         2297 
 4480000    0.5305859   -7.9698677    723.29295   0.01345411  0.011661104         2287 
 4481000   0.52717503   -7.9678487    722.19559    0.0134307  0.011656894         2325 
 4482000   0.53589103    -7.982718    723.53404  0.013452589  0.011652684         2198 
 4483000   0.52966412   -7.9890756      723.423  0.013447524  0.011648477         2212 
 4484000   0.53501423   -7.9801563    722.64166  0.013430004   0.01164427         2261 
 4485000   0.54325318   -7.9894544    724.18211  0.013455632  0.011640067         2156 
 4486000   0.53356502   -7.9672325    724.31311  0.013455066  0.011635872         2193 
 4487000   0.52743536   -7.9760385    723.92809  0.013444917  0.011631675         2218 
 4488000   0.53534569   -7.9786995    723.10905  0.013426713   0.01162748         2207 
 4489000   0.54469448   -7.9844674    724.40983  0.013447869  0.011623287         2192 
 4490000   0.52712564   -7.9834307    722.85357   0.01341599  0.011619094         2249 
 4491000   0.54302997   -7.9949386    723.43345  0.013423763    0.0116149         2156 
 4492000   0.53948097   -7.9787413    724.13901  0.013433864  0.011610712         2183 
 4493000   0.54148954   -7.9898075    723.78082  0.013424231  0.011606525         2287 
 4494000   0.52235419   -7.9898677    722.99311  0.013406637  0.011602341         2160 
 4495000   0.53819361   -7.9886463    722.07272  0.013386591   0.01159816         2158 
 4496000   0.54479306   -7.9806207    723.30312  0.013406419  0.011593977         2200 
 4497000   0.53184904   -7.9780533    724.12047  0.013418584  0.011589798         2243 
 4498000   0.53208211   -7.9919386    723.22093  0.013398935  0.011585623         2185 
 4499000   0.53852377   -7.9873382    724.55112  0.013420596  0.011581444         2134 
 4500000   0.53607578    -7.974116    722.26544  0.013375286  0.011577272         2247 
 4501000   0.52532498   -7.9864585    723.81188  0.013400946  0.011573099         2286 
 4502000   0.52732962   -7.9919007    723.87853  0.013399203  0.011568923         2248 
 4503000   0.53197501   -7.9867551    724.03445  0.013399113  0.011564755         2290 
 4504000   0.52480317   -7.9768276    723.92603  0.013394132  0.011560584         2176 
 4505000   0.53549734   -7.9863195    724.57738  0.013403207  0.011556416         2186 
 4506000   0.52529044   -7.9949813    723.67529   0.01338355  0.011552255         2207 
 4507000   0.52726713   -7.9900252    722.49503  0.013358757  0.011548093         2264 
 4508000   0.53948462   -7.9786075    723.86835  0.013381181  0.011543932         2232 
 4509000   0.51728744   -7.9800563    722.68834  0.013356405  0.011539774         2194 
 4510000   0.52856365   -7.9758365     723.4281  0.013367112  0.011535617         2166 
 4511000   0.52218271   -7.9792026    724.12091  0.013376947  0.011531461         2238 
 4512000   0.53989859   -7.9711824    723.95432  0.013370906  0.011527314         2223 
 4513000   0.53971013   -8.0040497    722.15855  0.013334784  0.011523166         2233 
 4514000   0.52919646   -7.9828639    724.42069  0.013373591   0.01151902         2177 
 4515000   0.51514122    -7.975905    723.80226  0.013359215  0.011514868         2229 
 4516000    0.5318498   -7.9768601     725.1862  0.013381794  0.011510728         2201 
 4517000   0.52306422    -8.007691    723.81423  0.013353521  0.011506586         2190 
 4518000   0.53008819   -7.9854613    722.83354  0.013332476  0.011502446         2188 
 4519000   0.53694593   -8.0069982     723.1168   0.01333475   0.01149831         2248 
 4520000   0.53383227   -7.9909319    722.98026  0.013329282  0.011494178         2204 
 4521000   0.52519178    -7.999134    721.82768  0.013305089  0.011490047         2151 
 4522000   0.52320055   -7.9851585    723.92649  0.013340824  0.011485913         2215 
 4523000    0.5245993   -7.9975502    723.03792  0.013321503  0.011481781         2259 
 4524000   0.53278071   -7.9703075    722.41899  0.013307158  0.011477647         2246 
 4525000   0.52324029   -7.9912862     723.6751   0.01332735  0.011473522         2265 
 4526000   0.52001496   -8.0055848    723.41099  0.013319542  0.011469399         2265 
 4527000   0.52919226   -7.9804864    722.34783  0.013297029  0.011465274         2266 
 4528000   0.52669684   -7.9827101    723.29394  0.013311505  0.011461154         2241 
 4529000    0.5312002   -7.9867847    723.44265  0.013311302   0.01145703         2201 
 4530000   0.52677979   -8.0009714    723.62047  0.013311635  0.011452915         2243 
 4531000   0.53220994     -7.98894    722.40185  0.013286284  0.011448797         2164 
 4532000   0.52621253   -8.0066829    723.56361  0.013304715  0.011444687         2225 
 4533000   0.52575472   -8.0062858    722.63472  0.013284703  0.011440578         2210 
 4534000   0.53016574   -8.0095373     722.6434  0.013281933  0.011436469         2235 
 4535000   0.52417829   -7.9996295    723.50363  0.013294811  0.011432361         2213 
 4536000   0.52696189   -8.0028477    722.47865   0.01327305  0.011428255         2115 
 4537000   0.52447146    -8.006139    722.27883  0.013266454   0.01142415         2278 
 4538000   0.51961492   -8.0099646    723.35405  0.013283275  0.011420047         2272 
 4539000    0.5356581   -7.9881567     722.9219  0.013272415  0.011415946         2190 
 4540000   0.52854635   -8.0187618    722.39622  0.013259843  0.011411843         2249 
 4541000   0.51547454   -8.0068943    722.89395  0.013266056  0.011407744         2211 
 4542000      0.51152   -7.9851316    722.88015  0.013262883  0.011403642         2255 
 4543000   0.50747599   -7.9970064    721.61204  0.013236702  0.011399548         2210 
 4544000   0.51698571   -7.9768901    723.76952  0.013273355  0.011395455         2237 
 4545000   0.52447177   -7.9879686    722.86948  0.013253933  0.011391364         2236 
 4546000   0.52551204   -7.9959334    722.68998  0.013247726  0.011387274         2249 
 4547000   0.52410479   -8.0139332    724.83299  0.013284088   0.01138319         2247 
 4548000   0.52752984   -8.0109362    722.58887  0.013240048  0.011379106         2254 
 4549000   0.51620385   -7.9842748    723.02121  0.013245058  0.011375024         2163 
 4550000    0.5206354   -7.9935639    722.53844  0.013233305  0.011370948         2254 
 4551000   0.52479481   -7.9930968    723.47571  0.013247559  0.011366868         2220 
 4552000   0.52811635   -7.9780301    720.71076  0.013194031  0.011362789         2302 
 4553000   0.51662541   -7.9864804    722.57395  0.013225235  0.011358715         2265 
 4554000   0.53054533    -8.021092    725.07695  0.013268133  0.011354642         2260 
 4555000   0.51324602   -7.9995368     722.7866  0.013223319  0.011350571         2211 
 4556000   0.51055672     -7.99211    722.82742  0.013221163  0.011346502         2227 
 4557000   0.52155451   -7.9981794    722.53608  0.013212934  0.011342435         2179 
 4558000   0.51261345   -7.9891414    725.27676  0.013260143  0.011338372         2246 
 4559000   0.51627557   -7.9901995    722.90608  0.013213901  0.011334311         2300 
 4560000   0.51068461   -7.9974306    723.56162  0.013222983  0.011330253         2241 
 4561000   0.52528986   -8.0018942    722.65237  0.013203471  0.011326195         2274 
 4562000   0.51876021   -7.9928563    721.17425  0.013173576  0.011322138         2214 
 4563000   0.52380318   -7.9955738     722.8147  0.013200648   0.01131808         2132 
 4564000   0.52943634    -8.017239    722.39069  0.013190014  0.011314024         2300 
 4565000   0.51878583    -7.980124    723.07924  0.013199694   0.01130997         2254 
 4566000   0.52414654   -7.9946258    722.59489  0.013187963   0.01130592         2184 
 4567000   0.51721499   -7.9965459    722.99322  0.013192344  0.011301869         2211 
 4568000   0.53124479   -8.0007077     721.5479  0.013163089  0.011297822         2232 
 4569000   0.52842461   -8.0221568     722.5785  0.013179005  0.011293777         2335 
 4570000   0.52199076   -7.9942438    722.11692  0.013167705  0.011289736         2270 
 4571000   0.52169616   -8.0056283    722.25482  0.013167338  0.011285696         2181 
 4572000   0.51578086   -8.0061201    723.68519  0.013190529  0.011281661         2263 
 4573000   0.51959557    -8.018762    721.98279  0.013156622  0.011277621         2209 
 4574000   0.50673011    -8.007851    722.80355  0.013168699  0.011273584         2245 
 4575000   0.51928512   -8.0136444    722.63896  0.013162823  0.011269552         2240 
 4576000    0.5185036   -7.9931481    722.15159  0.013151071   0.01126552         2356 
 4577000   0.51828587   -7.9912317    723.82615  0.013178686  0.011261488         2192 
 4578000    0.5092625   -7.9937339    722.87855  0.013158558  0.011257458         2302 
 4579000   0.52018643   -8.0041044    723.82415  0.013172894  0.011253428         2305 
 4580000   0.52003227   -8.0007554     722.0865  0.013138401  0.011249401         2250 
 4581000   0.51689624   -7.9822956    722.58289  0.013144563  0.011245373         2313 
 4582000   0.51318691   -8.0066577    724.14592  0.013170121  0.011241349         2265 
 4583000   0.51384851   -8.0017398    721.83787  0.013125279  0.011237326         2256 
 4584000   0.50752415   -8.0125396    723.37996   0.01315045  0.011233308         2210 
 4585000   0.51322449   -8.0070063    721.96309   0.01312183  0.011229292         2250 
 4586000   0.51524829   -7.9915394    722.42863  0.013127428  0.011225274         2182 
 4587000    0.5323805   -7.9980821    722.77177    0.0131308  0.011221263         2249 
 4588000   0.52026065   -7.9995388    722.57645  0.013124391   0.01121725         2208 
 4589000   0.50548904   -8.0131022    722.41438  0.013118588  0.011213234         2254 
 4590000   0.51610457   -7.9974119    722.34975  0.013114556  0.011209221         2273 
 4591000   0.52092334   -8.0087363    723.39721  0.013130713  0.011205212         2243 
 4592000   0.52369768   -8.0213051    722.14062  0.013105049  0.011201208         2261 
 4593000   0.50660113   -8.0287587    722.80826  0.013114309  0.011197201         2265 
 4594000   0.52391196   -8.0104909    720.83041  0.013075577  0.011193198         2233 
 4595000   0.52975973   -8.0123661    723.26253  0.013116839    0.0111892         2279 
 4596000   0.51375531   -8.0185456     722.4815  0.013099824  0.011185201         2248 
 4597000   0.51745658   -7.9943551    722.86548  0.013103935  0.011181205         2214 
 4598000   0.51053815   -8.0153239    721.63612  0.013078804  0.011177213         2239 
 4599000   0.51773827   -7.9987064    723.42847  0.013108438   0.01117322         2317 
 4600000    0.5166666   -8.0156148    722.52565  0.013089233  0.011169226         2244 
 4601000    0.5192425   -8.0082753    721.89919  0.013075041  0.011165237         2213 
 4602000   0.52413936    -8.006736    720.53958   0.01304758  0.011161251         2193 
 4603000   0.50959468   -8.0190204    722.67876  0.013083474  0.011157272         2169 
 4604000   0.50570038   -7.9991132    722.99764  0.013086404  0.011153286         2274 
 4605000    0.5237679   -8.0055922    723.06192  0.013084725  0.011149306         2144 
 4606000   0.51772355    -8.000841    722.96952  0.013080213  0.011145325         2262 
 4607000   0.52027283   -8.0190421    721.76889  0.013055656  0.011141349         2324 
 4608000   0.51572184   -8.0081676    722.23865  0.013061318  0.011137372         2234 
 4609000   0.52287192   -8.0068997     721.8683  0.013051788    0.0111334         2225 
 4610000   0.50585194   -8.0186274    722.23727  0.013055627  0.011129424         2324 
 4611000   0.51140103   -8.0171739    723.37436  0.013073346  0.011125452         2221 
 4612000   0.52033637   -8.0128725    721.98455  0.013045399   0.01112148         2215 
 4613000   0.50898843   -8.0162414    723.28089  0.013065989  0.011117511         2245 
 4614000   0.50461607    -7.993572    722.43864  0.013047945  0.011113546         2145 
 4615000    0.5181796   -8.0100714    722.05585  0.013038206  0.011109581         2206 
 4616000   0.50673917   -8.0049698    722.79034  0.013048641  0.011105623         2124 
 4617000   0.51239075   -8.0063599    722.92001  0.013048155  0.011101664         2288 
 4618000   0.50674672    -8.019291    722.23894   0.01303304  0.011097706         2253 
 4619000   0.50280734   -8.0035793    721.95092  0.013025022  0.011093745         2245 
 4620000   0.50463829    -8.010122    722.12269  0.013025301  0.011089789         2268 
 4621000   0.51553329   -8.0040793     722.4259   0.01302795  0.011085835         2263 
 4622000   0.51251721    -8.004168    722.14863  0.013020133  0.011081881         2240 
 4623000     0.524824   -8.0203791     721.6134  0.013007668  0.011077932         2146 
 4624000   0.51966661   -8.0288376    722.35142  0.013018156  0.011073987         2242 
 4625000   0.51459737   -8.0242363    721.32294   0.01299681  0.011070039         2229 
 4626000   0.50956794   -8.0088567    720.86384   0.01298573  0.011066092         2219 
 4627000   0.49895034   -8.0036841    721.66173  0.012997294  0.011062147         2192 
 4628000   0.50603918   -8.0301161    722.83508  0.013015613  0.011058205         2245 
 4629000   0.50748917   -8.0427933    722.29103  0.013003007  0.011054262         2293 
 4630000   0.51902168   -8.0089061    722.98623  0.013012711  0.011050326         2261 
 4631000   0.51411166   -8.0189986    722.21619  0.012996045  0.011046392         2226 
 4632000   0.49961098   -8.0394927    722.34492  0.012995555  0.011042456         2207 
 4633000   0.50856748   -8.0188078    721.94485  0.012985554  0.011038523         2253 
 4634000   0.51321576   -8.0146532    722.20149  0.012987367  0.011034592         2296 
 4635000   0.50725743   -8.0387612    721.89027  0.012978969  0.011030665         2221 
 4636000   0.50835758    -8.012277    721.79033  0.012974373  0.011026739         2270 
 4637000   0.50684684   -8.0189146    723.48541  0.013002038  0.011022816         2240 
 4638000   0.50911292   -8.0278918    721.65158  0.012966285  0.011018896         2227 
 4639000   0.51160137   -8.0297713    720.61025  0.012944784  0.011014973         2200 
 4640000    0.5110372   -8.0378499    721.02034   0.01294936  0.011011054         2219 
 4641000   0.51213535   -8.0176744    722.93324  0.012980917  0.011007133         2269 
 4642000    0.5109588   -8.0230015    722.89754   0.01297748  0.011003214         2186 
 4643000   0.50615547   -8.0122252    722.08262  0.012960058  0.010999299         2232 
 4644000   0.49819111   -8.0381748     720.7948  0.012934159  0.010995385         2258 
 4645000   0.51224458   -8.0216157    722.05281  0.012953943  0.010991471         2253 
 4646000   0.50863057   -8.0367643    721.70565  0.012944928  0.010987559         2272 
 4647000   0.51087443   -8.0257313    723.02804  0.012965857  0.010983652         2189 
 4648000   0.50404953   -8.0067546     722.3552  0.012951004  0.010979748         2183 
 4649000   0.50261014   -8.0435533    721.35864  0.012930355  0.010975842         2250 
 4650000   0.50599078   -8.0255249    721.04941  0.012922032  0.010971938         2265 
 4651000   0.50060721   -8.0113342    722.17081  0.012939346  0.010968036         2235 
 4652000   0.49619971   -8.0054666    722.79737  0.012947789  0.010964136         2258 
 4653000    0.5089806   -8.0195463    721.64097  0.012924296  0.010960239         2247 
 4654000   0.50192651   -8.0416887    722.04166  0.012928693   0.01095634         2283 
 4655000   0.51198757    -8.005149    722.30954  0.012930711  0.010952448         2282 
 4656000   0.49452374   -8.0219615     722.3665  0.012928954  0.010948554         2225 
 4657000   0.51019924   -8.0358819    722.47948  0.012928199  0.010944666         2304 
 4658000    0.5056616   -8.0305917    721.05882  0.012900007  0.010940776         2295 
 4659000   0.50433312   -8.0203052     719.4682  0.012868788   0.01093689         2307 
 4660000   0.49996602   -8.0262315    722.02524  0.012911753  0.010933003         2236 
 4661000   0.51740512   -8.0166654     720.7092  0.012885454  0.010929122         2292 
 4662000   0.50685073   -8.0398932     721.9165   0.01290427  0.010925239         2322 
 4663000   0.50823579   -8.0320894    722.06889  0.012904226  0.010921355         2273 
 4664000   0.50216197   -8.0194686    721.27318  0.012887242  0.010917477         2325 
 4665000   0.50436755   -8.0167299    721.09244  0.012881251  0.010913602         2251 
 4666000   0.51463631   -8.0188881    722.53017  0.012904168  0.010909725         2287 
 4667000   0.51212715   -8.0349754    722.21097  0.012895703  0.010905851         2356 
 4668000   0.50474851    -8.028006    721.44019  0.012879181  0.010901979         2322 
 4669000   0.51639395   -8.0361397    722.97185   0.01290376   0.01089811         2271 
 4670000   0.50297414   -8.0203986    722.55932  0.012893635  0.010894237         2281 
 4671000   0.50469409   -8.0342674    720.91198  0.012861485  0.010890368         2270 
 4672000   0.51175035   -8.0322346    720.34978  0.012848705  0.010886505         2283 
 4673000   0.49890279   -8.0444871    720.55642   0.01284964  0.010882643         2285 
 4674000   0.49764733   -8.0175046    721.56476  0.012864869  0.010878781         2262 
 4675000   0.51142705   -8.0203306     722.1391  0.012872355  0.010874923         2259 
 4676000   0.50349503   -8.0306477    721.44826   0.01285729  0.010871063         2257 
 4677000   0.50032777     -8.01425    722.40176   0.01287153  0.010867209         2293 
 4678000   0.51495717   -8.0321422     722.1487  0.012864271  0.010863355         2260 
 4679000   0.50099443   -8.0303536    721.85109  0.012856221    0.0108595         2266 
 4680000   0.49545875   -8.0208228    721.10303  0.012840154  0.010855651         2296 
 4681000   0.49927082   -8.0199458    722.24408  0.012857724  0.010851803         2250 
 4682000   0.50594254   -8.0201284    722.15817  0.012853449  0.010847959         2223 
 4683000   0.49068711   -8.0305709    720.55789  0.012822227  0.010844112         2247 
 4684000   0.49884644    -8.023705    721.53722  0.012836913  0.010840265         2306 
 4685000   0.50616278   -8.0378281    720.98099  0.012824279  0.010836423         2258 
 4686000   0.48971848     -8.02546    720.64104  0.012815497  0.010832581         2274 
 4687000   0.49813644   -8.0263323    720.62471  0.012812473  0.010828738         2257 
 4688000   0.50429105   -8.0290451    719.52324   0.01279016    0.0108249         2282 
 4689000   0.51277812   -8.0240824    722.35289  0.012837721  0.010821066         2229 
 4690000   0.49363284   -8.0216143    720.61118  0.012804037  0.010817228         2294 
 4691000   0.50629528    -8.026921    720.94261  0.012807195  0.010813394         2240 
 4692000   0.49639531   -8.0396562    721.16285  0.012808377  0.010809559         2256 
 4693000   0.51088975   -8.0239906    721.67854  0.012814805  0.010805726         2231 
 4694000   0.50101863   -8.0347398    720.96252  0.012799363  0.010801897         2304 
 4695000   0.50197016   -8.0195055    720.07431  0.012780872  0.010798072         2266 
 4696000   0.49228972   -8.0358714    720.78495  0.012790761  0.010794245         2286 
 4697000   0.51044623   -8.0213598     721.4911  0.012800566  0.010790424         2234 
 4698000    0.4967549   -8.0504294    720.54026  0.012780975  0.010786603         2302 
 4699000   0.50018626   -8.0299924    721.39011  0.012793327  0.010782782         2265 
 4700000   0.50574374   -8.0212679    720.82172  0.012780527  0.010778963         2316 
 4701000   0.50233625   -8.0575505    721.16958  0.012783975  0.010775145         2262 
 4702000   0.49622507    -8.010811     722.5945   0.01280651  0.010771331         2299 
 4703000   0.49465142   -8.0311707    720.05153  0.012758727  0.010767518         2216 
 4704000    0.4981902   -8.0388292    721.51286  0.012781903  0.010763707         2224 
 4705000    0.4939483   -8.0334329     721.3944  0.012777088  0.010759895         2337 
 4706000   0.49156554   -8.0507345    721.22737  0.012771415  0.010756081         2264 
 4707000    0.5051925   -8.0376411    721.00961  0.012764847  0.010752276         2261 
 4708000   0.50335304   -8.0489559    722.02034  0.012780026  0.010748471         2249 
 4709000   0.49237588   -8.0384294    720.99442  0.012759157  0.010744663         2236 
 4710000   0.50372624   -8.0348443    721.95399  0.012773425   0.01074086         2343 
 4711000   0.50641217   -8.0304331     721.3827  0.012760608  0.010737061         2250 
 4712000   0.49703059   -8.0399422    722.27433  0.012773669  0.010733263         2268 
 4713000   0.49638051   -8.0374638    721.85529  0.012763549  0.010729463         2211 
 4714000   0.50572798   -8.0459602    722.01648  0.012763691  0.010725671         2238 
 4715000   0.49603092   -8.0624864      720.993  0.012742895  0.010721879         2325 
 4716000   0.50427192   -8.0432221    721.98633  0.012757745  0.010718087         2197 
 4717000   0.50108891   -8.0578062    720.82086  0.012734451  0.010714298         2286 
 4718000   0.50777453   -8.0372811    721.79018  0.012748873  0.010710511         2256 
 4719000   0.50336881   -8.0107534    720.10341  0.012716384  0.010706724         2270 
 4720000    0.4807027   -8.0304698    721.17132  0.012732544   0.01070294         2247 
 4721000   0.49085489   -8.0477393    721.52301  0.012736055   0.01069916         2311 
 4722000   0.48044063   -8.0333096    721.66331  0.012735834  0.010695379         2326 
 4723000   0.49216999   -8.0325818    720.80721  0.012718033  0.010691604         2260 
 4724000   0.49721169   -8.0312859    721.53024  0.012728095  0.010687828         2256 
 4725000   0.48853197   -8.0462997    720.89693  0.012714232  0.010684054         2349 
 4726000   0.50450466   -8.0598589    719.99525  0.012695642  0.010680279         2329 
 4727000   0.50141043   -8.0359135    721.15159  0.012713342  0.010676505         2234 
 4728000   0.48768799   -8.0344097    720.78281  0.012704153  0.010672735         2259 
 4729000   0.49162315   -8.0173729    721.43834  0.012713018  0.010668966         2265 
 4730000   0.50298013   -8.0535936    721.63639  0.012713819  0.010665198         2186 
 4731000   0.49173674      -8.0549    719.76381  0.012678148  0.010661431         2293 
 4732000   0.47954906   -8.0369566    720.20794   0.01268329  0.010657666         2337 
 4733000   0.49474329   -8.0411056    720.95561  0.012693774  0.010653905         2252 
 4734000   0.49272458   -8.0490952    720.25116  0.012678692  0.010650143         2357 
 4735000   0.50064168   -8.0339152    720.16091  0.012674427  0.010646388         2307 
 4736000   0.49262813   -8.0284778    721.75766  0.012699846  0.010642634         2316 
 4737000   0.50785804   -8.0384701    721.21617  0.012687639   0.01063888         2296 
 4738000    0.4971806   -8.0635995    720.59017  0.012673951  0.010635129         2275 
 4739000   0.50237708   -8.0464534     721.6032   0.01268909  0.010631377         2231 
 4740000    0.4845155   -8.0365199    721.09525  0.012677483  0.010627629         2241 
 4741000   0.49505027   -8.0452869    720.54822  0.012665194   0.01062388         2252 
 4742000   0.48947812   -8.0346078    720.30299  0.012658214  0.010620134         2281 
 4743000   0.47844358   -8.0355804    721.03664  0.012668435  0.010616391         2190 
 4744000   0.49265066    -8.055067    720.44144  0.012655309  0.010612644         2260 
 4745000   0.50264956   -8.0481068    720.45525  0.012652885  0.010608904         2283 
 4746000   0.47986022   -8.0466256    720.24068  0.012646451  0.010605166         2282 
 4747000    0.4945718   -8.0417992    721.71764  0.012669715  0.010601431         2259 
 4748000   0.50523059   -8.0447103    721.17404  0.012657506  0.010597695         2284 
 4749000   0.48201557   -8.0418734    719.89617  0.012632417   0.01059396         2252 
 4750000   0.49652616   -8.0441734    721.69983    0.0126614  0.010590229         2284 
 4751000   0.50018654   -8.0376638    721.36198   0.01265281  0.010586502         2283 
 4752000   0.49353499   -8.0365401    721.54431  0.012653344  0.010582774         2237 
 4753000   0.49688172    -8.051221    718.78006  0.012602217   0.01057905         2280 
 4754000      0.48781   -8.0496869    720.14555  0.012623502  0.010575328         2252 
 4755000   0.48925285    -8.040653    721.78866  0.012649644  0.010571606         2159 
 4756000   0.48899959   -8.0197749    719.96617  0.012615051  0.010567882         2212 
 4757000     0.486816   -8.0346963    720.81154  0.012627208  0.010564161         2295 
 4758000   0.49741607   -8.0693955    720.22191  0.012614227  0.010560443         2266 
 4759000   0.48675436   -8.0438116    721.06525  0.012626344  0.010556727         2201 
 4760000   0.50475441   -8.0413299    721.16152  0.012625377  0.010553008         2344 
 4761000   0.48036913   -8.0334715    719.89034  0.012600475  0.010549295         2278 
 4762000   0.49808857   -8.0565751    722.01884  0.012635077  0.010545583         2269 
 4763000   0.48438743    -8.058331    720.96404  0.012613969  0.010541873         2277 
 4764000    0.4874071   -8.0448971     721.7731  0.012625474  0.010538166         2232 
 4765000   0.48988242   -8.0571691    720.92134  0.012607928  0.010534458         2194 
 4766000   0.48933687   -8.0435643    720.20481  0.012592754  0.010530755         2258 
 4767000   0.48051723   -8.0413646    720.52124  0.012595644  0.010527051         2297 
 4768000   0.49154157   -8.0379952    720.30405  0.012589207  0.010523351         2307 
 4769000   0.49247561   -8.0383713    720.72383  0.012593902   0.01051965         2256 
 4770000    0.4796893   -8.0390601    719.79887  0.012575103   0.01051595         2278 
 4771000   0.49158474   -8.0578071    719.85481  0.012573444  0.010512258         2282 
 4772000    0.4929534   -8.0440987     721.3334   0.01259663  0.010508564         2263 
 4773000   0.48248243   -8.0410646    722.00076  0.012605642  0.010504873         2255 
 4774000   0.48816638    -8.060681    720.74778   0.01258113  0.010501184         2356 
 4775000   0.49473279   -8.0435723    721.84328  0.012597614  0.010497496         2256 
 4776000    0.4926948   -8.0486491    720.81366  0.012577011  0.010493811         2354 
 4777000   0.49100094   -8.0516535    720.25926  0.012564707  0.010490124         2292 
 4778000   0.48039202   -8.0526902    721.91663  0.012590983  0.010486442         2265 
 4779000   0.48279838   -8.0537239    720.37332  0.012561438  0.010482759         2274 
 4780000   0.48164165   -8.0355764    720.35223  0.012558442  0.010479079         2283 
 4781000   0.48358956   -8.0402384    719.89274  0.012547806    0.0104754         2316 
 4782000   0.48645506   -8.0528395    720.16591  0.012549943  0.010471719         2312 
 4783000   0.48254258   -8.0423866    721.68585    0.0125738  0.010468043         2212 
 4784000    0.4952448   -8.0599966    720.83337  0.012556323   0.01046437         2333 
 4785000   0.48698531   -8.0618555    720.10583  0.012541028  0.010460698         2278 
 4786000   0.48554182   -8.0485429    719.56064  0.012528915  0.010457027         2353 
 4787000   0.48171687   -8.0617417    721.85354  0.012566213   0.01045336         2307 
 4788000   0.47314349   -8.0445272     720.2816  0.012536229  0.010449697         2263 
 4789000   0.47644211   -8.0473873    721.18711  0.012549368  0.010446031         2247 
 4790000   0.48452098   -8.0561373      720.283  0.012531019  0.010442369         2276 
 4791000   0.47819455   -8.0473507    721.11681  0.012542907   0.01043871         2298 
 4792000   0.48506627   -8.0675899      720.524  0.012529981  0.010435051         2335 
 4793000   0.48479981   -8.0488192     720.1176    0.0125203  0.010431394         2280 
 4794000   0.48472488   -8.0593001    720.38852  0.012522398  0.010427738         2293 
 4795000   0.47385619   -8.0483401     720.3687  0.012519442   0.01042408         2348 
 4796000   0.49099523   -8.0595407     721.1048  0.012529622  0.010420423         2221 
 4797000   0.48259488   -8.0494309    720.18439  0.012511021  0.010416768         2288 
 4798000   0.48525868   -8.0504526    719.60135  0.012498287  0.010413114         2293 
 4799000   0.48398266    -8.047712    719.33723  0.012491096  0.010409464         2295 
 4800000   0.47633868    -8.062487     721.4177  0.012524613  0.010405815         2340 
 4801000   0.48737662   -8.0584334    721.69432  0.012526806  0.010402167         2284 
 4802000   0.48599695   -8.0727064    719.38095  0.012484051  0.010398521         2345 
 4803000   0.48440933   -8.0648714    720.46821  0.012500316  0.010394873         2308 
 4804000   0.49032555   -8.0411667    721.03623  0.012507567  0.010391228         2258 
 4805000   0.49163395   -8.0627599    720.38573  0.012493682  0.010387585         2269 
 4806000    0.4738232   -8.0732754     718.8007  0.012463599  0.010383944         2332 
 4807000   0.48520321   -8.0595774    721.01466  0.012499387  0.010380304         2221 
 4808000   0.47042801   -8.0521286     720.7023  0.012491374  0.010376671         2310 
 4809000   0.47138199   -8.0586655    721.04251  0.012494672  0.010373035         2239 
 4810000   0.48492004   -8.0439883    720.07684  0.012475344  0.010369402         2267 
 4811000   0.47914209   -8.0667472      721.434  0.012496258  0.010365773         2193 
 4812000   0.48586433   -8.0530911    719.90292  0.012467147  0.010362143         2204 
 4813000   0.47378894   -8.0612676    719.27265  0.012453644  0.010358512         2234 
 4814000   0.49009924   -8.0801927    719.44082  0.012453968  0.010354886         2310 
 4815000   0.47319469   -8.0598827    720.56049   0.01247076  0.010351261         2243 
 4816000   0.48038103   -8.0554103     720.2663   0.01246308  0.010347636         2301 
 4817000   0.47428638   -8.0662416    720.99912   0.01247317  0.010344017         2343 
 4818000   0.47357299   -8.0640954    719.89807  0.012451537  0.010340398         2328 
 4819000    0.4861883   -8.0486588    718.93826  0.012432356  0.010336778         2344 
 4820000     0.481722   -8.0545739    720.33417   0.01245391   0.01033316         2358 
 4821000   0.48494157   -8.0638546    719.05191  0.012429163  0.010329546         2321 
 4822000   0.48015111   -8.0710931    720.32654  0.012448613  0.010325933         2355 
 4823000   0.48299951    -8.062466    720.95038  0.012456811  0.010322318         2262 
 4824000   0.47715856   -8.0508352    720.76824  0.012451082  0.010318706         2292 
 4825000    0.4836483   -8.0683164    719.27147  0.012422651  0.010315097         2300 
 4826000   0.47952388   -8.0710701    720.75183  0.012445639   0.01031149         2259 
 4827000   0.47974733   -8.0665996    720.95735  0.012446609  0.010307884         2280 
 4828000   0.47741936   -8.0620497    721.13658  0.012447124  0.010304279         2284 
 4829000   0.48294253   -8.0591435    719.96253  0.012424286  0.010300675         2286 
 4830000   0.47098082   -8.0528824    719.45237  0.012412912  0.010297077         2278 
 4831000    0.4834346   -8.0542878    720.32213  0.012425346  0.010293479         2186 
 4832000    0.4839335   -8.0542802    720.66694  0.012428721  0.010289882         2285 
 4833000   0.48003439   -8.0593928    720.53422  0.012423861  0.010286284         2309 
 4834000   0.48432315   -8.0555227    719.07711  0.012396171  0.010282686         2323 
 4835000   0.47531045   -8.0572526    720.08024  0.012410897  0.010279092         2263 
 4836000   0.47272234   -8.0544705    719.80688   0.01240362  0.010275499         2270 
 4837000    0.4930742   -8.0663631    719.86031  0.012401976  0.010271908         2266 
 4838000   0.48735473   -8.0601407    718.82047  0.012381502  0.010268319         2278 
 4839000   0.47674045   -8.0793891    719.56196  0.012391712  0.010264731         2272 
 4840000   0.47060404   -8.0689777    720.41593  0.012403856  0.010261144         2277 
 4841000    0.4719309   -8.0773995    720.04191  0.012394855   0.01025756         2285 
 4842000   0.48387876   -8.0674853    720.90437  0.012407138  0.010253977         2312 
 4843000   0.47572499   -8.0637107    720.03938  0.012389693  0.010250396         2245 
 4844000   0.47408303   -8.0752051    719.10467  0.012371055  0.010246817         2268 
 4845000   0.47953901   -8.0484371    719.47988  0.012374955  0.010243243         2188 
 4846000   0.48063067   -8.0758083    720.17482  0.012384352  0.010239667         2319 
 4847000   0.48017686   -8.0740809    719.40112  0.012368495  0.010236093         2280 
 4848000   0.48035765   -8.0585955    720.21062  0.012379858  0.010232522         2252 
 4849000   0.48042079   -8.0627052    719.78442   0.01236998  0.010228954         2273 
 4850000   0.46128949   -8.0645071    719.49491  0.012362455  0.010225382         2293 
 4851000   0.47369653   -8.0627568    719.30348  0.012356619  0.010221812         2284 
 4852000   0.47370289   -8.0736303     719.8643  0.012363704  0.010218249         2303 
 4853000   0.47236784   -8.0726236    720.66473  0.012374901  0.010214683         2289 
 4854000   0.47114361   -8.0727969    719.62511  0.012354503   0.01021112         2300 
 4855000   0.48752753   -8.0523935    721.31976  0.012381046  0.010207559         2257 
 4856000   0.47351386   -8.0581698    720.93467  0.012371888  0.010203998         2224 
 4857000   0.46419439   -8.0656861    718.77836  0.012332344  0.010200439         2269 
 4858000   0.47277126   -8.0705074    718.80862  0.012330325  0.010196882         2225 
 4859000    0.4825146   -8.0678931    720.11591  0.012350208  0.010193325         2208 
 4860000   0.47301019   -8.0651588    718.72963  0.012323896  0.010189772         2318 
 4861000   0.47893872   -8.0712848    719.53047   0.01233509  0.010186221         2236 
 4862000   0.47339335   -8.0768156    719.31017  0.012328777  0.010182674         2237 
 4863000   0.47340416   -8.0542331    720.48333  0.012346345  0.010179123         2209 
 4864000   0.46815125   -8.0743843    719.47265  0.012326491  0.010175575         2314 
 4865000   0.48229643   -8.0688074    719.72891  0.012328347  0.010172029         2258 
 4866000   0.47043709   -8.0781254    720.34671  0.012336394  0.010168482         2289 
 4867000    0.4727179   -8.0823318    719.32849  0.012316425  0.010164938         2290 
 4868000   0.47577413   -8.0801896    718.45617  0.012298962  0.010161394         2349 
 4869000   0.46870883    -8.065256    719.57506  0.012315586  0.010157855         2295 
 4870000   0.47073413   -8.0892567    720.38147  0.012326856  0.010154311         2308 
 4871000   0.48310654   -8.0726982    720.60215  0.012328101  0.010150773         2335 
 4872000   0.47256287   -8.0697024    719.92796  0.012314039  0.010147238         2343 
 4873000   0.46761115   -8.0645742    720.10784  0.012314588  0.010143704         2301 
 4874000   0.46769578   -8.0718836    719.25323   0.01229745  0.010140172         2279 
 4875000   0.48243567   -8.0746034    719.78524  0.012304021  0.010136645         2323 
 4876000   0.46696392    -8.072682     720.4594   0.01231302  0.010133121         2345 
 4877000   0.47576963   -8.0780898    720.52325  0.012311586  0.010129595         2294 
 4878000   0.47530382   -8.0860492    719.77887  0.012296345  0.010126068         2383 
 4879000   0.47770951   -8.0895143    719.10557  0.012282325  0.010122543         2365 
 4880000   0.47310787   -8.0722909    719.30196  0.012283162  0.010119018         2300 
 4881000   0.47612674   -8.0708271    718.86604  0.012273203  0.010115492         2320 
 4882000   0.46978651   -8.0974208     720.1651  0.012292863  0.010111969         2368 
 4883000   0.46681957   -8.0765583    718.88281  0.012268462  0.010108449         2360 
 4884000    0.4688963   -8.0599702     718.8116  0.012264735  0.010104932         2332 
 4885000    0.4797388   -8.0823172    719.75806   0.01227837  0.010101417         2237 
 4886000   0.47116538   -8.0909559    719.58097  0.012272837  0.010097902         2259 
 4887000   0.46267236    -8.072029    720.72422   0.01228982   0.01009439         2300 
 4888000   0.45677819   -8.0849075     718.4777  0.012249006  0.010090877         2305 
 4889000   0.46534204   -8.0901833    718.43167  0.012245716  0.010087369         2310 
 4890000    0.4789165    -8.069522    719.29635  0.012257947   0.01008386         2309 
 4891000   0.47199587   -8.0831389    720.61495  0.012277908  0.010080356         2249 
 4892000   0.46195793   -8.0871988    719.21223  0.012251503  0.010076848         2383 
 4893000   0.46356197   -8.0858413    718.95306  0.012244585  0.010073343         2252 
 4894000   0.47822085   -8.0924495    719.09522  0.012244504  0.010069844         2355 
 4895000   0.46517329   -8.0811777    718.55691  0.012232838  0.010066344         2381 
 4896000   0.46474285   -8.0821374     718.3409  0.012226663  0.010062845         2309 
 4897000   0.45587628   -8.0856798    719.70742   0.01224742  0.010059347         2385 
 4898000   0.46728182   -8.0658717    719.37688  0.012239296  0.010055851         2354 
 4899000   0.47316721   -8.0809443    718.59098   0.01222343  0.010052356         2329 
 4900000   0.48335212   -8.0854233    719.17235  0.012230822  0.010048863         2305 
 4901000   0.46942729   -8.0757152    718.75568  0.012221242  0.010045373         2363 
 4902000   0.46496365   -8.0836543     719.1481   0.01222542  0.010041884         2273 
 4903000   0.47356045   -8.0785528    720.46521  0.012245313  0.010038396         2258 
 4904000   0.46235277   -8.0883088    720.17983  0.012237966  0.010034909         2317 
 4905000   0.47117331    -8.083033    718.64951  0.012209472  0.010031423         2368 
 4906000   0.46616014    -8.078429    718.60071  0.012206154  0.010027937         2334 
 4907000   0.46608793   -8.0894296    719.43026  0.012217754  0.010024452         2297 
 4908000   0.47075319   -8.0853481    719.49208  0.012216315  0.010020971         2390 
 4909000   0.46781167   -8.0765279    719.89848  0.012220725  0.010017492         2249 
 4910000   0.47630693   -8.0859833    718.37261  0.012192339  0.010014017         2241 
 4911000   0.46762615   -8.0759366    719.36654  0.012206722  0.010010543         2287 
 4912000   0.46982064   -8.0783483    719.37125  0.012204317  0.010007067         2237 
 4913000   0.47104752   -8.0894401    720.07967  0.012213849  0.010003597         2344 
 4914000   0.46274427   -8.0658803    719.68492  0.012204669  0.010000126         2288 
 4915000   0.46451476   -8.0734148    718.54546  0.012182866 0.0099966591         2309 
 4916000   0.46731582   -8.0749832    720.25815  0.012209421 0.0099931937         2198 
 4917000   0.46364397   -8.0793065    719.44918  0.012193227 0.0099897276         2273 
 4918000   0.46519328    -8.091985    719.28526   0.01218797 0.0099862641         2360 
 4919000   0.47247867   -8.0913076    719.50249  0.012189173 0.0099828005         2383 
 4920000   0.46158137   -8.0929755    718.00762  0.012161376 0.0099793414         2382 
 4921000    0.4615682   -8.0722196    719.07086   0.01217691 0.0099758806         2247 
 4922000   0.47720371   -8.0825024    719.62914  0.012183888 0.0099724209         2283 
 4923000   0.45635626   -8.1066664    719.51175  0.012179426  0.009968964         2312 
 4924000    0.4526743   -8.0978426     718.2782  0.012156076 0.0099655067         2358 
 4925000   0.45951158    -8.086853     718.3098  0.012154142 0.0099620529         2387 
 4926000   0.47109201   -8.0869298    719.00677  0.012163465 0.0099586003         2356 
 4927000   0.46575258   -8.0670788    720.32728  0.012183331 0.0099551517         2234 
 4928000   0.46689863   -8.0906571    717.49973  0.012133045 0.0099517008         2328 
 4929000   0.46823538   -8.0899446    719.55311  0.012165299 0.0099482497         2382 
 4930000   0.46513579   -8.0738292     719.5955  0.012163548 0.0099448044         2235 
 4931000   0.45611443   -8.1001056    720.22262   0.01217168 0.0099413607         2277 
 4932000   0.45644556   -8.0888091     718.8619   0.01214622 0.0099379187         2335 
 4933000   0.46183273   -8.0981472      719.299  0.012151142 0.0099344773         2370 
 4934000   0.46259717   -8.0996242    718.62755  0.012137339 0.0099310374         2399 
 4935000   0.45553281   -8.0876427    719.74492  0.012153747 0.0099275988         2415 
 4936000   0.46323023   -8.0940425    719.14237  0.012141112 0.0099241618         2248 
 4937000    0.4537865   -8.0735361    718.68157  0.012130875 0.0099207242         2272 
 4938000   0.47350814   -8.0901442    717.84894  0.012114367 0.0099172888         2322 
 4939000   0.46022595   -8.0749737    719.17958  0.012134366 0.0099138548         2297 
 4940000   0.46050291   -8.0937829    718.82341  0.012125901  0.009910424         2318 
 4941000   0.46061495   -8.0837342    717.62547  0.012103243 0.0099069944         2276 
 4942000   0.45456941   -8.0855915    718.95215  0.012123165 0.0099035637         2304 
 4943000   0.45696765   -8.0937389    718.71768  0.012116759 0.0099001353         2270 
 4944000   0.45555267   -8.0858948    719.57471  0.012128754 0.0098967119         2331 
 4945000   0.45140518   -8.0849108    718.62632  0.012110319 0.0098932866         2381 
 4946000   0.47696979    -8.097018     718.3681   0.01210352 0.0098898638         2279 
 4947000   0.46119593   -8.0993627    719.22343  0.012115481 0.0098864439         2320 
 4948000   0.46984638   -8.0796326    719.25612  0.012113583 0.0098830272         2224 
 4949000   0.46594987   -8.0910843    718.79644  0.012103395 0.0098796122         2323 
 4950000   0.46129504   -8.0863157    718.63973  0.012098312 0.0098761954         2345 
 4951000   0.45900047   -8.0975515    719.27229  0.012106515 0.0098727815         2340 
 4952000   0.46253273   -8.0977268    719.94156  0.012115333 0.0098693708         2333 
 4953000   0.45225598   -8.1057533    718.67319  0.012091547 0.0098659595         2341 
 4954000   0.46514421    -8.092608     719.2675  0.012099103 0.0098625503         2351 
 4955000   0.46223514   -8.0883472    719.40566  0.012098985 0.0098591434         2391 
 4956000   0.46424757   -8.1035572    718.84247  0.012087074 0.0098557384         2390 
 4957000   0.45168797   -8.0758128    719.28611  0.012092094 0.0098523323         2311 
 4958000   0.46250184   -8.1048698    719.95277   0.01210086 0.0098489288         2361 
 4959000   0.46231659   -8.1050498    718.66217  0.012076732 0.0098455281         2308 
 4960000   0.45364802   -8.1056445    717.29394  0.012051309 0.0098421265         2420 
 4961000   0.44796021   -8.0857686    718.28941  0.012065602 0.0098387261         2339 
 4962000   0.45664458   -8.1107863    718.91063  0.012073603 0.0098353286         2356 
 4963000   0.45507176    -8.088843    718.08029  0.012057228 0.0098319299         2357 
 4964000   0.45531997   -8.0970104     719.5166  0.012078912 0.0098285342         2297 
 4965000   0.46696998   -8.1067503    718.64258  0.012061809 0.0098251404         2273 
 4966000   0.45605764   -8.1074035    718.62234   0.01205904 0.0098217486         2346 
 4967000   0.46385424     -8.10039    719.26506  0.012067396 0.0098183571         2310 
 4968000   0.44539341    -8.099133    718.58094  0.012053491 0.0098149673         2286 
 4969000   0.45566366   -8.1043962    717.85925  0.012038962 0.0098115825         2376 
 4970000   0.45934569   -8.1000638    717.90616  0.012037327 0.0098081996         2380 
 4971000   0.45449155   -8.0894263    719.30553  0.012058364  0.009804816         2298 
 4972000   0.45015787   -8.1120873    717.66313  0.012028411 0.0098014332         2312 
 4973000    0.4532565   -8.1135977     717.9149  0.012030212 0.0097980524         2391 
 4974000    0.4595413   -8.0965883    719.02993  0.012046474  0.009794676         2324 
 4975000   0.45758005   -8.1023351    718.66613  0.012037959 0.0097912992         2287 
 4976000   0.44764155    -8.109444    717.60298  0.012017735 0.0097879249         2349 
 4977000   0.45740703   -8.0910343    718.79695  0.012035312 0.0097845502         2318 
 4978000   0.47642832   -8.1030962    717.68617  0.012014299 0.0097811761         2344 
 4979000    0.4569361   -8.0982958    719.03925  0.012034533 0.0097778033         2308 
 4980000   0.45834341   -8.0935779     718.1333  0.012016956 0.0097744347         2283 
 4981000   0.45688916   -8.1190044    719.17572  0.012031984 0.0097710663         2405 
 4982000    0.4515398   -8.1053324    719.55432  0.012035901 0.0097676977         2400 
 4983000   0.46307188   -8.1000866    718.54062  0.012016533 0.0097643318         2398 
 4984000   0.45209248   -8.1102541    718.16427   0.01200783 0.0097609676         2341 
 4985000   0.44561512   -8.0926572    718.14968  0.012005177  0.009757606         2386 
 4986000   0.44848387   -8.1153699    718.56689  0.012009742 0.0097542454         2327 
 4987000   0.45707196   -8.1038085    719.32658  0.012020028 0.0097508863         2232 
 4988000   0.45828257   -8.1018276    718.42274  0.012002518 0.0097475289         2320 
 4989000   0.44073319   -8.0980452    718.17316  0.011995944 0.0097441712         2306 
 4990000   0.44859465   -8.1114967    718.96592  0.012006779 0.0097408137         2348 
 4991000   0.44490158   -8.0990291    717.65507  0.011982486 0.0097374612         2336 
 4992000   0.44819858   -8.1046596    717.70001  0.011980836 0.0097341105         2352 
 4993000    0.4541755   -8.0911808    718.70957  0.011995286 0.0097307587         2359 
 4994000   0.45981839   -8.1004081     719.2181   0.01200137 0.0097274094         2304 
 4995000   0.46042794   -8.0866406    718.45758  0.011986279 0.0097240613         2394 
 4996000   0.45302004   -8.1041731    717.65212  0.011970445 0.0097207151         2328 
 4997000   0.45530239   -8.1138521    717.25704  0.011961461 0.0097173667         2370 
 4998000   0.45483969   -8.1195074    718.73046  0.011983634 0.0097140224         2306 
 4999000   0.44814698   -8.1036029    718.60598  0.011979162 0.0097106827         2225 
 5000000   0.44524548   -8.1107642      717.771   0.01196285 0.0097073429         2375 
 5001000   0.44740895   -8.0972349    718.85866  0.011978582 0.0097040008         2421 
 5002000   0.44685481   -8.1239405    717.48251  0.011953261 0.0097006601         2309 
 5003000   0.44564649   -8.0895403    718.79614  0.011972752 0.0096973247         2337 
 5004000   0.45531646   -8.1043924    717.49633  0.011948713 0.0096939889         2321 
 5005000   0.45095554   -8.1117936    718.06961  0.011955871 0.0096906564         2334 
 5006000   0.45189204   -8.0988918    718.06084  0.011953337 0.0096873236         2340 
 5007000   0.46049742   -8.1128303    717.52735   0.01194207 0.0096839944         2325 
 5008000   0.44827081   -8.1132036    716.89943  0.011929237 0.0096806649         2372 
 5009000    0.4482595   -8.0956483    717.68023  0.011939845 0.0096773363         2406 
 5010000   0.44334693   -8.1045281    718.48381  0.011950829 0.0096740074         2368 
 5011000   0.45669137   -8.1172534    717.54827  0.011932885 0.0096706843         2336 
 5012000   0.44758775   -8.1061118    718.06973  0.011939175 0.0096673609         2321 
Loop time of 13234.1 on 48 procs for 5000000 steps with 4000 atoms

Performance: 65286.040 tau/day, 377.813 timesteps/s
99.4% CPU use with 48 MPI tasks x no OpenMP threads

MPI task timing breakdown:
Section |  min time  |  avg time  |  max time  |%varavg| %total
---------------------------------------------------------------
Pair    | 983.57     | 1071.7     | 1144.3     | 134.3 |  8.10
Neigh   | 92.718     | 96.037     | 101.45     |  20.1 |  0.73
Comm    | 868.79     | 932.65     | 1019.6     | 133.4 |  7.05
Output  | 27.882     | 27.887     | 28         |   0.3 |  0.21
Modify  | 10926      | 10977      | 11010      |  21.8 | 82.94
Other   |            | 128.8      |            |       |  0.97

Nlocal:        83.3333 ave          89 max          77 min
Histogram: 2 3 2 4 6 15 5 3 6 2
Nghost:        2442.29 ave        2458 max        2430 min
Histogram: 6 7 2 8 4 7 6 3 3 2
Neighs:        16973.0 ave       19144 max       14610 min
Histogram: 2 3 6 5 5 6 10 3 6 2
FullNghs:      33946.4 ave       36466 max       31392 min
Histogram: 3 4 3 5 11 6 6 3 4 3

Total # of neighbors = 1629425
Ave neighs/atom = 407.35625
Neighbor list builds = 266734
Dangerous builds = 0

#clear
#
#next RN
#
#jump SELF
Total wall time: 3:40:37
