
units lj                  # Use reduced LJ style units
atom_style atomic         # Uncharged point particles
atom_modify map hash      # Needed for indexing of clusters etc
                          # Used to be able to find where atoms are in relation to each other.

lattice fcc 1.0 spacing 1 1 1
Lattice spacing in x,y,z = 1.5874011 1.5874011 1.5874011
region box block 0 10 0 10 0 10 units lattice
create_box 2 box
Created orthogonal box = (0.0000000 0.0000000 0.0000000) to (15.874011 15.874011 15.874011)
  3 by 4 by 4 MPI processor grid
create_atoms 1 box
Created 4000 atoms
  using lattice units in orthogonal box = (0.0000000 0.0000000 0.0000000) to (15.874011 15.874011 15.874011)
  create_atoms CPU = 0.015 seconds
set type 1 type/fraction 2 0.49 78393
Setting atom values ...
  1962 settings made for type/fraction
mass 1 1.0
mass 2 1.0
pair_style lj/cut  3.5
pair_modify tail  yes
pair_coeff 1  1  1.0  1.0   # Intearaction between 1 and 1 set with epsilon = 1 and sigma = 1
pair_coeff 1  2  1.5  0.8
pair_coeff 2  2  0.5  0.88

write_data data.0
System init for write_data ...
Neighbor list info ...
  update every 1 steps, delay 10 steps, check yes
  max neighbors/atom: 2000, page size: 100000
  master list distance cutoff = 3.8
  ghost atom cutoff = 3.8
  binsize = 1.9, bins = 9 9 9
  1 neighbor lists, perpetual/occasional/extra = 1 0 0
  (1) pair lj/cut, perpetual
      attributes: half, newton on
      pair build: half/bin/atomonly/newton
      stencil: half/bin/3d
      bin: standard
WARNING: Not all mixed pair coeffs generated from mixing. Use write_data with 'pair ij' option to store all pair coeffs. (../write_data.cpp:312)


#############################
#   M E L T   S Y S T E M   #
#############################

velocity all create 2.4 8172548 mom yes dist gaussian # Assign velocities
                                                    # Temperature 2.4, random number seed, zero linear momentum
                                                                                # Gaussian distribution

timestep 0.002   # simulation timestep
thermo 1000       # output thermodynamic data every 1000 steps bf 100

# Define a fix  in this case with index 1 applied to all
# particles in the simulation. This fix is for simulations
# in the anisotropic NPT ensemble. Note that we use the MTK
# correction.
fix 1 all npt temp 2.4 2.4 0.1 iso 5.68 5.68 0.5 mtk yes tchain 5 pchain 5 # Use NPT ensemble
                                                                         # Set temperature and pressure and damping
                                                                         # Numbers of thermostats in chain and in barostat
run 10000          # run for 10000 steps
Per MPI rank memory allocation (min/avg/max) = 3.642 | 3.644 | 3.648 Mbytes
Step Temp E_pair E_mol TotEng Press Volume 
       0          2.4   -5.3537253            0   -1.7546253   -4.2069924         4000 
    1000    2.4428366   -4.8523258            0    -1.188987    5.7572344    3734.9114 
    2000    2.3857304   -4.9588359            0    -1.381135    5.8519262    3681.3083 
    3000    2.3616606   -4.8717437            0   -1.3301384    5.4901112    3748.7184 
    4000    2.4014144   -4.9312893            0   -1.3300682    5.4638611    3718.5703 
    5000    2.4209128   -4.9313679            0   -1.3009065    5.8535444    3700.4981 
    6000    2.4447866   -4.8777165            0   -1.2114534    5.8095967    3726.5598 
    7000     2.396003    -4.896275            0    -1.303169    5.6602008    3729.1017 
    8000    2.3755158   -4.9424369            0   -1.3800539    5.6744793    3700.7989 
    9000    2.4082626   -4.9094772            0   -1.2979865     5.746285    3712.1057 
   10000    2.4280414   -4.9146814            0   -1.2735299    5.8445712    3709.5625 
Loop time of 2.60865 on 48 procs for 10000 steps with 4000 atoms

Performance: 662410.631 tau/day, 3833.395 timesteps/s
99.7% CPU use with 48 MPI tasks x no OpenMP threads

MPI task timing breakdown:
Section |  min time  |  avg time  |  max time  |%varavg| %total
---------------------------------------------------------------
Pair    | 1.1643     | 1.237      | 1.3586     |   3.1 | 47.42
Neigh   | 0.21171    | 0.22088    | 0.24747    |   1.2 |  8.47
Comm    | 0.77868    | 0.88732    | 0.97433    |   3.9 | 34.01
Output  | 0.00024208 | 0.00024986 | 0.00033201 |   0.0 |  0.01
Modify  | 0.20791    | 0.24794    | 0.28912    |   4.8 |  9.50
Other   |            | 0.01526    |            |       |  0.59

Nlocal:        83.3333 ave          95 max          75 min
Histogram: 3 4 8 6 9 7 5 3 1 2
Nghost:        1721.42 ave        1742 max        1692 min
Histogram: 1 2 3 5 6 6 7 7 4 7
Neighs:        10296.7 ave       11873 max        9064 min
Histogram: 2 9 2 9 9 5 5 2 3 2

Total # of neighbors = 494243
Ave neighs/atom = 123.56075
Neighbor list builds = 906
Dangerous builds = 215

# Equilibrate just above the melting temperature to avoid step fn in T

fix 1 all npt temp 1.25 1.25 0.1 iso 5.68 5.68 0.5 mtk yes tchain 5 pchain 5
run 2000
Per MPI rank memory allocation (min/avg/max) = 3.644 | 3.646 | 3.649 Mbytes
Step Temp E_pair E_mol TotEng Press Volume 
   10000    2.4280414   -4.9146814            0   -1.2735299    5.8445712    3709.5625 
   11000    1.2664714   -7.0150174            0   -5.1157852    5.1701171    2919.2618 
   12000    1.2353028   -7.0882009            0   -5.2357099    5.7560889    2879.6055 
Loop time of 0.624294 on 48 procs for 2000 steps with 4000 atoms

Performance: 553585.498 tau/day, 3203.620 timesteps/s
99.7% CPU use with 48 MPI tasks x no OpenMP threads

MPI task timing breakdown:
Section |  min time  |  avg time  |  max time  |%varavg| %total
---------------------------------------------------------------
Pair    | 0.28776    | 0.30852    | 0.33888    |   1.9 | 49.42
Neigh   | 0.039945   | 0.04214    | 0.045341   |   0.6 |  6.75
Comm    | 0.19609    | 0.22483    | 0.24731    |   2.4 | 36.01
Output  | 5.1442e-05 | 5.2306e-05 | 6.8194e-05 |   0.0 |  0.01
Modify  | 0.039195   | 0.043938   | 0.048598   |   1.3 |  7.04
Other   |            | 0.004811   |            |       |  0.77

Nlocal:        83.3333 ave          93 max          75 min
Histogram: 3 2 2 13 6 10 8 2 0 2
Nghost:        2056.12 ave        2078 max        2038 min
Histogram: 3 3 6 6 10 8 4 3 2 3
Neighs:        13269.0 ave       14878 max       11539 min
Histogram: 1 0 7 9 8 4 8 7 1 3

Total # of neighbors = 636912
Ave neighs/atom = 159.22800
Neighbor list builds = 142
Dangerous builds = 7

#############################
# L I N E A R  Q U E N C H  #
#############################

# Define solid atoms. This closely follows ten Wolde  Ruiz-Montero and Frenkel  Faraday Discuss  1996  104  93-110
# Compute components of the per-atom q6 vector
compute q6 all orientorder/atom degrees 1 6 components 6 nnn NULL cutoff 1.3 # compute the Q6 parameter.
                                                                             # Use all neighbours within 1.3 unit cell.

# get number of connections
compute coord_number all coord/atom orientorder q6 0.5

# An atom is solid if it has 8 or more connections (of a possible 14)
variable is_solid atom c_coord_number>=8
group solid dynamic all var is_solid    # Must be dynamic to update
dynamic group solid defined

# do clustering
compute cluster solid cluster/atom 1.3 # Create a cluster where all atoms within are solid and max 1.3 units from another member

# define chunks one chunk per cluster
compute clus_chunks solid chunk/atom c_cluster nchunk every compress yes  # Says which atoms are in which chunk

# count the size of each chunk
compute size_chunks solid property/chunk clus_chunks count


# Find the maximum entry in the vector of chunk sizes
variable max_n equal max(c_size_chunks)


# Thermo style which includes this variable
# thermo_style custom step temp pe vol v_max_n

thermo ${N}  # Print the thermo information every 100 steps
thermo 1000  

# Reset the npt fix at a lower temperature (below freezing)
fix 1  all npt temp  ${temp} ${temp}  0.1  iso  5.68  5.68  0.5  mtk yes tchain  5  pchain  5
fix 1  all npt temp  0.45 ${temp}  0.1  iso  5.68  5.68  0.5  mtk yes tchain  5  pchain  5
fix 1  all npt temp  0.45 0.45  0.1  iso  5.68  5.68  0.5  mtk yes tchain  5  pchain  5

dump dmp2 all dcd ${N} traj.dcd
dump dmp2 all dcd 1000 traj.dcd


compute msd all msd com yes
variable twopoint equal c_msd[4]/6/(step*dt+1.0e-6)
fix 9 all vector 10 c_msd[4]
variable fit equal slope(f_9)/6/(10*dt)
thermo_style custom step temp pe c_msd[4] v_twopoint v_fit v_max_n

fix 1 all npt temp 1.25 ${temp} 0.1 iso 5.68 5.68 0.5 mtk yes tchain 5 pchain 5
fix 1 all npt temp 1.25 0.45 0.1 iso 5.68 5.68 0.5 mtk yes tchain 5 pchain 5
run 5000000 # 5000000  # Run for this many steps
Neighbor list info ...
  update every 1 steps, delay 10 steps, check yes
  max neighbors/atom: 2000, page size: 100000
  master list distance cutoff = 3.8
  ghost atom cutoff = 3.8
  binsize = 1.9, bins = 8 8 8
  4 neighbor lists, perpetual/occasional/extra = 1 3 0
  (1) pair lj/cut, perpetual
      attributes: half, newton on
      pair build: half/bin/atomonly/newton
      stencil: half/bin/3d
      bin: standard
  (2) compute orientorder/atom, occasional
      attributes: full, newton on
      pair build: full/bin/atomonly
      stencil: full/bin/3d
      bin: standard
  (3) compute coord/atom, occasional
      attributes: full, newton on
      pair build: full/bin/atomonly
      stencil: full/bin/3d
      bin: standard
  (4) compute cluster/atom, occasional
      attributes: full, newton on
      pair build: full/bin/atomonly
      stencil: full/bin/3d
      bin: standard
Per MPI rank memory allocation (min/avg/max) = 9.840 | 9.844 | 9.848 Mbytes
Step Temp PotEng c_msd[4] v_twopoint v_fit v_max_n 
   12000    1.2353028   -7.0882009 8.5118092e-31 5.9109783e-33 8.3333333e+20            1 
   13000    1.2657584   -7.0984476   0.46662571 0.0029911903  0.038199291            2 
   14000     1.290744   -7.1468558   0.89836726  0.005347424   0.03641357            4 
   15000    1.2537142   -7.0938659    1.3153923 0.0073077346  0.035999649            2 
   16000    1.2558422   -7.1329616    1.6838098 0.0087698424  0.034684876            4 
   17000     1.223617   -7.0674073    2.0777449  0.010185023   0.03408318            3 
   18000    1.2625546   -7.1478857    2.4669997  0.011421294   0.03336643            4 
   19000    1.2249668   -7.1301924    2.8887615  0.012670006  0.033353264            2 
   20000    1.2342748   -7.0918658    3.3447932  0.013936638  0.033725393            1 
   21000     1.250032   -7.1807642    3.7082563  0.014715303  0.033866796            2 
   22000    1.2381672   -7.0828485     4.099767   0.01552942   0.03378151            1 
   23000    1.2433319   -7.1644433    4.5406212  0.016451526  0.033923455            1 
   24000    1.2590564   -7.1027851    4.9136864  0.017061411  0.033833239            2 
   25000     1.247735     -7.12799    5.2569026  0.017523008  0.033682682            1 
   26000    1.2473648   -7.0931196    5.6915007  0.018241989  0.033512315            1 
   27000    1.2388095   -7.0830237    6.0803848  0.018766619  0.033451209            2 
   28000    1.2360236   -7.1220254    6.5356799  0.019451428  0.033428711            4 
   29000    1.2645527   -7.1105395    6.9176768  0.019878381   0.03349304            1 
   30000    1.2494821   -7.1751495    7.3606137  0.020446149  0.033541413            2 
   31000    1.2516939   -7.1171227    7.7787376  0.020910585  0.033618148            2 
   32000    1.2380379   -7.0707151    8.1915388  0.021332132  0.033665866            1 
   33000    1.2533426   -7.1201717    8.6272156  0.021785898  0.033750245            2 
   34000    1.2454533   -7.0867626    9.0584741  0.022202142  0.033842974            1 
   35000    1.2533582   -7.1019453    9.4912587  0.022598235  0.033931456            1 
   36000    1.2460846   -7.1117513     9.952544  0.023038296  0.034057379            2 
   37000    1.2238788   -7.1188977    10.346551  0.023303043   0.03413995            3 
   38000    1.2539167   -7.0928149    10.721608  0.023512298  0.034194109            2 
   39000    1.2486142    -7.117127    11.199947   0.02393151  0.034249817            2 
   40000    1.2528947   -7.1872714    11.681202  0.024335837  0.034329459            2 
   41000    1.2400506   -7.1600113     12.06608  0.024524553  0.034388717            3 
   42000     1.263078   -7.0982564    12.469745  0.024741558  0.034445797            1 
   43000    1.2683951   -7.1284451    12.798895  0.024804059  0.034466245            3 
   44000    1.2271634   -7.1589545    12.994683  0.024611142  0.034401846            4 
   45000    1.2327955   -7.1552925    13.263994  0.024562951  0.034292845            1 
   46000    1.2197362   -7.1308372    13.602197   0.02464166  0.034152621            1 
   47000    1.2560176   -7.1492332    14.104364  0.025007737  0.034025964            1 
   48000    1.2217655   -7.1734664    14.422746  0.025039489  0.033928905            2 
   49000    1.2617429   -7.1727041    14.904769  0.025348246  0.033848674            2 
   50000    1.2499084    -7.192707    15.368247  0.025613745  0.033803633            2 
   51000    1.2663819   -7.1191069    15.797882  0.025813532  0.033765439            2 
   52000    1.2508171   -7.1448068    16.167064  0.025908756  0.033747411            2 
   53000    1.2554794   -7.2097313    16.571846  0.026056361  0.033722404            2 
   54000    1.2464632   -7.1364883      17.1312  0.026437036   0.03371825            2 
   55000    1.2315502   -7.0804009    17.427713  0.026405626  0.033704135            2 
   56000    1.2331091   -7.1450961    17.719129  0.026367751  0.033681555            3 
   57000    1.2320463   -7.1548223    18.244036  0.026672567   0.03364954            2 
   58000    1.2565358    -7.130058    18.658397  0.026808041  0.033634723            1 
   59000    1.2323341   -7.1730531    19.124992    0.0270127  0.033627406            1 
   60000    1.2355671   -7.1374339    19.478796  0.027053884  0.033623288            2 
   61000    1.2473226   -7.1267442    19.901968   0.02718848  0.033621557            3 
   62000    1.2717243   -7.1259251    20.187801  0.027134141   0.03360416            2 
   63000     1.231427   -7.0932554    20.623142  0.027279288  0.033589187            2 
   64000    1.2233801   -7.1737615    21.010229  0.027357069  0.033577196            2 
   65000     1.238302   -7.1619634    21.530334  0.027602992  0.033582493            1 
   66000    1.2233301    -7.128115    21.798264  0.027523061  0.033580068            2 
   67000    1.2423699   -7.1500551    22.317587  0.027758193  0.033587245            4 
   68000    1.2199238   -7.1421342    22.520802  0.027599022  0.033579973            2 
   69000    1.2320961   -7.1695053    23.021719  0.027804008  0.033572104            4 
   70000    1.2293022   -7.1821462    23.482471  0.027955322  0.033570872            2 
   71000    1.2613312   -7.1559956    23.749646  0.027875171  0.033558847            2 
   72000    1.2242012     -7.14278    24.200901  0.028010302  0.033550047            2 
   73000    1.2366888    -7.106937    24.687006  0.028181514  0.033547558            2 
   74000    1.2391423   -7.1383587    25.204791  0.028383774  0.033558361            1 
   75000    1.2142946   -7.1689196     25.47544  0.028306044  0.033565294            3 
   76000    1.2550891   -7.1489536    25.837812  0.028330934  0.033563698            2 
   77000    1.2439436    -7.094638    26.317226  0.028481846  0.033553231            4 
   78000    1.2384306   -7.1206787    26.703407  0.028529281  0.033557365            2 
   79000    1.2425392   -7.1877109    27.057956  0.028542147  0.033558483            2 
   80000    1.2107954    -7.135866    27.443451  0.028586928  0.033561084            1 
   81000    1.2298173   -7.1403379    27.953617  0.028758865  0.033567727            1 
   82000    1.2242244   -7.1619899    28.407772  0.028869687  0.033571975            3 
   83000    1.2322305   -7.1636133    28.748048  0.028863502  0.033575213            2 
   84000    1.2389425   -7.1486584    29.015962  0.028785676  0.033571706            2 
   85000    1.2393236   -7.1407906    29.435695  0.028858524  0.033562888            3 
   86000    1.2379102   -7.1379479     29.81927  0.028894641  0.033552644            1 
   87000    1.2594136   -7.1248594    30.314222  0.029036611  0.033545943            2 
   88000    1.2301968   -7.1640094    30.575608  0.028954174  0.033536929            2 
   89000    1.2462529   -7.1552129    30.781025  0.028821185  0.033512883            1 
   90000    1.2308937   -7.1513898    31.162174  0.028853865  0.033491657            1 
   91000    1.2597053   -7.1432065    31.536386  0.028879474  0.033473555            2 
   92000     1.240769   -7.1415054    32.101211  0.029077184  0.033455242            1 
   93000    1.2261851   -7.1560708    32.417942  0.029048335  0.033433369            2 
   94000    1.2665532   -7.1406396    32.849302  0.029121721  0.033413397            1 
   95000    1.2429814   -7.1088467    33.308385  0.029217881  0.033399467            3 
   96000    1.2313824   -7.1101845    33.580526  0.029149762  0.033384725            2 
   97000    1.2329314   -7.1594879    33.947872  0.029164838  0.033368081            3 
   98000    1.2372952    -7.147204    34.290043    0.0291582  0.033350202            4 
   99000    1.2866621   -7.1213912    34.580645  0.029108287  0.033324223            2 
  100000    1.2415621   -7.1019831    34.879484  0.029066236  0.033290689            3 
  101000    1.2188324   -7.1711117     35.04586  0.028915726  0.033254466            2 
  102000    1.2471582   -7.1094137    35.628807  0.029108502  0.033220175            3 
  103000    1.2276869   -7.1770404    35.883916  0.029032295  0.033190267            2 
  104000    1.2527753   -7.1651001    36.408734  0.029173665  0.033161338            3 
  105000    1.2290214   -7.1366072    36.626591  0.029068723  0.033132684            1 
  106000    1.1999514   -7.1193955    37.065869  0.029139834  0.033100346            1 
  107000    1.2433693   -7.1435633     37.22405  0.028990693  0.033062438            2 
  108000    1.2562417   -7.1137425     37.72321  0.029107415  0.033027561            2 
  109000    1.2218005   -7.1696691    38.112193  0.029137762  0.032993175            1 
  110000    1.2354039   -7.1330561    38.506462  0.029171562  0.032959221            2 
  111000     1.223679   -7.1258212    38.896427  0.029201521  0.032923261            1 
  112000    1.2197061   -7.1975302    39.194006  0.029162207  0.032887527            3 
  113000     1.211028   -7.2253333    39.555321  0.029170591  0.032858258            3 
  114000     1.240862   -7.1645751    39.978482  0.029224036  0.032830063            1 
  115000    1.2469191   -7.2158842    40.257242  0.029171914  0.032802252            2 
  116000    1.2374751   -7.1508328    40.830454  0.029332223  0.032772201            1 
  117000    1.2242679   -7.1559386    41.000613  0.029202716  0.032742319            2 
  118000    1.2021251   -7.1466787    41.389229  0.029229681  0.032715776            1 
  119000    1.2175952   -7.1252511    41.870137  0.029320824  0.032688644            3 
  120000    1.2025379   -7.1847296    41.978306  0.029151601  0.032659681            2 
  121000    1.2308122   -7.1399254    42.443264  0.029230898  0.032629477            4 
  122000     1.236329   -7.1825684    42.780804   0.02922186  0.032600111            4 
  123000     1.231709   -7.1129479    43.236572   0.02929307   0.03257016            1 
  124000    1.2288561    -7.210382    43.365035  0.029143168  0.032536012            2 
  125000    1.2384205   -7.1972085    43.616486  0.029077657  0.032498072            2 
  126000    1.2292092   -7.1611148    44.099759  0.029166507   0.03246204            3 
  127000    1.2469794   -7.1402719    44.468541  0.029178832  0.032430469            3 
  128000    1.2014325   -7.1539678    45.012563  0.029305054  0.032403515            5 
  129000    1.2341692   -7.1266936    45.230454   0.02921864  0.032375235            3 
  130000    1.2433474   -7.1563848    45.530562  0.029186258   0.03234304            2 
  131000    1.2392157   -7.1896687     46.00454  0.029264975  0.032309614            4 
  132000    1.2493153   -7.1408548    46.479467  0.029343098  0.032284153            2 
  133000    1.2359395    -7.187511    46.856393  0.029358642  0.032258255            4 
  134000    1.2305392   -7.2029984    47.117779  0.029302101  0.032237544            2 
  135000    1.2235905   -7.1737342    47.647164  0.029411829   0.03221688            2 
  136000    1.2586376   -7.1603036    48.361146  0.029633055  0.032205733            2 
  137000    1.2329093   -7.1309034    48.915507  0.029753958  0.032199223            4 
  138000    1.2188463   -7.1705595    49.108228  0.029654727  0.032192226            1 
  139000    1.2328205   -7.1462918     49.32209  0.029569598  0.032182331            2 
  140000     1.252861   -7.1796825    49.650226  0.029553706  0.032171408            3 
  141000    1.2460962   -7.1574318    49.805714  0.029436001  0.032156194            1 
  142000      1.25297   -7.1845046    50.098438  0.029400492  0.032140293            3 
  143000    1.2339839   -7.1261287    50.747361  0.029573054  0.032125659            3 
  144000    1.2403488   -7.1894334    51.168956  0.029611664  0.032114664            5 
  145000    1.2297115   -7.1741806    51.675489  0.029698557  0.032103453            1 
  146000    1.2184466   -7.1831775    52.073076  0.029722075  0.032093179            6 
  147000    1.2316998   -7.1774721    52.239732  0.029614361  0.032079458            2 
  148000    1.2263843   -7.1981276     52.37278  0.029489178   0.03206212            3 
  149000    1.2459466   -7.2131933    52.801629  0.029531113  0.032042043            1 
  150000    1.2288271    -7.172091    53.301498  0.029611943  0.032025356            1 
  151000    1.2235284   -7.1816799    53.660307  0.029613856  0.032011504            3 
  152000    1.2258083   -7.1631017    54.169641  0.029698268  0.031998393            2 
  153000    1.2547721   -7.1771809    54.313567  0.029582553  0.031986357            2 
  154000    1.2216974   -7.1253758     55.33019  0.029940579  0.031978849            1 
  155000    1.2166468   -7.1805037    55.365792  0.029766555  0.031974402            2 
  156000     1.225045   -7.1280866    55.808006  0.029811969  0.031969298            2 
  157000    1.2247967   -7.2019233    56.300062   0.02988326  0.031963577            1 
  158000    1.2274191   -7.1751171    56.627731  0.029866947  0.031958977            2 
  159000    1.2553521   -7.1790442    56.833569  0.029786986  0.031953824            3 
  160000     1.212357   -7.2272188    57.213984   0.02979895  0.031948951            1 
  161000     1.202319   -7.1525618    57.937516  0.029988362  0.031943921            3 
  162000    1.2469351   -7.1647131    58.578309  0.030132875  0.031942933            1 
  163000    1.2238405   -7.1875526    58.489276  0.029902493  0.031940939            3 
  164000    1.2117091   -7.1803615     59.03115  0.029995503  0.031936288            1 
  165000    1.2326733   -7.1759452      59.0159   0.02980601  0.031928414            2 
  166000    1.2129927   -7.1933855    59.429016  0.029833843  0.031918162            2 
  167000     1.257584   -7.1830688    59.724542  0.029802666  0.031909015            1 
  168000    1.1873468   -7.2230386     59.94794  0.029736081  0.031898172            3 
  169000    1.2467005   -7.2042462    60.449885  0.029807636  0.031888108            1 
  170000    1.2402152   -7.1851121    60.643938  0.029727421  0.031877757            2 
  171000    1.2310849   -7.2050396    61.199498  0.029824316  0.031869065            3 
  172000    1.2103703   -7.1669458    61.765832  0.029925306  0.031861995            2 
  173000    1.2216921   -7.1868707    61.778623  0.029758489  0.031855486            2 
  174000    1.2040887    -7.175745    62.189716  0.029784347  0.031846434            1 
  175000     1.238355   -7.1650694    62.872484  0.029939278   0.03183921            3 
  176000    1.2173046   -7.1643726    63.177051  0.029913376  0.031832762            2 
  177000    1.2136702   -7.1792258    63.303795  0.029804047  0.031826646            3 
  178000    1.2374954   -7.1774974    63.992636  0.029959099  0.031821687            1 
  179000    1.2395372   -7.1933081    64.179739  0.029878836  0.031815721            2 
  180000    1.2373473   -7.2039625    64.526889   0.02987356  0.031810527            1 
  181000    1.2394537   -7.1885558    65.244083  0.030038712  0.031804223            2 
  182000    1.2152891   -7.2419844     65.37615  0.029934135  0.031799797            3 
  183000    1.2531509   -7.1478963    66.039863  0.030072797  0.031796149            2 
  184000    1.2128351   -7.1629157    66.429155  0.030085668  0.031792284            1 
  185000    1.2175293   -7.1381202     66.62303  0.030010374  0.031784579            1 
  186000     1.196687   -7.1623957    66.927069  0.029985246  0.031776412            3 
  187000    1.2267003    -7.221209    66.824379  0.029779135  0.031767183            3 
  188000    1.2268597   -7.2083105    67.164476  0.029771487  0.031755324            1 
  189000     1.241618   -7.1586995     67.83534  0.029909762   0.03174548            1 
  190000    1.2214316   -7.2145184    68.082271  0.029860645  0.031737708            1 
  191000    1.1962431   -7.1937246    68.764556  0.030001988  0.031731491            2 
  192000     1.238646   -7.2055818    69.020658  0.029956883  0.031726608            3 
  193000    1.2404611   -7.1538615    69.709925  0.030099277  0.031723341            1 
  194000    1.2368236   -7.2302624    69.838882   0.02999952  0.031720669            6 
  195000    1.2175525   -7.2100899    70.198489  0.029999354  0.031716442            3 
  196000     1.212927   -7.1581152     70.89913  0.030144188  0.031712114            3 
  197000    1.2663247   -7.1787179    71.084669  0.030069657  0.031708759            2 
  198000    1.2378216    -7.212203    71.128084  0.029936062  0.031703874            1 
  199000    1.2084668   -7.1816992    71.908963  0.030112631  0.031698501            2 
  200000    1.2037726    -7.172263     72.29862  0.030124425  0.031694605            1 
  201000    1.1964983   -7.1599048    72.931415  0.030236905    0.0316935            1 
  202000    1.2214714   -7.2168727    72.668264  0.029978657  0.031690574            3 
  203000    1.2250727   -7.1788476    73.173902  0.030038547  0.031684963            1 
  204000    1.2202155   -7.1752081    73.616582  0.030072133  0.031677313            1 
  205000    1.2267115   -7.2017337    74.113617  0.030127486  0.031671712            2 
  206000    1.2245125   -7.2360534    74.125283  0.029985956  0.031667223            3 
  207000    1.2199341   -7.2027239    74.303582  0.029912875  0.031658804            1 
  208000    1.2371451   -7.1927471    74.727709  0.029938986  0.031649475            1 
  209000    1.2115112   -7.1696534    75.046251  0.029922748  0.031639366            1 
  210000    1.2084222   -7.1937415    75.516981  0.029967056  0.031627935            1 
  211000    1.2106639   -7.1743696    75.853859   0.02995808  0.031618585            3 
  212000    1.2484799   -7.1612639    76.226889    0.0299634  0.031609853            2 
  213000    1.2014817   -7.2541171    76.734668  0.030021388  0.031602061            2 
  214000    1.2240479   -7.2041434    77.009359  0.029988068  0.031594885            2 
  215000    1.2170574   -7.2017384    77.530794  0.030050695  0.031589593            3 
  216000    1.1968191   -7.1642806    78.157248  0.030153259  0.031585955            1 
  217000    1.2092715   -7.2160031    78.373272  0.030097263  0.031583236            2 
  218000    1.2095709    -7.211942    78.810254  0.030126244  0.031581395            1 
  219000    1.2040718    -7.217127    79.263064  0.030160983  0.031579317            2 
  220000    1.1992301   -7.2003994    79.836645  0.030241153  0.031578017            1 
  221000    1.2324396   -7.1254791    80.574025  0.030382362  0.031579926            3 
  222000    1.2168064   -7.1531125    80.916945  0.030374228  0.031580106            2 
  223000    1.2186706   -7.2042064    81.311379  0.030385418  0.031581695            2 
  224000    1.2308461   -7.1496797    81.612622  0.030361838  0.031583822            7 
  225000    1.2148268   -7.1831809     82.12705  0.030417426  0.031583733            1 
  226000    1.2197061   -7.1719766    82.518658  0.030427234  0.031584045            1 
  227000    1.2222791   -7.2085564    82.645837  0.030339881  0.031586288            2 
  228000    1.2250484   -7.1716378    83.188822  0.030405271  0.031585546            2 
  229000    1.2158267   -7.2203436    83.107923  0.030243058  0.031585048            3 
  230000    1.2321928   -7.2681253    83.019393   0.03007949    0.0315844            2 
  231000    1.2060895   -7.2282079    83.702715  0.030195785  0.031580241            1 
  232000     1.201248   -7.1501734     84.32741  0.030290018  0.031577022            2 
  233000    1.2247209   -7.2137231     84.54488  0.030237797  0.031573322            1 
  234000    1.2164998   -7.2171027    84.453565  0.030076056  0.031570678            3 
  235000    1.2342133   -7.2404616    85.297852  0.030247465  0.031568233            1 
  236000    1.2105473    -7.205048    85.914903  0.030337183  0.031566014            1 
  237000    1.2136563   -7.2005124    86.534802  0.030427145  0.031564942            8 
  238000     1.215029   -7.2104029    86.470754  0.030276875  0.031563571            2 
  239000    1.1901665   -7.2064923    86.840162  0.030278997   0.03155966            3 
  240000    1.2170613   -7.2599645    86.925747  0.030182551  0.031557527            2 
  241000    1.2083949   -7.2008573    87.418719  0.030227773  0.031553752            1 
  242000    1.2571543   -7.1833237    88.282093   0.03040017  0.031550461            2 
  243000     1.206097   -7.2009526    88.136983  0.030225303  0.031550291           10 
  244000    1.1972659   -7.2398127    88.968104  0.030385281  0.031548941            2 
  245000     1.194566   -7.1873637    88.859417  0.030224291  0.031547442            1 
  246000    1.2046998   -7.2113082    89.500429  0.030318573  0.031545165            1 
  247000    1.2269935   -7.2191788    89.711837  0.030267152  0.031542238            1 
  248000     1.203038   -7.2041923    89.918478  0.030214542  0.031540394            1 
  249000    1.2229353   -7.2118245    90.684072  0.030349422  0.031538566            2 
  250000    1.1965877   -7.2332557    90.870443  0.030290148   0.03153669            1 
  251000    1.1881709   -7.2227859    91.439801  0.030358499  0.031536431            1 
  252000    1.2613962   -7.2150971    91.831447  0.030367542    0.0315343            1 
  253000    1.2150201   -7.2017471    92.086625  0.030331563   0.03153228            2 
  254000    1.2006238   -7.2154276    92.185698  0.030244651  0.031528822            2 
  255000    1.2298875   -7.1950133    92.528059  0.030237928  0.031524664            1 
  256000    1.2447618   -7.2629033    92.875907  0.030233043  0.031522763            3 
  257000    1.2054924   -7.2042151    93.383598  0.030280025  0.031521469            4 
  258000    1.2340628   -7.2439768    93.862369  0.030317303  0.031519009            3 
  259000    1.2326025   -7.2272878    94.791592  0.030499225  0.031518171            2 
  260000    1.2226221   -7.2269226    94.749902  0.030368558  0.031517898            2 
  261000    1.2135105   -7.1944068    95.156846  0.030382135  0.031518274            4 
  262000    1.2084805   -7.1813127    96.216277  0.030603141  0.031518122            2 
  263000    1.2273076   -7.2078476    95.673127  0.030314679  0.031517082            3 
  264000    1.2091601   -7.2109302    96.082532  0.030329082  0.031515285            2 
  265000     1.204446   -7.2153534     96.28181  0.030277299  0.031512772            6 
  266000    1.1892452   -7.2028092    96.887531  0.030353237  0.031509665            1 
  267000    1.2099897   -7.2343133    96.876485  0.030236106  0.031506164            2 
  268000    1.1806674   -7.1997443    97.551816  0.030333276  0.031502004            1 
  269000    1.1998481   -7.2383489    97.601416  0.030235879  0.031497823            1 
  270000    1.1993009   -7.2091327    98.337944  0.030351217  0.031492901            4 
  271000    1.2159151   -7.2512179    98.245609  0.030210827   0.03148828            1 
  272000    1.2057021   -7.2063282    99.046502  0.030345129  0.031484112            3 
  273000    1.1994206   -7.1979196    99.052749  0.030235882  0.031479024            3 
  274000    1.2073033   -7.2001362    99.820391     0.030359  0.031474546            2 
  275000    1.2406038   -7.2030827    99.953571  0.030288961   0.03147022            2 
  276000    1.1477124   -7.2286852    100.26701  0.030273856  0.031465038            4 
  277000    1.2183441   -7.1832778    100.41549  0.030209234  0.031459557            1 
  278000    1.2261778    -7.204293    101.06059  0.030293941  0.031454182            3 
  279000    1.2006008   -7.2060252    101.16643  0.030216974  0.031449686            1 
  280000    1.1964973   -7.2451972    101.37862   0.03017221  0.031442659            1 
  281000     1.215273   -7.1923731    102.05779  0.030266249  0.031436866            1 
  282000    1.2302425   -7.2465723    102.01666  0.030146767  0.031430636            1 
  283000    1.2171938   -7.2238527    102.08342    0.0300599  0.031424626            2 
  284000    1.1866291   -7.2241194    102.62177  0.030112021  0.031418245            6 
  285000    1.2161748   -7.2308782    102.70679  0.030031225   0.03141071            2 
  286000    1.2140859   -7.1967314    103.19675  0.030068982  0.031404045            3 
  287000    1.2449102   -7.1985952    103.70203  0.030110925  0.031395661            1 
  288000    1.2120712    -7.276464    103.50619  0.029949709  0.031388682            2 
  289000    1.1922359     -7.23096    104.06179  0.030006282  0.031379524            1 
  290000    1.1756986    -7.225583    104.83399  0.030124711  0.031371492            4 
  291000    1.2481951   -7.2726473    105.13309  0.030106843   0.03136463            2 
  292000    1.1970121   -7.2416114    105.71134   0.03016876  0.031358058            3 
  293000    1.1995063   -7.2246595    105.94857  0.030133268  0.031350745            5 
  294000    1.1969626   -7.2374067    105.83718    0.0299992  0.031344025            3 
  295000    1.2130969   -7.2357361    106.79696  0.030168633  0.031337431            2 
  296000    1.1707203   -7.2017134    107.33235  0.030217442  0.031332218            2 
  297000    1.2100036   -7.2506653    107.48983  0.030159884  0.031326354            1 
  298000    1.2075345   -7.2420444    107.84693  0.030158538  0.031321335            1 
  299000    1.1808617   -7.2407298    108.41079  0.030214823  0.031317207            3 
  300000    1.1888459   -7.2718343    108.63255  0.030175707  0.031311118            1 
  301000    1.2200999   -7.2336139    108.49308  0.030036844  0.031304823            2 
  302000    1.2063012   -7.2200811    109.63462  0.030252378  0.031298845            2 
  303000    1.2120724   -7.2211771    110.21964  0.030313431  0.031293869            1 
  304000    1.2097465   -7.2198632    110.36472  0.030253487  0.031290517            4 
  305000    1.2422638   -7.2379138    110.90257  0.030301247  0.031286986            4 
  306000    1.1799266   -7.2328476    111.11297  0.030259524  0.031283056            2 
  307000    1.2101381   -7.2386402    111.57262  0.030285728  0.031278874            3 
  308000    1.1944202   -7.2708742    111.93643  0.030285831   0.03127627            2 
  309000    1.2048371    -7.229113     112.3629  0.030302833  0.031274327            6 
  310000    1.1923814   -7.1653982    113.26075  0.030446439  0.031272348            1 
  311000    1.1796296   -7.2577888    112.74123  0.030209333  0.031270664            3 
  312000    1.2033079   -7.1928692    114.27634  0.030522526  0.031269421            1 
  313000    1.1954553   -7.1931234    114.48695  0.030481083  0.031269294            9 
  314000    1.1885384   -7.2585694    114.59745  0.030413337  0.031267251            1 
  315000    1.2323843   -7.2478228    114.36721  0.030255876  0.031264584            2 
  316000    1.2226149   -7.2844088    115.10226  0.030353972  0.031263364            2 
  317000    1.1976578   -7.2748777    115.51496  0.030366707  0.031261592            2 
  318000    1.1904865   -7.2512191    116.05313  0.030412246  0.031260477            1 
  319000    1.1856447   -7.2099261    116.46146  0.030423578   0.03125956            2 
  320000    1.2151223   -7.2514217     116.9264  0.030449582  0.031259578            1 
  321000    1.1946505   -7.2187529    117.32738  0.030458821  0.031260858            2 
  322000    1.2019543   -7.1767812     118.1896   0.03058737  0.031262829            2 
  323000    1.2145397   -7.2435263    118.18841  0.030492366  0.031264352            3 
  324000    1.1866153   -7.2690263    118.12036   0.03038075  0.031265008            7 
  325000    1.1966193     -7.23432      118.911      0.03049   0.03126488            2 
  326000    1.1920307   -7.2492282      118.866   0.03038497  0.031265336            2 
  327000    1.1816461   -7.2616522    119.55651  0.030468019  0.031264041            2 
  328000    1.1965595    -7.234572    120.40803   0.03059147  0.031265343            1 
  329000    1.2192866   -7.2492181    120.50142  0.030522142  0.031265809            1 
  330000    1.2019938   -7.2498187    120.76357  0.030495851  0.031266354            2 
  331000    1.1976591   -7.2564022    120.90591  0.030439553  0.031267128            1 
  332000    1.1844308   -7.2747662    120.94771  0.030358362  0.031267353            3 
  333000    1.1997016   -7.2657749     121.3705  0.030372997  0.031266245            5 
  334000    1.1794154    -7.205914    122.30574  0.030515405  0.031265358            2 
  335000    1.1932323   -7.2358956    122.73905  0.030532102   0.03126603            2 
  336000    1.2104488   -7.2413157    122.86976   0.03047365  0.031264813            2 
  337000    1.1940661   -7.2903482    123.04982  0.030427749  0.031263884            2 
  338000     1.213089   -7.2289776    123.56279  0.030464199  0.031262678            2 
  339000    1.2068435   -7.2533768    123.50881  0.030361065   0.03126127            4 
  340000    1.1889556   -7.2348483    124.78196  0.030583813  0.031259844            2 
  341000      1.20589   -7.2579477    124.72841  0.030481037  0.031259978            2 
  342000    1.1613049   -7.2411765    124.92229  0.030439154  0.031259716            1 
  343000    1.2172614     -7.31146    125.06722  0.030385622  0.031258908            3 
  344000    1.2164679   -7.2550879    125.65759  0.030440308  0.031257515            2 
  345000    1.1835753   -7.2480232    126.05465  0.030447982  0.031256114            2 
  346000    1.2015276    -7.218378    126.42442  0.030449042   0.03125484            8 
  347000    1.1831396   -7.2556222    126.57784  0.030398137  0.031252598            1 
  348000     1.207521   -7.2339547    126.45425   0.03028119  0.031250397            2 
  349000    1.2159993    -7.233056    127.50171  0.030444535   0.03124813            2 
  350000     1.201236   -7.2679625    127.71717   0.03040885  0.031246538            3 
  351000    1.1721989   -7.2703033    127.65982    0.0303086  0.031243342            3 
  352000    1.1980927   -7.2184477    128.50393  0.030422331   0.03123994            1 
  353000    1.1938952     -7.32308    127.80297  0.030170673  0.031236728            4 
  354000      1.17689   -7.2712362    128.48535  0.030246079   0.03123301            2 
  355000     1.212921   -7.3026181    128.96949  0.030274527  0.031229928            6 
  356000    1.1978402   -7.2418391    129.58596  0.030333793   0.03122694            2 
  357000    1.1692561   -7.2167676    129.83405  0.030306735  0.031223797            1 
  358000    1.2034254   -7.2316197     130.2512  0.030319181  0.031220691            1 
  359000    1.1933319   -7.2608757    130.67564  0.030333249  0.031217088            1 
  360000    1.1818584   -7.2464085    130.55706  0.030221541  0.031212419            2 
  361000    1.1953109   -7.2362767     130.9681  0.030232711  0.031207757            4 
  362000    1.1749936    -7.235608    131.63199  0.030302023  0.031203332            4 
  363000    1.2083743   -7.2539534    131.56729  0.030203694  0.031197741            2 
  364000    1.2031701   -7.2738324    132.03857   0.03022861  0.031191721            2 
  365000    1.1556943   -7.2767278     132.2102  0.030184977  0.031185408            2 
  366000    1.1969199     -7.26987    132.41702  0.030149595  0.031180362            2 
  367000    1.2029704   -7.2278859     133.0376  0.030208357  0.031175325            4 
  368000    1.1951434   -7.2902884    133.19054  0.030160902  0.031170018            3 
  369000    1.1696063   -7.2867062    133.29078  0.030101802  0.031164325            1 
  370000    1.1793284   -7.2272187    133.87019  0.030150945  0.031158071            2 
  371000    1.2159418   -7.2013356    135.03958  0.030332341  0.031153513       -1e+20 
  372000    1.1744636   -7.3129685    134.78094  0.030192863  0.031148482            2 
  373000    1.1929623   -7.2380894    135.41126  0.030252739  0.031143267            2 
  374000    1.1954814   -7.2373948    135.62601  0.030219699  0.031137463            2 
  375000    1.1922349   -7.2382056    136.22725  0.030272723  0.031133515            2 
  376000    1.1951008   -7.1742989     137.0458  0.030373625  0.031130223            1 
  377000    1.2028743   -7.2594225    136.33816  0.030136641  0.031125945            2 
  378000     1.197904   -7.2904561    136.99523  0.030201769  0.031121797            1 
  379000    1.1960152   -7.2680313    137.56254  0.030246821  0.031116672            2 
  380000    1.1845682   -7.2519904    138.32052  0.030333447  0.031112678            1 
  381000     1.189883   -7.2740017    138.55013  0.030304053  0.031109969            2 
  382000    1.1634501   -7.3202232    138.75898  0.030270283  0.031107375            2 
  383000    1.1935214   -7.3061865    138.72746   0.03018439  0.031104196            1 
  384000    1.1736886   -7.2984798    139.73636   0.03032473  0.031101636            5 
  385000    1.2052345   -7.2777185    140.39653  0.030388859   0.03109952            1 
  386000    1.1918607   -7.2796281    140.11035  0.030248348  0.031096553            1 
  387000    1.1811452   -7.3006629    140.36303  0.030224597  0.031093226            6 
  388000    1.1942818   -7.2538171    141.48684  0.030388067  0.031089139            3 
  389000    1.2021043   -7.2607103    141.42668   0.03029706  0.031085869            2 
  390000    1.1507688   -7.2631591    141.78233   0.03029537  0.031083114            2 
  391000    1.1868117   -7.2630155    141.92536  0.030248372   0.03107952            3 
  392000     1.196793   -7.2408594    141.94394  0.030175157  0.031075466            1 
  393000    1.1748488   -7.2600486    142.34563  0.030183551  0.031070327            3 
  394000    1.1907957    -7.275164    142.53587   0.03014718  0.031065508            1 
  395000    1.1772694   -7.2668958    142.39291  0.030040697  0.031059798            3 
  396000    1.1975651   -7.2794128    143.11154  0.030116065  0.031054149            4 
  397000    1.1932014   -7.2779282    143.19054  0.030056788  0.031047361            1 
  398000     1.194169    -7.318533    143.24249  0.029992146   0.03104067            2 
  399000    1.1879111   -7.2482083     143.7679  0.030026712  0.031033811            2 
  400000    1.1898508   -7.2874945    144.42926  0.030089429  0.031027064            2 
  401000    1.1947979   -7.2843639    144.59244  0.030048304  0.031020808            3 
  402000     1.210524   -7.2780541    144.59491   0.02997407  0.031014286            2 
  403000    1.2053551   -7.2752553    145.32952  0.030051596  0.031007524            2 
  404000    1.2037526   -7.2951195    145.38279    0.0299882   0.03100081            3 
  405000    1.1807668   -7.3012951    146.19588  0.030081456  0.030994093            1 
  406000    1.1904912   -7.2900508    146.57559  0.030085301  0.030987926            1 
  407000    1.1759725   -7.2711551    146.44268  0.029984169  0.030981752            2 
  408000    1.1739958   -7.2328109    147.50515  0.030127685  0.030975692            3 
  409000    1.1960626   -7.2782508    147.61749  0.030076913  0.030969498            3 
  410000    1.2003604    -7.246239    148.11445  0.030104562  0.030964601            3 
  411000    1.2049417    -7.270884    148.46161  0.030101705  0.030959195            3 
  412000    1.1952747   -7.3356573    148.28693   0.02999331  0.030952558            2 
  413000    1.1712899    -7.265224    148.82725  0.030029712  0.030946852            3 
  414000    1.2096697   -7.2653232    149.17123  0.030026414  0.030940907            1 
  415000    1.1804448   -7.3022474    148.79987  0.029879492  0.030935072            2 
  416000     1.193904   -7.3009424    149.96227  0.030040518   0.03092889            5 
  417000    1.1909038   -7.2554842    150.59212  0.030094348  0.030922937            2 
  418000     1.193541   -7.2848973    150.69485  0.030042832  0.030917673            2 
  419000    1.1706938   -7.3229909    151.29782  0.030091054  0.030913078            4 
  420000    1.1673178   -7.2802381    151.69422  0.030098059  0.030908196            4 
  421000    1.1857596   -7.2709492    151.90106   0.03006751  0.030903628            1 
  422000    1.1941649   -7.2859971    152.32904  0.030080774  0.030899399            3 
  423000    1.1818678   -7.2768814    152.69005  0.030080781  0.030894827            1 
  424000    1.1751892   -7.2556616    153.25407  0.030120689  0.030890179            3 
  425000    1.1906589   -7.2846963    153.32377  0.030063484    0.0308854            9 
  426000    1.1778222   -7.2619304    153.64458  0.030055669  0.030880174            1 
  427000    1.1767474   -7.3239325      153.393  0.029936183   0.03087455            8 
  428000    1.1631438   -7.3232377    153.80425  0.029946311  0.030868555            2 
  429000    1.1709027   -7.2583353    154.50647  0.030012912  0.030862407            1 
  430000    1.1620183   -7.2658471    155.12909  0.030063777  0.030856804            1 
  431000    1.1618695   -7.3020407    154.87211  0.029944337  0.030850985            3 
  432000    1.2080537   -7.3127659    155.04119  0.029907637  0.030844715            2 
  433000    1.2010231   -7.2621768    155.83613  0.029991557    0.0308391            2 
  434000    1.2170303   -7.2768033    156.05594  0.029964659  0.030832759            5 
  435000    1.1672196   -7.2573079    156.56617  0.029993519  0.030827269            2 
  436000    1.1684019   -7.2727141    156.53175  0.029918148  0.030821425            3 
  437000    1.2050678    -7.259427    157.11524  0.029960953  0.030815389            1 
  438000      1.16372   -7.2706446    157.19632  0.029907975  0.030808955            4 
  439000    1.1866076   -7.3431466    156.98887  0.029800469  0.030801577            1 
  440000    1.1711582   -7.2562323    157.52081  0.029833486  0.030794305            3 
  441000    1.1632473   -7.3008917    157.51273  0.029764311  0.030786139            4 
  442000    1.1841341   -7.3360332    157.58278  0.029710177  0.030777248            3 
  443000    1.2035355   -7.2994385    157.72988  0.029670782  0.030767962            3 
  444000    1.1712402    -7.287962    157.62198  0.029583705  0.030758397            3 
  445000    1.2076754    -7.279248    158.06218   0.02959966  0.030748112            1 
  446000    1.1828692   -7.2772907      158.534   0.02962145  0.030737843            1 
  447000    1.1747465   -7.2976445    158.66731  0.029580035  0.030727667            1 
  448000    1.1985863   -7.3413926    158.87063  0.029551828  0.030717792            1 
  449000    1.1798232   -7.3156465     160.0314  0.029701448  0.030708043            1 
  450000    1.1823869   -7.3128049    160.11277  0.029650514  0.030699546            2 
  451000    1.1664594    -7.305293    160.34881  0.029628384  0.030690968            3 
  452000    1.1859883   -7.3028075    160.39322   0.02957102  0.030681384            3 
  453000    1.1710754   -7.2963985    161.29558   0.02967174   0.03067201            5 
  454000    1.1980765   -7.2739395    161.21819  0.029592179  0.030663131            2 
  455000    1.1736079   -7.3128178    161.32613  0.029546911   0.03065324            2 
  456000     1.194542   -7.2991819    161.93439  0.029593273  0.030643782            3 
  457000    1.2002491    -7.285746    161.96834  0.029534708  0.030633546            3 
  458000    1.1783204   -7.3205236    162.29224  0.029529155  0.030623319            2 
  459000    1.1916052   -7.3028391    162.51828  0.029505861  0.030613694            3 
  460000    1.1827097   -7.3393964    162.55674  0.029448684  0.030604258            1 
  461000    1.1811133    -7.269248     164.2795  0.029696223  0.030595041            1 
  462000    1.1799298   -7.2853135    164.16721  0.029611691  0.030585716            2 
  463000    1.1616814   -7.2503031    164.38891  0.029587636  0.030576906            3 
  464000    1.1950729   -7.2807878    164.54024   0.02955105  0.030567625            1 
  465000    1.1568966   -7.3251004    164.66414  0.029509702   0.03055819            1 
  466000    1.1626741   -7.2825355    165.17099  0.029537015  0.030549202            1 
  467000    1.1824313    -7.315437    166.18491  0.029654696  0.030540648            2 
  468000    1.1797188   -7.2660357    165.94759  0.029549072  0.030531616            3 
  469000    1.1788052   -7.3340641    165.68716  0.029439794  0.030522116            1 
  470000    1.1567311   -7.3245823    165.29435  0.029307509  0.030511497            2 
  471000    1.1763245   -7.3368167     165.8774  0.029348442  0.030500322            2 
  472000    1.1864139   -7.3028411    166.79826  0.029448845  0.030489728            2 
  473000     1.176637   -7.2980464    166.22452  0.029285504  0.030478478            1 
  474000    1.1814623   -7.3711911    166.05949  0.029194706  0.030467365            1 
  475000    1.1966571    -7.277237    167.45531  0.029378125  0.030455858            2 
  476000    1.1577713   -7.2588527    167.90817  0.029395688   0.03044526            3 
  477000    1.1452333   -7.2941921     167.3938  0.029244201  0.030434128            2 
  478000     1.168769   -7.3105747    168.80297  0.029428691   0.03042307            4 
  479000    1.1824322   -7.3035917    168.30812  0.029281163  0.030412069            3 
  480000    1.1788128   -7.3280472    168.18844  0.029199382  0.030401164            3 
  481000    1.1736046    -7.303182    169.04309  0.029286745  0.030390127            2 
  482000    1.1806241    -7.251643    169.51957  0.029308362  0.030379043            4 
  483000    1.1654137    -7.347657     169.8286  0.029301001  0.030368817            2 
  484000    1.1731212   -7.3250238    170.31886  0.029324872  0.030358294            2 
  485000     1.148529   -7.3208518    170.94564  0.029372103  0.030348039            2 
  486000    1.1578417   -7.3111518    171.03681  0.029327299  0.030338219            1 
  487000    1.1647308   -7.2682411    171.58062  0.029360134  0.030329081            1 
  488000    1.1599815   -7.3362609    171.34139  0.029259117  0.030319765            2 
  489000    1.1575218   -7.3429285    170.92618  0.029128524  0.030309429            3 
  490000    1.1894224   -7.2863783       172.79  0.029386054  0.030298542            3 
  491000    1.1420635   -7.3198451    171.99562  0.029191381   0.03028777            3 
  492000    1.1873145   -7.3706273    171.83046  0.029104075  0.030277155            1 
  493000    1.1845229   -7.2895729    173.43035  0.029315474  0.030266657            1 
  494000    1.1502972   -7.3125277    173.43591   0.02925707  0.030256575            2 
  495000    1.2052162   -7.2433814    174.52889  0.029381967  0.030246892            1 
  496000    1.1510944   -7.2813323    174.72439  0.029355576  0.030237973            1 
  497000    1.1555205    -7.300086     174.2575  0.029218226  0.030228657            2 
  498000    1.1842465   -7.3580404    174.53985  0.029206802  0.030218795            4 
  499000    1.1680677    -7.316218    174.82278  0.029195522    0.0302083            2 
  500000    1.1830016   -7.3154623    175.14593  0.029190988  0.030197625            2 
  501000    1.1909009   -7.3232424    175.15767  0.029134676  0.030186463            1 
  502000    1.1662332   -7.3343151    175.05186  0.029059074  0.030175085            4 
  503000    1.1726967   -7.3135674    175.30285  0.029042884  0.030164349            6 
  504000    1.1780116   -7.3216967    174.90946  0.028920215  0.030152513            2 
  505000    1.1670457   -7.3193981    175.72762  0.028997957  0.030140464            2 
  506000    1.1570736    -7.303446    176.45275  0.029060071  0.030128483            3 
  507000    1.1608017   -7.2954565    177.02662  0.029097077  0.030116701            1 
  508000    1.1689042   -7.2845333    176.74033  0.028992837  0.030104827            1 
  509000    1.1800713   -7.3274865    177.28217  0.029024585  0.030093009            5 
  510000    1.1719706   -7.2555518     177.3852   0.02898451  0.030081273            1 
  511000    1.1734434   -7.3110069    177.61658  0.028965521  0.030069024            2 
  512000    1.1976323   -7.2828835    177.61871  0.028909295  0.030056542            2 
  513000    1.1713122   -7.2986417    177.75012  0.028874288  0.030044314            4 
  514000    1.1669434   -7.2832222    178.76406    0.0289825  0.030032636            4 
  515000    1.1704297   -7.3402683    178.39668  0.028866777  0.030021134            1 
  516000    1.1721262   -7.3321371    178.95673   0.02890128  0.030008771            2 
  517000     1.156858    -7.309125    179.25655  0.028893706  0.029996186            3 
  518000    1.1695388   -7.3098634    178.90549   0.02878145  0.029983888            2 
  519000    1.1584798   -7.2824692    180.14219  0.028924565   0.02997164            4 
  520000    1.1529717    -7.331806    180.13614  0.028867972  0.029959378            1 
  521000    1.1682974   -7.3160689    180.30729  0.028839937   0.02994688            1 
  522000    1.1640399   -7.3049778    180.07041  0.028746873  0.029933669            3 
  523000    1.1467929   -7.2990174    180.51229  0.028762315  0.029920222            3 
  524000    1.1811728   -7.3158298    180.99171  0.028783669  0.029907846            1 
  525000    1.1728219   -7.2959712    181.44567    0.0288009  0.029895766            2 
  526000      1.14563    -7.303284    181.42943  0.028743573  0.029883179            2 
  527000     1.151419   -7.3312197    182.34097  0.028833171  0.029870928            2 
  528000     1.168781   -7.2990069    183.15976  0.028907791  0.029859335            2 
  529000    1.1726959   -7.3890989    182.89534   0.02881149  0.029847309            2 
  530000    1.1697338   -7.2870338    183.80645  0.028900385  0.029835957            1 
  531000    1.1500038    -7.311258    183.89941  0.028860547  0.029824638            2 
  532000    1.1501773    -7.268308    183.92632  0.028810514  0.029813286            3 
  533000    1.1633465   -7.3489799    184.01361  0.028770108  0.029801863            1 
  534000    1.1722189   -7.3491483    183.98661  0.028712018  0.029789704            1 
  535000    1.1788083   -7.2919199    184.97647  0.028812535  0.029777808            1 
  536000    1.1666814   -7.3553856    185.17873  0.028790225  0.029766265            3 
  537000    1.1649246   -7.3457728    185.57505  0.028798115  0.029755046            3 
  538000      1.16087   -7.2818182    185.97966  0.028807258  0.029744218            2 
  539000    1.1551451   -7.3275914    185.89774  0.028741148  0.029733047            1 
  540000     1.175693   -7.3496371    186.55154  0.028788817  0.029721986            2 
  541000    1.1512521   -7.3164755    186.36587  0.028707005  0.029711373            2 
  542000    1.1513525   -7.3131123    186.81939  0.028723769  0.029700989            2 
  543000    1.1678353   -7.3583431    187.09862  0.028713722  0.029690381            4 
  544000    1.1357314   -7.3239447    188.42732   0.02886448   0.02967999            1 
  545000    1.1757252   -7.3097639    188.43032  0.028811975  0.029669977            1 
  546000      1.15453   -7.2949147    188.86518  0.028825576  0.029659815            2 
  547000    1.1845517   -7.3187789    189.03449  0.028798672  0.029649213            2 
  548000    1.1672982   -7.3163913    188.49755  0.028664469  0.029638449            3 
  549000    1.1778955   -7.3777688    188.70911   0.02864437  0.029627234            1 
  550000    1.1781836   -7.3669334    189.22112  0.028669867  0.029616053            2 
  551000    1.1653866   -7.3220977    189.47432  0.028656128  0.029605253            2 
  552000    1.1800324   -7.3438439    190.14292  0.028705151  0.029594158            4 
  553000    1.1530685   -7.3234903    190.71416  0.028739324  0.029583503            3 
  554000    1.1755374   -7.3197106    190.96085  0.028724556   0.02957292            5 
  555000    1.1700817   -7.3435409     191.3509  0.028731367  0.029563333            2 
  556000    1.1555267   -7.3302614    191.77017  0.028742532  0.029553149            3 
  557000    1.1722215   -7.3495206    191.96862   0.02872062  0.029543567            1 
  558000    1.1454288   -7.3517721    192.42628  0.028737497  0.029533841            5 
  559000    1.1629685   -7.3709185     192.6365  0.028717426   0.02952439            2 
  560000    1.1522183   -7.3014707    193.88584   0.02885206  0.029515859            2 
  561000    1.1706749   -7.3224912    193.36649  0.028723484  0.029506826            2 
  562000    1.1539786   -7.3730434    193.57099  0.028702697  0.029497187            2 
  563000    1.1561583   -7.3254819    194.44007  0.028780354  0.029487899            1 
  564000     1.162304   -7.3480681    194.91552  0.028799574  0.029478545            3 
  565000    1.1615147   -7.3766392    194.30114  0.028657985  0.029469285            2 
  566000    1.1608605   -7.3247562    194.70897  0.028667399  0.029459815            2 
  567000    1.1614253   -7.3049354    195.17359  0.028685124   0.02945048            1 
  568000    1.1534642   -7.2812351    195.48332  0.028680065  0.029440745            2 
  569000    1.1385699   -7.3265466    195.58492  0.028644541  0.029430408            3 
  570000     1.162421   -7.3530035    195.07737  0.028520084  0.029420312            2 
  571000    1.1480929   -7.3488601    196.35777  0.028657001  0.029410231            2 
  572000     1.154563   -7.3358847    196.31898   0.02860125    0.0294005            2 
  573000    1.1579093    -7.344128    196.22722  0.028537991  0.029390495            1 
  574000    1.1459286   -7.3550649    196.81854  0.028574121  0.029380724            2 
  575000    1.1630458   -7.3165475    196.95189  0.028543752  0.029370517            2 
  576000    1.1737755   -7.3965022    196.80262  0.028472601  0.029360042            1 
  577000    1.1478895   -7.3750242    197.65013  0.028545657  0.029349735            2 
  578000    1.1650041   -7.3422881    198.71879  0.028650345  0.029339582            2 
  579000    1.1554083   -7.3236109    198.46097  0.028563755  0.029330047            1 
  580000    1.1618014   -7.3639846    198.75411  0.028556625  0.029320716            2 
  581000    1.1720282   -7.3299628    199.59773  0.028628475  0.029311643            2 
  582000    1.1592621    -7.330242    200.19416  0.028664685  0.029302777            3 
  583000    1.1452876   -7.3579636    199.35776  0.028495963  0.029293688            1 
  584000     1.172287   -7.3360375    200.62312  0.028627729  0.029284308            1 
  585000     1.189742   -7.3446797    200.67466  0.028586135  0.029274543            2 
  586000    1.1586854   -7.3527365    200.78475  0.028553007  0.029265194            1 
  587000    1.1236371   -7.4042026    200.21284  0.028423174  0.029254882            1 
  588000    1.1430239   -7.3992326    201.16834  0.028510252  0.029244632            2 
  589000    1.1629747   -7.4173615    200.13339   0.02831542  0.029233821            4 
  590000    1.1344379   -7.3995174    201.03091  0.028394197    0.0292237            3 
  591000    1.1601879   -7.3473477    202.24507  0.028517353  0.029213787            4 
  592000     1.171696   -7.4111104    202.16755   0.02845827  0.029203967            6 
  593000     1.161148   -7.3342878    202.48002   0.02845419  0.029193644            2 
  594000    1.1447425   -7.3280141    202.89323  0.028464258  0.029184048            1 
  595000    1.1435682   -7.3380687    203.71688  0.028531776  0.029174826            1 
  596000    1.1532041   -7.3281392    203.55577  0.028461377  0.029165105            2 
  597000    1.1539996   -7.3578669    202.84323  0.028314243  0.029155395            1 
  598000    1.1487953   -7.3757315    203.25768  0.028324649  0.029145632            3 
  599000    1.1655376    -7.366545    203.44747  0.028303766  0.029135488            2 
  600000    1.1486863   -7.3677596    203.32696  0.028239855  0.029125686            3 
  601000    1.1362602   -7.3820914    204.44563  0.028347979   0.02911557            3 
  602000    1.1631931   -7.3722235    204.80389  0.028350483  0.029105859            2 
  603000     1.183213   -7.3678814    204.42036  0.028250465    0.0290955            1 
  604000    1.1458006   -7.3589039    205.81564  0.028396197  0.029085383            2 
  605000    1.1576747   -7.3219027    205.55447  0.028313288  0.029075556            2 
  606000    1.1292601   -7.3728623    205.15429  0.028211536  0.029065083            2 
  607000    1.1489895   -7.3551566    205.88893  0.028265915  0.029054943            2 
  608000    1.1786493   -7.3649925    206.08075  0.028245717  0.029044756            4 
  609000    1.1454172   -7.3715695    206.32636  0.028232944    0.0290348            3 
  610000    1.1543205     -7.34278    207.19159  0.028304862  0.029025171            1 
  611000    1.1737052   -7.3830196    206.40515  0.028151276  0.029014971            2 
  612000    1.1342631   -7.3114511    207.61869  0.028270519  0.029004675            3 
  613000    1.1576031    -7.358799    207.69065  0.028234183  0.028994649            2 
  614000    1.1806318   -7.3315998    207.95999  0.028224754  0.028984374            2 
  615000    1.1546473   -7.3460725    208.38315    0.0282362  0.028973645            4 
  616000    1.1637305   -7.4157239    208.12412  0.028155319  0.028962813            2 
  617000    1.1455559   -7.3270848    208.12866    0.0281103  0.028952425            1 
  618000    1.1412009   -7.3208942    209.32669  0.028226361  0.028941921            7 
  619000    1.1377825   -7.3548848    209.51734  0.028206428  0.028931932            2 
  620000    1.1554671   -7.3400981    209.53459  0.028163251   0.02892133            2 
  621000    1.1637526   -7.3644966    208.66115  0.028000691  0.028910824            2 
  622000    1.1693821   -7.3602829    209.75019   0.02810158  0.028900409            2 
  623000    1.1463373   -7.3461449    210.17676  0.028113531  0.028890237            2 
  624000    1.1632277   -7.3822772    209.49888  0.027977948   0.02887982            5 
  625000    1.1598561   -7.3568562    210.81896  0.028109195  0.028869126            1 
  626000     1.169804   -7.3599316    211.15067  0.028108449  0.028858682            2 
  627000     1.155539   -7.3709365      211.175  0.028066852  0.028847892            3 
  628000    1.1531996   -7.3730984    211.70539  0.028092541  0.028837582            1 
  629000    1.1346962   -7.3720068    212.17715   0.02811038  0.028827414            2 
  630000    1.1241089   -7.4003224    211.25859  0.027944258  0.028816803            6 
  631000    1.1389799   -7.3814987    212.04096  0.028003297   0.02880652            1 
  632000    1.1582262   -7.3862478    212.22964  0.027983866  0.028795777            2 
  633000     1.132416    -7.372505    212.86984  0.028023939  0.028785031            2 
  634000    1.1734061    -7.347274    212.82999    0.0279745  0.028774558            2 
  635000    1.1597342   -7.4020783    213.04498  0.027958659  0.028764309            4 
  636000    1.1590273   -7.4098026    212.71053  0.027870876  0.028753187            1 
  637000    1.1464391    -7.383374    213.40102  0.027917455  0.028742382            2 
  638000    1.1510429   -7.3648592    214.12601  0.027968392   0.02873189            1 
  639000    1.1619969   -7.4011941    213.94514  0.027901035  0.028721478            2 
  640000    1.1562005   -7.3789008    214.42835  0.027920358  0.028710868            1 
  641000    1.1655022   -7.3907243    214.87621  0.027935025  0.028700035            7 
  642000    1.1404654   -7.3399005    215.46367  0.027967767  0.028689261            2 
  643000    1.1451857   -7.4035589    215.00715  0.027865105  0.028678526            2 
  644000    1.1469587   -7.3892845    215.68171  0.027909124  0.028667523            3 
  645000    1.1497932   -7.3862229     215.3547  0.027823605  0.028656822            1 
  646000    1.1410413   -7.3971214    215.84267  0.027843481  0.028645933            3 
  647000    1.1492517   -7.3692896    216.93969  0.027941742  0.028635428            3 
  648000    1.1593135   -7.3890502    216.35489  0.027823416  0.028625164            2 
  649000    1.1194254   -7.3425631    217.14462  0.027881949  0.028614563            3 
  650000     1.154945   -7.3859605    217.48296  0.027882431  0.028604087            3 
  651000    1.1421695   -7.4071856    217.48774  0.027840213  0.028593709            1 
  652000    1.1253117   -7.3840669    218.54226  0.027932292  0.028583817            3 
  653000    1.1712934   -7.3776262    218.73815  0.027914516  0.028574089            3 
  654000    1.1343567   -7.3881954    218.90647   0.02789328  0.028564467            2 
  655000     1.153285   -7.3553541    219.40687   0.02791436  0.028554428           10 
  656000    1.1230925   -7.3759516    219.77528  0.027918608  0.028544975            1 
  657000    1.1567034   -7.3490876    220.56778  0.027976634  0.028536335            3 
  658000    1.1356814   -7.3941679    220.62182  0.027940961  0.028527239            1 
  659000    1.1427951   -7.3552642    221.55429  0.028016475  0.028518354            4 
  660000    1.1568273   -7.4239942    220.95096  0.027897849  0.028509624            2 
  661000    1.1769848   -7.3556705    221.71582  0.027952071  0.028501015            2 
  662000    1.1567154   -7.4001244    222.41955  0.027998433  0.028492522            2 
  663000    1.1527287   -7.4308632    222.92198  0.028019353  0.028484444            3 
  664000    1.1390716   -7.3890721    223.13899  0.028004391  0.028476522            2 
  665000    1.1481037    -7.391508    222.59152  0.027893674  0.028468606            2 
  666000    1.1469258    -7.341318    223.69339  0.027989663  0.028460845            3 
  667000    1.1536124   -7.3923454    224.72912  0.028077102  0.028453249            3 
  668000    1.1135432   -7.4335217    224.60633  0.028019752  0.028445536            8 
  669000    1.1450884   -7.3488352    226.47766  0.028210969  0.028438134            1 
  670000    1.1454824     -7.36503    224.84495   0.02796579  0.028430743            2 
  671000    1.1343825   -7.4217356     225.7553   0.02803717  0.028423337            3 
  672000    1.1512662    -7.383722    225.52684  0.027967118  0.028416007            2 
  673000    1.1512531   -7.3949853    226.27346  0.028018012  0.028408748            2 
  674000    1.1569734   -7.4035727    226.18627  0.027965661  0.028401578            1 
  675000    1.1353562   -7.3902849    226.69705   0.02798729  0.028394467            2 
  676000    1.1366254   -7.3792136    227.25391  0.028014536  0.028387467            2 
  677000    1.1233397   -7.3937848      227.484  0.028001477  0.028380298            2 
  678000    1.1671197   -7.3991436    227.84336  0.028004346  0.028373136            4 
  679000    1.1469804   -7.4210981    227.72968  0.027949151  0.028366143            2 
  680000    1.1321019   -7.3819181    227.76867  0.027912828  0.028359256            1 
  681000    1.1364259   -7.3686404     228.8521  0.028004417  0.028352092            2 
  682000    1.1370237   -7.3458223    229.27571  0.028015115  0.028345156            2 
  683000    1.1329977    -7.401375    228.85617   0.02792291  0.028338203            3 
  684000    1.1351609   -7.3993617    229.77463  0.027993985  0.028331096            2 
  685000    1.1591863   -7.3571562    229.54943  0.027925722  0.028323734            1 
  686000    1.1373918   -7.3816791    229.73596  0.027907672  0.028316503            5 
  687000    1.1379071   -7.4209003    229.68234  0.027860546  0.028308878            2 
  688000    1.1496877   -7.4273494    230.71999  0.027945735  0.028301544            2 
  689000    1.1414203   -7.3879399    230.66142  0.027898091  0.028294024            1 
  690000    1.1682062   -7.4112235    230.80315  0.027874777  0.028286153            5 
  691000    1.1371704   -7.3569394    232.07675  0.027988031  0.028278805            2 
  692000     1.119369   -7.4159768    231.11746  0.027832064  0.028270923            8 
  693000     1.134863   -7.4296152    230.98279  0.027775708  0.028262756            3 
  694000    1.1301696    -7.368068    231.88114  0.027843557   0.02825488            2 
  695000    1.1294665   -7.4118519    231.48454  0.027755941   0.02824693            1 
  696000    1.1255227   -7.4179731    232.08494  0.027787947  0.028238802            2 
  697000    1.1279224   -7.3849629    232.32826  0.027777171  0.028230922            3 
  698000    1.1456677   -7.3878675    232.31992   0.02773638  0.028223133            4 
  699000    1.1631868   -7.4233795    232.05588  0.027665221  0.028214676            1 
  700000    1.1580927   -7.4131687    233.39373  0.027784968  0.028206481            7 
  701000     1.118646   -7.3836378    233.59826  0.027769646  0.028198385            2 
  702000    1.1078148   -7.3782885    233.99901   0.02777766   0.02819027            3 
  703000    1.1307132   -7.4002727    234.01862  0.027740472  0.028182197            3 
  704000    1.1472596   -7.3755393     234.4511   0.02775226  0.028174303            3 
  705000    1.1433303   -7.4170398    235.26153  0.027808692  0.028166432            1 
  706000    1.1342831   -7.4059371    235.19657  0.027761635  0.028158821            5 
  707000    1.1329618   -7.4039472    235.49512  0.027757558   0.02815151            4 
  708000    1.1043325   -7.3823311    235.50349  0.027719337  0.028143832            1 
  709000    1.1034289   -7.4075929    236.24108  0.027766934  0.028136328            3 
  710000    1.1244344   -7.3937479    236.28789   0.02773332  0.028128571            4 
  711000    1.1277873   -7.3928471    236.23655  0.027688297  0.028120864            1 
  712000    1.1419585   -7.3857498    236.31966  0.027659137  0.028113013            1 
  713000    1.1272015   -7.3985038    237.05267  0.027706016  0.028104966            4 
  714000    1.1467105   -7.4181596    236.88509  0.027647653  0.028097048            2 
  715000     1.148778   -7.4190455    237.30195   0.02765757  0.028089166            1 
  716000    1.1532825   -7.3806283     237.3461  0.027624081  0.028081197            4 
  717000    1.1327262   -7.4186443    237.91296  0.027651436  0.028073442            4 
  718000    1.1522675   -7.3846067    238.82669  0.027718975  0.028065372            4 
  719000    1.1346188   -7.3663308    239.28768  0.027733852  0.028057708            2 
  720000    1.1371897   -7.3963988    239.44188   0.02771318  0.028050274            3 
  721000    1.1172973   -7.3613549    240.22395  0.027765136  0.028043098            2 
  722000    1.1196927   -7.4238812    239.83567  0.027681864  0.028035587            4 
  723000    1.1198214   -7.4362383    240.07207  0.027670824   0.02802827            1 
  724000    1.1157659    -7.449349    240.41719  0.027672329  0.028020626            2 
  725000    1.1503723   -7.3863797    240.06757  0.027593974  0.028012842            6 
  726000    1.1238208   -7.4130141    240.60954  0.027618175  0.028005359            2 
  727000    1.1401428   -7.4422552    240.72791  0.027593754  0.027998021            2 
  728000    1.1390142    -7.394077    241.26112  0.027616886  0.027990569            1 
  729000    1.1379295   -7.3997381    242.46437  0.027716548  0.027983346            2 
  730000     1.145335   -7.4364261    241.96975  0.027622117   0.02797667            2 
  731000    1.1726178    -7.403145    243.08314  0.027711256  0.027970072            2 
  732000    1.1475234     -7.45213     242.6377  0.027622688  0.027963164            2 
  733000    1.1426412   -7.4269037    243.20579   0.02764959  0.027956116            2 
  734000    1.1310632    -7.448169    243.20843   0.02761222    0.0279491            2 
  735000    1.1044443   -7.4401015    243.73963  0.027634879  0.027942074            1 
  736000     1.152664   -7.4499226    243.57839  0.027579075  0.027935056            2 
  737000    1.1348473   -7.3675771    244.55006  0.027651522   0.02792801            2 
  738000    1.1593341   -7.3978796    244.16554  0.027570634  0.027921027            1 
  739000    1.1324853    -7.427899    244.16727  0.027533522  0.027913634            3 
  740000    1.1301506   -7.4528872    243.46076  0.027416752  0.027905817            3 
  741000    1.1318167   -7.4082982    244.23087   0.02746636  0.027897883            4 
  742000    1.0856027   -7.3891609    244.81759  0.027495237  0.027890066            1 
  743000    1.1270737   -7.4126382    244.12768  0.027380852  0.027882064            3 
  744000    1.1218944   -7.3937018    245.36394   0.02748252  0.027874423            1 
  745000    1.1408965   -7.4482246    245.09451  0.027415494  0.027866517            3 
  746000    1.1579822   -7.4446566    245.99918  0.027479801  0.027859048            3 
  747000    1.1238086   -7.3955948    246.82936  0.027535627  0.027851455            3 
  748000    1.1143272   -7.4268636    246.44256  0.027455722  0.027843854            1 
  749000    1.1566636   -7.4140005    247.09795  0.027491984   0.02783593            2 
  750000    1.1231556   -7.4085713    246.13548  0.027348387  0.027827921            2 
  751000    1.1323122   -7.4334835    247.23376   0.02743384  0.027819962            5 
  752000    1.1625438   -7.4408717    246.41673  0.027306818  0.027812187            1 
  753000    1.1252226   -7.4375242    247.56904  0.027398079  0.027804304            4 
  754000    1.1315356   -7.4157814    247.58729  0.027363758  0.027796253            4 
  755000    1.1228563   -7.4329962     247.8138  0.027352516  0.027788138            1 
  756000    1.1206507   -7.4050517     249.0727  0.027455104  0.027780324            3 
  757000    1.1352136   -7.3970285    249.55295  0.027471703  0.027772566            1 
  758000    1.1445435   -7.4436016    249.03514  0.027378534  0.027764659            2 
  759000    1.1306136   -7.4230955    249.08614  0.027348061  0.027756818            1 
  760000    1.1433536   -7.4032939    249.87997  0.027399119  0.027749215            4 
  761000    1.1368314   -7.4129012    250.41597   0.02742181  0.027742229            2 
  762000     1.127011   -7.4273875    250.23575  0.027366115  0.027735346            2 
  763000    1.1302078   -7.4204774    251.10192  0.027424849  0.027728251            4 
  764000      1.11828   -7.4058424    250.91055  0.027368079   0.02772125            1 
  765000    1.1506558   -7.4122798    252.32256  0.027486118  0.027714486            2 
  766000    1.1130621   -7.3720896    253.08004  0.027532641  0.027707812            2 
  767000    1.1417932   -7.4261909     252.9552  0.027483181  0.027701018            3 
  768000    1.1262997   -7.4296222    252.63274  0.027412406  0.027694387            1 
  769000    1.1181676   -7.4334436    252.79126  0.027393938  0.027687586            4 
  770000    1.1401483   -7.4475972    253.23851  0.027406765  0.027680465            3 
  771000    1.1216476   -7.4277802    253.14112  0.027360692  0.027673581            3 
  772000    1.1258306   -7.4508983     253.4791  0.027361733  0.027666399            3 
  773000    1.1345047   -7.4149534    253.93518  0.027375504  0.027659473            1 
  774000    1.1474117   -7.4917182     253.4839  0.027291549  0.027652143            5 
  775000    1.1387196   -7.4371931    253.78444  0.027288649  0.027644564            3 
  776000     1.110814   -7.4609164    253.95258   0.02727154  0.027637117            1 
  777000    1.1153189   -7.4421631    254.20727  0.027263757  0.027629591            2 
  778000    1.1426978   -7.3624358    255.86289  0.027406051  0.027622144            2 
  779000    1.1310527   -7.4382199    254.65038  0.027241161  0.027614844            2 
  780000     1.113483   -7.4628685    255.49675  0.027296662  0.027607546            2 
  781000    1.1378608   -7.4506123    254.96459  0.027204929  0.027600217            3 
  782000     1.115679   -7.4374842    255.47352  0.027224373  0.027592794            4 
  783000    1.1388754   -7.4322938    256.01562  0.027247299  0.027585382            1 
  784000    1.1411348    -7.428119    255.66684  0.027175472   0.02757782            5 
  785000    1.1279575    -7.461347    256.12651  0.027189651  0.027570087            3 
  786000    1.1301691   -7.4385458    256.45241  0.027189611  0.027562073            1 
  787000    1.1356535   -7.4388359    256.35004  0.027144222  0.027554139            1 
  788000    1.1403928   -7.4907097    256.12905  0.027086406  0.027546404            4 
  789000    1.1225438   -7.4121604    257.95444  0.027244872  0.027538721            2 
  790000    1.1185162   -7.4473511    257.53633   0.02716628  0.027531055            3 
  791000    1.1529263   -7.4151622    258.05724  0.027186814  0.027523623            4 
  792000    1.1216141   -7.4315526    258.91595   0.02724284   0.02751639            1 
  793000    1.1212838   -7.3924426     258.7816  0.027194367  0.027509135            4 
  794000    1.1246056   -7.4230165    259.22111  0.027206246  0.027501808            2 
  795000    1.1443441   -7.4452864    259.97075  0.027250603  0.027494654            2 
  796000    1.1322745   -7.4373871    260.74003  0.027296905  0.027487412            2 
  797000    1.1079623   -7.4300709    260.04023  0.027189484  0.027480336            3 
  798000    1.1512939   -7.4678018    260.12147  0.027163896  0.027473323            3 
  799000    1.1269442   -7.4581628    260.49306  0.027168654  0.027466403            2 
  800000    1.1266772   -7.4889493    261.10458  0.027198394  0.027459379            3 
  801000    1.1085407   -7.4393941    261.20192  0.027174565  0.027452541            3 
  802000    1.1266213   -7.4404489    261.24672  0.027145336  0.027445522            4 
  803000    1.1176471   -7.4425268    261.60796   0.02714902  0.027438645            2 
  804000    1.1405201   -7.3824627    262.19297  0.027175888  0.027431679            2 
  805000    1.1149988   -7.4747644    261.58983  0.027079693  0.027424787            2 
  806000    1.0992739    -7.468513    262.48283  0.027138423  0.027418062            5 
  807000    1.1291326   -7.4464912    262.62657  0.027119638  0.027410851            4 
  808000    1.1132374   -7.4564782    263.10755   0.02713568  0.027404101            5 
  809000    1.1175041   -7.4362809    263.76514  0.027169874  0.027396986            5 
  810000    1.1183733   -7.4521026    264.03015  0.027163595   0.02739022            3 
  811000    1.1319194   -7.3704455    264.71201  0.027200165  0.027383359            2 
  812000    1.1262901   -7.4010055    265.14787  0.027211399  0.027376629            2 
  813000    1.1100213   -7.4683637    264.30161  0.027091186  0.027369993            7 
  814000    1.1319735   -7.4250727    265.23841  0.027153809  0.027363134            2 
  815000    1.1151749   -7.4272477    265.48336  0.027145538  0.027356339            2 
  816000     1.123345   -7.4241198    265.67498   0.02713184  0.027349573            4 
  817000    1.1378118    -7.483534    264.94828  0.027024508  0.027342949            3 
  818000     1.116047    -7.464388    265.07031  0.027003903  0.027336209            2 
  819000    1.1126067   -7.4897061    265.84093  0.027049342  0.027329279            4 
  820000      1.13895   -7.4844041    266.42776  0.027075992   0.02732247            1 
  821000    1.1358756   -7.3980226    268.55504  0.027258936  0.027315877            3 
  822000    1.1581315   -7.4741532    267.19526  0.027087922  0.027309153            3 
  823000    1.1224567    -7.464801     267.4175  0.027077511  0.027302345            2 
  824000     1.090517   -7.4241268    267.41186   0.02704408  0.027295655            1 
  825000    1.1229054   -7.4318558    267.74713  0.027045164  0.027288912            2 
  826000     1.113213   -7.4401905    268.34574  0.027072815  0.027281943            6 
  827000    1.1190991   -7.4735403    267.39487  0.026944263  0.027274654            7 
  828000    1.1300324   -7.4508115    268.18943   0.02699169  0.027267523            3 
  829000    1.1004898   -7.4366121    269.15627   0.02705632  0.027260701            3 
  830000    1.1150661   -7.4616995    269.29325  0.027037475  0.027253792            3 
  831000    1.1212219   -7.4603567    268.74012  0.026949471  0.027246702            3 
  832000    1.1060513   -7.4406092    269.79332  0.027022568  0.027239888            1 
  833000    1.1212683   -7.4534761    269.45901  0.026956684  0.027232825            1 
  834000    1.1392128   -7.4618925    269.66444  0.026944888  0.027225685            2 
  835000    1.1257986   -7.4511451     270.3208  0.026978123  0.027218711            3 
  836000    1.1006623   -7.4864383    269.76881  0.026890831   0.02721131            3 
  837000    1.1417824   -7.4798043    269.84489  0.026866278  0.027203929            3 
  838000    1.1383886   -7.4547405    270.21713  0.026871234   0.02719679            1 
  839000     1.113042   -7.4449748    269.94947  0.026812621  0.027189546            2 
  840000     1.116342   -7.5069413    269.35306  0.026721533  0.027181712            3 
  841000    1.1180078   -7.4659241    270.88223  0.026841284    0.0271739            6 
  842000    1.0984464   -7.4433813    271.23724  0.026844541  0.027166189            3 
  843000    1.1245345    -7.458939    271.50566  0.026839231   0.02715831            2 
  844000    1.1449236   -7.4139407    271.52033   0.02680888  0.027150699            2 
  845000    1.1249242   -7.4712835    271.85377  0.026810036  0.027142906            4 
  846000     1.110399   -7.4600933    271.22224  0.026716139  0.027134663            4 
  847000    1.0942876   -7.4624153    271.38917  0.026701021  0.027126464            4 
  848000    1.1163808   -7.4870543    272.08156  0.026737575  0.027118409            1 
  849000    1.1076884   -7.5032942    271.45472  0.026644554  0.027110406            4 
  850000    1.1066017   -7.4587929    273.09332  0.026773855  0.027102306            3 
  851000    1.1110792   -7.4518152    272.98286  0.026731576  0.027094272            1 
  852000    1.1207141   -7.4399475    273.29797  0.026731022   0.02708629            2 
  853000    1.1090028   -7.4849609     272.0146  0.026574307  0.027078119            2 
  854000    1.1052268    -7.508542    273.27786  0.026666458   0.02706983            3 
  855000    1.1101687   -7.4759463    272.78183  0.026586923  0.027061254            3 
  856000    1.1198093   -7.4689139    272.84237  0.026561757  0.027052523            3 
  857000    1.0843114   -7.4606474    273.78782  0.026622698  0.027043817            9 
  858000    1.0820881   -7.4685143    272.20013  0.026437464  0.027035123            3 
  859000     1.122417   -7.4845891     273.8524  0.026566977  0.027026153            2 
  860000    1.1010495   -7.4606715    273.93677   0.02654426  0.027017197            2 
  861000    1.1120839   -7.4876374    274.41317   0.02655954  0.027008416            5 
  862000    1.1010461   -7.4307973    274.66427  0.026553003  0.026999838            3 
  863000    1.1181414   -7.4194034    275.92376  0.026643855  0.026991362            2 
  864000    1.0969238   -7.4519401    275.99039  0.026619443  0.026983098            2 
  865000    1.1358455   -7.4758891     275.5793  0.026549065  0.026974451            2 
  866000    1.0835005   -7.4884398     274.9134   0.02645433   0.02696567            2 
  867000    1.1207786    -7.494684     274.9709  0.026429344  0.026956971            3 
  868000    1.1014451    -7.510192    275.59902  0.026459199  0.026948218            2 
  869000    1.1096635    -7.482699    274.93969  0.026365524  0.026939205            4 
  870000    1.1232561   -7.4104726    276.77229  0.026510756  0.026930665            2 
  871000    1.1167845   -7.4391837     276.9095  0.026493446  0.026922099            4 
  872000    1.1149066    -7.461634    277.51974  0.026521382  0.026913733            4 
  873000    1.1127997   -7.4722179    278.01003  0.026537803  0.026905423            3 
  874000    1.0907495   -7.4673217    277.70712  0.026478558  0.026896974            1 
  875000    1.1137137   -7.4678388    278.72088  0.026544846   0.02688887            4 
  876000    1.0986675    -7.474638    278.34926  0.026479191  0.026880776            1 
  877000    1.0996599   -7.4883889    278.63047  0.026475719  0.026872547            3 
  878000     1.115938   -7.4808947    278.66543  0.026448883  0.026864206            4 
  879000     1.111538   -7.4499237    279.56843  0.026504401  0.026856066            1 
  880000    1.1060796   -7.4575186    279.51235  0.026468972  0.026847651            2 
  881000    1.1285167   -7.4822198    280.00126  0.026485174  0.026839512            2 
  882000    1.1197225   -7.4282797    280.36202  0.026489231   0.02683135            3 
  883000    1.1175694   -7.4605553    280.18028   0.02644208  0.026822955            5 
  884000    1.1047911   -7.4608711    280.14447  0.026408792  0.026814458            4 
  885000    1.1032827   -7.5024898    280.16454  0.026380842  0.026805954            1 
  886000    1.0834352   -7.4802518    280.06537  0.026341739  0.026797345            4 
  887000    1.1067518   -7.4675743    280.20518  0.026325177  0.026788732            4 
  888000    1.0915517   -7.5058495    280.54237  0.026327174  0.026780174            3 
  889000    1.1151316   -7.4938025    280.50701  0.026294245  0.026771452            4 
  890000    1.1207765   -7.4746588     281.1645  0.026326264  0.026762705            2 
  891000    1.0794484   -7.5134031    280.28309  0.026214281  0.026753979            2 
  892000    1.1077548   -7.5464533    280.34406  0.026190588  0.026744869            1 
  893000    1.1008835   -7.4338432    281.53029  0.026271956  0.026735913            2 
  894000    1.1113995   -7.4738949    281.48182  0.026238052  0.026726924            3 
  895000     1.097704   -7.4702705    280.94994  0.026159212  0.026717623            2 
  896000    1.1001557   -7.4867437    281.40529  0.026172367  0.026708455            7 
  897000    1.1180558   -7.4676692    281.26397   0.02613006  0.026699106            2 
  898000    1.1102911   -7.4902373    281.48995  0.026121933  0.026689676            1 
  899000     1.116949   -7.4819177    282.08988  0.026148487  0.026680441            2 
  900000    1.1078836   -7.4649191     282.8886  0.026193389  0.026671432            3 
  901000     1.108549   -7.4601341    282.87941  0.026163468  0.026662738            4 
  902000    1.1068094   -7.5008409     282.5096  0.026100296  0.026653903            5 
  903000    1.1019266   -7.5011429    282.85559  0.026103321  0.026644893            4 
  904000    1.1124648   -7.5182192    282.95692  0.026083787  0.026635995            7 
  905000    1.1008492   -7.4776616    283.70898  0.026124216   0.02662697            3 
  906000    1.1104311   -7.4805424    284.00631  0.026122729  0.026618085            1 
  907000    1.1126973   -7.4848801    284.04581  0.026097557   0.02660922            4 
  908000    1.0994132   -7.4809729    285.48597  0.026200989  0.026600755            4 
  909000    1.1050446   -7.4849888    284.89266  0.026117772  0.026591927            3 
  910000    1.1153436   -7.4563031    285.03507  0.026102112  0.026583274            4 
  911000    1.1118877   -7.4691243    286.50068  0.026207527  0.026574793            3 
  912000    1.1058212   -7.4749396    286.18314  0.026149775  0.026566237            2 
  913000    1.1231312   -7.4545051    285.86467  0.026092066  0.026557739            2 
  914000    1.1206044   -7.5075238     286.7328  0.026142669  0.026549272            3 
  915000    1.1034944   -7.4462425    286.81461  0.026121549  0.026540702            5 
  916000     1.084854   -7.5377868    287.31154   0.02613824   0.02653246            2 
  917000    1.1052577   -7.4494138    287.95683  0.026168378  0.026524018            2 
  918000     1.090252   -7.4701902    287.95468  0.026139677  0.026515769            2 
  919000    1.1144469   -7.4993937    288.43576  0.026154857  0.026507243            2 
  920000    1.1212205    -7.475734    288.79334  0.026158817  0.026499295            3 
  921000    1.1311111   -7.5021761    288.24916  0.026081176  0.026491032            1 
  922000    1.1198853   -7.4958485    288.59423  0.026084077  0.026482927            3 
  923000    1.1076366   -7.5094032    289.39147  0.026127796  0.026474921            3 
  924000    1.1208678   -7.5035687    288.77683  0.026044087  0.026466958            6 
  925000    1.1205574   -7.4679536    290.40494  0.026162607  0.026459011            3 
  926000    1.0955224   -7.5087967    290.63884  0.026155403   0.02645094            2 
  927000    1.0985063   -7.4835792     290.8891  0.026149686  0.026443036            2 
  928000    1.0907362   -7.4982308     290.5966  0.026095241  0.026435192            2 
  929000    1.1075668   -7.5296486    290.76698  0.026082435  0.026427412            1 
  930000     1.111036   -7.4907543    291.51382   0.02612131  0.026419567            6 
  931000    1.0834283   -7.4909574    292.26241  0.026160259  0.026411913           11 
  932000    1.1152407   -7.4835289    292.05146  0.026113328  0.026404166            1 
  933000    1.1054099   -7.5064755    292.08278  0.026088137  0.026396362            4 
  934000    1.0872754   -7.4928677    292.40522  0.026088974  0.026388543            3 
  935000    1.0989318   -7.5092489    292.31832  0.026053327  0.026380756            1 
  936000    1.1007244   -7.4831103    293.08802  0.026094019  0.026373087           10 
  937000     1.111997   -7.5125178    292.86325  0.026046181  0.026365427            2 
  938000     1.106648   -7.5119974     293.1957  0.026047948  0.026357669            2 
  939000    1.0844403   -7.4786582    293.82427  0.026075992  0.026349957            3 
  940000    1.0980511   -7.4927163    294.13383  0.026075694  0.026342104            5 
  941000    1.1182556   -7.5104357    293.97445  0.026033869  0.026334177            1 
  942000    1.0881846   -7.4896624    294.03069  0.026011208  0.026326455            2 
  943000    1.0934458    -7.507843    294.58332   0.02603246  0.026318639            1 
  944000    1.0936773   -7.4797499    294.92052   0.02603465  0.026310737            2 
  945000    1.1203041   -7.5122022    293.89241  0.025916439  0.026302895            2 
  946000    1.1095448   -7.5104618    294.72101  0.025962034   0.02629471            4 
  947000    1.0959039   -7.4826616    294.47089   0.02591261  0.026286671            3 
  948000    1.0834206   -7.4922048    295.00641   0.02593235  0.026278686            5 
  949000    1.0877612   -7.4682404    295.43429  0.025942597  0.026270692            3 
  950000    1.0986124   -7.4961119    295.06039   0.02588249   0.02626231            2 
  951000    1.0937102   -7.5022094    296.12356  0.025948437  0.026254062            6 
  952000    1.0779054   -7.5096301    295.80582  0.025893367   0.02624592            4 
  953000    1.0833553   -7.5233733    296.16893  0.025897948  0.026237645            3 
  954000    1.1209948   -7.5487759    295.85392  0.025843284  0.026229269            2 
  955000    1.1086016   -7.5177069    296.34846  0.025859377  0.026220974            3 
  956000    1.1141978    -7.501846    296.42839  0.025839295  0.026212669            3 
  957000    1.1194712   -7.5075928    296.45433  0.025814553  0.026204407            4 
  958000    1.1015105   -7.4933491    298.09051  0.025929933  0.026196079            2 
  959000    1.0962969   -7.4823225    297.44075  0.025846433   0.02618808            3 
  960000    1.1376339   -7.4671054    298.63397  0.025923088  0.026180266            3 
  961000    1.1174744   -7.4865398    297.97222  0.025838729  0.026172105            2 
  962000    1.1015035   -7.4989407    298.61247  0.025867331  0.026164009            3 
  963000    1.1072381   -7.5198914     297.6459  0.025756827  0.026155772            3 
  964000    1.0989266   -7.5074573    298.03763  0.025763972  0.026147616            5 
  965000    1.0804365   -7.5195582    298.72374  0.025796523  0.026139505            4 
  966000    1.1107048   -7.5160475    298.84341  0.025780142  0.026131543            3 
  967000     1.075652   -7.5105592    299.92067  0.025846318  0.026123506            2 
  968000    1.0916758   -7.4737555    300.37056  0.025858347  0.026115703            2 
  969000    1.1065903   -7.5080139    299.74671  0.025778011  0.026107995            3 
  970000       1.0941    -7.495058    300.49169  0.025815437   0.02610031            3 
  971000     1.087615   -7.5358945    301.11138  0.025842034  0.026092858            2 
  972000    1.1035559   -7.5236176    301.79811  0.025874324  0.026085107            3 
  973000    1.0866206   -7.5061591    300.62986  0.025747676  0.026077032            3 
  974000    1.1083235   -7.5051668    302.21503  0.025856864  0.026069057            2 
  975000    1.0994915   -7.5115992     301.1245  0.025737137  0.026061321            5 
  976000    1.0938949   -7.5416472    300.95983  0.025696707  0.026053385            7 
  977000    1.0712931   -7.5735907    301.31994   0.02570112  0.026045436            3 
  978000    1.1252722   -7.5142386    302.80027  0.025800977   0.02603732            2 
  979000     1.064202   -7.5281624    301.82182  0.025691337  0.026029437            2 
  980000    1.1158057   -7.5391253     302.5663  0.025728426  0.026021549            2 
  981000    1.0926511   -7.5187962    303.73347  0.025801348  0.026013921            4 
  982000    1.1182555   -7.5177158    303.59859  0.025763628  0.026006111            2 
  983000    1.0882958   -7.5607865    303.06658  0.025692318     0.025998            3 
  984000    1.1184028   -7.5032174    303.09091  0.025668268   0.02598989            1 
  985000    1.1226665   -7.5110767    303.27924  0.025658142  0.025981856            2 
  986000    1.0652733   -7.5458676    301.97233  0.025521664  0.025973414            2 
  987000    1.1051205   -7.5595234    301.95449    0.0254943  0.025964857            1 
  988000    1.0962498   -7.5406881    303.11066  0.025566014  0.025956302            5 
  989000    1.0969159   -7.5209452     302.6357  0.025500143  0.025947779            2 
  990000    1.0653757   -7.5046059    304.05688  0.025594013  0.025939388            3 
  991000    1.1156628   -7.5210353    303.90835  0.025555697  0.025931059            3 
  992000    1.1016518   -7.4903623    304.20399  0.025554771  0.025922369            3 
  993000    1.1044171   -7.5017307    304.99736  0.025595616  0.025913815            3 
  994000    1.0966508   -7.4606958    305.99262  0.025653304  0.025905561            3 
  995000    1.0971822   -7.4706729    305.38861  0.025576936  0.025897372            2 
  996000    1.0833473   -7.4855178    306.09441  0.025610309  0.025889115            2 
  997000     1.121896   -7.4802899    305.83949  0.025563314  0.025880766            6 
  998000    1.0944173   -7.5035227    305.67969  0.025524356  0.025872253            2 
  999000    1.0958003   -7.5186645    304.81786  0.025426915  0.025863672            5 
 1000000    1.0803115   -7.4864558    306.37486  0.025531238  0.025855014            3 
 1001000    1.0703012   -7.5444247    306.34556  0.025503293  0.025846508            4 
 1002000    1.0727136   -7.5265971    306.02427  0.025451121  0.025837945            3 
 1003000    1.0821911   -7.5187867    305.73878  0.025402026  0.025829479            2 
 1004000    1.0796796   -7.5436595    306.67835   0.02545471  0.025820929            8 
 1005000     1.087007   -7.5726877    307.06148  0.025461151  0.025812263            2 
 1006000    1.0673828   -7.4980138    307.75767  0.025493511  0.025803546            5 
 1007000    1.0949968   -7.4942877    307.49811  0.025446715  0.025795158            2 
 1008000    1.0727759   -7.4947687     308.1333  0.025473983  0.025786837            2 
 1009000    1.1026875   -7.4952344    309.01844   0.02552184  0.025778516            3 
 1010000    1.0824277   -7.5125334    308.53282  0.025456503  0.025770131            3 
 1011000     1.116539   -7.5448609    308.12234  0.025397489  0.025761803            4 
 1012000    1.0990366   -7.5050922    308.62014  0.025413384  0.025753618            5 
 1013000    1.0943726   -7.5486018     308.2941  0.025361476  0.025745358            4 
 1014000    1.0939037   -7.5378377    308.50085  0.025353456  0.025736772            5 
 1015000    1.0579571   -7.5688933    308.33302  0.025314698   0.02572827            3 
 1016000    1.1155752   -7.5646807    308.17004  0.025276414  0.025719837            2 
 1017000    1.0796803   -7.5765638    309.43731    0.0253554  0.025711499            3 
 1018000    1.0792994   -7.5690285    309.46069  0.025332408  0.025703141            2 
 1019000    1.0730106   -7.5483564    309.64071   0.02532227  0.025694802            2 
 1020000    1.0717602   -7.5348022    311.22162  0.025426603   0.02568655            2 
 1021000    1.0873237   -7.5348688    310.14834  0.025314099  0.025678309            4 
 1022000     1.082887   -7.5500483    309.91045  0.025269932  0.025670008            2 
 1023000    1.0735816   -7.5562318    310.75386  0.025313934  0.025661716            3 
 1024000     1.084117   -7.5649136    310.75833  0.025289577  0.025653349            2 
 1025000    1.0913753   -7.4965966    311.79317  0.025349038  0.025645039            2 
 1026000    1.0772034   -7.4707442    311.92629  0.025335144  0.025636634            2 
 1027000     1.070786   -7.5208325    312.04141  0.025319815  0.025628557            2 
 1028000    1.0981152   -7.5074594    312.18184  0.025306569  0.025620147            4 
 1029000    1.0764472   -7.5231954    311.42992  0.025221082  0.025611895            2 
 1030000    1.0772559   -7.5561716     311.6192   0.02521191  0.025603287            5 
 1031000    1.0668138   -7.5796453    311.63346  0.025188608   0.02559478            3 
 1032000    1.1085961   -7.5598369    311.81154   0.02517858  0.025585979            1 
 1033000    1.0898475   -7.5823098    312.67913  0.025224195  0.025577262            5 
 1034000    1.1144538   -7.5369762    312.78909  0.025208663  0.025568625            3 
 1035000    1.0863232   -7.5453544    313.20722  0.025217972  0.025560284            3 
 1036000    1.0713674   -7.5426496      313.328  0.025203346  0.025552011            1 
 1037000     1.079386   -7.5114819    314.15014  0.025245109  0.025543842            2 
 1038000    1.1112442   -7.5353653    314.21609  0.025226083  0.025535911            2 
 1039000    1.0786632   -7.5084687    315.48306  0.025303421  0.025527896            2 
 1040000    1.0790489   -7.5110172    314.75874  0.025221053  0.025519677            2 
 1041000    1.0808358   -7.5651954    315.01257  0.025217145  0.025511307            2 
 1042000    1.0740237   -7.5745912    313.96222  0.025108943  0.025502944            1 
 1043000    1.0979039   -7.5291239    315.72895  0.025226026    0.0254946            2 
 1044000    1.0806291   -7.5215626    316.45611  0.025259907  0.025486194            2 
 1045000    1.0634779   -7.5248835    316.20361  0.025215599  0.025477939            3 
 1046000    1.0828593   -7.5232322    315.67124  0.025149079  0.025469471            2 
 1047000    1.0779044   -7.5123014    315.60376  0.025119688  0.025461253            1 
 1048000    1.0800534   -7.5653756    315.80519  0.025111736  0.025453059            3 
 1049000    1.0742449   -7.5537927    315.95105  0.025099384  0.025444542            3 
 1050000    1.0882112   -7.5385744     316.4158  0.025112365   0.02543597            1 
 1051000    1.0881481   -7.5333002     316.9377  0.025129853  0.025427458            4 
 1052000    1.0905041   -7.4948445    316.48161  0.025069836  0.025418982            3 
 1053000    1.0599976   -7.5386887    316.50285  0.025047709  0.025410279            4 
 1054000    1.0972222   -7.5157418    317.26107  0.025083893  0.025401531            2 
 1055000    1.1103358   -7.5120001    316.96744  0.025036922  0.025392916            3 
 1056000     1.078875   -7.5620002    316.23382   0.02495532  0.025384186            2 
 1057000    1.0756137    -7.533573    316.12722  0.024923307   0.02537524            3 
 1058000    1.0693687   -7.5224296    317.21187  0.024985182  0.025366574            3 
 1059000    1.0846952   -7.5587858    316.59872   0.02491334  0.025357771            3 
 1060000    1.0512929    -7.535864    317.47309  0.024958576  0.025348801            2 
 1061000    1.1062954   -7.5531224    316.88171  0.024888604  0.025339736            3 
 1062000    1.0913311   -7.5263916    317.68086  0.024927877  0.025330814            2 
 1063000    1.0597621   -7.5640779    317.95117  0.024925617  0.025322085            2 
 1064000    1.0715764   -7.5763027     317.8628  0.024895269   0.02531352            5 
 1065000    1.0645583   -7.5445333    318.60829  0.024930226   0.02530505            1 
 1066000     1.081639   -7.5693062    317.40823  0.024813026  0.025296288            2 
 1067000    1.1011258   -7.6078438     317.9905  0.024835247  0.025287504            2 
 1068000    1.0956958   -7.5217089     319.5004  0.024929807  0.025278896            2 
 1069000    1.0657259    -7.546514    319.06153  0.024872274  0.025270176            2 
 1070000    1.0843757   -7.5788844    318.61505  0.024814256  0.025261479            3 
 1071000    1.0873851    -7.574118    318.85169  0.024809499  0.025252615            1 
 1072000    1.0826999   -7.5792026    319.88737  0.024866866  0.025243801            3 
 1073000    1.0875915   -7.5249504    319.86582  0.024842018  0.025235087            2 
 1074000    1.0913061   -7.5299148    320.04038  0.024832432  0.025226464            5 
 1075000    1.0810318   -7.6131318    319.14274  0.024739747  0.025217619            2 
 1076000    1.0835424   -7.5735937    320.76851  0.024842667  0.025208919            3 
 1077000    1.0902868   -7.5843836    319.29234  0.024705381  0.025199992            2 
 1078000    1.0962649   -7.6044268    319.70932  0.024714697  0.025191133            2 
 1079000    1.1039991   -7.5405287    320.74261  0.024771595  0.025182399            2 
 1080000    1.0659942   -7.5339313    321.32949  0.024793942    0.0251736            2 
 1081000    1.0673126    -7.529986    321.78556  0.024806164  0.025164855            3 
 1082000    1.0876176   -7.5685655    321.67536   0.02477475  0.025156004            2 
 1083000    1.1008969   -7.5769319    321.77743  0.024759729  0.025147201            4 
 1084000    1.0702134   -7.5620821    322.18708  0.024768379  0.025138601            1 
 1085000    1.0878822   -7.5542148    322.66787  0.024782479  0.025130108            3 
 1086000     1.075468   -7.5420168    322.33155  0.024733851  0.025121585            6 
 1087000    1.0575652   -7.5997113    321.83285  0.024672865  0.025112743            1 
 1088000    1.0637404   -7.5748796    322.61288  0.024709933  0.025103731            7 
 1089000    1.0731922   -7.5413226    322.03797  0.024643249  0.025094834            5 
 1090000    1.0692989   -7.6295095     321.8586  0.024606926  0.025085872            2 
 1091000     1.086176   -7.5640345     323.0361  0.024674313  0.025076892            2 
 1092000     1.062616   -7.5503919    323.66458  0.024699678   0.02506817            3 
 1093000    1.0891851   -7.5661458    323.86094  0.024692051  0.025059493            2 
 1094000    1.0597036   -7.5559099    324.71928  0.024734863   0.02505091            1 
 1095000    1.0665808   -7.5819034    325.69579   0.02478659  0.025042451            4 
 1096000    1.0584228   -7.5452331    324.59728   0.02468045  0.025033745            6 
 1097000    1.0807836   -7.5925787    324.92085  0.024682532  0.025025119            3 
 1098000    1.0691962   -7.5816668    325.28742  0.024687873  0.025016593            3 
 1099000     1.078366   -7.5725162    325.24807  0.024662425  0.025008123            5 
 1100000    1.0820936   -7.5915569     325.4588   0.02465597  0.024999553            3 
 1101000    1.0876503   -7.5538046    326.13561  0.024684802  0.024991054            2 
 1102000    1.0710605   -7.5900154    325.21407  0.024592716  0.024982769            2 
 1103000    1.0740115   -7.5385999    327.35666  0.024732295    0.0249745            3 
 1104000    1.0757846   -7.5788752    327.05322  0.024686988  0.024966296            4 
 1105000    1.0580906   -7.5507567    327.56153  0.024702981  0.024958049            7 
 1106000    1.0664625   -7.5694219    327.79854  0.024698504  0.024949865            1 
 1107000    1.0851546   -7.5633899    326.60202   0.02458612   0.02494155            9 
 1108000    1.0874703   -7.5979896    327.19154  0.024608269  0.024933376            2 
 1109000    1.0643144   -7.5462223    327.09439  0.024578779   0.02492504            3 
 1110000    1.0458611   -7.5558111    327.56151  0.024591705  0.024916776            1 
 1111000    1.0599197   -7.5989135    327.42097  0.024559029  0.024908299            6 
 1112000    1.0539761   -7.5665964    326.97718  0.024503685  0.024899939            4 
 1113000    1.0764883   -7.5877824    328.72154  0.024612274  0.024891455            3 
 1114000    1.0678406   -7.5712405    329.14814  0.024622093   0.02488318            1 
 1115000    1.0851032   -7.5859986     327.7925  0.024498692  0.024874811            3 
 1116000    1.0923898   -7.5942905    328.34344  0.024517879   0.02486654           13 
 1117000    1.0840418   -7.5539137    329.07852   0.02455077  0.024858173            6 
 1118000    1.0791344   -7.5598045    330.17982  0.024610899  0.024849954            7 
 1119000    1.0603566   -7.5656421    330.58729   0.02461925  0.024841739            4 
 1120000     1.081106   -7.5547127    330.41759  0.024584642  0.024833605            3 
 1121000    1.0795834   -7.5952781     329.5849   0.02450081  0.024825357            3 
 1122000    1.0725535   -7.5443127    330.80239  0.024569399  0.024817009            2 
 1123000    1.1016055   -7.5249394     330.9345  0.024557324  0.024808695            4 
 1124000    1.0439074    -7.551672    331.93527  0.024609673  0.024800574            3 
 1125000    1.0562194   -7.5599248    330.75446   0.02450033  0.024792242           12 
 1126000     1.082041   -7.5598139    330.77222  0.024479886  0.024783772            3 
 1127000    1.0881638   -7.5874311    330.23246  0.024418253   0.02477534            2 
 1128000    1.0472397   -7.5586842    330.56794   0.02442139  0.024766857            6 
 1129000    1.0613153    -7.604077     330.7776  0.024415235  0.024758443            2 
 1130000    1.0553734   -7.5906005    330.56011  0.024377589  0.024749874            4 
 1131000    1.0615105    -7.595507    330.88404  0.024379903  0.024741455            1 
 1132000    1.0709361   -7.5518891    332.18361  0.024454035  0.024732995            2 
 1133000    1.0780332   -7.5971727     330.8351  0.024333267  0.024724326            2 
 1134000    1.0794294   -7.6067754    330.55778   0.02429143  0.024715617            4 
 1135000    1.0469648   -7.5703644    331.73426  0.024356407  0.024706866            3 
 1136000    1.0736797   -7.5775848    331.58655  0.024324131  0.024698161            1 
 1137000    1.0974123    -7.567294    333.03349  0.024408787  0.024689459            8 
 1138000    1.0755642    -7.518013    333.47674  0.024419796  0.024680988            1 
 1139000    1.0740123   -7.5617862    332.50339  0.024327143  0.024672428            1 
 1140000    1.0841487   -7.5907053    332.18638   0.02428263  0.024663839            3 
 1141000    1.0768069   -7.5770055    332.81824  0.024307496  0.024655166            3 
 1142000    1.0684808   -7.5864858    332.63237  0.024272648  0.024646374            7 
 1143000    1.0782597   -7.5796667    333.71613  0.024330427  0.024637725            1 
 1144000    1.0826369   -7.5723882    333.61686  0.024301928  0.024629201            5 
 1145000    1.0822029   -7.6135386    332.96275  0.024233097  0.024620694            5 
 1146000     1.054295   -7.5883121    334.62101  0.024332534  0.024612024            1 
 1147000     1.075617   -7.5847746    334.27102  0.024285892  0.024603452            3 
 1148000    1.0894485   -7.5913367    334.19308   0.02425908  0.024594838            2 
 1149000     1.076926   -7.5629254     334.2472  0.024241892  0.024586238            2 
 1150000     1.066734   -7.5794325    335.32712  0.024299067  0.024577597            2 
 1151000    1.0747138   -7.5752402    334.64513  0.024228579  0.024569102            3 
 1152000    1.0638567   -7.5862001    334.45125  0.024193522  0.024560478            2 
 1153000    1.0645693   -7.5923007    335.96129  0.024281677  0.024551888            3 
 1154000    1.0701467   -7.5771307    336.07672  0.024268972   0.02454341            2 
 1155000     1.074807   -7.5738065    336.02765  0.024244419  0.024535079            2 
 1156000    1.0624006    -7.558969    336.25762  0.024240025   0.02452667            3 
 1157000    1.0504929   -7.5669802    337.10556  0.024280147  0.024518392            2 
 1158000    1.0454358   -7.5881847    335.86161  0.024169661  0.024510014            4 
 1159000    1.0749912   -7.5744725    336.91006  0.024224192  0.024501657            5 
 1160000    1.0726935    -7.607224    336.62312  0.024182695  0.024493185            5 
 1161000    1.0763446   -7.5608554    337.33082  0.024212663  0.024484859            1 
 1162000    1.0710757   -7.6044417    337.76774   0.02422316  0.024476425            3 
 1163000    1.0481231   -7.6000123    337.40307  0.024176202  0.024467997            5 
 1164000    1.0692811   -7.5413298    338.56629   0.02423871  0.024459682            1 
 1165000    1.0441665   -7.6313176    337.50778  0.024142187  0.024451159            4 
 1166000    1.0566752   -7.5715299    337.64872  0.024131555   0.02444267            4 
 1167000    1.0557625   -7.6034029    338.08996  0.024142385  0.024434085            3 
 1168000    1.0434704   -7.5918076    338.93717  0.024182161  0.024425539            2 
 1169000    1.0774843   -7.6014078    338.87451  0.024157008  0.024417088            2 
 1170000    1.0537803   -7.6075935     338.7451  0.024127144  0.024408556            8 
 1171000    1.0522512   -7.6054574     338.5917  0.024095623   0.02440008            2 
 1172000    1.0619559   -7.5782509    339.63545  0.024149278  0.024391579            2 
 1173000    1.0716218   -7.6215591    339.24249  0.024100773  0.024383225            2 
 1174000    1.0646768   -7.6169229    339.01135  0.024063838  0.024374969            1 
 1175000    1.0431004   -7.6302331    339.21548  0.024057835  0.024366585            3 
 1176000    1.0604007   -7.6413199    339.23452  0.024038727   0.02435818            3 
 1177000    1.0784857   -7.5926757    340.11682  0.024080771  0.024349838            3 
 1178000    1.0701194    -7.612277    340.31893  0.024074628  0.024341566            4 
 1179000    1.0525416   -7.6238415     340.6792  0.024079672  0.024333273            3 
 1180000    1.0620236   -7.6379588    340.39363  0.024039098   0.02432498            2 
 1181000    1.0574965   -7.5788134    341.32521  0.024084477  0.024316699            3 
 1182000    1.0517341   -7.5931891    341.44016  0.024072205  0.024308462            4 
 1183000    1.0701577   -7.6146151    341.41866  0.024050343  0.024300188            2 
 1184000     1.074794   -7.6292695    340.98033  0.023999178  0.024291814            2 
 1185000    1.0740548   -7.6416601    340.97597   0.02397862  0.024283489            3 
 1186000    1.0784697   -7.6192794      341.486  0.023994238   0.02427509            2 
 1187000    1.0670004   -7.6096897    342.55156  0.024048832  0.024266931            2 
 1188000    1.0319117   -7.6248133    342.03908   0.02399264   0.02425879            1 
 1189000    1.0609761   -7.5929514     342.7069  0.024019267  0.024250503            3 
 1190000    1.0669658   -7.6306478    342.12752   0.02395851   0.02424217            3 
 1191000    1.0815551   -7.6191447    341.84027  0.023918295  0.024233704            3 
 1192000    1.0607948   -7.6229547    341.27082  0.023858419  0.024225159            1 
 1193000    1.0550973   -7.6162441     342.1791  0.023901865  0.024216813            3 
 1194000    1.0712431   -7.6109889    343.08361  0.023944976  0.024208462            2 
 1195000    1.0496018   -7.6347382    342.72795  0.023900136  0.024200185            3 
 1196000     1.039879   -7.6362214     342.3661   0.02385494   0.02419182            2 
 1197000    1.0509852   -7.6331811    342.50112  0.023844411  0.024183342            7 
 1198000    1.0624224     -7.62445    342.36241  0.023814859  0.024174696            2 
 1199000    1.0579924   -7.6029447    344.80446  0.023964725  0.024166321            2 
 1200000    1.0470513   -7.6259568    342.80332  0.023805786  0.024157954            2 
 1201000    1.0514607   -7.6031183    343.77879  0.023853649   0.02414955            5 
 1202000    1.0616465   -7.6158541    344.38337  0.023875719   0.02414131            1 
 1203000    1.0818997   -7.6247674    344.51227  0.023864801  0.024132813            3 
 1204000    1.0730727   -7.6360514    344.24392  0.023826407  0.024124525            2 
 1205000    1.0386395   -7.6383808    344.04673  0.023792997  0.024116313            1 
 1206000    1.0528046   -7.5888744    346.73599  0.023959092  0.024108142            1 
 1207000    1.0310039   -7.6151133    346.27981  0.023907747  0.024099977            1 
 1208000    1.0527685   -7.6207545    345.57225  0.023839145  0.024091779            2 
 1209000    1.0581942   -7.6269738     346.0672  0.023853543  0.024083705            2 
 1210000    1.0673507   -7.6226302    346.82685  0.023886147   0.02407558            4 
 1211000    1.0596327   -7.5828512    347.42014  0.023907249  0.024067568            2 
 1212000     1.072517   -7.6545744    346.03876  0.023792544  0.024059425            3 
 1213000    1.0469605    -7.600813    347.19161   0.02385213  0.024051337            4 
 1214000    1.0372582   -7.5816782    348.33952  0.023911279  0.024043335            2 
 1215000    1.0688771   -7.5961472     348.3723  0.023893847  0.024035537            2 
 1216000    1.0480585   -7.6714201    346.57299   0.02375089   0.02402748            3 
 1217000    1.0526137   -7.6308564    347.09413  0.023767059   0.02401939            3 
 1218000    1.0546656   -7.6026528      348.824  0.023865901  0.024011249            3 
 1219000    1.0378338   -7.6226927    348.65572  0.023834818  0.024003225            1 
 1220000    1.0359495   -7.6262428    347.90058  0.023763701  0.023995112            3 
 1221000    1.0460493    -7.630673    348.22348  0.023766276  0.023987016            4 
 1222000    1.0395821   -7.6134219       349.17  0.023811375  0.023979027            2 
 1223000    1.0651624   -7.6285297    348.28158   0.02373137   0.02397116            2 
 1224000    1.0906697   -7.6317856    349.56763  0.023799539  0.023963217            3 
 1225000    1.0686932   -7.6027152     349.9045  0.023803027  0.023955143            4 
 1226000     1.081755    -7.621651    349.70914  0.023770333  0.023947261            4 
 1227000    1.0492873   -7.5759469    350.11538   0.02377855  0.023939465            2 
 1228000    1.0407792   -7.6116225    350.45206  0.023782034  0.023931634            3 
 1229000    1.0381471     -7.61297    350.34072  0.023755134  0.023923905            5 
 1230000    1.0593903   -7.6190664    350.49817  0.023746489  0.023916188            3 
 1231000    1.0506906   -7.6269816    351.03995  0.023763874   0.02390833            5 
 1232000    1.0481361   -7.6443743    351.37568  0.023767295  0.023900657            2 
 1233000    1.0499858   -7.6527499    349.66207  0.023632203  0.023892797            1 
 1234000    1.0557383   -7.6452734    351.22017  0.023718272  0.023884924            4 
 1235000    1.0455513   -7.6397419    351.63409  0.023726997  0.023877062            2 
 1236000    1.0668868   -7.6371803    351.89151  0.023725156  0.023869341            2 
 1237000    1.0429283    -7.635321    351.67647  0.023691489  0.023861618            3 
 1238000     1.057469   -7.6105065    353.38605   0.02378743  0.023853894            4 
 1239000    1.0441084   -7.5862463    354.03177  0.023811661  0.023846432            4 
 1240000    1.0598778   -7.6240347     353.7518  0.023773643  0.023838967            3 
 1241000    1.0643564   -7.6381122    353.04642  0.023707119  0.023831457            3 
 1242000    1.0745641   -7.6549036    353.79171  0.023738037  0.023823949            3 
 1243000      1.07077   -7.6548786    354.57486  0.023771444  0.023816598            2 
 1244000     1.060743   -7.5807474    354.86556  0.023771808  0.023809326            4 
 1245000    1.0572183   -7.6428447    353.19331  0.023640784   0.02380192            3 
 1246000    1.0237438   -7.6296913    354.32026  0.023697182  0.023794508            6 
 1247000    1.0521856   -7.6324475    354.80486  0.023710563  0.023787215            3 
 1248000    1.0448108   -7.6233128     355.7864  0.023757105   0.02377992            2 
 1249000    1.0696987   -7.6384609    355.53418  0.023721255  0.023772536            3 
 1250000    1.0581184   -7.6334962    355.83107  0.023722071  0.023765279            4 
 1251000    1.0568143   -7.6655499    355.55499  0.023684718  0.023757956            8 
 1252000     1.064644   -7.6220604    355.89593  0.023688494  0.023750725            1 
 1253000    1.0671764   -7.6301799    356.11868  0.023684402  0.023743445            3 
 1254000    1.0508026   -7.6023313    357.02861  0.023725984  0.023736181            7 
 1255000    1.0617185   -7.6174111    357.94172   0.02376771     0.023729            1 
 1256000    1.0586261   -7.6115236     356.9854  0.023685337  0.023721817            4 
 1257000    1.0525139   -7.6554511    357.23171  0.023682823   0.02371476            4 
 1258000    1.0521426    -7.700589    356.70745  0.023629269  0.023707562            6 
 1259000    1.0473871   -7.6621432    357.27997  0.023648396  0.023700322            4 
 1260000    1.0323305   -7.6450975    358.28444  0.023696061  0.023693213            4 
 1261000    1.0429914   -7.6510934    357.36456  0.023616479  0.023686082            6 
 1262000    1.0565365   -7.6620979    357.92989  0.023635095  0.023679042            2 
 1263000    1.0417314   -7.6344573    358.57423  0.023658896  0.023671958            4 
 1264000    1.0498204   -7.6591121     358.3745  0.023627011  0.023664914            3 
 1265000    1.0574387    -7.614644    358.95597  0.023646638  0.023657926            2 
 1266000    1.0628262   -7.6478437    359.65465   0.02367395  0.023650895            3 
 1267000    1.0454819   -7.6023809    359.99606   0.02367772  0.023643759            2 
 1268000    1.0470513    -7.657705    358.72284   0.02357537   0.02363661            3 
 1269000    1.0406251   -7.6208232     360.2633  0.023657953  0.023629471            3 
 1270000    1.0555774   -7.6100727    360.39667  0.023648075  0.023622578            5 
 1271000    1.0504382   -7.6398068    361.27262  0.023686902  0.023615718            2 
 1272000    1.0726486   -7.6571755     360.3357  0.023606899  0.023608835            2 
 1273000    1.0422953   -7.6464339    360.59594   0.02360539  0.023601961            3 
 1274000    1.0245678   -7.6456548    361.74005  0.023661699  0.023595013            4 
 1275000    1.0519251    -7.563408    362.22451  0.023674805   0.02358809            1 
 1276000    1.0458907   -7.6228788    361.59728  0.023615288  0.023581097            2 
 1277000    1.0514497   -7.6193525    361.54245  0.023593216  0.023574073            4 
 1278000    1.0557299    -7.659733    360.64357  0.023516143  0.023566945            2 
 1279000    1.0500955   -7.6650236    361.43675  0.023549437  0.023559865           12 
 1280000    1.0618723   -7.6563825     361.0954  0.023508815  0.023552845            1 
 1281000    1.0581287   -7.6652139    361.36627  0.023508084  0.023545878            1 
 1282000    1.0419441    -7.626199    362.81067  0.023583637  0.023538991            3 
 1283000    1.0446287   -7.6679131    362.47569  0.023543498  0.023532124            2 
 1284000    1.0544225   -7.6203352    363.03935  0.023561744  0.023525111            3 
 1285000    1.0625977   -7.6689545    362.25543   0.02349257  0.023518224            4 
 1286000    1.0285144   -7.6950399    362.63682  0.023499016  0.023511307            9 
 1287000    1.0725195   -7.6499415    364.42586  0.023596598  0.023504475            3 
 1288000    1.0445211   -7.6636854     364.6408  0.023592185  0.023497745            4 
 1289000    1.0434495     -7.66652    363.86993  0.023524045  0.023491056            1 
 1290000    1.0842391   -7.6691023    363.15373  0.023459543  0.023484221            3 
 1291000    1.0418406   -7.6531902    364.76679  0.023545494  0.023477381            4 
 1292000    1.0272287   -7.6167453    365.97221  0.023605019  0.023470739            5 
 1293000    1.0300526   -7.6103757     365.1685  0.023534964  0.023463996            2 
 1294000    1.0384605   -7.6779316    364.19776  0.023454261  0.023457226            2 
 1295000    1.0567951    -7.609164    365.41824  0.023514687  0.023450492            4 
 1296000    1.0379595   -7.6869669    363.08461   0.02334649  0.023443631            3 
 1297000    1.0433233   -7.6354412    366.38177  0.023540335  0.023436744            1 
 1298000    1.0281859   -7.6370153    365.84781  0.023487918   0.02343006            4 
 1299000    1.0596097   -7.6619192    367.20358  0.023556812  0.023423363            3 
 1300000    1.0369929   -7.6443794     367.1639  0.023536148  0.023416618            4 
 1301000    1.0516282    -7.665115     366.4402  0.023471701   0.02340993            4 
 1302000    1.0545207   -7.6508949    366.63965   0.02346644    0.0234032            2 
 1303000    1.0635598   -7.6596164    366.99589  0.023471213  0.023396346            2 
 1304000     1.043692   -7.6258923     366.6165  0.023428969  0.023389495            4 
 1305000    1.0521697   -7.6370717    367.13552  0.023444158  0.023382619            2 
 1306000    1.0635586   -7.6445807    367.78694  0.023467773  0.023375669            4 
 1307000    1.0401213    -7.656713     367.2268  0.023414103  0.023368781            1 
 1308000     1.047176   -7.6677958     366.6217  0.023357652  0.023361953            3 
 1309000    1.0401615   -7.7084172     367.1661  0.023374465  0.023355018            2 
 1310000    1.0551557   -7.6584278    367.65199  0.023387531   0.02334811            3 
 1311000    1.0442103   -7.6488679    369.28318  0.023473378  0.023341429            3 
 1312000    1.0282797   -7.6847882    367.40469  0.023336172  0.023334589            4 
 1313000    1.0356818   -7.6833376    367.67625  0.023335634  0.023327746            4 
 1314000    1.0318543   -7.6755372    368.74484  0.023385644  0.023320765            2 
 1315000    1.0351176   -7.6469745    368.85975  0.023375143  0.023313936            2 
 1316000    1.0724276    -7.685216    368.22427   0.02331714  0.023307078            3 
 1317000    1.0319454   -7.6861895     368.3897  0.023309903  0.023300253            3 
 1318000    1.0343145   -7.6826997    369.73722  0.023377417  0.023293441            3 
 1319000     1.042765     -7.67248    368.61147  0.023288569  0.023286617            3 
 1320000    1.0327707   -7.6576749    369.33239  0.023316439   0.02327972           13 
 1321000    1.0403887   -7.6348461    370.59143  0.023378213  0.023272833            2 
 1322000    1.0230294    -7.687921     369.6333  0.023300132  0.023265882            2 
 1323000    1.0337909   -7.6457417    370.96722  0.023366542  0.023259063            7 
 1324000    1.0589056   -7.6415427    369.98174  0.023286867  0.023252285            2 
 1325000    1.0479032   -7.6209073    371.49273  0.023364323  0.023245561            2 
 1326000    1.0376671   -7.6712635    369.85957  0.023244066   0.02323875            3 
 1327000     1.047817   -7.6840269    370.30479  0.023254508  0.023231819            1 
 1328000    1.0387565   -7.6607034    370.69066  0.023261211  0.023224854            2 
 1329000    1.0300999    -7.686755    370.29213  0.023218719  0.023217909            3 
 1330000    1.0715425   -7.6592742    371.58091  0.023282012  0.023210876            2 
 1331000     1.051493   -7.6426791    371.74281  0.023274656  0.023204033            1 
 1332000    1.0302115   -7.6785201    369.82677  0.023137311  0.023196997            4 
 1333000    1.0377615   -7.6623454    370.68154   0.02317339  0.023189962            2 
 1334000    1.0182012   -7.6751369    371.01054   0.02317657  0.023182988            2 
 1335000    1.0531907   -7.6707671    371.84861  0.023211524  0.023175934            6 
 1336000    1.0227804   -7.6664023    371.35451   0.02316333  0.023169013            3 
 1337000    1.0384073   -7.6747424     373.0199  0.023249807  0.023162138            2 
 1338000    1.0286047   -7.7292355    371.12342  0.023114314  0.023155171            3 
 1339000    1.0277184   -7.6217787     372.8217  0.023202745  0.023148241            2 
 1340000    1.0375671   -7.6799743    372.06142  0.023138148   0.02314133            3 
 1341000    1.0302285   -7.6766598    372.38234  0.023140836  0.023134301            2 
 1342000    1.0227257   -7.6794574     373.8931  0.023217406  0.023127332            4 
 1343000    1.0121035   -7.6776377    372.91152  0.023139211  0.023120391            3 
 1344000    1.0642232   -7.6514762    373.83334   0.02317915  0.023113485            2 
 1345000    1.0477905   -7.6702918    374.21311  0.023185446  0.023106709            5 
 1346000    1.0492403   -7.6566724    374.57913  0.023190882   0.02310002            2 
 1347000    1.0232802   -7.6304998    374.60306  0.023175146  0.023093366            4 
 1348000    1.0443069   -7.6931222    373.87399  0.023112882  0.023086569            5 
 1349000    1.0415453     -7.65216     374.4588  0.023131876  0.023079729            3 
 1350000    1.0409165   -7.6909076    374.11769  0.023093685  0.023072828            2 
 1351000    1.0313568   -7.6823942    374.88832  0.023124125  0.023065977            3 
 1352000     1.030515   -7.6532111    375.10131   0.02312015  0.023059243            2 
 1353000    1.0359442   -7.6751983    374.55954  0.023069693  0.023052401            3 
 1354000    1.0294728     -7.63359    376.09061  0.023146886  0.023045632            1 
 1355000    1.0252818   -7.7043835     374.5018  0.023032091   0.02303868            6 
 1356000     1.019292   -7.6846061    375.39118  0.023069763  0.023031817            3 
 1357000    1.0332045    -7.695726    376.14995  0.023099358  0.023025024            2 
 1358000    1.0413787   -7.6522347    377.31907  0.023154091  0.023018241            1 
 1359000    1.0292049     -7.69695    375.59136  0.023031111  0.023011422            4 
 1360000    1.0235588   -7.6635374    378.01608   0.02316275   0.02300467            4 
 1361000    1.0378911   -7.6999955    376.11356  0.023029241  0.022997927            2 
 1362000    1.0518864   -7.7037639    376.47276   0.02303431  0.022991164            3 
 1363000    1.0182552   -7.7048927    378.06575  0.023114805  0.022984305            3 
 1364000    1.0193935   -7.6820945    378.30439  0.023112438   0.02297742            2 
 1365000    1.0684134   -7.7228447    376.11993  0.022962145   0.02297058            2 
 1366000    1.0462744   -7.6629158    378.14824  0.023069072  0.022963828            4 
 1367000    1.0469561   -7.6725515    378.26439  0.023059278  0.022957142            2 
 1368000    1.0300105   -7.6602717    378.16317  0.023036255  0.022950542            3 
 1369000     1.012234   -7.6823979    377.77348  0.022995708   0.02294386            3 
 1370000    1.0375538   -7.7111032    377.53323  0.022964309   0.02293712            2 
 1371000    1.0223951   -7.7165395    377.83473  0.022965884  0.022930396            4 
 1372000    1.0353685   -7.7114626    378.25882  0.022974904  0.022923635            3 
 1373000    1.0391919   -7.6888457    379.89603   0.02305754  0.022916836            1 
 1374000    1.0313241   -7.6796822    379.43963  0.023013078  0.022910135            3 
 1375000    1.0240514   -7.6783437    378.68395  0.022950543  0.022903416            2 
 1376000    1.0290863   -7.6176125    379.61621  0.022990323  0.022896797            1 
 1377000    1.0425333   -7.6588874    379.34132  0.022956991  0.022890102            8 
 1378000    1.0046951   -7.6163216    380.92651  0.023036195  0.022883535            3 
 1379000    1.0047225   -7.6409775    381.70938  0.023066798  0.022876953            8 
 1380000    1.0410997   -7.6399815    380.53507  0.022979171  0.022870453            2 
 1381000    1.0487806   -7.6728585     380.2995  0.022948317  0.022863797            2 
 1382000     1.027637   -7.6955534    380.80736  0.022962335  0.022857166            4 
 1383000    1.0316339   -7.7392395    379.26607   0.02285286  0.022850409            2 
 1384000    1.0213719   -7.6708979    382.68604  0.023042271    0.0228438            4 
 1385000    1.0302777    -7.673961    380.73876   0.02290847   0.02283718            3 
 1386000    1.0458078   -7.6750207    380.50082  0.022877634  0.022830464            3 
 1387000    1.0394695   -7.6802764    381.37495   0.02291366  0.022823786            2 
 1388000    1.0497233   -7.6965958    381.48835  0.022903959  0.022817132            2 
 1389000    1.0382991   -7.6661896     380.9402  0.022854583  0.022810304            6 
 1390000    1.0453281   -7.7381111    380.77569  0.022828279  0.022803356            2 
 1391000    1.0327078   -7.7111178    381.62695  0.022862866  0.022796389            2 
 1392000    1.0460422   -7.6655913    383.10655  0.022935019  0.022789603            1 
 1393000    1.0370766   -7.6687687    381.59701  0.022828249  0.022782737            4 
 1394000    1.0340496   -7.6531673    381.87073  0.022828236   0.02277586            2 
 1395000    1.0166365   -7.6608744    382.77647  0.022865978  0.022768908            2 
 1396000    1.0339893   -7.6915344    381.63935  0.022781719   0.02276198            2 
 1397000    1.0568511   -7.6798748    381.77117  0.022773274  0.022755082            2 
 1398000    1.0248442   -7.6822341    381.33418  0.022730936  0.022748177            3 
 1399000    1.0371392   -7.6900814    383.18022  0.022824649  0.022741215            2 
 1400000    1.0297679   -7.7063115    382.47866  0.022766587  0.022734316            3 
 1401000    0.9994035   -7.7023613    382.85396   0.02277266  0.022727454            3 
 1402000    1.0123916   -7.6955673    383.81257  0.022813396   0.02272056            5 
 1403000    1.0348726   -7.6918906    382.61504  0.022726006  0.022713608            2 
 1404000    1.0214692   -7.7220378    383.41402  0.022757243  0.022706649            3 
 1405000    1.0294143   -7.6995418    383.85798  0.022767377  0.022699704            3 
 1406000    1.0243285   -7.7351952    383.93428  0.022755707  0.022692795            3 
 1407000    1.0206752   -7.7149905    383.74931  0.022728578  0.022685942            5 
 1408000    1.0346075   -7.7262065    384.22428  0.022740547  0.022679027            3 
 1409000    1.0408253   -7.6662952    384.80933  0.022759009  0.022672247            3 
 1410000    1.0230218   -7.6740336    384.81943  0.022743465  0.022665533            3 
 1411000    1.0284609   -7.7028252    384.40606  0.022702933  0.022658774            2 
 1412000    1.0378261   -7.6848256    384.63122  0.022700143  0.022651887            3 
 1413000   0.99948568   -7.6452854    385.75942  0.022750614   0.02264521            4 
 1414000    1.0301886   -7.7217392    384.79279  0.022677557   0.02263836            6 
 1415000    1.0253138    -7.739906     383.9799  0.022613657  0.022631463            4 
 1416000    1.0284018   -7.6434372    385.98174  0.022715498  0.022624734            2 
 1417000    1.0242739   -7.6815153    384.99793  0.022641609  0.022617924            2 
 1418000    1.0292918   -7.6771053     386.5365  0.022716061  0.022611134            2 
 1419000    1.0124616   -7.7097073    385.68538  0.022650069  0.022604319            3 
 1420000    1.0131599   -7.6728687    386.53144   0.02268377  0.022597395            2 
 1421000    1.0374067   -7.6803372    385.27892  0.022594354  0.022590509            4 
 1422000    1.0248345   -7.6787697    385.59545  0.022597014  0.022583532            2 
 1423000    1.0395364   -7.7346572    384.59477  0.022522533  0.022576554            3 
 1424000    1.0152833   -7.6442802    387.40059  0.022670915  0.022569587            3 
 1425000    1.0496626   -7.7087198    385.50978  0.022544431  0.022562676            2 
 1426000    1.0120204   -7.6560768    386.97777  0.022614409  0.022555737            3 
 1427000    1.0120297   -7.7200273    386.11309  0.022548066  0.022548888            3 
 1428000    1.0272367   -7.6788624    386.64801  0.022563493  0.022542138            4 
 1429000    1.0228542   -7.6786717    387.55137  0.022600383  0.022535392            2 
 1430000    1.0400899   -7.7227838    386.71295   0.02253572  0.022528556            3 
 1431000    1.0210964   -7.6910913    388.52401  0.022625437  0.022521774            3 
 1432000    1.0296112   -7.7336382     387.8185  0.022568581  0.022514896            3 
 1433000    1.0218992   -7.7430876    387.75252  0.022548995  0.022507933            4 
 1434000    1.0092182   -7.7243796    388.32086  0.022566298  0.022500994            5 
 1435000    1.0073138   -7.7212012    388.40725   0.02255559  0.022494227            1 
 1436000    1.0429553   -7.7423446    387.94285  0.022512932  0.022487441            1 
 1437000   0.99587887   -7.6848784    389.04716  0.022561306  0.022480665            3 
 1438000    1.0264332   -7.7375492    389.60183   0.02257776  0.022473975            3 
 1439000    1.0268487   -7.7272262    388.92697  0.022522989  0.022467239            3 
 1440000    1.0401729   -7.6820956    389.80725   0.02255829   0.02246053            2 
 1441000    1.0283729    -7.725784    389.61626   0.02253159  0.022453893            3 
 1442000    1.0128851   -7.6579865    391.31687  0.022614243  0.022447244            1 
 1443000   0.99903203   -7.6797222    390.39698  0.022545448  0.022440784           11 
 1444000    1.0297516   -7.7051718    389.97604  0.022505543  0.022434175            5 
 1445000    1.0054249   -7.6846317    391.93497  0.022602939  0.022427488            2 
 1446000    1.0092341   -7.7184113     390.5925  0.022509941  0.022420789            2 
 1447000   0.99929517   -7.7284377    389.88267  0.022453506  0.022414059            5 
 1448000    1.0038096   -7.7254574    390.18227  0.022455241  0.022407305            1 
 1449000    1.0323138   -7.7349177    391.14163  0.022494918  0.022400451            2 
 1450000    1.0137087   -7.7171009    392.04756  0.022531469  0.022393812            4 
 1451000    1.0400404   -7.7390391    390.64674  0.022435489  0.022387178            4 
 1452000    1.0353548   -7.7435574    391.57424  0.022473269   0.02238047            2 
 1453000    1.0204978   -7.7203871    392.62879  0.022518283  0.022373888            3 
 1454000    1.0188498    -7.676255      391.983  0.022465784  0.022367371            2 
 1455000   0.98498337   -7.7223655    391.39393  0.022416605  0.022360775            3 
 1456000    1.0176765   -7.7015467    392.88785  0.022486713  0.022354206            1 
 1457000    1.0162127   -7.7269447    391.90019   0.02241479  0.022347598            2 
 1458000    1.0077707   -7.7191573    391.32188  0.022366362  0.022340839            4 
 1459000    1.0213479   -7.7207097    391.51779  0.022362223  0.022334107            2 
 1460000     1.023386   -7.7326627    392.74927  0.022417196  0.022327406            2 
 1461000    1.0276201   -7.7349391    392.35377  0.022379294  0.022320593            3 
 1462000     1.031657   -7.7384811     392.5455  0.022374915  0.022313739            2 
 1463000    1.0026267   -7.6829307    393.40012    0.0224083  0.022306925            2 
 1464000    1.0186797    -7.687836    393.29998  0.022387294  0.022300061            3 
 1465000      1.00989   -7.7498352    391.39259  0.022263515  0.022293168            7 
 1466000    1.0312921   -7.7248184    392.66014  0.022320381   0.02228625            2 
 1467000    1.0176787   -7.7204713    392.99636  0.022324265  0.022279425            9 
 1468000    1.0058992   -7.7438299    391.73734  0.022237587  0.022272401            2 
 1469000    1.0116047    -7.735215    392.77266  0.022281181  0.022265563            2 
 1470000     1.002403   -7.7518896     392.6065  0.022256604   0.02225856            4 
 1471000     1.009923   -7.7390626    393.36028  0.022284176  0.022251512            4 
 1472000     1.013519   -7.7360318     393.6524  0.022285575  0.022244625            3 
 1473000    1.0052763   -7.7263714    394.57135  0.022322434  0.022237781            2 
 1474000   0.99790743    -7.708678    393.39261   0.02224065  0.022230933            3 
 1475000     1.027372   -7.7410391    393.95131  0.022257136  0.022223894            3 
 1476000    1.0257537    -7.744136    393.77103  0.022231878  0.022216953            2 
 1477000    1.0257302   -7.7394332    394.88838  0.022279868  0.022209981            1 
 1478000    1.0063172   -7.7487546    395.08671  0.022275976  0.022202999            2 
 1479000     1.023552   -7.7527195    394.39472  0.022221925  0.022195992            3 
 1480000     1.010747   -7.7695134    393.72737  0.022169334   0.02218895            4 
 1481000    1.0246315   -7.7301788    395.55573  0.022257244  0.022181934            4 
 1482000   0.99913279   -7.7168579    394.03945  0.022156964  0.022175065            4 
 1483000    1.0067244   -7.7566835    395.25009  0.022210052  0.022168165            5 
 1484000    1.0061899   -7.7487646    394.87327  0.022173926  0.022161248            4 
 1485000    1.0092021   -7.7291559    395.63883  0.022201954  0.022154258            7 
 1486000    1.0017308    -7.740233    395.21695  0.022163355  0.022147357            5 
 1487000    1.0066957   -7.7503543    395.12492  0.022143293  0.022140495            2 
 1488000    1.0113728   -7.7010927    396.62263  0.022212289   0.02213364            5 
 1489000   0.99751625   -7.7497159    396.40924  0.022185429  0.022126793            2 
 1490000   0.99824399    -7.767042    396.19837  0.022158746  0.022119883            3 
 1491000    1.0123103   -7.7513548    395.72626  0.022117497  0.022112894            2 
 1492000    1.0236148    -7.786075    395.54025  0.022092284  0.022105935            3 
 1493000    1.0215782   -7.7802868    395.90051  0.022097595  0.022098943            2 
 1494000    1.0081104   -7.7138536    397.36777  0.022164646  0.022092025            2 
 1495000    1.0037646   -7.7080516    396.52011   0.02210257  0.022085246            4 
 1496000    1.0088318   -7.7369707    396.40886  0.022081599   0.02207839            2 
 1497000   0.98875238   -7.7216551    397.24902  0.022113617  0.022071601            5 
 1498000    1.0249154   -7.7124633    398.65554    0.0221771  0.022064825            2 
 1499000   0.98599521    -7.777222    397.81659  0.022115666  0.022058041            3 
 1500000    1.0185658   -7.7803038    397.47301  0.022081834   0.02205117            2 
 1501000    1.0034554   -7.7427827    398.68884  0.022134624  0.022044441            8 
 1502000    1.0134129   -7.7697066    398.55321  0.022112362  0.022037706            2 
 1503000    1.0349058   -7.7331267    399.98372  0.022176964  0.022030936            2 
 1504000    1.0040087   -7.7360797    401.23834  0.022231734  0.022024431            1 
 1505000    1.0020562   -7.7462546    400.20088  0.022159517  0.022017893            4 
 1506000    1.0055528   -7.7150639    400.21293   0.02214547  0.022011376            4 
 1507000    1.0269593    -7.754065    400.14887  0.022127232  0.022004754            2 
 1508000    1.0290297   -7.7143721    400.40869  0.022126917  0.021998162            4 
 1509000    1.0407494   -7.7064461    400.72062   0.02212948  0.021991593            3 
 1510000     1.034558   -7.7284677    401.01303  0.022130962  0.021985078            2 
 1511000    1.0008291   -7.7576997    400.86666  0.022108243   0.02197845            3 
 1512000    1.0299227   -7.7474628    400.23559   0.02205884  0.021971891            5 
 1513000   0.99505385   -7.7374391    401.50568  0.022114215   0.02196529            2 
 1514000    1.0252068   -7.7366704    402.01542  0.022127665  0.021958681            8 
 1515000   0.98740191   -7.7906017    399.52733  0.021976201  0.021952105           12 
 1516000    1.0041775   -7.7431804     402.6865  0.022135362   0.02194551            3 
 1517000    1.0384167   -7.7487158    401.75548  0.022069627  0.021938916            1 
 1518000   0.99789603   -7.7517485    401.42126   0.02203674  0.021932264            3 
 1519000    1.0008033   -7.7918244    401.40801  0.022021506  0.021925667            4 
 1520000   0.99007039   -7.7609126    401.93059  0.022035668  0.021919043            3 
 1521000    1.0027801    -7.720134    402.77521  0.022067456  0.021912527            6 
 1522000    1.0182169   -7.7237357    402.76095  0.022052177  0.021905994            6 
 1523000    0.9937228    -7.795157    401.17733  0.021951047  0.021899461            2 
 1524000    1.0153355   -7.7473688     403.5573  0.022066782   0.02189293            6 
 1525000    1.0044355   -7.7491496    402.71746  0.022006419  0.021886335            7 
 1526000   0.99172463   -7.7575726    402.29959  0.021969178   0.02187983            4 
 1527000    1.0147466    -7.744046    403.69874  0.022031147  0.021873325            1 
 1528000    1.0087778    -7.763495    403.70737    0.0220172  0.021866889            2 
 1529000    1.0116785   -7.7395231    404.66581  0.022055037  0.021860416            2 
 1530000   0.99239896    -7.751327     404.1785  0.022014079  0.021853902            2 
 1531000   0.99762539   -7.7312693    405.39075  0.022065684  0.021847501            4 
 1532000     1.011806    -7.786384     404.1693   0.02198484  0.021841115            3 
 1533000   0.99670515   -7.7585471    403.75057  0.021947737  0.021834694            3 
 1534000    1.0161821   -7.7298516    405.58033   0.02203283  0.021828313            2 
 1535000     1.022527   -7.7968174    404.80906  0.021976605  0.021821938           11 
 1536000    1.0130428     -7.75838    405.05209  0.021975482   0.02181555            4 
 1537000    1.0054079   -7.7439423    405.89573  0.022006926  0.021809256            4 
 1538000   0.99353009   -7.7765389    405.06116  0.021947397   0.02180285            3 
 1539000   0.99836309   -7.7648461    405.45579  0.021954505  0.021796467            2 
 1540000    1.0172829   -7.7421236    405.62349  0.021949323  0.021790022            2 
 1541000   0.99878393   -7.7789863    405.59055  0.021933298  0.021783709            2 
 1542000   0.99405861   -7.7761874    405.27684  0.021902121  0.021777386            5 
 1543000   0.99941819   -7.7752846    406.97267  0.021979513  0.021771096            3 
 1544000    1.0136711   -7.7987323    405.46679  0.021884002  0.021764827            5 
 1545000    1.0287295   -7.7858864    405.62433  0.021878335  0.021758483            8 
 1546000    1.0117821   -7.7627892    406.30158  0.021900689  0.021752061            3 
 1547000   0.99629872    -7.764119    407.31929  0.021941354  0.021745812            2 
 1548000    1.0135662   -7.7602744    408.91276  0.022012961  0.021739637            3 
 1549000    0.9939163   -7.7676846    407.61517  0.021928942  0.021733427            4 
 1550000    1.0028802   -7.7588011    407.87548  0.021928789   0.02172718            4 
 1551000    1.0072574   -7.7563955      407.655  0.021902805  0.021720963            4 
 1552000    1.0007418   -7.7729867     407.1214  0.021860041  0.021714694            3 
 1553000   0.98846909   -7.7714441    407.28188  0.021854576  0.021708436            2 
 1554000      1.00871   -7.6939932    409.02756  0.021934125  0.021702184            5 
 1555000    1.0043718   -7.7710135     408.9231  0.021914421  0.021695931            4 
 1556000   0.99835191   -7.8029542    407.34827  0.021815996  0.021689514            3 
 1557000    0.9988839   -7.7821516    406.86086  0.021775897  0.021683013            3 
 1558000    1.0126736   -7.7598058    408.72565  0.021861663  0.021676591            4 
 1559000    1.0021438   -7.7537144    408.02736  0.021810315  0.021670169            4 
 1560000    1.0108229   -7.7720632    409.13315  0.021855403  0.021663704            4 
 1561000   0.99865925   -7.7527399    408.83637  0.021825559  0.021657203            5 
 1562000    1.0043008   -7.7568078    409.11737  0.021826578  0.021650735            3 
 1563000   0.99184159   -7.7585497    409.35855  0.021825472  0.021644302            6 
 1564000   0.98309352   -7.7687186    409.16681  0.021801301  0.021637931            2 
 1565000   0.97743523   -7.8052955    407.89998  0.021719914  0.021631564            5 
 1566000    1.0189043   -7.7847023    408.99007  0.021764052  0.021625087            2 
 1567000   0.99733205   -7.7628029    409.76433  0.021791339  0.021618633            2 
 1568000    1.0180926   -7.8169315    409.84263  0.021781602  0.021612238            3 
 1569000    1.0089156   -7.7482419    410.76017  0.021816453  0.021605904            5 
 1570000    1.0164693   -7.7331912    409.26885    0.0217234  0.021599471            3 
 1571000   0.99373217   -7.7851603    409.20463  0.021706165  0.021592979            6 
 1572000   0.96629291   -7.8033895    409.00398  0.021681721  0.021586452            4 
 1573000    1.0140827   -7.7955321    408.90885  0.021662898  0.021579905            4 
 1574000   0.99406567   -7.7640115    409.55088  0.021683126  0.021573341            2 
 1575000   0.99896449   -7.7898765    409.15928  0.021648639  0.021566852            3 
 1576000   0.98272004   -7.7515801    410.25062  0.021692609  0.021560303            3 
 1577000   0.99055699   -7.7788283    410.37658  0.021685509  0.021553618            3 
 1578000   0.98722062    -7.777933    409.99554  0.021651644   0.02154687            6 
 1579000    1.0020902   -7.7673479    409.64652  0.021619512  0.021540172            4 
 1580000   0.99607081   -7.7658305    409.34719  0.021590042  0.021533461            4 
 1581000    1.0165222   -7.7410481    411.58276  0.021694221  0.021526854            2 
 1582000    1.0057626   -7.7343882     410.7106  0.021634566  0.021520267            3 
 1583000    1.0237089   -7.7696007    410.76853  0.021623949  0.021513734            4 
 1584000   0.98517607   -7.7692129    410.91918  0.021618223  0.021507204            2 
 1585000    1.0175546   -7.7291578    411.76774  0.021649198  0.021500652            4 
 1586000    1.0113377   -7.7730117     412.0492  0.021650336  0.021494127            4 
 1587000   0.97530869   -7.7780713    411.73977  0.021620446  0.021487582            3 
 1588000    1.0047805   -7.7566876    411.78545  0.021609228  0.021481031            3 
 1589000   0.98918812   -7.7762007    412.04753  0.021609374  0.021474378            9 
 1590000   0.99437954   -7.7860178    410.30351  0.021504377  0.021467676            3 
 1591000   0.98936353   -7.7911591    411.42083  0.021549383  0.021460992            5 
 1592000   0.98983531   -7.7936403    411.89895  0.021560874  0.021454355            6 
 1593000   0.99682232   -7.7834681    411.33714  0.021517951  0.021447791            2 
 1594000   0.99445404   -7.7512617    411.63607  0.021520079  0.021441213            2 
 1595000    1.0020161   -7.8028073     412.9003  0.021572638  0.021434607            3 
 1596000   0.98317617   -7.7600421    412.67967  0.021547602  0.021427958            3 
 1597000    1.0052025   -7.7861966    411.16646  0.021455148  0.021421242            7 
 1598000   0.97459179   -7.7597078     413.0572  0.021540321  0.021414616            3 
 1599000    1.0053227   -7.7686031    412.35061  0.021490026  0.021408019            3 
 1600000    1.0094247   -7.7695804    412.76203  0.021498022  0.021401366            1 
 1601000   0.99917758   -7.7807719    413.03668   0.02149889  0.021394751            3 
 1602000    1.0081323   -7.8200088    411.88464  0.021425543  0.021388038            2 
 1603000    0.9768922   -7.8147618    413.02474  0.021471446  0.021381362            3 
 1604000    1.0014861   -7.7768736    413.39178  0.021477129    0.0213747            7 
 1605000    0.9915055   -7.7651388    414.01745  0.021496233  0.021368125           11 
 1606000   0.99388021   -7.7895481    413.13622  0.021437122  0.021361507            2 
 1607000    1.0038469   -7.7752588    413.16903  0.021425484  0.021354741            3 
 1608000    1.0017999   -7.7514879    414.00422  0.021455443  0.021348049            3 
 1609000   0.99359341   -7.7949668    413.41242  0.021411458  0.021341454            3 
 1610000   0.98148926   -7.8038609    413.96292  0.021426652  0.021334692            2 
 1611000   0.99719745    -7.825143    414.56322  0.021444404  0.021327955            2 
 1612000    1.0029168   -7.7658143     414.3659  0.021420901  0.021321247            2 
 1613000   0.97435766   -7.7591797    415.16191  0.021448745  0.021314646            5 
 1614000   0.99722382   -7.7492312    414.78165  0.021415822  0.021308019            2 
 1615000    1.0011628   -7.7983026    414.10491  0.021367643  0.021301441            2 
 1616000   0.99111753   -7.7859692    415.80048  0.021441857  0.021294829            6 
 1617000    1.0037125    -7.822757    414.43488  0.021358219  0.021288155           11 
 1618000   0.99610486   -7.8005319    414.93166  0.021370605  0.021281578            3 
 1619000    1.0054438    -7.806089    414.50049  0.021335211   0.02127497            3 
 1620000   0.97918431   -7.7569431    416.45018  0.021422334  0.021268347            2 
 1621000   0.98909818    -7.805884    415.20526  0.021345119    0.0212616            2 
 1622000   0.98962463   -7.7895152    416.00256  0.021372922  0.021254962            7 
 1623000    0.9872513   -7.8174023    415.70798  0.021344628  0.021248302            4 
 1624000   0.96674443   -7.8020184     414.8189  0.021285863  0.021241578            9 
 1625000   0.96344789   -7.8154049    415.74803  0.021320412  0.021234908            2 
 1626000   0.97925104   -7.8152434    414.83516  0.021260515  0.021228224            4 
 1627000   0.99762493   -7.8165527     416.1204  0.021313276  0.021221526            4 
 1628000   0.99508114   -7.8195272    414.78521  0.021231839  0.021214896            4 
 1629000   0.98284849   -7.8174844     415.3169  0.021246005  0.021208276            8 
 1630000   0.99122403   -7.8206037    416.28808  0.021282622  0.021201606            4 
 1631000   0.98595404   -7.7714508    417.46893  0.021329907  0.021194997            7 
 1632000   0.98256908   -7.8093596     417.1621  0.021301169  0.021188364            2 
 1633000   0.99930664   -7.7639927     417.2513  0.021292677  0.021181667            2 
 1634000    1.0071352   -7.7619433    417.54412   0.02129458  0.021175056            2 
 1635000   0.97863802   -7.8101148    416.51912  0.021229313  0.021168403            2 
 1636000    1.0165534   -7.7869271    418.63219  0.021323971  0.021161832            7 
 1637000   0.97110041   -7.8118942    417.55986  0.021256356  0.021155286            1 
 1638000    1.0052727   -7.8264272    418.57545  0.021295047  0.021148676            2 
 1639000   0.98898042   -7.8188409    415.66037   0.02113384   0.02114207            1 
 1640000   0.99039431   -7.8062946     418.5879  0.021269711  0.021135532            2 
 1641000   0.98789295   -7.7973652    419.86843  0.021321777  0.021128978            3 
 1642000   0.97534507   -7.8429222    418.36734   0.02123261  0.021122477            4 
 1643000   0.96245025   -7.8143886    418.31927  0.021217248  0.021115921            2 
 1644000   0.99159697   -7.8475529    418.52245  0.021214642  0.021109343            3 
 1645000   0.99167753   -7.8254402    418.52356  0.021201802  0.021102778            1 
 1646000   0.98069896   -7.8902481     417.5663  0.021140456  0.021096083            3 
 1647000   0.99140483   -7.8087873    417.71946  0.021135371  0.021089469            5 
 1648000   0.98262305   -7.8363535    418.61599   0.02116788  0.021082842            9 
 1649000   0.98929672   -7.8744858    418.23446  0.021135762  0.021076098            3 
 1650000    0.9852956    -7.833758    418.32468  0.021127509  0.021069376            9 
 1651000   0.97376297   -7.8232178     419.0446   0.02115105  0.021062746            6 
 1652000   0.97163304    -7.798679    419.90945  0.021181873  0.021056146            3 
 1653000   0.98649295    -7.804074    419.01952  0.021124195  0.021049521            3 
 1654000   0.99512711   -7.7999716    418.89835  0.021105318  0.021042875            2 
 1655000   0.99738577   -7.7892542    419.93237  0.021144631  0.021036274            2 
 1656000   0.99596794   -7.8157747    419.84469   0.02112745   0.02102963            1 
 1657000   0.98316734   -7.7965715     420.3193  0.021138569  0.021022928            2 
 1658000     1.004363   -7.8116391    419.73923  0.021096664  0.021016297            6 
 1659000   0.99940351   -7.7739574    420.11266  0.021102705   0.02100967            9 
 1660000   0.98339335   -7.7963975      420.999  0.021134488  0.021003087            3 
 1661000    1.0014838   -7.7884865    421.95709  0.021169832  0.020996511            8 
 1662000   0.99191023   -7.8416004    419.84636  0.021051261  0.020989855            4 
 1663000   0.97123427   -7.7964221    420.36711  0.021064698  0.020983371            2 
 1664000   0.97568039   -7.7989366    421.06957  0.021087218  0.020976778            5 
 1665000   0.98316167   -7.8135387    421.04625  0.021073386  0.020970184            2 
 1666000   0.99265145   -7.8467683    421.66493  0.021091683  0.020963539            3 
 1667000   0.98417598   -7.8318637    421.22898  0.021057237  0.020956865            3 
 1668000   0.98590519     -7.81283    422.49522  0.021107875  0.020950277            2 
 1669000    0.9780344   -7.8084887     422.2154  0.021081256  0.020943699            1 
 1670000   0.97500928   -7.8245532    421.41864  0.021028874  0.020937117           11 
 1671000   0.98014138   -7.8228618    422.08132  0.021049338  0.020930547            4 
 1672000   0.96148665   -7.8054972    422.36569  0.021050922  0.020923998            7 
 1673000   0.99103805   -7.7929725    421.98068  0.021019161   0.02091748            3 
 1674000   0.98195052   -7.8347774    422.87863  0.021051306  0.020910944            2 
 1675000   0.99752953   -7.8463993    422.20058  0.021005004  0.020904314            4 
 1676000   0.95209182   -7.8781761     420.8339  0.020924518  0.020897606            3 
 1677000   0.98649965   -7.8362787    421.72295  0.020956219  0.020890942            2 
 1678000   0.95868087   -7.7936549    424.01379  0.021057498  0.020884441            4 
 1679000   0.98848299    -7.864013    422.95717  0.020992514  0.020877881            4 
 1680000   0.99455715    -7.809442    423.13235  0.020988708  0.020871278            6 
 1681000   0.98967746   -7.8267189     423.2078  0.020979962  0.020864726            7 
 1682000   0.98233323   -7.8431286    422.53531  0.020934171  0.020858218            2 
 1683000   0.97200221     -7.79404     423.3978  0.020964438  0.020851673            5 
 1684000   0.97657299   -7.8193401    424.20976  0.020992169    0.0208451            3 
 1685000   0.98216236   -7.8359298    423.73814  0.020956387  0.020838494            4 
 1686000   0.97823155    -7.820975    424.87002  0.020999902   0.02083193            4 
 1687000   0.95994504   -7.8272029    424.12553  0.020950678  0.020825312            2 
 1688000   0.98305667   -7.7959235    424.23596  0.020943719  0.020818787            5 
 1689000   0.96331114   -7.8248474    423.58034  0.020898971  0.020812195            4 
 1690000    0.9868483   -7.8203801    423.79306  0.020897094  0.020805573            2 
 1691000   0.98516593   -7.8704031    423.94755  0.020892349  0.020799026            7 
 1692000   0.97967195   -7.8254712    423.70323  0.020867969  0.020792429            7 
 1693000   0.96994796   -7.8352359    423.64949  0.020852997  0.020785843            2 
 1694000   0.97912794   -7.8186402    424.91749  0.020903064  0.020779217            4 
 1695000   0.98542625   -7.8194406     424.2422  0.020857532  0.020772623            9 
 1696000   0.97249244   -7.8442593    424.84528  0.020874866   0.02076599            2 
 1697000   0.98884627   -7.8377448    424.38272  0.020839851  0.020759329            2 
 1698000   0.98541226   -7.8246121    425.88407   0.02090126  0.020752761            5 
 1699000   0.96324276   -7.8222009    425.72412  0.020881112   0.02074614           13 
 1700000    1.0031942   -7.8304189    425.31314  0.020848683  0.020739608            3 
 1701000   0.96868422   -7.8275341    425.58999   0.02084999  0.020733051            4 
 1702000   0.96763985   -7.8003486    426.61019  0.020887691  0.020726466            4 
 1703000   0.96822817   -7.8309986    424.29601  0.020762185  0.020719843            5 
 1704000   0.96962035   -7.8526027    424.78682  0.020774003  0.020713102            5 
 1705000   0.99272146   -7.8591579    424.38347  0.020742105  0.020706453            2 
 1706000   0.97250074   -7.7912956    426.15472  0.020816467  0.020699788            7 
 1707000   0.97683991   -7.8211852    426.60076  0.020826047  0.020693209            5 
 1708000   0.95992651   -7.8576085    424.71748  0.020721969  0.020686602            3 
 1709000   0.97547214   -7.8482753    425.65644  0.020755629  0.020679894            5 
 1710000   0.97753873   -7.8045953    427.01865  0.020809876  0.020673158            5 
 1711000   0.98482935   -7.8557842    425.78098  0.020737433  0.020666418            2 
 1712000    0.9706126   -7.8581577       425.74  0.020723326  0.020659698            3 
 1713000   0.94610063   -7.8571206     425.5526  0.020702111   0.02065298            2 
 1714000   0.97626475   -7.8679333    425.65808  0.020695161  0.020646254            5 
 1715000   0.96016128   -7.8082794    427.27882  0.020761848  0.020639636            3 
 1716000   0.97062215   -7.8445139    427.01171  0.020736777  0.020633001            3 
 1717000   0.97561708   -7.7826967    428.43817  0.020793932  0.020626408            2 
 1718000   0.99518451   -7.8712558    427.73398  0.020747671  0.020619855            3 
 1719000   0.95363206   -7.8542504    426.68356  0.020684679  0.020613249            6 
 1720000   0.99555713   -7.8759155    426.71519  0.020674185  0.020606589            4 
 1721000   0.96276998   -7.8319503    426.50019  0.020651762  0.020599885            2 
 1722000   0.99332098   -7.8525765    426.69631   0.02064926  0.020593166            3 
 1723000   0.97388053   -7.8705615    426.26031  0.020616188  0.020586455            2 
 1724000   0.96702336   -7.8545595    426.79539  0.020630094   0.02057973            4 
 1725000   0.95809358   -7.8445568    427.31452  0.020643213  0.020572973            2 
 1726000   0.97771734   -7.8671729    426.90419  0.020611442  0.020566189            6 
 1727000   0.97308387   -7.8389581    427.53909  0.020630143  0.020559361            3 
 1728000   0.96028721   -7.8612511    427.15489  0.020599677  0.020552583            5 
 1729000   0.97541694   -7.8446883    427.34605  0.020596976  0.020545757            2 
 1730000   0.98649433   -7.8435367    427.37949  0.020586681  0.020539052            2 
 1731000   0.97798706   -7.8222024    428.72899  0.020639755  0.020532319            4 
 1732000   0.97538189   -7.8550703    427.68357  0.020577539  0.020525619            4 
 1733000   0.96011073   -7.8197109    428.38284   0.02059929  0.020518888            2 
 1734000   0.98282479    -7.865353    428.54287  0.020595102   0.02051219            2 
 1735000    0.9676227   -7.8143701    429.11826  0.020610867  0.020505503            4 
 1736000   0.98926584    -7.882478    427.56493   0.02052443  0.020498755            9 
 1737000    0.9502108   -7.8534331    428.05262  0.020536011  0.020492048            2 
 1738000   0.96936083   -7.8511965    428.90126  0.020564886   0.02048532            5 
 1739000   0.99779152   -7.7924426    430.21534  0.020616031  0.020478685            2 
 1740000    0.9765741   -7.8442243    429.80425  0.020584495   0.02047207            2 
 1741000   0.99169805   -7.8407828    429.25894   0.02054657  0.020465494            2 
 1742000   0.97883908   -7.8294256    430.22649  0.020581061  0.020458861            2 
 1743000   0.97922277   -7.7842338    432.47072   0.02067655  0.020452263            2 
 1744000     0.983811   -7.8262745    429.53947  0.020524631  0.020445688            3 
 1745000   0.95817009   -7.8377939    429.92623  0.020531339  0.020439096            4 
 1746000   0.97499637   -7.8762117    430.74573  0.020558693  0.020432519            7 
 1747000   0.94943171   -7.8560554    430.52304  0.020536302  0.020425929            5 
 1748000   0.97382001   -7.8344127    430.99112  0.020546869  0.020419368            3 
 1749000   0.95141936   -7.8663663    430.93942  0.020532658  0.020412813            4 
 1750000   0.97352709   -7.8400851    430.67241   0.02050821  0.020406207            5 
 1751000   0.97701061   -7.8321262    430.84286   0.02050461  0.020399577            4 
 1752000   0.96462357   -7.8177878     431.5131  0.020524786  0.020392991            5 
 1753000   0.96469784   -7.8634398    430.86414  0.020482227   0.02038638            3 
 1754000   0.98038344   -7.8585791    431.02914  0.020478389  0.020379777            2 
 1755000   0.97204186   -7.8828204    431.33392  0.020481193  0.020373154            3 
 1756000   0.93996353    -7.872289    430.50348  0.020430119  0.020366541            2 
 1757000   0.96436282   -7.8462282    431.65191  0.020472961  0.020359991            3 
 1758000   0.97333797   -7.8500507    431.63099  0.020460324  0.020353392            4 
 1759000   0.97620088   -7.8631933     431.5258  0.020443709  0.020346755            6 
 1760000   0.96838355   -7.8832536    430.75568  0.020395629  0.020340119            2 
 1761000   0.98600053   -7.8515983    431.89823  0.020438114  0.020333441            3 
 1762000   0.95136674   -7.8493562    432.69798  0.020464339  0.020326822            4 
 1763000   0.96841209    -7.861468    431.47235  0.020394798  0.020320214            2 
 1764000   0.95944932   -7.8800677    431.15902  0.020368434  0.020313551            5 
 1765000   0.96095858   -7.8617985    432.82976  0.020435777  0.020306857            7 
 1766000   0.97331906   -7.9028304    431.10733  0.020342928  0.020300244           11 
 1767000   0.97010594    -7.865077    433.92376  0.020464241  0.020293602            2 
 1768000   0.95371111   -7.9063716     431.3868  0.020333088   0.02028693           12 
 1769000    0.9665074    -7.852354    431.98136  0.020349602  0.020280218            2 
 1770000   0.96519093   -7.8679587    431.87522  0.020333108  0.020273496            3 
 1771000   0.95812609   -7.8464148    432.27681  0.020340523  0.020266835            2 
 1772000   0.97257306   -7.8830754    431.90382  0.020311504  0.020260205            3 
 1773000   0.95744833    -7.850259    433.19628  0.020360795  0.020253537            3 
 1774000   0.96232196   -7.8591226    433.21388  0.020350145  0.020246984            2 
 1775000   0.96072639   -7.8660702    433.90051  0.020370916  0.020240443            2 
 1776000   0.98432337   -7.8736846    433.51006  0.020341125  0.020233858            6 
 1777000     0.959235   -7.8332545    434.86249  0.020393101  0.020227249            9 
 1778000   0.97213847   -7.8328988    432.96651  0.020292769  0.020220592            3 
 1779000   0.97026493   -7.8480311    433.81531  0.020321122  0.020214005            2 
 1780000   0.96494522   -7.8913677    432.24912  0.020236382  0.020207304            3 
 1781000   0.97049013    -7.877517    433.71779  0.020293739  0.020200657            8 
 1782000   0.96480505   -7.8592388    434.23493  0.020306534  0.020193994            2 
 1783000   0.96835824   -7.9256953    432.71498  0.020224106  0.020187358            9 
 1784000   0.96548212   -7.8636069    434.03577  0.020274466  0.020180755            7 
 1785000   0.97324724   -7.8619045    435.32218  0.020323164  0.020174156            2 
 1786000   0.96724271   -7.8424811    433.78373  0.020240002  0.020167582            4 
 1787000   0.97652975   -7.8603673    435.28366  0.020298622  0.020160939            3 
 1788000   0.96649963   -7.8867649    434.48307  0.020249957  0.020154368            3 
 1789000    0.9815441   -7.8627043    435.20699  0.020272358  0.020147762            3 
 1790000   0.97772922   -7.8733027    434.73188  0.020238914  0.020141102            5 
 1791000    0.9707727   -7.8620397    435.06463  0.020243097  0.020134538            3 
 1792000    0.9584921   -7.8842099    434.25296  0.020194055  0.020127975            2 
 1793000   0.96047253   -7.8886569     435.3648  0.020234467  0.020121402            3 
 1794000   0.94267143   -7.8773254    436.49733  0.020275796   0.02011486            4 
 1795000   0.96340143   -7.8428773    436.81147  0.020279084  0.020108337            2 
 1796000   0.96524195   -7.8248857    437.95195   0.02032071  0.020101832            3 
 1797000   0.93533587   -7.8581833    434.72517  0.020159765  0.020095288            6 
 1798000   0.95945278   -7.9042502    435.72538   0.02019491  0.020088698            3 
 1799000   0.98949858   -7.8710172    436.79227  0.020233105  0.020082126            6 
 1800000   0.96692366   -7.9135353    436.53277   0.02020985  0.020075594           14 
 1801000   0.94172229   -7.8827102    436.28831  0.020187318  0.020069039            4 
 1802000   0.95952005   -7.8686172    438.32377  0.020270245  0.020062542            8 
 1803000    0.9503568   -7.9056266    437.52179  0.020221935  0.020056047            5 
 1804000   0.96600485   -7.8949835    438.26301  0.020244965  0.020049613            4 
 1805000   0.96053604   -7.8921265      436.799  0.020166159  0.020043158            2 
 1806000   0.95991072   -7.8999594    436.69562  0.020150222  0.020036619            3 
 1807000   0.96547326    -7.906356    436.92089   0.02014946  0.020030089            6 
 1808000   0.95334181   -7.8525568     439.1443  0.020240796  0.020023636            6 
 1809000   0.95375168   -7.9088738    436.46351  0.020106113  0.020017119            4 
 1810000   0.95271498   -7.8773138    437.30238  0.020133627  0.020010588            5 
 1811000   0.95986095   -7.9011792    436.32453  0.020077514  0.020004046            2 
 1812000   0.96055241   -7.8992247    436.28681  0.020064699  0.019997389            2 
 1813000   0.96276611   -7.8696469    437.47014  0.020108023  0.019990819            2 
 1814000   0.96406091   -7.8891524    438.34754  0.020137244  0.019984304            3 
 1815000   0.97862798   -7.8996749    438.00783  0.020110552  0.019977804            3 
 1816000   0.92764812   -7.8988369    438.55851  0.020124748  0.019971318            4 
 1817000    0.9542802   -7.8720022    438.23969   0.02009905  0.019964912            5 
 1818000   0.96121707   -7.8834304    438.79858  0.020113613  0.019958491            4 
 1819000   0.97714239   -7.9001749     439.1241  0.020117469  0.019952077            8 
 1820000   0.95058993   -7.8772999    439.82624  0.020138564  0.019945684            4 
 1821000   0.97460674   -7.8676184    439.09292  0.020093947  0.019939289            6 
 1822000   0.95973714   -7.8975572    439.80849  0.020115646  0.019932842            6 
 1823000   0.96916899   -7.8748235     440.4997  0.020136209  0.019926436            5 
 1824000   0.96436572   -7.8976514    438.88096  0.020051213  0.019919976            3 
 1825000      0.96798   -7.8865708    440.05024  0.020093618  0.019913501            4 
 1826000   0.95588877   -7.8790258    440.67497  0.020111125  0.019907131            2 
 1827000   0.94640769   -7.9105218    440.02711  0.020070567  0.019900809            8 
 1828000   0.96900029   -7.8826175    439.43423   0.02003256  0.019894429            2 
 1829000   0.96108654   -7.8762347    439.08794  0.020005829  0.019888044            4 
 1830000   0.95096649   -7.8900293    440.78012  0.020071955  0.019881604            5 
 1831000    0.9694716   -7.8919786    441.05022  0.020073285  0.019875174            2 
 1832000   0.97717807   -7.8824452    439.56261   0.01999466  0.019868718            3 
 1833000   0.94194723    -7.888963    440.83127  0.020041429  0.019862224            3 
 1834000   0.95134659     -7.90064    440.50235  0.020015556  0.019855741            5 
 1835000   0.93276893   -7.9029187    440.56924  0.020007686  0.019849299            4 
 1836000   0.98570392   -7.8815808    440.82247  0.020008282  0.019842873            3 
 1837000   0.95756447   -7.8963079    441.10834  0.020010358  0.019836521            2 
 1838000   0.94897238   -7.8780739    441.79939  0.020030803  0.019830183            3 
 1839000   0.93321253   -7.8963534    440.95817  0.019981791  0.019823842            4 
 1840000   0.92540481   -7.8967186     441.4156  0.019991649  0.019817508            4 
 1841000   0.96873936   -7.8613479    442.66797  0.020037478  0.019811238            2 
 1842000   0.96653557   -7.8590642    442.00661   0.01999668  0.019805005            2 
 1843000   0.94619841   -7.8834892    442.87121  0.020024924  0.019798686            3 
 1844000   0.92998095   -7.9265461    441.86719  0.019968691  0.019792291            3 
 1845000   0.96886163   -7.9331069    441.47043  0.019939947  0.019785851            2 
 1846000   0.95290947   -7.9222367    441.51454  0.019931136   0.01977938            4 
 1847000   0.95049271   -7.9054682    442.52146  0.019965776  0.019772891            4 
 1848000   0.95588119   -7.8968187    441.95868  0.019929594  0.019766483            6 
 1849000   0.97891076   -7.9362882    441.10304  0.019880252  0.019759947            2 
 1850000   0.97594864   -7.8734354    442.42062  0.019928857  0.019753489            6 
 1851000   0.95414269   -7.8780654    441.13742   0.01986032  0.019747011            4 
 1852000   0.96903806   -7.8924305    442.49485  0.019910676  0.019740555           10 
 1853000   0.96507425    -7.903304    441.20526  0.019841935  0.019734123           19 
 1854000    0.9541241   -7.8695139    441.48983  0.019844023  0.019727734            7 
 1855000   0.93769773   -7.8715457    443.35493  0.019917113  0.019721355            3 
 1856000   0.95550593   -7.8584176    443.94098  0.019932695  0.019714956            4 
 1857000   0.94124203   -7.8946906    443.29137   0.01989281  0.019708547            4 
 1858000   0.97152428   -7.8711543    443.26124  0.019880752  0.019702168            2 
 1859000   0.96917841   -7.9082187    442.68091  0.019844043  0.019695711            3 
 1860000   0.92911455   -7.8952884    443.45205  0.019867923  0.019689245            6 
 1861000   0.96726512   -7.8959686      443.029  0.019838304  0.019682789            5 
 1862000   0.96519061   -7.8785375    441.83593  0.019774254  0.019676278            3 
 1863000   0.96803567   -7.9059463    442.64892  0.019800006  0.019669742            3 
 1864000   0.93846489   -7.9164307    442.69585  0.019791481  0.019663203            3 
 1865000   0.95582151   -7.9420633    441.89027  0.019744874  0.019656655            3 
 1866000   0.95086775   -7.9097042    443.33711  0.019798906  0.019650124            4 
 1867000   0.94852507   -7.8703917    443.34906  0.019788835  0.019643631            9 
 1868000   0.94136582   -7.9109407    443.18602  0.019770968  0.019637169            2 
 1869000   0.92689772   -7.9248199    442.30972  0.019721318   0.01963069            2 
 1870000   0.96838472   -7.9170178    442.71008  0.019728613  0.019624242            3 
 1871000   0.96290792   -7.9363674    443.73431  0.019763688  0.019617712            3 
 1872000   0.95851527   -7.9492787    443.69597  0.019751423  0.019611216            4 
 1873000    0.9528812   -7.9207213    443.39856  0.019727645  0.019604707            9 
 1874000   0.95882535   -7.9259884    443.59048  0.019725653  0.019598198            3 
 1875000   0.94856598    -7.938226    443.18566   0.01969714   0.01959168            4 
 1876000   0.94519124   -7.9136983    445.24879  0.019778287  0.019585173            4 
 1877000   0.92667251   -7.9356853    443.55011  0.019692333  0.019578612            3 
 1878000   0.93163522   -7.9281197    443.29915  0.019670712  0.019572064            4 
 1879000   0.94157392   -7.9332083    443.37719  0.019663704  0.019565482            8 
 1880000   0.95840753   -7.9260468     443.6333  0.019664597   0.01955887            3 
 1881000   0.96446454   -7.9642841    442.68481  0.019612122  0.019552292            6 
 1882000    0.9525482   -7.9147047    444.25531  0.019671241  0.019545708            4 
 1883000   0.95615211   -7.9271392    444.00152  0.019649563   0.01953915            4 
 1884000   0.95144434    -7.914104    444.28754  0.019651784  0.019532549            4 
 1885000   0.94196161   -7.8963751    443.70041  0.019615403  0.019526002            4 
 1886000   0.94601865   -7.9083731    444.74527   0.01965117  0.019519474            1 
 1887000   0.95442626   -7.8856611     446.1554   0.01970303  0.019513007            8 
 1888000   0.95043825   -7.9616227    444.01948  0.019598318   0.01950646            4 
 1889000   0.95594885   -7.9290096    443.41942  0.019561471  0.019499858            3 
 1890000   0.95748122   -7.9078012    444.91079  0.019616878   0.01949318            5 
 1891000   0.93967706   -7.8753152    444.46621  0.019586912  0.019486599            3 
 1892000   0.94235402   -7.9269743    443.53076  0.019535358  0.019480028            2 
 1893000   0.91885137   -7.9282761    444.96884  0.019588345  0.019473417            7 
 1894000   0.97359147    -7.897757    445.13657  0.019585382  0.019466852            3 
 1895000   0.95588384   -7.9040791    445.30298  0.019582365  0.019460406            7 
 1896000   0.93892471    -7.897558     445.6947  0.019589254  0.019453963            4 
 1897000   0.95136875   -7.9272322    445.46565  0.019568865  0.019447496            2 
 1898000   0.93665909   -7.9448469    445.23041  0.019548227  0.019440991            3 
 1899000   0.93809081   -7.9368534    445.87927  0.019566406  0.019434501            2 
 1900000   0.94013429   -7.9327379    445.44032  0.019536856  0.019428036            7 
 1901000   0.98334839   -7.9215564    445.85342  0.019544688  0.019421556            3 
 1902000   0.93433299   -7.9056913    445.86438  0.019534892  0.019415053            6 
 1903000   0.91311252   -7.9410381    445.50287  0.019508796  0.019408511            5 
 1904000   0.94579407   -7.9128607    444.26059  0.019444179  0.019401916            2 
 1905000   0.93827765   -7.9267131    445.37651  0.019482787   0.01939529            4 
 1906000   0.95581981   -7.8975817     445.7662  0.019489603  0.019388732            4 
 1907000   0.96222069   -7.9270837    446.89932  0.019528899   0.01938214            2 
 1908000   0.95394448   -7.9139884    446.82401  0.019515374  0.019375562            6 
 1909000   0.97137947   -7.8727482    446.96233  0.019511189   0.01936905            2 
 1910000   0.95531287    -7.851065    447.24079  0.019513123  0.019362554            4 
 1911000   0.95778339   -7.8778863    447.40012   0.01950986  0.019356113            3 
 1912000    0.9368495   -7.8992815    447.81969  0.019517943  0.019349616            3 
 1913000   0.93893065   -7.8698795    448.54993  0.019539551   0.01934312            4 
 1914000   0.95865158   -7.9140596    447.02995  0.019463164  0.019336645           12 
 1915000    0.9360136   -7.9021134    447.37074   0.01946783  0.019330138            5 
 1916000   0.95319737   -7.9149814    447.10776  0.019446232  0.019323633            3 
 1917000   0.94433406   -7.9946951    445.94879  0.019385706  0.019317067            2 
 1918000   0.92961394   -7.8856942    449.27174  0.019519975  0.019310554            2 
 1919000   0.92720513   -7.9145819    447.42241  0.019429495  0.019304078            3 
 1920000   0.94030999   -7.9138067    447.50895  0.019423132  0.019297672            4 
 1921000    0.9643365   -7.9348733     446.6231  0.019374592  0.019291196            3 
 1922000   0.94177649   -7.9391445    448.04029  0.019425958  0.019284751            8 
 1923000   0.95211205   -7.9272631    448.36775  0.019430046  0.019278277            4 
 1924000   0.96317347   -7.9365101     449.0928  0.019451351  0.019271819            3 
 1925000   0.94893031   -7.9477675    448.60206  0.019420003  0.019265345            2 
 1926000   0.94628334   -7.9632392    446.70344  0.019327771  0.019258823            5 
 1927000   0.96729153   -7.9123114    448.26737  0.019385373  0.019252333            6 
 1928000   0.94388176   -7.9583372    448.89373  0.019402392  0.019245875            2 
 1929000    0.9431903   -7.9544554    447.79302  0.019344782  0.019239404            4 
 1930000   0.93556097   -7.9516459    447.11483  0.019305476  0.019232986            4 
 1931000   0.95339375   -7.9216134    448.69956  0.019363869   0.01922651            3 
 1932000   0.94175856   -7.9430796    447.98067  0.019322838  0.019219984            5 
 1933000   0.92563943   -7.9266668    449.90264  0.019395699  0.019213513            3 
 1934000   0.95304721   -7.9236191    449.43072  0.019365336  0.019207009            3 
 1935000   0.95420935   -7.9278573      449.517  0.019359044   0.01920054            3 
 1936000   0.94854618   -7.9245311    449.14631  0.019333089  0.019194015            6 
 1937000   0.93909513    -7.962925      448.789  0.019307735  0.019187413            2 
 1938000    0.9227114   -7.9486327     448.1792  0.019271552  0.019180794            8 
 1939000   0.95100748   -7.9386087    447.94409  0.019251508  0.019174147            9 
 1940000   0.95037987   -7.9393283     448.7051  0.019274274  0.019167493            5 
 1941000    0.9367373   -7.9673001    447.57529  0.019215838  0.019160854            5 
 1942000   0.95214655   -7.9253618    448.12038  0.019229333  0.019154238            5 
 1943000   0.93459537   -7.9153868    448.43943   0.01923312  0.019147695            3 
 1944000   0.94372555   -7.9601759     448.9771  0.019246275  0.019141188           12 
 1945000   0.93075778   -7.9237951    448.82421  0.019229829  0.019134683            9 
 1946000    0.9245701   -7.9299924    450.31015  0.019283579  0.019128164            4 
 1947000   0.92783008   -7.9399615    448.69671  0.019204619  0.019121572            6 
 1948000    0.9353502   -7.9863289    448.60314  0.019190757  0.019114937            7 
 1949000   0.96313343   -7.9917106    448.50231    0.0191766  0.019108276            3 
 1950000   0.94217241   -7.9539868    449.27111   0.01919962  0.019101639            4 
 1951000   0.93228014    -7.955195    447.91752  0.019131963  0.019095008            1 
 1952000   0.95056613   -7.9433713    449.27448  0.019180092  0.019088353            4 
 1953000   0.94688343   -7.9232599    449.70199  0.019188513  0.019081774            2 
 1954000    0.9320212   -7.9356546    450.60556  0.019217228   0.01907524            3 
 1955000   0.95379769    -7.940865    450.14509   0.01918777  0.019068696            1 
 1956000   0.93918117   -7.9716921    449.04219  0.019130973   0.01906213            4 
 1957000   0.93889781   -7.9844936     449.1942   0.01912767  0.019055529            2 
 1958000   0.93954057   -7.9623243    448.89676  0.019105242  0.019048906            3 
 1959000   0.94378807   -7.9383621    449.90696  0.019138462  0.019042335            2 
 1960000   0.93169235   -7.9471232    449.94267  0.019130215  0.019035816            8 
 1961000   0.93474764   -7.9513017    449.65404  0.019108195  0.019029279            4 
 1962000   0.91775844   -7.9272736    450.60606  0.019138892  0.019022654            1 
 1963000   0.94781089   -7.9281029    450.93604   0.01914315  0.019016103            4 
 1964000   0.94380111   -7.9047848    451.38861  0.019152606  0.019009607            3 
 1965000   0.92755673   -7.9228195    451.80333  0.019160447  0.019003083            3 
 1966000   0.95718727   -7.9430383    451.26536  0.019127898  0.018996595            6 
 1967000   0.94315372   -7.9679285    451.86448  0.019143555  0.018990069            5 
 1968000   0.94182892   -7.9507613     451.6747  0.019125792  0.018983532           10 
 1969000   0.94228352   -7.9425937    451.61093  0.019113379  0.018976989            6 
 1970000   0.95746643   -7.9312081    450.77701  0.019068401  0.018970437            3 
 1971000    0.9608002   -7.9620951    450.73172  0.019056812  0.018963859            9 
 1972000   0.93230106   -7.8968708    451.84217  0.019094074  0.018957352            3 
 1973000   0.95288346   -7.9300312    452.56049  0.019114736  0.018950898            3 
 1974000   0.93855122   -7.9598757    452.28442  0.019093399  0.018944416            5 
 1975000   0.94122424   -7.9343505    451.87253  0.019066351  0.018937925            7 
 1976000   0.93913936   -8.0002943    450.77889  0.019010581   0.01893141            5 
 1977000   0.94283328   -7.9788265    451.34317   0.01902475  0.018924834            7 
 1978000   0.94171678   -7.9606837    451.54049  0.019023445  0.018918299            6 
 1979000   0.95271465   -7.9623253    452.23668  0.019043148  0.018911825            3 
 1980000   0.92826808   -7.9736241    451.95913  0.019021849  0.018905292            3 
 1981000   0.91449675   -7.9618265    451.78507  0.019004925  0.018898739            2 
 1982000   0.92203231   -7.9855081    451.28222  0.018974194  0.018892169            4 
 1983000   0.93307912   -7.9932637    450.42641  0.018928661  0.018885511            4 
 1984000   0.94609023    -7.966876    451.67411  0.018971527  0.018878962            5 
 1985000   0.94720096   -7.9744825    452.39388  0.018992186  0.018872375            6 
 1986000   0.92834668   -7.9784522    452.83613   0.01900118   0.01886581            2 
 1987000   0.95626127   -7.9337198    452.58558   0.01898111  0.018859328            4 
 1988000   0.93521622   -7.9194962    453.14144  0.018994862  0.018852851            7 
 1989000   0.91288482   -7.9421105    452.14521  0.018943573  0.018846323            5 
 1990000   0.94345005   -7.9371468    453.11992  0.018974871  0.018839763            7 
 1991000   0.91856319   -7.9546118    452.56988  0.018942319   0.01883317            3 
 1992000   0.91473084   -7.9473387    453.47154   0.01897053  0.018826628            9 
 1993000   0.94297072   -7.9718302    452.47316  0.018919266  0.018820119            3 
 1994000   0.95173618   -7.9836929    451.84324  0.018883452  0.018813581            5 
 1995000   0.93027661   -7.9733444     453.4454  0.018940911  0.018807021            4 
 1996000   0.93190707   -7.9804276    452.42328  0.018888747  0.018800463            5 
 1997000   0.92694167   -7.9515566    453.84374  0.018938564  0.018793947            3 
 1998000   0.93038918   -7.9316255      453.836  0.018928762  0.018787389            6 
 1999000   0.92760343   -7.9715451    453.83239  0.018919142  0.018780803            5 
 2000000    0.9307711   -7.9860872     453.2024  0.018883434  0.018774143            7 
 2001000   0.93085035   -8.0074783     452.6406    0.0188506  0.018767544           20 
 2002000   0.95255681   -7.9779889    452.93646  0.018853499  0.018760895            4 
 2003000   0.93142617   -7.9712439     452.8872  0.018842037   0.01875426            3 
 2004000   0.93677789   -7.9892298    453.02906  0.018838534  0.018747599            3 
 2005000   0.93030665   -7.9616486    453.51156  0.018849192  0.018740928            5 
 2006000   0.94042578   -7.9442333    453.13565   0.01882418  0.018734316            3 
 2007000   0.92362525   -7.9576627     452.9509  0.018807129  0.018727745            9 
 2008000   0.93216736   -7.9880742    452.59149  0.018782847  0.018721179            1 
 2009000   0.92212135   -7.9561804     453.7044  0.018819662  0.018714579            7 
 2010000   0.93101558   -7.9544286    453.66766  0.018808775  0.018708041            2 
 2011000   0.94511944   -7.9562743    454.39355  0.018829502  0.018701524            5 
 2012000   0.92140419   -7.9796112    453.69151  0.018791067  0.018694984            4 
 2013000   0.93890074   -7.9845458    453.34371  0.018767334  0.018688371            4 
 2014000   0.90536342   -8.0021668    452.83349  0.018736904  0.018681706            3 
 2015000   0.91253819   -8.0066981    452.38632  0.018709112  0.018675049            4 
 2016000   0.92851927   -7.9511361    455.30641  0.018820536  0.018668452            3 
 2017000   0.91680692   -7.9863719    453.91119  0.018753561  0.018661879            5 
 2018000   0.93317981     -7.96611    454.71524  0.018777471  0.018655304           18 
 2019000   0.93016126   -7.9746521    454.88043  0.018774989  0.018648746           24 
 2020000   0.91442966   -7.9982641    454.17595  0.018736632  0.018642188           12 
 2021000   0.92496154   -8.0008464    454.02614  0.018721183  0.018635573           13 
 2022000   0.92594135   -7.9585021    454.77518  0.018742795  0.018628974            5 
 2023000   0.92441341   -8.0109337    453.18671  0.018668097  0.018622343           15 
 2024000   0.92517606   -7.9879374    453.55833  0.018674174  0.018615726            9 
 2025000    0.9528315   -7.9380885    456.65631  0.018792441  0.018609157            5 
 2026000   0.94708293   -7.9722634    456.74563  0.018786839  0.018602633            7 
 2027000   0.92330154   -7.9536906    456.39989  0.018763357  0.018596193            4 
 2028000   0.93459385   -7.9496631      456.451  0.018756205  0.018589747            5 
 2029000   0.93064108   -7.9665461    457.14624  0.018775515  0.018583346            2 
 2030000   0.92386769   -7.9897635    455.95431  0.018717336   0.01857693            6 
 2031000   0.92642453   -7.9657164    456.60294  0.018734734  0.018570487            5 
 2032000   0.93602964   -7.9710131    457.51076  0.018762744  0.018564079            4 
 2033000   0.91598668   -7.9923579    455.79734  0.018683282  0.018557701            3 
 2034000   0.92990995   -7.9867491    455.75033   0.01867217  0.018551229           10 
 2035000    0.9296351   -7.9751776    457.05346  0.018716358   0.01854475            4 
 2036000      0.91349   -8.0031243    456.19961  0.018672217  0.018538226            4 
 2037000    0.9366506    -8.001412    455.43371  0.018631718  0.018531697            4 
 2038000    0.9167573   -7.9892924    457.11074  0.018691149  0.018525258            2 
 2039000   0.92217173   -8.0242487    457.20864  0.018685983  0.018518836            8 
 2040000   0.93438312    -7.977913    455.92845  0.018624528  0.018512392            5 
 2041000   0.93510831   -7.9821321    457.11901  0.018664013  0.018505978            5 
 2042000   0.90982708   -7.9455245    457.67838  0.018677701   0.01849962            5 
 2043000   0.90047779    -7.996883    456.96845  0.018639601  0.018493257            7 
 2044000   0.93758127   -7.9908425    457.12167  0.018636728  0.018486866            4 
 2045000   0.92044474   -7.9909285    457.29852  0.018634822  0.018480507            4 
 2046000   0.93100973   -8.0103118    457.87583  0.018649227  0.018474109            8 
 2047000   0.91452445   -7.9664099    457.97196   0.01864403  0.018467697            2 
 2048000   0.93063029   -8.0150313    457.13462  0.018600855  0.018461313            7 
 2049000   0.89980424   -8.0139117    458.14524   0.01863288  0.018454937            7 
 2050000   0.93129998   -8.0192608    457.52454  0.018598559  0.018448542            9 
 2051000   0.92690054   -7.9540083    459.01075  0.018649876  0.018442177            2 
 2052000   0.93237879   -7.9940727    458.85251  0.018634361  0.018435832            2 
 2053000   0.91366379   -7.9882423    457.30248  0.018562367  0.018429535            3 
 2054000    0.9251913   -7.9867029    458.51391  0.018602479  0.018423223            4 
 2055000    0.9193229   -7.9769795    459.04183  0.018614835  0.018416835            5 
 2056000   0.93104547   -8.0183862    458.28396  0.018575063  0.018410443            6 
 2057000   0.91362693   -7.9882059    459.42134   0.01861211  0.018404128            6 
 2058000   0.92108524   -8.0068466    459.28252  0.018597446  0.018397803            6 
 2059000   0.91961812   -7.9780081    460.05659  0.018619742  0.018391492            7 
 2060000   0.93818493    -7.993898    459.30827  0.018580432  0.018385193            5 
 2061000   0.92386057   -7.9829462    460.57951  0.018622817  0.018378894            6 
 2062000   0.92946676   -7.9848555    459.40538  0.018566334  0.018372571            4 
 2063000   0.94119987   -7.9932135    459.39976  0.018557108  0.018366258            6 
 2064000    0.9170708   -7.9733917    460.23616  0.018581886  0.018359978            8 
 2065000   0.92074142   -8.0106479    459.02128  0.018523861  0.018353679            3 
 2066000   0.92290194   -8.0244865    460.01067  0.018554803  0.018347355            5 
 2067000   0.90343084   -7.9674858    460.83844  0.018579198  0.018341063            3 
 2068000   0.93363485   -7.9678802    460.15342  0.018542611  0.018334799            7 
 2069000   0.92282421    -7.982692    460.27539  0.018538561  0.018328541            4 
 2070000   0.92556539   -7.9854386    460.49547  0.018538465  0.018322224            4 
 2071000   0.92894799   -7.9805543    460.43272  0.018526989  0.018315907            7 
 2072000   0.92160008    -7.998439    460.99689  0.018540737  0.018309616            2 
 2073000   0.92661319   -8.0001123     460.0072  0.018492009  0.018303306            3 
 2074000   0.93173945   -7.9934054    460.72778  0.018512045  0.018297064            4 
 2075000   0.90683669   -8.0219489     459.5796  0.018457012  0.018290746            2 
 2076000   0.91640619   -7.9967164    460.52416  0.018486037  0.018284423            3 
 2077000   0.91092401   -7.9845174    460.70859  0.018484537  0.018278183            5 
 2078000   0.90468972   -8.0106881    461.40281  0.018503481  0.018271918            5 
 2079000   0.91673626   -8.0429661    459.86045  0.018432758  0.018265645            2 
 2080000   0.92619879    -8.027623    460.76822  0.018460265  0.018259348            6 
 2081000   0.90802779   -8.0173987    460.87143  0.018455528  0.018253088            3 
 2082000   0.92124748   -8.0302972    460.65384  0.018437954  0.018246839            5 
 2083000   0.91058309    -7.996205    462.61281  0.018507474  0.018240637            6 
 2084000   0.93373536   -8.0064614    461.80577  0.018466321  0.018234491            4 
 2085000   0.89052777   -7.9956354    461.46053  0.018443666  0.018228303            2 
 2086000   0.93574584    -7.983836    462.39125  0.018472006  0.018222143            3 
 2087000   0.89780203   -8.0383497    460.99224  0.018407293   0.01821596           12 
 2088000   0.92506941   -8.0071569    462.54923  0.018460617  0.018209778            4 
 2089000   0.91612194   -8.0184007    462.74836  0.018459724  0.018203612            8 
 2090000   0.93634338   -8.0162779    461.98473  0.018420444  0.018197469           10 
 2091000   0.92028637   -8.0329734    461.60928  0.018396671  0.018191267            7 
 2092000   0.91270266   -8.0193402    461.90478  0.018399649  0.018185014            4 
 2093000    0.9243351    -8.008991     462.3365  0.018408047  0.018178813            5 
 2094000   0.90736311   -7.9825381    462.55325  0.018407882  0.018172628            6 
 2095000   0.90362848    -8.002691    462.56757  0.018399665  0.018166433            5 
 2096000   0.91133147    -8.006679    462.14872  0.018374234   0.01816023            5 
 2097000   0.93194222   -8.0295544    463.23537  0.018408654  0.018154015            5 
 2098000   0.88974189   -8.0176297    462.34258  0.018364418  0.018147773            2 
 2099000   0.91732474   -8.0276933    463.52125  0.018402463  0.018141569            4 
 2100000   0.93399488   -7.9890805    463.17903   0.01838012  0.018135404            3 
 2101000   0.90181147   -8.0137047    462.86854  0.018359057  0.018129206            6 
 2102000   0.92818268   -8.0299693    462.71866  0.018344381  0.018122981            7 
 2103000   0.91119394   -7.9971253    463.17364  0.018353687  0.018116709            4 
 2104000    0.8991585    -8.017215    464.00704  0.018377972   0.01811044            3 
 2105000   0.92153004   -8.0447805    462.54376  0.018311313  0.018104192            4 
 2106000   0.89955558   -8.0319249    462.85767  0.018315039  0.018097983            5 
 2107000   0.90739407   -8.0165168    463.28616  0.018323294  0.018091812            5 
 2108000   0.90502728   -8.0257368    464.63061   0.01836775   0.01808562            4 
 2109000   0.92182548   -7.9891198    465.24432  0.018383291  0.018079515            9 
 2110000   0.91062119   -8.0126966     464.7527  0.018355162  0.018073421            6 
 2111000   0.89777259   -8.0145415    462.81134   0.01826983  0.018067303            7 
 2112000   0.92058827   -7.9682047    465.37056  0.018362159  0.018061192            5 
 2113000   0.90383814   -7.9986539    465.21954  0.018347513  0.018055149            3 
 2114000   0.91315503   -8.0605199    464.61462  0.018314988  0.018049084            4 
 2115000   0.91353247   -8.0301355    464.83556  0.018315034  0.018042937            5 
 2116000   0.93394084   -7.9977679    464.87525  0.018307942  0.018036816            8 
 2117000   0.90990175   -7.9699607    466.08914  0.018347077   0.01803077            4 
 2118000   0.92280926   -8.0295078     463.6597  0.018242827  0.018024692           12 
 2119000   0.89298818   -8.0509209    464.10604  0.018251771  0.018018532            8 
 2120000   0.91423754   -7.9727748    465.11949  0.018282999  0.018012404            2 
 2121000   0.92866001    -7.980607    465.69422   0.01829696  0.018006356            3 
 2122000    0.9159094   -8.0382734    463.63392  0.018207427  0.018000276            5 
 2123000   0.90770066   -7.9928956    465.71046   0.01828036  0.017994171            6 
 2124000   0.90531826   -8.0455539    464.23451  0.018213846  0.017988091            3 
 2125000   0.91155396   -8.0374437    464.81477   0.01822803  0.017981938            2 
 2126000   0.92471806   -8.0121601    464.02667  0.018188565  0.017975801            7 
 2127000   0.91056808   -8.0219012    464.88078  0.018213477  0.017969698            5 
 2128000   0.92160167   -7.9640914    465.47785  0.018228299  0.017963619            7 
 2129000   0.91924251   -8.0012534     466.8022  0.018271575  0.017957585            6 
 2130000   0.90502388   -7.9985271    466.18117    0.0182387  0.017951531            4 
 2131000    0.9036477     -7.97389     466.3908  0.018238339  0.017945447            5 
 2132000   0.91322796     -7.99636    466.18944  0.018221914  0.017939373            6 
 2133000   0.89548195   -8.0110346    464.13346  0.018133047  0.017933257            7 
 2134000   0.91159832   -8.0272129    465.12994  0.018163462   0.01792712            4 
 2135000   0.90172602   -8.0290976    465.25627  0.018159886   0.01792091            4 
 2136000   0.89472735   -8.0334264    465.61868  0.018165523  0.017914738            5 
 2137000   0.89280881   -8.0266057    464.53107  0.018114611  0.017908556            6 
 2138000   0.92023194   -8.0472711    464.89261   0.01812023  0.017902328            6 
 2139000   0.91229583   -8.0295073    465.01984  0.018116715  0.017896151            4 
 2140000   0.91179653   -8.0546886    464.38558   0.01808355  0.017889939            3 
 2141000   0.90331593   -8.0385873    465.71645  0.018126905  0.017883747            3 
 2142000   0.90556196   -8.0375531    465.12983  0.018095621  0.017877533            5 
 2143000   0.91112033   -8.0289157    465.34085  0.018095382  0.017871349            2 
 2144000    0.8942466   -8.0285808     465.6677  0.018099646  0.017865124           16 
 2145000    0.8980693   -8.0266409    465.78839  0.018095897  0.017858925            3 
 2146000   0.90963845   -8.0337499    465.93383  0.018093112  0.017852693            7 
 2147000   0.90509359   -8.0164653    465.99917  0.018087221  0.017846504            7 
 2148000   0.89878569   -8.0195227     464.9531  0.018038218  0.017840312            4 
 2149000   0.89207641   -8.0289043    465.75226  0.018060813  0.017834103            4 
 2150000   0.91389832   -8.0627562    464.54372   0.01800557  0.017827835            2 
 2151000   0.89966212   -8.0122429     466.3416  0.018066853  0.017821629            2 
 2152000   0.91805295   -8.0206697    466.44665  0.018062525   0.01781545            7 
 2153000   0.88519399   -8.0061357    467.04685  0.018077367  0.017809314            5 
 2154000    0.9206681   -8.0308847    466.95011  0.018065232  0.017803169            6 
 2155000   0.89399939   -8.0272888    466.41946  0.018036329  0.017797067            3 
 2156000     0.906476   -8.0590839    464.79433  0.017965149  0.017790886            6 
 2157000   0.91326897   -8.0347126    466.24816  0.018012987  0.017784698            2 
 2158000   0.89985176    -8.063496    465.18181  0.017963462  0.017778502            3 
 2159000   0.90567493   -8.0713119    466.07069  0.017989451  0.017772286           11 
 2160000   0.90185033   -8.0935131    465.68486  0.017966237  0.017766034            6 
 2161000   0.89261227   -8.0173173    466.50656   0.01798961  0.017759836            5 
 2162000   0.92214545   -8.0246332    466.65971  0.017987192  0.017753724            9 
 2163000   0.91835326   -8.0268724    467.49194  0.018010939  0.017747604            4 
 2164000   0.89849963   -8.0359372    466.44895  0.017962452  0.017741447            3 
 2165000   0.91400819   -8.0143442    467.82639  0.018007174  0.017735275            6 
 2166000   0.90109404   -7.9977239    466.80946  0.017959736  0.017729125            4 
 2167000   0.90858364   -8.0542805    467.10244  0.017962715  0.017722953            2 
 2168000   0.89593106   -8.0585026     467.2267  0.017959206  0.017716778            2 
 2169000   0.90430653   -8.0594531    466.11797  0.017908328  0.017710618            7 
 2170000   0.90474415   -8.0910894    466.20984  0.017903604  0.017704436            6 
 2171000   0.89211905   -8.0526418    466.47968  0.017905715  0.017698193            7 
 2172000   0.90497287   -8.0475888    467.26883  0.017927748  0.017691953            7 
 2173000   0.88250812   -8.0365723    467.01275  0.017909678  0.017685745            2 
 2174000   0.89297552   -8.0487215    467.16723  0.017907361  0.017679544            2 
 2175000   0.91796754   -8.0699793    466.00047  0.017854424  0.017673335           11 
 2176000   0.90500171   -8.0215289    467.32331  0.017896879  0.017667117            2 
 2177000   0.92288864   -8.0547189    467.73779  0.017904524  0.017660915            7 
 2178000   0.91832193   -8.0661584    465.41552   0.01780745  0.017654686            5 
 2179000   0.89851977   -8.0241713    467.44558  0.017876915   0.01764847            4 
 2180000   0.90320985   -8.0618529    465.74225  0.017803603  0.017642276            3 
 2181000   0.94139405   -8.0368426    468.64728  0.017906438  0.017636096            6 
 2182000   0.90177417   -8.0483099      466.994   0.01783509  0.017629919            2 
 2183000   0.89803686   -8.0631008    466.90709  0.017823602  0.017623774            3 
 2184000   0.89537445   -8.0797861    468.09189  0.017860649   0.01761762            4 
 2185000   0.90929937   -8.0831249    468.36693  0.017862965   0.01761146            3 
 2186000   0.89820164   -8.0664219     467.9422  0.017838602  0.017605293            3 
 2187000   0.89925375   -8.0549085    467.63426  0.017818711  0.017599078           10 
 2188000   0.88627801   -8.0658217    467.37047  0.017800521  0.017592898            3 
 2189000    0.8978953   -8.0492433    467.69388  0.017804701  0.017586709            4 
 2190000   0.89248934   -8.0543818    468.58476   0.01783047  0.017580541            3 
 2191000   0.90011564   -8.0426278    468.71393  0.017827245  0.017574398            9 
 2192000   0.88036448   -8.0219183    467.64505  0.017778477  0.017568291            3 
 2193000   0.88382816   -8.0553138    469.05844  0.017824078  0.017562156           14 
 2194000    0.9043932   -8.0651252    467.31191  0.017749617  0.017556002            4 
 2195000   0.89878003   -8.0517317    468.98043  0.017804876   0.01754986            3 
 2196000   0.90664408   -8.0464474    468.84332  0.017791565  0.017543733           10 
 2197000   0.88643535   -8.0563283     468.2336   0.01776034  0.017537627           13 
 2198000   0.90640578   -8.0739835    468.05416  0.017745456  0.017531503            4 
 2199000   0.89887336   -8.0548335    469.30323  0.017784721  0.017525411            3 
 2200000   0.89570323    -8.068367    469.15248  0.017770927  0.017519307            9 
 2201000   0.91269735   -8.0309519    468.88782  0.017752833  0.017513171            6 
 2202000   0.90369598    -8.059191    470.00827  0.017787173  0.017507051            3 
 2203000   0.90685814   -8.0392519    469.26105  0.017750834  0.017500942            2 
 2204000   0.89656745   -8.0731933    469.11304  0.017737184  0.017494841            6 
 2205000   0.89604212   -8.0760526    468.04923  0.017688935  0.017488667            3 
 2206000   0.91555689   -8.0438248    469.46179  0.017734277   0.01748251            5 
 2207000   0.91022983   -8.0563302    468.25014  0.017680491  0.017476365            2 
 2208000   0.90691593   -8.0820985    468.83102  0.017694407  0.017470189            2 
 2209000   0.89877182   -8.0744971    468.26502  0.017665045  0.017464016           14 
 2210000   0.91872863   -8.0586067    468.94244  0.017682596  0.017457842           11 
 2211000   0.89769095   -8.0524824    469.19916  0.017684274  0.017451706            7 
 2212000   0.92043349   -8.0833519    469.58617  0.017690859  0.017445569            8 
 2213000   0.89333556   -8.0663736    469.29382  0.017671857  0.017439389            5 
 2214000   0.91089593   -8.0897196    469.00989  0.017653188  0.017433203           12 
 2215000   0.88537686    -8.030437    470.07563  0.017685313  0.017427059            3 
 2216000   0.89364201    -8.076715    469.24536   0.01764611  0.017420881            4 
 2217000   0.90326766   -8.0471113    470.11767   0.01767094  0.017414696            3 
 2218000   0.89015214   -8.0726412     468.4839  0.017601589  0.017408532            5 
 2219000    0.8947713   -8.0490427     470.5718  0.017672067  0.017402345            7 
 2220000   0.88169218   -8.0590423    469.38474  0.017619547  0.017396195            7 
 2221000   0.90233024   -8.0677719    468.86954  0.017592284  0.017390019            5 
 2222000   0.93545084   -8.0748399    469.97325  0.017625759  0.017383865            6 
 2223000   0.89085025   -8.0724223    470.43039  0.017634967  0.017377722           16 
 2224000   0.90230893   -8.0634458     470.4688  0.017628477  0.017371532            4 
 2225000   0.87939376   -8.0762453    470.37255  0.017616949   0.01736539            2 
 2226000   0.89596355   -8.0593311    471.00644  0.017632766  0.017359275            2 
 2227000   0.88944885   -8.0736376    470.30057  0.017598435  0.017353208            2 
 2228000     0.890954   -8.0276655    471.80325   0.01764674   0.01734714            3 
 2229000   0.90638034   -8.0332875    470.31233  0.017583084  0.017341058            6 
 2230000   0.89052243   -8.0609561     470.0989  0.017567224  0.017334959            2 
 2231000   0.91341036   -8.0480682    469.76188  0.017546761  0.017328894            3 
 2232000   0.89774817   -8.0820181    469.20683  0.017518176  0.017322794            4 
 2233000   0.89495687   -8.0766604    470.87858  0.017572719  0.017316692            5 
 2234000   0.89471682   -8.0706423    470.00456   0.01753225  0.017310569            2 
 2235000   0.89436984   -8.0593783    471.46412  0.017578826  0.017304431            7 
 2236000   0.88193947   -8.0328541    470.78443  0.017545633  0.017298283            7 
 2237000     0.898155   -8.0564508    470.63541  0.017532238  0.017292121            5 
 2238000   0.89545871   -8.1033309    470.50515  0.017519554  0.017285905           10 
 2239000   0.90387218   -8.0941612    469.19565  0.017462991  0.017279712            3 
 2240000   0.88995161   -8.0900225    469.43307  0.017464028  0.017273531            2 
 2241000   0.89346976   -8.0716832    472.04472  0.017553351  0.017267376            6 
 2242000   0.87604262   -8.0888094    470.15966  0.017475456  0.017261255            4 
 2243000   0.89734401   -8.0886658    470.06553  0.017464167  0.017255098           12 
 2244000    0.9071856   -8.0893621    470.05406  0.017455959  0.017248919            3 
 2245000   0.87889014    -8.074957    471.09976  0.017486999  0.017242783            5 
 2246000   0.90852818   -8.1129694    469.45961  0.017418359  0.017236625            9 
 2247000   0.90306448    -8.115461    470.57566  0.017451998  0.017230423            6 
 2248000   0.87728129   -8.1213245    469.80771  0.017415766  0.017224234           13 
 2249000   0.92107594   -8.1138672    470.82803  0.017445829  0.017218083            9 
 2250000   0.88685331   -8.1015265    471.26422   0.01745423  0.017211983            6 
 2251000   0.86540251   -8.0701583    472.05164  0.017475627  0.017205906           11 
 2252000   0.88959272    -8.059005    472.02798  0.017466991  0.017199819           21 
 2253000   0.90929216   -8.0565744    470.63965  0.017407888  0.017193737            9 
 2254000   0.89112591   -8.0947312    471.99438  0.017450251   0.01718761           12 
 2255000   0.88175555    -8.080796    472.57811  0.017464084  0.017181496            5 
 2256000   0.89210682   -8.0694647    471.77945  0.017426841  0.017175406            2 
 2257000   0.89750163   -8.0821731    470.52508  0.017372806  0.017169294            5 
 2258000   0.90139313   -8.0876046    472.66956  0.017444256  0.017163196            7 
 2259000   0.88685182   -8.0799458    472.72575  0.017438607  0.017157116            5 
 2260000   0.89205815   -8.1024077    471.24409  0.017376257  0.017151062            3 
 2261000   0.89793636   -8.0845996    471.29106  0.017370303   0.01714504            5 
 2262000   0.90642127   -8.0783127    472.03048  0.017389865  0.017138955            2 
 2263000   0.89562585   -8.0760142    471.65519   0.01736836  0.017132907            4 
 2264000   0.89578505   -8.0632553     473.8682  0.017442145  0.017126866            5 
 2265000   0.88657717   -8.0465649    473.19799  0.017409786  0.017120829            6 
 2266000   0.89930978   -8.0465406    473.67214   0.01741954  0.017114829            4 
 2267000   0.87910835   -8.0880048    472.60931  0.017372787  0.017108825            8 
 2268000   0.90555033    -8.081891    472.80757  0.017372412  0.017102828            3 
 2269000   0.87661865   -8.0218036    473.72473   0.01739844   0.01709684            3 
 2270000   0.89188198   -8.0504986    474.30763  0.017412174  0.017090813            1 
 2271000   0.89200142   -8.0340766     474.0905   0.01739654  0.017084828            3 
 2272000   0.89156316    -8.063992    473.69093  0.017374227  0.017078856           11 
 2273000   0.87705716   -8.0959295    473.26075  0.017350812  0.017072837            3 
 2274000   0.87380591   -8.1142969    473.04717  0.017335355  0.017066809            2 
 2275000   0.88205506   -8.1056564    472.78618  0.017318175  0.017060746            9 
 2276000   0.87862345   -8.0634119    474.11685  0.017359287  0.017054728            5 
 2277000   0.86821611   -8.0788864    473.51115  0.017329496  0.017048696            7 
 2278000   0.88597112   -8.0520117    474.30382  0.017350886  0.017042674            8 
 2279000   0.88504887   -8.1074813     473.3786  0.017309441  0.017036663            6 
 2280000   0.90625707   -8.1049542    472.43478  0.017267353  0.017030637            3 
 2281000   0.88407221   -8.0840962    473.52306  0.017299542  0.017024638            3 
 2282000   0.90216384   -8.0657593    473.66474  0.017297135  0.017018626            6 
 2283000   0.90057572   -8.0863306    474.21715  0.017309722  0.017012671            5 
 2284000   0.87507707    -8.079759     473.6672  0.017282078  0.017006654            4 
 2285000   0.87809559   -8.1036284    473.60853  0.017272375  0.017000669           15 
 2286000   0.87847358   -8.1044466    473.39599  0.017257072  0.016994638            9 
 2287000   0.90068436   -8.1107241    473.80843  0.017264554  0.016988628           10 
 2288000   0.89148643   -8.1189661    473.48275  0.017245147  0.016982638            4 
 2289000    0.8837091   -8.0567862    474.72178  0.017282721  0.016976649           10 
 2290000   0.88028712   -8.1132753     473.6486  0.017236121  0.016970654           17 
 2291000    0.8821943    -8.102222    474.08803  0.017244581  0.016964659            9 
 2292000   0.87845539    -8.086409    473.84627  0.017228268  0.016958661           17 
 2293000   0.89308167   -8.0684043    475.12293  0.017267151  0.016952688            7 
 2294000   0.89077133   -8.1056202    474.91868  0.017252204  0.016946749            5 
 2295000   0.87501401   -8.0752128    474.76333  0.017239046    0.0169408            8 
 2296000   0.86280106   -8.0582636    475.74329  0.017267105  0.016934853            8 
 2297000   0.88132088   -8.0929457    474.62576  0.017219045   0.01692894            4 
 2298000   0.87698857   -8.0682186    476.92094  0.017294783  0.016923002            5 
 2299000   0.88593295   -8.0755715    474.91482  0.017214543  0.016917083            2 
 2300000   0.88486592   -8.0773397    476.61579  0.017268688   0.01691113            4 
 2301000   0.88748003   -8.0587749    475.20127  0.017209955  0.016905192            6 
 2302000   0.88264861   -8.0812651    475.20728  0.017202696  0.016899231            9 
 2303000   0.89950682   -8.1126307    475.35082   0.01720042  0.016893292            8 
 2304000   0.88885064   -8.1207076    475.47711  0.017197523   0.01688733            6 
 2305000   0.90427885   -8.0988003    475.83401  0.017202965  0.016881386            6 
 2306000   0.90148168   -8.1618411    474.29214  0.017139785  0.016875423           14 
 2307000    0.8959655   -8.1229927    475.09437  0.017161334  0.016869441           13 
 2308000   0.89091681   -8.1091731    475.35507  0.017163311  0.016863463           22 
 2309000   0.88442339     -8.13789    474.71538  0.017132791  0.016857456            9 
 2310000   0.86551949   -8.1662377    475.05598  0.017137662  0.016851436            5 
 2311000   0.87280545   -8.1286713    475.15067   0.01713366  0.016845406            4 
 2312000   0.88573492   -8.1187158    474.67191  0.017108993  0.016839385            5 
 2313000   0.89055963    -8.154835    473.45574   0.01705778  0.016833377           14 
 2314000   0.87039572   -8.1149156    475.62931  0.017128685  0.016827358           18 
 2315000   0.88725363   -8.1379278    475.14338  0.017103793  0.016821402           13 
 2316000   0.87322847   -8.1357762    474.50418  0.017073409  0.016815415            4 
 2317000   0.89457511   -8.1518716    474.56766  0.017068323  0.016809418            5 
 2318000   0.87775825   -8.1240726    476.32394  0.017124099  0.016803394            3 
 2319000   0.87736968   -8.1138771    476.12461  0.017109552  0.016797407            4 
 2320000   0.87082927   -8.1452188    475.53993  0.017081175  0.016791453            7 
 2321000   0.88148545   -8.1525535    475.87062  0.017085689  0.016785488            5 
 2322000   0.88303389   -8.1320813    475.23357  0.017055468   0.01677952            6 
 2323000   0.89576427   -8.1283016    476.52009  0.017094278  0.016773594            8 
 2324000    0.8640039   -8.1036637    477.32421  0.017115756  0.016767635            7 
 2325000   0.85654392    -8.117476    475.39479   0.01703924  0.016761699            6 
 2326000   0.88436657   -8.0961648    477.89947  0.017121649  0.016755771            7 
 2327000   0.89042363   -8.1007569    476.42996  0.017061666   0.01674987            4 
 2328000   0.87920436   -8.1379675    477.46011  0.017091212   0.01674396            6 
 2329000   0.89129261   -8.0957174     477.7525  0.017094336  0.016738058            5 
 2330000   0.86679071   -8.1153335    476.59133  0.017045469   0.01673213            5 
 2331000   0.86556528   -8.0790643    477.38268  0.017066448  0.016726266            7 
 2332000   0.88024783   -8.1371267    475.81921  0.017003259  0.016720383            4 
 2333000   0.88332311   -8.1015584    477.64263  0.017061103  0.016714455            4 
 2334000   0.86528072   -8.1434546    476.52743  0.017013976   0.01670852            5 
 2335000    0.8867486   -8.1370211    476.27044  0.016997518  0.016702582            6 
 2336000   0.88123881   -8.0848227    477.57365  0.017036731  0.016696644            6 
 2337000   0.87143425   -8.1196156    476.63472  0.016995961    0.0166907            2 
 2338000   0.87917761   -8.1517982    475.96836   0.01696494  0.016684736            8 
 2339000    0.8559677   -8.1162624    476.93073  0.016991974  0.016678782            4 
 2340000   0.85509616   -8.1481455    475.82728  0.016945416  0.016672837            5 
 2341000   0.89464525    -8.103962    477.65325  0.017003177  0.016666885            2 
 2342000   0.85874115   -8.0952248    476.89626  0.016968982  0.016660939            2 
 2343000   0.87351912   -8.1190904     477.2727  0.016975128  0.016654981            6 
 2344000   0.86602564   -8.1425372    476.47467  0.016939515  0.016648997            9 
 2345000    0.8842511   -8.1235413    477.82121  0.016980143  0.016643056            8 
 2346000    0.8758999   -8.1521346    477.02968  0.016944788  0.016637111            4 
 2347000   0.88716378   -8.1858952    475.39125  0.016879394  0.016631122            2 
 2348000   0.88868113    -8.105298    476.99013  0.016928951  0.016625151            3 
 2349000   0.86385767   -8.1503757    476.63756  0.016909237  0.016619172            3 
 2350000   0.87521887   -8.1232938    475.97533  0.016878558  0.016613161            5 
 2351000   0.88346175   -8.1333201    475.55286  0.016856404  0.016607148            6 
 2352000   0.87733182   -8.1752379     474.7986  0.016822513  0.016601105            4 
 2353000   0.87532074   -8.1225701    476.75775  0.016884748  0.016595073            2 
 2354000   0.86592614   -8.1364996    475.25444  0.016824357  0.016589047            5 
 2355000   0.87407945   -8.1258424    476.61594  0.016865391  0.016583048            4 
 2356000   0.86960609   -8.1418299    475.59285  0.016822045  0.016577036            9 
 2357000   0.88096549   -8.1639287    475.29717  0.016804454   0.01657101            5 
 2358000   0.88049524   -8.1512705    476.49938  0.016839814  0.016564967            5 
 2359000   0.89078532    -8.134059    475.64887  0.016802631    0.0165589            7 
 2360000   0.88926608   -8.1626452    476.00169  0.016807969  0.016552848           12 
 2361000   0.88998258   -8.1081988    476.79487  0.016828846  0.016546796            8 
 2362000   0.88699424   -8.1362427     474.8854  0.016754354  0.016540761            8 
 2363000    0.8666437   -8.1488687    476.15564  0.016792059  0.016534727           11 
 2364000   0.87405503   -8.1271152    478.29161  0.016860251  0.016528698            8 
 2365000   0.87505999   -8.1251427    477.49652  0.016825106  0.016522715            5 
 2366000   0.87947635   -8.1591568    476.60598  0.016786629   0.01651669            2 
 2367000   0.87761284   -8.1105621    477.30415  0.016804117  0.016510626           10 
 2368000   0.84889493   -8.1649005    475.48185  0.016732892  0.016504587            2 
 2369000   0.85910642   -8.1705709    475.56077  0.016728604  0.016498515            6 
 2370000   0.86530253   -8.1472274     476.5703  0.016757043  0.016492478            7 
 2371000   0.88046021   -8.1282866    476.44498  0.016745571  0.016486439            6 
 2372000   0.87175783   -8.1634144    476.22881  0.016730917  0.016480385            3 
 2373000   0.88142343   -8.1740401    475.66199  0.016703961  0.016474333            6 
 2374000   0.86053957   -8.1444741    476.57631   0.01672902  0.016468275            3 
 2375000   0.86146977   -8.1113221    476.08543  0.016704752   0.01646223            5 
 2376000   0.87796525   -8.1491652    476.73318   0.01672044  0.016456243            4 
 2377000   0.86844976   -8.1604788    476.14478  0.016692777  0.016450209            9 
 2378000   0.87755567   -8.1502588    477.29696  0.016726134  0.016444197            5 
 2379000   0.87354395   -8.1593437    476.41672   0.01668827  0.016438181            4 
 2380000   0.87450028   -8.1617015    475.77468  0.016658777  0.016432158            6 
 2381000   0.86543196   -8.1334979    476.04724   0.01666132  0.016426165            7 
 2382000   0.87742122   -8.1247593    476.61917  0.016674334  0.016420165           20 
 2383000   0.87846155    -8.152201    476.23046  0.016653744  0.016414169            6 
 2384000   0.88028895   -8.1116976    478.50025  0.016726099  0.016408168            6 
 2385000   0.88227282   -8.1221693    478.00386  0.016701742  0.016402176            8 
 2386000    0.8667396   -8.1207138    477.88025  0.016690425  0.016396173            7 
 2387000   0.87469611    -8.121675    478.59408  0.016708354   0.01639019            2 
 2388000   0.88541668   -8.1278061    477.62532   0.01666755  0.016384227            5 
 2389000   0.88349108   -8.1398112    476.83649  0.016633057  0.016378274            4 
 2390000   0.86554119   -8.1315892    478.08008  0.016669459  0.016372284            4 
 2391000   0.88313125   -8.1575367    478.14901  0.016664889  0.016366308            6 
 2392000    0.8737418   -8.1351623    477.51316  0.016635771  0.016360356            5 
 2393000    0.8796148   -8.1683332    477.75379  0.016637198  0.016354373            4 
 2394000   0.88503631   -8.1577911    478.05211  0.016640633  0.016348438            8 
 2395000     0.856965   -8.1292555    477.79529  0.016624749  0.016342518            4 
 2396000   0.86899956   -8.1310718    478.13261  0.016629543   0.01633659            2 
 2397000    0.8667048    -8.172654    476.71611  0.016573359  0.016330628            6 
 2398000   0.86752828   -8.1761455     478.6986  0.016635342  0.016324656            5 
 2399000   0.85918445   -8.1639886    478.39126  0.016617732  0.016318668           10 
 2400000    0.8646696   -8.1782967    476.72433  0.016552928  0.016312695            7 
 2401000    0.8577196      -8.1401    479.05179  0.016626815  0.016306698            5 
 2402000   0.87962104   -8.1621139    477.99822  0.016583341  0.016300707            5 
 2403000   0.85826882   -8.1760668    478.60142  0.016597358  0.016294745            7 
 2404000   0.88133569   -8.1448269    479.01295   0.01660472  0.016288779            5 
 2405000   0.86132114    -8.195823    477.58153  0.016548216  0.016282794            5 
 2406000    0.9022875   -8.1786204    478.46714  0.016572012  0.016276783           10 
 2407000   0.86036707     -8.10976    479.57599  0.016603517  0.016270803            3 
 2408000   0.87241887   -8.1235758    480.15308  0.016616593  0.016264856            4 
 2409000   0.84793273    -8.160086    478.42143  0.016549793  0.016258908           10 
 2410000   0.86602228   -8.1430566    477.64918  0.016516223   0.01625297           16 
 2411000    0.8657662    -8.178711    477.78668  0.016514126  0.016247016           11 
 2412000   0.87032271   -8.1783197    478.09578  0.016517958  0.016241052           15 
 2413000   0.89023552   -8.1463712    478.89498  0.016538713  0.016235068           19 
 2414000   0.86766714   -8.1547321    478.92549  0.016532915  0.016229098            6 
 2415000   0.87100329   -8.1718486    478.88803  0.016524777  0.016223094            5 
 2416000   0.87640036   -8.1732271    478.02407  0.016488137  0.016217088            8 
 2417000   0.87259949   -8.2114799    478.08342  0.016483362  0.016211046            9 
 2418000   0.87478664   -8.1754604     477.6854  0.016462827  0.016204976           12 
 2419000   0.84962633   -8.2093719    477.55191  0.016451423  0.016198932            7 
 2420000     0.870556   -8.2073827    477.36249  0.016438102  0.016192888           15 
 2421000   0.86821169   -8.1956415    477.49831  0.016435988  0.016186828           11 
 2422000   0.86394816   -8.1677932      478.146  0.016451487  0.016180787            4 
 2423000   0.87889959   -8.1444196    478.37471  0.016452563  0.016174793            6 
 2424000   0.85356263   -8.1881779    478.78753  0.016459967  0.016168786            2 
 2425000   0.86243611   -8.2076415    478.62338  0.016447539  0.016162758            5 
 2426000   0.86340153   -8.1734317    478.72686  0.016444314  0.016156767            6 
 2427000   0.85834762   -8.1606225    479.14268  0.016451816   0.01615078            5 
 2428000   0.86119132   -8.1744566    478.53535  0.016424195  0.016144741            4 
 2429000   0.85375203   -8.1538789    478.66188  0.016421774  0.016138729            4 
 2430000   0.86218247   -8.1962731    479.02979  0.016427633  0.016132717            6 
 2431000   0.87086503   -8.1852587    477.72321  0.016376087   0.01612672            4 
 2432000   0.87557049    -8.181163    477.62735  0.016366069   0.01612073            7 
 2433000   0.84784428   -8.1905921    477.40352  0.016351676  0.016114722            3 
 2434000   0.86787589   -8.1814303    477.27439  0.016340536  0.016108702            4 
 2435000   0.85342491    -8.186523    478.81624  0.016386593  0.016102689            5 
 2436000   0.86323109   -8.1517101    478.69999  0.016375889  0.016096664            5 
 2437000   0.84750334   -8.2368586    477.32856  0.016322273  0.016090644            7 
 2438000   0.84944205     -8.16751    479.48454  0.016389272  0.016084597           13 
 2439000   0.83472364   -8.1962373     478.4625  0.016347632  0.016078621            9 
 2440000   0.87569807   -8.2071332    478.52319  0.016343005  0.016072607            5 
 2441000   0.86181938    -8.195737    478.32907  0.016329683  0.016066593           20 
 2442000    0.8711781    -8.171124    479.08528  0.016348802   0.01606059           17 
 2443000    0.8512797   -8.1576105    480.24106  0.016381534    0.0160546            3 
 2444000   0.85572385   -8.1908338    478.78525  0.016325193  0.016048679            4 
 2445000   0.89919424   -8.1289579    480.48242  0.016376361  0.016042736            5 
 2446000   0.85658003   -8.1782579    479.45757   0.01633475  0.016036799            7 
 2447000    0.8569626   -8.1950596    478.36924  0.016291011  0.016030862            6 
 2448000   0.85271181   -8.1980041    479.09332  0.016309005  0.016024906            6 
 2449000   0.85158531   -8.1929997    478.54438  0.016283666  0.016018919            9 
 2450000   0.86438451   -8.2040283    478.88827  0.016288717  0.016012902           10 
 2451000   0.84113296   -8.1907462    478.84263  0.016280519  0.016006882            9 
 2452000   0.87280244   -8.2015098    477.83239  0.016239545  0.016000884            2 
 2453000   0.86327444   -8.1832618    479.15977  0.016278019  0.015994903            7 
 2454000   0.87236698   -8.1907353    479.81072  0.016293491  0.015988921            3 
 2455000   0.86305037   -8.1810546    479.82017  0.016287175  0.015982961            7 
 2456000   0.84199299   -8.2057381    479.43449  0.016267457  0.015976975            5 
 2457000   0.85687896   -8.1886897    478.33795  0.016223645  0.015970993           20 
 2458000   0.86479962   -8.1849502    479.36524  0.016251873  0.015965018           10 
 2459000   0.83785391   -8.1998425    480.20721  0.016273797  0.015959043            6 
 2460000    0.8472656   -8.2057353    478.88472  0.016222382  0.015953051           11 
 2461000   0.85158952   -8.1780797    479.11837  0.016223702  0.015947089            5 
 2462000   0.85097435   -8.1946635    479.39938  0.016226624  0.015941119           10 
 2463000   0.83806006   -8.1466728    480.06589  0.016242587  0.015935187            3 
 2464000   0.86879792   -8.1528315    479.89573   0.01623024  0.015929269            7 
 2465000   0.85080862   -8.2236822    479.16449  0.016198935  0.015923338            7 
 2466000   0.84988981   -8.1695091    479.78696  0.016213401  0.015917403           10 
 2467000   0.87278454   -8.1835787    480.15469  0.016219251  0.015911484            2 
 2468000   0.84533004   -8.1754347    481.44028  0.016256087  0.015905607            3 
 2469000   0.85186153     -8.17063    480.20096  0.016207674  0.015899759            4 
 2470000   0.86701247   -8.1814507    481.14662  0.016233017   0.01589388            6 
 2471000   0.87187104   -8.1510827     480.8258  0.016215628  0.015887992            4 
 2472000   0.86934837   -8.1746286    480.49251  0.016197833  0.015882121            4 
 2473000   0.84534881   -8.1737894    481.03618  0.016209603  0.015876273            5 
 2474000   0.84842202   -8.1208374    480.85256  0.016196866   0.01587044            4 
 2475000   0.86311953   -8.1724473    480.55428  0.016180279  0.015864614            2 
 2476000   0.83757459   -8.1783797    480.73476  0.016179818  0.015858783            6 
 2477000   0.86720029   -8.1589511    480.02191  0.016149304  0.015852931            3 
 2478000   0.86247511   -8.1833673    480.83995  0.016170297  0.015847087            9 
 2479000   0.86162717   -8.1892362    480.36432  0.016147785  0.015841252            5 
 2480000   0.84026973    -8.193814    480.58525  0.016148698  0.015835392            5 
 2481000   0.85677637   -8.1471633    482.82335  0.016217364  0.015829571           11 
 2482000   0.85110383   -8.1895562     481.5705  0.016168765  0.015823736            7 
 2483000   0.83870052   -8.1881505    480.98484  0.016142598  0.015817916            5 
 2484000   0.84853523   -8.1888369    480.92323  0.016134032  0.015812067            9 
 2485000   0.85018838   -8.1919043    481.09587  0.016133329  0.015806247            2 
 2486000   0.84947235   -8.1556982    481.14571   0.01612851  0.015800424            3 
 2487000   0.85570381   -8.1868779    481.14033  0.016121845  0.015794609            7 
 2488000   0.87217684   -8.2101583    480.26471  0.016086037  0.015788767            9 
 2489000   0.85744667   -8.1847839    481.74374  0.016129093  0.015782929            5 
 2490000   0.86748409   -8.1961198    481.37375  0.016110233  0.015777097            6 
 2491000    0.8593573   -8.1714504    482.46753  0.016140356  0.015771275            4 
 2492000   0.87001855   -8.2114636    481.42181   0.01609891  0.015765466            6 
 2493000   0.84289882   -8.2176701    481.09587  0.016081557  0.015759639            3 
 2494000   0.84478473   -8.2113898    481.74457  0.016096785  0.015753795            4 
 2495000    0.8642509   -8.1472645    482.24652  0.016107098  0.015747999            4 
 2496000    0.8591701   -8.1751375    481.48418  0.016075193  0.015742206            4 
 2497000   0.84695372   -8.1566117    482.39299  0.016099085  0.015736397            2 
 2498000   0.84640726   -8.2093459    480.54226    0.0160309  0.015730575            7 
 2499000   0.85357562   -8.1673141      482.431  0.016087468  0.015724767            4 
 2500000   0.84282064   -8.1988538    481.14049  0.016038016   0.01571897            6 
 2501000   0.85321727   -8.1634763    482.81393  0.016087363  0.015713178            4 
 2502000   0.84390752   -8.2273803    481.06246  0.016022597  0.015707368            4 
 2503000   0.86057942   -8.1964994    482.37009  0.016059731  0.015701564            5 
 2504000   0.85935758   -8.2134817    481.25219  0.016016114  0.015695753            5 
 2505000   0.86064803   -8.1935725    482.88488  0.016064034  0.015689945            5 
 2506000   0.85294353   -8.1704709    481.68865  0.016017846  0.015684148            7 
 2507000   0.85560482   -8.1924303    480.44774  0.015970208  0.015678344            5 
 2508000   0.86164749   -8.2235051    482.00654  0.016015635  0.015672514           11 
 2509000   0.84336097   -8.2121243    482.18699  0.016015245  0.015666677            7 
 2510000   0.83042292   -8.2027366    481.36701   0.01598164   0.01566085            2 
 2511000   0.83275377    -8.182231    481.94429  0.015994434  0.015655023           12 
 2512000   0.84293255   -8.1925351     482.2836  0.015999323  0.015649218            7 
 2513000   0.84203041   -8.1777263    483.35524  0.016028493  0.015643479            4 
 2514000   0.84273124   -8.1803746    483.09366  0.016013447  0.015637762            3 
 2515000   0.85549253   -8.2183894    482.27132  0.015979832  0.015632017            4 
 2516000   0.84545783    -8.194781      482.415  0.015978239   0.01562625            4 
 2517000   0.83887264    -8.207627    482.78784  0.015984235  0.015620495            5 
 2518000    0.8442775   -8.1759438    484.00419  0.016018143  0.015614764            4 
 2519000   0.84705898   -8.1772849    482.71771  0.015969224   0.01560904            4 
 2520000    0.8453341   -8.1831841    482.78228  0.015965022  0.015603288            2 
 2521000   0.86340213   -8.1951471    483.68689  0.015988592   0.01559753            8 
 2522000    0.8529523   -8.2103249    482.97806  0.015958831  0.015591771           16 
 2523000   0.84450174    -8.215422     482.9358   0.01595111  0.015586036            7 
 2524000   0.85778533   -8.2017017    482.98335   0.01594636  0.015580284            6 
 2525000   0.83491898   -8.2035349    481.52319  0.015891854  0.015574538            4 
 2526000   0.85248533   -8.2237206    482.79596  0.015927552  0.015568771            6 
 2527000    0.8438618   -8.2039224    483.66724  0.015949981  0.015562995            4 
 2528000   0.85905636   -8.2396131     482.0537  0.015890483  0.015557222            6 
 2529000   0.85989154    -8.220248    483.39247  0.015928314  0.015551436            6 
 2530000   0.83576539    -8.203074    482.78037  0.015901857  0.015545708            9 
 2531000    0.8543815   -8.2516428    482.62742  0.015890538  0.015539967            6 
 2532000   0.84957476   -8.2617271    482.07914  0.015866217  0.015534178            8 
 2533000   0.85984679   -8.2380553    482.08509  0.015860149  0.015528401            5 
 2534000   0.83664823   -8.2440361    482.64322  0.015872245  0.015522606           10 
 2535000   0.83981511   -8.1854969     484.0146  0.015911065  0.015516873            7 
 2536000   0.84018613   -8.1985527    483.74189   0.01589583  0.015511124            7 
 2537000   0.83585966   -8.2153703    483.02448  0.015865999  0.015505403            7 
 2538000   0.84264369   -8.1827543    483.99788  0.015891709  0.015499669            4 
 2539000    0.8349343   -8.2217081    483.77864  0.015878254  0.015493922            6 
 2540000   0.83718338    -8.222092    483.03228  0.015847516  0.015488153            8 
 2541000   0.84283484    -8.189949    483.52355   0.01585739  0.015482424            3 
 2542000   0.85302559   -8.2039212    483.50172  0.015850437  0.015476688            4 
 2543000   0.83127634    -8.233732    482.94075  0.015825821  0.015470941            6 
 2544000   0.85402749   -8.2161877    483.15122  0.015826494  0.015465192            4 
 2545000   0.86355949   -8.2341339    483.62079  0.015835651  0.015459455           10 
 2546000   0.86364373   -8.2465456    482.93882   0.01580711  0.015453692           13 
 2547000   0.83255058   -8.2623651    482.89067  0.015799328  0.015447952            5 
 2548000   0.83273757   -8.2255524     483.7407  0.015820928  0.015442214            6 
 2549000   0.82430603   -8.2526524    483.65093  0.015811787  0.015436466            8 
 2550000   0.84018264   -8.2142539    484.31013  0.015827128  0.015430731            7 
 2551000   0.84433934   -8.2526707    483.31187  0.015788314  0.015425002            6 
 2552000   0.83551763   -8.2207719    484.58279  0.015823628   0.01541927            3 
 2553000   0.83653754    -8.217759    482.90183  0.015762561  0.015413572            5 
 2554000    0.8560985   -8.2403787    483.56637  0.015778073  0.015407832            6 
 2555000   0.85893831   -8.2660353    482.93632  0.015751348   0.01540208            9 
 2556000   0.83887729   -8.2199463    484.36413  0.015791736  0.015396345           10 
 2557000   0.82623152   -8.2660481    483.28363  0.015750347  0.015390602           24 
 2558000   0.85436947   -8.2672528    483.09455  0.015738029  0.015384845            4 
 2559000   0.82662168   -8.2289945    484.50493  0.015777808  0.015379094           10 
 2560000   0.84337381   -8.2244524    483.68864  0.015745073   0.01537335           11 
 2561000    0.8336972    -8.239786    484.25107  0.015757226  0.015367617            2 
 2562000   0.83861802    -8.244001    483.86523  0.015738526  0.015361902            6 
 2563000    0.8511677   -8.2420867     483.5956  0.015723618  0.015356194            8 
 2564000   0.83771048   -8.2299146    483.63993  0.015718926  0.015350482            8 
 2565000   0.84456957   -8.2482798    483.92539  0.015722073  0.015344753            4 
 2566000   0.82546314   -8.2245783     483.8735   0.01571426  0.015339026            6 
 2567000   0.84129341    -8.206313    485.66332  0.015766242  0.015333299           20 
 2568000   0.85338678   -8.2585835    484.18753  0.015712212  0.015327612           12 
 2569000   0.84021049   -8.2429566    483.72232  0.015691006  0.015321894           13 
 2570000   0.83530797   -8.2255466    484.13327  0.015698225  0.015316214            6 
 2571000    0.8359629   -8.2385731    484.95842  0.015718865  0.015310525            6 
 2572000   0.86793838   -8.2628786    484.92943  0.015711814   0.01530483            5 
 2573000   0.83914499   -8.2577115    485.03294   0.01570906  0.015299135            6 
 2574000   0.84928673   -8.2500024    484.98541  0.015701418  0.015293483            7 
 2575000   0.83997479   -8.2134529    484.98671  0.015695363  0.015287805           11 
 2576000   0.83200052   -8.2564604    484.31777   0.01566763   0.01528215            4 
 2577000   0.85534014   -8.2292859    483.43602  0.015633036  0.015276491            4 
 2578000   0.84969966   -8.2542034     485.1447  0.015682205  0.015270853            8 
 2579000   0.83666784   -8.2332991    485.49251  0.015687363  0.015265211            9 
 2580000   0.84205778   -8.2324898    484.49972  0.015649216  0.015259577            8 
 2581000   0.83528769   -8.2402396      484.401  0.015639965  0.015253924            9 
 2582000   0.84679976    -8.271921    484.94249  0.015651384  0.015248262            6 
 2583000   0.83529759   -8.2652423    484.71099  0.015637856  0.015242615            3 
 2584000   0.84218914   -8.2452707    485.11944  0.015644977  0.015236932            7 
 2585000   0.84385205   -8.2761752    485.74349  0.015659042  0.015231318            3 
 2586000   0.84079234   -8.2512254    485.04112  0.015630353  0.015225698            4 
 2587000   0.83778011   -8.2627745     485.8918  0.015651714  0.015220065            8 
 2588000   0.84481261   -8.2369893    485.22946  0.015624339  0.015214458           13 
 2589000   0.84716953   -8.2416148    485.57358   0.01562938  0.015208884            6 
 2590000   0.85594032   -8.2587676    484.68269  0.015594681  0.015203303           11 
 2591000   0.85654148    -8.232754    484.85739  0.015594281  0.015197722            2 
 2592000   0.84566794   -8.2293801    485.20707  0.015599507  0.015192146            2 
 2593000   0.84120674   -8.2354204    485.17388  0.015592425  0.015186563            8 
 2594000    0.8473733   -8.2338056      485.034   0.01558192  0.015180964            6 
 2595000   0.80975541   -8.2233383    486.15877  0.015612035  0.015175361            8 
 2596000   0.83177011   -8.2475579    485.65021  0.015589696  0.015169744            8 
 2597000   0.83178822   -8.2542185    485.57574  0.015581303  0.015164154            8 
 2598000   0.82106659   -8.2619057    485.23584  0.015564403  0.015158565            6 
 2599000   0.81970725   -8.2309007    486.37675  0.015594997  0.015152972            6 
 2600000   0.84991001   -8.2160031    486.84331  0.015603952  0.015147387            7 
 2601000   0.79983801   -8.2433769    486.78995  0.015596244  0.015141813           21 
 2602000   0.83565157   -8.2356531    486.21654  0.015571885  0.015136226           11 
 2603000   0.82178399   -8.2255409    486.39851  0.015571729  0.015130659           14 
 2604000   0.83672792   -8.2597499    486.58081  0.015571582  0.015125114           14 
 2605000   0.83763025   -8.2501725    486.28126  0.015556022  0.015119571            9 
 2606000   0.84776218   -8.2286269    486.44039  0.015555142  0.015114023           14 
 2607000   0.83511057   -8.2201251    486.76079  0.015559417  0.015108499           11 
 2608000   0.85091326    -8.242375    487.37329  0.015573022  0.015102965            9 
 2609000   0.83773057   -8.2653671    486.58805  0.015541972  0.015097424            9 
 2610000   0.83980225   -8.2402805    486.94676   0.01554747  0.015091885            3 
 2611000   0.83904921    -8.235852     486.7078  0.015533889  0.015086364            4 
 2612000   0.83741938    -8.252402    486.51308  0.015521729  0.015080885            4 
 2613000   0.83811066    -8.237082    487.17643  0.015536944  0.015075361            6 
 2614000   0.82042561   -8.2470809    487.24718  0.015533256  0.015069845            3 
 2615000   0.81713922   -8.2285482    487.97595   0.01555054   0.01506435            5 
 2616000   0.83067934   -8.2276437    487.24449  0.015521295  0.015058876            4 
 2617000   0.83255941   -8.2553077    487.34266   0.01551849  0.015053358            5 
 2618000    0.8591064   -8.2613337    486.38612  0.015482115   0.01504782            7 
 2619000   0.83077729   -8.2658881    486.33597  0.015474608  0.015042275            5 
 2620000    0.8253833   -8.2483414    486.77777  0.015482754  0.015036746            5 
 2621000   0.84895158   -8.2682416    487.71075   0.01550651  0.015031225            3 
 2622000   0.83289843   -8.2650817    487.32746  0.015488414  0.015025684            5 
 2623000   0.84468539   -8.2267016    488.07054  0.015506117  0.015020153            7 
 2624000   0.82469187   -8.2827287    485.93202  0.015432292  0.015014635            5 
 2625000   0.83939936   -8.2870954    486.92031  0.015457788  0.015009116            9 
 2626000   0.82953739   -8.2566045    488.40813  0.015499116  0.015003602            2 
 2627000   0.84420948   -8.2842412    487.17416  0.015454072  0.014998116            6 
 2628000   0.81516396   -8.2536066    487.67535  0.015464084  0.014992633            3 
 2629000   0.83341202   -8.2611817    486.05405   0.01540681  0.014987129            5 
 2630000   0.82047255   -8.2599481    487.52911  0.015447691  0.014981642           12 
 2631000   0.82113346   -8.2600532    487.38851  0.015437366   0.01497617            6 
 2632000   0.81074386   -8.2702922    487.39431  0.015431684  0.014970711            9 
 2633000   0.83527917   -8.2654078    487.94203  0.015443158  0.014965272            7 
 2634000   0.84489517   -8.2901162    487.35255  0.015418646  0.014959797            5 
 2635000   0.81737872   -8.2659082    487.56401  0.015419482  0.014954315            5 
 2636000   0.82545902   -8.2640935    487.36236  0.015407257  0.014948856            9 
 2637000   0.83064836   -8.2532048    487.61859  0.015409512  0.014943381           10 
 2638000   0.83358858   -8.2728726    488.43227  0.015429374  0.014937904           12 
 2639000   0.82405973   -8.2368555    488.03259  0.015410907  0.014932434            4 
 2640000   0.84863749   -8.2579506    486.86017  0.015368061  0.014926975            4 
 2641000   0.82917633   -8.2389846    488.26507  0.015406572  0.014921529            7 
 2642000   0.85144034   -8.2699045    488.15076  0.015397135  0.014916092           10 
 2643000   0.84753513    -8.278744    487.35718  0.015366288  0.014910621            8 
 2644000   0.84704045   -8.2507447    486.90882  0.015346345  0.014905116            4 
 2645000   0.82467808   -8.2377942    488.63635   0.01539497  0.014899649            7 
 2646000   0.83941835   -8.2785766    487.87409  0.015365145  0.014894157            3 
 2647000   0.82862708   -8.2862586     488.3307  0.015373715  0.014888691            9 
 2648000    0.8228651   -8.2443257    488.74396  0.015380915  0.014883223            5 
 2649000   0.81654413   -8.2971702    488.18786  0.015357615  0.014877771            6 
 2650000   0.83081342    -8.286636    487.96281  0.015344743   0.01487232            4 
 2651000   0.85260634   -8.3041356     488.0012  0.015340161  0.014866855            4 
 2652000   0.83002899    -8.247437    488.92804  0.015363501   0.01486141            5 
 2653000   0.83529526   -8.2637316     488.5794  0.015346759  0.014856002            5 
 2654000   0.83475209   -8.2897907    487.59825  0.015310169  0.014850548           14 
 2655000   0.83767524   -8.3043446    487.95282  0.015315531  0.014845097            9 
 2656000   0.82309796   -8.2766488    488.28194  0.015320091   0.01483964            5 
 2657000   0.81452594   -8.2872361    489.30884  0.015346533  0.014834209           12 
 2658000    0.8231557   -8.2990443    487.82496  0.015294236  0.014828754            5 
 2659000   0.82025371   -8.3073249    487.93397  0.015291901  0.014823315            2 
 2660000    0.8350689   -8.2594671    489.14219  0.015324003  0.014817913            6 
 2661000   0.81137832   -8.2831517    489.04698  0.015315263  0.014812534            4 
 2662000   0.83262584   -8.3064189    488.56229  0.015294337  0.014807149            7 
 2663000   0.82473223    -8.306766    487.15713  0.015244622  0.014801757            4 
 2664000   0.82150558   -8.2921728    488.45947  0.015279638  0.014796379            4 
 2665000   0.82680101   -8.2906604    488.85096  0.015286146  0.014791023            5 
 2666000   0.82528826   -8.3365657    489.13444  0.015289273  0.014785615           14 
 2667000   0.83093219   -8.2730312    488.52928  0.015264632  0.014780217            6 
 2668000   0.82408617   -8.2752082     489.9654  0.015303767  0.014774815            6 
 2669000   0.82421519   -8.2567997    489.62971  0.015287552  0.014769453           18 
 2670000    0.8287036   -8.2975869    489.63745  0.015282068  0.014764094           18 
 2671000   0.82166251   -8.2876765    489.55846  0.015273882  0.014758707           18 
 2672000   0.82528597   -8.2768127    489.59715  0.015269372  0.014753341           14 
 2673000   0.83193787   -8.3115205    489.59551  0.015263609  0.014747964            6 
 2674000   0.83570359    -8.326369    489.37881  0.015251147  0.014742604            8 
 2675000   0.82206451   -8.3033465    489.44606  0.015247541  0.014737238            4 
 2676000   0.82600564   -8.3021338    489.54608  0.015244958  0.014731889           12 
 2677000   0.83036991   -8.2701424    489.48928  0.015237495  0.014726519           13 
 2678000   0.81721051   -8.2799826    489.93373  0.015245635  0.014721149            9 
 2679000   0.81352767   -8.3115896      489.205  0.015217276  0.014715783            6 
 2680000   0.82479951   -8.2877939    489.96392  0.015235196  0.014710434            3 
 2681000   0.81765806   -8.2689755     489.6091  0.015218485   0.01470511            5 
 2682000    0.8321417   -8.2906387    490.60523  0.015243762  0.014699771            4 
 2683000   0.81576584   -8.2770272    489.62861  0.015207747   0.01469443            2 
 2684000   0.82266703   -8.2920777    490.02579  0.015214412  0.014689076            7 
 2685000   0.82659128    -8.299443    489.45558  0.015191048  0.014683705            5 
 2686000    0.8209261   -8.3381495     488.6243  0.015159602  0.014678309            5 
 2687000   0.80288817    -8.315841    489.93733  0.015194682  0.014672926            7 
 2688000   0.82153868   -8.2857449    490.07206  0.015193206  0.014667583            8 
 2689000    0.8184088     -8.29539    489.48447  0.015169346  0.014662248            6 
 2690000    0.8211722    -8.303518    489.18699  0.015154492  0.014656882            8 
 2691000   0.80631078   -8.2964133    488.97744  0.015142371  0.014651513            5 
 2692000   0.81226553    -8.293117    490.53825  0.015185062  0.014646156            4 
 2693000   0.81120904   -8.2786421    490.46511   0.01517716  0.014640812            8 
 2694000   0.82513469   -8.3059654    489.96322  0.015156002  0.014635479            6 
 2695000   0.81829566   -8.2963477    489.18015  0.015126164  0.014630137           15 
 2696000   0.83099984   -8.2881202    489.13633  0.015119199  0.014624803           15 
 2697000   0.82443707   -8.3077896    489.81887  0.015134683  0.014619445           28 
 2698000   0.80787996   -8.3017369     488.8306  0.015098548  0.014614099            9 
 2699000   0.80740242   -8.2743138    490.21665  0.015135749  0.014608773           16 
 2700000   0.83853467   -8.2995136    490.37649  0.015135077  0.014603441           10 
 2701000   0.79673788   -8.2986139    490.77934  0.015141902  0.014598092           18 
 2702000   0.81270916   -8.3112294    490.00953  0.015112556  0.014592759           14 
 2703000   0.82321242   -8.3122177    488.79621  0.015069559  0.014587449           10 
 2704000   0.82037164   -8.3072123    489.86664  0.015096975  0.014582104            5 
 2705000    0.8359989   -8.3110966    490.90894  0.015123504  0.014576751            4 
 2706000   0.80796893   -8.3172744    489.88388  0.015086348  0.014571381           13 
 2707000   0.81923842   -8.3064349    490.77414  0.015108181  0.014566041            9 
 2708000   0.80073108   -8.2701738    490.59555  0.015097106  0.014560678           34 
 2709000   0.81591995   -8.3290936    488.96427  0.015041352  0.014555348           23 
 2710000   0.83368279   -8.3292878    489.82101  0.015062147  0.014550004           35 
 2711000   0.81839048   -8.2944084    489.13375  0.015035465  0.014544658           20 
 2712000    0.8301274   -8.3090691    489.14358  0.015030223  0.014539308           16 
 2713000   0.82138829   -8.3029124    490.21502  0.015057594  0.014533928           10 
 2714000   0.82291321   -8.3101717    488.56387  0.015001347  0.014528569           30 
 2715000   0.81762015   -8.3074043    489.93939  0.015038041  0.014523183           25 
 2716000   0.80289616   -8.3044657    490.66412  0.015054741  0.014517839           28 
 2717000   0.79215042   -8.2969684    488.49906  0.014982795  0.014512505           12 
 2718000   0.81092142   -8.3045682    489.10942  0.014995996   0.01450714           22 
 2719000   0.81713093   -8.3066538     490.9373  0.015046503  0.014501782           13 
 2720000   0.81478195   -8.3105337    489.37344  0.014993059  0.014496452            7 
 2721000   0.79836014   -8.3100686    489.94141  0.015004943  0.014491129            6 
 2722000   0.79525688   -8.3261144    489.97622  0.015000497  0.014485781           13 
 2723000    0.8182866   -8.3235299    489.72911  0.014987425  0.014480423           15 
 2724000   0.80591278   -8.3117544    489.85962  0.014985916  0.014475075           13 
 2725000    0.8066733   -8.3153062    490.10561  0.014987939   0.01446974           14 
 2726000   0.84869854   -8.3447479    490.03901  0.014980405  0.014464412           25 
 2727000    0.8075735   -8.3011573    490.29125   0.01498262  0.014459076            8 
 2728000   0.82999318   -8.3091224    489.44277  0.014951209  0.014453751            9 
 2729000    0.8184187   -8.3301456    490.02528  0.014963518  0.014448392           12 
 2730000   0.79017217   -8.3037635    491.24501  0.014995269  0.014443054           11 
 2731000   0.81709946    -8.316993    489.29774   0.01493036  0.014437708           11 
 2732000   0.82487466    -8.364551    489.23322  0.014922926  0.014432379           21 
 2733000   0.80556301   -8.3222046    490.44434  0.014954395  0.014427042           18 
 2734000   0.81094705   -8.3267707    489.62309  0.014923893  0.014421722           13 
 2735000   0.79773662   -8.3204835    490.27593  0.014938328  0.014416388           10 
 2736000   0.80175753   -8.3320847    489.77238  0.014917531  0.014411034           16 
 2737000   0.81673423   -8.3194264    490.14733  0.014923497  0.014405697           29 
 2738000   0.80003052   -8.3256655    490.77826  0.014937249  0.014400362           12 
 2739000   0.82506341   -8.3149082        489.3   0.01488682  0.014395023           16 
 2740000   0.81623238   -8.3148776    491.02718  0.014933917  0.014389696           16 
 2741000   0.81162922   -8.3107315    489.46451  0.014880959  0.014384395           17 
 2742000   0.80540648   -8.3163325    490.29815  0.014900868  0.014379091           18 
 2743000   0.82921126   -8.3257814    490.79475  0.014910522  0.014373804            5 
 2744000   0.79918497   -8.3072645    490.00157     0.014881  0.014368521            9 
 2745000    0.8140602   -8.3127987    491.13294  0.014909925  0.014363223            7 
 2746000   0.83121283   -8.3150394    491.25293  0.014908137  0.014357918           14 
 2747000   0.81516465   -8.3313391    490.16823  0.014869804  0.014352585           15 
 2748000   0.81113853   -8.3622212    491.17731  0.014894993  0.014347267           25 
 2749000   0.80988712   -8.3542034     490.1272  0.014857742  0.014341941           23 
 2750000   0.81933956   -8.3359904    490.08034   0.01485092  0.014336622           11 
 2751000   0.80921155   -8.3024237    491.35194   0.01488404  0.014331324           16 
 2752000   0.82179824   -8.3189095    490.53073  0.014853765  0.014326033           18 
 2753000   0.82242347    -8.326228    490.80265    0.0148566  0.014320739           14 
 2754000   0.82079891   -8.2940061    491.75567  0.014880043  0.014315466           38 
 2755000   0.80523692   -8.3197264    490.45122  0.014835185    0.0143102           19 
 2756000   0.80633981   -8.3439854    490.93235   0.01484435  0.014304917            8 
 2757000   0.79909663   -8.3079009    490.62039  0.014829537  0.014299655           22 
 2758000   0.80593681   -8.2912499    492.66762  0.014886017  0.014294393           18 
 2759000   0.80115077   -8.3504381    490.45047  0.014813654  0.014289124           16 
 2760000   0.82441895   -8.3428935    489.13363  0.014768528  0.014283854           29 
 2761000   0.81658232   -8.3342199     492.0095  0.014849979  0.014278576           33 
 2762000   0.80993173   -8.3167736    491.57318  0.014831438  0.014273329           61 
 2763000   0.82114515   -8.3425687    492.40412  0.014851132  0.014268103           19 
 2764000   0.81678099   -8.3066255    490.81322  0.014797794   0.01426286            6 
 2765000   0.81929817   -8.3401694    491.05963  0.014799868  0.014257618           18 
 2766000    0.8129542   -8.2889182    491.61701   0.01481131  0.014252368           10 
 2767000   0.82129109   -8.2856945    493.36732  0.014858671  0.014247158           10 
 2768000   0.78893224   -8.2918226    492.15809  0.014816898  0.014241925           13 
 2769000   0.80507376   -8.2975074    492.35265  0.014817403  0.014236707           22 
 2770000   0.82808357   -8.3482414     491.7588  0.014794188   0.01423147           16 
 2771000   0.79985569   -8.3028531    492.59983  0.014814141  0.014226215           10 
 2772000   0.80788636    -8.326794    491.10839  0.014763961  0.014220973            6 
 2773000    0.8219029   -8.3437829    491.56484  0.014772354  0.014215758            4 
 2774000   0.80463136   -8.3357383    490.85569  0.014745725  0.014210517            6 
 2775000   0.80963367    -8.380374    490.34786  0.014725161  0.014205245            4 
 2776000     0.811807   -8.3577469    490.03408  0.014710437   0.01419998           11 
 2777000   0.82432192    -8.336623    491.00544  0.014734289  0.014194698           12 
 2778000   0.80852568    -8.328667    490.41345  0.014711227  0.014189427            9 
 2779000   0.81462337   -8.3430499    490.48929  0.014708207  0.014184149            3 
 2780000   0.81453295   -8.3717816    491.91015  0.014745508  0.014178892            9 
 2781000   0.81237902   -8.3223831    491.39238  0.014724691   0.01417365            6 
 2782000   0.80974172   -8.3104437    491.52822  0.014723467  0.014168434            6 
 2783000   0.81017531   -8.3131184    492.17467  0.014737534  0.014163207            8 
 2784000   0.81216475   -8.3359379    491.44681  0.014710453  0.014157982            4 
 2785000   0.81620035   -8.3387464    491.99863  0.014721683  0.014152738            2 
 2786000   0.81331969   -8.3366453    491.61328  0.014704872  0.014147509            9 
 2787000    0.7979212   -8.2868029     492.6121  0.014729461  0.014142287           10 
 2788000   0.80658778   -8.3499427     491.4758  0.014690214   0.01413707            9 
 2789000   0.81965659   -8.3384683    491.60914  0.014688931  0.014131841            8 
 2790000   0.79044765   -8.3215864    489.99939  0.014635585  0.014126609            8 
 2791000   0.80874669   -8.3645187    492.39505  0.014701871  0.014121396           15 
 2792000   0.79731643   -8.3600679    490.96563  0.014653941  0.014116168           10 
 2793000   0.80444796   -8.3695156    491.33536  0.014659726  0.014110957           10 
 2794000   0.80849634   -8.3524418    491.89371  0.014671132   0.01410575            7 
 2795000   0.80439772   -8.3633556    491.84698   0.01466449  0.014100534            9 
 2796000   0.79202977   -8.3597531    491.42105   0.01464655  0.014095351           16 
 2797000   0.79213191   -8.3227713    493.44452    0.0147016  0.014090183            6 
 2798000   0.79496087   -8.3357576    491.91432  0.014650772  0.014085032           21 
 2799000   0.81356609   -8.3271104    492.15015  0.014652559   0.01407987            8 
 2800000   0.78091161   -8.3252813    492.01816  0.014643398   0.01407472           16 
 2801000   0.78550184   -8.3282194    492.72867  0.014659308    0.0140696           22 
 2802000   0.79945124   -8.3036015    494.13354  0.014695858  0.014064472           37 
 2803000   0.80452798   -8.3747014    491.77958  0.014620632  0.014059334           45 
 2804000   0.81371713   -8.3492742    492.61506  0.014640248  0.014054185           48 
 2805000   0.78396572   -8.3701998    491.96865  0.014615825   0.01404903           48 
 2806000   0.81159925   -8.3516346    493.07661   0.01464352  0.014043847           32 
 2807000   0.78207568   -8.3619401    492.68207   0.01462659  0.014038689           33 
 2808000   0.82825429   -8.3931966    491.74764   0.01459365  0.014033508           48 
 2809000   0.79891337   -8.3521819    491.84833  0.014591442   0.01402833           26 
 2810000   0.79120533   -8.3319418    494.31257  0.014659329   0.01402319           13 
 2811000   0.77897891   -8.3738757    492.44219  0.014598666  0.014018036           12 
 2812000   0.80029687   -8.3763875    492.57521  0.014597416  0.014012859           24 
 2813000   0.79139509    -8.362073    492.41461  0.014587469  0.014007695           27 
 2814000   0.81813375   -8.3843735    491.55648  0.014556873  0.014002514           28 
 2815000   0.80621709   -8.3529869     491.2433   0.01454243  0.013997342           20 
 2816000   0.79842428   -8.3814016    491.42335  0.014542594  0.013992203           30 
 2817000   0.80382244   -8.3590334    491.88194  0.014550998  0.013987043           38 
 2818000   0.79979567   -8.3629672    491.91999   0.01454696  0.013981882           56 
 2819000   0.80185187   -8.3760749    492.36764  0.014555033  0.013976725           70 
 2820000   0.80776015   -8.3459927    493.46603  0.014582329  0.013971585           55 
 2821000   0.79354612   -8.3508683    493.66485  0.014583034  0.013966458           44 
 2822000   0.81721652   -8.3793961    492.76576  0.014551316  0.013961307           55 
 2823000   0.80135214   -8.3665932    491.31588  0.014503362  0.013956166           52 
 2824000   0.80807358   -8.3487081     492.4351  0.014531253  0.013951039           77 
 2825000   0.80708419    -8.373274    492.50415  0.014528146  0.013945892           70 
 2826000   0.80328595   -8.3634563    492.34981  0.014518454   0.01394073           80 
 2827000   0.79209521    -8.355867    492.34109  0.014513061  0.013935572          100 
 2828000   0.78403915   -8.3631613    491.83614   0.01449305  0.013930424           73 
 2829000   0.80512703   -8.3443926    493.59668  0.014539787  0.013925274           62 
 2830000   0.78957616    -8.380852    492.83876  0.014512331  0.013920139           74 
 2831000   0.80925136   -8.3549645    492.76032  0.014504896  0.013914995           76 
 2832000   0.80874068   -8.3958649    492.25167  0.014484807  0.013909854           94 
 2833000    0.8274413   -8.3462519     492.1673  0.014477212  0.013904705           55 
 2834000   0.79439148   -8.3320965    494.16031  0.014530708  0.013899583           67 
 2835000   0.79640553   -8.3730316     492.1727  0.014467158  0.013894455           96 
 2836000   0.79296556   -8.3523161    492.78699  0.014480107  0.013889354          113 
 2837000   0.81285454   -8.3353843    492.14713  0.014456207  0.013884236          105 
 2838000    0.8203378   -8.3571045    493.50353  0.014490942  0.013879142          120 
 2839000   0.79315588   -8.3252811    493.22198  0.014477574  0.013874042          107 
 2840000   0.79479969   -8.3673318     493.3785  0.014477069   0.01386893          106 
 2841000    0.7814496   -8.3614817    493.84792  0.014485742  0.013863824          100 
 2842000   0.79178745   -8.3725115    493.29602  0.014464462  0.013858708          125 
 2843000   0.79033831   -8.3745281    493.15709  0.014455302  0.013853589          134 
 2844000   0.79806593   -8.3658544    492.94513  0.014444009   0.01384847          133 
 2845000   0.79309356   -8.3577724    492.88839   0.01443727  0.013843352          134 
 2846000   0.80538579   -8.3531427    494.18044  0.014470029  0.013838256          136 
 2847000   0.82006065   -8.3818794    492.65812  0.014420387  0.013833135          108 
 2848000   0.79249206   -8.3798433    492.66158  0.014415425  0.013828007          136 
 2849000   0.80016695   -8.3978671    493.27109  0.014428194  0.013822888          136 
 2850000   0.79729261   -8.3974237    491.19599  0.014362456  0.013817736          132 
 2851000   0.77745091   -8.3828937    491.63347  0.014370206  0.013812577          149 
 2852000   0.78738691   -8.4426125    491.01858    0.0143472  0.013807404          135 
 2853000   0.79754289   -8.4205465    491.70024  0.014362082  0.013802204          193 
 2854000     0.792393   -8.4377339    491.93592  0.014363931  0.013797004          182 
 2855000   0.77560636     -8.42855    490.04946  0.014303837    0.0137918          175 
 2856000     0.789922   -8.4375352    492.27577  0.014363789   0.01378661          171 
 2857000   0.79614595   -8.3893558    492.63903  0.014369357  0.013781443          178 
 2858000   0.78690522   -8.3817301    491.82327  0.014340543  0.013776306          167 
 2859000   0.78480735   -8.4133137    492.25238  0.014348035  0.013771165          155 
 2860000   0.80430981   -8.3929677    492.24927  0.014342927  0.013766012          154 
 2861000   0.78702111   -8.4207245    490.30656  0.014281328  0.013760872          191 
 2862000   0.79746218   -8.4106118    492.23743   0.01433256  0.013755718          176 
 2863000   0.79096457   -8.4430256    491.92618  0.014318494  0.013750565          175 
 2864000   0.79547391   -8.4084065    491.82706  0.014310611  0.013745408          217 
 2865000   0.79157015   -8.4251532    492.35115  0.014320859  0.013740243          210 
 2866000   0.79061865   -8.4317437    492.32622  0.014315138  0.013735079          185 
 2867000   0.78692239    -8.418145    492.56576  0.014317107  0.013729918          210 
 2868000   0.77773726   -8.4104806     492.0156   0.01429613  0.013724785          211 
 2869000    0.8117456   -8.4228985    492.51291  0.014305592  0.013719627          210 
 2870000   0.79582675   -8.4285755    492.27081  0.014293578  0.013714459          237 
 2871000    0.7834016   -8.4545594    492.12413  0.014284342  0.013709276          268 
 2872000    0.8001034   -8.4180931    491.92309  0.014273534  0.013704105          295 
 2873000   0.78021137   -8.4153334    491.48337  0.014255812  0.013698946          210 
 2874000   0.78539021   -8.4264814    492.70342  0.014286228  0.013693794          243 
 2875000   0.79449317   -8.4341681     493.6374   0.01430833  0.013688652          214 
 2876000   0.79883476   -8.4477516    491.53006  0.014242294  0.013683498          273 
 2877000   0.79385569    -8.402479    492.12594  0.014254604  0.013678352          241 
 2878000   0.80185069   -8.4704289    490.67743  0.014207709  0.013673198          277 
 2879000   0.78194583   -8.4308663    491.78992  0.014234975  0.013668016          269 
 2880000   0.78699891   -8.4417031    491.60273  0.014224616  0.013662831          268 
 2881000   0.78770696   -8.4638167    491.82563  0.014226126  0.013657636          253 
 2882000   0.78948249   -8.4548844    491.78492  0.014220013  0.013652443          293 
 2883000   0.76945659   -8.4617908    490.71794  0.014184239  0.013647248          321 
 2884000   0.79802073   -8.4474691    491.04851  0.014188873  0.013642064          294 
 2885000   0.78370473   -8.4438172    491.69958  0.014202761  0.013636877          289 
 2886000   0.77728936   -8.4559085    492.26333  0.014214118  0.013631694          360 
 2887000   0.76912025   -8.4540014    492.05624  0.014203217  0.013626521          301 
 2888000    0.8038333   -8.4670615    491.63095  0.014186027  0.013621339          335 
 2889000   0.79146519   -8.4676848    491.22605  0.014169437  0.013616164          345 
 2890000   0.80632047   -8.4509605    491.88007  0.014183393  0.013610982          398 
 2891000   0.78083827     -8.45332    492.39756  0.014193404  0.013605793          354 
 2892000   0.77620795   -8.4453112    491.27795  0.014156234  0.013600633          321 
 2893000   0.79742817   -8.4578477    491.86884  0.014168362  0.013595468          364 
 2894000   0.77988711    -8.455229    492.26294  0.014174814  0.013590309          399 
 2895000   0.77975361   -8.4537263    491.44443  0.014146357  0.013585141          434 
 2896000   0.79905676   -8.4924484    490.63902  0.014118296  0.013579968          381 
 2897000   0.80976257     -8.49813     490.5311  0.014110318  0.013574781          427 
 2898000   0.79919264   -8.4611687    490.93943  0.014117191  0.013569586          388 
 2899000   0.78774486    -8.483891    491.57835  0.014130687  0.013564403          415 
 2900000   0.78786526   -8.4705115    491.37928  0.014120094  0.013559216          455 
 2901000    0.7858798   -8.4773846    490.56171  0.014091742   0.01355402          461 
 2902000   0.78748213   -8.4983101    490.74782   0.01409223  0.013548809          427 
 2903000   0.79656356    -8.497853    490.96967  0.014093744  0.013543607          442 
 2904000   0.79159906   -8.5259282    490.12311  0.014064598  0.013538378          469 
 2905000   0.77710518   -8.5193064    489.63726  0.014045819  0.013533148          447 
 2906000   0.78002127    -8.519095    489.30409  0.014031432  0.013527903          454 
 2907000   0.77980433   -8.4946976    490.51359  0.014061277  0.013522669          505 
 2908000   0.78005082    -8.515319    490.48665   0.01405567  0.013517424          468 
 2909000    0.7956676    -8.526049    490.11448  0.014040176  0.013512197          465 
 2910000   0.80615921   -8.5232617    490.61534  0.014049695  0.013506961          493 
 2911000   0.79460728    -8.538824    490.54248  0.014042783  0.013501738          497 
 2912000    0.7712521   -8.5321586    489.33641  0.014003446  0.013496521          548 
 2913000   0.78146761   -8.5275474    491.01456  0.014046646  0.013491316          531 
 2914000   0.79540144   -8.5354717    489.89373  0.014009773  0.013486105          516 
 2915000   0.78455437   -8.5086275     490.1802  0.014013156  0.013480876          517 
 2916000    0.7954471    -8.515262    490.06301  0.014005001  0.013475651          519 
 2917000   0.76605667   -8.5295213    490.18205  0.014003601  0.013470418          567 
 2918000   0.77367198   -8.5189662    491.60029  0.014039305  0.013465202          478 
 2919000   0.78244029   -8.5245187    490.13831  0.013992757  0.013459993          531 
 2920000   0.79843061   -8.5107544    490.56351    0.0140001  0.013454778          538 
 2921000   0.77851606   -8.5197306    489.73795  0.013971755  0.013449567          534 
 2922000   0.79856064   -8.5236747    488.89698   0.01394299  0.013444338          600 
 2923000   0.77803724   -8.5144189    489.62389  0.013958943  0.013439129          564 
 2924000   0.80133405   -8.5007973    490.52254  0.013979781  0.013433938          607 
 2925000   0.76215954    -8.495409    490.87778  0.013985122  0.013428747          517 
 2926000    0.8035172   -8.5240031    490.75372  0.013976809  0.013423537          612 
 2927000   0.80219554   -8.5194595    489.80671  0.013945072  0.013418331          615 
 2928000   0.79641246   -8.5388177    490.18934  0.013951199   0.01341313          583 
 2929000   0.76650431   -8.5544722    490.46641  0.013954319  0.013407922          637 
 2930000   0.78355501   -8.5239218    489.17202  0.013912742  0.013402701          676 
 2931000   0.77095881   -8.5325547    490.29892  0.013940035  0.013397487          692 
 2932000   0.78638998    -8.526214    489.35173   0.01390836  0.013392262          688 
 2933000   0.79210103   -8.5479205    489.44896   0.01390638  0.013387043          670 
 2934000   0.78008494   -8.5253365    489.73769  0.013909841  0.013381812          747 
 2935000   0.79321922   -8.5579207    489.79217  0.013906649   0.01337658          740 
 2936000   0.78396236   -8.5346128    490.73659  0.013928718  0.013371345          752 
 2937000   0.78636602   -8.5469708    489.37657  0.013885387   0.01336611          725 
 2938000   0.79097092   -8.5437928     488.9409  0.013868303  0.013360896          733 
 2939000   0.78538961   -8.5303733    490.23289  0.013900218  0.013355688          771 
 2940000   0.78520038   -8.5422874     490.1738  0.013893815  0.013350467          742 
 2941000   0.78958772    -8.551038    488.99481  0.013855684  0.013345252          790 
 2942000   0.77636954   -8.5721538    489.08868  0.013853634  0.013340043          803 
 2943000   0.76428761   -8.5463496    489.51431  0.013860978  0.013334815          831 
 2944000   0.76664488   -8.5662276    490.25227  0.013877159    0.0133296          827 
 2945000    0.8043883   -8.5466819    489.91165  0.013862808  0.013324372          846 
 2946000   0.75239774   -8.5555613    490.22709  0.013867025  0.013319155          866 
 2947000   0.78166802   -8.5815475    489.64726  0.013845924  0.013313938          868 
 2948000   0.78277909   -8.5582229    490.91067  0.013876941  0.013308724          864 
 2949000   0.78080844   -8.5787818    489.24755  0.013825239  0.013303502          932 
 2950000   0.78652671   -8.5910011    489.89466  0.013838832  0.013298254          899 
 2951000   0.78119688    -8.601161    489.43854  0.013821262  0.013293028          926 
 2952000   0.78642341   -8.5774441    489.65533    0.0138227  0.013287794          945 
 2953000   0.78421937   -8.5949462    488.68858  0.013790738  0.013282575          925 
 2954000   0.74797545   -8.5582484    488.96201  0.013793783  0.013277368          900 
 2955000   0.77848903    -8.626539    488.18918   0.01376732  0.013272134          949 
 2956000   0.78622787   -8.6102927    488.29981  0.013765782  0.013266904          941 
 2957000   0.77954981    -8.571116    489.36892  0.013791256  0.013261676          967 
 2958000   0.78169003   -8.6049106    487.78289  0.013741911  0.013256458          965 
 2959000   0.78067894   -8.6061361    488.66356  0.013762069  0.013251219         1035 
 2960000   0.77599688   -8.6038963    489.43064  0.013779016  0.013245984         1067 
 2961000    0.7687337   -8.6071761    488.08249   0.01373642  0.013240754         1059 
 2962000   0.79371784   -8.6055853    488.65692  0.013747944  0.013235506         1125 
 2963000   0.78247296   -8.6033498    488.33361  0.013734211  0.013230253         1137 
 2964000   0.79223355   -8.6332778    487.73681  0.013712798  0.013225008         1133 
 2965000   0.78856252   -8.6440361    488.45389  0.013728327  0.013219744         1148 
 2966000   0.75192146   -8.6380738    489.15682  0.013743448   0.01321447         1191 
 2967000    0.7519776    -8.641788    488.33347  0.013715691  0.013209212         1149 
 2968000   0.80075444   -8.6397791    488.15984  0.013706195  0.013203946         1170 
 2969000    0.8010866    -8.650691    487.52221  0.013683682  0.013198676         1233 
 2970000   0.77307396   -8.6477671    487.38733   0.01367529  0.013193399         1275 
 2971000   0.78713615   -8.6449434     488.3615  0.013698011  0.013188124         1310 
 2972000   0.79057738   -8.6779875    487.57063  0.013671227  0.013182829         1313 
 2973000   0.77172883   -8.6673967    487.31322  0.013659413  0.013177533         1325 
 2974000   0.77691185   -8.6804421    487.82728  0.013669224  0.013172239         1364 
 2975000   0.77414991   -8.6846403    487.65499  0.013659804  0.013166955         1392 
 2976000   0.78921936   -8.6627636    487.79407  0.013659108   0.01316165         1393 
 2977000   0.76939258   -8.6851921    487.45737  0.013645095  0.013156346         1422 
 2978000   0.77514191   -8.6881033    487.18856  0.013632991  0.013151047         1402 
 2979000   0.79556443   -8.7073269    486.28205  0.013603056  0.013145736         1503 
 2980000   0.77931429   -8.6942413    487.75657  0.013639725  0.013140412         1420 
 2981000   0.75366544   -8.6915974    486.61315  0.013603185  0.013135086         1465 
 2982000   0.77349576   -8.7166701    486.41489  0.013593083  0.013129753         1461 
 2983000   0.77198994   -8.7070109    486.41055  0.013588405  0.013124426         1515 
 2984000   0.77196759   -8.6889502    486.65125  0.013590573  0.013119105         1488 
 2985000   0.76769671   -8.7184391    485.38167  0.013550577  0.013113766         1598 
 2986000    0.7761779   -8.7241585    485.64576  0.013553409  0.013108416         1604 
 2987000   0.79798327   -8.7506612    485.10865  0.013533887  0.013103075         1694 
 2988000   0.77568302   -8.7732966    485.43618  0.013538492  0.013097704         1736 
 2989000   0.78401994   -8.7348907    485.96876  0.013548811  0.013092326         1735 
 2990000   0.76829738   -8.7366121    486.02659  0.013545892  0.013086937         1848 
 2991000   0.77000587   -8.7828627    484.41184  0.013496374   0.01308154         1902 
 2992000   0.77231176   -8.7694141     484.7151  0.013500309  0.013076147         1908 
 2993000   0.76657894   -8.7778625    485.71903  0.013523751  0.013070743         1919 
 2994000   0.76751836   -8.7844059    485.04774  0.013500549  0.013065326         1970 
 2995000   0.78126982   -8.8037599    483.05019  0.013440462  0.013059903         2016 
 2996000   0.77294943   -8.8307526    483.20106  0.013440172  0.013054456         2044 
 2997000   0.77286493   -8.8303494    483.91722    0.0134556  0.013049002         2010 
 2998000   0.78503899   -8.8414317    484.15667  0.013457768  0.013043555         2046 
 2999000   0.77336048    -8.837536    482.66297  0.013411775  0.013038092         2098 
 3000000   0.76747439    -8.825544    484.04669  0.013445741  0.013032646         2127 
 3001000   0.76607689   -8.8400055    483.52875  0.013426879  0.013027186         2179 
 3002000   0.78473837   -8.8438957    483.86069   0.01343162  0.013021732         2222 
 3003000   0.77280409   -8.8587269    483.72648  0.013423423  0.013016267         2263 
 3004000   0.78555466   -8.8402501    483.20229  0.013404413  0.013010791         2279 
 3005000   0.78066441   -8.8619038    483.48684  0.013407843  0.013005315         2355 
 3006000   0.76570282   -8.8575092     483.2392  0.013396518  0.012999832         2279 
 3007000   0.75415509   -8.8839993    483.20723  0.013391177  0.012994352         2399 
 3008000    0.7756507   -8.8494855    482.82902  0.013376247  0.012988872         2410 
 3009000   0.77306643     -8.89382    481.80081  0.013343326  0.012983385         2441 
 3010000   0.76053309   -8.9046087    483.55108   0.01338735   0.01297791         2517 
 3011000     0.758099    -8.888847    483.05453  0.013369161  0.012972425         2499 
 3012000    0.7872375   -8.8946735    481.98025     0.013335  0.012966941         2521 
 3013000   0.76624754   -8.9062307    482.39526  0.013342053  0.012961447         2480 
 3014000   0.75406674   -8.9024952    482.63636  0.013344292  0.012955944         2604 
 3015000   0.76870939   -8.9055844    482.72447  0.013342302  0.012950416         2540 
 3016000     0.771443   -8.9255391    481.62745  0.013307567   0.01294489         2552 
 3017000   0.75788056   -8.9072618    482.07646  0.013315558  0.012939371         2614 
 3018000   0.76814157    -8.916295    482.01727  0.013309512  0.012933835         2602 
 3019000    0.7633055    -8.903723    481.82816  0.013299883  0.012928309         2649 
 3020000   0.77024252   -8.9156158    481.51047  0.013286713   0.01292279         2625 
 3021000   0.75643865   -8.9175297    482.15505  0.013300095  0.012917262         2630 
 3022000   0.76282322   -8.9368183    481.57021  0.013279567  0.012911734         2674 
 3023000   0.75892473   -8.9325355    481.82687  0.013282249  0.012906212         2705 
 3024000   0.76616705    -8.931963    481.85211  0.013278552  0.012900694         2704 
 3025000   0.75161598   -8.9650154    480.85592   0.01324672  0.012895169         2670 
 3026000   0.76606617   -8.9362557    481.29368  0.013254397  0.012889645         2673 
 3027000   0.76226595   -8.9338022    481.89973  0.013266703  0.012884128         2723 
 3028000    0.7546653   -8.9694465    480.95564   0.01323634  0.012878613         2780 
 3029000   0.75685989   -8.9512766    481.29338  0.013241262  0.012873092         2843 
 3030000   0.74968562   -8.9756562    480.46797  0.013214191  0.012867565         2836 
 3031000   0.76474797   -8.9867323    481.00299  0.013224541  0.012862039         2899 
 3032000   0.76582803   -8.9859387     481.0172  0.013220569  0.012856514         2861 
 3033000   0.77977913   -8.9620362     480.6276  0.013205506  0.012850989         2945 
 3034000   0.77307912   -8.9676255    480.64742  0.013201698   0.01284546         3015 
 3035000   0.76102517   -8.9891315    480.63878  0.013197111  0.012839922         2961 
 3036000   0.77619108   -8.9993766    479.64153  0.013165391  0.012834375         3076 
 3037000   0.78464279   -8.9776323    480.64968  0.013188719  0.012828844         3039 
 3038000   0.77320954   -8.9913455    480.73572  0.013186738  0.012823307         3001 
 3039000   0.78013258    -8.983086     480.8562  0.013185702  0.012817766         3064 
 3040000   0.77357934   -9.0130529    480.76373   0.01317883   0.01281223         3034 
 3041000   0.77150602   -9.0329221     479.7333   0.01314626  0.012806687         3095 
 3042000   0.76033927   -8.9996995    481.97156  0.013203253  0.012801141         3111 
 3043000   0.76293244   -9.0264872    479.96601  0.013143992  0.012795586         3102 
 3044000   0.76580834    -9.046286    480.17842  0.013145489  0.012790021         3058 
 3045000   0.75843314   -9.0320318    480.21084  0.013142059  0.012784456         3149 
 3046000   0.76018025   -9.0361633    479.73198  0.013124644  0.012778885         3175 
 3047000   0.77042031   -9.0601124    479.15542  0.013104568  0.012773306         3187 
 3048000   0.75732417   -9.0815325    477.84332  0.013064395  0.012767713         3256 
 3049000   0.74174851   -9.0653891    477.79574   0.01305881  0.012762124         3223 
 3050000    0.7680236   -9.0588585    478.17513  0.013064894   0.01275654         3340 
 3051000   0.76351151   -9.0718362    479.50194  0.013096852  0.012750955         3308 
 3052000   0.75861472   -9.0489667    479.10377  0.013081689   0.01274536         3388 
 3053000   0.76745204   -9.0876352    478.70507  0.013066521  0.012739753         3417 
 3054000   0.76236277   -9.1124007    477.56944  0.013031255  0.012734149         3422 
 3055000   0.76065679    -9.115888    477.85154  0.013034685  0.012728535         3409 
 3056000    0.7539142    -9.069379    479.18235  0.013066709  0.012722921         3428 
 3057000   0.76141154   -9.0945747    478.51281  0.013044183  0.012717318         3402 
 3058000   0.76237131   -9.1140291    478.57111  0.013041506  0.012711707         3389 
 3059000   0.75590818   -9.0912402      478.124  0.013025063  0.012706095         3463 
 3060000   0.78247921   -9.1003837    478.58411  0.013033336   0.01270049         3466 
 3061000   0.76564736   -9.1232783    478.17888  0.013018046  0.012694884         3443 
 3062000    0.7643082   -9.1113045    478.32883  0.013017876  0.012689279         3493 
 3063000   0.75153948   -9.1201938    477.69603   0.01299641  0.012683676         3457 
 3064000   0.76779968    -9.117402    478.28922  0.013008301  0.012678081         3488 
 3065000   0.76534008    -9.125974    477.38364  0.012979435  0.012672476         3509 
 3066000   0.74674888   -9.1018411    477.71647  0.012984249  0.012666871         3492 
 3067000   0.76070863   -9.1407322    476.62824  0.012950447  0.012661247         3472 
 3068000   0.77949427   -9.1505994    477.70908  0.012975583  0.012655631         3513 
 3069000   0.75982252    -9.129887    476.97613  0.012951453   0.01265001         3503 
 3070000   0.76035985   -9.1471241     477.1502   0.01295196    0.0126444         3456 
 3071000    0.7527151   -9.1316751    477.41593  0.012954953  0.012638795         3490 
 3072000   0.74018864   -9.1443488    477.56159  0.012954687  0.012633177         3483 
 3073000   0.75143383   -9.1421691    478.02584  0.012963061  0.012627569         3485 
 3074000   0.74463877   -9.1421494    477.58408  0.012946868   0.01262196         3477 
 3075000   0.76116988   -9.1505038    478.01929  0.012954452  0.012616351         3493 
 3076000   0.75449726    -9.150886     477.3441  0.012931949  0.012610748         3503 
 3077000   0.76636286   -9.1298007    476.53201  0.012905753  0.012605148         3492 
 3078000   0.77112785   -9.1190317    477.79082  0.012935641   0.01259955         3505 
 3079000   0.78653638   -9.1569896    477.00317  0.012910121  0.012593952         3504 
 3080000   0.75035629   -9.1261826    476.98273  0.012905377  0.012588346         3518 
 3081000   0.74779061   -9.1686857    477.30788  0.012909983  0.012582744         3546 
 3082000   0.77829425   -9.1633988     476.9791  0.012896904  0.012577135         3516 
 3083000   0.76700235    -9.135781    476.84001  0.012888961  0.012571528         3545 
 3084000   0.76753945    -9.148809    477.37495  0.012899237  0.012565923         3539 
 3085000   0.75278104   -9.1545646    476.60865  0.012874356  0.012560317         3583 
 3086000   0.75999797   -9.1739275    477.40395   0.01289166  0.012554707         3578 
 3087000   0.75034336   -9.1651412    477.06782   0.01287841    0.0125491         3536 
 3088000   0.76045291   -9.1581462    476.53879  0.012859963  0.012543494         3586 
 3089000   0.76421212    -9.174183    476.90182  0.012865594  0.012537884         3572 
 3090000   0.75951665   -9.1817854    476.44355  0.012849071  0.012532278         3594 
 3091000   0.74469343   -9.1720175    476.89807  0.012857168  0.012526676         3629 
 3092000   0.75889987   -9.1611735    476.05144  0.012830192  0.012521069         3580 
 3093000   0.75336768   -9.1861742    476.49433  0.012837976  0.012515467         3628 
 3094000   0.76218235   -9.1734829    477.31464  0.012855921  0.012509872         3581 
 3095000   0.75794111   -9.1797385    476.31969  0.012824978  0.012504282         3622 
 3096000   0.74864894   -9.1606236    475.84382  0.012808027   0.01249869         3597 
 3097000   0.75839378   -9.1714722    476.51036  0.012821827  0.012493094         3642 
 3098000   0.75133514   -9.1719225    476.80448  0.012825599  0.012487498         3674 
 3099000   0.75015498    -9.180577    476.57208  0.012815211  0.012481908         3609 
 3100000   0.74935418   -9.1908753    476.34392  0.012804944  0.012476318         3615 
 3101000   0.75652434   -9.1905135    475.69853  0.012783471  0.012470732         3626 
 3102000   0.75964543   -9.1664909    476.54197  0.012802009  0.012465144         3602 
 3103000   0.76688443   -9.1737378    476.53576  0.012797716  0.012459571         3654 
 3104000     0.765526   -9.1946359    476.35846  0.012788833  0.012454002         3642 
 3105000   0.76245798   -9.1693187     476.5379   0.01278953  0.012448437         3602 
 3106000   0.76348936   -9.1797677    475.67214  0.012762184  0.012442867         3627 
 3107000   0.74597377   -9.1642917    477.53962  0.012808165  0.012437306         3624 
 3108000   0.74736333   -9.1661129    477.20033  0.012794947  0.012431745         3655 
 3109000   0.75030319   -9.1592819    476.81691  0.012780554  0.012426186         3574 
 3110000   0.75780974   -9.1751427    476.41307  0.012765624  0.012420627         3654 
 3111000   0.75315572   -9.2107662    476.58025  0.012765998  0.012415069         3676 
 3112000   0.74375432   -9.1935616    476.09843  0.012748994  0.012409514         3616 
 3113000   0.75294662   -9.1898216    476.38633  0.012752605  0.012403965         3663 
 3114000   0.74005856    -9.186215    476.64579  0.012755454  0.012398417         3621 
 3115000   0.75644329    -9.196977     476.6914  0.012752579  0.012392866         3654 
 3116000   0.75841885   -9.2040387    475.54363  0.012717791  0.012387316         3673 
 3117000   0.75740018     -9.23788    476.07255  0.012727851  0.012381769         3669 
 3118000   0.74916264   -9.2055292     476.1215  0.012725077  0.012376214         3711 
 3119000   0.76547509   -9.1834463    476.03303  0.012718634  0.012370668         3694 
 3120000   0.74702964   -9.1999473    475.31856  0.012695474   0.01236512         3730 
 3121000   0.75776773   -9.1918692    475.92853  0.012707693   0.01235958         3673 
 3122000    0.7502959   -9.2072165    475.27325  0.012686132  0.012354039         3635 
 3123000   0.76576145   -9.2112731     474.9452  0.012673316  0.012348501         3682 
 3124000   0.74966324   -9.1822329    476.28347  0.012704958  0.012342966         3704 
 3125000   0.73092708   -9.2135255    475.51732  0.012680462  0.012337439         3693 
 3126000   0.75695979   -9.2147564      476.356  0.012698763  0.012331913         3687 
 3127000    0.7728055   -9.2156403     475.9538  0.012683984  0.012326393         3645 
 3128000     0.747436   -9.1997313    476.62908  0.012697919  0.012320873         3667 
 3129000   0.74046034    -9.169683    475.95687  0.012675958  0.012315346         3698 
 3130000   0.77296842   -9.2215299    475.83573  0.012668683  0.012309824         3676 
 3131000   0.75743209   -9.2210677    475.80196  0.012663738  0.012304307         3688 
 3132000   0.73074542   -9.1956168    476.22664  0.012670994  0.012298795         3657 
 3133000   0.74446443   -9.2284716    475.41025  0.012645235  0.012293289         3665 
 3134000    0.7383874    -9.202256    475.61845  0.012646736  0.012287782         3641 
 3135000   0.76082563   -9.1901324    475.26107  0.012633202  0.012282273         3642 
 3136000   0.75547272   -9.2082437    476.53268  0.012662964   0.01227677         3676 
 3137000   0.76345738   -9.2136888    476.33365  0.012653641  0.012271268         3668 
 3138000   0.76388659   -9.2067162    476.19279  0.012645868  0.012265762         3733 
 3139000   0.73991243   -9.2155888    475.47242  0.012622715  0.012260261         3678 
 3140000   0.73867642   -9.2247002    475.85751  0.012628915   0.01225477         3732 
 3141000   0.73413152   -9.2243306    475.45269  0.012614154  0.012249274         3694 
 3142000   0.75033897   -9.2179007    475.64592  0.012615264  0.012243784         3694 
 3143000     0.741019   -9.2197438    475.41928  0.012605241  0.012238297         3680 
 3144000   0.72259647   -9.2189876    475.11855  0.012593261  0.012232808         3734 
 3145000   0.75608024   -9.2030361    475.15733  0.012590284  0.012227323         3718 
 3146000   0.75879086   -9.2052143     475.0858  0.012584388  0.012221848         3719 
 3147000   0.75386305   -9.2082736    476.11858  0.012607737  0.012216368         3697 
 3148000   0.74329604   -9.2414955    475.03551  0.012575061  0.012210892         3752 
 3149000   0.75422862   -9.1998099     476.3645  0.012606237  0.012205423         3757 
 3150000   0.76357407   -9.2054035    475.27748  0.012573478  0.012199958         3731 
 3151000   0.76053835   -9.2247006    476.13033  0.012592043  0.012194492         3725 
 3152000   0.73745019   -9.2253377    475.31392  0.012566464  0.012189038         3735 
 3153000   0.75945846    -9.223925    475.57027  0.012569253  0.012183579         3715 
 3154000   0.76572776   -9.2446828    475.25475  0.012556932  0.012178126         3734 
 3155000   0.75275234   -9.2102512    475.50502  0.012559562  0.012172677         3757 
 3156000   0.72315233   -9.2434434    475.61629  0.012558521   0.01216722         3730 
 3157000   0.73798011   -9.2280163    476.05917  0.012566233  0.012161766         3715 
 3158000   0.75984464   -9.2100369    474.90818  0.012531881  0.012156318         3709 
 3159000   0.74970149    -9.218608    475.39195  0.012540676   0.01215087         3705 
 3160000   0.74416021   -9.2350833    475.09205  0.012528799   0.01214542         3733 
 3161000   0.74255188   -9.2342552    475.59375  0.012538061  0.012139964         3755 
 3162000    0.7414051   -9.2070619    475.71691  0.012537342  0.012134508         3736 
 3163000   0.75411832   -9.2266668    475.42488  0.012525684  0.012129055         3752 
 3164000   0.73816717     -9.23534    475.26324  0.012517469    0.0121236         3719 
 3165000   0.75157629   -9.2506627    474.52071  0.012493963  0.012118147         3736 
 3166000   0.74990079   -9.2221598    474.98964  0.012502359  0.012112699         3743 
 3167000   0.73251041   -9.2390245    473.80278  0.012467182  0.012107249         3730 
 3168000   0.72967877   -9.2259383    475.71252  0.012513482  0.012101796         3753 
 3169000    0.7413938   -9.2521631    474.52431  0.012478287  0.012096348         3762 
 3170000   0.75587616   -9.2577999     474.2401   0.01246688  0.012090908         3759 
 3171000   0.75784731   -9.2487969    474.38126  0.012466658  0.012085465         3727 
 3172000   0.75250192   -9.2610025    474.82045  0.012474266  0.012080023         3756 
 3173000    0.7611709   -9.2318507     475.7928  0.012495871  0.012074587         3756 
 3174000   0.75538758   -9.2518526    475.14538  0.012474936  0.012069154         3711 
 3175000   0.72858767   -9.2572355     474.5259  0.012454748  0.012063718         3789 
 3176000   0.74027875   -9.2652419    475.00137  0.012463302  0.012058292         3767 
 3177000   0.74747203   -9.2481216    474.86751  0.012455868  0.012052864         3734 
 3178000   0.74562377    -9.247371    474.45386  0.012441102  0.012047438         3781 
 3179000   0.74167558   -9.2463734    474.37304   0.01243507  0.012042017         3730 
 3180000   0.74558585   -9.2511195    474.85984  0.012443916  0.012036599         3770 
 3181000   0.73659059   -9.2474501    474.81219  0.012438756  0.012031174         3764 
 3182000   0.73737574   -9.2576897    474.96444  0.012438834   0.01202576         3778 
 3183000   0.73890037   -9.2417138    474.75274  0.012429384  0.012020344         3772 
 3184000   0.73970772   -9.2439861    475.06522  0.012433658  0.012014939         3777 
 3185000   0.75861477   -9.2418758    475.14701  0.012431895  0.012009537         3771 
 3186000   0.72890505   -9.2215167    475.63942  0.012440872  0.012004137         3767 
 3187000   0.74469779      -9.2413    474.39809   0.01240451  0.011998741         3768 
 3188000   0.74084941   -9.2450385    475.88199  0.012439408  0.011993346         3780 
 3189000    0.7471916   -9.2478843    474.10348  0.012389032  0.011987943         3760 
 3190000   0.74770502   -9.2627589    475.09464  0.012411041  0.011982546         3779 
 3191000   0.73113076   -9.2414165    474.44646  0.012390224   0.01197715         3765 
 3192000    0.7350229   -9.2572854    474.89484  0.012398048  0.011971757         3776 
 3193000   0.74020357   -9.2522144    474.84878  0.012392963  0.011966366         3756 
 3194000   0.74464524   -9.2618429    474.94433  0.012391576  0.011960972         3804 
 3195000   0.73969525   -9.2567819    474.76806    0.0123831  0.011955586         3760 
 3196000   0.76092313   -9.2368184    474.31754  0.012367479    0.0119502         3737 
 3197000   0.75485345   -9.2583699    473.89956  0.012352715  0.011944823         3787 
 3198000   0.72891453   -9.2618609    474.06218   0.01235309  0.011939443         3762 
 3199000    0.7334713   -9.2874903    474.42989  0.012358807  0.011934063         3802 
 3200000   0.74694944   -9.2422899    475.17282  0.012374292  0.011928691         3792 
 3201000     0.726677   -9.2417513    473.98059  0.012339389  0.011923313         3806 
 3202000    0.7260626   -9.2768203    474.93378  0.012360342   0.01191794         3806 
 3203000   0.74721667   -9.2553844    474.65898  0.012349333  0.011912568         3797 
 3204000   0.75317941   -9.2668776    475.18333  0.012359117  0.011907201         3777 
 3205000   0.74676562   -9.2700174    474.04486  0.012325659   0.01190183         3797 
 3206000   0.75440483   -9.2633507    474.32354  0.012329059   0.01189647         3795 
 3207000   0.74011688   -9.2775306    474.23075  0.012322803  0.011891113         3792 
 3208000   0.74250702   -9.2503234    475.16407  0.012343206  0.011885765         3758 
 3209000   0.72606362    -9.289569    475.30375  0.012342987  0.011880411         3793 
 3210000   0.72154898     -9.26847    475.19488  0.012336316  0.011875066         3812 
 3211000   0.73740572   -9.2695679    475.30195  0.012335253  0.011869727         3761 
 3212000   0.73465037   -9.2906039     473.4751  0.012284016  0.011864382         3807 
 3213000   0.74849311   -9.2589663    475.50756  0.012332907  0.011859036         3777 
 3214000   0.74307187   -9.2731343    474.16377  0.012294228  0.011853696         3784 
 3215000   0.75433534   -9.2896697    474.00317  0.012286241  0.011848357         3750 
 3216000   0.73071116   -9.2681877    474.66707  0.012299624  0.011843027         3782 
 3217000   0.72858193   -9.2723034    475.34077  0.012313252  0.011837697         3780 
 3218000   0.72818883   -9.2802984    474.06787  0.012276462  0.011832361         3798 
 3219000   0.72927781   -9.2485232    474.26597  0.012277777  0.011827031         3783 
 3220000   0.74337215   -9.2647328    473.96558   0.01226619  0.011821705         3838 
 3221000   0.74769998    -9.286872    473.61577  0.012253331  0.011816386         3801 
 3222000   0.71952377   -9.2647253    474.01151  0.012259764   0.01181107         3796 
 3223000   0.73606974   -9.2821304    474.39646  0.012265913  0.011805754         3811 
 3224000   0.72053634   -9.2741128    474.01832  0.012252334  0.011800439         3820 
 3225000   0.73886969    -9.270741    474.40402  0.012258502   0.01179512         3785 
 3226000   0.73686227   -9.2690831    474.08563  0.012246477  0.011789805         3825 
 3227000   0.74378106   -9.2811808    474.45392  0.012252193  0.011784491         3799 
 3228000   0.72777276   -9.2963041    473.32212  0.012219179  0.011779183         3809 
 3229000   0.73923985   -9.2560182    474.94623   0.01225731  0.011773878         3815 
 3230000   0.74789793   -9.2757309    473.87594  0.012225901  0.011768579         3814 
 3231000   0.72751775   -9.2989032    474.37158  0.012234901  0.011763278         3807 
 3232000   0.72898576   -9.3077516    474.41863  0.012232329  0.011757977         3846 
 3233000   0.71753687   -9.2878122    473.80145  0.012212637   0.01175268         3816 
 3234000   0.72955771   -9.2692107    475.15017  0.012243614  0.011747388         3827 
 3235000   0.73471096   -9.2849154    475.22026  0.012241635  0.011742104         3806 
 3236000   0.72977704   -9.2851405    474.59818  0.012221832  0.011736817         3826 
 3237000   0.73284563   -9.3015458    473.06708   0.01217864   0.01173154         3810 
 3238000   0.73336274    -9.284954    473.77349  0.012193059  0.011726264         3761 
 3239000   0.71251731   -9.2835656    473.19263   0.01217435  0.011720987         3792 
 3240000    0.7458885   -9.2844792    474.28573  0.012198707  0.011715719         3819 
 3241000   0.74809047   -9.2925025    474.29805   0.01219526  0.011710451         3786 
 3242000   0.75368423   -9.2693389    474.74792  0.012203062  0.011705191         3822 
 3243000   0.72807832   -9.2995773     473.6676  0.012171539  0.011699928         3829 
 3244000   0.73206197   -9.3095104    474.00836   0.01217654  0.011694667         3805 
 3245000   0.73590816   -9.3119783    474.31436  0.012180646  0.011689402         3779 
 3246000    0.7237764   -9.2817202    473.69526     0.012161  0.011684148         3801 
 3247000   0.72201585   -9.2850785    474.88836  0.012187875  0.011678894         3798 
 3248000   0.72513347   -9.2759177    474.24364  0.012167581  0.011673641         3798 
 3249000   0.71682649   -9.2865303    474.67964  0.012175019  0.011668401         3821 
 3250000   0.71869585   -9.2914095    474.90556  0.012177066   0.01166315         3816 
 3251000    0.7303794   -9.2935637    474.42748  0.012161065  0.011657905         3778 
 3252000   0.71901767   -9.3049821      473.684  0.012138274  0.011652664         3813 
 3253000    0.7130628   -9.2829788    476.09661  0.012196347  0.011647424         3807 
 3254000   0.72660326    -9.290001    474.46714  0.012150869  0.011642187         3809 
 3255000   0.71797468   -9.2840828    475.08125  0.012162858  0.011636954         3799 
 3256000   0.71982366   -9.2996551    473.79044  0.012126086   0.01163172         3811 
 3257000   0.73004884   -9.2727323    474.66976  0.012144861  0.011626491         3786 
 3258000   0.71919168   -9.2816105    473.26833  0.012105288  0.011621269         3799 
 3259000   0.74364488   -9.3082078    473.23359  0.012100685  0.011616052         3793 
 3260000   0.72478535   -9.2864547    474.92492  0.012140208  0.011610823         3827 
 3261000   0.72083726   -9.2862285    473.92743  0.012110994  0.011605608         3826 
 3262000    0.7174432   -9.3087647    474.36003  0.012118333    0.0116004         3781 
 3263000   0.73105999   -9.2785871    474.63147  0.012121551  0.011595189         3814 
 3264000   0.72764516   -9.3288303     473.4237  0.012087002  0.011589983         3834 
 3265000   0.72076096   -9.2993391    474.36407  0.012107302  0.011584766         3830 
 3266000   0.72363553   -9.3316163    472.94303  0.012067336  0.011579552         3826 
 3267000   0.73269345   -9.3110786    473.97121  0.012089869  0.011574344         3821 
 3268000   0.72949076   -9.3119167    473.85347  0.012083167  0.011569131         3828 
 3269000   0.73801159    -9.304515    473.28696  0.012065029  0.011563932         3821 
 3270000   0.73893796   -9.3294565    474.23556  0.012085514  0.011558733         3834 
 3271000   0.73263454   -9.2900207    473.55153  0.012064392  0.011553529         3804 
 3272000   0.74715224   -9.3173898    473.59505  0.012061814  0.011548333         3832 
 3273000   0.72794344   -9.3057854    473.75321  0.012062155  0.011543141         3822 
 3274000   0.72461239   -9.3011266    473.63295   0.01205541  0.011537947         3833 
 3275000   0.72450384   -9.3104736     473.7188  0.012053913  0.011532761         3830 
 3276000   0.74307641   -9.3447543     474.3295  0.012065769  0.011527582         3834 
 3277000   0.72442184   -9.3212042    474.06193  0.012055283  0.011522405         3831 
 3278000   0.73161478   -9.3191464    473.54318  0.012038417  0.011517231         3849 
 3279000   0.72749525     -9.31229    474.28975  0.012053719  0.011512062         3836 
 3280000   0.72844249   -9.3226289      473.813  0.012037932  0.011506887         3818 
 3281000   0.72858011   -9.3148726    474.31064  0.012046902  0.011501722         3822 
 3282000   0.72915745   -9.3034373    473.53014  0.012023414  0.011496551         3790 
 3283000   0.71499076   -9.3158001    474.18908  0.012036478  0.011491383         3847 
 3284000   0.72471914   -9.3092521    473.47279  0.012014636  0.011486217         3804 
 3285000    0.7423617   -9.3271964    473.85543  0.012020686  0.011481047         3819 
 3286000   0.71824435   -9.3441141    473.61529  0.012010938  0.011475883         3839 
 3287000   0.71357798   -9.3283747    474.55564  0.012031124  0.011470726         3826 
 3288000   0.72074339   -9.3387738    474.35109   0.01202228  0.011465573         3814 
 3289000   0.72343807   -9.3199398    473.40527  0.011994661  0.011460421         3855 
 3290000   0.70743185   -9.3209804     473.7628  0.012000071  0.011455272         3822 
 3291000   0.71381622    -9.311908    473.43748  0.011988187  0.011450131         3839 
 3292000   0.73155701   -9.3195996    473.55981  0.011987642   0.01144499         3847 
 3293000   0.72385672   -9.3381797    473.14086    0.0119734  0.011439849         3861 
 3294000   0.73364998   -9.3176262    474.10018  0.011994034  0.011434711         3836 
 3295000   0.71138538   -9.3291265    474.69433  0.012005421  0.011429576         3837 
 3296000   0.73290232   -9.3319486    473.07516   0.01196084  0.011424446         3797 
 3297000   0.72453016   -9.3279993    472.75064   0.01194901  0.011419318         3833 
 3298000   0.73727458   -9.3341606    472.76615  0.011945779  0.011414188         3830 
 3299000   0.72971439    -9.300516    474.09671  0.011975768  0.011409069         3793 
 3300000   0.73036462   -9.3457082     473.6971  0.011962048  0.011403942         3816 
 3301000   0.72766499   -9.3120252    473.56878  0.011955185  0.011398816         3829 
 3302000   0.73001863   -9.3228935    473.74253  0.011955949  0.011393697         3840 
 3303000    0.7177668   -9.3243802    473.19171  0.011938432  0.011388579         3873 
 3304000   0.70985423   -9.3216773    474.30684  0.011962945   0.01138346         3829 
 3305000   0.72571619   -9.3457197    473.20724    0.0119316  0.011378349         3837 
 3306000   0.74082848   -9.3090391    474.10876  0.011950715  0.011373241         3818 
 3307000   0.72175395   -9.3082787    474.04735  0.011945554  0.011368129         3844 
 3308000   0.74410173   -9.3201742    473.17846  0.011920054  0.011363024         3830 
 3309000    0.6999882   -9.3563709    472.47903  0.011898837  0.011357919         3844 
 3310000   0.72566318   -9.3045183     473.9025   0.01193108  0.011352816         3839 
 3311000    0.7216881   -9.3381934    472.78361  0.011899316   0.01134772         3850 
 3312000   0.70708165    -9.313899    473.29736  0.011908649  0.011342617         3833 
 3313000   0.71440047   -9.3245878    473.21467  0.011902975  0.011337519         3858 
 3314000   0.70960206   -9.3135608    473.83669  0.011915024  0.011332424         3834 
 3315000   0.72787883   -9.3364279    473.55953  0.011904463   0.01132734         3835 
 3316000   0.70879877   -9.3145546    473.35644  0.011895769  0.011322252         3839 
 3317000   0.72480285    -9.338069    473.57166   0.01189759  0.011317169         3853 
 3318000   0.73058403   -9.3137536    474.12671  0.011907944  0.011312091         3843 
 3319000   0.72424175   -9.3327641    473.43826  0.011887071  0.011307019         3853 
 3320000   0.71893374   -9.3435001    473.83839  0.011893534  0.011301946         3842 
 3321000   0.73112125   -9.3366325    473.88265  0.011891063  0.011296872         3828 
 3322000   0.73030445   -9.3402585    473.01847  0.011865806  0.011291805         3839 
 3323000   0.71574892   -9.3520549    472.91683  0.011859686  0.011286736         3870 
 3324000   0.74243881   -9.3283991      473.467  0.011869911  0.011281669         3847 
 3325000   0.72391942    -9.341555    472.51629  0.011842514  0.011276614         3844 
 3326000     0.731288   -9.3494357    472.33117  0.011834315  0.011271553         3867 
 3327000   0.72816777   -9.3626777    472.64377  0.011838588  0.011266493         3843 
 3328000    0.7253386   -9.3421892    472.94995  0.011842697  0.011261437         3830 
 3329000   0.71517942   -9.3457706    473.54029  0.011853917  0.011256374         3812 
 3330000   0.72629305   -9.3418378    472.36898  0.011821046  0.011251317         3827 
 3331000   0.72604681   -9.3319547    473.19321  0.011838117  0.011246274         3861 
 3332000   0.69992512   -9.3283823    473.21901  0.011835209  0.011241233         3846 
 3333000   0.71995342    -9.332118    473.33553  0.011834572  0.011236188         3822 
 3334000   0.73256959   -9.3391327     474.2969  0.011855052   0.01123115         3854 
 3335000   0.70664682   -9.3510596    473.18328   0.01182367  0.011226112         3818 
 3336000   0.71431581   -9.3104034    473.69025   0.01183279  0.011221077         3848 
 3337000   0.71649489   -9.3388893    473.72867  0.011830204  0.011216048         3844 
 3338000    0.7153967   -9.3270771    472.79864  0.011803441  0.011211016         3863 
 3339000   0.71978657   -9.3340327    473.10248  0.011807489  0.011205988         3847 
 3340000   0.72295687    -9.331761    472.98148  0.011800935  0.011200963         3839 
 3341000   0.70228567   -9.3286442    473.39284  0.011807663  0.011195945         3826 
 3342000   0.73083079   -9.3459376    472.91644  0.011792251  0.011190926         3850 
 3343000   0.72059557   -9.3356038    473.19075  0.011795562  0.011185909         3834 
 3344000   0.70394186   -9.3450778    473.21163  0.011792555  0.011180897         3857 
 3345000   0.74506157   -9.3610516    472.94303  0.011782337  0.011175881         3854 
 3346000   0.71968484    -9.352725    473.69315  0.011797498  0.011170866         3859 
 3347000   0.71980612   -9.3189965    473.48535    0.0117888   0.01116586         3859 
 3348000   0.72444956    -9.365839    473.23984  0.011779168  0.011160857         3827 
 3349000   0.70857593   -9.3393388      473.478  0.011781577  0.011155853         3841 
 3350000   0.72946689    -9.352414    472.55353  0.011755063   0.01115085         3837 
 3351000   0.71332664   -9.3332913    472.86475  0.011759294  0.011145854         3844 
 3352000   0.70977085    -9.347477    472.44068  0.011745244  0.011140857         3856 
 3353000    0.7156391   -9.3383206    472.67123  0.011747471  0.011135861         3843 
 3354000   0.70903896   -9.3651355    471.40306  0.011712459  0.011130868         3842 
 3355000   0.71452488   -9.3273413    473.06412  0.011750226  0.011125884         3846 
 3356000   0.72018598   -9.3547895    473.10118  0.011747646  0.011120897         3834 
 3357000   0.70254631   -9.3411438    472.95948  0.011740628  0.011115914         3845 
 3358000   0.72273883   -9.3332541    473.14528  0.011741743   0.01111094         3808 
 3359000   0.70978257   -9.3607913    471.91665  0.011707766  0.011105968         3852 
 3360000   0.72442141   -9.3452809    472.44327  0.011717343  0.011101002         3835 
 3361000   0.70692735    -9.387138    471.63099  0.011693717  0.011096038         3881 
 3362000    0.6975805   -9.3464828    472.98385  0.011723772   0.01109107         3840 
 3363000   0.71482187   -9.3684712    472.30693  0.011703512   0.01108611         3888 
 3364000   0.70356924   -9.3598216    471.33053  0.011675845   0.01108115         3851 
 3365000   0.72546988   -9.3740125    473.04551  0.011714847  0.011076192         3849 
 3366000   0.70313253   -9.3401931    473.10763  0.011712904  0.011071242         3843 
 3367000   0.71164333   -9.3569316    472.51982  0.011694877  0.011066291         3865 
 3368000   0.70996673   -9.3634477    472.15684  0.011682424   0.01106134         3842 
 3369000   0.70287518   -9.3481716    472.82264  0.011695425  0.011056391         3838 
 3370000   0.70407989   -9.3501462    473.72692  0.011714315  0.011051452         3841 
 3371000   0.70951696   -9.3341175    472.62083  0.011683497  0.011046507         3857 
 3372000   0.71555197   -9.3338411    473.19684  0.011694268  0.011041564         3846 
 3373000   0.71129579   -9.3876357     472.9779  0.011685391  0.011036623         3839 
 3374000   0.71304147   -9.3633682    472.26251  0.011664259  0.011031681         3862 
 3375000    0.7079086   -9.3344877    472.53846  0.011667616  0.011026751         3838 
 3376000   0.71619943   -9.3589384    473.24098  0.011681501  0.011021818         3851 
 3377000   0.70545189   -9.3738129    473.12585  0.011675201  0.011016889         3845 
 3378000    0.7009753   -9.3551804    472.77193  0.011663014  0.011011962         3856 
 3379000   0.70779665   -9.3664328    472.52452  0.011653461   0.01100704         3858 
 3380000   0.72076746   -9.3895924    471.69782  0.011629631   0.01100212         3873 
 3381000   0.69878439   -9.3532456    472.74257  0.011651941  0.010997205         3854 
 3382000   0.72868928    -9.347243    472.51363  0.011642855  0.010992293         3880 
 3383000   0.70340609   -9.3666519     472.5178  0.011639516  0.010987376         3865 
 3384000   0.69855662   -9.3631224    473.15599  0.011651792  0.010982469         3860 
 3385000   0.72098708   -9.3810353    472.38296  0.011629319  0.010977564         3859 
 3386000   0.70786834   -9.3623477    473.42669  0.011651572  0.010972657         3829 
 3387000   0.71325435   -9.3711375    472.46249  0.011624409  0.010967761         3819 
 3388000   0.70089782    -9.351893     472.8176  0.011629713  0.010962862         3835 
 3389000   0.71375344   -9.3826059    471.88277  0.011603294  0.010957967         3864 
 3390000   0.70857504   -9.3591302    472.36411  0.011611704  0.010953076         3853 
 3391000   0.70675595   -9.3603851    473.58111  0.011638187  0.010948186         3835 
 3392000   0.70422855   -9.3791304    471.96211  0.011594981   0.01094329         3866 
 3393000   0.70892975   -9.3709026    472.35236  0.011601148  0.010938404         3869 
 3394000   0.69423041   -9.3883935    471.93893  0.011587579  0.010933521         3876 
 3395000   0.70099575   -9.3659437    471.75434  0.011579635  0.010928641         3867 
 3396000   0.71085096   -9.3511992    473.12204  0.011609787  0.010923761         3845 
 3397000   0.70928449   -9.3658665    472.07011  0.011580564  0.010918878         3861 
 3398000   0.73009623   -9.3706029    472.39594  0.011585147  0.010914004         3871 
 3399000    0.7149043   -9.3822446    471.89764  0.011569521  0.010909136         3861 
 3400000   0.70186932   -9.3801004    472.31386   0.01157632  0.010904266         3846 
 3401000   0.70336465   -9.3755882    472.49029  0.011577239  0.010899397         3845 
 3402000   0.70650105   -9.3959245    472.24055  0.011567719  0.010894526         3870 
 3403000   0.72456543   -9.3766167    472.08978  0.011560627  0.010889662         3826 
 3404000   0.69543423    -9.388737    472.25033  0.011561162  0.010884801         3848 
 3405000   0.70673612   -9.3736779    472.86587  0.011572831  0.010879945         3855 
 3406000   0.72298907   -9.3574308    472.66017    0.0115644  0.010875092         3827 
 3407000   0.70205029   -9.3850251    472.85401  0.011565747  0.010870244         3846 
 3408000   0.69855232   -9.3645722    472.01821  0.011541916    0.0108654         3880 
 3409000   0.69588341   -9.3916709    472.14354  0.011541594  0.010860554         3887 
 3410000   0.72101993   -9.3886865    471.79035  0.011529578  0.010855703         3898 
 3411000   0.72274623   -9.3845862    472.41807  0.011541534  0.010850858         3870 
 3412000   0.72401456   -9.3830909    472.90231  0.011549978  0.010846013         3878 
 3413000     0.709184   -9.3666175    472.61558  0.011539593   0.01084117         3872 
 3414000    0.6977875   -9.4059528    471.51039  0.011509236  0.010836326         3891 
 3415000   0.71853106   -9.3783459    471.87053  0.011514654  0.010831486         3892 
 3416000   0.70225034   -9.4025847    472.91693   0.01153681  0.010826653         3872 
 3417000   0.71084719   -9.3816217    472.40203  0.011520877  0.010821818         3888 
 3418000   0.71538805   -9.3827434    472.22589  0.011513212  0.010816988         3865 
 3419000   0.72638354   -9.3749087    471.88334  0.011501495  0.010812161         3846 
 3420000   0.71665285   -9.3802928    471.52486  0.011489397  0.010807335         3867 
 3421000   0.69047312   -9.3724807    471.97015  0.011496886  0.010802514         3901 
 3422000   0.69447876   -9.3825045    472.09032  0.011496452  0.010797698         3861 
 3423000     0.701987   -9.3904012    470.46018  0.011453408  0.010792886         3872 
 3424000    0.7116357   -9.3778493    471.00009  0.011463203  0.010788069         3862 
 3425000   0.69909759    -9.391228    471.69745  0.011476824  0.010783259         3851 
 3426000   0.70516853   -9.3583336    472.05171  0.011482091  0.010778454         3869 
 3427000   0.69988795   -9.3954444    471.87691  0.011474489   0.01077365         3854 
 3428000   0.70488504   -9.3801098    471.66927  0.011466095  0.010768846         3862 
 3429000   0.69374883   -9.3977864    472.12176  0.011473748  0.010764047         3860 
 3430000   0.69438767   -9.3959854    472.17421  0.011471677  0.010759251         3883 
 3431000   0.68860381   -9.4071141    472.01195  0.011464392  0.010754449         3898 
 3432000   0.69775461   -9.3840649    472.52752   0.01147357  0.010749657         3850 
 3433000    0.7037697   -9.3974316    472.33634  0.011465587  0.010744861         3882 
 3434000   0.70032319   -9.3752425    471.86054  0.011450702  0.010740077         3865 
 3435000   0.70852513     -9.38551      471.927  0.011448981  0.010735295         3873 
 3436000   0.69034808   -9.3989664    471.52164  0.011435818  0.010730511         3873 
 3437000   0.70343294   -9.4088577    471.59466  0.011434261  0.010725726         3864 
 3438000   0.70372769   -9.3829198    472.75429  0.011459043  0.010720952         3861 
 3439000   0.69340043   -9.3803026     472.5617  0.011451044  0.010716172         3870 
 3440000   0.70445972   -9.3994225    472.33789  0.011442294  0.010711398         3877 
 3441000    0.7146485   -9.3989756    471.99566   0.01143068  0.010706627         3871 
 3442000   0.72070741   -9.4087452    471.72766  0.011420871  0.010701861         3881 
 3443000   0.70776021   -9.3919374    471.28666   0.01140688    0.0106971         3874 
 3444000   0.69324095   -9.3926668    473.01019  0.011445272  0.010692341         3883 
 3445000   0.70258948   -9.3886507    471.97755   0.01141697  0.010687581         3849 
 3446000   0.70517774   -9.4048503    471.91054  0.011412037  0.010682826         3875 
 3447000    0.7040268   -9.4002443    471.90642  0.011408626  0.010678074         3861 
 3448000   0.68761594   -9.3968753    472.16273  0.011411512  0.010673314         3881 
 3449000   0.70536473   -9.4071607    471.56673  0.011393803  0.010668559         3877 
 3450000   0.68499978   -9.3907373    471.90186  0.011398596  0.010663806         3876 
 3451000   0.71948956   -9.3955448    471.28405  0.011380374  0.010659056         3893 
 3452000   0.69130103   -9.3864249    470.83206  0.011366166  0.010654309         3882 
 3453000    0.6988208   -9.4012829     472.7828  0.011409953  0.010649571         3891 
 3454000   0.71154757   -9.3971365    472.24782  0.011393742  0.010644832         3859 
 3455000   0.69397337   -9.3734353    473.19503  0.011413291  0.010640101         3860 
 3456000   0.69500929   -9.3985169    472.21599  0.011386381   0.01063537         3864 
 3457000   0.68999854   -9.4243479    471.83656  0.011373941   0.01063064         3896 
 3458000   0.70770556   -9.3881886    471.16309  0.011354422  0.010625909         3863 
 3459000   0.69873805   -9.4006708    471.93845  0.011369819  0.010621182         3872 
 3460000   0.68804874    -9.392831    471.44603  0.011354673  0.010616463         3896 
 3461000   0.71501902   -9.3890054    472.61721  0.011379592  0.010611744         3897 
 3462000    0.7010345   -9.3919345    471.54951  0.011350604  0.010607027         3895 
 3463000   0.68592524    -9.421132    470.74372  0.011327936  0.010602307         3878 
 3464000    0.6950848    -9.390071    470.86247  0.011327523  0.010597592         3874 
 3465000   0.69657595   -9.3875983    471.41852  0.011337627  0.010592884         3866 
 3466000   0.70578817   -9.4123814    471.91928  0.011346395  0.010588173         3853 
 3467000   0.69805619   -9.4145299    471.68686  0.011337536  0.010583463         3878 
 3468000   0.69929834   -9.4231973    472.29774  0.011348946  0.010578763         3885 
 3469000   0.69516089   -9.3811786    472.14975   0.01134212  0.010574062         3885 
 3470000   0.69707294   -9.3867137    471.50685  0.011323411  0.010569364         3895 
 3471000   0.69087626   -9.3889241    471.78281  0.011326774  0.010564667         3866 
 3472000    0.7076101   -9.3970973    472.26783  0.011335153  0.010559975         3892 
 3473000   0.69556697   -9.4001372     471.9194  0.011323529  0.010555286         3890 
 3474000   0.69596867   -9.3892655    471.64133  0.011313599  0.010550599         3859 
 3475000    0.7039919   -9.3859603    471.90076  0.011316565  0.010545911         3884 
 3476000   0.68267343   -9.4116404    471.76167  0.011309975  0.010541229         3899 
 3477000   0.68557251   -9.3972451    471.14425  0.011291924  0.010536547         3873 
 3478000   0.70484352   -9.4293525    471.06691  0.011286825   0.01053187         3884 
 3479000   0.69367362   -9.4062443    471.11181  0.011284656  0.010527199         3872 
 3480000   0.70081156   -9.3881743    471.47578  0.011290129  0.010522521         3884 
 3481000   0.70841132   -9.4088991    471.84648   0.01129576   0.01051785         3870 
 3482000   0.69637409   -9.4127034    472.81694  0.011315741  0.010513185         3890 
 3483000   0.67381018   -9.4071384    471.86616  0.011289745  0.010508518         3870 
 3484000   0.69423721   -9.3892232    472.72844  0.011307129  0.010503855         3878 
 3485000   0.69674488   -9.4139267    471.50225  0.011274564  0.010499194         3857 
 3486000   0.70857771   -9.4151701    472.74115  0.011300945  0.010494539         3870 
 3487000   0.69004486    -9.393173    471.30163  0.011263302  0.010489885         3882 
 3488000   0.68974955   -9.3846396    471.73957  0.011270536  0.010485237         3872 
 3489000    0.6958718   -9.3824569    471.48695  0.011261272  0.010480588         3880 
 3490000    0.6862103   -9.4017748    470.90398  0.011244126  0.010475947         3879 
 3491000   0.69758825     -9.41754    471.69381  0.011259759  0.010471305         3885 
 3492000     0.679054   -9.3761345    472.42725  0.011274037  0.010466662         3864 
 3493000   0.68967855    -9.400818    470.78011  0.011231513  0.010462024         3885 
 3494000   0.70706577   -9.4040891    471.68876   0.01124997  0.010457384         3881 
 3495000    0.7023509   -9.3970529     472.2905  0.011261099  0.010452752         3866 
 3496000   0.69016773   -9.4193635    471.87006  0.011247856  0.010448122         3883 
 3497000   0.69557183   -9.4164913    471.84531   0.01124405  0.010443492         3884 
 3498000   0.70026834   -9.4376771    471.28884  0.011227579  0.010438865         3897 
 3499000   0.70159005   -9.4141066    471.66049  0.011233221  0.010434239         3900 
 3500000   0.67772072   -9.4155472    472.17918  0.011242361  0.010429618         3886 
 3501000   0.69219844   -9.4195044    471.25024  0.011217039  0.010425001         3904 
 3502000   0.66680075   -9.4016211    471.75919  0.011225947  0.010420383         3889 
 3503000   0.70202919   -9.4238703    471.94004  0.011227044  0.010415765         3864 
 3504000   0.69972402   -9.4059114    471.55811  0.011214757  0.010411155         3890 
 3505000   0.68954616   -9.3912585    471.59935  0.011212538  0.010406547         3879 
 3506000    0.6873413   -9.3930738    471.41721  0.011205011  0.010401938         3877 
 3507000   0.68895901   -9.4102651    471.08963  0.011194032  0.010397331         3878 
 3508000   0.69656313   -9.4391114    471.23943  0.011194399   0.01039273         3890 
 3509000   0.67826596   -9.4112245    471.86236  0.011206003  0.010388127         3889 
 3510000   0.69295509   -9.4311591    471.14625  0.011185808  0.010383532         3907 
 3511000   0.68133713   -9.4087177    471.02222  0.011179679  0.010378939         3902 
 3512000   0.69522527   -9.4050764     471.2567  0.011182059  0.010374346         3890 
 3513000   0.70352865   -9.4224778    471.49923  0.011184629  0.010369752         3889 
 3514000   0.69573185   -9.4248622     470.9544  0.011168526  0.010365162         3889 
 3515000   0.68580218   -9.4320312    471.05997  0.011167851  0.010360575         3862 
 3516000    0.6718662   -9.4411551    472.04052  0.011187915   0.01035599         3879 
 3517000   0.69176988   -9.4313324    471.18057  0.011164358  0.010351406         3896 
 3518000   0.69839302   -9.4299937    471.46854  0.011168006  0.010346835         3883 
 3519000   0.68313011   -9.4090997    471.52345  0.011166133  0.010342259         3879 
 3520000   0.67602544   -9.4119384    471.53954  0.011163341  0.010337687         3896 
 3521000   0.67345796   -9.4122474    471.75291  0.011165221  0.010333112         3892 
 3522000   0.69383517   -9.4202577      471.434  0.011154505  0.010328545         3871 
 3523000   0.68443691   -9.4398896     471.2065  0.011145957  0.010323973         3880 
 3524000   0.68596963   -9.4021805    471.48953  0.011149488  0.010319411         3897 
 3525000   0.68341747   -9.4214479    471.91613   0.01115641   0.01031485         3864 
 3526000   0.69175943   -9.4042786    471.56791  0.011145016  0.010310291         3888 
 3527000   0.68162667   -9.4306313    471.93106  0.011150436  0.010305737         3862 
 3528000   0.67129175   -9.4437238    471.86421  0.011145697  0.010301184         3871 
 3529000   0.69233816   -9.4168613    471.06816   0.01112374  0.010296635         3872 
 3530000    0.6762644   -9.4011092     471.6079  0.011133331  0.010292085         3859 
 3531000   0.68928683   -9.4273464    471.29692  0.011122839  0.010287543         3887 
 3532000   0.69546634   -9.4303019    471.01557  0.011113051     0.010283         3893 
 3533000   0.68439425   -9.4559535    471.29023  0.011116384  0.010278458         3910 
 3534000   0.67826763   -9.4467881    470.99196  0.011106206  0.010273917         3881 
 3535000   0.67552093   -9.4340866    470.82376  0.011099098   0.01026938         3895 
 3536000   0.68095211   -9.4018848    472.05638  0.011125009  0.010264846         3885 
 3537000   0.69439538   -9.4224391    471.39516  0.011106285  0.010260313         3891 
 3538000   0.69416578   -9.4417647    471.92783  0.011115692  0.010255788         3878 
 3539000   0.66925449   -9.4327591    471.81681  0.011109937  0.010251263         3862 
 3540000   0.68544614   -9.4065295    471.69913  0.011104028  0.010246744         3871 
 3541000   0.68337062   -9.4277703    471.04644  0.011085532  0.010242225         3895 
 3542000    0.6758408   -9.4122709    471.69254  0.011097604  0.010237709         3877 
 3543000   0.68961367   -9.4187264    471.60916   0.01109251  0.010233194         3877 
 3544000   0.69062073   -9.4390646    469.99693   0.01105147  0.010228682         3882 
 3545000   0.66859855   -9.4539547    470.66137  0.011063972  0.010224171         3883 
 3546000   0.67894433   -9.4260171    471.36718  0.011077439  0.010219666         3863 
 3547000   0.70702935   -9.4180167    471.54648  0.011078528  0.010215166         3878 
 3548000   0.68236278   -9.4278424    471.79309  0.011081198  0.010210669         3880 
 3549000   0.66857733   -9.4411055    471.63138  0.011074279   0.01020617         3877 
 3550000   0.67862361   -9.4114404    471.41183  0.011066005  0.010201673         3878 
 3551000   0.67649681     -9.42433    471.86849  0.011073606  0.010197179         3880 
 3552000   0.68854644   -9.4308804     472.0142  0.011073907  0.010192693         3874 
 3553000   0.69086445   -9.4388333     471.1429  0.011050354    0.0101882         3863 
 3554000    0.6828534    -9.422051      470.376  0.011029263  0.010183713         3892 
 3555000   0.67109408   -9.4182663    470.54856  0.011030205  0.010179229         3889 
 3556000   0.67221786   -9.4339051    471.48013  0.011048935  0.010174752         3879 
 3557000   0.67806582    -9.429074    471.66552  0.011050171  0.010170275         3868 
 3558000   0.67105731   -9.4378591    470.19859  0.011012708  0.010165796         3881 
 3559000   0.69190037   -9.4629406    470.53941  0.011017594  0.010161319         3881 
 3560000   0.67485753   -9.4306414    471.41215  0.011034929  0.010156846         3876 
 3561000   0.68041403   -9.4200913    472.31384  0.011052931  0.010152377         3890 
 3562000   0.68740901   -9.4407234    470.46654   0.01100661  0.010147907         3890 
 3563000   0.67098731   -9.4341218    470.93172  0.011014401   0.01014344         3876 
 3564000   0.67136838   -9.4248267    471.78306  0.011031216  0.010138976         3872 
 3565000   0.68589547   -9.4366223    471.17992  0.011014023  0.010134515         3886 
 3566000   0.67249004   -9.4218706    470.66606  0.010998927  0.010130056         3884 
 3567000   0.69743575   -9.4364694     471.7736  0.011021718  0.010125606         3874 
 3568000   0.68285224      -9.4016     470.8288  0.010996562  0.010121156         3849 
 3569000   0.68873449   -9.4131919    471.66246  0.011012946   0.01011671         3870 
 3570000   0.67457827   -9.4281716    470.65916  0.010986442  0.010112262         3871 
 3571000    0.6607815   -9.4178896    472.36767  0.011023235  0.010107816         3843 
 3572000   0.67661729   -9.4329547    471.11428  0.010990908  0.010103371         3884 
 3573000   0.66675918    -9.435833    471.64081  0.011000112   0.01009893         3892 
 3574000   0.67252699   -9.4506935    470.99727  0.010982029   0.01009449         3883 
 3575000   0.68275946   -9.4302776    471.93315  0.011000773  0.010090053         3868 
 3576000   0.66811032   -9.4132374    471.42151  0.010985773  0.010085624         3859 
 3577000    0.6798609   -9.4468665    470.19878  0.010954216  0.010081196         3895 
 3578000   0.68376226   -9.4216625     469.7501  0.010940705  0.010076768         3885 
 3579000    0.6707939    -9.439807    471.69436  0.010982918   0.01007234         3900 
 3580000   0.68611257   -9.4280683    471.58455  0.010977294  0.010067916         3846 
 3581000   0.67117331   -9.4467106    471.66448  0.010976089  0.010063499         3879 
 3582000   0.67642274   -9.4261734     471.8553  0.010977464  0.010059076         3862 
 3583000   0.68178484   -9.4374137    471.62459  0.010969034   0.01005466         3874 
 3584000   0.67372722   -9.4178379     472.1865  0.010979039  0.010050247         3874 
 3585000   0.67634849   -9.4551369    470.27671  0.010931583  0.010045835         3882 
 3586000   0.69530086   -9.4198815    472.02895  0.010969254  0.010041425         3851 
 3587000   0.67690974   -9.4358975     471.7962  0.010960789  0.010037027         3862 
 3588000   0.67028772   -9.4495324    471.30734   0.01094638   0.01003262         3856 
 3589000   0.67295677    -9.405841    471.11578  0.010938882   0.01002822         3863 
 3590000   0.67923432   -9.4314044    471.50745  0.010944927   0.01002382         3860 
 3591000   0.67291383   -9.4235779    469.92205  0.010905088  0.010019422         3869 
 3592000   0.66251898   -9.4352821    471.13096  0.010930098  0.010015024         3881 
 3593000   0.67229436   -9.4326409    470.92217  0.010922214  0.010010635         3880 
 3594000   0.67161875    -9.401968    471.91632  0.010942226   0.01000625         3841 
 3595000   0.67040798   -9.4451415    471.15051  0.010921431  0.010001868         3872 
 3596000    0.6743666   -9.4324265    470.10704  0.010894212 0.0099974858         3878 
 3597000   0.67892014    -9.446313    470.92178  0.010910059 0.0099931044         3879 
 3598000   0.66468385   -9.4584268     470.6946  0.010901765 0.0099887287         3888 
 3599000     0.700406   -9.4328088    472.17672  0.010933054 0.0099843571         3866 
 3600000   0.66575345   -9.4486407    471.07992  0.010904628 0.0099799852         3860 
 3601000    0.6666388   -9.4371749    470.47015  0.010887488 0.0099756153         3870 
 3602000     0.675391   -9.4447172    471.14544  0.010900089 0.0099712496         3872 
 3603000   0.65969382   -9.4186515    472.24621  0.010922523 0.0099668835         3850 
 3604000    0.6740959   -9.4510143    470.59103  0.010881221 0.0099625179         3860 
 3605000   0.66704855   -9.4156896    471.29044   0.01089437 0.0099581553         3875 
 3606000   0.67372107   -9.4686459    470.89942  0.010882312 0.0099537944         3871 
 3607000   0.67255857   -9.4610288    470.91682  0.010879697 0.0099494347         3850 
 3608000   0.66304865    -9.469923    470.49877  0.010867026 0.0099450788         3852 
 3609000   0.66721626    -9.444368    469.90923  0.010850402 0.0099407254         3865 
 3610000   0.65191916    -9.439684    470.29648  0.010856336 0.0099363746         3856 
 3611000   0.68389837    -9.452257    470.25578   0.01085239 0.0099320251         3858 
 3612000   0.67839357   -9.4193967     470.5209  0.010855503 0.0099276799         3842 
 3613000   0.66799556   -9.4505589    471.09455  0.010865729 0.0099233398         3868 
 3614000   0.67837079   -9.4233411    471.07829  0.010862348 0.0099190046         3855 
 3615000   0.67764249   -9.4371234     471.3346  0.010865251 0.0099146686         3844 
 3616000   0.68370727   -9.4570442     470.6619  0.010846744 0.0099103297         3836 
 3617000    0.6649908   -9.4462411    470.33291  0.010836165 0.0099059995         3873 
 3618000    0.6966104   -9.4333687    470.83378  0.010844707 0.0099016689         3853 
 3619000    0.6697879   -9.4521596    470.09076  0.010824601  0.009897342         3862 
 3620000    0.6656946   -9.4506887    471.31616   0.01084982  0.009893018         3878 
 3621000   0.67305839   -9.4590571    470.67804  0.010832138  0.009888695         3839 
 3622000   0.66951705   -9.4281897    470.56519   0.01082655 0.0098843734         3856 
 3623000   0.66030453   -9.4801903     471.0533  0.010834789 0.0098800518         3845 
 3624000   0.66514029   -9.4587651    471.53774  0.010842939  0.009875729         3862 
 3625000   0.66810306   -9.4427666    470.67951  0.010820219 0.0098714121         3859 
 3626000   0.67240201   -9.4488029    470.61035  0.010815645 0.0098670984         3876 
 3627000   0.66490595   -9.4527467    471.36272  0.010829949 0.0098627885         3872 
 3628000   0.67403848   -9.4382134    470.57352  0.010808837 0.0098584804         3847 
 3629000   0.66367973   -9.4348994    471.53512   0.01082794 0.0098541761         3859 
 3630000   0.66683564   -9.4515967    469.91152  0.010787684 0.0098498671         3889 
 3631000   0.66130268   -9.4549506    470.76332  0.010804262  0.009845566         3858 
 3632000   0.66936231   -9.4618011    471.31199  0.010813876 0.0098412667         3876 
 3633000   0.67979014   -9.4765446    469.92225  0.010779022 0.0098369714         3862 
 3634000   0.67553767   -9.4419963     471.3693  0.010809239 0.0098326783         3867 
 3635000   0.66895134    -9.428803    470.67069   0.01079025 0.0098283898         3862 
 3636000   0.67436226   -9.4362902    470.68092  0.010787516 0.0098241036         3882 
 3637000   0.66117247   -9.4568189    470.58342  0.010782316 0.0098198196         3869 
 3638000   0.65769643   -9.4582245    470.39295   0.01077499 0.0098155357         3886 
 3639000   0.67280729   -9.4448559    470.26892  0.010769189 0.0098112579         3871 
 3640000   0.67038516   -9.4457256    470.73233  0.010776839  0.009806978         3870 
 3641000   0.66561754   -9.4492678    470.87414  0.010777125 0.0098027035         3855 
 3642000    0.6662583   -9.4634363    470.14407  0.010757461 0.0097984273         3864 
 3643000   0.66357767    -9.447453    469.94218   0.01074989 0.0097941573         3867 
 3644000   0.65391544   -9.4187027    471.33396  0.010778768 0.0097898914         3857 
 3645000   0.65880564   -9.4563441    471.19291  0.010772586 0.0097856222         3856 
 3646000    0.6629513   -9.4596452    470.53831   0.01075467 0.0097813615         3870 
 3647000   0.67427537   -9.4658422    469.95865  0.010738476 0.0097771002         3890 
 3648000   0.67424965   -9.4381815    470.20069  0.010741061 0.0097728377         3870 
 3649000   0.66007713     -9.46051     469.8736  0.010730648 0.0097685811         3871 
 3650000   0.66747609   -9.4634368    469.75853  0.010725081 0.0097643238         3855 
 3651000   0.67771463   -9.4590952    471.02482  0.010751046 0.0097600657         3867 
 3652000   0.67360524   -9.4476933    470.97712  0.010747013 0.0097558146         3875 
 3653000   0.67072318   -9.4557602    470.64152  0.010736416 0.0097515679         3876 
 3654000    0.6626941   -9.4515614    470.17665  0.010722876 0.0097473194         3879 
 3655000   0.65531838   -9.4555633     470.8296  0.010734829 0.0097430763         3863 
 3656000   0.67634274    -9.431223    471.42122  0.010745378 0.0097388386         3878 
 3657000   0.67403195   -9.4654739    469.32424  0.010694655 0.0097345992         3885 
 3658000   0.67116549   -9.4761137    470.83587  0.010726168  0.009730366         3881 
 3659000   0.66630321   -9.4467212    470.93666  0.010725532 0.0097261324         3860 
 3660000    0.6692944   -9.4460576     471.2429  0.010729574 0.0097219005         3880 
 3661000   0.66006391   -9.4679099     471.2107  0.010725911 0.0097176717         3866 
 3662000    0.6711694   -9.4794369     470.4404  0.010705453 0.0097134465         3886 
 3663000   0.67045914   -9.4596133     470.5567  0.010705176 0.0097092252         3887 
 3664000   0.66953797   -9.4515508    470.94545  0.010711096 0.0097050011         3886 
 3665000   0.66780707   -9.4593734    471.84664  0.010728664  0.009700784         3877 
 3666000   0.67276452   -9.4496907    471.14359  0.010709756 0.0096965671         3887 
 3667000   0.67411017   -9.4630055    470.43826  0.010690807 0.0096923503         3879 
 3668000   0.66072117    -9.466676     469.8662  0.010674895 0.0096881357         3890 
 3669000   0.66844117   -9.4671129    470.88217  0.010695062 0.0096839238         3882 
 3670000   0.66432883   -9.4441201    471.93181  0.010715981 0.0096797145         3893 
 3671000   0.65416324   -9.4658303    471.19959   0.01069644 0.0096755096         3877 
 3672000    0.6697831   -9.4616653    470.39564  0.010675282  0.009671306         3885 
 3673000    0.6532442    -9.461575    471.36698  0.010694414  0.009667105         3872 
 3674000   0.65626821   -9.4707905    470.49487  0.010671722  0.009662904         3876 
 3675000   0.67086506   -9.4737977    470.51646  0.010669308 0.0096587099         3884 
 3676000   0.64574688    -9.460523     470.2207    0.0106597 0.0096545155         3875 
 3677000   0.65078188   -9.4682938    469.52973  0.010641141 0.0096503203         3886 
 3678000   0.65540522   -9.4651036    470.31471  0.010656034 0.0096461326         3876 
 3679000   0.66434805    -9.462453    470.10295  0.010648341 0.0096419481         3850 
 3680000   0.65276363     -9.44963    470.22275   0.01064816 0.0096377636         3880 
 3681000   0.67049669   -9.4423718    471.11378  0.010665439 0.0096335801         3885 
 3682000   0.67595752   -9.4684138    469.87699  0.010634551 0.0096294038         3894 
 3683000   0.65388694   -9.4565878    470.92412  0.010655356  0.009625228         3891 
 3684000   0.66480842   -9.4686417    469.09785  0.010611153 0.0096210458         3905 
 3685000   0.66020496   -9.4553918    469.81717   0.01062454 0.0096168719         3887 
 3686000   0.68416078   -9.4511287    470.27258  0.010631954 0.0096127001         3877 
 3687000   0.66109457   -9.4824971    470.27643  0.010629157 0.0096085295         3886 
 3688000   0.66285863   -9.4704805    469.87812  0.010617275  0.009604363         3883 
 3689000   0.65903588   -9.4658235    470.32923  0.010624587  0.009600197         3898 
 3690000   0.66193142   -9.4661217    470.49593  0.010625473 0.0095960386         3903 
 3691000   0.65491149   -9.4945285    470.02856  0.010612042 0.0095918772         3888 
 3692000   0.65610184    -9.467378    470.87613  0.010628298 0.0095877225         3898 
 3693000   0.65627843    -9.485591    469.92546  0.010603968 0.0095835651         3889 
 3694000   0.66655646   -9.4722663     469.4615  0.010590631 0.0095794125         3867 
 3695000   0.66176928   -9.4954227    470.03265  0.010600646 0.0095752649         3880 
 3696000   0.66704314   -9.4770863    470.56355  0.010609748 0.0095711183         3874 
 3697000   0.67123934   -9.4916807     470.9898  0.010616486 0.0095669708         3869 
 3698000   0.66115178   -9.4766878    469.89202  0.010588877 0.0095628277         3880 
 3699000   0.66397788   -9.4742414     470.1974  0.010592895 0.0095586867         3863 
 3700000   0.67021489   -9.4794455     470.2995  0.010592331 0.0095545464         3859 
 3701000   0.66812893   -9.4706184    469.92561   0.01058105 0.0095504085         3853 
 3702000   0.65078322   -9.4842473    470.71818  0.010596033 0.0095462695         3871 
 3703000   0.64745328   -9.4694384    470.69134  0.010592568 0.0095421397         3881 
 3704000   0.65197607   -9.4751679    469.60854  0.010565347 0.0095380097         3877 
 3705000    0.6455998   -9.4841027    470.54217  0.010583495 0.0095338818         3903 
 3706000   0.66326429   -9.4854539    470.63319  0.010582686 0.0095297559         3876 
 3707000   0.65686689   -9.4849077    469.88938   0.01056311 0.0095256318         3879 
 3708000   0.65012328   -9.4688837    469.90883  0.010560698 0.0095215081         3892 
 3709000   0.66543375   -9.4787119    470.48064  0.010570698 0.0095173885         3872 
 3710000    0.6605962   -9.4815576    470.85161  0.010576182 0.0095132733         3885 
 3711000   0.64378102   -9.4727882    469.93116  0.010552662 0.0095091597         3902 
 3712000   0.65059806   -9.4849529    470.08852  0.010553352 0.0095050488         3895 
 3713000   0.65370487   -9.4915216    469.94781  0.010547352 0.0095009416         3894 
 3714000   0.65828301    -9.481858    470.15689  0.010549203 0.0094968328         3885 
 3715000   0.64603066   -9.4677841    469.88995  0.010540376 0.0094927281         3877 
 3716000   0.65785794   -9.5027795    470.44583  0.010550005 0.0094886212         3906 
 3717000   0.63866912   -9.4841718    469.93511  0.010535717 0.0094845204         3894 
 3718000   0.64730463   -9.4777977    469.84849  0.010530942 0.0094804232         3898 
 3719000   0.64593415   -9.4905913    470.55762     0.010544 0.0094763247         3915 
 3720000   0.64702061   -9.4699641    470.26073  0.010534515 0.0094722327         3909 
 3721000   0.65908196   -9.4871002    469.73785  0.010519973 0.0094681407         3915 
 3722000   0.65999231   -9.4826539    469.26056  0.010506461 0.0094640473         3893 
 3723000   0.64561468   -9.4525868    470.19532  0.010524562 0.0094599551         3907 
 3724000   0.65027977   -9.4845268    470.22661  0.010522436 0.0094558651         3896 
 3725000   0.64268972   -9.4807111    470.66816  0.010529489 0.0094517763         3913 
 3726000   0.65271996   -9.4994506    469.46876  0.010499838 0.0094476916         3906 
 3727000   0.66139821   -9.4774562    469.59457  0.010499834 0.0094436079         3924 
 3728000   0.65878144   -9.4847627    469.96138  0.010505217  0.009439529         3915 
 3729000   0.65118793    -9.492395    469.40734  0.010490018 0.0094354511         3900 
 3730000   0.64996632   -9.4926464    470.24743  0.010505975 0.0094313788         3907 
 3731000   0.65062022   -9.4872708      468.999  0.010475275 0.0094273055         3911 
 3732000   0.65771199   -9.4931475    470.32631  0.010502106  0.009423234         3912 
 3733000   0.67064405   -9.4711537    470.26458  0.010497915 0.0094191669         3907 
 3734000   0.67607356   -9.4698519    470.32772  0.010496512 0.0094151042         3914 
 3735000   0.64632505   -9.4857485    470.08963   0.01048839 0.0094110409         3909 
 3736000    0.6457705   -9.4722497    470.70506   0.01049931 0.0094069788         3909 
 3737000   0.66367731   -9.4915187    469.56396  0.010471054 0.0094029217         3889 
 3738000   0.66039255    -9.488153    470.57651  0.010490826 0.0093988659         3920 
 3739000   0.63884378   -9.4969626    470.44143   0.01048501 0.0093948142         3924 
 3740000   0.64846427   -9.4789394    470.20013   0.01047683 0.0093907622         3912 
 3741000   0.65290763   -9.4991593    470.33962  0.010477137 0.0093867152         3917 
 3742000    0.6561895     -9.48746    470.12679  0.010469597 0.0093826676         3922 
 3743000   0.66071145   -9.4984913    469.84189  0.010460457 0.0093786227         3909 
 3744000   0.64617138   -9.4858486    469.49536   0.01044995  0.009374581         3922 
 3745000   0.65700688   -9.4788219    469.84348  0.010454906 0.0093705375         3915 
 3746000    0.6426276   -9.4836444    470.58915  0.010468703 0.0093665001         3911 
 3747000   0.65635341   -9.4913547    470.61868  0.010466566 0.0093624655         3914 
 3748000   0.65048981   -9.4806203    470.94102  0.010470941 0.0093584296         3914 
 3749000   0.65315703   -9.4756897    469.97021  0.010446568 0.0093544007         3909 
 3750000   0.64815041   -9.5136212    469.51731  0.010433718 0.0093503735         3920 
 3751000   0.64707007   -9.4897431    469.95946  0.010440759 0.0093463461         3924 
 3752000   0.64915555   -9.4989141    470.20377  0.010443403 0.0093423269         3924 
 3753000   0.66074624   -9.4833565    470.21871  0.010440952 0.0093383045         3918 
 3754000   0.65186859   -9.4842326    469.13839  0.010414189 0.0093342827         3909 
 3755000    0.6431312   -9.4897092    469.18636   0.01041248 0.0093302655         3915 
 3756000   0.65045408    -9.472676    469.54656    0.0104177 0.0093262509         3896 
 3757000   0.65301836   -9.4949475    470.41354  0.010434157 0.0093222351         3911 
 3758000   0.64205819   -9.4861788     469.4933  0.010410974 0.0093182255         3920 
 3759000   0.65772163   -9.5053324    469.52736   0.01040896 0.0093142143         3911 
 3760000   0.64039814   -9.5173774    470.11287  0.010419168 0.0093102007         3928 
 3761000   0.65268461   -9.4833972    469.93252  0.010412402 0.0093061963         3921 
 3762000    0.6456962   -9.4907425    470.60676  0.010424569 0.0093021929         3908 
 3763000   0.63996604   -9.5131976    470.02839  0.010408991 0.0092981929         3911 
 3764000   0.64755289   -9.5051055    470.12388   0.01040834 0.0092941931         3924 
 3765000   0.65883047   -9.5221712    468.52783  0.010370249 0.0092901955         3933 
 3766000   0.65462237   -9.4810132    469.91759  0.010398247 0.0092862003         3921 
 3767000   0.66272536    -9.484726    469.54718  0.010387293 0.0092822098         3918 
 3768000   0.64683985   -9.4744058    469.67001  0.010387252 0.0092782229         3902 
 3769000   0.64845696    -9.480256    470.15065  0.010395124  0.009274238         3904 
 3770000   0.64537961    -9.492947     470.3601  0.010396996  0.009270259         3901 
 3771000   0.63745495   -9.4972091    470.76153   0.01040311 0.0092662836         3908 
 3772000   0.64828044   -9.5247864    469.34995  0.010369167 0.0092623071         3915 
 3773000   0.66697827    -9.475043     469.3195  0.010365746 0.0092583306         3908 
 3774000   0.65027695    -9.496551    469.85086  0.010374732 0.0092543555         3920 
 3775000   0.63291561   -9.5187734    469.56932  0.010365769 0.0092503783         3917 
 3776000   0.64890765   -9.4955496     470.2931  0.010378997 0.0092464038         3924 
 3777000    0.6536627   -9.5279182    469.27891  0.010353872 0.0092424331         3917 
 3778000   0.65065858   -9.4836574    470.30836  0.010373839 0.0092384655         3913 
 3779000   0.64986507   -9.5021496    470.32699  0.010371505 0.0092345014         3926 
 3780000   0.64622903   -9.4982654    468.86235  0.010336472 0.0092305382         3926 
 3781000   0.64617502   -9.5171062    469.36529  0.010344823 0.0092265765         3922 
 3782000   0.66680755   -9.5271474    469.54185  0.010345978 0.0092226188         3923 
 3783000   0.65372524   -9.5085319    469.22752  0.010336319 0.0092186626         3931 
 3784000   0.64456543   -9.5172398    470.01101  0.010350841 0.0092147048         3917 
 3785000   0.64278771   -9.5298271    469.37625  0.010334131 0.0092107482         3909 
 3786000   0.66264406   -9.5054527    468.79814  0.010318677 0.0092067958         3905 
 3787000   0.63828019   -9.5019405    469.11998  0.010323034 0.0092028444         3919 
 3788000   0.64651931   -9.4897469    469.14416  0.010320841 0.0091988968         3922 
 3789000   0.65543873   -9.5066004    469.79262  0.010332379 0.0091949567         3907 
 3790000   0.63166118    -9.490797    470.09909  0.010336392  0.009191018         3921 
 3791000   0.63803434   -9.5112068    469.80857  0.010327279 0.0091870787         3907 
 3792000    0.6481615   -9.5092167    470.03055  0.010329434 0.0091831427         3910 
 3793000   0.64146248   -9.4988642    469.53168   0.01031575 0.0091792066         3917 
 3794000   0.65045213   -9.5172678      469.234  0.010306493 0.0091752717         3916 
 3795000   0.64666815   -9.4904961     470.3759  0.010328852 0.0091713399         3920 
 3796000   0.64308942   -9.5049347    469.73258  0.010312008 0.0091674098         3920 
 3797000   0.65080911   -9.4871101    470.43701  0.010324752 0.0091634865         3900 
 3798000   0.63951424   -9.5151455    468.83556  0.010286896 0.0091595634         3909 
 3799000   0.65429796   -9.4970073    469.01601  0.010288146 0.0091556436         3924 
 3800000   0.63890006   -9.4782605    469.85079  0.010303745 0.0091517257         3900 
 3801000   0.64402143   -9.4875962    469.89833  0.010302077 0.0091478092         3909 
 3802000   0.64061998    -9.491283    469.18164  0.010283659 0.0091438969         3909 
 3803000   0.63896447   -9.5175575    469.57896  0.010289661 0.0091399862         3912 
 3804000    0.6389076   -9.5163771    470.05882  0.010297468 0.0091360748         3911 
 3805000   0.64051407    -9.516686     469.5076  0.010282689 0.0091321673         3902 
 3806000   0.64265953   -9.4868976    469.41786  0.010278023 0.0091282582         3911 
 3807000   0.63814078   -9.5044077    469.94598  0.010286883 0.0091243517         3914 
 3808000    0.6401125   -9.4972201    469.81923  0.010281408 0.0091204559         3904 
 3809000   0.64621897   -9.5154194    469.03274  0.010261502 0.0091165566         3914 
 3810000    0.6391496   -9.5081121    469.25344  0.010263636 0.0091126596         3897 
 3811000   0.63898579   -9.4894618    470.95432  0.010298135 0.0091087676         3924 
 3812000   0.64308408   -9.5055584    469.96419  0.010273789 0.0091048751         3906 
 3813000    0.6616947   -9.5169771    470.41118  0.010280863 0.0091009862         3929 
 3814000   0.63450478   -9.4887138    470.07891  0.010270908 0.0090970994         3923 
 3815000   0.64865349   -9.4885145    470.62086  0.010280054 0.0090932166         3915 
 3816000   0.65172834    -9.501081    469.38098  0.010250283 0.0090893366         3919 
 3817000   0.63898342   -9.5019665    469.36455  0.010247239 0.0090854534         3907 
 3818000   0.65404529   -9.4891548    469.74204  0.010252795 0.0090815734         3901 
 3819000   0.63595651   -9.5121855    469.74393  0.010250151 0.0090776966         3914 
 3820000   0.64223846   -9.4997068      469.421  0.010240423   0.00907382         3910 
 3821000   0.63996878   -9.5003946    469.99806  0.010250328 0.0090699485         3903 
 3822000   0.65289022   -9.5083203    469.64507   0.01023995 0.0090660793         3912 
 3823000   0.65175656   -9.5063259      470.002  0.010245052 0.0090622096         3931 
 3824000   0.64260161   -9.5337873    469.39652  0.010229178 0.0090583417         3897 
 3825000   0.64694019   -9.5252977    468.67957  0.010210884 0.0090544753         3920 
 3826000   0.63993826   -9.4967039    468.95796  0.010214279 0.0090506097         3895 
 3827000   0.65040729   -9.4773191     469.0632  0.010213901 0.0090467467         3898 
 3828000   0.64413908   -9.4998094    469.06409  0.010211252 0.0090428884         3894 
 3829000   0.64387566   -9.5008992    469.73919  0.010223278 0.0090390297         3919 
 3830000   0.64026581   -9.5262058    469.55283  0.010216554 0.0090351746         3912 
 3831000   0.63835957   -9.4968694    469.48779  0.010212472 0.0090313224         3922 
 3832000   0.64776379   -9.5111529    469.71255  0.010214695 0.0090274715         3900 
 3833000    0.6399037   -9.5024143    469.17724  0.010200392 0.0090236223         3906 
 3834000   0.63115829   -9.5204638    469.29034   0.01020019 0.0090197749         3909 
 3835000   0.62803263    -9.518029    468.59943  0.010182517 0.0090159282         3912 
 3836000   0.65349121   -9.4923409    469.89916  0.010208098 0.0090120874         3908 
 3837000   0.63902786   -9.5076756    470.17693   0.01021147 0.0090082496         3905 
 3838000    0.6415796   -9.5154089    469.09878    0.0101854 0.0090044138         3931 
 3839000   0.62769557   -9.4827617    469.93552   0.01020091 0.0090005785         3911 
 3840000   0.63503959   -9.5144745     469.9718  0.010199041 0.0089967428         3907 
 3841000   0.64461727   -9.5221804    469.57339  0.010187742  0.008992912         3913 
 3842000   0.64686177   -9.5223273    469.84342  0.010190947 0.0089890892         3917 
 3843000   0.63391134   -9.5286275    469.07821  0.010171702 0.0089852617         3911 
 3844000   0.62482402   -9.4999699    469.52623  0.010178768  0.008981438         3905 
 3845000   0.64019942   -9.5077032       470.08  0.010188123 0.0089776141         3907 
 3846000   0.63320368    -9.497905    469.49142  0.010172721 0.0089737955         3921 
 3847000   0.62412185   -9.5143869    470.03672  0.010181889 0.0089699756         3917 
 3848000   0.64770052   -9.4833808    469.65751  0.010171031 0.0089661627         3917 
 3849000   0.64300741   -9.5383715     469.3333  0.010161369 0.0089623509         3906 
 3850000   0.63702462   -9.5188755    468.95189  0.010150474 0.0089585354         3918 
 3851000   0.63414212   -9.5082192    468.92565   0.01014727 0.0089547262         3917 
 3852000   0.64464729   -9.5243493    469.78406  0.010163207 0.0089509149         3909 
 3853000   0.61725668   -9.5341825    469.01024  0.010143832 0.0089471051         3925 
 3854000   0.62571138   -9.5122317    469.86226  0.010159623 0.0089432991         3898 
 3855000   0.64772811   -9.5198675    469.51361  0.010149451  0.008939492         3915 
 3856000   0.63144464   -9.5344344    468.92686  0.010134139 0.0089356886         3904 
 3857000     0.635551   -9.5202517    468.93537  0.010131695 0.0089318893         3924 
 3858000   0.61634126    -9.500837    469.70746  0.010145746 0.0089280941         3914 
 3859000   0.62257613   -9.5209675    468.41247  0.010115152 0.0089242969         3921 
 3860000   0.63187921   -9.5341551    468.94607  0.010124052  0.008920504         3900 
 3861000   0.63843799    -9.527396    469.20085  0.010126928 0.0089167124         3911 
 3862000   0.63226013   -9.5284961    469.38128    0.0101282 0.0089129243         3902 
 3863000   0.63211928   -9.5336323    468.39146  0.010104225 0.0089091358         3924 
 3864000   0.63828822   -9.5261985    468.92089  0.010113028 0.0089053507         3920 
 3865000   0.63618767    -9.524758    468.45539  0.010100375  0.008901567         3907 
 3866000   0.63554573   -9.5380469    468.98587  0.010109197 0.0088977861         3914 
 3867000   0.62472905   -9.5176214    469.17071  0.010110566 0.0088940068         3899 
 3868000   0.61691824   -9.5186078    469.90337  0.010123737 0.0088902287         3922 
 3869000   0.63425569   -9.5145286    469.44389  0.010111224 0.0088864498         3896 
 3870000   0.61966751   -9.4914867    469.01595  0.010099396 0.0088826745         3911 
 3871000   0.63931324   -9.5143862    468.75488  0.010091167 0.0088789006         3905 
 3872000   0.62970508   -9.5152441    468.35507  0.010079956 0.0088751298         3916 
 3873000   0.62913454   -9.5090777     468.9573  0.010090311 0.0088713654         3904 
 3874000   0.63464702   -9.5141936    469.10228  0.010090825 0.0088675995         3917 
 3875000   0.64108864   -9.5027071    468.80884   0.01008191  0.008863837         3905 
 3876000   0.63995091   -9.5293428    469.27002  0.010089225 0.0088600745         3906 
 3877000   0.64711561   -9.5168082    468.93047  0.010079324 0.0088563155         3924 
 3878000   0.63255005   -9.5297042    468.99262   0.01007806  0.008852562         3916 
 3879000   0.62255918   -9.5198851    469.07476  0.010077227  0.008848812         3902 
 3880000   0.62734361   -9.5086387     468.7509  0.010067674  0.008845062         3908 
 3881000   0.62842517   -9.5306294    469.45578  0.010080215 0.0088413131         3906 
 3882000   0.62125966   -9.5424682    468.33004  0.010053453 0.0088375627         3913 
 3883000   0.62199704   -9.5317895    469.17197  0.010068932 0.0088338126         3923 
 3884000   0.61951887   -9.5413014    468.19722  0.010045426  0.008830067         3918 
 3885000   0.62617567   -9.5234618    468.64384   0.01005242 0.0088263232         3903 
 3886000   0.62611106   -9.5337456    469.57568  0.010069816 0.0088225854         3910 
 3887000   0.63564071   -9.5168974    468.72584  0.010049006 0.0088188445         3915 
 3888000   0.63886139   -9.5316069    469.35397  0.010059885 0.0088151092         3901 
 3889000   0.63534666   -9.5352677    469.08434   0.01005152 0.0088113734         3919 
 3890000   0.63475176    -9.545947    468.59997   0.01003856 0.0088076394         3919 
 3891000   0.62853843   -9.5480862    469.34334  0.010051901 0.0088039066         3909 
 3892000   0.61086527   -9.5417029    469.31802  0.010048776 0.0088001813         3929 
 3893000   0.62536457    -9.526175    469.82633  0.010057075 0.0087964541         3913 
 3894000   0.62831191   -9.5289376    468.54353   0.01002704   0.00879273         3908 
 3895000   0.63548685   -9.5252563    469.38385  0.010042444 0.0087890102         3915 
 3896000     0.645053   -9.5294076    468.53922    0.0100218  0.008785291         3906 
 3897000   0.62863741   -9.5170317    468.96558  0.010028346 0.0087815769         3922 
 3898000   0.63060034   -9.5311469     469.4016  0.010035095 0.0087778586         3897 
 3899000   0.63208212   -9.5176259    468.90343  0.010021874 0.0087741448         3910 
 3900000   0.63591939   -9.5304591    469.64977  0.010035252 0.0087704323         3920 
 3901000   0.62883718   -9.5560852    469.23503  0.010023819 0.0087667232         3910 
 3902000   0.63075623   -9.5370446    468.47009  0.010004914 0.0087630147         3911 
 3903000    0.6340032   -9.5490485    468.25785 0.0099978189 0.0087593115         3916 
 3904000   0.63202867   -9.5295727    468.76271  0.010006035 0.0087556072         3913 
 3905000   0.62516357   -9.5588661    468.16786  0.009990778 0.0087519018         3908 
 3906000   0.63088984   -9.5350083    468.84612  0.010002691 0.0087482022         3915 
 3907000    0.6271015   -9.5295035    468.90466  0.010001379 0.0087445054         3931 
 3908000   0.62428199   -9.5267127    468.45775   0.00998929  0.008740811         3916 
 3909000    0.6280406   -9.5250917    468.93232 0.0099968517 0.0087371158         3917 
 3910000   0.62943802   -9.5298871    468.70842  0.009989523 0.0087334216         3916 
 3911000   0.61923055   -9.5298022     469.2222 0.0099979161 0.0087297322         3910 
 3912000   0.60644872   -9.5125562    469.22823  0.009995489 0.0087260456         3911 
 3913000   0.62768643   -9.5343126    469.50566 0.0099988427  0.008722362         3915 
 3914000   0.62797721   -9.5236223    468.97939 0.0099850833 0.0087186808         3927 
 3915000   0.63089623   -9.5239404     468.6824 0.0099762112 0.0087150005         3925 
 3916000   0.61601327   -9.5412255    468.28345 0.0099651738 0.0087113213         3936 
 3917000   0.63335684   -9.5277478    468.21155 0.0099611001 0.0087076438         3910 
 3918000   0.63136007   -9.5360782    468.81312 0.0099713526 0.0087039725         3913 
 3919000   0.62773385   -9.5223526    469.65084 0.0099866217  0.008700302         3911 
 3920000   0.61878629   -9.5269793    468.81144 0.0099662296 0.0086966329         3924 
 3921000   0.62171418   -9.5280618    469.29449 0.0099739542 0.0086929658         3919 
 3922000   0.62644141    -9.532525    469.47914 0.0099753344 0.0086892964         3905 
 3923000   0.63776766   -9.5538989    468.87709 0.0099600028 0.0086856348         3918 
 3924000   0.63001814   -9.5071261    468.69826 0.0099536667 0.0086819721         3906 
 3925000   0.62373688   -9.5532097    468.01764 0.0099366804 0.0086783118         3915 
 3926000   0.61102361   -9.5275836    469.04967 0.0099560551 0.0086746527         3899 
 3927000   0.64118788   -9.5344536    468.56881 0.0099433158 0.0086709976         3927 
 3928000   0.64008918   -9.5340556    469.11585 0.0099523898 0.0086673491         3922 
 3929000   0.62018276   -9.5224755    468.63623 0.0099396842 0.0086636998         3922 
 3930000   0.63297325   -9.5428178    469.27099 0.0099506147 0.0086600493         3932 
 3931000    0.6266858   -9.5259208    468.60337 0.0099339304  0.008656402         3907 
 3932000   0.61518247   -9.5447069    468.54777 0.0099302256 0.0086527593         3916 
 3933000   0.61731857   -9.5521897    469.08742 0.0099391351 0.0086491182         3916 
 3934000   0.62058802    -9.537948    468.18096 0.0099174071 0.0086454806         3930 
 3935000   0.61608105    -9.537184    468.27654  0.009916911 0.0086418411         3917 
 3936000   0.62912113   -9.5315985    468.11261 0.0099109207 0.0086382054         3917 
 3937000   0.62420021   -9.5282051    468.59889 0.0099186963 0.0086345683         3921 
 3938000   0.62324097   -9.5184642    468.83099 0.0099210892 0.0086309363         3917 
 3939000   0.62719456   -9.5245479    469.29578 0.0099284035 0.0086273052         3927 
 3940000   0.62574676   -9.5591358    467.73833 0.0098929427 0.0086236767         3928 
 3941000   0.64053443   -9.5531681    468.53052 0.0099071835 0.0086200559         3923 
 3942000   0.63626634   -9.5357024     469.3622 0.0099222519 0.0086164325         3910 
 3943000   0.62357439     -9.53132    468.56835 0.0099029577   0.00861281         3924 
 3944000    0.6304212   -9.5185197    469.54088 0.0099209955  0.008609192         3929 
 3945000   0.62049191   -9.5229799    468.77863 0.0099023792 0.0086055697         3916 
 3946000   0.62317237    -9.550241    469.31237 0.0099111415 0.0086019547         3923 
 3947000   0.62967268   -9.5530289    469.29219 0.0099082043  0.008598338         3927 
 3948000   0.62276682   -9.5382975    469.71924 0.0099147086 0.0085947256         3930 
 3949000   0.61450024   -9.5357946    468.99855 0.0098969898  0.008591117         3920 
 3950000   0.61319175   -9.5413423    467.82004 0.0098696211 0.0085875038         3921 
 3951000   0.62172685   -9.5504712    469.64423 0.0099055983 0.0085839014         3916 
 3952000   0.63320939   -9.5494481    468.35956 0.0098760029  0.008580296         3925 
 3953000   0.61515602   -9.5276866    468.71514 0.0098810006 0.0085766942         3902 
 3954000   0.61439312    -9.540554    468.70961  0.009878385 0.0085730939         3913 
 3955000   0.62447451    -9.555431    468.78857  0.009877551 0.0085694949         3929 
 3956000   0.62225655   -9.5415032    468.02517  0.009858973 0.0085659009         3924 
 3957000   0.62651642    -9.562646    468.93546 0.0098756521 0.0085623033         3925 
 3958000     0.616894   -9.5394976    468.94315 0.0098733188 0.0085587102         3923 
 3959000   0.61888932    -9.537818    468.74163 0.0098665832 0.0085551155         3903 
 3960000   0.60748403   -9.5293777    468.49097 0.0098588166  0.008551525         3913 
 3961000     0.607842   -9.5259207    468.74877 0.0098617515 0.0085479354         3918 
 3962000   0.62598576   -9.5578492    469.09256 0.0098664934 0.0085443488         3916 
 3963000   0.62543285    -9.546576    468.30947 0.0098475371 0.0085407652         3914 
 3964000   0.63265458   -9.5491407    468.68103 0.0098528638 0.0085371833         3914 
 3965000   0.61160556   -9.5298541    468.95061 0.0098560448 0.0085336044         3914 
 3966000   0.62857198   -9.5510501    469.02077 0.0098550338 0.0085300253         3919 
 3967000   0.61708556   -9.5344109     469.5915 0.0098645386  0.008526448         3908 
 3968000   0.63045943   -9.5548439    468.91728 0.0098478932 0.0085228763         3919 
 3969000   0.61845113   -9.5420191    468.09033 0.0098280492 0.0085193046         3926 
 3970000   0.61315239   -9.5548718    468.08283 0.0098254161 0.0085157384         3913 
 3971000   0.61992535   -9.5293775    468.58167 0.0098334103 0.0085121715         3929 
 3972000   0.61010193   -9.5703728    468.91011 0.0098378253 0.0085086048         3923 
 3973000   0.60795758    -9.546123    469.37667 0.0098451352 0.0085050413         3911 
 3974000   0.61114037   -9.5463137    468.11548 0.0098162113 0.0085014821         3933 
 3975000   0.61264455   -9.5369135    467.75691 0.0098062245 0.0084979221         3918 
 3976000   0.63159347   -9.5751386    468.61552 0.0098217539 0.0084943635         3927 
 3977000   0.62251973   -9.5724997    468.48312 0.0098165099 0.0084908099         3914 
 3978000   0.62186314   -9.5489667    468.61763 0.0098168599 0.0084872533         3915 
 3979000   0.61926835   -9.5486759    468.21087 0.0098058741  0.008483704         3927 
 3980000   0.61534345   -9.5395279    469.13506  0.009822761 0.0084801552         3917 
 3981000    0.6092312   -9.5451817    468.38102 0.0098045093 0.0084766088         3916 
 3982000   0.62893664   -9.5538976     468.7482 0.0098097313 0.0084730657         3925 
 3983000   0.60200609   -9.5555527    469.25151 0.0098177988 0.0084695212         3905 
 3984000   0.60788256   -9.5418916    468.11414  0.009791544 0.0084659821         3921 
 3985000   0.61524314   -9.5381372    467.74945 0.0097814608 0.0084624429         3919 
 3986000   0.60732454   -9.5400048    469.48592 0.0098153103  0.008458905         3909 
 3987000   0.61076244   -9.5385928    468.24554 0.0097869229 0.0084553684         3910 
 3988000    0.6156717    -9.570528    468.43626 0.0097884541 0.0084518368         3915 
 3989000   0.63124769   -9.5581936    468.67661 0.0097910214 0.0084483069         3917 
 3990000   0.61019246   -9.5587608    468.11986 0.0097769395 0.0084447747         3932 
 3991000   0.61801078   -9.5692319    468.36438 0.0097795953 0.0084412479         3920 
 3992000    0.6139973   -9.5488204    467.58271 0.0097608281 0.0084377209         3925 
 3993000   0.60591312   -9.5448226    468.16441 0.0097705237 0.0084341953         3924 
 3994000   0.60705313   -9.5356494    468.00461 0.0097647432  0.008430674         3930 
 3995000   0.64367434    -9.543771    468.77904 0.0097784531 0.0084271545         3932 
 3996000    0.6084344   -9.5423174    468.58122 0.0097718807 0.0084236328         3911 
 3997000   0.61263972   -9.5586536    468.27506 0.0097630527 0.0084201147         3930 
 3998000   0.61627836   -9.5574255    468.35311 0.0097622376 0.0084165999         3915 
 3999000   0.60681011   -9.5553542    468.80524 0.0097692182 0.0084130869         3906 
 4000000   0.61126214   -9.5617681    468.52663 0.0097609714 0.0084095797         3921 
 4001000   0.62071897   -9.5697335    469.19929 0.0097725421 0.0084060683         3914 
 4002000   0.60765252   -9.5543679    467.83117 0.0097416119 0.0084025609         3917 
 4003000   0.61030474   -9.5478579    469.26439 0.0097690146 0.0083990569         3916 
 4004000   0.61536383   -9.5551934    468.94341 0.0097598946 0.0083955516         3927 
 4005000   0.61076017   -9.5368943    468.10187 0.0097399474 0.0083920512         3922 
 4006000   0.61031417    -9.554185    467.29562 0.0097207443 0.0083885524         3931 
 4007000    0.6102907   -9.5673677    467.92353 0.0097313769  0.008385056         3923 
 4008000   0.61703572   -9.5475574    468.69851 0.0097450621 0.0083815613         3924 
 4009000   0.60453406   -9.5406177    468.78267 0.0097443808 0.0083780671         3909 
 4010000   0.61472536   -9.5792438       469.28 0.0097522859 0.0083745773         3920 
 4011000   0.61648082   -9.5607809    468.08544 0.0097250361 0.0083710869         3921 
 4012000   0.61444691   -9.5593645    468.54048 0.0097320638 0.0083676025         3924 
 4013000   0.61604253   -9.5459491    468.49137 0.0097286189 0.0083641182         3933 
 4014000   0.61690982   -9.5460647    467.73144 0.0097104185 0.0083606355         3916 
 4015000   0.61332312    -9.561095     467.8165 0.0097097655 0.0083571503         3935 
 4016000   0.60872795   -9.5462647    468.00338 0.0097112256 0.0083536713         3938 
 4017000   0.61886827   -9.5462195     467.5898 0.0097002283 0.0083501913         3921 
 4018000   0.61425379   -9.5755696    468.09152 0.0097082196 0.0083467129         3902 
 4019000   0.59582729   -9.5540595    468.38624 0.0097119151 0.0083432354         3920 
 4020000   0.60719317   -9.5433665    468.55427 0.0097129824 0.0083397636         3917 
 4021000   0.59413785   -9.5743946    467.90646 0.0096971412 0.0083362923         3919 
 4022000   0.60872172   -9.5482686    468.18739  0.009700551  0.008332819         3907 
 4023000   0.59319504   -9.5505469    468.32619 0.0097010148 0.0083293523         3912 
 4024000   0.59482057   -9.5348841    467.86972  0.009689151 0.0083258858         3911 
 4025000   0.60514511   -9.5584464    467.84784 0.0096862907 0.0083224235         3916 
 4026000   0.60800094   -9.5770125    468.14608  0.009690058  0.008318963         3921 
 4027000   0.60917012   -9.5674457    467.95465 0.0096836903  0.008315505         3927 
 4028000   0.60209318   -9.5596474    468.36166 0.0096897067 0.0083120471         3913 
 4029000   0.61764446   -9.5583035    468.57114 0.0096916343 0.0083085937         3926 
 4030000   0.61101235   -9.5518124    467.86237 0.0096745735 0.0083051399         3926 
 4031000   0.59960349   -9.5685169    468.73959 0.0096903082 0.0083016869         3920 
 4032000   0.59808271   -9.5624243    468.34781 0.0096798075 0.0082982357         3912 
 4033000   0.60033862   -9.5804955     467.8108 0.0096663112 0.0082947878         3924 
 4034000   0.60701089   -9.5608212    469.01893 0.0096888724 0.0082913392         3915 
 4035000   0.60106028   -9.5666962    467.63645 0.0096579193 0.0082878929         3928 
 4036000   0.60073616   -9.5498324    467.31662 0.0096489226 0.0082844499         3916 
 4037000   0.59262752   -9.5699056    467.71907 0.0096548401 0.0082810111         3929 
 4038000   0.60607896   -9.5580825    468.01275 0.0096585099 0.0082775723         3919 
 4039000   0.60815628   -9.5691643    468.79407 0.0096722387 0.0082741343         3928 
 4040000   0.60739916   -9.5726361    469.10661 0.0096762915 0.0082706977         3923 
 4041000   0.59938184   -9.5736818    467.42526 0.0096392242 0.0082672644         3934 
 4042000   0.60752611   -9.5721332    467.92272 0.0096470955 0.0082638336         3913 
 4043000   0.59841073   -9.5875398    468.47185 0.0096560278 0.0082604059         3913 
 4044000   0.59952296   -9.5593978    468.87504 0.0096619485 0.0082569782         3917 
 4045000   0.62272908   -9.5710893    467.80068 0.0096374264 0.0082535508         3937 
 4046000   0.60842634   -9.5771996    468.21783 0.0096436363 0.0082501282         3919 
 4047000    0.6003061   -9.5512492     468.3534  0.009644045 0.0082467064         3894 
 4048000    0.6037272   -9.5636386    468.21452 0.0096388036 0.0082432886         3918 
 4049000   0.59218877   -9.5388489    468.00524 0.0096321158 0.0082398702         3903 
 4050000   0.60911118   -9.5722336    467.69542 0.0096233625 0.0082364517         3921 
 4051000   0.59956888   -9.5715272     468.2697 0.0096328006   0.00823304         3925 
 4052000   0.60568409   -9.5525227    468.49068 0.0096349679 0.0082296264         3912 
 4053000   0.60690075     -9.56292    468.75615  0.009638049  0.008226219         3922 
 4054000   0.60775598    -9.548805     469.0539 0.0096417921 0.0082228091         3926 
 4055000    0.6156163   -9.5501209     467.5384 0.0096082696 0.0082194046         3922 
 4056000   0.60932769   -9.5557067    467.66555  0.009608513  0.008215999         3915 
 4057000   0.61032652   -9.5687418    468.06713 0.0096143935 0.0082125962         3915 
 4058000   0.60026811   -9.5701962    467.23773 0.0095949919 0.0082091951         3914 
 4059000   0.61484045   -9.5748301    467.90918 0.0096064134 0.0082057956         3932 
 4060000   0.60276655   -9.5723491    468.55921 0.0096173895 0.0082024007         3929 
 4061000   0.60764668   -9.5570747     468.5714 0.0096152712 0.0081990038         3918 
 4062000   0.59920097   -9.5698458    467.29273 0.0095866718 0.0081956076         3932 
 4063000   0.60286005   -9.5881505    467.52053 0.0095889846 0.0081922123         3926 
 4064000   0.59558549   -9.5715248    467.56884 0.0095876156 0.0081888209         3922 
 4065000   0.59965365   -9.5661644    468.09055 0.0095959522  0.008185431         3923 
 4066000   0.60211142   -9.5607436    468.45336  0.009601028 0.0081820469         3935 
 4067000   0.58343037   -9.5768974    467.83777 0.0095860538 0.0081786608         3912 
 4068000   0.59291851   -9.6057496    467.16054 0.0095698243 0.0081752745         3917 
 4069000    0.5937167   -9.5659843    468.11638  0.009587048 0.0081718913         3909 
 4070000   0.59823382   -9.5552861    468.13372 0.0095850475 0.0081685114         3923 
 4071000   0.60168594   -9.5530104    468.80882 0.0095965122 0.0081651333         3915 
 4072000   0.59977984    -9.577613    467.38702 0.0095650585 0.0081617597         3929 
 4073000   0.59877546   -9.5796357    467.86264 0.0095724413 0.0081583862         3928 
 4074000   0.60856266   -9.5804708    467.62643   0.00956526 0.0081550141         3914 
 4075000   0.60952105   -9.5592591    467.47265  0.009559768 0.0081516438         3927 
 4076000   0.60337349     -9.57652    468.24598 0.0095732332 0.0081482771         3929 
 4077000   0.60454925   -9.5702156    468.08331 0.0095675601 0.0081449081         3924 
 4078000   0.60189726   -9.5765455    468.71064 0.0095780333 0.0081415412         3913 
 4079000   0.61369413   -9.5663915    467.83409 0.0095577774 0.0081381743         3932 
 4080000    0.5973659   -9.5751799    467.46974  0.009547993 0.0081348109         3923 
 4081000   0.60077771   -9.5895996    467.56086 0.0095475142 0.0081314509         3935 
 4082000   0.58776644   -9.5867229    468.37319 0.0095617588 0.0081280912         3920 
 4083000    0.6046466   -9.5801742    468.24254 0.0095567503 0.0081247355         3925 
 4084000   0.59749929   -9.5724106     467.8457 0.0095463128 0.0081213769         3920 
 4085000   0.60387574   -9.5764953    467.60872 0.0095391415 0.0081180242         3914 
 4086000   0.60233536   -9.5775091    467.53017  0.009535205 0.0081146756         3924 
 4087000   0.61070526   -9.5717276    467.16751 0.0095254773 0.0081113277         3920 
 4088000   0.60563325   -9.5862307    467.82063  0.009536461  0.008107982         3935 
 4089000   0.60999055   -9.5821553    468.13475 0.0095405304 0.0081046355         3927 
 4090000   0.61137772   -9.5910419      468.324 0.0095420538 0.0081012913         3924 
 4091000   0.59704036   -9.5678581    467.31419 0.0095191515 0.0080979484         3929 
 4092000   0.59524948    -9.583887    467.60206 0.0095226878 0.0080946106         3914 
 4093000   0.59257126   -9.5693349     468.3736 0.0095360697 0.0080912731         3923 
 4094000   0.60241133    -9.572358    468.21592 0.0095305309  0.008087936         3932 
 4095000   0.60197288   -9.5786792    467.61067 0.0095158866 0.0080846004         3931 
 4096000   0.60094176   -9.6007885    466.89645 0.0094990325 0.0080812667         3933 
 4097000   0.59243116   -9.5804125    467.81555 0.0095154087 0.0080779373         3924 
 4098000    0.6108405    -9.574844    467.86995 0.0095141928 0.0080746078         3921 
 4099000   0.60839497   -9.5685821    467.97641 0.0095140361  0.008071282         3919 
 4100000   0.59248047   -9.5726176    467.50718 0.0095021785 0.0080679599         3914 
 4101000   0.59677656    -9.585651    466.85401 0.0094865888 0.0080646382         3904 
 4102000   0.60046769   -9.5853574    467.60901 0.0094996142 0.0080613153         3924 
 4103000   0.59509077    -9.579253    467.40166 0.0094930875  0.008057996         3920 
 4104000   0.58732454    -9.575145    467.81454  0.009499158 0.0080546795         3914 
 4105000     0.603452   -9.5774818    467.33146 0.0094870374 0.0080513645         3916 
 4106000   0.60333414   -9.5871617    467.49393 0.0094880243 0.0080480514         3940 
 4107000   0.58591388   -9.5772627    468.08129 0.0094976319 0.0080447421         3930 
 4108000   0.59462017    -9.577113      468.344 0.0095006491 0.0080414304         3913 
 4109000   0.59833258   -9.5594806    467.85372 0.0094883938 0.0080381229         3918 
 4110000   0.60362532   -9.5635671    468.51021  0.009499396 0.0080348174         3918 
 4111000    0.5950041   -9.5705461    467.46368 0.0094758713 0.0080315119         3927 
 4112000   0.59116348   -9.5852607    468.42336 0.0094930156 0.0080282078         3925 
 4113000   0.60661633   -9.5915263    466.85199   0.00945887 0.0080249026         3920 
 4114000   0.59569308    -9.587591    467.59901 0.0094717025 0.0080216018         3921 
 4115000   0.58996421   -9.5986231    467.65494 0.0094705335 0.0080183032         3920 
 4116000    0.5774521   -9.5769923     467.2728 0.0094604956 0.0080150052         3927 
 4117000   0.58455695   -9.5889138     467.6195 0.0094652153 0.0080117118         3918 
 4118000   0.59535913   -9.5612065    467.89259 0.0094684433 0.0080084213         3925 
 4119000   0.58553833   -9.5842396    467.96686 0.0094676472 0.0080051297         3924 
 4120000   0.60195474   -9.5810372    467.45342 0.0094549641 0.0080018393         3939 
 4121000   0.59477426   -9.5937342    467.73666 0.0094583972 0.0079985499         3905 
 4122000   0.60619127   -9.5808153    468.17255  0.009464915 0.0079952652         3929 
 4123000   0.58647387   -9.5766332    468.18149 0.0094627999 0.0079919815         3925 
 4124000   0.58030711   -9.5851805    467.79077 0.0094526102 0.0079887009         3921 
 4125000   0.59655107   -9.5884364    468.20797  0.009458747 0.0079854233         3924 
 4126000   0.59384726   -9.5868046    467.49844 0.0094421239 0.0079821442         3914 
 4127000   0.60012626   -9.5956541    467.29272 0.0094356821 0.0079788684         3930 
 4128000   0.58491147   -9.5898496    466.60944 0.0094196026  0.007975593         3934 
 4129000   0.58996888   -9.6029623    467.77025 0.0094407494 0.0079723173         3921 
 4130000   0.58558167   -9.6039833    467.07862  0.009424508  0.007969043         3910 
 4131000    0.5881053   -9.6034851    467.23014 0.0094252832 0.0079657713         3938 
 4132000    0.5991495   -9.5800346    467.76549  0.009433799 0.0079625051         3928 
 4133000   0.58924349   -9.6058829    468.47285 0.0094457788 0.0079592391         3934 
 4134000   0.59076696   -9.6028893    466.93849 0.0094125643 0.0079559732         3927 
 4135000   0.58449854   -9.6178987    467.37449 0.0094190747 0.0079527126         3933 
 4136000    0.5906261   -9.5861677    467.46007 0.0094185217 0.0079494497         3934 
 4137000   0.58216621   -9.5866554    467.88975 0.0094249004 0.0079461927         3911 
 4138000   0.59783544   -9.5768457    467.85788 0.0094219809 0.0079429369         3933 
 4139000   0.59537388   -9.5770021    467.51574 0.0094128159 0.0079396822         3927 
 4140000   0.59187993   -9.6043728    467.46479 0.0094095167 0.0079364298         3931 
 4141000    0.5879598   -9.5904031    468.11919 0.0094204135 0.0079331794         3917 
 4142000   0.58416964   -9.5936069    467.06967 0.0093970237  0.007929927         3930 
 4143000   0.60323484   -9.5817865    467.58118 0.0094050442 0.0079266793         3925 
 4144000   0.59141794   -9.5820717    467.94582 0.0094101075  0.007923436         3922 
 4145000   0.58320259   -9.5962034    468.09658 0.0094108682 0.0079201921         3931 
 4146000   0.58608258   -9.5942323    468.11473  0.009408963 0.0079169464         3917 
 4147000   0.60021891   -9.5659636    467.49639 0.0093942687 0.0079137068         3926 
 4148000    0.5790328   -9.6121834    467.04249 0.0093828852 0.0079104684         3912 
 4149000   0.59392184   -9.5937172    467.34619 0.0093867235 0.0079072311         3942 
 4150000   0.60006259   -9.5899215    466.93957 0.0093762965 0.0079039944         3915 
 4151000   0.57931943   -9.6045766    467.51651   0.00938562 0.0079007602         3931 
 4152000   0.58127743   -9.5871379    467.57137 0.0093844607 0.0078975262         3914 
 4153000   0.59013616   -9.5874791    468.78474 0.0094065482  0.007894299         3927 
 4154000   0.57537106   -9.5777584    467.82534 0.0093850372 0.0078910709         3925 
 4155000   0.57828979   -9.5926769    467.72255  0.009380717 0.0078878439         3907 
 4156000   0.60231079   -9.5817258    466.83386 0.0093606405 0.0078846192         3915 
 4157000   0.58109649   -9.5809633     467.6637 0.0093750241 0.0078813954         3922 
 4158000   0.60039707   -9.5883331    467.61902 0.0093718738  0.007878171         3937 
 4159000   0.58392177   -9.6033331    467.35579 0.0093643461  0.007874954         3917 
 4160000   0.58279884   -9.6006965    466.81233 0.0093512085 0.0078717367         3911 
 4161000   0.58780882   -9.6015833    466.56911 0.0093440902 0.0078685207         3928 
 4162000   0.57987725   -9.5739917    467.60076 0.0093625013  0.007865303         3932 
 4163000   0.59049644   -9.6063849    467.21548 0.0093525398 0.0078620901         3919 
 4164000   0.57611001   -9.6021154    467.83446 0.0093626814 0.0078588754         3919 
 4165000   0.58359294   -9.5891362    467.17387 0.0093472162 0.0078556646         3928 
 4166000   0.58899653   -9.5927855     467.2301 0.0093460975 0.0078524558         3920 
 4167000   0.58473772   -9.5806334    467.84091 0.0093560698 0.0078492484         3917 
 4168000   0.57722375   -9.5987736    467.67146 0.0093504371 0.0078460431         3919 
 4169000   0.58792225   -9.6097016    467.91445 0.0093530512 0.0078428388         3925 
 4170000   0.57662969   -9.5880779    467.14971 0.0093355258 0.0078396396         3928 
 4171000   0.58463273   -9.5926912    467.59651 0.0093422143 0.0078364396         3922 
 4172000   0.59805933   -9.6094159    467.41029 0.0093362555 0.0078332464         3920 
 4173000   0.58525436   -9.5982586    466.87434 0.0093233154 0.0078300505         3926 
 4174000   0.58961484   -9.5953015    467.34301 0.0093304387 0.0078268561         3909 
 4175000   0.58006539   -9.6104009    466.79749 0.0093173152 0.0078236623         3925 
 4176000   0.58407345   -9.5965263    468.13312 0.0093417368 0.0078204729         3938 
 4177000   0.58093896   -9.5964994    467.53736 0.0093276146 0.0078172838         3927 
 4178000   0.59035352   -9.5940285    468.03561 0.0093353201 0.0078140952         3926 
 4179000   0.59868862   -9.5747322    467.28709 0.0093181601 0.0078109122         3928 
 4180000   0.59564962   -9.6032049    466.85612 0.0093073388 0.0078077299         3930 
 4181000   0.58503917   -9.6088291    466.78465 0.0093036884 0.0078045472         3928 
 4182000   0.58052337   -9.6119951    467.19517  0.009309644 0.0078013687         3928 
 4183000   0.56753726   -9.6038645    467.22912 0.0093080948  0.007798191         3928 
 4184000   0.57685759   -9.5912246    467.18198 0.0093049311 0.0077950136         3921 
 4185000   0.59030854   -9.6008695    468.16711 0.0093223241 0.0077918391         3918 
 4186000   0.58735928   -9.6058333    467.23117 0.0093014646 0.0077886636         3931 
 4187000    0.5745502   -9.6017545    467.75295  0.009309628 0.0077854919         3917 
 4188000   0.57703103   -9.5948326    467.36345 0.0092996548 0.0077823197         3938 
 4189000   0.58410535    -9.607616    466.49988 0.0092802555 0.0077791527         3911 
 4190000   0.58573862   -9.5861464    466.78716 0.0092837542 0.0077759855         3927 
 4191000   0.58044501   -9.5903857    466.46174 0.0092750685 0.0077728212         3913 
 4192000   0.59150006   -9.6009358    467.25715  0.009288668 0.0077696597         3933 
 4193000   0.59592538   -9.6004565    466.88953 0.0092791463 0.0077664998         3928 
 4194000   0.58209369   -9.6172305    466.85549 0.0092762575 0.0077633395         3927 
 4195000   0.58667686   -9.6360131    467.18451 0.0092805823 0.0077601795         3916 
 4196000   0.57873131   -9.5935259    467.31505  0.009280963 0.0077570234         3932 
 4197000   0.57940513   -9.6100965    466.77499 0.0092680286 0.0077538705         3931 
 4198000   0.58004406   -9.5984696     467.0343 0.0092709683 0.0077507183         3906 
 4199000   0.57699981   -9.5946625    467.63202 0.0092806227 0.0077475665         3928 
 4200000   0.57415387   -9.6112458    467.51278 0.0092760471   0.00774442         3934 
 4201000   0.58259525   -9.6150775    466.74401 0.0092585895 0.0077412733         3927 
 4202000   0.58087646   -9.5911591    466.84338 0.0092583567 0.0077381271         3925 
 4203000   0.57054002   -9.6038602    467.30387 0.0092652842 0.0077349841         3919 
 4204000   0.57228604   -9.6090991    467.58006  0.009268555  0.007731843         3938 
 4205000   0.58024708   -9.6071737    466.75558 0.0092500116 0.0077287024         3925 
 4206000   0.58155537   -9.6148403    466.62873  0.009245299 0.0077255642         3935 
 4207000   0.57613249   -9.6079741    466.67253 0.0092439689 0.0077224281         3934 
 4208000   0.58221916   -9.6167318    467.30417 0.0092542809 0.0077192924         3924 
 4209000   0.57485503   -9.6098637    466.67295 0.0092395848  0.007716157         3935 
 4210000   0.57369619   -9.6072353    466.92385 0.0092423565 0.0077130252         3940 
 4211000   0.57797777   -9.6071249    467.49894 0.0092515425 0.0077098946         3931 
 4212000    0.5643657   -9.5921924    467.38199 0.0092470322 0.0077067682         3925 
 4213000   0.57916309   -9.6162529    466.36071 0.0092246362 0.0077036409         3929 
 4214000   0.58226944    -9.593054    466.91843 0.0092334763 0.0077005172         3927 
 4215000   0.58591669   -9.5953029    467.36728 0.0092401598 0.0076973927         3938 
 4216000   0.58498282    -9.605411    467.08478 0.0092323842 0.0076942724         3936 
 4217000   0.58464018   -9.5951953    467.38113 0.0092360511 0.0076911525         3929 
 4218000   0.57845247   -9.5798202    467.98915 0.0092458738 0.0076880353         3929 
 4219000   0.58634426    -9.599464    467.00261 0.0092241962 0.0076849199         3935 
 4220000   0.58520532   -9.6034456    467.00658 0.0092220889 0.0076818053         3929 
 4221000   0.58864899   -9.6228033    467.31089 0.0092259118 0.0076786919         3928 
 4222000   0.56529687    -9.605781    467.33377 0.0092241782 0.0076755823         3919 
 4223000   0.57435579   -9.6021155    466.88295  0.009213098 0.0076724744         3924 
 4224000   0.58755548   -9.5907754    467.45063 0.0092221162 0.0076693676         3932 
 4225000   0.57575942   -9.6037362    466.41205 0.0091994488 0.0076662626         3927 
 4226000   0.56695216    -9.609137    467.60939 0.0092208825 0.0076631558         3933 
 4227000   0.56373935   -9.6002332    466.81761 0.0092030915 0.0076600517         3913 
 4228000   0.57402875   -9.6120129    466.97234 0.0092039644 0.0076569509         3921 
 4229000   0.56361158     -9.59799    467.03348 0.0092029929  0.007653851         3927 
 4230000   0.58403247   -9.6098422    467.27245  0.009205525 0.0076507532         3929 
 4231000   0.57601988   -9.6018003    467.16867 0.0092013052 0.0076476562         3924 
 4232000   0.57253282   -9.6224722    466.76214 0.0091911259 0.0076445619         3929 
 4233000   0.57466366   -9.6090069    467.12174 0.0091960339 0.0076414711         3904 
 4234000    0.5764561   -9.6067267    467.09755 0.0091933859 0.0076383792         3917 
 4235000   0.57157181   -9.5976905    466.24751 0.0091744886 0.0076352879         3924 
 4236000     0.565989   -9.5996877     467.8789 0.0092044166 0.0076321984         3932 
 4237000    0.5629944   -9.5897742    467.37996  0.009192431 0.0076291116         3921 
 4238000   0.57610305   -9.6061684    466.99723 0.0091827362 0.0076260272         3935 
 4239000   0.58135036   -9.6048724    466.81885 0.0091770631 0.0076229431         3922 
 4240000   0.56645896   -9.6222295    466.91272 0.0091767438 0.0076198609         3939 
 4241000   0.56032088   -9.6279514    467.56376 0.0091873724 0.0076167796         3922 
 4242000   0.57125666   -9.6174818    467.07907  0.009175685 0.0076136992         3930 
 4243000   0.57277436   -9.6138573    467.08754 0.0091736888 0.0076106227         3936 
 4244000   0.57016837   -9.6138741     466.8156 0.0091661876 0.0076075471         3930 
 4245000   0.58559774   -9.6240406    466.85251 0.0091647528  0.007604474         3919 
 4246000    0.5727446   -9.6147619    466.89622 0.0091634524 0.0076014022         3929 
 4247000   0.57111257   -9.6105077    466.85219 0.0091604306 0.0075983314         3928 
 4248000   0.57276852   -9.6083229    467.00439 0.0091612599 0.0075952626         3927 
 4249000   0.57382519   -9.6015133    467.54022 0.0091696129 0.0075921973         3931 
 4250000   0.57774563    -9.598158     467.0308 0.0091574666 0.0075891338         3930 
 4251000   0.56679271   -9.6512328    466.72066 0.0091492328 0.0075860685         3929 
 4252000   0.57242572   -9.6017123    467.46571  0.009161683 0.0075830082         3921 
 4253000   0.57203803   -9.6191282    467.06358 0.0091516494 0.0075799502         3920 
 4254000   0.56902107   -9.6111259    467.21354 0.0091524357 0.0075768907         3911 
 4255000   0.57618303   -9.6330118    466.83649 0.0091429003 0.0075738334         3924 
 4256000   0.56087231   -9.6202106     467.5471 0.0091546661 0.0075707774         3918 
 4257000   0.57422867   -9.6156825    466.53617  0.009132726 0.0075677225         3931 
 4258000   0.56725556   -9.6098851    467.12518 0.0091421086 0.0075646718         3919 
 4259000   0.56699096   -9.6343497    466.89551 0.0091354682 0.0075616245         3931 
 4260000   0.56483843   -9.6096119    466.29536 0.0091215837 0.0075585775         3929 
 4261000    0.5639368   -9.6088406    466.64012 0.0091261856  0.007555532         3926 
 4262000   0.56898037   -9.6285915    467.03176 0.0091317019 0.0075524861         3929 
 4263000   0.57342256     -9.63415    466.08104  0.009110975 0.0075494412         3913 
 4264000   0.57357274   -9.6273395    466.61446 0.0091192632 0.0075463996         3926 
 4265000   0.57063472   -9.6234497    467.89957 0.0091422346 0.0075433623         3925 
 4266000   0.57309616   -9.6011796    466.59776 0.0091146616 0.0075403233         3923 
 4267000   0.57388809   -9.6140455    466.91862 0.0091187918 0.0075372906         3926 
 4268000   0.56239895   -9.6237817    465.46341 0.0090882422 0.0075342542         3917 
 4269000   0.56317017     -9.63392    466.53624 0.0091070555 0.0075312213         3926 
 4270000   0.57098733    -9.615859    466.53785  0.009104954 0.0075281882         3930 
 4271000   0.57054751   -9.6072053    467.32837 0.0091182466 0.0075251592         3922 
 4272000   0.57848918   -9.6318685    466.90036  0.009107763 0.0075221296         3919 
 4273000   0.57255964   -9.6136771    466.66979 0.0091011349 0.0075191017         3918 
 4274000   0.56476614   -9.6366211    466.54233 0.0090965202 0.0075160752         3933 
 4275000   0.56344422   -9.6274615    467.44453 0.0091119791 0.0075130521         3924 
 4276000   0.56928278   -9.6152007    466.74843 0.0090962822 0.0075100294         3915 
 4277000   0.56890358   -9.6199375    466.10435  0.009081606 0.0075070085         3924 
 4278000   0.57595009   -9.6233866    466.67647 0.0090906278  0.007503989         3919 
 4279000   0.56591469   -9.6254497    467.14386 0.0090976057 0.0075009701         3915 
 4280000   0.56768973   -9.6255438    466.03356 0.0090738621 0.0074979553         3927 
 4281000   0.57250962   -9.6027795    466.40848 0.0090790407 0.0074949411         3932 
 4282000   0.56646955   -9.6373749    466.49024 0.0090785116 0.0074919295         3934 
 4283000   0.57584996   -9.6158384    466.79762 0.0090823725 0.0074889179         3935 
 4284000   0.56759688   -9.6188484    466.59844 0.0090763779 0.0074859081         3934 
 4285000   0.56826899   -9.6254424    466.80592 0.0090782948 0.0074829015         3925 
 4286000   0.57262771   -9.6226166    467.58565  0.009091337 0.0074798965         3928 
 4287000   0.55622173   -9.6052825    467.73336 0.0090920878 0.0074768937         3916 
 4288000    0.5762342   -9.6045167    467.52981 0.0090860116 0.0074738917         3923 
 4289000   0.56836851   -9.6438308     466.8499 0.0090706828 0.0074708894         3926 
 4290000   0.56038702    -9.619016    467.47981 0.0090808044 0.0074678885         3928 
 4291000   0.56831559   -9.6296401    467.07895 0.0090709032 0.0074648905         3929 
 4292000   0.57214871   -9.6102205    467.04851 0.0090681989 0.0074618944         3928 
 4293000   0.56623295   -9.6175119    466.74204 0.0090601375 0.0074588993         3920 
 4294000   0.55925603   -9.6219645    467.85875 0.0090796994 0.0074559052         3936 
 4295000    0.5704726   -9.6312862     466.7531 0.0090561332 0.0074529127         3935 
 4296000   0.56609968   -9.6502311    466.58172 0.0090507007   0.00744992         3927 
 4297000   0.56588837   -9.6252477    466.16545 0.0090405215 0.0074469281         3929 
 4298000   0.56164261   -9.6194067    467.20506  0.009058575 0.0074439413         3924 
 4299000   0.55727351   -9.6189903    466.39288 0.0090407243 0.0074409544         3926 
 4300000   0.57428508   -9.6179629    467.29866 0.0090561756 0.0074379721         3927 
 4301000   0.55990767   -9.6420802    466.17621 0.0090323222 0.0074349898         3939 
 4302000   0.56456786   -9.6283456    466.04345  0.009027651 0.0074320079         3934 
 4303000   0.56438521   -9.6228936    466.34035 0.0090313027 0.0074290288         3929 
 4304000   0.57099973   -9.6598492    466.19901 0.0090264679 0.0074260512         3921 
 4305000   0.56790366   -9.6329735    466.41681 0.0090285871 0.0074230745         3921 
 4306000   0.56372344   -9.6289454    466.82053 0.0090343035 0.0074200982         3939 
 4307000   0.55883794     -9.62397    466.57373 0.0090274307 0.0074171256         3919 
 4308000   0.55822961   -9.6371082    467.05614 0.0090346669 0.0074141552         3931 
 4309000   0.56500972   -9.6369634    465.90524 0.0090103125 0.0074111852         3926 
 4310000   0.56854067   -9.6498404    466.39266 0.0090176462 0.0074082192         3942 
 4311000   0.56840701   -9.6501293    466.47318 0.0090171109  0.007405254         3944 
 4312000   0.57031659   -9.6392489    466.92103 0.0090236749   0.00740229         3925 
 4313000   0.57362807   -9.6355743    466.79428 0.0090191337 0.0073993261         3925 
 4314000   0.55396338   -9.6439549     465.9621 0.0090009678 0.0073963614         3938 
 4315000   0.54742333   -9.6174442    466.52595 0.0090097711 0.0073934015         3926 
 4316000   0.56926898   -9.6253014    467.28862 0.0090224093 0.0073904438         3916 
 4317000    0.5683786   -9.6155924    467.03649 0.0090154523 0.0073874856         3910 
 4318000   0.55018224   -9.6446868    466.48123 0.0090026485 0.0073845306         3919 
 4319000   0.56872498   -9.6117822     466.1456 0.0089940882 0.0073815764         3921 
 4320000   0.55199899   -9.6392525    466.35022 0.0089959532 0.0073786238         3911 
 4321000   0.54692606   -9.6460587    466.54623 0.0089976516 0.0073756719         3920 
 4322000   0.55857823   -9.6320267    467.05308 0.0090053424 0.0073727238         3927 
 4323000   0.56699281   -9.6310064    466.86452 0.0089996245 0.0073697755         3915 
 4324000   0.57155212   -9.6084996    466.59743 0.0089923958 0.0073668293         3927 
 4325000   0.55200414   -9.6286882    467.09458 0.0089998955 0.0073638852         3931 
 4326000   0.56212973   -9.6242846      467.157 0.0089990176 0.0073609414         3926 
 4327000   0.55916409   -9.6310487    466.61813 0.0089865597 0.0073580013         3932 
 4328000   0.55758033    -9.613656    466.57292 0.0089836128 0.0073550637         3926 
 4329000   0.55774388   -9.6360464     466.0905 0.0089722511  0.007352128         3919 
 4330000   0.55896094   -9.6274921     465.8588 0.0089657198 0.0073491925         3919 
 4331000   0.54424745   -9.6258737    466.58491 0.0089776208 0.0073462537         3928 
 4332000   0.55253943   -9.6400383    466.60856 0.0089760033 0.0073433211         3923 
 4333000   0.55380967   -9.6314703    466.21712 0.0089664036 0.0073403915         3931 
 4334000   0.56171755   -9.6465606    467.22443 0.0089837031 0.0073374589         3921 
 4335000   0.57433302   -9.6425995    466.75678 0.0089726408 0.0073345295         3935 
 4336000   0.56226715   -9.6444246    466.39848 0.0089636853 0.0073316008         3929 
 4337000   0.56332804   -9.6509187    466.49437 0.0089634611 0.0073286722         3930 
 4338000   0.57182742   -9.6309542    467.04271 0.0089719286 0.0073257478         3929 
 4339000   0.54954225   -9.6218989    466.44191 0.0089583219 0.0073228255         3928 
 4340000   0.55494894   -9.6237803    466.43741 0.0089561714 0.0073199022         3925 
 4341000   0.56100803   -9.6411192    465.91201 0.0089440223 0.0073169807         3935 
 4342000   0.55500947   -9.6363635    466.43013 0.0089519064 0.0073140638         3926 
 4343000   0.54810697   -9.6470107     466.1943   0.00894532 0.0073111476         3936 
 4344000   0.55543414   -9.6429219    465.78492 0.0089354075 0.0073082309         3927 
 4345000   0.56058197   -9.6496655     466.6414 0.0089497775 0.0073053189         3927 
 4346000   0.54219658   -9.6097315    466.70719 0.0089489797  0.007302408         3927 
 4347000   0.54945717   -9.6497597    466.60242 0.0089449126 0.0072994959         3925 
 4348000   0.56149691   -9.6613384    466.44721 0.0089398806  0.007296588         3923 
 4349000   0.55721022   -9.6355558    467.08761  0.008950096  0.007293681         3921 
 4350000   0.56199533   -9.6274491    466.80738 0.0089426701 0.0072907776         3931 
 4351000   0.55780817   -9.6366639    466.25933 0.0089301182  0.007287872         3927 
 4352000   0.56538217   -9.6431033    466.09786 0.0089249743 0.0072849679         3928 
 4353000   0.55630366   -9.6447583    466.48864 0.0089304051 0.0072820682         3929 
 4354000   0.55060199   -9.6580878    465.30883 0.0089057731 0.0072791692         3921 
 4355000   0.56193453   -9.6383865    465.94712 0.0089159418 0.0072762705         3931 
 4356000   0.56194026   -9.6262378    467.19138 0.0089376986 0.0072733733         3919 
 4357000   0.56002662   -9.6457733    466.46777 0.0089218072 0.0072704779         3930 
 4358000   0.54988585   -9.6407525    466.70336  0.008924265  0.007267582         3922 
 4359000   0.54920256   -9.6567885    465.97604 0.0089083131   0.00726469         3920 
 4360000   0.56231329   -9.6270943    466.01736 0.0089070596 0.0072618009         3933 
 4361000   0.54809756   -9.6317016    465.90033  0.008902781  0.007258912         3938 
 4362000   0.55240184   -9.6333057    466.62034 0.0089144953 0.0072560256         3923 
 4363000   0.55240974   -9.6272411    466.79329 0.0089157554 0.0072531415         3927 
 4364000   0.55086369   -9.6422574    466.63418  0.008910674 0.0072502551         3931 
 4365000   0.55044381   -9.6545555    466.06893 0.0088978413 0.0072473711         3929 
 4366000   0.54723738   -9.6428532    466.40042 0.0089021305 0.0072444903         3928 
 4367000   0.55314007   -9.6413329     466.2309 0.0088968572 0.0072416107         3922 
 4368000   0.55337876   -9.6364911    465.97749 0.0088899856 0.0072387314         3938 
 4369000     0.553345   -9.6510978    464.85823 0.0088666025 0.0072358541         3926 
 4370000   0.55054719    -9.642882    466.48756 0.0088956439  0.007232979         3920 
 4371000    0.5578128   -9.6441542    466.67496 0.0088971815 0.0072301051         3924 
 4372000   0.55890988   -9.6515465    465.68376 0.0088762534 0.0072272314         3931 
 4373000   0.56463595   -9.6380156    466.42456 0.0088883406 0.0072243621         3932 
 4374000   0.55006213   -9.6445349    466.29763 0.0088838903 0.0072214934         3938 
 4375000   0.55675681   -9.6570849    466.46163 0.0088849835 0.0072186253         3930 
 4376000   0.54177977   -9.6500497    466.47817  0.008883268 0.0072157587         3930 
 4377000   0.55239122   -9.6572049    465.84018 0.0088690918 0.0072128959         3927 
 4378000   0.53688671   -9.6468224     466.1971 0.0088738597 0.0072100336         3933 
 4379000   0.54566187   -9.6451979    466.29054 0.0088736116 0.0072071729         3932 
 4380000   0.54142716   -9.6597956    465.52107 0.0088569458 0.0072043128         3937 
 4381000   0.53665021   -9.6530939    465.87548 0.0088616656 0.0072014559         3942 
 4382000   0.56109204   -9.6232448    466.04426  0.008862853 0.0071985987         3933 
 4383000   0.56582455   -9.6423796    466.61426 0.0088716683 0.0071957467         3927 
 4384000   0.54943919   -9.6478889    465.98984 0.0088577751 0.0071928937         3931 
 4385000   0.54486501   -9.6384523    466.37424 0.0088630604 0.0071900415         3925 
 4386000    0.5401303   -9.6446874    467.37682 0.0088800886 0.0071871922         3931 
 4387000    0.5522695    -9.661963    466.03899 0.0088526515 0.0071843414         3924 
 4388000   0.55112703   -9.6598427    465.50433 0.0088404804 0.0071814947         3935 
 4389000   0.54179716   -9.6420936     466.4035 0.0088555385 0.0071786512         3935 
 4390000   0.55748919   -9.6447019    466.18528  0.008849379 0.0071758068         3935 
 4391000   0.55300914   -9.6399225    466.75026 0.0088580859 0.0071729653         3912 
 4392000   0.55421543   -9.6569923    466.30699 0.0088476585 0.0071701239         3929 
 4393000   0.55472406   -9.6388131    465.59033 0.0088320498 0.0071672821         3935 
 4394000    0.5409434   -9.6513975    466.32972 0.0088440623 0.0071644435         3943 
 4395000   0.52895114   -9.6763844    465.79374 0.0088318874 0.0071616044         3924 
 4396000   0.55445597   -9.6543376    466.24737 0.0088384776 0.0071587689         3930 
 4397000   0.54646655   -9.6693356    465.56622 0.0088235581  0.007155936         3931 
 4398000   0.55911669   -9.6415232    466.31612  0.008835761 0.0071531035         3928 
 4399000   0.54155342   -9.6241322    466.49227 0.0088370894 0.0071502743         3916 
 4400000   0.54566075    -9.665565    465.64908 0.0088191114 0.0071474466         3922 
 4401000   0.55380476   -9.6348454    466.78799 0.0088386728  0.007144622         3931 
 4402000   0.55479871   -9.6512685    465.89329 0.0088197277 0.0071417969         3920 
 4403000   0.55476992   -9.6558071    466.61821 0.0088314446 0.0071389706         3939 
 4404000   0.55120613   -9.6566639    465.46835 0.0088076815 0.0071361464         3946 
 4405000   0.56000043   -9.6608719    466.27615  0.008820964 0.0071333243         3936 
 4406000   0.55386866   -9.6588353    465.20621 0.0087987254 0.0071305063         3926 
 4407000   0.53750036   -9.6512814    465.70556 0.0088061712 0.0071276872         3914 
 4408000   0.55310516   -9.6671418     466.6335 0.0088217163   0.00712487         3928 
 4409000   0.53739849    -9.648218    466.51624 0.0088174991 0.0071220571         3921 
 4410000    0.5479513   -9.6580563    466.49764 0.0088151482  0.007119241         3929 
 4411000   0.55241951   -9.6578187    466.10091 0.0088056547 0.0071164279         3937 
 4412000   0.54315682   -9.6441782    466.64286  0.008813895 0.0071136185         3927 
 4413000    0.5371311   -9.6718859    465.79855 0.0087959542 0.0071108067         3924 
 4414000   0.53815622   -9.6288814    466.09152 0.0087994925 0.0071079979         3938 
 4415000   0.53616909   -9.6425203    466.34601  0.008802303 0.0071051926         3933 
 4416000   0.53935779   -9.6555456    466.18972 0.0087973603 0.0071023866         3930 
 4417000   0.54354785   -9.6665185    465.93084 0.0087904846 0.0070995841         3931 
 4418000   0.54410578   -9.6742531    466.19986  0.008793569  0.007096783         3921 
 4419000   0.55856788    -9.644927    466.02293 0.0087882427 0.0070939843         3923 
 4420000   0.54934489    -9.657967    466.15651 0.0087887729 0.0070911885         3928 
 4421000   0.54547048   -9.6477103    466.28688 0.0087892422 0.0070883913         3910 
 4422000   0.53616301   -9.6696875    466.22352 0.0087860606 0.0070855959         3915 
 4423000   0.54920247   -9.6667805    466.20055 0.0087836413 0.0070828008         3920 
 4424000   0.54496669   -9.6457808    466.65477  0.008790212 0.0070800071         3923 
 4425000   0.55309895   -9.6583124    465.17542 0.0087603658 0.0070772162         3926 
 4426000    0.5438295   -9.6306027    466.86491 0.0087901965 0.0070744276         3929 
 4427000   0.54899233   -9.6617011    466.35473 0.0087786073  0.007071641         3931 
 4428000   0.54301913   -9.6473439    465.87602 0.0087676155 0.0070688521         3932 
 4429000   0.54006608   -9.6291787     465.7298 0.0087628847 0.0070660672         3935 
 4430000   0.54833676   -9.6645279    465.86951 0.0087635348 0.0070632832         3923 
 4431000   0.54563232   -9.6576983    465.77881 0.0087598512 0.0070605007         3932 
 4432000   0.54085545   -9.6593884    466.39174 0.0087693994 0.0070577179         3928 
 4433000   0.54112305   -9.6706102    465.76841 0.0087557036 0.0070549364         3933 
 4434000   0.54047196   -9.6576073    466.18079 0.0087614792 0.0070521575         3918 
 4435000   0.54169332   -9.6631095    465.80266 0.0087523987 0.0070493806         3922 
 4436000    0.5344269   -9.6695048      465.151 0.0087381837 0.0070466033         3945 
 4437000   0.53605098    -9.667654    466.07909 0.0087536452 0.0070438297         3922 
 4438000   0.53161988   -9.6588271    466.15691 0.0087531341 0.0070410575         3935 
 4439000   0.52832723   -9.6566128    465.38567 0.0087366837 0.0070382876         3932 
 4440000   0.53476308   -9.6601716      466.223 0.0087504317  0.007035518         3931 
 4441000   0.54997876   -9.6609485    465.62331 0.0087372084 0.0070327496         3922 
 4442000   0.53766452   -9.6756056    465.96999 0.0087417453  0.007029983         3918 
 4443000    0.5296238   -9.6635963    465.88918  0.008738262 0.0070272156         3925 
 4444000   0.53815552   -9.6547609    464.93034 0.0087183156 0.0070244529         3927 
 4445000   0.53397906   -9.6548298    466.10987 0.0087384678 0.0070216905         3943 
 4446000   0.52914211   -9.6585354    465.87015  0.008732009 0.0070189288         3924 
 4447000   0.53879901   -9.6924322    465.42543 0.0087217119 0.0070161687         3930 
 4448000   0.53701635   -9.6453086    466.01702 0.0087308345 0.0070134101         3925 
 4449000   0.54195573   -9.6501378    466.41927 0.0087364064 0.0070106567         3923 
 4450000   0.53168068   -9.6563089    466.36111 0.0087333541 0.0070079013         3920 
 4451000   0.52765697   -9.6682499    466.32284 0.0087306755 0.0070051487         3920 
 4452000    0.5418731   -9.6704848    465.93871 0.0087215242 0.0070023979         3928 
 4453000   0.53780377   -9.6672631    465.50547 0.0087114581 0.0069996463         3939 
 4454000   0.55522686   -9.6732435    465.96902  0.008718175 0.0069968978         3927 
 4455000    0.5386645   -9.6632226    465.92671 0.0087154266 0.0069941512         3922 
 4456000   0.53115409   -9.6837115    465.48386 0.0087051888 0.0069914031         3933 
 4457000   0.54250943   -9.6690126    465.62478 0.0087058706  0.006988657         3922 
 4458000   0.54252022   -9.6802472    465.79348 0.0087070713 0.0069859143         3923 
 4459000     0.542249    -9.670306    464.86978 0.0086878557 0.0069831728         3931 
 4460000   0.54071122   -9.6663461    465.51205 0.0086979082 0.0069804325         3923 
 4461000   0.53357716   -9.6682184    465.40015 0.0086938681 0.0069776955         3931 
 4462000   0.54415088   -9.6675656    466.53122 0.0087130439 0.0069749602         3937 
 4463000   0.53894435   -9.6635877    465.62916 0.0086942483 0.0069722243         3942 
 4464000   0.54287122   -9.6627809    464.97038 0.0086800027 0.0069694879         3930 
 4465000   0.54539286    -9.666502    465.59328 0.0086896842 0.0069667559         3932 
 4466000   0.54347219   -9.6726901     465.9629 0.0086946355 0.0069640232         3927 
 4467000   0.51833378   -9.6564252    466.31618 0.0086992795 0.0069612904         3921 
 4468000    0.5242075   -9.6604419    465.80506 0.0086877996 0.0069585627         3920 
 4469000   0.53945872   -9.6777222    466.66475 0.0087018861 0.0069558363         3927 
 4470000    0.5452825    -9.667831    465.67166 0.0086814254 0.0069531109         3925 
 4471000   0.54721523   -9.6678371    465.75381 0.0086810149 0.0069503891         3926 
 4472000   0.53559516   -9.6695715     466.2532 0.0086883796  0.006947665         3925 
 4473000   0.54252593   -9.6697855    466.17851 0.0086850456 0.0069449431         3932 
 4474000   0.53778184   -9.6697817    466.11253 0.0086818755 0.0069422212         3931 
 4475000   0.53161083   -9.6753416    466.69843 0.0086908459 0.0069395037         3926 
 4476000   0.53166174   -9.6775628    466.05669 0.0086769565 0.0069367849         3930 
 4477000   0.54194541   -9.6616128    465.64841 0.0086674188 0.0069340697         3929 
 4478000   0.51865472   -9.6599194    465.41495 0.0086611386 0.0069313547         3929 
 4479000   0.52964534   -9.6616797    465.11214 0.0086535711 0.0069286416         3927 
 4480000    0.5329221    -9.660319    465.56967 0.0086601501 0.0069259295         3939 
 4481000   0.53337398   -9.6612881     466.9203 0.0086833352 0.0069232201         3930 
 4482000   0.52738393   -9.6720328    465.95743 0.0086634952 0.0069205095         3934 
 4483000   0.53859116   -9.6720785     464.6865 0.0086379377 0.0069178026         3935 
 4484000   0.53899321   -9.6719235    465.71559 0.0086551367 0.0069150963         3926 
 4485000   0.53187354   -9.7018364    466.09296 0.0086602184 0.0069123897         3931 
 4486000   0.54019478    -9.670034    465.43113 0.0086459936 0.0069096871         3932 
 4487000   0.52289716   -9.6627231     465.9177 0.0086531034 0.0069069867         3929 
 4488000   0.52970374   -9.6747921    465.97852 0.0086523046 0.0069042894         3924 
 4489000   0.53190159   -9.6721104     465.4677 0.0086408945   0.00690159         3916 
 4490000   0.52519878    -9.662613    465.59616  0.008641354 0.0068988927         3922 
 4491000   0.53303407   -9.6807595     465.7251 0.0086418226 0.0068961978         3930 
 4492000   0.54009769   -9.6755692    465.97409 0.0086445178 0.0068935026         3934 
 4493000   0.54685194   -9.6742752    465.50104   0.00863382 0.0068908106         3929 
 4494000    0.5272691   -9.6806192     465.3174 0.0086284936 0.0068881202         3932 
 4495000    0.5223081   -9.6780459     466.0579 0.0086403022 0.0068854289         3927 
 4496000   0.53222279   -9.6737915    466.44967  0.008645642 0.0068827406         3921 
 4497000   0.53977075   -9.6816039    465.64559 0.0086288191 0.0068800529         3925 
 4498000    0.5337232   -9.6788675    466.30402 0.0086390992 0.0068773674         3927 
 4499000   0.53399294   -9.6920757    466.32855 0.0086376333 0.0068746817         3925 
 4500000   0.52526224   -9.6792779    465.58185 0.0086218862 0.0068719973         3933 
 4501000   0.53820188   -9.6776468    465.53188 0.0086190454 0.0068693159         3922 
 4502000   0.53080028   -9.6676268    464.78618 0.0086033277 0.0068666368         3937 
 4503000   0.53457614    -9.678655    465.58441 0.0086161895 0.0068639588         3924 
 4504000   0.52663681   -9.6911187    465.01929 0.0086038206 0.0068612821         3927 
 4505000   0.52915712   -9.6727218    465.38529  0.008608681 0.0068586073         3933 
 4506000   0.52071093   -9.6703045    466.36213  0.008624836  0.006855934         3944 
 4507000   0.54307594   -9.6845648    465.23584 0.0086020974 0.0068532589         3930 
 4508000   0.52016217   -9.6771376     465.3806 0.0086028653 0.0068505868         3919 
 4509000   0.52808006   -9.6662865    464.85451 0.0085912344 0.0068479154         3933 
 4510000   0.52733208   -9.6803617    465.34874 0.0085984616 0.0068452469         3936 
 4511000   0.52994513   -9.6959383    466.01593 0.0086088807   0.00684258         3942 
 4512000   0.53251354    -9.664437    465.63042 0.0085998526 0.0068399143         3923 
 4513000    0.5218357   -9.6615806    465.66529 0.0085985909 0.0068372512         3935 
 4514000   0.52774715   -9.6803973     464.5953 0.0085769329 0.0068345875         3931 
 4515000   0.54181162   -9.6833747    465.20497 0.0085862859 0.0068319243         3920 
 4516000    0.5407998   -9.6778421    465.73957 0.0085942495  0.006829262         3927 
 4517000   0.54062395    -9.674518    465.39505 0.0085859909 0.0068266039         3937 
 4518000   0.53039212   -9.6742299    466.05138 0.0085961962 0.0068239466         3928 
 4519000   0.52830446   -9.6754305    464.55919 0.0085667771 0.0068212877         3926 
 4520000   0.52840582   -9.6899469    465.58977 0.0085838822 0.0068186329         3928 
 4521000   0.53544534   -9.6681125    464.90046 0.0085692778 0.0068159774         3927 
 4522000   0.53014803   -9.6813424    465.46662 0.0085778161 0.0068133229         3935 
 4523000   0.52213267   -9.6776084    464.08241 0.0085504166 0.0068106711         3935 
 4524000   0.51656017   -9.6661166      465.308 0.0085711023 0.0068080206         3932 
 4525000    0.5349505   -9.6925387    464.65462 0.0085571753  0.006805373         3934 
 4526000    0.5184385   -9.6792844    466.49306 0.0085891343  0.006802727         3932 
 4527000   0.53461184   -9.6929932    466.17686 0.0085814164 0.0068000795         3925 
 4528000   0.53123696   -9.6835551    465.71856 0.0085710866 0.0067974344         3927 
 4529000   0.52064427   -9.6774799    465.25532 0.0085606705 0.0067947899         3918 
 4530000   0.53033606   -9.6821707    465.63099 0.0085656915 0.0067921484         3922 
 4531000   0.52692106   -9.6861058    465.45209 0.0085605107 0.0067895084         3937 
 4532000   0.53106748   -9.6781993    465.93426 0.0085674879 0.0067868703         3921 
 4533000   0.53400275   -9.6780829    466.03825 0.0085675095 0.0067842315         3934 
 4534000   0.51625511   -9.6915634    464.96231 0.0085458446 0.0067815954         3927 
 4535000   0.52054697   -9.6968921    465.69106 0.0085573513 0.0067789599         3930 
 4536000   0.51671798   -9.6894106    464.46283 0.0085329004 0.0067763253         3927 
 4537000   0.53267692   -9.6573618     466.1339 0.0085617129 0.0067736922         3926 
 4538000   0.52356839   -9.6855966     465.9145 0.0085557973 0.0067710629         3936 
 4539000   0.53599857   -9.7019329    465.12461 0.0085394105 0.0067684322         3929 
 4540000   0.52404731   -9.6895714    465.53827 0.0085451225 0.0067658061         3938 
 4541000   0.51930649   -9.6837491    465.49916  0.008542523 0.0067631801         3929 
 4542000   0.52790859   -9.6880922    465.63698 0.0085431708 0.0067605547         3931 
 4543000   0.52483602   -9.6970691    466.16187 0.0085509185 0.0067579309         3930 
 4544000   0.51454825   -9.6837244    465.75915 0.0085416511 0.0067553089         3916 
 4545000   0.53253157   -9.6830673     464.9942 0.0085257463 0.0067526868         3929 
 4546000   0.53823988   -9.7140952    465.34237 0.0085302531 0.0067500679         3929 
 4547000   0.50993568   -9.6948199    465.37479 0.0085289713 0.0067474503         3922 
 4548000   0.51624956   -9.6925639    465.29301 0.0085255975 0.0067448333         3921 
 4549000   0.51069153    -9.692522    464.80155 0.0085147202 0.0067422171         3928 
 4550000   0.51523061   -9.6863833    465.56188 0.0085267744  0.006739601         3935 
 4551000   0.53795412   -9.6958417    464.65531 0.0085083005 0.0067369904         3930 
 4552000   0.52438997   -9.7011931    465.57125 0.0085231996 0.0067343802         3931 
 4553000   0.52596376     -9.69098    465.66127 0.0085229751 0.0067317709         3929 
 4554000   0.50763594   -9.6917322    464.98844 0.0085087915 0.0067291604         3936 
 4555000   0.52992454   -9.6902826     465.7521 0.0085208945 0.0067265543         3932 
 4556000   0.52974596   -9.7036214    465.55055 0.0085153378 0.0067239477         3931 
 4557000   0.52305966   -9.6962104    465.32002 0.0085092535 0.0067213441         3925 
 4558000    0.5270926   -9.6769003    465.05005 0.0085024509 0.0067187411         3925 
 4559000   0.50771326   -9.6766953    465.55373 0.0085097926 0.0067161412         3924 
 4560000   0.52103538   -9.7007212    465.03646 0.0084984733 0.0067135412         3930 
 4561000    0.5189657   -9.7053784    465.30689  0.008501551  0.006710941         3932 
 4562000   0.51975246    -9.685257    465.16941 0.0084971761 0.0067083444         3934 
 4563000   0.53027011   -9.7029682    464.54168 0.0084838499 0.0067057474         3932 
 4564000   0.52455453   -9.6931245    466.13035 0.0085109982 0.0067031527         3926 
 4565000   0.52102329    -9.699165    464.77867  0.008484459 0.0067005587         3915 
 4566000   0.51860959   -9.6902942    466.47479 0.0085135566 0.0066979667         3917 
 4567000   0.51979607   -9.6741347    465.86733 0.0085006081 0.0066953771         3927 
 4568000   0.52753525   -9.6995509    466.01189 0.0085013845  0.006692789         3935 
 4569000   0.51482021   -9.6937484    464.90107 0.0084792637    0.0066902         3931 
 4570000   0.50846037   -9.6961475    465.02732 0.0084797105 0.0066876126         3927 
 4571000   0.52646441   -9.7113301    464.63466 0.0084706967 0.0066850263         3928 
 4572000   0.52613869   -9.6927087    464.34171 0.0084635045 0.0066824433         3923 
 4573000   0.53061253   -9.6777585     464.7963 0.0084699376 0.0066798614         3943 
 4574000   0.51188393   -9.6829328    464.75444 0.0084673232 0.0066772792         3925 
 4575000   0.52659962   -9.6989952    464.66276 0.0084638025  0.006674698         3927 
 4576000   0.51555743   -9.6814595    465.07382 0.0084694388 0.0066721201         3919 
 4577000   0.51664712    -9.709663    465.34011 0.0084724367 0.0066695416         3921 
 4578000   0.51419158   -9.6947161     464.6758 0.0084584936 0.0066669657         3927 
 4579000   0.51536493   -9.6966106    465.73379 0.0084759007 0.0066643903         3927 
 4580000   0.51869092    -9.688981    465.13355 0.0084631286 0.0066618125         3918 
 4581000   0.52360563    -9.681483    465.17452 0.0084620265 0.0066592398         3924 
 4582000    0.5237136   -9.6875818    465.42329 0.0084647041 0.0066566691         3939 
 4583000   0.52223832   -9.7085439    465.48108 0.0084639078 0.0066541002         3923 
 4584000   0.51517355   -9.6971783    465.57958 0.0084638521 0.0066515333         3927 
 4585000   0.51977204   -9.6917068     465.5816 0.0084620429 0.0066489674         3928 
 4586000   0.52828268   -9.6982786    464.81698 0.0084463036 0.0066464035         3930 
 4587000    0.5273909   -9.6981148    465.21791 0.0084517461 0.0066438405         3928 
 4588000   0.51265075   -9.6928818    465.16239 0.0084488954 0.0066412755         3918 
 4589000   0.52432202   -9.7040197    464.20763 0.0084297165 0.0066387126         3940 
 4590000   0.52515898   -9.6788681    465.31588 0.0084480008  0.006636151         3919 
 4591000   0.52334408   -9.6976553    464.61077 0.0084333618 0.0066335915         3926 
 4592000   0.51665791   -9.6914364    465.13582 0.0084410537 0.0066310337         3926 
 4593000   0.51123153   -9.6960434    465.00103 0.0084367702 0.0066284763         3917 
 4594000   0.51760276   -9.6937283    465.38075 0.0084418218 0.0066259216         3927 
 4595000   0.52060969   -9.7022763    465.55815 0.0084432019 0.0066233696         3923 
 4596000   0.51342546   -9.7033161    465.35123 0.0084376129  0.006620815         3929 
 4597000   0.52709299   -9.6947289    464.98393 0.0084291191 0.0066182641         3928 
 4598000   0.51863038   -9.7065669    464.85141 0.0084248843 0.0066157146         3919 
 4599000   0.52749898   -9.7074973    465.27164 0.0084306668 0.0066131671         3931 
 4600000   0.52637607   -9.6993285    465.16057 0.0084268219 0.0066106211         3935 
 4601000   0.52239159   -9.6899667    464.89958 0.0084202633 0.0066080752         3926 
 4602000     0.516555   -9.6945418    464.84895 0.0084175168 0.0066055302         3923 
 4603000   0.51959003   -9.6772834    465.74882 0.0084319795 0.0066029881         3933 
 4604000   0.50654332   -9.7033689    464.95918 0.0084158554 0.0066004452         3927 
 4605000   0.51787096    -9.712225    465.57915  0.008425247 0.0065979059         3933 
 4606000   0.51520876   -9.6907213    465.44106 0.0084209194 0.0065953657         3921 
 4607000   0.51320347   -9.6982352    465.02754 0.0084116118 0.0065928262         3916 
 4608000   0.51435572   -9.7025443    465.22858 0.0084134219 0.0065902891         3934 
 4609000   0.51675466   -9.6958539    464.56298 0.0083995621 0.0065877555         3928 
 4610000   0.52371324   -9.6972173    464.92965 0.0084043682 0.0065852219         3923 
 4611000   0.52615132   -9.7185872    464.62142 0.0083969749  0.006582689         3936 
 4612000   0.50984387   -9.7015477    465.30459 0.0084074984 0.0065801584         3927 
 4613000   0.51232284   -9.7123147    465.12215   0.00840238  0.006577627         3934 
 4614000   0.50922145    -9.704602    465.28074 0.0084034233 0.0065750987         3926 
 4615000   0.50940028   -9.6901933    464.82068 0.0083932951 0.0065725719         3938 
 4616000   0.49700935   -9.7042775    465.23248  0.008398911  0.006570045         3933 
 4617000   0.51402959   -9.7182225    464.52637 0.0083843471 0.0065675214         3928 
 4618000   0.51208484   -9.7050888    464.11444 0.0083750982 0.0065649983         3932 
 4619000    0.5214742   -9.7170339    464.69035 0.0083836752 0.0065624783         3929 
 4620000   0.52279488   -9.6935653    465.51954 0.0083968171 0.0065599598         3920 
 4621000   0.51447159   -9.7090243    464.92608 0.0083842978 0.0065574405         3933 
 4622000   0.51300497   -9.6979579    465.08411 0.0083853331 0.0065549216         3928 
 4623000   0.49454294   -9.6932501    464.97273 0.0083815114 0.0065524052         3923 
 4624000   0.51513621   -9.7106891    464.67884 0.0083744023 0.0065498897         3937 
 4625000   0.50704556   -9.7038314    465.29212 0.0083836417 0.0065473756         3930 
 4626000      0.51268   -9.7028457    464.52071 0.0083679333 0.0065448644         3935 
 4627000   0.50824916   -9.6937245    465.24129 0.0083791026 0.0065423529         3938 
 4628000    0.5104095   -9.7000387    465.27345 0.0083778711 0.0065398418         3934 
 4629000    0.5097583   -9.6961641    464.74789 0.0083665999 0.0065373317         3927 
 4630000   0.51296631   -9.7148277    464.66802 0.0083633553 0.0065348231         3931 
 4631000   0.51541638   -9.7077989    465.17387 0.0083706519 0.0065323149         3926 
 4632000    0.5203105   -9.7024458    464.89984 0.0083639148 0.0065298101         3933 
 4633000   0.51553453   -9.7090153    464.84106 0.0083610522 0.0065273044         3923 
 4634000   0.52135616   -9.7100375    465.07823  0.008363513 0.0065248015         3935 
 4635000     0.509305   -9.6910886    465.21951 0.0083642487 0.0065223004         3916 
 4636000   0.51334527   -9.7184644    465.08336 0.0083599971 0.0065198003         3925 
 4637000   0.50987475   -9.7081136    464.28056 0.0083437668 0.0065173009         3936 
 4638000   0.50084302    -9.700931    464.47254 0.0083454172 0.0065148043         3926 
 4639000   0.50767953   -9.7169632    464.98693 0.0083528586 0.0065123105         3932 
 4640000   0.51958439   -9.7039032    464.78988 0.0083475194 0.0065098167         3929 
 4641000   0.51795361   -9.7153335    465.02486   0.00834994 0.0065073211         3935 
 4642000   0.51180371   -9.6924122    465.03241 0.0083482768 0.0065048297         3923 
 4643000   0.50676945   -9.7019752     465.5479 0.0083557309 0.0065023408         3921 
 4644000   0.51354577   -9.7122329    465.17859 0.0083473046 0.0064998519         3932 
 4645000   0.50206766   -9.7010447    465.15587 0.0083450999 0.0064973628         3922 
 4646000    0.5095304   -9.7118075    464.59999 0.0083333332 0.0064948765         3930 
 4647000    0.5103953   -9.7242825    465.44607 0.0083467124 0.0064923916         3928 
 4648000    0.5079724   -9.7134066    464.53991 0.0083286702 0.0064899087         3934 
 4649000   0.51467996   -9.7044439     464.5435 0.0083269431 0.0064874278         3927 
 4650000   0.50427951   -9.7065653    464.39078 0.0083224154 0.0064849467         3927 
 4651000   0.50401894   -9.7014481    464.66666  0.008325569 0.0064824668         3931 
 4652000   0.50438721   -9.7154494    464.70785 0.0083245173 0.0064799887         3922 
 4653000   0.50710941   -9.7209306    464.87479  0.008325718 0.0064775116         3924 
 4654000   0.50382678   -9.7072013       465.88 0.0083419282 0.0064750356         3936 
 4655000   0.49992941   -9.7063703    464.63188 0.0083177924 0.0064725598         3930 
 4656000   0.50917133   -9.6949867    465.59794 0.0083332965 0.0064700864         3929 
 4657000   0.50797923   -9.7284834    464.14038 0.0083054252 0.0064676146         3935 
 4658000   0.50462378   -9.7228743    465.04827 0.0083198845 0.0064651416         3923 
 4659000   0.51670285   -9.7076202    465.01244  0.008317458 0.0064626716         3931 
 4660000   0.50539088   -9.7081562    465.76662 0.0083291599  0.006460204         3941 
 4661000    0.5067222   -9.7265211     465.3192 0.0083193735 0.0064577363         3935 
 4662000   0.50087676   -9.7111158    464.91017 0.0083102776 0.0064552713         3933 
 4663000   0.50563469    -9.727614    464.13307 0.0082946077 0.0064528057         3931 
 4664000   0.49944949   -9.7113407    465.24507 0.0083126977  0.006450342         3931 
 4665000   0.51033966    -9.709445    464.58366 0.0082991007 0.0064478777         3928 
 4666000   0.49867446   -9.7070926    464.79877 0.0083011639 0.0064454161         3917 
 4667000   0.50223466   -9.7213955    465.00357 0.0083030421 0.0064429559         3923 
 4668000   0.50626823   -9.7100785    464.60778 0.0082941978 0.0064404944         3930 
 4669000   0.50837044   -9.7103525    464.86826 0.0082970704 0.0064380354         3933 
 4670000   0.50838252   -9.7146259    464.51367 0.0082889663 0.0064355797         3920 
 4671000   0.49457365   -9.7053954    465.07602 0.0082972243  0.006433124         3924 
 4672000   0.51750099    -9.720847    465.33046 0.0082999868 0.0064306693         3929 
 4673000   0.51997834   -9.7209989    464.92866 0.0082910453 0.0064282174         3925 
 4674000     0.510562   -9.7268472    464.81998 0.0082873339 0.0064257667         3931 
 4675000   0.50087302   -9.7118629    464.52308 0.0082802687 0.0064233181         3927 
 4676000   0.49414511   -9.7160817    464.96506 0.0082863747 0.0064208681         3923 
 4677000   0.50511957   -9.7201096    465.02176 0.0082856133 0.0064184211         3930 
 4678000   0.49698397   -9.7085908    464.32955 0.0082715112 0.0064159738         3926 
 4679000    0.5049621   -9.7105701    464.58348 0.0082742659 0.0064135289         3920 
 4680000   0.50298341   -9.7051868    464.60498 0.0082728806 0.0064110855         3925 
 4681000   0.49701016   -9.7193665    464.92814 0.0082768663  0.006408644         3915 
 4682000   0.51442721   -9.7298764     464.3531 0.0082648636 0.0064062024         3924 
 4683000   0.51403749   -9.7120271    464.38358 0.0082636412 0.0064037617         3924 
 4684000   0.50460539   -9.7139022    464.88176 0.0082707401 0.0064013216         3928 
 4685000   0.50138684    -9.712173    465.09809 0.0082728227  0.006398884         3925 
 4686000   0.50480786   -9.7194787    465.61379 0.0082802281 0.0063964482         3930 
 4687000   0.52096825   -9.7223141    464.69192  0.008262071 0.0063940133         3929 
 4688000   0.50670748   -9.7251553    464.24476 0.0082523598 0.0063915807         3923 
 4689000   0.48809731   -9.7256565    464.63431 0.0082575232 0.0063891491         3924 
 4690000   0.49976541    -9.722761    464.51383 0.0082536216 0.0063867187         3927 
 4691000   0.50932767    -9.714114    465.15588  0.008263268 0.0063842903         3926 
 4692000   0.49592664   -9.7086553    463.91398 0.0082394498 0.0063818616         3934 
 4693000   0.50507206   -9.7225609    465.35816 0.0082633384 0.0063794341         3938 
 4694000   0.50155428   -9.7139545    464.50645 0.0082464574  0.006377008         3938 
 4695000   0.50687011   -9.7110258    464.33775 0.0082417066 0.0063745808         3930 
 4696000   0.50441361   -9.7196631    464.85448 0.0082491212 0.0063721572         3930 
 4697000   0.50018227   -9.7251321    465.04286 0.0082507071 0.0063697347         3926 
 4698000   0.49506352   -9.7015449    464.06213 0.0082315547 0.0063673143         3933 
 4699000   0.49493927   -9.7003848      465.245 0.0082507803 0.0063648939         3919 
 4700000   0.50612274   -9.7395496    464.37263 0.0082335572 0.0063624757         3926 
 4701000   0.50149846   -9.7188949    463.77019 0.0082211265  0.006360057         3915 
 4702000   0.51297908   -9.7119959    464.93512 0.0082400241 0.0063576405         3921 
 4703000   0.49909907   -9.7131449    464.49212 0.0082304225 0.0063552264         3927 
 4704000   0.49850111   -9.7265204    464.63719 0.0082312427 0.0063528131         3925 
 4705000   0.49624987   -9.7232398    464.30526 0.0082236143 0.0063503999         3926 
 4706000   0.50635983   -9.7320072    464.40942 0.0082237112 0.0063479892         3920 
 4707000   0.50142111   -9.7139465    464.29227   0.00821989 0.0063455791         3932 
 4708000     0.508122   -9.7233426    464.50942 0.0082219878 0.0063431701         3914 
 4709000   0.48908726   -9.7211208    464.76673 0.0082247952 0.0063407606         3915 
 4710000   0.50005838   -9.7520557    464.19462 0.0082129267  0.006338353         3934 
 4711000   0.49176628   -9.7285849    464.00712 0.0082078666 0.0063359471         3924 
 4712000   0.49379648   -9.7221548    464.23863 0.0082102192  0.006333544         3928 
 4713000   0.49730989   -9.7325955    464.62624 0.0082153306  0.006331143         3927 
 4714000   0.49523073   -9.7272046    464.20765 0.0082061882  0.006328743         3930 
 4715000   0.48918927    -9.742832    464.26881 0.0082055287 0.0063263433         3926 
 4716000   0.50133235   -9.7048024    464.42625 0.0082065707  0.006323944         3915 
 4717000    0.4823719   -9.7312286    464.94192  0.008213941 0.0063215485         3931 
 4718000   0.49677312   -9.7292105    464.31959 0.0082012079 0.0063191531         3922 
 4719000   0.49254454   -9.7270556    464.21277 0.0081975837 0.0063167573         3932 
 4720000   0.50413723   -9.7226123    464.58156 0.0082023581 0.0063143634         3919 
 4721000   0.50106617   -9.7279217    465.15408 0.0082107265 0.0063119717         3925 
 4722000   0.49579062    -9.724534    464.62015 0.0081995651 0.0063095816         3923 
 4723000   0.49693383   -9.7169536    464.56079 0.0081967816 0.0063071919         3931 
 4724000   0.49557665   -9.7322788    464.67307  0.008197027 0.0063048033         3927 
 4725000    0.4953758   -9.7217758    464.85457 0.0081984933 0.0063024158         3928 
 4726000   0.49306798   -9.7369154    464.38068 0.0081884024 0.0063000287         3929 
 4727000   0.50539067   -9.7395805     464.5489 0.0081896358 0.0062976432         3927 
 4728000   0.49143132    -9.727541    464.45968 0.0081863311 0.0062952601         3920 
 4729000   0.49246916   -9.7366288    464.09472 0.0081781687 0.0062928752         3938 
 4730000   0.49330382   -9.7346867    464.33117 0.0081806055 0.0062904945         3925 
 4731000   0.50015819   -9.7314748    464.20036 0.0081765722 0.0062881135         3924 
 4732000   0.49491054    -9.732221    464.54251 0.0081808698 0.0062857353         3932 
 4733000   0.49265179   -9.7274757    463.99841 0.0081695614  0.006283357         3928 
 4734000   0.49358694   -9.7421664    464.44497 0.0081756966 0.0062809788         3920 
 4735000   0.49880119   -9.7381772    464.45359 0.0081741217 0.0062786033         3916 
 4736000   0.49055319   -9.7475199    463.94492 0.0081634452 0.0062762297         3929 
 4737000   0.49288837   -9.7323894      465.106 0.0081821476 0.0062738554         3918 
 4738000   0.50344273   -9.7089369    464.22834 0.0081649842 0.0062714848         3914 
 4739000   0.48962067    -9.730785    463.71656 0.0081542617 0.0062691127         3917 
 4740000   0.49240016   -9.7356986    464.06259 0.0081586251 0.0062667436         3929 
 4741000   0.48486323   -9.7123178    464.51873 0.0081649217 0.0062643763         3924 
 4742000   0.50433835   -9.7363941    464.33408  0.008159955 0.0062620089         3925 
 4743000    0.4900187   -9.7245671    464.46092 0.0081604631 0.0062596444         3915 
 4744000   0.49865397   -9.7322904    464.51374 0.0081596709 0.0062572783         3929 
 4745000   0.48955691   -9.7513868    463.77293 0.0081449408 0.0062549145         3927 
 4746000   0.48476066   -9.7412998    464.15168  0.008149875  0.006252552         3927 
 4747000   0.48093421   -9.7414434    463.91293 0.0081439668 0.0062501899         3921 
 4748000   0.48385489   -9.7174299     464.5978  0.008154272 0.0062478299         3911 
 4749000   0.48653204   -9.7372321    464.17162 0.0081450766 0.0062454696         3918 
 4750000    0.4864222    -9.733137    464.10817 0.0081422485 0.0062431126         3930 
 4751000   0.49922932   -9.7426534    464.10028 0.0081403964 0.0062407554         3926 
 4752000   0.49817706   -9.7516266    464.51299 0.0081459208  0.006238402         3923 
 4753000   0.48174413   -9.7241018      463.995 0.0081351252 0.0062360474         3912 
 4754000   0.48190323   -9.7416923    464.12833 0.0081357511 0.0062336938         3923 
 4755000    0.4880625   -9.7332756    463.86338 0.0081293969 0.0062313433         3919 
 4756000   0.48963859   -9.7407809    464.73343 0.0081429323 0.0062289915         3922 
 4757000   0.48636111    -9.738056    463.36245 0.0081172037 0.0062266421         3919 
 4758000   0.49268765   -9.7439312    464.55117 0.0081363173 0.0062242929         3920 
 4759000   0.49287932   -9.7311893    463.95978 0.0081242519 0.0062219467         3919 
 4760000   0.48308595   -9.7283998    463.95818 0.0081225171 0.0062196009         3932 
 4761000   0.48118974   -9.7204932    465.31691 0.0081445935 0.0062172569         3920 
 4762000   0.49410997   -9.7453874    464.38414 0.0081265599  0.006214916         3937 
 4763000   0.49697774   -9.7347576     464.2106 0.0081218174 0.0062125728         3924 
 4764000   0.48789205   -9.7540221    463.54559 0.0081084801  0.006210233         3919 
 4765000   0.48213833   -9.7409749    464.74923 0.0081278284  0.006207891         3928 
 4766000   0.49106905   -9.7271771    464.79362 0.0081268992 0.0062055516         3926 
 4767000   0.48921644   -9.7378905    464.58477 0.0081215434  0.006203214         3920 
 4768000   0.48716754   -9.7241558    464.08425 0.0081110922 0.0062008775         3922 
 4769000   0.49201631   -9.7301914    464.13649 0.0081103043 0.0061985432         3928 
 4770000   0.48516806   -9.7400529    463.91148  0.008104673 0.0061962091         3920 
 4771000   0.48054488    -9.746591    464.60936 0.0081151638 0.0061938769         3933 
 4772000   0.49428376   -9.7435322    464.07096 0.0081040611  0.006191545         3930 
 4773000   0.50436675   -9.7427252    464.50216 0.0081098918 0.0061892159         3924 
 4774000   0.49839906   -9.7270438    464.28918 0.0081044753 0.0061868877         3929 
 4775000     0.480533   -9.7467177    464.21973  0.008101566 0.0061845592         3921 
 4776000   0.47340519   -9.7489271    463.65821  0.008090072  0.006182231         3936 
 4777000   0.48706377   -9.7475177    464.11513 0.0080963493 0.0061799047         3915 
 4778000   0.49650666   -9.7371337    464.13549   0.00809501 0.0061775791         3935 
 4779000   0.47476373    -9.746686    464.59317 0.0081012969 0.0061752547         3929 
 4780000   0.48450987   -9.7476956    463.82575 0.0080862229 0.0061729326         3925 
 4781000    0.4856169   -9.7409204    464.59495 0.0080979389  0.006170611         3920 
 4782000   0.48337629   -9.7387207    464.52762 0.0080950722 0.0061682902         3917 
 4783000    0.4982558   -9.7362155    463.99713  0.008084137 0.0061659706         3921 
 4784000   0.47909401   -9.7426327    464.57252   0.00809247 0.0061636546         3922 
 4785000   0.48377621   -9.7413332    463.50362 0.0080721633 0.0061613377         3917 
 4786000   0.49520785    -9.737816    463.98221 0.0080788099 0.0061590216         3927 
 4787000   0.48893128   -9.7336511    464.31488 0.0080829134 0.0061567081         3931 
 4788000    0.4835044   -9.7502429    463.98518 0.0080754869 0.0061543967         3932 
 4789000   0.48646868    -9.731868    463.87289 0.0080718468 0.0061520857         3913 
 4790000   0.48905216   -9.7386888     464.1005 0.0080741214 0.0061497752         3924 
 4791000   0.48624521   -9.7469312    463.62032 0.0080640841 0.0061474657         3924 
 4792000   0.49289167   -9.7437787    463.55351 0.0080612394 0.0061451582         3927 
 4793000   0.46704897    -9.743689    464.21102 0.0080709893 0.0061428496         3919 
 4794000   0.47415509   -9.7407364    463.96644 0.0080650542 0.0061405442         3918 
 4795000   0.47960201   -9.7373774    463.92753 0.0080626961 0.0061382401         3922 
 4796000   0.48998445   -9.7471969    464.69773 0.0080743975 0.0061359351         3923 
 4797000   0.49452171   -9.7290733     463.7897   0.00805694 0.0061336318         3926 
 4798000   0.48355794   -9.7453513    463.79325 0.0080553226 0.0061313306         3933 
 4799000   0.48824987   -9.7486373    463.84633 0.0080545658 0.0061290306         3917 
 4800000   0.48919426   -9.7247557    463.99532 0.0080554743  0.006126732         3934 
 4801000   0.48944296   -9.7597286    464.07411  0.008055164 0.0061244345         3917 
 4802000    0.4684431   -9.7445766    463.58585 0.0080450134 0.0061221369         3923 
 4803000   0.48630238   -9.7441921    463.95837 0.0080498016 0.0061198413         3926 
 4804000   0.47646907    -9.739631    463.70832 0.0080437886  0.006117549         3922 
 4805000   0.48477546    -9.743507    464.23758 0.0080512935 0.0061152551         3939 
 4806000   0.48362272   -9.7561959    463.78203 0.0080417193 0.0061129633         3925 
 4807000   0.48388051   -9.7452506    464.19378 0.0080471844  0.006110672         3920 
 4808000   0.48288355    -9.747875    463.57593 0.0080348018 0.0061083816         3920 
 4809000   0.47539648   -9.7532685      464.269 0.0080451411  0.006106093         3920 
 4810000   0.47492075   -9.7459756    463.91048 0.0080372572 0.0061038053         3931 
 4811000   0.48068034   -9.7522802    464.34524 0.0080431172 0.0061015182         3924 
 4812000   0.48097249   -9.7453921    463.67972 0.0080299204 0.0060992326         3923 
 4813000   0.48070374   -9.7573053    463.95493  0.008033017 0.0060969506         3918 
 4814000   0.48745505   -9.7478665    463.59839 0.0080251763 0.0060946678         3932 
 4815000   0.48015892   -9.7475022    464.19478 0.0080338314 0.0060923863         3941 
 4816000   0.46782236   -9.7266116    463.65524 0.0080228274 0.0060901062         3931 
 4817000   0.49750033   -9.7419051    463.95282 0.0080263099  0.006087827         3927 
 4818000   0.48333131   -9.7586027    465.04257 0.0080434926 0.0060855493         3933 
 4819000   0.47431698   -9.7381183    463.83289 0.0080209048 0.0060832717         3930 
 4820000   0.48140952   -9.7519092    463.65671 0.0080161948 0.0060809969         3927 
 4821000   0.47550697   -9.7627187     463.9551 0.0080196899 0.0060787232         3920 
 4822000   0.47536561   -9.7421701    463.90598 0.0080171779 0.0060764501         3923 
 4823000   0.47238811   -9.7458321    463.88375 0.0080151315 0.0060741771         3926 
 4824000   0.48093588   -9.7549796    463.41191 0.0080053191 0.0060719052         3937 
 4825000   0.48315756    -9.750228    463.32701 0.0080021937 0.0060696358         3928 
 4826000   0.48035142   -9.7614306    463.86452  0.008009817 0.0060673675         3929 
 4827000   0.49337708   -9.7365856    463.47624 0.0080014543 0.0060651006         3925 
 4828000    0.4804815   -9.7469582    464.23571 0.0080129057 0.0060628334         3928 
 4829000   0.47325916   -9.7578478     463.9504  0.008006323  0.006060569         3932 
 4830000   0.48342804   -9.7462156    464.27743 0.0080103077 0.0060583054         3929 
 4831000   0.47842919   -9.7531052    464.24606 0.0080081085 0.0060560432         3927 
 4832000   0.47475465   -9.7510294    463.96668 0.0080016329 0.0060537813         3926 
 4833000    0.4751148   -9.7487087    463.78427 0.0079968321 0.0060515201         3926 
 4834000   0.47498098   -9.7500825    463.42959 0.0079890633 0.0060492602         3926 
 4835000   0.48711668    -9.756634    464.50953 0.0080060242  0.006047003         3916 
 4836000   0.48218326   -9.7672488    463.88536 0.0079936131 0.0060447467         3916 
 4837000   0.47423227   -9.7620701    464.00593 0.0079940378 0.0060424909         3924 
 4838000   0.47751924   -9.7560307    463.61102 0.0079855832 0.0060402375         3924 
 4839000   0.48088815    -9.749664    464.14369 0.0079931061 0.0060379821         3919 
 4840000   0.48392041   -9.7531919    463.21584 0.0079754794 0.0060357295         3936 
 4841000   0.48433407   -9.7347362    464.08186 0.0079887395 0.0060334778         3933 
 4842000   0.47633827   -9.7576657    463.27958  0.007973282 0.0060312285         3922 
 4843000   0.46811349   -9.7614491    464.04141 0.0079847445 0.0060289787         3929 
 4844000   0.47720728   -9.7511014    463.87902 0.0079803025 0.0060267299         3929 
 4845000   0.47549624    -9.767378    463.60738 0.0079739831 0.0060244836         3925 
 4846000   0.46921789   -9.7507515    462.76799 0.0079579033 0.0060222365         3937 
 4847000   0.47015902   -9.7678861    464.24087 0.0079815843  0.006019992         3928 
 4848000   0.47382842   -9.7422786    463.65099 0.0079697983 0.0060177484         3932 
 4849000   0.48437529   -9.7497363    463.03017 0.0079574856 0.0060155051         3921 
 4850000   0.47361491   -9.7491481    464.02769 0.0079729844 0.0060132649         3927 
 4851000   0.47865319   -9.7498165    463.56445  0.007963383 0.0060110238         3934 
 4852000   0.47137796   -9.7523008    464.73488  0.007981844 0.0060087839         3924 
 4853000   0.48845987   -9.7689115    464.21937 0.0079713472 0.0060065455         3926 
 4854000   0.47711982   -9.7498147    463.78985 0.0079623309 0.0060043089         3919 
 4855000   0.46996966   -9.7376511     463.4188  0.007954322 0.0060020727         3935 
 4856000   0.47048586   -9.7537823    464.27719 0.0079674147 0.0059998378         3930 
 4857000   0.46117143    -9.762635    464.21546 0.0079647151 0.0059976045         3926 
 4858000   0.47651509   -9.7673996    463.19713 0.0079456075 0.0059953709         3936 
 4859000   0.47415084   -9.7536138    463.65043 0.0079517464 0.0059931393         3934 
 4860000   0.46351442   -9.7504144    464.11625 0.0079580976 0.0059909073         3929 
 4861000   0.47404175   -9.7706759    463.45364 0.0079451012 0.0059886784         3919 
 4862000   0.47783038   -9.7678495    464.24643 0.0079570552 0.0059864505         3929 
 4863000   0.47560406   -9.7726681    463.85778 0.0079487591 0.0059842261         3925 
 4864000   0.48058599   -9.7762939    463.43122 0.0079398167  0.005982001         3933 
 4865000   0.48224373   -9.7608567    463.80661 0.0079446147 0.0059797771         3912 
 4866000   0.48170722    -9.762161    463.99792 0.0079462583 0.0059775529         3920 
 4867000    0.4709472    -9.752013    463.61767  0.007938115 0.0059753317         3932 
 4868000   0.47499902   -9.7570762    463.82476 0.0079400294 0.0059731094         3932 
 4869000   0.47727665    -9.764175    463.58905 0.0079343646 0.0059708899         3930 
 4870000   0.47164649   -9.7646148    463.89095 0.0079379012 0.0059686714         3933 
 4871000   0.47133476   -9.7648733    463.35992 0.0079271867 0.0059664538         3928 
 4872000   0.47289406   -9.7698937    463.12515  0.007921544  0.005964236         3921 
 4873000   0.47415165   -9.7532582    463.15042 0.0079203506 0.0059620194         3929 
 4874000   0.48062463   -9.7609788    463.48827  0.007924502 0.0059598037         3932 
 4875000   0.46978718   -9.7671073    463.56524 0.0079241922   0.00595759         3926 
 4876000   0.46629467   -9.7624743    463.66904 0.0079243409 0.0059553787         3931 
 4877000   0.47406753   -9.7742929    463.82482  0.007925378 0.0059531677         3926 
 4878000   0.46520955   -9.7583887    463.35375 0.0079157058 0.0059509587         3928 
 4879000   0.46730513   -9.7526025    463.87179 0.0079229315 0.0059487495         3938 
 4880000   0.46634237   -9.7593844    463.76419 0.0079194705 0.0059465408         3915 
 4881000   0.47679236   -9.7651658    463.36314 0.0079110009 0.0059443348         3921 
 4882000    0.4623403   -9.7661993    463.40646 0.0079101199  0.005942127         3922 
 4883000   0.47036033   -9.7691944    463.56864 0.0079112676 0.0059399213         3921 
 4884000   0.47189842    -9.769647    463.47125 0.0079079862  0.005937718         3924 
 4885000   0.46374159   -9.7616768    463.40413 0.0079052222  0.005935517         3931 
 4886000   0.46887352   -9.7689815    463.60547 0.0079070382 0.0059333157         3926 
 4887000   0.46850212    -9.759353    463.35785  0.007901198 0.0059311156         3919 
 4888000   0.47330313   -9.7508661    463.67518 0.0079049914 0.0059289172         3917 
 4889000   0.46951264   -9.7703123    463.53814 0.0079010387 0.0059267198         3933 
 4890000   0.47342397   -9.7705022    463.62104 0.0079008357 0.0059245227         3932 
 4891000   0.47540001   -9.7644877    463.97704 0.0079052859 0.0059223274         3918 
 4892000   0.47031474   -9.7604983    464.27989 0.0079088288 0.0059201317         3924 
 4893000   0.47226936   -9.7681657    463.28604 0.0078902862 0.0059179388         3928 
 4894000   0.47254723    -9.772328    463.43445 0.0078912009  0.005915746         3934 
 4895000   0.46514239   -9.7582044    462.74543 0.0078778589 0.0059135557         3930 
 4896000   0.46193612   -9.7808476    463.11505  0.007882541 0.0059113648         3927 
 4897000   0.46616303   -9.7844629    464.17643  0.007898993 0.0059091741         3931 
 4898000   0.47011971   -9.7707391    463.11451 0.0078793131 0.0059069856         3924 
 4899000    0.4666091   -9.7772521    463.34407 0.0078816097 0.0059047991         3928 
 4900000   0.47592739   -9.7753797    463.08102 0.0078755276 0.0059026138         3935 
 4901000    0.4732161   -9.7675872    463.47691 0.0078806521 0.0059004298         3924 
 4902000   0.46874162   -9.7686809    463.93427 0.0078868195 0.0058982452         3928 
 4903000   0.47086475   -9.7756538    463.64126 0.0078802309 0.0058960624         3937 
 4904000   0.45894694    -9.774032     463.0497 0.0078685716 0.0058938816         3924 
 4905000   0.46492722   -9.7819518    463.14456 0.0078685789 0.0058917012         3930 
 4906000   0.46665894   -9.7639648    463.65717 0.0078756823 0.0058895217         3924 
 4907000   0.47156839    -9.776218    463.90739 0.0078783267 0.0058873426         3936 
 4908000    0.4680245   -9.7638272    463.07635 0.0078626112 0.0058851661         3916 
 4909000   0.45650646   -9.7762014    463.21734  0.007863403 0.0058829916         3925 
 4910000   0.45658479   -9.7644825    462.97696 0.0078577216 0.0058808159         3934 
 4911000   0.45796334   -9.7783471    463.63098 0.0078672196 0.0058786427         3929 
 4912000   0.46718171    -9.770225    463.84395  0.007869231 0.0058764707         3930 
 4913000   0.45983183   -9.7669755    464.07054 0.0078714726 0.0058742989         3928 
 4914000   0.46550553   -9.7711376    463.41414 0.0078587394 0.0058721294         3929 
 4915000    0.4530497   -9.7708424     462.9431 0.0078491539 0.0058699602         3918 
 4916000   0.45193634   -9.7740968    463.69652 0.0078603288 0.0058677913         3921 
 4917000   0.47161889   -9.7643746    463.26066 0.0078513434 0.0058656239         3922 
 4918000   0.47754841   -9.7631288    463.96178 0.0078616271 0.0058634582         3925 
 4919000   0.47259027   -9.7833138    463.55622 0.0078531581 0.0058612922         3926 
 4920000   0.46440358    -9.768994    463.37946  0.007848568 0.0058591279         3929 
 4921000   0.46567746   -9.7709362    463.79568 0.0078540215  0.005856965         3923 
 4922000   0.47072115   -9.7626952    462.41645 0.0078290744 0.0058548034         3926 
 4923000   0.46787636   -9.7937242    463.26345 0.0078418215 0.0058526436         3925 
 4924000   0.46637516   -9.7817512    462.84175 0.0078330922 0.0058504837         3922 
 4925000   0.45821127    -9.760783    463.58274 0.0078440396 0.0058483239         3930 
 4926000   0.46609584   -9.7757581    463.57402 0.0078422996 0.0058461651         3915 
 4927000   0.46616342   -9.7770081    463.28241 0.0078357758 0.0058440067         3932 
 4928000   0.45900467   -9.7749954     463.4834 0.0078375845  0.005841852         3931 
 4929000    0.4529231   -9.7742033    463.09926 0.0078294999  0.005839698         3934 
 4930000   0.46516935   -9.7845746    463.74033 0.0078387479  0.005837546         3930 
 4931000   0.45580745   -9.7685999    463.32978   0.00783022 0.0058353946         3932 
 4932000    0.4646484   -9.7859503    463.19098 0.0078262872 0.0058332436         3929 
 4933000   0.45716848   -9.7678649    462.84432 0.0078188445 0.0058310955         3926 
 4934000   0.46184892   -9.7703229    462.96542 0.0078193052 0.0058289453         3930 
 4935000   0.46820756   -9.7724429    462.82924 0.0078154211 0.0058267962         3943 
 4936000   0.46466073   -9.7852109     463.6874 0.0078283258 0.0058246497         3927 
 4937000   0.46540725   -9.7683633    462.87986 0.0078131095 0.0058225038         3939 
 4938000   0.46904292   -9.7756271    463.76856  0.007826525 0.0058203588         3932 
 4939000   0.46476448   -9.7733095    463.43343 0.0078192857 0.0058182143         3929 
 4940000   0.46060296   -9.7661433    462.84638    0.0078078 0.0058160709         3928 
 4941000   0.46369313    -9.774352    463.63424 0.0078195075 0.0058139293         3933 
 4942000   0.44920665   -9.7839824    463.50635 0.0078157688 0.0058117887         3918 
 4943000   0.45694674   -9.7640556    463.17467 0.0078085959 0.0058096497         3927 
 4944000   0.46901252   -9.7727293    463.53049 0.0078130139 0.0058075113         3929 
 4945000    0.4681707    -9.779872    463.13384 0.0078047496 0.0058053737         3933 
 4946000   0.46189901   -9.7847302    463.04081 0.0078016041 0.0058032381         3925 
 4947000   0.47274423   -9.7840768    463.33193 0.0078049311 0.0058011021         3941 
 4948000   0.45912393    -9.791799    463.08428 0.0077991828 0.0057989667         3926 
 4949000   0.46334449    -9.793458    463.19032 0.0077993924 0.0057968322         3926 
 4950000   0.45729082   -9.7772123    464.15033 0.0078139786 0.0057946999         3935 
 4951000   0.46044062   -9.7916232    463.39504 0.0077996875 0.0057925691         3926 
 4952000    0.4599278   -9.7734162    463.77294 0.0078044719 0.0057904396         3926 
 4953000   0.47292042   -9.7874408    462.94149 0.0077889073 0.0057883104         3934 
 4954000   0.45809769   -9.7752956     463.1009 0.0077900165 0.0057861826         3938 
 4955000   0.44508531   -9.7873972    463.66285 0.0077978952 0.0057840552         3927 
 4956000   0.44873328   -9.7721677    462.95429 0.0077844077 0.0057819295         3929 
 4957000   0.46070104   -9.7888694    463.46381 0.0077914029 0.0057798047         3924 
 4958000   0.45781267   -9.7822799    462.64799 0.0077761192 0.0057776802         3922 
 4959000   0.46439556    -9.798934    463.36069 0.0077865277 0.0057755567         3925 
 4960000   0.45909267   -9.7858948    463.27209 0.0077834693 0.0057734344         3926 
 4961000   0.45579096   -9.7796817    463.21822 0.0077809954 0.0057713138         3934 
 4962000   0.45483512    -9.783718    462.97243 0.0077752995  0.005769195         3927 
 4963000   0.45746429   -9.7888553    462.44176 0.0077648224 0.0057670779         3931 
 4964000   0.45237403    -9.788938    463.46718 0.0077804724 0.0057649604         3933 
 4965000   0.46315142   -9.7793724    463.55931 0.0077804516 0.0057628446         3933 
 4966000   0.45299228   -9.7737379    463.50153 0.0077779153   0.00576073         3933 
 4967000    0.4630516   -9.7829431    462.86598 0.0077656865 0.0057586156         3924 
 4968000   0.46679428   -9.7871961    463.21095 0.0077699099 0.0057565028         3922 
 4969000   0.45821963   -9.7731745    463.07483 0.0077660635 0.0057543912         3926 
 4970000   0.45778535   -9.7952081    463.67654 0.0077745899 0.0057522811         3921 
 4971000   0.44778632   -9.7775613    463.29373 0.0077666084 0.0057501719         3938 
 4972000   0.44275829   -9.7804182    463.00053 0.0077601322 0.0057480635         3926 
 4973000   0.45750717   -9.7978638    462.70322 0.0077535897 0.0057459551         3927 
 4974000   0.45228052   -9.7848717    463.25463 0.0077612692 0.0057438495         3924 
 4975000   0.47182154   -9.7915563    462.66476 0.0077498284 0.0057417423         3932 
 4976000   0.45765701   -9.7896512    463.34231  0.007759618 0.0057396363         3930 
 4977000   0.45903244   -9.7831307    463.41794 0.0077593252  0.005737532         3923 
 4978000    0.4590567   -9.7784767     463.5544 0.0077600509 0.0057354298         3921 
 4979000   0.46862327   -9.7836104    462.95565 0.0077484711 0.0057333285         3939 
 4980000   0.46292221   -9.7942184    463.71673 0.0077596508  0.005731228         3945 
 4981000   0.45816253   -9.7883929    462.91673 0.0077447087 0.0057291296         3931 
 4982000   0.46271906   -9.7864666    463.69254 0.0077561311  0.005727031         3926 
 4983000   0.45210221    -9.788459    463.11148 0.0077448571 0.0057249343         3924 
 4984000    0.4637805   -9.7925443    462.56451 0.0077341578 0.0057228386         3937 
 4985000   0.45958936   -9.7934964     462.8281 0.0077370128 0.0057207429         3929 
 4986000   0.45798266   -9.7817234    463.07684 0.0077396183 0.0057186503         3935 
 4987000   0.44252394   -9.7701863    463.00085 0.0077367965 0.0057165569         3933 
 4988000   0.45089071   -9.7836595    463.06617 0.0077363367 0.0057144638         3930 
 4989000   0.45291737   -9.7803763    462.64506 0.0077277521 0.0057123728         3930 
 4990000   0.45548587   -9.7884427    463.03797  0.007732765  0.005710282         3936 
 4991000   0.45288604   -9.7868971    462.83515 0.0077278292 0.0057081922         3927 
 4992000   0.44394389   -9.7955037     462.6388 0.0077230034 0.0057061036         3917 
 4993000   0.45164753   -9.8082723     463.5767 0.0077371102 0.0057040163         3921 
 4994000   0.45459169   -9.7839739    463.00491 0.0077260198 0.0057019304         3926 
 4995000   0.45918886   -9.7797712     462.9892 0.0077242109 0.0056998452         3926 
 4996000   0.44391301    -9.802696    462.57385 0.0077157368 0.0056977604         3937 
 4997000   0.45327424   -9.7998058    462.86936 0.0077191208 0.0056956782         3927 
 4998000   0.45052785   -9.8007288    462.83676 0.0077170329  0.005693596         3919 
 4999000   0.45920724   -9.7884365    463.28007 0.0077228791 0.0056915161         3923 
 5000000   0.43818315    -9.785056     462.9136 0.0077152267  0.005689436         3921 
 5001000   0.44621855   -9.7939016    462.94887 0.0077142716 0.0056873586         3934 
 5002000   0.44668772   -9.7914641     462.8752 0.0077115021   0.00568528         3937 
 5003000   0.44745419    -9.793443    463.20286 0.0077154184 0.0056832028         3933 
 5004000   0.45191093   -9.7915261    463.10458 0.0077122399 0.0056811264         3927 
 5005000   0.45607107   -9.7752615    462.95401  0.007708192  0.005679052         3927 
 5006000   0.45490317   -9.7918489    462.54929  0.007699915 0.0056769771         3916 
 5007000    0.4539734   -9.7900219    462.87229 0.0077037528 0.0056749048         3930 
 5008000   0.43843871   -9.7883385    463.04301 0.0077050555 0.0056728326         3932 
 5009000   0.44473898   -9.7963607    462.39271 0.0076926983 0.0056707613         3927 
 5010000   0.44982451   -9.8063327    462.55145 0.0076938032 0.0056686924         3928 
 5011000   0.43928109   -9.7857287    462.88412 0.0076978002 0.0056666238         3927 
 5012000   0.44181398   -9.7806704     463.0627 0.0076992335 0.0056645561         3927 
Loop time of 12966.9 on 48 procs for 5000000 steps with 4000 atoms

Performance: 66631.320 tau/day, 385.598 timesteps/s
99.4% CPU use with 48 MPI tasks x no OpenMP threads

MPI task timing breakdown:
Section |  min time  |  avg time  |  max time  |%varavg| %total
---------------------------------------------------------------
Pair    | 918.79     | 1019.7     | 1085.1     | 126.1 |  7.86
Neigh   | 85.759     | 90.837     | 94.47      |  20.3 |  0.70
Comm    | 811.51     | 919.61     | 1049.8     | 175.7 |  7.09
Output  | 17.377     | 17.382     | 17.472     |   0.3 |  0.13
Modify  | 10712      | 10787      | 10876      |  36.3 | 83.19
Other   |            | 132.8      |            |       |  1.02

Nlocal:        83.3333 ave          90 max          75 min
Histogram: 3 1 3 1 11 2 15 5 4 3
Nghost:        2367.58 ave        2401 max        2347 min
Histogram: 8 5 6 7 5 7 5 3 1 1
Neighs:        16239.7 ave       19524 max       13861 min
Histogram: 4 9 5 2 13 2 4 6 2 1
FullNghs:      32478.9 ave       36469 max       28189 min
Histogram: 3 1 3 6 9 8 9 5 3 1

Total # of neighbors = 1558989
Ave neighs/atom = 389.74725
Neighbor list builds = 266150
Dangerous builds = 0

#clear
#
#next RN
#
#jump SELF
Total wall time: 3:36:10
