
units lj                  # Use reduced LJ style units
atom_style atomic         # Uncharged point particles
atom_modify map hash      # Needed for indexing of clusters etc
                          # Used to be able to find where atoms are in relation to each other.

lattice fcc 1.0 spacing 1 1 1
Lattice spacing in x,y,z = 1.5874011 1.5874011 1.5874011
region box block 0 10 0 10 0 10 units lattice
create_box 2 box
Created orthogonal box = (0.0000000 0.0000000 0.0000000) to (15.874011 15.874011 15.874011)
  3 by 4 by 4 MPI processor grid
create_atoms 1 box
Created 4000 atoms
  using lattice units in orthogonal box = (0.0000000 0.0000000 0.0000000) to (15.874011 15.874011 15.874011)
  create_atoms CPU = 0.002 seconds
set type 1 type/fraction 2 0.59 78393
Setting atom values ...
  2375 settings made for type/fraction
mass 1 1.0
mass 2 1.0
pair_style lj/cut  3.5
pair_modify tail  yes
pair_coeff 1  1  1.0  1.0   # Intearaction between 1 and 1 set with epsilon = 1 and sigma = 1
pair_coeff 1  2  1.5  0.8
pair_coeff 2  2  0.5  0.88

write_data data.0
System init for write_data ...
Neighbor list info ...
  update every 1 steps, delay 10 steps, check yes
  max neighbors/atom: 2000, page size: 100000
  master list distance cutoff = 3.8
  ghost atom cutoff = 3.8
  binsize = 1.9, bins = 9 9 9
  1 neighbor lists, perpetual/occasional/extra = 1 0 0
  (1) pair lj/cut, perpetual
      attributes: half, newton on
      pair build: half/bin/atomonly/newton
      stencil: half/bin/3d
      bin: standard
WARNING: Not all mixed pair coeffs generated from mixing. Use write_data with 'pair ij' option to store all pair coeffs. (../write_data.cpp:312)


#############################
#   M E L T   S Y S T E M   #
#############################

velocity all create 2.4 3143649 mom yes dist gaussian # Assign velocities
                                                    # Temperature 2.4, random number seed, zero linear momentum
                                                                                # Gaussian distribution

timestep 0.002   # simulation timestep
thermo 1000       # output thermodynamic data every 1000 steps bf 100

# Define a fix  in this case with index 1 applied to all
# particles in the simulation. This fix is for simulations
# in the anisotropic NPT ensemble. Note that we use the MTK
# correction.
fix 1 all npt temp 2.4 2.4 0.1 iso 5.68 5.68 0.5 mtk yes tchain 5 pchain 5 # Use NPT ensemble
                                                                         # Set temperature and pressure and damping
                                                                         # Numbers of thermostats in chain and in barostat
run 10000          # run for 10000 steps
Per MPI rank memory allocation (min/avg/max) = 3.642 | 3.644 | 3.648 Mbytes
Step Temp E_pair E_mol TotEng Press Volume 
       0          2.4   -4.7762807            0   -1.1771807   -4.0862689         4000 
    1000    2.3934312   -4.5064692            0  -0.91722001     5.471494    3642.6392 
    2000     2.405977   -4.5233176            0  -0.91525437     5.378664    3636.2024 
    3000    2.3874248   -4.4933269            0  -0.91308501    5.5322384    3631.8408 
    4000    2.3926422   -4.5497254            0  -0.96165931    5.4890684    3617.3193 
    5000    2.4101946   -4.4468107            0  -0.83242266    6.0635485    3634.1624 
    6000     2.374922   -4.5582819            0  -0.99678947    5.5205049    3611.1976 
    7000    2.3642117      -4.5651            0   -1.0196689     6.012535    3576.7316 
    8000    2.4044458   -4.4625823            0  -0.85681526    5.7676983    3637.1649 
    9000    2.3917372   -4.5297634            0  -0.94305449    5.8496771    3599.1065 
   10000    2.3659709   -4.5349404            0  -0.98687126    5.6373626    3612.9416 
Loop time of 2.69281 on 48 procs for 10000 steps with 4000 atoms

Performance: 641708.257 tau/day, 3713.589 timesteps/s
99.6% CPU use with 48 MPI tasks x no OpenMP threads

MPI task timing breakdown:
Section |  min time  |  avg time  |  max time  |%varavg| %total
---------------------------------------------------------------
Pair    | 1.2118     | 1.2848     | 1.3716     |   2.5 | 47.71
Neigh   | 0.21873    | 0.22647    | 0.23544    |   0.7 |  8.41
Comm    | 0.81602    | 0.90118    | 0.97252    |   3.7 | 33.47
Output  | 0.00025503 | 0.0002602  | 0.0003332  |   0.0 |  0.01
Modify  | 0.21684    | 0.2644     | 0.31093    |   4.8 |  9.82
Other   |            | 0.01576    |            |       |  0.59

Nlocal:        83.3333 ave          92 max          75 min
Histogram: 3 2 4 6 11 10 4 3 3 2
Nghost:        1757.17 ave        1781 max        1738 min
Histogram: 3 6 6 6 6 6 9 3 2 1
Neighs:        10570.4 ave       12365 max        9006 min
Histogram: 2 3 3 7 12 9 7 3 1 1

Total # of neighbors = 507379
Ave neighs/atom = 126.84475
Neighbor list builds = 909
Dangerous builds = 208

# Equilibrate just above the melting temperature to avoid step fn in T

fix 1 all npt temp 1.25 1.25 0.1 iso 5.68 5.68 0.5 mtk yes tchain 5 pchain 5
run 2000
Per MPI rank memory allocation (min/avg/max) = 3.644 | 3.646 | 3.650 Mbytes
Step Temp E_pair E_mol TotEng Press Volume 
   10000    2.3659709   -4.5349404            0  -0.98687126    5.6373626    3612.9416 
   11000    1.2494572   -6.6109854            0   -4.7372681    5.7028731    2769.5734 
   12000    1.2375717   -6.6696874            0   -4.8137939    5.5772964    2760.1177 
Loop time of 0.667366 on 48 procs for 2000 steps with 4000 atoms

Performance: 517856.751 tau/day, 2996.856 timesteps/s
99.6% CPU use with 48 MPI tasks x no OpenMP threads

MPI task timing breakdown:
Section |  min time  |  avg time  |  max time  |%varavg| %total
---------------------------------------------------------------
Pair    | 0.30415    | 0.33006    | 0.35271    |   2.2 | 49.46
Neigh   | 0.042538   | 0.045016   | 0.0478     |   0.6 |  6.75
Comm    | 0.214      | 0.24068    | 0.27108    |   3.0 | 36.06
Output  | 5.3946e-05 | 5.5723e-05 | 7.1491e-05 |   0.0 |  0.01
Modify  | 0.043571   | 0.046573   | 0.049446   |   0.9 |  6.98
Other   |            | 0.004978   |            |       |  0.75

Nlocal:        83.3333 ave          93 max          76 min
Histogram: 2 7 4 5 10 15 1 2 1 1
Nghost:        2114.35 ave        2152 max        2090 min
Histogram: 1 8 5 15 6 6 4 2 0 1
Neighs:        13842.2 ave       15015 max       12085 min
Histogram: 2 0 2 6 5 6 10 9 4 4

Total # of neighbors = 664426
Ave neighs/atom = 166.10650
Neighbor list builds = 145
Dangerous builds = 11

#############################
# L I N E A R  Q U E N C H  #
#############################

# Define solid atoms. This closely follows ten Wolde  Ruiz-Montero and Frenkel  Faraday Discuss  1996  104  93-110
# Compute components of the per-atom q6 vector
compute q6 all orientorder/atom degrees 1 6 components 6 nnn NULL cutoff 1.3 # compute the Q6 parameter.
                                                                             # Use all neighbours within 1.3 unit cell.

# get number of connections
compute coord_number all coord/atom orientorder q6 0.5

# An atom is solid if it has 8 or more connections (of a possible 14)
variable is_solid atom c_coord_number>=8
group solid dynamic all var is_solid    # Must be dynamic to update
dynamic group solid defined

# do clustering
compute cluster solid cluster/atom 1.3 # Create a cluster where all atoms within are solid and max 1.3 units from another member

# define chunks one chunk per cluster
compute clus_chunks solid chunk/atom c_cluster nchunk every compress yes  # Says which atoms are in which chunk

# count the size of each chunk
compute size_chunks solid property/chunk clus_chunks count


# Find the maximum entry in the vector of chunk sizes
variable max_n equal max(c_size_chunks)


# Thermo style which includes this variable
# thermo_style custom step temp pe vol v_max_n

thermo ${N}  # Print the thermo information every 100 steps
thermo 1000  

# Reset the npt fix at a lower temperature (below freezing)
fix 1  all npt temp  ${temp} ${temp}  0.1  iso  5.68  5.68  0.5  mtk yes tchain  5  pchain  5
fix 1  all npt temp  0.45 ${temp}  0.1  iso  5.68  5.68  0.5  mtk yes tchain  5  pchain  5
fix 1  all npt temp  0.45 0.45  0.1  iso  5.68  5.68  0.5  mtk yes tchain  5  pchain  5

dump dmp2 all dcd ${N} traj.dcd
dump dmp2 all dcd 1000 traj.dcd


compute msd all msd com yes
variable twopoint equal c_msd[4]/6/(step*dt+1.0e-6)
fix 9 all vector 10 c_msd[4]
variable fit equal slope(f_9)/6/(10*dt)
thermo_style custom step temp pe c_msd[4] v_twopoint v_fit v_max_n

fix 1 all npt temp 1.25 ${temp} 0.1 iso 5.68 5.68 0.5 mtk yes tchain 5 pchain 5
fix 1 all npt temp 1.25 0.45 0.1 iso 5.68 5.68 0.5 mtk yes tchain 5 pchain 5
run 5000000 # 5000000  # Run for this many steps
Neighbor list info ...
  update every 1 steps, delay 10 steps, check yes
  max neighbors/atom: 2000, page size: 100000
  master list distance cutoff = 3.8
  ghost atom cutoff = 3.8
  binsize = 1.9, bins = 8 8 8
  4 neighbor lists, perpetual/occasional/extra = 1 3 0
  (1) pair lj/cut, perpetual
      attributes: half, newton on
      pair build: half/bin/atomonly/newton
      stencil: half/bin/3d
      bin: standard
  (2) compute orientorder/atom, occasional
      attributes: full, newton on
      pair build: full/bin/atomonly
      stencil: full/bin/3d
      bin: standard
  (3) compute coord/atom, occasional
      attributes: full, newton on
      pair build: full/bin/atomonly
      stencil: full/bin/3d
      bin: standard
  (4) compute cluster/atom, occasional
      attributes: full, newton on
      pair build: full/bin/atomonly
      stencil: full/bin/3d
      bin: standard
Per MPI rank memory allocation (min/avg/max) = 9.848 | 9.852 | 9.858 Mbytes
Step Temp PotEng c_msd[4] v_twopoint v_fit v_max_n 
   12000    1.2375717   -6.6696874 8.4210902e-31 5.847979e-33 8.3333333e+20            1 
   13000     1.241521   -6.7084413   0.50379396 0.0032294483  0.041067852            2 
   14000    1.2480127   -6.6503488    0.9158079 0.0054512373  0.037879485            3 
   15000     1.245051   -6.7250043    1.3330275 0.0074057078  0.036226972            1 
   16000    1.2491949   -6.7143945    1.7758946 0.0092494507  0.035678837            2 
   17000    1.2644486    -6.700076    2.2168732  0.010867025  0.035866874            3 
   18000    1.2574402   -6.6984383    2.6282802  0.012167963   0.03590209            1 
   19000    1.2489804   -6.6670385    3.0191984  0.013242098  0.035548269            3 
   20000    1.2390397   -6.7195445    3.4377445  0.014323935  0.035303621            2 
   21000     1.245483   -6.7028798    3.9134994  0.015529759  0.035388592            3 
   22000    1.2391841   -6.6828925    4.3720226  0.016560691  0.035511608            6 
   23000      1.21758   -6.6798671     4.844058  0.017550934  0.035798471            1 
   24000    1.2510629   -6.7597203    5.2479342  0.018221993   0.03595133            5 
   25000     1.252173   -6.6877391    5.7988281  0.019329427  0.036161027            2 
   26000    1.2563884    -6.700973    6.2554991  0.020049676  0.036474941            3 
   27000    1.2561757   -6.7151469    6.5868134  0.020329671  0.036573625            3 
   28000    1.2742829   -6.7356162    6.8902136  0.020506588  0.036481106            2 
   29000    1.2837789   -6.6797352    7.3227014  0.021042245  0.036302481           10 
   30000    1.2358172   -6.7060854    7.6859245   0.02134979  0.036095076            4 
   31000    1.2291767   -6.6642177    8.2102243  0.022070495  0.035932996            1 
   32000    1.2582885   -6.7131514    8.6568466  0.022543871  0.035891837            3 
   33000    1.2470863    -6.676532    9.0514993  0.022857321  0.035831044            2 
   34000    1.2582471   -6.7152419     9.603952  0.023539098  0.035834309            1 
   35000    1.2668974   -6.7178597    10.008185  0.023829012  0.035882657            4 
   36000    1.2445674   -6.7527372     10.39987  0.024073773  0.035888264            2 
   37000    1.2545303   -6.6600793    10.879311  0.024502952  0.035908825            2 
   38000    1.2488541     -6.69907    11.268905  0.024712511  0.035916189            1 
   39000    1.2723037   -6.7104358    11.564402  0.024710261  0.035859725            1 
   40000    1.2418373   -6.7609958    11.907515  0.024807323  0.035763429            2 
   41000    1.2723127   -6.7126218     12.35346  0.025108658  0.035676235            1 
   42000    1.2359009   -6.7129466    12.882777  0.025561065  0.035613468            1 
   43000    1.2197716   -6.7350503    13.185424  0.025553148  0.035582356            2 
   44000    1.2432008   -6.6482699    13.745582  0.026033298  0.035559708            1 
   45000    1.2208233   -6.7314528    14.175653   0.02625121  0.035552146            4 
   46000    1.2647856   -6.6359893     14.75625  0.026732336  0.035570378            3 
   47000    1.2255394    -6.686069    15.226614  0.026997543  0.035626145            1 
   48000    1.2100426   -6.6947352    15.590246  0.027066399  0.035688116            2 
   49000    1.2303105   -6.7121475    16.084709  0.027354947  0.035760155            2 
   50000    1.2369929   -6.6891388    16.430606  0.027384343  0.035796589            1 
   51000    1.2594753   -6.6957916    16.975471  0.027737698  0.035830701            5 
   52000    1.2362906   -6.7219307    17.360386   0.02782113  0.035873203            1 
   53000    1.2623348   -6.7315947    17.722627  0.027865766    0.0358856            2 
   54000    1.1909561   -6.6770463     18.04633  0.027849274  0.035886321            3 
   55000    1.2745961   -6.7637613    18.314442  0.027749155  0.035841556            1 
   56000    1.2468622   -6.7298809    18.647206  0.027748819  0.035779645            2 
   57000    1.2263529   -6.7613825    19.010324  0.027792871  0.035702658            4 
   58000    1.2365187   -6.7316025    19.418848  0.027900643  0.035631645            2 
   59000    1.2632696   -6.6827435     19.85219  0.028039816   0.03556381            3 
   60000    1.2235081   -6.6912375    20.198594  0.028053602  0.035478942            3 
   61000    1.2376667   -6.6827477    20.563224  0.028091836  0.035405078            3 
   62000    1.2368486   -6.7145186     21.04333  0.028284046   0.03533948            1 
   63000    1.2430841   -6.6971715    21.455151  0.028379829  0.035283899            2 
   64000    1.2265706   -6.7029573    21.621676  0.028153224  0.035207993            4 
   65000    1.2410644   -6.7285188    22.053816  0.028274123  0.035111188            2 
   66000    1.2567492    -6.719012    22.347809  0.028216931  0.035019681            5 
   67000    1.2549957   -6.7266957    22.816396  0.028378602  0.034931373            1 
   68000    1.2572127   -6.7198867    23.303312   0.02855798   0.03486738            2 
   69000    1.2444977   -6.7240341    23.735857  0.028666494  0.034808484            2 
   70000    1.2559531   -6.7014409    24.060112   0.02864299  0.034752251            2 
   71000    1.2525319    -6.699226    24.552294  0.028817246  0.034690799            3 
   72000    1.2546788   -6.6910679    24.782395  0.028683327   0.03463079            5 
   73000    1.2390747   -6.7118064    25.140237  0.028698901  0.034559568            3 
   74000    1.2092612   -6.7360655    25.476198  0.028689413  0.034494385            3 
   75000    1.2468873   -6.6933434    26.017407   0.02890823  0.034429059            3 
   76000    1.2514754   -6.7186532    26.325616  0.028865806  0.034376113            2 
   77000    1.2376904   -6.7384406    26.725905  0.028924139  0.034324779            3 
   78000    1.2450436   -6.6800397    27.362644  0.029233594   0.03429198            2 
   79000    1.2281299   -6.7442367    27.705411  0.029225117  0.034272786            2 
   80000    1.2397431   -6.6942782    28.228953  0.029405159  0.034250013            1 
   81000    1.2315003   -6.7536114    28.448714  0.029268224   0.03422978            1 
   82000    1.2454455    -6.700014    28.887211  0.029356922  0.034198119            3 
   83000    1.2290081   -6.7766373    29.301938  0.029419616  0.034175862            3 
   84000    1.2366513   -6.6950047    29.752661  0.029516529  0.034157732            3 
   85000    1.2516746   -6.7464555    30.060518  0.029471096  0.034133443            3 
   86000    1.2518573   -6.7419637     30.61096  0.029661783  0.034118097            3 
   87000    1.2304729   -6.6826946    31.062682  0.029753527  0.034109081            2 
   88000    1.2491857   -6.7275048    31.334367  0.029672696  0.034107509            2 
   89000    1.2604912   -6.6816771    31.851312  0.029823326  0.034089358            3 
   90000    1.2533786   -6.7373473    32.172559  0.029789407  0.034073507            5 
   91000    1.2291629   -6.7299762    32.501432  0.029763216  0.034051943            1 
   92000    1.2140096   -6.7457128     32.72725  0.029644248  0.034031796            2 
   93000    1.2495412   -6.7325805     33.28854  0.029828441  0.034018423            2 
   94000    1.2350549    -6.757853    33.589627  0.029778038  0.033999529            2 
   95000    1.2351669    -6.747084    34.033804  0.029854214   0.03397695            2 
   96000    1.2232262   -6.6747119    34.584234  0.030021036  0.033955558            2 
   97000    1.2250729   -6.7193608    35.107632  0.030161196    0.0339413            3 
   98000    1.2313895   -6.7481463    35.506649  0.030192728  0.033933662            8 
   99000    1.2360065   -6.7446799    35.715503  0.030063555  0.033928659            2 
  100000    1.2018175   -6.7227401    36.302441  0.030252034  0.033919533            2 
  101000    1.2287231    -6.806041     36.59392  0.030193003  0.033909984            4 
  102000    1.2161937   -6.7676111    36.948986   0.03018708  0.033896364            2 
  103000    1.2462347   -6.7106015    37.561467  0.030389536  0.033890964            5 
  104000    1.2222918   -6.7474603    37.961285  0.030417696  0.033890175            4 
  105000    1.2423171   -6.6871098    38.657579  0.030680618  0.033900329            3 
  106000    1.2286742   -6.7155299    39.164585  0.030789768  0.033914261            2 
  107000    1.2265553   -6.7181048    39.565139  0.030813971   0.03393056            2 
  108000    1.2144902   -6.7421526    40.067692  0.030916429  0.033950929            5 
  109000    1.2470271   -6.7676775    40.315661  0.030822371  0.033972676            3 
  110000    1.2435967   -6.7138744    41.006415  0.031065466  0.033997598            4 
  111000     1.232882   -6.7483753    41.291382  0.030999536  0.034021096            3 
  112000    1.2152224   -6.7292156    41.670629  0.031004932  0.034038578            1 
  113000    1.2350457   -6.7713273    41.930887  0.030922483  0.034056599            3 
  114000    1.2402447   -6.7555261    42.333388  0.030945459  0.034069343            2 
  115000    1.2537738   -6.7652218    42.775553  0.030996777  0.034082599            4 
  116000    1.2449797   -6.7108907    43.295554  0.031103128  0.034098184            2 
  117000     1.227351   -6.7244965    43.821176  0.031211663  0.034120399            1 
  118000    1.2468444   -6.7532125    44.084567  0.031133168  0.034136476            1 
  119000    1.2385841   -6.7495825    44.657761  0.031272942  0.034152385            4 
  120000    1.2150336   -6.7795306    45.132515  0.031342024  0.034170584            1 
  121000    1.2004959   -6.7307732    45.549225   0.03136999  0.034191715            2 
  122000    1.2479302    -6.740952    46.007872  0.031426142  0.034211854            4 
  123000     1.250572   -6.7221193    46.357565  0.031407564  0.034227815            1 
  124000    1.1939795   -6.6904948    46.848124  0.031483954   0.03424034            2 
  125000    1.2514429   -6.7240195    47.269876   0.03151325  0.034252179            2 
  126000    1.2260624   -6.7347717    47.259563  0.031256325  0.034256036            1 
  127000    1.2345727   -6.7458386     47.48078  0.031155368  0.034252977            3 
  128000    1.2434431   -6.7083215    48.149099   0.03134707  0.034251521            3 
  129000    1.2135692   -6.7357858     48.34792  0.031232507  0.034250447            2 
  130000    1.2210837   -6.7537843    48.697096  0.031216087  0.034245628            2 
  131000    1.2166163   -6.7320575     49.05924  0.031208168  0.034239753            4 
  132000     1.204251    -6.745679     49.53182  0.031270088  0.034234138            1 
  133000    1.2559593   -6.7709168    49.878883  0.031252433  0.034230089            2 
  134000    1.2135946   -6.6960102    50.496778  0.031403469  0.034225426            1 
  135000    1.2374519   -6.7420228    50.627199  0.031251358  0.034217551            3 
  136000    1.2665984   -6.7709217    51.320988  0.031446684   0.03421057            4 
  137000     1.247686   -6.7731245     51.36164  0.031241874  0.034207277            2 
  138000    1.2236885   -6.7735239    51.928791  0.031357965  0.034200219            3 
  139000    1.2236149   -6.7871201    52.342647  0.031380484  0.034197027            3 
  140000    1.2192303   -6.7314222    52.996868  0.031545755  0.034196251            2 
  141000    1.2083287   -6.7594238    53.333293  0.031520859  0.034195116            3 
  142000    1.2191225   -6.7215351    53.983344  0.031680366  0.034197677            5 
  143000    1.2522336   -6.7889624    54.350477  0.031672772  0.034204315            2 
  144000    1.2283779   -6.7312879    54.975804  0.031814701  0.034211306            4 
  145000    1.2168835   -6.7616698    55.307346  0.031785831  0.034218042            3 
  146000    1.2047738    -6.812277     55.62538  0.031749646  0.034228428            6 
  147000    1.2024728   -6.7401903    56.225687  0.031873972  0.034238585            2 
  148000    1.2091862   -6.7551595    56.674461  0.031911295  0.034248999            5 
  149000     1.259218   -6.7359899    57.186751  0.031983642  0.034259128            3 
  150000    1.2291167   -6.7575464    57.397574  0.031887541   0.03426868            3 
  151000    1.1952801   -6.8092707    57.584369  0.031779453  0.034280225            2 
  152000    1.2374408   -6.7963535    58.540305  0.032094465  0.034289885            4 
  153000    1.2021793   -6.7726116    58.854687   0.03205593  0.034302539            2 
  154000    1.2328966   -6.7340901    59.286233  0.032081295    0.0343114            5 
  155000    1.2416405   -6.7759384    59.428641  0.031950882  0.034320384            1 
  156000    1.2558635   -6.8048291     59.72945  0.031906757  0.034326337            3 
  157000     1.225577    -6.748775    60.333831  0.032024326  0.034330742            3 
  158000    1.2308587   -6.7613539    60.539583   0.03193016  0.034334649            1 
  159000     1.216792   -6.7904773    60.671522  0.031798491  0.034335037            3 
  160000    1.2060962   -6.7285945    61.332594  0.031944059  0.034334233            4 
  161000    1.2241088   -6.7318644     61.69326  0.031932329  0.034333888            6 
  162000    1.2360426   -6.7607354    61.738597  0.031758537  0.034327399            2 
  163000    1.1991123   -6.7837969    62.229012  0.031814423  0.034320068            2 
  164000    1.2298598   -6.7979063    62.370835  0.031692498  0.034313819            2 
  165000    1.2149542   -6.7463583    63.125217  0.031881423  0.034306643            1 
  166000    1.2206055    -6.740528    63.188237  0.031721002  0.034297978            4 
  167000    1.2513926   -6.7247178    63.721272  0.031797042  0.034287451            2 
  168000    1.2203884   -6.7860478    63.953099  0.031722767  0.034276315            2 
  169000    1.2299329   -6.7823938    64.529671  0.031819364   0.03426848            2 
  170000     1.244437   -6.7768798    64.903839  0.031815607   0.03426135            2 
  171000    1.2176403   -6.7842088    65.373717  0.031858536  0.034257605            2 
  172000    1.2622376   -6.7752543    65.956028   0.03195544  0.034253779            2 
  173000    1.2341951   -6.7787813     66.33077  0.031951238  0.034250602            4 
  174000    1.2254207   -6.7408716    67.054872  0.032114402  0.034249353            3 
  175000    1.2329796   -6.7807131    67.039509  0.031923576  0.034245185            2 
  176000    1.2326875   -6.7352571     67.66524  0.032038466  0.034242031            4 
  177000     1.238733   -6.7642588    68.100863  0.032062553  0.034239975            4 
  178000    1.2109483   -6.7517406    68.284517  0.031968407  0.034240183            2 
  179000    1.2234398   -6.8201366    68.496858  0.031888668  0.034236365            2 
  180000    1.1797656   -6.7879317    69.192946  0.032033771  0.034232803            2 
  181000    1.2298027   -6.7713332    69.629875  0.032057953  0.034227208            2 
  182000    1.2616288   -6.7521903    69.882045  0.031997273  0.034224142            2 
  183000     1.210867   -6.7892926    70.217192  0.031975042  0.034222122            3 
  184000    1.2686254   -6.7789466    70.806462  0.032068144  0.034219147            4 
  185000    1.1997311   -6.7883735    70.933387  0.031951976  0.034213386            2 
  186000    1.2530691   -6.8202973    71.134568  0.031870326  0.034205252            1 
  187000    1.2068707   -6.8001656    71.657738  0.031933038  0.034195809            3 
  188000    1.2064824   -6.7327968    71.893078  0.031867499  0.034186257            2 
  189000    1.2114169    -6.773111    72.379234  0.031913242  0.034176626            2 
  190000    1.2296328   -6.7902086    72.534023  0.031813168   0.03416679            4 
  191000    1.1881075   -6.7538234    73.245729  0.031957124  0.034155805            2 
  192000    1.2136465   -6.7651539    73.485686  0.031894829  0.034145133            2 
  193000    1.2452479   -6.7958889    73.805882  0.031867825  0.034134729            4 
  194000    1.1958504   -6.7354862    74.589429  0.032040133   0.03412464            2 
  195000    1.2052905   -6.7288066    74.803075  0.031967126  0.034118242            3 
  196000    1.2200807   -6.7525762    75.385247  0.032051551  0.034111182            5 
  197000    1.2219943    -6.727441    76.260758  0.032259204  0.034105542            2 
  198000    1.2041728   -6.7910997    76.262093  0.032096841  0.034099687            2 
  199000    1.2351839   -6.8109487    76.508748  0.032038839  0.034095102            2 
  200000    1.2200816   -6.7415233    77.206715  0.032169464   0.03409314            6 
  201000    1.2288451   -6.8177958    77.525354  0.032141523  0.034093015            5 
  202000    1.2178634    -6.794456    77.877289  0.032127594  0.034090234            1 
  203000    1.2172036   -6.7466801    78.323715  0.032152592  0.034085408            2 
  204000    1.2356729    -6.753731    78.914074  0.032236141  0.034082156            3 
  205000     1.231391   -6.7781667    79.125827   0.03216497  0.034079318            2 
  206000    1.2307723   -6.7698256    79.443636  0.032137393  0.034076357            2 
  207000    1.2277788   -6.7494929    80.163814  0.032272067  0.034075261            2 
  208000    1.2101332   -6.7799177    80.105984  0.032093744   0.03407091            3 
  209000    1.2310362   -6.7877035    80.614493   0.03214294   0.03406589            3 
  210000    1.2173955   -6.7759767    80.987303  0.032137818  0.034060359            3 
  211000    1.2085471   -6.7706543    81.507689   0.03219103  0.034056275            3 
  212000     1.224049   -6.7890948    81.462841  0.032021557   0.03405109            4 
  213000    1.2146199    -6.752916     82.28464  0.032192739  0.034044892            2 
  214000    1.2181875   -6.8304225    82.147371  0.031988851  0.034039896            5 
  215000    1.2073408   -6.7701555    82.938393  0.032146664  0.034033092            4 
  216000    1.2175634    -6.776799    83.177242  0.032089985   0.03402484            2 
  217000     1.219969   -6.8181528    83.324369  0.031998605  0.034016117            1 
  218000     1.200909   -6.7857009    84.107193  0.032151068   0.03400731            5 
  219000    1.1953211   -6.7796055    84.251995  0.032059359  0.034000134            2 
  220000    1.2263269   -6.7984577    84.457038  0.031991302  0.033991434            2 
  221000    1.2322025   -6.8046604    84.698021  0.031937414   0.03398029            4 
  222000    1.2106184   -6.7619109    85.338082  0.032033814  0.033970049            3 
  223000    1.1976514   -6.8483679    85.744753  0.032042135  0.033959859            2 
  224000    1.1964091    -6.784948    85.931203  0.031968453  0.033949031            2 
  225000    1.2119567   -6.8045748    86.541487  0.032052403  0.033938666            1 
  226000    1.1799225   -6.7604748    87.215953  0.032159275  0.033930202            4 
  227000    1.2088816   -6.8290893    87.332457  0.032060373   0.03392268            3 
  228000    1.2221613   -6.7371429    87.955577  0.032147506  0.033914658            1 
  229000    1.2121486   -6.7938049    88.134005  0.032072054  0.033906318            1 
  230000    1.1934687   -6.7469168    88.545355   0.03208165   0.03389934            2 
  231000    1.2334172   -6.7758548    89.038412  0.032120639  0.033891714            2 
  232000    1.2237427    -6.805772    89.257612  0.032060924  0.033883188            2 
  233000    1.2303439   -6.7655841    89.485257  0.032004741  0.033873979            2 
  234000    1.1976681   -6.7777125    89.824496   0.03198878  0.033863351            2 
  235000    1.2108146   -6.7673877    90.337391  0.032034536  0.033852791            3 
  236000    1.1960915   -6.8243267    90.318389  0.031892086  0.033839769            3 
  237000    1.2179677   -6.8415071    90.548346  0.031838378  0.033825427            2 
  238000      1.23117   -6.7847842    91.265093  0.031955565  0.033812777            3 
  239000     1.235073   -6.7743019    91.805441  0.032010265  0.033801184            3 
  240000    1.2010974   -6.7998045    92.249178  0.032030965  0.033789607            8 
  241000    1.2284655   -6.7866487    92.356575  0.031935192  0.033778319            2 
  242000    1.2176946   -6.7279433    92.933333  0.032001836  0.033767405            2 
  243000    1.2303553   -6.7615701    93.326285  0.032004899   0.03375599            3 
  244000     1.213035   -6.8050921    93.515329  0.031938295  0.033743077            3 
  245000    1.2165867   -6.8071035    93.428905  0.031778539  0.033728372            4 
  246000    1.2157229   -6.7889394    93.766184  0.031763612  0.033715942            2 
  247000    1.2169831   -6.7852662    94.074727  0.031739112  0.033702316            5 
  248000    1.2032354   -6.7905269    94.644076  0.031802445    0.0336889            7 
  249000    1.2238629   -6.7533877    95.178049   0.03185343   0.03367532            2 
  250000    1.2107267   -6.8088358    95.584088  0.031861363  0.033661821            2 
  251000    1.2262212   -6.7609235    95.931302  0.031849702  0.033647302            2 
  252000    1.2100008   -6.8131888    96.055848    0.0317645  0.033632889            1 
  253000    1.2420007    -6.822028    96.615491  0.031823284  0.033619374            1 
  254000    1.2020222   -6.7539979    97.098854  0.031856579  0.033604981            3 
  255000    1.2088215   -6.8093455    96.552649  0.031553153   0.03358908            3 
  256000    1.1885348   -6.8042999    97.328643  0.031682501  0.033571551            1 
  257000     1.194852    -6.807484    97.815323  0.031717031  0.033555131            2 
  258000    1.1896505   -6.7995567    98.235043  0.031729665  0.033537857            3 
  259000    1.2108992   -6.8151179    98.417596  0.031665893  0.033522068            3 
  260000    1.1964185   -6.7567297    99.165091  0.031783683  0.033506541            1 
  261000    1.2197283   -6.7758173    99.379595  0.031730394  0.033491919            2 
  262000    1.2036696   -6.8223168    99.754024  0.031728379  0.033477486            3 
  263000    1.1884296   -6.8080838    100.36771  0.031802189  0.033464435            3 
  264000     1.230177   -6.8594648    100.52054  0.031729969  0.033452977            2 
  265000    1.2265124   -6.8171144    101.28816  0.031851622   0.03344073            3 
  266000    1.2097122   -6.8002877    101.75546  0.031878278  0.033429263            3 
  267000    1.2092616   -6.7877072    101.77421  0.031764733  0.033419981            1 
  268000    1.1911611   -6.8821452    102.01992  0.031722611  0.033409974            4 
  269000    1.1876098     -6.79411    102.51496  0.031758042  0.033399975            2 
  270000    1.2345686   -6.8169363    102.94725  0.031773842  0.033390013            5 
  271000     1.203534   -6.8195474    103.34181  0.031777926  0.033379877            1 
  272000    1.2201061   -6.8191928    103.46932  0.031700158   0.03336801            2 
  273000    1.2480042   -6.7891288    104.23453  0.031817621   0.03335666            1 
  274000    1.2116048   -6.8308924     104.0364  0.031641241  0.033343421            2 
  275000    1.1943253   -6.8447621    104.37992  0.031630278   0.03333002            2 
  276000    1.2158652   -6.8478942    104.68535  0.031607895  0.033317137            4 
  277000    1.2261542   -6.7939145    105.09373  0.031616647  0.033304675            2 
  278000    1.2130837   -6.8560506    105.54738  0.031638903  0.033290498            5 
  279000    1.1962589   -6.8430881    105.84194  0.031613481  0.033277885            2 
  280000    1.1910167   -6.8179527    106.38802  0.031663101  0.033264862            1 
  281000    1.2051595   -6.8423995    106.19604  0.031493488  0.033251141            2 
  282000    1.2299213   -6.7833046    107.06641   0.03163901   0.03323731            3 
  283000    1.1915525   -6.8160301    107.32175  0.031602401  0.033223352            3 
  284000    1.2237623   -6.8045667      107.614  0.031576877   0.03320987            3 
  285000    1.2284725   -6.7987878    108.23555  0.031647821  0.033196019            2 
  286000    1.2001547   -6.8275441    108.49624  0.031613125  0.033181462            3 
  287000    1.2114036   -6.8354021    108.87342  0.031612492  0.033168315            1 
  288000    1.2026847   -6.8118788    109.22691  0.031605008  0.033155563            2 
  289000    1.2012431   -6.7862458    109.62948   0.03161173  0.033143332            5 
  290000    1.2094675   -6.8060907    110.25753  0.031683199  0.033130585            2 
  291000    1.1858114   -6.8124424    109.89051  0.031469219  0.033117291            3 
  292000    1.2325044    -6.847245    110.30303  0.031479174  0.033103625            1 
  293000    1.1822181   -6.7927131     110.8934  0.031539648  0.033090215            1 
  294000    1.1822387   -6.8274978    111.32624  0.031555058   0.03307666            1 
  295000    1.2419677   -6.8273169    111.65566  0.031541148  0.033063361            1 
  296000    1.2103259   -6.8057121    112.05221  0.031546229  0.033049583            2 
  297000    1.2098376   -6.7910549    112.76373  0.031639654  0.033037128            3 
  298000    1.1954009   -6.7716765     113.0717  0.031619602  0.033024229            4 
  299000    1.2127077   -6.8199788    112.87679  0.031459528   0.03301144            2 
  300000    1.1918068   -6.8167661    113.50649  0.031529581  0.032997847            3 
  301000    1.1995605   -6.8244763    113.42606  0.031402565  0.032982823            4 
  302000    1.2185312   -6.8445258    113.54072  0.031330221  0.032967544            3 
  303000    1.2128775   -6.8458718    114.13319  0.031389766  0.032951913            3 
  304000    1.2133441   -6.8015976    114.66911  0.031433419  0.032936607            4 
  305000    1.1995183   -6.8150703    115.09149  0.031445763  0.032922805            5 
  306000    1.1944075   -6.7824872    115.92868  0.031570992  0.032909701            2 
  307000     1.179693   -6.8524808    115.28255  0.031292766  0.032894369            2 
  308000    1.1941442   -6.8346585    115.54108  0.031261115  0.032879177            1 
  309000    1.2252728     -6.87645    115.76696  0.031220864  0.032863958            1 
  310000    1.2449207    -6.814538    116.34222  0.031274792  0.032847944            2 
  311000    1.2180777   -6.8379089    116.33149  0.031171353  0.032831983            2 
  312000    1.2075936   -6.8013645    116.75098  0.031183489  0.032815029            4 
  313000    1.2015988   -6.8328821     117.2685  0.031221646  0.032797356            2 
  314000    1.1938707   -6.7793633     117.6062  0.031211837  0.032780272            4 
  315000    1.2121784    -6.802057    117.99844  0.031216519  0.032762736            2 
  316000    1.1812714   -6.8149529    118.70706  0.031304605  0.032746121            2 
  317000    1.1875937   -6.8555537    119.26481  0.031352472  0.032730771            1 
  318000    1.1673522   -6.8161362    119.61433  0.031345474  0.032717923            4 
  319000    1.2141603   -6.8623132    119.31365  0.031168666  0.032704173            3 
  320000    1.1907068   -6.8662867    120.12073  0.031281441  0.032689962            1 
  321000    1.2109017   -6.8331938    120.82501  0.031366826  0.032676185            1 
  322000    1.1896335   -6.8246032    120.96059  0.031304501  0.032663007            2 
  323000    1.2119363   -6.7997643    121.85766  0.031439025  0.032650973            1 
  324000    1.1748115   -6.8599358    121.42977  0.031231936  0.032637484            3 
  325000    1.2000987   -6.8245647    121.78931  0.031228027  0.032624245            2 
  326000    1.2150156   -6.8119417    122.01446   0.03118979  0.032610632            2 
  327000    1.1839733   -6.8187486    122.81878  0.031299384  0.032597266            4 
  328000      1.20587   -6.8248095    123.28904  0.031323435   0.03258386            2 
  329000    1.1858523   -6.8013487    123.49305  0.031279902  0.032572281            4 
  330000    1.1578137   -6.8465012    124.11759  0.031342825  0.032560525            3 
  331000    1.1880632   -6.8330167    124.02649    0.0312252  0.032548922            2 
  332000     1.191401   -6.8338864    124.02936  0.031131867  0.032536487            2 
  333000    1.2066694   -6.8297103    124.53467  0.031164831  0.032523165            5 
  334000    1.2064976   -6.8251666    125.48144  0.031307745  0.032509561            3 
  335000    1.1810011     -6.86137    125.02512  0.031100776  0.032495846            3 
  336000    1.1962044   -6.8512573    124.80975    0.0309548  0.032481333            2 
  337000    1.1982742   -6.8621933     125.7376  0.031092384   0.03246613            5 
  338000    1.1896041    -6.756646    126.48024   0.03118349  0.032452192            1 
  339000    1.2086485   -6.8806378    126.06463  0.030989339  0.032437405            2 
  340000    1.1799803   -6.8246241    126.73246  0.031061877   0.03242283            6 
  341000     1.190112   -6.8497308    127.29418  0.031108061  0.032408443            2 
  342000    1.2039826   -6.8613637    127.45316  0.031055839  0.032394871            5 
  343000    1.2127864   -6.8150977     128.5402  0.031229398  0.032382271            2 
  344000    1.1953885   -6.8324445    128.85865  0.031215758  0.032370397            2 
  345000    1.1941687   -6.7924583    129.53561  0.031288795  0.032359572            4 
  346000    1.1923008   -6.8471156    129.52997  0.031197006   0.03234996            3 
  347000    1.1982542   -6.8531795    130.47894  0.031335001  0.032339997            3 
  348000    1.1994366    -6.864347    130.10156  0.031154589  0.032329605            6 
  349000     1.190287   -6.8727002    130.12484  0.031070879  0.032318152            3 
  350000    1.1887322    -6.920254    130.69549  0.031117975  0.032307278            7 
  351000    1.1860797    -6.850563    131.81883  0.031296019  0.032298381            3 
  352000    1.1822187   -6.8090207    132.74668  0.031426771  0.032290863            4 
  353000    1.2028806   -6.8374005    132.95804  0.031387639  0.032283955            2 
  354000    1.1858235   -6.8221889    133.51388  0.031429821  0.032277543            1 
  355000    1.1950373   -6.8515692    134.11729  0.031482932  0.032271791            4 
  356000    1.2006426   -6.7883839    134.65025  0.031519254  0.032266081            2 
  357000    1.1770661   -6.8332657    135.37335  0.031599756  0.032261036            2 
  358000    1.1944289   -6.8175289    135.11898  0.031452276  0.032255901            1 
  359000    1.2072702   -6.8504768    134.99157  0.031335092  0.032250261            4 
  360000    1.1473114   -6.8751617    135.13884  0.031282138  0.032242856            3 
  361000    1.1955527   -6.8335889    135.98221  0.031390168   0.03223595            2 
  362000     1.216918   -6.8337103    136.16609  0.031345785  0.032228731            3 
  363000    1.1959075    -6.802738    136.61724  0.031363002  0.032222117            3 
  364000    1.2043692   -6.8410225    136.37926  0.031222358  0.032214556            3 
  365000    1.2176129   -6.8781124    136.34696  0.031129443  0.032205426            3 
  366000    1.1665036     -6.87466    137.04248   0.03120275  0.032195685            3 
  367000    1.2085977   -6.8205695    137.45278  0.031210895  0.032186102            4 
  368000    1.1717083    -6.816019    137.41576  0.031117699  0.032177456            3 
  369000    1.1917776   -6.8481446    137.89139  0.031140785  0.032168717            4 
  370000    1.1843688   -6.8552657    138.37131  0.031164708  0.032159606            2 
  371000    1.1871682   -6.8378916    138.89088  0.031197413  0.032151053            5 
  372000    1.1596654   -6.8245879     139.5362  0.031258108  0.032142569            3 
  373000    1.2020094    -6.859404    139.74022  0.031219889  0.032134969            3 
  374000     1.206099   -6.8529435    140.39598  0.031282526  0.032127177            3 
  375000      1.19497    -6.848144     140.4977  0.031221711   0.03211963            5 
  376000    1.2086458   -6.8688606    141.23155  0.031301318  0.032112736            2 
  377000    1.1723067   -6.8149874    141.76927   0.03133715  0.032105363            2 
  378000    1.1788305   -6.8628983    141.60344   0.03121769  0.032098009            2 
  379000    1.1759877   -6.8682218    141.47211  0.031106444  0.032090341            3 
  380000    1.2005905   -6.8684741    142.10028  0.031162342  0.032081688            2 
  381000    1.1964882   -6.8455423    142.36744  0.031138985  0.032073236            2 
  382000    1.1979535   -6.8642033    142.08239  0.030995286  0.032063909            2 
  383000    1.1856462   -6.8530175    142.91725  0.031096007  0.032054175            3 
  384000    1.2100083   -6.7982593    143.68573  0.031181798  0.032044358            2 
  385000    1.1761815    -6.819899    143.85574  0.031137607  0.032035051            2 
  386000    1.1793931   -6.7846734     144.2293  0.031137586  0.032025918            2 
  387000    1.2094234   -6.8092538    144.24156  0.031059767  0.032016303            2 
  388000    1.1940034   -6.8586389    144.40515  0.031014852  0.032005607            2 
  389000    1.2014111    -6.845712    144.19343  0.030889766  0.031994008            2 
  390000     1.197459   -6.8696017    145.02172  0.030987547  0.031982893            2 
  391000    1.2110913   -6.8469168    145.11369  0.030927896  0.031972166            5 
  392000    1.2049815   -6.8387177    145.88501   0.03101297  0.031961601            3 
  393000     1.198687   -6.8627591    145.50901  0.030854329  0.031950935            2 
  394000    1.2085764   -6.8768735    146.23328  0.030929204  0.031940201            5 
  395000    1.1880977   -6.8545378     146.7567  0.030961329  0.031929636            2 
  396000    1.1587261   -6.8452624    148.05275  0.031155882   0.03191972            3 
  397000    1.2057168   -6.8889385    147.26114  0.030911238  0.031910494            7 
  398000    1.2026717   -6.8727541    147.89499  0.030966289  0.031899753            3 
  399000    1.1863085   -6.8840036    147.72782  0.030853764  0.031889274            2 
  400000    1.1666156   -6.8772067    148.39055  0.030914698  0.031878737            2 
  401000    1.1556688   -6.8201965    148.89031  0.030941462  0.031869005            3 
  402000    1.1885643   -6.8297299    149.41958  0.030974209  0.031860172            2 
  403000      1.19326   -6.8797801    149.49926  0.030913826  0.031850809            2 
  404000    1.2139044   -6.8553479    149.84891  0.030909428    0.0318412            4 
  405000    1.1718722    -6.849053    150.41599  0.030949792  0.031831948            4 
  406000    1.1907116   -6.8952924    150.95865  0.030984945  0.031823278            2 
  407000    1.1753445   -6.8450483    152.07795  0.031137992  0.031814972            3 
  408000    1.1933529   -6.8439216    152.40908  0.031129306  0.031808178            4 
  409000    1.2126243   -6.8632174    152.38725  0.031048747  0.031801737            1 
  410000    1.1651637   -6.8918109    153.06031  0.031109819  0.031795666            4 
  411000    1.2012395   -6.9411135    152.80801  0.030982971  0.031788837            3 
  412000    1.1883111   -6.8978153     152.8839   0.03092312  0.031781249            1 
  413000    1.1915351   -6.9003387    154.40967  0.031156108  0.031774384            3 
  414000    1.1793214   -6.9085522    154.00471  0.030999338  0.031767887            1 
  415000    1.1773673   -6.9209229    153.99197  0.030922082  0.031760501            3 
  416000    1.1952759   -6.8940279    154.62668  0.030974895  0.031752566            4 
  417000    1.1859312   -6.9140565    154.67016  0.030909304  0.031745147            2 
  418000    1.1902765    -6.811105    155.36666  0.030974215  0.031737622            2 
  419000    1.1844971   -6.8541866    155.77588  0.030981679  0.031730447            3 
  420000    1.2085822   -6.8664818    155.95152  0.030942762  0.031722748            3 
  421000    1.1899438   -6.8721796    156.10448  0.030899541  0.031715149            3 
  422000    1.2014833   -6.8500067    157.08824  0.031020584   0.03170732            3 
  423000    1.1945231   -6.8944701      156.362  0.030804177  0.031699698           11 
  424000    1.1472262   -6.8425985    157.45042  0.030945445  0.031692162            6 
  425000    1.1894623    -6.841242    157.96053  0.030972653  0.031684629            5 
  426000    1.1873254   -6.9250017    157.77922   0.03086448  0.031676524            3 
  427000    1.2041899   -6.8442433     158.3704  0.030907572  0.031668292            5 
  428000    1.2048827   -6.8745142    158.48553  0.030857774   0.03166013            1 
  429000    1.1920086   -6.8507787    159.24198  0.030932786  0.031652358            3 
  430000    1.2197664   -6.8945723    158.76324  0.030768069  0.031643998            4 
  431000    1.2023258   -6.8581958    159.11273  0.030764256  0.031634417            4 
  432000    1.1900361   -6.8797492    159.03594   0.03067823  0.031624387            4 
  433000    1.1829943   -6.8821793    159.28339  0.030655003  0.031614065            4 
  434000    1.1945961   -6.8353863    159.52924  0.030631575  0.031603161            2 
  435000    1.1693753   -6.8659623    159.83034   0.03061884   0.03159284            3 
  436000    1.1767451   -6.8524581    160.83925  0.030741448  0.031582684            3 
  437000    1.2119242   -6.8814631    160.96023   0.03069417  0.031572785            3 
  438000    1.1657553    -6.881492     160.9823  0.030628291  0.031562187            3 
  439000    1.1903631   -6.9225489    161.01215   0.03056419  0.031551796            4 
  440000    1.1705782   -6.9127029    161.50593  0.030588245  0.031541016            4 
  441000    1.1640578    -6.855064    162.61201  0.030727894  0.031530931            5 
  442000    1.1870372   -6.8507519    162.72417   0.03067952  0.031520904            5 
  443000    1.1788331   -6.8851818    163.05227  0.030671985  0.031510643            2 
  444000    1.1993137   -6.9195888    162.62433  0.030522585   0.03149983            3 
  445000    1.1691688   -6.8505646    164.00713  0.030712945   0.03148969            5 
  446000    1.1771044    -6.843395    164.29774  0.030698383  0.031480858            2 
  447000    1.1726016   -6.8491332     165.1427  0.030787229  0.031471822            2 
  448000    1.1733058   -6.8664729    165.66668  0.030815975  0.031463831            3 
  449000     1.169548   -6.8876337    165.96015  0.030801809  0.031455935            4 
  450000    1.1594605   -6.9171191    165.67854  0.030681212  0.031447088            2 
  451000    1.1909934   -6.8706882    166.27226  0.030722886  0.031438448            4 
  452000    1.1783446   -6.8572946     166.8405   0.03075968   0.03143065            3 
  453000    1.1885027   -6.8816714    167.18262  0.030754712   0.03142264            5 
  454000    1.1969386   -6.9040215    167.15124  0.030681212  0.031414439            1 
  455000    1.2099436   -6.8444831    167.69269  0.030712947  0.031406003            2 
  456000    1.2002682   -6.8333879     168.5136  0.030795615  0.031398079            3 
  457000    1.1760646   -6.8981564    167.48355  0.030540399  0.031390524            3 
  458000    1.1813361   -6.9218021      168.526  0.030663392  0.031382793            3 
  459000    1.1776155   -6.8850189    169.18846  0.030716859  0.031375392            4 
  460000    1.1616764   -6.8394918      169.658  0.030735145  0.031368228            1 
  461000    1.1723473   -6.9112711    169.57311  0.030653129  0.031360855            3 
  462000    1.1803788   -6.9483693    168.72824  0.030434386  0.031352594            3 
  463000    1.1950179   -6.9132039     169.6944  0.030542549  0.031343521            4 
  464000    1.1792399   -6.8413986    170.55055  0.030630486  0.031334488            4 
  465000    1.1877952   -6.9078915    170.49666  0.030554958  0.031325562            7 
  466000    1.1935007   -6.9167359    170.37153  0.030467013  0.031316131            1 
  467000    1.2012943   -6.8638061    171.69499  0.030637935  0.031306934            1 
  468000    1.1716057   -6.8537154    171.99891  0.030626586  0.031297918            4 
  469000    1.1823946   -6.8548156    171.61851  0.030493694  0.031289243            1 
  470000    1.1408483   -6.8968585    172.03349  0.030502392    0.0312809            4 
  471000    1.1894412   -6.8681475    172.77737  0.030569245  0.031272475            2 
  472000    1.1735628   -6.8699053    172.73745  0.030497431  0.031263507            3 
  473000    1.1581258   -6.8756029    173.35201  0.030541228  0.031255047            2 
  474000    1.1666277   -6.8786055    174.32989  0.030648715  0.031247167            1 
  475000    1.1866247   -6.8552028     174.7995  0.030666578  0.031239257            2 
  476000    1.2016939   -6.8686626    174.97299  0.030632526  0.031231914            2 
  477000    1.1765469   -6.9052661    174.66351  0.030514239  0.031224379            6 
  478000    1.1845841   -6.8975026    175.48605  0.030593803  0.031216272            2 
  479000    1.1843145   -6.8672925    175.73068  0.030572491  0.031208408            2 
  480000    1.1624558   -6.8966324    175.58071  0.030482762  0.031200254            6 
  481000    1.1680115    -6.921859    175.97226  0.030487224  0.031191804            2 
  482000    1.1820859   -6.9545175    175.97016  0.030423611  0.031184242            3 
  483000    1.1933944   -6.8906134    177.09603   0.03055487  0.031176767            2 
  484000    1.1741286   -6.8428836    178.34009  0.030705939  0.031169395            3 
  485000    1.1977355   -6.8890346     177.5957  0.030514725  0.031161712            3 
  486000    1.1707946   -6.8705783    177.84651  0.030494943  0.031153704            2 
  487000    1.1620078   -6.8879407    177.77375  0.030419875  0.031144868            3 
  488000    1.1746294   -6.8603986    178.92644  0.030554379  0.031137331            4 
  489000    1.1783789   -6.9005811    178.72157  0.030456982   0.03112922            5 
  490000    1.1622512   -6.8788614    179.97252  0.030607571  0.031120992            2 
  491000    1.1663815   -6.9019697    179.25881  0.030424103  0.031113124            4 
  492000    1.1699105   -6.8391125    179.92952  0.030475867  0.031104734            3 
  493000    1.1412905   -6.8987133    179.11203  0.030275866  0.031096069            2 
  494000    1.1575898   -6.8800287    180.17308  0.030393569  0.031086907            2 
  495000    1.1860402   -6.9152039    180.18554  0.030334266  0.031077771            3 
  496000    1.1969644   -6.9196392    180.55084  0.030334482  0.031068901            2 
  497000    1.1805837   -6.8875299    180.23742  0.030220895  0.031060176            2 
  498000    1.2116237   -6.8754325    181.38083  0.030351545  0.031051706            2 
  499000    1.1798012   -6.8926483    182.43909   0.03046745  0.031043538            3 
  500000    1.1797439   -6.9087222    181.68166  0.030280277  0.031034162            3 
  501000    1.1717676   -6.9160695    182.00623  0.030273823  0.031024914            2 
  502000    1.1611068   -6.8910882    183.09971  0.030395038  0.031016246            2 
  503000      1.14672   -6.9098588    182.91991  0.030304822  0.031007701            4 
  504000    1.1890694   -6.8660279    183.76866  0.030385031  0.030999226            3 
  505000    1.1818519   -6.8574545    183.74169  0.030320411  0.030991105            2 
  506000    1.1572639   -6.8875289    184.58651  0.030399622  0.030982688            5 
  507000    1.1821656   -6.8686497    184.84482   0.03038212  0.030974044            3 
  508000    1.1464908   -6.9395165    184.72398  0.030302491  0.030965823            3 
  509000     1.151368    -6.882115     185.1358   0.03031038  0.030957595            4 
  510000    1.1842385   -6.8878723    185.27662  0.030273958  0.030949254            4 
  511000    1.1670957   -6.8951428    185.79098  0.030298594  0.030940412            6 
  512000     1.165046   -6.9081818    186.33479  0.030327928  0.030931742            4 
  513000    1.1732096   -6.9363287    186.45798   0.03028882  0.030923753            4 
  514000    1.1661666   -6.8833501    186.54875  0.030244609  0.030915671            4 
  515000    1.1652214   -6.8983328    187.71279  0.030374238  0.030907985            5 
  516000     1.180309   -6.9369344    187.37995   0.03026162  0.030900549            2 
  517000    1.1588004   -6.9171398    188.33403  0.030356871  0.030892748            7 
  518000    1.1795038   -6.9274117    187.92438  0.030232365  0.030885057            2 
  519000    1.1766319   -6.9372394    189.31146  0.030396831  0.030877495            3 
  520000    1.1616429   -6.8633965    189.76182  0.030410548  0.030870664            1 
  521000    1.1703875   -6.8951529    189.84281  0.030365133  0.030863821            2 
  522000    1.1572138   -6.9004531    189.48698  0.030250156   0.03085639            3 
  523000    1.1712583   -6.8620283    189.99336  0.030273002  0.030848339            2 
  524000    1.1822823   -6.9050314     190.1204  0.030235433  0.030840291            2 
  525000    1.1742322   -6.8525355    190.73543  0.030275466  0.030832017            2 
  526000    1.1630366   -6.9391035    190.39507  0.030163984  0.030823348            4 
  527000    1.1998215   -6.9294487    189.84988  0.030020537   0.03081464            2 
  528000    1.1509252   -6.8611653    191.42376  0.030212083  0.030805704            5 
  529000    1.1302547   -6.8673458    191.46896  0.030162092  0.030796897            3 
  530000    1.1844701     -6.93419    191.02204  0.030034912  0.030787156            5 
  531000    1.1779142    -6.911653     190.8209  0.029946782  0.030777363            3 
  532000    1.1580821    -6.885766    191.80024  0.030043898  0.030767757            3 
  533000    1.1838148   -6.9042057    192.84331  0.030150611  0.030758848            4 
  534000    1.1857363   -6.8588995    193.06602  0.030128904  0.030750086            3 
  535000    1.1787136   -6.8765743    193.15687  0.030086741  0.030741183            2 
  536000    1.1393431    -6.939309    192.80596   0.02997605  0.030731272            2 
  537000     1.167535   -6.9414549    193.38782  0.030010524  0.030721359            3 
  538000     1.131567   -6.8775711    193.70496  0.030003866  0.030712114            1 
  539000    1.1624173   -6.8968937    194.41601  0.030058134  0.030703198            3 
  540000    1.1454735   -6.9538525    194.73393  0.030051533  0.030694277            8 
  541000    1.1437525   -6.9801683    193.55641  0.029814604   0.03068499            7 
  542000    1.1897271   -6.9209304    194.95701   0.02997494  0.030675296            3 
  543000    1.1866315   -6.9441339    195.43931  0.029993755  0.030665397            3 
  544000    1.1586732   -6.9426334    195.46013  0.029941809  0.030655556            2 
  545000    1.1507606   -6.8685572    195.71683   0.02992612  0.030646025            5 
  546000    1.1738331   -6.9576927     195.8353  0.029889393  0.030636325            3 
  547000     1.155976   -6.9234883    196.31215  0.029907397  0.030626572            2 
  548000    1.1504147   -6.8835058    196.71567  0.029914184  0.030617112            2 
  549000      1.18642   -6.9271932    197.58919  0.029992287  0.030607587            6 
  550000    1.1707038   -6.9504598    198.00198    0.0300003   0.03059893            2 
  551000    1.1615721    -6.858168    199.09046  0.030110474  0.030590345            2 
  552000    1.1644909   -6.9178388    198.34606  0.029943547  0.030581818            1 
  553000    1.1501799   -6.9026443    199.12937   0.03000744  0.030573233            3 
  554000    1.1931931   -6.9185619     199.9236  0.030072743  0.030565485            2 
  555000     1.161965   -6.9104593     199.4547  0.029948153  0.030557847            2 
  556000    1.1628033   -6.9061464    200.33494   0.03002622  0.030549419            2 
  557000    1.1716029     -6.91745    200.87255  0.030052745  0.030540788            5 
  558000    1.1581982     -6.95551    200.67752  0.029969761  0.030532811            6 
  559000    1.1649441   -6.9340163    200.26952  0.029855325  0.030525246            2 
  560000    1.1557015   -6.9101028    200.64955  0.029858564   0.03051712            3 
  561000    1.1697839   -6.9666136    200.98366   0.02985497  0.030508314            2 
  562000    1.1720236    -6.979707    201.89545  0.029937048  0.030499426            8 
  563000     1.145962   -6.9388479    202.39778  0.029958227  0.030490514            4 
  564000    1.1480081   -6.9468449     202.5471  0.029927171   0.03048173            3 
  565000    1.1771055   -6.9401051    201.77682  0.029760593  0.030472615            1 
  566000    1.1708263   -6.9069944    202.78178  0.029855974  0.030463063            2 
  567000    1.1768296   -6.9258379    202.58856   0.02977492  0.030453815            3 
  568000    1.1743622   -6.9420139    202.91305  0.029770107  0.030444628            3 
  569000    1.1616209   -6.9061579    203.61898  0.029821175   0.03043587            1 
  570000    1.1932631   -6.9100611    204.54587  0.029904367  0.030427402            1 
  571000    1.1779393    -6.931886    204.45331  0.029838487  0.030418999            2 
  572000    1.1504315   -6.9128886    205.32901    0.0299139  0.030410205            5 
  573000     1.149523   -6.9225227     205.2959  0.029856879  0.030401188            4 
  574000    1.2099622   -6.8661824    205.94637  0.029899299  0.030392199            2 
  575000    1.1596208   -6.8998089     205.6113  0.029798739  0.030382996            3 
  576000    1.1703173   -6.9584029    204.85634   0.02963778  0.030373296            3 
  577000    1.1465462   -6.9655277    205.89537  0.029736477  0.030363757            4 
  578000    1.1570083   -6.9333836    205.83768  0.029676713  0.030353813            2 
  579000    1.1786171   -6.9336326    206.07011  0.029658911  0.030344183            2 
  580000    1.1564742    -6.963444    206.40913  0.029656484   0.03033482            1 
  581000     1.156385   -6.9390714    206.36371  0.029598926  0.030325571            5 
  582000    1.1454032   -6.9463545    207.88928  0.029766506  0.030315984            9 
  583000    1.1694981   -6.9199948    208.65021  0.029824216  0.030307371            4 
  584000    1.1691422   -6.9079569    209.03554  0.029828131  0.030299166            3 
  585000    1.1614442   -6.9528447    208.23786  0.029663513  0.030291003            2 
  586000    1.1800282    -6.917759    209.32921   0.02976809  0.030282789            3 
  587000    1.1554594   -6.8708531    210.30819  0.029856359  0.030274607            3 
  588000     1.145991   -6.9224235    209.47665  0.029687734   0.03026671            1 
  589000     1.152296   -6.9642057    209.78369  0.029680771  0.030258645            3 
  590000    1.1501712   -6.9044999    210.42153  0.029720555  0.030249893            2 
  591000    1.1605606   -6.9472809    209.99008   0.02960943  0.030240825            3 
  592000    1.1675508   -6.9483949    210.42213  0.029620233  0.030231461            5 
  593000    1.1604764   -6.9566585    210.99348  0.029650574  0.030222085            6 
  594000    1.1386777   -6.9291499     210.9488  0.029594389  0.030212818            2 
  595000    1.1638518   -6.9437416    211.16096  0.029574364  0.030203862            5 
  596000    1.1773978   -6.9462977    211.45232  0.029565481  0.030194405            2 
  597000     1.132061   -6.9254536    212.40299  0.029648658  0.030185182            1 
  598000    1.1438177   -7.0059446    211.27319  0.029441637  0.030175539            7 
  599000    1.1495593   -6.9445578    212.33152  0.029539721  0.030166152            3 
  600000     1.141927   -6.9591651    212.90625  0.029570312  0.030156506            3 
  601000    1.1550549   -6.9178276    213.00073  0.029534211  0.030146835            6 
  602000    1.1401372    -6.893303    213.43512  0.029545282  0.030137036            3 
  603000    1.1525029   -6.9550896    212.84493  0.029414722  0.030127585            2 
  604000    1.1306582   -6.9003105    213.92911  0.029515605  0.030117525            2 
  605000    1.1563812   -6.9454227    213.78724  0.029447279  0.030107983            3 
  606000    1.1427601   -6.9198598    213.91425  0.029416151  0.030097854            2 
  607000    1.1639383   -6.9214753    214.29949  0.029420578  0.030087782            3 
  608000    1.1520773   -6.9272649    215.11701  0.029484239  0.030077721            2 
  609000    1.1456844   -6.9225636    215.35229   0.02946802  0.030068076            2 
  610000    1.1696832   -6.9536088    214.57362  0.029313336  0.030058357            2 
  611000    1.1573312    -6.944872    215.68631  0.029417118  0.030048059            3 
  612000    1.1450861   -6.9483676    216.51862  0.029482383  0.030038343            2 
  613000    1.1527571   -6.8842632    216.59617  0.029444831  0.030028683            3 
  614000    1.1877797   -6.9884734    215.96219  0.029310829  0.030019232            1 
  615000    1.1581258   -6.9335446    216.85286  0.029383857  0.030009511            5 
  616000    1.1546172   -6.9271553    217.11221   0.02937124  0.029999816            3 
  617000    1.1381882   -6.9669541    217.12589  0.029325485  0.029990237            4 
  618000    1.1582345    -6.909816    217.69638  0.029354959  0.029980295            3 
  619000    1.1547561   -6.9477454    217.89289  0.029333991  0.029970637            3 
  620000    1.1573421   -6.9695317    217.60455  0.029247923  0.029960436            4 
  621000    1.1602748   -6.9389508    217.83932  0.029232329  0.029949961            1 
  622000    1.1580584   -6.9725728     217.7836  0.029177867  0.029939376            2 
  623000    1.1737264   -6.9727635    217.92467  0.029149902  0.029928357            5 
  624000    1.1556482   -6.9349792    218.85764  0.029227783  0.029917729            3 
  625000    1.1788319   -6.9532472    218.24763  0.029099684  0.029906925            4 
  626000    1.1742523   -6.9734406    219.15703  0.029174258  0.029896519            2 
  627000    1.1432577   -6.9936392    219.63412  0.029191137  0.029885806            5 
  628000    1.1417826    -6.981827    220.33263  0.029237344   0.02987554            4 
  629000    1.1411342   -7.0078261    219.99556  0.029146206  0.029864918            3 
  630000    1.1646701   -6.9299367    221.02315  0.029235866  0.029854861            3 
  631000    1.1331986   -6.9747583    220.96084  0.029181305  0.029844572            1 
  632000    1.1566636   -6.9421625    221.92944  0.029262848  0.029834561            3 
  633000    1.1524485   -6.9678598     221.6001  0.029173263  0.029824416            4 
  634000    1.1586886   -6.9726807    221.85709  0.029161026  0.029814099            5 
  635000     1.136432   -6.9554026    222.59813  0.029212353  0.029803821            3 
  636000    1.1473297   -7.0112323    222.35117  0.029134064  0.029793549            2 
  637000    1.1466613   -6.9949491    222.19545  0.029067955   0.02978345            3 
  638000    1.1509959   -6.9171945    223.62211   0.02920874  0.029773482            4 
  639000    1.1567519   -6.9605813    224.50777  0.029278531  0.029764037            3 
  640000    1.1553905   -6.9706707    224.50195  0.029232024  0.029754646            3 
  641000    1.1384855   -6.9381354    223.85492  0.029102304  0.029745071            2 
  642000    1.1709949   -6.9254321    224.54656   0.02914675  0.029735502            5 
  643000    1.1429613    -6.943937     225.2964    0.0291986  0.029726246            2 
  644000    1.1518451   -6.9577511    226.10232  0.029257546  0.029717086            2 
  645000    1.1193263   -6.9444766    225.48833  0.029132859  0.029707468            3 
  646000    1.1721384    -6.958494    226.88856   0.02926839  0.029697599            3 
  647000    1.1250444   -6.9329262     227.4334  0.029293329  0.029688253            2 
  648000    1.1576414   -7.0097237    225.97732   0.02906087  0.029679145            2 
  649000    1.1506013   -6.9223334    227.00404  0.029147925  0.029670128            3 
  650000    1.1384064   -6.9661815    227.07739  0.029112486  0.029661339            6 
  651000    1.1487929   -6.9592563     227.7874  0.029158653  0.029652697            1 
  652000    1.1639229    -6.948882    228.35339  0.029186271  0.029643955            4 
  653000    1.1480553   -6.9139521    228.29192  0.029133732  0.029634833            1 
  654000    1.1427618   -6.9356753    227.61458  0.029002877  0.029625604            3 
  655000    1.1632947    -6.931198     228.9219  0.029124923  0.029616155            4 
  656000    1.1541213   -6.9674107    228.12675  0.028979516  0.029606654            2 
  657000    1.1937151   -6.9609966    229.29848  0.029084029  0.029597384            3 
  658000    1.1422448   -6.9988973     229.4419  0.029057991  0.029587395            5 
  659000    1.1483485   -6.9699406    229.54173  0.029026521   0.02957781            6 
  660000    1.1262607   -6.9647699    229.89136  0.029026687  0.029568034            5 
  661000    1.1375742    -6.952621    230.14585  0.029014857  0.029558655            4 
  662000     1.158666   -6.9977873    229.97049  0.028948954   0.02954887            1 
  663000    1.1509554    -6.989917     229.5868  0.028857064  0.029538979            3 
  664000    1.1492562   -6.9935863    230.61575   0.02894274  0.029529241            2 
  665000    1.1584243   -6.9610626     231.5425  0.029015351  0.029519425            2 
  666000    1.1546843   -7.0017254    231.67755  0.028988682  0.029509524            2 
  667000    1.1316364   -6.9605895    233.12931  0.029126601  0.029500212            2 
  668000    1.1171456   -6.9820074    231.70581  0.028905415  0.029491016            2 
  669000    1.1343316   -7.0044407    232.72608  0.028989297  0.029481267            1 
  670000    1.1649796   -6.9734699    232.45785  0.028912668  0.029471911            3 
  671000    1.1475126   -6.9705458    232.08934  0.028823813  0.029462327            4 
  672000    1.1643056   -6.9253239    233.51537  0.028957759  0.029453102            3 
  673000    1.1287882   -6.9701158     233.8938   0.02896159  0.029444065            4 
  674000    1.1290322    -6.966174    233.65898  0.028889587  0.029434711            3 
  675000    1.1320996   -6.9895257    234.86199  0.028995307   0.02942545            3 
  676000    1.1285052   -6.9829116    235.11037  0.028983034  0.029416674            4 
  677000    1.1370989   -7.0339323    234.63308  0.028881473  0.029407188            7 
  678000    1.1409743   -6.9716857    235.38535  0.028931336  0.029397851            3 
  679000    1.1314911   -6.9894032    235.16511  0.028861698  0.029388708            3 
  680000    1.1316888   -6.9496255    236.26732  0.028954328  0.029379816            1 
  681000     1.160689   -6.9775634    236.87484  0.028986153  0.029371221            4 
  682000    1.1473539   -6.9828897    237.16346  0.028978917  0.029362581            4 
  683000    1.1651753   -7.0001582    236.76952  0.028888423  0.029354224            2 
  684000    1.1272369   -7.0298092    237.09571   0.02888593  0.029345244            2 
  685000    1.1442281   -6.9866036    237.98761  0.028952264   0.02933664            3 
  686000    1.1551662   -6.9853329    237.05217  0.028796425  0.029327914            3 
  687000    1.1478953   -6.9330288    238.45362  0.028924505  0.029319538            4 
  688000    1.1310776   -6.9691194    238.72969  0.028915902   0.02931123            2 
  689000    1.1445317   -6.9836628    238.84129  0.028887432  0.029302711            2 
  690000    1.1402321   -6.9828628    238.77653  0.028837745  0.029293924            2 
  691000    1.1368076   -6.9841764    239.24959  0.028853062  0.029285154            2 
  692000    1.1413553   -6.9671091    239.87505  0.028886687  0.029276736            2 
  693000     1.140717   -6.9793849    239.73384  0.028828023  0.029268264            3 
  694000    1.1486684   -7.0199386    239.67937  0.028779943  0.029259525            2 
  695000    1.1507506   -6.9793176    239.86127  0.028760344  0.029250758            5 
  696000    1.1295155   -6.9608741    239.55656  0.028682539  0.029242128            3 
  697000      1.12764    -6.964265    242.11769  0.028947595  0.029234366            2 
  698000    1.1313196   -6.9774564    242.36629  0.028935804  0.029226796            2 
  699000    1.1389224   -6.9446032    242.28116  0.028884258  0.029218897            7 
  700000    1.1150016   -6.9760992    242.36172  0.028852585  0.029211194            6 
  701000    1.1649189    -7.019158    241.81069  0.028745921   0.02920293            2 
  702000     1.145771   -6.9900773    242.32845  0.028766435  0.029194376            3 
  703000    1.1536966   -7.0377332    242.89154  0.028792265  0.029186016            2 
  704000    1.1151227    -6.947924    243.82701  0.028862099  0.029178048            1 
  705000    1.1545444   -7.0114804    243.28666  0.028757288  0.029170268            3 
  706000    1.1549039   -6.9852133    244.82888  0.028898592  0.029162136            3 
  707000    1.1558629   -7.0079074    244.00852  0.028761023  0.029154525            2 
  708000    1.1635321   -6.9956758    244.51017  0.028779445  0.029147169            6 
  709000    1.1280797   -6.9970524    244.88884  0.028783362  0.029139555            3 
  710000    1.1237035   -7.0112309    245.09056  0.028766497  0.029131573            3 
  711000    1.1492114   -6.9635826    246.14604  0.028849746  0.029123945            4 
  712000    1.1298433   -7.0013243      246.594  0.028861658  0.029116493            2 
  713000    1.1590267   -6.9544446    246.51109  0.028811488  0.029109072            6 
  714000    1.1448258   -6.9874444    247.76144  0.028917068  0.029101699            5 
  715000    1.1184435   -6.9856859    247.13605  0.028803735  0.029094419            4 
  716000    1.1214707    -6.959199    247.03231  0.028751433  0.029086781            3 
  717000    1.1445055   -6.9979352     247.7093  0.028790016  0.029079274            2 
  718000    1.1417757   -7.0231613    248.26822  0.028814789  0.029071758            3 
  719000    1.1393381   -6.9442441    248.76136  0.028831868  0.029064221            7 
  720000    1.1188435   -6.9702688    248.78403  0.028794448  0.029056928            2 
  721000    1.1363019   -6.9453244     249.0534  0.028785645  0.029049466            3 
  722000    1.1202736   -6.9886148    249.41537  0.028787554   0.02904161            3 
  723000    1.1559891   -6.9798929    249.88939  0.028802374  0.029034037            4 
  724000    1.1358831   -6.9540101    249.37953  0.028703905  0.029026596            3 
  725000    1.1208612   -6.9681303    250.42193  0.028784129  0.029019339            7 
  726000    1.1144717   -6.9811541    250.86149  0.028794937  0.029011947            3 
  727000     1.119041   -6.9790067    251.18647   0.02879258  0.029004723            4 
  728000      1.10968   -6.9782694    252.61254  0.028916271  0.028997572            6 
  729000    1.1356021   -7.0239558    251.86359  0.028790991   0.02899087            2 
  730000     1.128743   -7.0437988    251.37624  0.028695918  0.028983854            4 
  731000    1.1224841   -6.9560136    252.69241  0.028806704    0.0289771            4 
  732000    1.1228549   -6.9794528    251.99878  0.028688386   0.02896988            1 
  733000    1.1508015   -6.9609944    253.46525  0.028815968  0.028962605            2 
  734000    1.1281173   -7.0167051    253.00703  0.028724685  0.028955601            6 
  735000    1.1282364   -7.0443832    252.45967  0.028623545  0.028948118            1 
  736000    1.1600561   -6.9600683    253.67012  0.028721707  0.028940633            1 
  737000    1.1481579   -6.9751925     253.9914  0.028719063  0.028933165            3 
  738000    1.1304505    -6.957443    254.60678  0.028749636  0.028925915            5 
  739000    1.1057145   -6.9655573    252.96663  0.028525781   0.02891847            2 
  740000    1.1260404   -6.9949975    254.67045  0.028679105  0.028910998            3 
  741000    1.1056087   -6.9680791    254.92163   0.02866865  0.028903713            1 
  742000    1.1142741   -7.0429451    254.41956  0.028573626  0.028895999            4 
  743000    1.1235533    -6.984433    254.46465  0.028540225  0.028888503            3 
  744000    1.1118935   -7.0201815    255.12586  0.028575925  0.028880834            4 
  745000    1.1451692     -7.00041     255.9819  0.028633322  0.028873415            2 
  746000    1.1247627   -6.9844648    255.79899  0.028574508  0.028865915            4 
  747000    1.1181309   -6.9934851      256.653  0.028631526   0.02885849            4 
  748000    1.1343891   -6.9888083    256.59204  0.028586458  0.028851294            2 
  749000    1.1259903   -7.0101115    256.97351  0.028590733  0.028844231            3 
  750000    1.1394151   -7.0182923    256.94076  0.028548973  0.028836803            2 
  751000    1.1252972   -7.0067399    257.72932   0.02859846  0.028829582            4 
  752000    1.1103561   -7.0438778    257.26729   0.02850923  0.028821854            6 
  753000    1.1434448   -6.9992893    258.22569  0.028577433    0.0288143            2 
  754000    1.1196206   -7.0067321    259.06563  0.028632364  0.028807015            4 
  755000    1.1046423   -7.0244289    258.92441  0.028578854  0.028800171            6 
  756000    1.1284703   -6.9681675    260.19855  0.028681498  0.028793226            4 
  757000     1.117386   -6.9744972    260.28837  0.028653498  0.028786626            2 
  758000    1.1354519   -7.0308698    259.27771  0.028504586  0.028779729            5 
  759000    1.1304301   -6.9998947    260.24529  0.028573264  0.028772656            2 
  760000    1.1408874   -7.0517903    260.17313  0.028527756  0.028765445            7 
  761000    1.1431009   -7.0160196    260.43523  0.028518969  0.028758384            4 
  762000    1.1316193    -7.024252    261.96694  0.028649053  0.028751266            4 
  763000    1.1360989   -6.9971306    260.87505  0.028492251  0.028744551            6 
  764000    1.1220776   -7.0140777    262.05065  0.028583186  0.028737736            2 
  765000    1.1314095   -6.9983026     262.7255  0.028619336  0.028730813            2 
  766000    1.1203131   -7.0229046    261.26623  0.028423219   0.02872375            2 
  767000    1.1280572   -7.0143701    262.57289  0.028528128  0.028716781            4 
  768000    1.1195958   -7.0204009    263.06939  0.028544856  0.028710187            4 
  769000    1.1125335   -7.0551375    262.98452  0.028498539  0.028703797            2 
  770000    1.1269901   -7.0145527    263.67748  0.028536524  0.028697562            2 
  771000    1.1192237   -7.0411146     263.7844  0.028511068  0.028690709            2 
  772000     1.126953   -7.1018259      262.756  0.028363126  0.028683342            5 
  773000    1.1054909    -6.981805    264.91607    0.0285593  0.028676643            1 
  774000    1.1371031   -7.0455875    265.11649   0.02854398  0.028669865            3 
  775000    1.1443759   -7.0126802     263.9374  0.028380365  0.028662949            3 
  776000    1.1260339   -7.0054125    264.71857  0.028427681  0.028656185            3 
  777000    1.1388609    -7.025444     265.9689  0.028525193  0.028649332            3 
  778000     1.126555   -7.0117291    266.38403  0.028532994  0.028642571            2 
  779000     1.154135   -7.0594695    265.22072  0.028371921  0.028635644            5 
  780000    1.1111208   -7.0350055     266.0988  0.028429359   0.02862874            7 
  781000    1.1223816     -6.95715    267.08281  0.028497953  0.028622108            4 
  782000     1.142012   -7.0653373    265.79789  0.028324583  0.028615358            5 
  783000    1.1301962    -7.015458    266.98327  0.028414566  0.028608387            5 
  784000     1.121394   -6.9822851    268.66535  0.028557116  0.028601769            3 
  785000    1.1408994   -7.0298691    266.78068  0.028320667  0.028595011            2 
  786000    1.1404474   -7.0047769    269.12455  0.028533137  0.028588541            5 
  787000    1.1476093   -7.0365544    268.26383  0.028405742   0.02858202            5 
  788000     1.132029   -7.0044522    269.05768  0.028453646  0.028575378            4 
  789000     1.139258   -7.0467271    268.36726  0.028344662  0.028568433            9 
  790000    1.1217659   -7.0747481    268.54168  0.028327182  0.028561285            2 
  791000    1.1194671   -7.0047406    269.86001  0.028430258  0.028554622            3 
  792000    1.1089937   -7.0180808    269.23571  0.028328673  0.028547603            4 
  793000    1.1309974   -7.0349434    269.35238  0.028305211  0.028540514            3 
  794000    1.1294112   -7.0236836     269.9012  0.028327162  0.028533621            4 
  795000    1.1070563   -7.0446851    270.51638  0.028356015  0.028526647            3 
  796000     1.088734   -7.0247779    270.15646  0.028282711  0.028519611            3 
  797000    1.1196636    -7.042576    270.68894    0.0283029  0.028512704            5 
  798000    1.1245999   -7.0112708    270.90934  0.028290449  0.028505835            3 
  799000    1.1133402   -7.0190842    271.58181  0.028325178  0.028499075            5 
  800000     1.137507   -7.0483789    271.67459  0.028299436   0.02849236            2 
  801000    1.1118675   -7.0242547    272.36797  0.028336244    0.0284854            8 
  802000    1.1111127   -7.0271367    271.88178  0.028250393  0.028478496            3 
  803000     1.127426   -7.0426984    272.60026  0.028289773  0.028471922            4 
  804000     1.145848   -7.0420487    272.69335  0.028264236  0.028465382            2 
  805000    1.1205813   -7.0208221     272.5377  0.028213012  0.028458713            5 
  806000     1.119941    -7.040964    274.01756  0.028331014  0.028451798            8 
  807000    1.0969923   -7.0549701    272.93614  0.028184236  0.028444612            4 
  808000    1.1369982   -7.0022813    273.42926  0.028200212  0.028437711            2 
  809000    1.1201306   -7.0300043    273.52636  0.028175356  0.028430803            6 
  810000    1.1166983   -7.0542652    274.42643  0.028233172  0.028423651            3 
  811000    1.1221988   -7.0292493    274.74631  0.028231228  0.028416553            2 
  812000    1.1036599   -6.9960106    274.76183  0.028198053  0.028409387            3 
  813000    1.0945444   -7.0298864    274.63066  0.028149924  0.028402219            7 
  814000    1.1056491   -7.0133588    274.50801  0.028102785  0.028394694            4 
  815000    1.1510524   -6.9814889    276.29482  0.028251004  0.028387569            2 
  816000    1.1104893   -6.9960552    276.77544  0.028265465  0.028380541            4 
  817000    1.1295653   -7.0479682    275.68614  0.028119761  0.028373683            3 
  818000    1.1121391   -7.0660011    276.32442   0.02815041  0.028366285            4 
  819000    1.1274114   -7.0422694    276.69052  0.028153288  0.028359054            5 
  820000    1.1391414   -7.0130976    277.29006  0.028179884   0.02835215            3 
  821000    1.1284315   -7.0851604    276.48382  0.028063725  0.028344851           10 
  822000    1.1274136   -7.0593661    277.63952  0.028146748  0.028337686            6 
  823000    1.1197846    -7.036363    277.99359  0.028148399  0.028330574            2 
  824000    1.1125752   -7.0355202     277.7727  0.028091899  0.028323635            4 
  825000    1.1416471   -7.0321652    278.77468  0.028159059  0.028316495            5 
  826000    1.1098004   -7.0204571    278.76675  0.028124168  0.028309624            2 
  827000    1.1269984   -7.0408638    278.40617  0.028053826   0.02830256            5 
  828000    1.1293709   -6.9784881    279.49196  0.028129223  0.028295258            4 
  829000    1.1223972   -7.0622552    278.37657  0.027983169  0.028287947            2 
  830000    1.1218048   -7.0375664    279.58525  0.028070808  0.028280557            2 
  831000     1.144399   -7.0465243    280.20983  0.028099662  0.028273488            2 
  832000    1.1227073   -7.0437682    279.98671  0.028043541  0.028265952            2 
  833000    1.1272808   -7.0457249    280.52557  0.028063783  0.028258388            6 
  834000    1.1103397    -7.039948    280.09401  0.027987011  0.028250923            1 
  835000    1.1636359    -7.031637    280.26221   0.02797028  0.028243491            6 
  836000    1.1092457    -7.044083    280.43792  0.027954338  0.028236093            7 
  837000    1.1196348    -7.059443    280.81638   0.02795862  0.028228645            2 
  838000     1.139957   -7.0725689    281.20126   0.02796353  0.028221429            2 
  839000    1.1131023   -7.0595661    282.22219  0.028031604   0.02821445            4 
  840000    1.1164077   -7.0592805     281.2995  0.027906696  0.028207096            2 
  841000    1.1348276   -7.0601542    282.66742  0.028009059  0.028199675            5 
  842000    1.1169968   -7.0364962    282.62723  0.027971816  0.028192659            4 
  843000    1.1106095   -7.0556055    283.26305  0.028001488  0.028185519            1 
  844000    1.1157246    -7.084445    283.18033  0.027960143  0.028178329            6 
  845000    1.1057137   -7.0794386    283.53873    0.0279624  0.028171137            2 
  846000    1.1212854    -7.025279    284.39339  0.028013533  0.028164335            3 
  847000    1.1125227   -7.0771997    282.88939  0.027832487  0.028157281            2 
  848000    1.1016861   -7.0818824    284.54882  0.027962737  0.028150217            2 
  849000    1.0992088     -7.09191    284.55332  0.027930243  0.028142996            4 
  850000    1.0978066   -7.0684986     285.3387  0.027974383  0.028135654            3 
  851000    1.1166253   -7.0563485    284.87386  0.027895991  0.028128524            3 
  852000    1.1271997   -7.0224564    286.38781  0.028011327  0.028121661            3 
  853000    1.1268784   -7.0237532    286.34961  0.027974757  0.028114938            3 
  854000    1.0941494   -7.0226564    286.70994   0.02797716  0.028108251            5 
  855000    1.0996822   -7.0783617    285.87102  0.027862673  0.028101088            2 
  856000     1.112914   -7.0035946    287.78031  0.028015996  0.028094147            4 
  857000    1.1139165   -7.0728378    287.42691  0.027948941  0.028087406            3 
  858000    1.1142179   -7.0806082    287.92034  0.027964291  0.028080746            4 
  859000    1.1487153   -7.0503046    288.92997  0.028029682  0.028074174            3 
  860000    1.1153414   -7.0550484    288.16913  0.027923365  0.028067775            2 
  861000    1.1219507   -7.0886904    287.93768  0.027868532  0.028061283            4 
  862000    1.1156783   -7.0491494    288.71699  0.027911542  0.028054611            4 
  863000    1.1095296   -7.0525421    289.37206  0.027942455  0.028048061            2 
  864000    1.1011115   -7.0171494    289.97081  0.027967864  0.028041661            3 
  865000    1.1086699    -7.031813    290.17763  0.027955456  0.028035449            2 
  866000    1.1116623   -7.0632119    290.09018   0.02791476  0.028028815            5 
  867000    1.1076973   -7.0254718    290.78488  0.027949335  0.028022418            3 
  868000     1.112996   -7.0349497    291.25762  0.027962521  0.028015812            7 
  869000    1.1078809   -7.0284037    290.08729  0.027818113  0.028008982            2 
  870000    1.1285483   -7.0461775    290.73186  0.027847879  0.028002087            7 
  871000    1.1258667   -7.0610015    291.03204  0.027844627   0.02799545            5 
  872000    1.1064327   -7.0571671    291.99363   0.02790459  0.027988652            3 
  873000    1.1020056   -7.0439663    293.22323  0.027989999   0.02798181            5 
  874000    1.1314516   -7.0312276    292.94354  0.027931306  0.027975209            1 
  875000    1.1143675   -7.0519339    293.09715  0.027914014  0.027968827            3 
  876000    1.1092462   -7.0842532    292.84766  0.027858415  0.027962314            2 
  877000    1.0997097   -7.0753173    292.46262  0.027790063  0.027955488            3 
  878000    1.1033756   -7.0463341    293.62232  0.027868481  0.027948912            3 
  879000    1.1228505   -7.0524976    293.53691   0.02782868  0.027942467            2 
  880000    1.0997729   -7.1041257    293.27381  0.027772141  0.027935686            5 
  881000    1.0869827    -7.029985    294.20237   0.02782845  0.027929058            4 
  882000    1.1015067   -7.0827177    294.50361   0.02782536  0.027922758            2 
  883000    1.1123217   -7.0885354    295.37922  0.027876484   0.02791636            5 
  884000     1.105986   -7.0317906    295.20476  0.027828503  0.027909826            5 
  885000    1.1045773   -7.0891363    294.79457  0.027758434  0.027903324            4 
  886000    1.0882004   -7.0607827    294.61338  0.027710062  0.027896789            6 
  887000    1.0986324   -7.0422468    295.51322  0.027763362  0.027890093            4 
  888000    1.0927643   -7.0169078    295.80281  0.027759273   0.02788348            2 
  889000    1.0819842   -7.0441422    296.76233  0.027817991  0.027876835            1 
  890000    1.0932287   -7.0899062    295.96231  0.027711827  0.027869855            3 
  891000    1.1241932   -7.0200413    296.73549  0.027753039  0.027863135            6 
  892000    1.1168488   -7.0509368    296.00878  0.027654034  0.027856332            3 
  893000    1.1016687   -7.1229322    296.11514  0.027632991  0.027849247            4 
  894000    1.0951594   -7.0622105    296.62349  0.027649468  0.027841901            2 
  895000    1.1129832   -7.0703536    296.35687  0.027593749  0.027834602            3 
  896000    1.0866286    -7.043721    298.23351  0.027737491  0.027827473            1 
  897000    1.1015677   -7.0889385    297.25417  0.027615586   0.02782048            2 
  898000    1.1134892   -7.1021452     298.3596  0.027687416  0.027813522            2 
  899000    1.1253992   -7.0404846    298.93461   0.02770992  0.027806478            4 
  900000     1.116952   -7.0820157     298.9058  0.027676463  0.027799584            3 
  901000    1.1309672    -7.061803    298.08369  0.027569708  0.027792526            5 
  902000    1.1272771   -7.0820457    297.96338  0.027528029   0.02778557            4 
  903000    1.0974029    -7.063109    300.08348  0.027693197  0.027778596            3 
  904000     1.122048   -7.1135233    299.00252  0.027562917  0.027771521            3 
  905000    1.1001176     -7.07634    300.52211  0.027672386   0.02776443            3 
  906000    1.0963487   -7.1012494     300.5456  0.027644003  0.027757679            2 
  907000    1.0919582   -7.0887174    300.27923  0.027589051  0.027750626            3 
  908000     1.096087   -7.0702159      299.612   0.02749743  0.027743486            6 
  909000    1.0919543   -7.0969439     300.1117  0.027512991  0.027736182            8 
  910000    1.1325986   -7.1117482    300.55046  0.027522936  0.027728918            3 
  911000    1.1081639   -7.0672885    301.48102  0.027577847   0.02772171            1 
  912000    1.1206024   -7.0899504    300.72197   0.02747825  0.027714331            2 
  913000    1.1081923   -7.0792601    301.36536  0.027506878  0.027706954            4 
  914000    1.0890085   -7.0921861    301.45969  0.027485384  0.027699727            2 
  915000    1.1102368   -7.0610599    301.69152  0.027476459  0.027692441            3 
  916000    1.0938466   -7.0860717     301.4858  0.027427748  0.027685131            2 
  917000    1.1232111    -7.052678    303.41416  0.027573078  0.027678104            4 
  918000    1.1003491   -7.0395605    303.20584  0.027524132  0.027671153            2 
  919000     1.105857   -7.0826757    303.61076    0.0275309  0.027664114            3 
  920000    1.1163194   -7.0875619    303.50295  0.027491209  0.027656926            2 
  921000    1.1216564   -7.0196791    304.15373  0.027520243  0.027649919            2 
  922000    1.1142844   -7.0592325    304.63942  0.027534293  0.027643082            2 
  923000     1.103995    -7.050236    304.52298  0.027493949  0.027636011            2 
  924000    1.1076197   -7.0791191    304.71571  0.027481575  0.027628946            6 
  925000    1.0934964   -7.0953474    304.75392  0.027455308  0.027621502            2 
  926000    1.1199648   -7.0793808    304.35532  0.027389788  0.027614069            6 
  927000    1.0886138   -7.0668594    305.68331  0.027479622  0.027606779            2 
  928000    1.0907422   -7.0662291    305.28786  0.027414499  0.027599511            5 
  929000    1.1431117   -7.0877594     305.8358  0.027434141  0.027592183            3 
  930000    1.1256262   -7.0502763    305.83327  0.027404415  0.027584848            2 
  931000    1.0973568    -7.078047    306.64718  0.027447832  0.027577795            4 
  932000    1.1100946   -7.1284407     306.3965  0.027395967  0.027570992            7 
  933000    1.0891276   -7.1104452    307.22923  0.027440982  0.027564061            3 
  934000    1.1086567   -7.0180375    309.07025  0.027575861  0.027557451           10 
  935000     1.109956     -7.12054    307.02697  0.027364258  0.027551077            3 
  936000    1.0977956   -7.1199504    308.51027  0.027467083  0.027544114            3 
  937000    1.1204493   -7.0774377    308.35511  0.027423969  0.027537447            3 
  938000    1.0972509   -7.0838983    309.20007    0.0274698   0.02753081            2 
  939000    1.1302123   -7.0946939    308.60107  0.027387386  0.027524048            2 
  940000    1.0884321   -7.1168795    308.66604  0.027364011   0.02751732            3 
  941000     1.091503   -7.1074279    309.38999  0.027399043  0.027510548            5 
  942000     1.088661   -7.0405079     310.7538  0.027490606  0.027504213            2 
  943000    1.1019501   -7.1126831    308.71972  0.027281701  0.027497588            6 
  944000    1.1014598   -7.0993229    310.84151  0.027440105  0.027491252            3 
  945000    1.0956072   -7.0719334    310.80568  0.027407909  0.027484755            3 
  946000    1.1070984   -7.0567991    310.84542  0.027382436  0.027478327            2 
  947000    1.1170053   -7.0734518    312.42331  0.027492371  0.027471845            3 
  948000     1.100021   -7.0702525    312.11978   0.02743669  0.027465686            2 
  949000    1.1006052   -7.0893963    312.54349  0.027444985   0.02745935            2 
  950000    1.1143711   -7.0765246    313.04526  0.027460111  0.027453208            3 
  951000    1.0925857   -7.0955153    313.98518  0.027513598  0.027447162            4 
  952000    1.0764319   -7.0475062    313.73581  0.027462868  0.027440874            6 
  953000    1.0935084   -7.0863753    314.54465  0.027504779  0.027434881            4 
  954000    1.0936466   -7.0463293    314.74617  0.027493551  0.027428834            2 
  955000    1.1297357   -7.0792598    314.21725  0.027418608   0.02742293            3 
  956000    1.0909035   -7.1205202    314.35157  0.027401636  0.027416843            5 
  957000    1.0940634   -7.0940879    314.64505  0.027398559  0.027410709            2 
  958000    1.0922848   -7.1040767    315.08088  0.027407871  0.027404583            6 
  959000     1.085811    -7.102235    314.82292  0.027356875  0.027398754            6 
  960000    1.0863388   -7.0733032    315.84618  0.027417203  0.027392886            5 
  961000    1.0908271   -7.0755976      315.744  0.027379813  0.027386919            4 
  962000    1.0927075   -7.1507293    316.28402  0.027398131  0.027380676            2 
  963000    1.0860282   -7.0941979    316.14813  0.027357921  0.027374671            6 
  964000    1.0713913   -7.1005108    316.45837   0.02735636    0.0273686            2 
  965000    1.1019407   -7.1017044     316.5551  0.027336364  0.027362494            5 
  966000    1.0920517   -7.1062174    316.20839  0.027278157  0.027356369            2 
  967000    1.1091345   -7.0844421    317.34067  0.027347524  0.027350136            4 
  968000     1.098905   -7.0803814    316.82518  0.027274895  0.027343823            3 
  969000     1.113192   -7.1080231    317.56671  0.027310519  0.027337588            1 
  970000     1.087213   -7.0722388    318.02315  0.027321576    0.0273315            2 
  971000    1.0876546   -7.1203633    317.55405   0.02725318  0.027325234            6 
  972000    1.0866227   -7.1412105    317.38729  0.027210844  0.027318733            2 
  973000    1.1024699   -7.0927612    318.53733  0.027281375  0.027312605            5 
  974000     1.080751     -7.06208    317.54494  0.027168458  0.027306259            3 
  975000    1.0775872   -7.0830603    319.17318  0.027279759  0.027299982            2 
  976000    1.1035178   -7.0564532    318.64613  0.027206808  0.027293657            3 
  977000    1.1137992    -7.106797    318.83772  0.027195302  0.027287198            3 
  978000    1.1086651   -7.0745102    319.48938  0.027223021  0.027280743            1 
  979000    1.0760615   -7.1485669    319.40021  0.027187625  0.027274099            4 
  980000    1.0948047     -7.12088    319.93247  0.027205142  0.027267329            3 
  981000    1.0994928    -7.111809    319.00902  0.027098965  0.027260723            3 
  982000    1.0533337    -7.139464    319.95829  0.027151926  0.027253952            2 
  983000    1.0884748    -7.111657     320.2949   0.02715284  0.027247127            3 
  984000    1.0950258   -7.0539124    321.49411  0.027226805  0.027240445            3 
  985000    1.1127241   -7.1771329    319.55901  0.027035449  0.027233756            7 
  986000    1.0625202   -7.1398533    320.76154  0.027109663  0.027226859            2 
  987000    1.0727089   -7.1236826    321.38752  0.027135049  0.027220012            4 
  988000    1.0850902   -7.0825316    320.62246  0.027043055  0.027213405            2 
  989000    1.1084854   -7.1561646    321.86627  0.027120515  0.027206849            7 
  990000     1.096071   -7.1215135    321.85585  0.027092243  0.027200267            2 
  991000    1.1203098    -7.068385    323.54235  0.027206723  0.027193635            1 
  992000    1.0838813   -7.0571349    324.24498  0.027238321  0.027187358            3 
  993000    1.1043134   -7.0723093    323.52917   0.02715082  0.027180849            2 
  994000    1.1012553   -7.0970083    323.89118  0.027153854  0.027174383            5 
  995000    1.1071444   -7.1158945    323.98494  0.027134417   0.02716794            4 
  996000    1.0775144   -7.0938634    323.77505  0.027089612  0.027161428            8 
  997000    1.0927223   -7.1519549    324.42965  0.027117156  0.027154813            2 
  998000    1.1071306   -7.1316548    323.97272   0.02705183  0.027147921            5 
  999000    1.0628717    -7.107976    323.61272  0.026994721  0.027141083            2 
 1000000    1.1061076   -7.0962177    324.03011  0.027002509  0.027134304            5 
 1001000     1.101471   -7.1134158    323.55975  0.026936376  0.027127377            3 
 1002000    1.1074557   -7.0952286    324.20618  0.026963255  0.027120468            2 
 1003000    1.1140042   -7.1295887    324.55393  0.026965265  0.027113364            6 
 1004000    1.1110657   -7.1182907    324.73417  0.026953367  0.027106325            5 
 1005000    1.1167705   -7.1319417    325.05419  0.026953083  0.027099224            4 
 1006000    1.0697067    -7.148768    324.91569  0.026914819  0.027091972            5 
 1007000    1.0902682   -7.1573514    324.18867  0.026827927  0.027084669            2 
 1008000      1.07027   -7.1150001    325.74039  0.026929596  0.027077477            2 
 1009000    1.0802136   -7.1115183    325.01854  0.026843289  0.027070517            3 
 1010000    1.0873876   -7.1069978    325.47066  0.026854015   0.02706349            4 
 1011000    1.0929038   -7.1028343     326.4796  0.026910617  0.027056534            3 
 1012000    1.0799256   -7.1085914    326.90365  0.026918943  0.027049422            2 
 1013000    1.1052469   -7.1566936    325.24436  0.026755871  0.027042207            2 
 1014000    1.0914786   -7.0917561    327.29226  0.026897786  0.027035065            3 
 1015000    1.0605704   -7.0763656    327.55971  0.026893244  0.027027997            2 
 1016000    1.0742654   -7.1501787    326.25822  0.026760025  0.027020705            3 
 1017000    1.0919947   -7.1363139    326.07391  0.026718609  0.027013454            5 
 1018000    1.0773159   -7.1692383    327.27835  0.026790959  0.027006184            3 
 1019000    1.0666105   -7.1261033      327.817  0.026808718  0.026998883            4 
 1020000    1.0808025   -7.1344233    328.56405  0.026843468  0.026991767            3 
 1021000    1.0925402   -7.1476108    327.06973  0.026695211  0.026984438            1 
 1022000    1.0918605   -7.0976691    329.27897  0.026849231  0.026977154            3 
 1023000    1.0771343   -7.0888747    329.35516  0.026829192  0.026970077            4 
 1024000    1.0877974   -7.1398495    329.62488  0.026824942  0.026962783            2 
 1025000    1.1040571   -7.1202387    329.89684  0.026820882  0.026955555            4 
 1026000    1.0916585   -7.1464401    329.61413  0.026771778  0.026948539            2 
 1027000    1.0892939   -7.1258847    330.14077  0.026788443   0.02694138            2 
 1028000    1.0924822   -7.1520762    330.09492  0.026758667  0.026934332            4 
 1029000    1.0895484   -7.0712813    331.34048  0.026833534  0.026927037            5 
 1030000    1.0751527   -7.1251528    330.61358  0.026748671  0.026919875            2 
 1031000    1.1109252   -7.0848577    331.80569  0.026819083  0.026912945            5 
 1032000    1.0792974   -7.1329378    330.97458  0.026725983  0.026905976           12 
 1033000    1.0586501   -7.1159117    332.36488  0.026812268  0.026898977            4 
 1034000    1.0646002   -7.1337992    332.04176  0.026760297  0.026892162            6 
 1035000    1.0864784   -7.1400615    332.48861   0.02677042  0.026885142            2 
 1036000    1.0850894   -7.1706877    332.51195  0.026746457  0.026878191            3 
 1037000    1.0856225   -7.1269634    333.02454  0.026761856  0.026871258            4 
 1038000    1.0943847   -7.1573287    332.73557  0.026712875  0.026864425            3 
 1039000    1.0655709    -7.148548    332.76312  0.026689375  0.026857627            3 
 1040000    1.0867203   -7.1189444    333.05083  0.026686765  0.026850731            4 
 1041000    1.0756984   -7.1572914    332.35696  0.026605584  0.026844034            4 
 1042000    1.1028901   -7.1419525    334.25397  0.026731763  0.026837286            4 
 1043000    1.0838357   -7.1341398    333.27964  0.026628287  0.026830433            2 
 1044000    1.1085418   -7.1818928    334.00394  0.026660595  0.026823592            2 
 1045000     1.068284   -7.1326922    334.32016    0.0266603   0.02681657            2 
 1046000    1.1038989   -7.1177971     336.3804  0.026798948  0.026809827            3 
 1047000    1.0887786   -7.1169319    336.12958  0.026753389  0.026803166            3 
 1048000    1.0819156    -7.142619    335.08135  0.026644509  0.026796582            2 
 1049000     1.080011    -7.146633    335.64338  0.026663758  0.026789661            5 
 1050000    1.0852083   -7.1322029    337.42677  0.026779902  0.026783096            3 
 1051000    1.0804796   -7.1337142    336.08699  0.026648191  0.026776661            2 
 1052000    1.0715127   -7.1509836    336.85621  0.026683794  0.026769926            3 
 1053000    1.0840957   -7.1333007    336.86892  0.026659459  0.026763396            1 
 1054000    1.0844748   -7.1233921    337.81772  0.026709181  0.026756865            1 
 1055000    1.0883578   -7.1579566    338.28896  0.026721087  0.026750465            2 
 1056000    1.0860502   -7.1531986    338.22541  0.026690767  0.026744053            3 
 1057000    1.0745367    -7.123717    338.48882  0.026686284  0.026737623            1 
 1058000    1.0785193   -7.0690678    339.24551  0.026720661  0.026731397            4 
 1059000     1.106118   -7.0799749    339.83812  0.026742061  0.026725013            2 
 1060000    1.0907695    -7.109918    339.67907  0.026704329  0.026718872            3 
 1061000    1.0602566   -7.1599455    339.17044  0.026639211  0.026712537            3 
 1062000    1.0906766   -7.1313367    339.74183  0.026658963  0.026705876            6 
 1063000    1.0998179   -7.1305933    339.61853  0.026624218   0.02669942            3 
 1064000    1.1032748   -7.1265297    340.07559  0.026634993  0.026692767            3 
 1065000    1.0790793   -7.1238927    340.22821  0.026621925  0.026686244            3 
 1066000    1.0755675   -7.1322338    340.94036  0.026652623  0.026679808            3 
 1067000     1.082581   -7.1417677    341.07072  0.026637826  0.026673269            2 
 1068000    1.0966873   -7.1349237    341.27844  0.026629092  0.026666657            2 
 1069000     1.066138   -7.1240997    340.65911  0.026555902  0.026660151            3 
 1070000    1.0805667   -7.1498177    341.61961  0.026605889  0.026653384            3 
 1071000    1.0891671   -7.1714852    340.51416  0.026495033  0.026646391            2 
 1072000    1.0536052   -7.1659487    340.80922  0.026493254  0.026639416            2 
 1073000    1.1018504   -7.1504654    340.67328  0.026458006  0.026632667            3 
 1074000    1.1050653   -7.1203066    341.66832  0.026510577   0.02662583            2 
 1075000    1.1231958    -7.136766    341.98779  0.026510681  0.026619189            6 
 1076000    1.0777968   -7.1182683    342.07025   0.02649243  0.026612455            4 
 1077000    1.0681516   -7.1476465    343.30215   0.02656315  0.026605683            4 
 1078000    1.0698372   -7.1762317    342.31494  0.026462194  0.026599006            3 
 1079000    1.0782913   -7.1386269    342.83779   0.02647805  0.026592284            2 
 1080000    1.0775449   -7.1427365    342.79612  0.026450318   0.02658567            3 
 1081000    1.0719873   -7.1498345    342.14972  0.026376019  0.026578686            3 
 1082000     1.090019   -7.1268355     342.9834   0.02641585  0.026571478            5 
 1083000    1.0869376   -7.1611891    343.23672  0.026410951  0.026564507            5 
 1084000    1.0686612   -7.1651425    342.67872   0.02634369  0.026557548            3 
 1085000    1.0919254   -7.1516655    344.11734  0.026429903  0.026550577            3 
 1086000    1.0936698   -7.1805032    344.52858  0.026437123  0.026543567            1 
 1087000    1.0727912   -7.2251718    342.72333  0.026274404   0.02653631            5 
 1088000    1.0849586   -7.1488157    343.51718  0.026311058  0.026529068            2 
 1089000    1.0874094   -7.1533644     344.0771  0.026329744  0.026521869            1 
 1090000    1.0751573   -7.1548526    344.71433  0.026354307   0.02651486            2 
 1091000    1.0938762   -7.1617844    344.73799  0.026331958  0.026507668            5 
 1092000     1.059441   -7.1432515    345.27512  0.026348834  0.026500594            2 
 1093000    1.0678227   -7.1903021    344.57239  0.026271149  0.026493648            2 
 1094000    1.0782228   -7.1643182     345.3829  0.026308874  0.026486477            4 
 1095000    1.0585307   -7.1455519    345.51302   0.02629475  0.026479534            5 
 1096000     1.078252   -7.1315988    347.38954  0.026413438  0.026472643            2 
 1097000    1.0899062   -7.1279627    346.74796  0.026340623  0.026465779            3 
 1098000    1.0768638   -7.1630859    347.17919  0.026349362  0.026458478            9 
 1099000    1.0499579   -7.1320138    347.57568   0.02635545  0.026451325            7 
 1100000    1.0675494   -7.1796307    346.49217  0.026249407   0.02644424            5 
 1101000    1.0809537   -7.1243993     348.9796  0.026413836  0.026437194            4 
 1102000    1.0645258    -7.142323    348.21573  0.026332103  0.026430249            3 
 1103000    1.0483629   -7.1476733    347.88712  0.026283403  0.026423234            4 
 1104000    1.0989055   -7.1610075    348.26571  0.026288172  0.026416036            2 
 1105000     1.068583   -7.1794293    348.51991  0.026283553  0.026408997            4 
 1106000    1.1033554   -7.2003675    348.02728   0.02622267  0.026401874            4 
 1107000    1.0704341   -7.1693889    349.56723  0.026314907  0.026394698            4 
 1108000    1.0734944   -7.1417763    348.73274  0.026228395  0.026387646            5 
 1109000    1.0739338    -7.124618    350.30358  0.026322782  0.026380849            4 
 1110000    1.0669764     -7.16029    350.00835  0.026276903  0.026373925            4 
 1111000    1.0851524   -7.1472486    349.86698  0.026242647  0.026366962            5 
 1112000     1.053295   -7.1468187    350.73546  0.026284132  0.026359943            2 
 1113000    1.0632954   -7.1703174    350.20485  0.026220788  0.026352859            5 
 1114000    1.0899029   -7.1795037    350.14705  0.026192927  0.026345798            2 
 1115000    1.0792524   -7.1420102    351.10793  0.026241251  0.026338717            7 
 1116000    1.0898918   -7.1793555     349.9706   0.02613281  0.026331816            3 
 1117000     1.082725   -7.1741973    350.61867  0.026157764  0.026324701            3 
 1118000    1.0688231   -7.1276444    352.26534  0.026257106  0.026317872            7 
 1119000    1.0801905   -7.1289303     352.2778   0.02623457   0.02631088            6 
 1120000    1.0729434    -7.111099    351.68962  0.026167383  0.026303712            3 
 1121000    1.0863534      -7.1589    352.44565  0.026200242  0.026296577            3 
 1122000    1.0524136   -7.2076547    350.86413  0.026059427  0.026289473            6 
 1123000    1.0730857   -7.1661019    351.90742   0.02611364  0.026282142            3 
 1124000    1.0714284   -7.1664097     352.0559  0.026101416   0.02627512            2 
 1125000    1.0795092   -7.1642015    353.13102  0.026157854  0.026268164            3 
 1126000    1.0991632     -7.09987     353.2614  0.026144272  0.026261187            2 
 1127000    1.1094857   -7.2022877    351.86272  0.026017652  0.026253993            3 
 1128000    1.0867619   -7.1510757    353.16148  0.026090535  0.026246742            1 
 1129000    1.0810272   -7.1747886    352.55639  0.026022763  0.026239596            5 
 1130000     1.078558   -7.1354391    354.10739  0.026114115  0.026232464            4 
 1131000    1.0836819   -7.1481809    354.23617  0.026100514  0.026225612            6 
 1132000    1.0709335   -7.1692942     355.0993  0.026140997  0.026218739            7 
 1133000     1.062781   -7.1753868    354.19925  0.026051724  0.026211669            6 
 1134000    1.0798189   -7.1385675    354.31305  0.026037114  0.026204572            5 
 1135000    1.0629099   -7.1269071    356.03112  0.026140317   0.02619757            3 
 1136000    1.0694348   -7.1857778    354.85281  0.026030869  0.026190486            5 
 1137000    1.0601684   -7.1563868    354.93253  0.026013818  0.026183402            2 
 1138000    1.0648001   -7.2166478    354.49124  0.025958644  0.026176167            2 
 1139000     1.068565   -7.1944232    354.63217  0.025946164  0.026168987            5 
 1140000     1.076459   -7.1910979    355.57142  0.025992063  0.026161819            4 
 1141000    1.0724266   -7.1827854    356.30125  0.026022586   0.02615449            6 
 1142000    1.0579726   -7.1927828    354.85294  0.025894114   0.02614735            5 
 1143000    1.0812068    -7.162773    357.40051  0.026057196  0.026139997            4 
 1144000      1.04095   -7.1854051    355.42066  0.025890199  0.026132871            4 
 1145000    1.0608963    -7.160487     357.6031  0.026026427  0.026125548            2 
 1146000    1.0531428   -7.1688735    356.76693  0.025942912  0.026118255            3 
 1147000    1.0635259   -7.2451388     355.6945  0.025842378  0.026110761            4 
 1148000    1.0615028   -7.1985323    357.07634  0.025920176  0.026103257            6 
 1149000     1.066141    -7.181794    356.44489  0.025851819  0.026095938            2 
 1150000     1.054748   -7.1792476    358.85196  0.026003765  0.026088566            3 
 1151000     1.084277   -7.2089009    357.31533  0.025869919  0.026081385            6 
 1152000    1.0705091   -7.2093942     357.2039  0.025839402  0.026074019            6 
 1153000    1.0638613   -7.2410608    356.96055  0.025799404  0.026066573            4 
 1154000    1.0610004   -7.1612086    359.09008  0.025930826  0.026059447            3 
 1155000     1.079205   -7.1952837    358.42503  0.025860392  0.026052385            3 
 1156000    1.0721634     -7.19246    359.20727  0.025894411   0.02604527            4 
 1157000    1.0757792   -7.1641055    359.93295  0.025924298  0.026038218            4 
 1158000    1.0541052   -7.1549859    360.81103    0.0259651  0.026031248            4 
 1159000     1.104554   -7.2156992    358.83489  0.025800611  0.026024263            4 
 1160000    1.0739513     -7.21199    360.76902  0.025917315  0.026017261            4 
 1161000    1.0857361   -7.2088497    360.52372  0.025877385  0.026010201            6 
 1162000    1.0600921   -7.1672587    361.34302  0.025913871  0.026003145            2 
 1163000    1.0784613   -7.1540913    361.46337  0.025900213  0.025996243            2 
 1164000    1.0908096    -7.188419     361.1468  0.025855298  0.025989113            8 
 1165000    1.0745746   -7.1643691    360.40839  0.025780285   0.02598198            3 
 1166000    1.0551406   -7.1790919    360.23364  0.025745686  0.025974781            2 
 1167000    1.0703837    -7.176366    362.43099  0.025880533  0.025967634            2 
 1168000    1.0358949   -7.1810719    361.77737  0.025811742  0.025960278            4 
 1169000    1.0889869   -7.1646822    362.77834  0.025861016  0.025953005            4 
 1170000    1.0521784   -7.2258868    361.42529  0.025742542  0.025945554            4 
 1171000    1.0840999   -7.2037481     361.1066  0.025697879   0.02593811            3 
 1172000    1.0751936   -7.1643903    362.31598  0.025761944  0.025930575            6 
 1173000    1.0714394   -7.1756642    361.75493  0.025700123   0.02592332            4 
 1174000    1.0436694   -7.2463716    361.39261  0.025652514  0.025915924            4 
 1175000    1.0724282   -7.2042395    362.19573   0.02568764  0.025908295            4 
 1176000     1.078461   -7.1438974    363.35928  0.025748249  0.025900923            4 
 1177000    1.0496912   -7.1995017    363.09716  0.025707814  0.025893587            4 
 1178000    1.0741701   -7.1949635    363.57776  0.025719988  0.025886147            2 
 1179000    1.0493897   -7.2232052    363.08479   0.02566333  0.025878848            2 
 1180000    1.0699004   -7.2002554    363.32188  0.025658325  0.025871421            2 
 1181000    1.0501473   -7.2040789    362.61339  0.025586607  0.025863924            2 
 1182000    1.0661803   -7.1376714    365.42706  0.025763329  0.025856499            1 
 1183000     1.060601   -7.1576365    365.01975  0.025712859  0.025849311            3 
 1184000    1.0478155   -7.1514151    365.70438  0.025739329  0.025842092            4 
 1185000    1.0693998   -7.1232548    367.37492  0.025835086  0.025834925            6 
 1186000    1.0754301   -7.2263099    364.34047  0.025600089  0.025827524            4 
 1187000    1.0308054   -7.2024279    366.48294  0.025728935  0.025820171            2 
 1188000    1.0564026   -7.2052884    364.99717  0.025603056   0.02581284            2 
 1189000    1.0630232   -7.2089025    365.22529  0.025597511  0.025805503            3 
 1190000    1.0636852   -7.1916485    366.05569  0.025634152  0.025798171            5 
 1191000    1.0796967     -7.14691    366.21147  0.025623528  0.025790886            5 
 1192000    1.0589329   -7.1066096    368.44421  0.025758124  0.025783801            4 
 1193000    1.0650391   -7.2004136    366.45761  0.025597765  0.025776483            3 
 1194000    1.0781282   -7.1962477    367.09846  0.025621054  0.025769191            4 
 1195000    1.0820385   -7.1917876    366.81028  0.025579518  0.025761864            7 
 1196000    1.0625838   -7.2129347    367.27681  0.025590636  0.025754473            3 
 1197000    1.0882555   -7.2025589    367.35082   0.02557441  0.025747132            7 
 1198000    1.0580313   -7.1758279     367.5566  0.025567376  0.025739835            3 
 1199000    1.0661967   -7.1924235    367.60489  0.025549408  0.025732375            9 
 1200000    1.0463604   -7.1887163    368.01873  0.025556856  0.025725107            4 
 1201000    1.0638247   -7.1950678    368.23508  0.025550588  0.025717959            7 
 1202000    1.0590995   -7.2316604    368.19757  0.025526731  0.025710539            3 
 1203000    1.0729812   -7.1988426    367.71661  0.025472195  0.025703034            2 
 1204000    1.0704776   -7.2199244    368.46686  0.025502966  0.025695557            4 
 1205000    1.0533155   -7.1898596    368.74516  0.025501048  0.025688391            2 
 1206000    1.0684567   -7.1981656    370.34678  0.025590574  0.025681181            2 
 1207000    1.0686217    -7.188732     370.2862  0.025565189  0.025674063           10 
 1208000     1.055576   -7.2468469    368.55028  0.025424275  0.025666947            5 
 1209000    1.0363787   -7.1830445    370.79236  0.025557786  0.025659787            3 
 1210000    1.0596488   -7.1989849    371.38401  0.025577411    0.0256528            1 
 1211000    1.0771169   -7.2496667    370.93417  0.025525335  0.025645735            3 
 1212000    1.0334397   -7.1910501    371.18732  0.025521681  0.025638665            2 
 1213000    1.0439017   -7.1897588    370.85121  0.025477549  0.025631547            2 
 1214000    1.0587355    -7.222546    370.68149  0.025444913  0.025624388            9 
 1215000    1.0754249   -7.2201605    370.81384  0.025433048  0.025617194            6 
 1216000    1.0595939   -7.2017139    371.81655  0.025480849  0.025610028            3 
 1217000    1.0821822   -7.2221287     371.8202  0.025460162   0.02560289            3 
 1218000    1.0507479   -7.2165412    373.06251  0.025524255  0.025595946            4 
 1219000    1.0668353   -7.2110603    373.16047  0.025510013  0.025589044            1 
 1220000      1.06271   -7.2042831    373.28801  0.025497815  0.025582147            4 
 1221000    1.0447686   -7.2479833     371.5614  0.025359091  0.025574911            4 
 1222000    1.0522172   -7.2458411    373.43816  0.025466323   0.02556787            7 
 1223000    1.0253015   -7.2743936     372.8575  0.025405935  0.025560694            9 
 1224000    1.0550346   -7.1906036    374.32727  0.025485244  0.025553694            3 
 1225000    1.0689176   -7.2774882    373.28645  0.025393636  0.025546722            3 
 1226000    1.0606579   -7.2230997    374.60332  0.025462433  0.025539717            6 
 1227000    1.0727672   -7.1832184    375.74612  0.025519296  0.025532761            2 
 1228000     1.043743   -7.2654744    374.23922  0.025396255   0.02552578            1 
 1229000    1.0756167   -7.2174363    375.18369  0.025439632  0.025518907            3 
 1230000    1.0533989   -7.2354533    374.17971  0.025350929  0.025511787            3 
 1231000     1.052504   -7.2252579    377.02699  0.025523083   0.02550494            4 
 1232000    1.0468692   -7.2131094    376.61214  0.025474306   0.02549808            4 
 1233000    1.0703402   -7.2078617    375.88761  0.025404678  0.025491406            8 
 1234000    1.0584155   -7.2517358    376.12317  0.025399998  0.025484602            4 
 1235000    1.0627057   -7.2149194    377.07008  0.025443325  0.025477684            4 
 1236000    1.0278841   -7.2227087    377.05486  0.025421714  0.025471104            4 
 1237000    1.0612803   -7.1867539    377.83949  0.025454021  0.025464568            2 
 1238000     1.058782   -7.2285359    376.99981  0.025376939  0.025457781            4 
 1239000    1.0437234   -7.1918095    378.53212  0.025459518  0.025450985            4 
 1240000    1.0727639    -7.214373    378.50567  0.025437209  0.025444253            7 
 1241000    1.0277879   -7.2186846    377.93678  0.025378511  0.025437475            2 
 1242000    1.0726137   -7.2551071    377.71199  0.025342995  0.025430572            5 
 1243000    1.0735241   -7.2559488    377.60761  0.025315608   0.02542369            3 
 1244000    1.0488827   -7.1852395    379.48133  0.025420775  0.025416783            5 
 1245000    1.0507879   -7.2416932     378.9778  0.025366653   0.02541013            3 
 1246000    1.0510596   -7.2107461    379.74012   0.02539728  0.025403559            2 
 1247000    1.0867268   -7.2301549    379.54916  0.025364151  0.025396915            7 
 1248000    1.0600212   -7.2599293    380.61648  0.025415096  0.025390275            2 
 1249000    1.0699083   -7.2378738    380.60482   0.02539397  0.025383797            5 
 1250000    1.0521688   -7.1802233    381.50135  0.025433424    0.0253775            2 
 1251000     1.074469   -7.2332604    381.53668  0.025415447  0.025371289            4 
 1252000    1.0399578     -7.21021    380.86284  0.025350295  0.025365096            6 
 1253000    1.0515577   -7.2075224    382.70479  0.025452567  0.025358819            5 
 1254000    1.0282057   -7.2185412    381.98779  0.025384622  0.025352481            3 
 1255000     1.009394   -7.2377416    381.64552  0.025341668  0.025346192            7 
 1256000    1.0380577   -7.2200417    381.93028  0.025340385  0.025339831            3 
 1257000    1.0654972   -7.2107138    383.50206  0.025424427  0.025333455            2 
 1258000    1.0405229   -7.2061507    382.97993   0.02536963  0.025327042            3 
 1259000    1.0260845    -7.236178    382.47387  0.025315983  0.025320722            3 
 1260000    1.0517052   -7.2405285    382.41538  0.025292022  0.025314199            4 
 1261000    1.0460369   -7.2474182    381.78973   0.02523062  0.025307708            5 
 1262000    1.0630915   -7.2281237    383.05342  0.025294072  0.025301142            1 
 1263000    1.0522259   -7.2374377    382.69014  0.025250075  0.025294524            3 
 1264000    1.0499941   -7.2158146     382.5838  0.025223088  0.025288027            4 
 1265000    1.0520628   -7.2404374    383.24793  0.025246899  0.025281505            2 
 1266000    1.0670045   -7.2111733    383.57621  0.025248565  0.025275226            5 
 1267000    1.0575498   -7.2359726    383.84205  0.025246123  0.025268737            5 
 1268000    1.0381093   -7.2794435     384.8415  0.025291897  0.025262151            4 
 1269000    1.0545366   -7.2648296    384.50005  0.025249544  0.025255504            5 
 1270000    1.0560367   -7.2014599    385.08781  0.025268229  0.025249086            3 
 1271000    1.0467872   -7.2162433    385.88744  0.025300777   0.02524265            2 
 1272000    1.0302731   -7.2223719    385.83377   0.02527737  0.025236207            2 
 1273000    1.0274187   -7.2572778     386.2126  0.025282312  0.025229759            2 
 1274000    1.0790732   -7.2146843    385.91186  0.025242795  0.025223469            3 
 1275000    1.0438429   -7.2448073    385.52502  0.025197713   0.02521699            4 
 1276000    1.0355607   -7.2119852    387.31138   0.02529463  0.025210534            2 
 1277000    1.0561417    -7.279314    385.78078   0.02517494  0.025203915            6 
 1278000     1.060095   -7.2567958    386.09926  0.025176008  0.025197453            5 
 1279000    1.0280496   -7.2352949    386.14305  0.025159177  0.025191014            3 
 1280000    1.0440217   -7.2789515    385.76079  0.025114635  0.025184468            5 
 1281000    1.0450721   -7.2328661    386.04833  0.025113735  0.025177863            3 
 1282000    1.0539875   -7.2069905    387.68819   0.02520074  0.025171379            5 
 1283000    1.0492024    -7.255871    386.85749  0.025127143  0.025164802            2 
 1284000    1.0495154   -7.2124277    387.66375    0.0251599  0.025158322            2 
 1285000    1.0403125   -7.2396032    388.90045  0.025220522  0.025151912            4 
 1286000    1.0463285   -7.1799013    387.38333  0.025102601  0.025145538            4 
 1287000    1.0419949   -7.2250602    389.47612  0.025218604  0.025139123            3 
 1288000    1.0717743   -7.2434014    388.57732  0.025140872   0.02513258            2 
 1289000    1.0358139   -7.2603905    388.38406  0.025108874  0.025126037            4 
 1290000    1.0343083   -7.1904386    390.85304  0.025248904  0.025119721            3 
 1291000    1.0509021   -7.2450387    390.43981  0.025202673  0.025113253            2 
 1292000     1.031716   -7.2317739    390.46515  0.025184801  0.025107093            3 
 1293000    1.0450567   -7.2471192    390.51886  0.025168784  0.025100893            9 
 1294000    1.0294573   -7.2126861    391.96873  0.025242705  0.025094563            3 
 1295000    1.0316209   -7.2335329    390.53702  0.025131082  0.025088314            3 
 1296000     1.043649   -7.2695808    389.25655  0.025029357  0.025081816            5 
 1297000    1.0405096   -7.2480381    390.36645  0.025081371  0.025075518            4 
 1298000    1.0235413   -7.2968008        389.4        0.025  0.025069123            4 
 1299000     1.034945   -7.2363225    391.78652  0.025133854  0.025062645            2 
 1300000     1.039793   -7.2295052    391.18227  0.025075786  0.025056134            5 
 1301000    1.0407452   -7.2789684    390.81819  0.025033192  0.025049617            7 
 1302000    1.0517359   -7.2713332    390.34166  0.024983465   0.02504303            3 
 1303000    1.0401989   -7.2863683    390.27003   0.02495971  0.025036444            7 
 1304000    1.0506023   -7.2549402     392.0097  0.025051745  0.025029916            3 
 1305000    1.0464635   -7.2698196    392.27811  0.025049688  0.025023406            3 
 1306000    1.0262354   -7.2900978    391.43502  0.024976711  0.025016815            1 
 1307000    1.0284863   -7.2588941    393.54288  0.025091997  0.025010521            2 
 1308000    1.0383915   -7.1978358     395.6244  0.025205428  0.025004425            2 
 1309000    1.0374194   -7.2314729    392.89342  0.025012314  0.024998335            3 
 1310000    1.0415385   -7.2505783    393.20664  0.025013145  0.024992078            4 
 1311000    1.0203722   -7.2310445    395.84099  0.025161517  0.024985944            3 
 1312000    1.0274804   -7.2888908    394.63058  0.025065458  0.024979734            3 
 1313000    1.0385461   -7.2653517    394.39582  0.025031468  0.024973569            4 
 1314000    1.0266743   -7.2614616    395.03284  0.025052818  0.024967349            3 
 1315000    1.0461229   -7.2634031    395.10653  0.025038436  0.024961218            3 
 1316000    1.0367969   -7.2610853    394.34918  0.024971452  0.024955097            4 
 1317000    1.0544809   -7.2382301    396.02377  0.025058452  0.024949012            4 
 1318000    1.0435574   -7.2611101    396.73284  0.025084272  0.024942852            2 
 1319000    1.0525118   -7.2786868    394.69246  0.024936344  0.024936769            2 
 1320000    1.0361758   -7.2671527    395.16292  0.024947154  0.024930562            7 
 1321000    1.0144896   -7.2536502    396.13368  0.024989508   0.02492436            4 
 1322000    1.0426101   -7.2322167    395.31708   0.02491913  0.024918184            5 
 1323000    1.0510812   -7.2805911    395.73542  0.024926646  0.024911941            4 
 1324000    1.0277665    -7.247377    396.55911  0.024959662  0.024905868            2 
 1325000    1.0596748   -7.2201738    397.69935  0.025012538   0.02489983            2 
 1326000    1.0336219   -7.2912197    397.54193  0.024983781  0.024893779            5 
 1327000    1.0486068   -7.2659213    398.25141  0.025009509  0.024887688            3 
 1328000    1.0627644   -7.1889654    400.62663  0.025139723  0.024881714            1 
 1329000    1.0468195   -7.2553357    398.25246  0.024971937  0.024875771            3 
 1330000    1.0474681     -7.24543     398.8144  0.024988371  0.024869847            2 
 1331000    1.0399195   -7.3007639    398.63204  0.024958179  0.024863881            2 
 1332000    1.0462104   -7.3314535    398.38625  0.024924065  0.024857919            4 
 1333000    1.0404562   -7.2551496    398.94389  0.024940228  0.024851809            4 
 1334000    1.0417258   -7.2605602    400.01654  0.024988539  0.024845909            2 
 1335000    1.0358568   -7.2679274    400.23918  0.024983719  0.024840088            5 
 1336000    1.0490026   -7.2411654    400.74014  0.024996266  0.024834126            3 
 1337000      1.04158   -7.2480149    399.76374  0.024916713  0.024828119            4 
 1338000    1.0312171   -7.2883856    400.45445  0.024941109  0.024822068            7 
 1339000    1.0418808   -7.2501306    400.30484  0.024913172  0.024816021            7 
 1340000    1.0527654   -7.2398956    401.77915  0.024986265   0.02481025            2 
 1341000    1.0216019   -7.2673582    400.53216  0.024890142  0.024804345            6 
 1342000    1.0237156   -7.2954719    399.81447  0.024827029  0.024798405           11 
 1343000    1.0469653   -7.2863054    400.60638  0.024857681  0.024792365            4 
 1344000    1.0182956   -7.3036376    401.09282  0.024869346  0.024786384            3 
 1345000    1.0401973   -7.2790459     402.3824  0.024930756  0.024780513            2 
 1346000    1.0246188   -7.2703139    403.31258  0.024969823   0.02477467            6 
 1347000    1.0465982    -7.294599    402.64018  0.024909687  0.024768773            4 
 1348000    1.0320596   -7.2789497    403.43635  0.024940427  0.024762953            4 
 1349000    1.0074426   -7.2478672    403.96965  0.024954884  0.024757271            5 
 1350000    1.0549379   -7.2436151    404.45329  0.024966253    0.0247515            6 
 1351000    1.0426413     -7.28932    403.63429  0.024897255  0.024745829            4 
 1352000    1.0848092   -7.2351076     404.0506  0.024904499  0.024740122            7 
 1353000    1.0411716   -7.3156524    403.26177  0.024837507  0.024734468            4 
 1354000    1.0440692   -7.2828423    405.14666  0.024935171  0.024728726            3 
 1355000     1.015408   -7.2696692    404.90315  0.024901793  0.024723104            6 
 1356000   0.99600623   -7.2763689    405.52761  0.024921805  0.024717551            4 
 1357000    1.0275764   -7.2753633    406.97778  0.024992494   0.02471202            2 
 1358000     1.028165   -7.2947999    405.37328  0.024875631  0.024706489            6 
 1359000    1.0472394   -7.2650419    407.21601  0.024970322  0.024701043            6 
 1360000    1.0139509   -7.2428215    407.22813  0.024952704  0.024695593            5 
 1361000    1.0273824   -7.2508818    407.43539   0.02494706  0.024690185            3 
 1362000    1.0323154   -7.2488434    408.01244   0.02496405  0.024684789            7 
 1363000    1.0315858   -7.2668136    406.59455  0.024859046  0.024679405            7 
 1364000    1.0261214   -7.2538967    406.64074  0.024843642  0.024673882           10 
 1365000    1.0474778   -7.3220009    407.39595  0.024871548  0.024668255            5 
 1366000    1.0468833   -7.2892339    407.33719  0.024849756  0.024662432            4 
 1367000    1.0492956   -7.2843701    407.09209  0.024816636  0.024656801            4 
 1368000    1.0213708   -7.2955409    406.58757  0.024767761  0.024651224            4 
 1369000    1.0319341   -7.2741945    408.05548  0.024839024   0.02464558            3 
 1370000    1.0280717   -7.2522551    408.95128  0.024875382  0.024639982            6 
 1371000    1.0282073   -7.3110611    408.25578  0.024814963  0.024634491            4 
 1372000    1.0436478    -7.247071    409.69482  0.024884282  0.024628808            4 
 1373000    1.0314041   -7.2825701    408.55519  0.024796989  0.024623151            3 
 1374000    1.0526604    -7.304998    409.50041   0.02483627  0.024617496            3 
 1375000    1.0295933   -7.2543724    408.65077  0.024766713   0.02461197            3 
 1376000    1.0573001    -7.216455    412.22387  0.024965108  0.024606629            3 
 1377000    1.0350061   -7.2731358    410.84641  0.024863617  0.024601198            3 
 1378000    1.0336413   -7.2851825    409.65051  0.024773253  0.024595732            3 
 1379000    1.0357455    -7.259093    410.84785  0.024827644  0.024590183            2 
 1380000    1.0204156   -7.2928696    410.34662  0.024779385  0.024584751            4 
 1381000    1.0055661   -7.3034321    410.73256  0.024784731  0.024579336            8 
 1382000    1.0324182   -7.2748143    411.34859  0.024803943   0.02457388            2 
 1383000    1.0218442   -7.2756229    412.99513  0.024885221  0.024568408            6 
 1384000    1.0255089   -7.3109677    411.89869  0.024801222  0.024562924            3 
 1385000     1.036388   -7.2642439    412.14425   0.02479809  0.024557503            4 
 1386000     1.036987   -7.3064518    411.09304  0.024716994  0.024552124            4 
 1387000    1.0588313   -7.2986994    412.41836  0.024778801  0.024546824            5 
 1388000    1.0218134   -7.2806268    412.56807  0.024769937  0.024541427            3 
 1389000    1.0231273   -7.2478327    413.46425   0.02480587  0.024535905            5 
 1390000    1.0297753   -7.2757169    411.81611  0.024689215  0.024530515            3 
 1391000    1.0106924   -7.2558243     413.5551  0.024775647  0.024524986            3 
 1392000    1.0313012   -7.2702185    413.06186   0.02472832  0.024519449            3 
 1393000    1.0066888   -7.2634008    412.68401  0.024687964   0.02451384            2 
 1394000    1.0367277   -7.2916054    414.38391  0.024771874  0.024508341            5 
 1395000    1.0169803   -7.2834119    412.90356  0.024665685  0.024502735            3 
 1396000    1.0410188    -7.296083    415.34302  0.024793638  0.024497167            2 
 1397000     1.036608   -7.2709459    414.32453  0.024715135   0.02449172            4 
 1398000    1.0481884   -7.2820855    415.19715  0.024749472  0.024486338            2 
 1399000    1.0264106   -7.3106957    414.13037  0.024668238  0.024480868            3 
 1400000    1.0045695   -7.2914573    415.69975  0.024744033  0.024475337            4 
 1401000    1.0040649   -7.2755486    415.66229  0.024724143  0.024469727            7 
 1402000    1.0379025   -7.3230565    414.00749  0.024608148  0.024464145            3 
 1403000    1.0231611   -7.3007932    415.91354  0.024703822  0.024458707            4 
 1404000    1.0051049   -7.3118726    415.79635  0.024679271  0.024453261            3 
 1405000    1.0319054   -7.2774084    416.62741  0.024710997  0.024447772            3 
 1406000    1.0221371   -7.2496865    416.43527  0.024682033  0.024442287            3 
 1407000    1.0128154   -7.3038186    416.68578  0.024679329  0.024436908            5 
 1408000    1.0211415   -7.2832165    416.44923    0.0246478  0.024431542            5 
 1409000    1.0122598   -7.2673368    417.46467  0.024690364  0.024426091            5 
 1410000    1.0188765   -7.3014306     417.5111  0.024675597  0.024420672            7 
 1411000    1.0226939   -7.3312238     416.8404  0.024618498  0.024415106            5 
 1412000    1.0184622   -7.2926154    417.30085  0.024628237   0.02440949            2 
 1413000    1.0218428   -7.2953659    417.00221  0.024593195  0.024404074            8 
 1414000    1.0329576    -7.294553    417.28428  0.024592426  0.024398548            3 
 1415000    1.0096319   -7.2474894    419.03919  0.024678398  0.024392881            2 
 1416000    1.0222353   -7.2793627     418.6926  0.024640572  0.024387333            5 
 1417000    1.0215643   -7.3188711    416.98172  0.024522567  0.024381768            3 
 1418000    1.0457904   -7.3030512    418.17171  0.024575206  0.024376224            3 
 1419000    1.0370831   -7.3118827    418.34268  0.024567928  0.024370797            6 
 1420000    1.0177989   -7.2784722    420.31984  0.024666657  0.024365314            3 
 1421000    1.0532297   -7.2817046    420.49346   0.02465948  0.024360064            4 
 1422000    1.0173119   -7.3275033    419.50746  0.024584357  0.024354756            5 
 1423000    1.0347393   -7.3457486     419.1373  0.024545403  0.024349227            3 
 1424000    1.0391925   -7.3032659    420.77705  0.024624125  0.024343885            2 
 1425000    1.0370233   -7.3306586    420.88507  0.024613162   0.02433856            4 
 1426000    1.0213846   -7.3127857    421.37658  0.024624625  0.024333275            5 
 1427000    1.0407398   -7.3286206    420.23263  0.024540564  0.024327916            3 
 1428000    1.0341893   -7.2955557    420.82272  0.024557815  0.024322465            3 
 1429000    1.0413691   -7.2851859    420.67701  0.024532133  0.024317056            2 
 1430000    1.0097193   -7.3189629    419.36912   0.02443876  0.024311654            4 
 1431000    1.0202096   -7.3218897    420.78128  0.024503918   0.02430618            9 
 1432000     1.029265   -7.2853864    422.28716  0.024574439  0.024300775            3 
 1433000    1.0008602   -7.3071401    421.14719  0.024490997   0.02429536            8 
 1434000    1.0244559   -7.2969897    421.69915  0.024505994  0.024289757            2 
 1435000    1.0139837    -7.297657    422.42059  0.024530812  0.024284254           12 
 1436000    1.0235787   -7.2879538      421.823  0.024479051  0.024278699            8 
 1437000    1.0372079   -7.2858957    421.59987  0.024449076   0.02427324            3 
 1438000    1.0054127   -7.3045773    421.71562  0.024438782  0.024267504            3 
 1439000     1.031225   -7.3278871    422.12774  0.024445665  0.024261759            2 
 1440000    1.0338697   -7.3462138     420.6614  0.024343831  0.024255978            7 
 1441000    1.0436479   -7.2846146    421.74941  0.024389857  0.024250355            7 
 1442000    1.0433228    -7.293055    423.92427  0.024498629  0.024244815            2 
 1443000    1.0215736   -7.3127163    423.11928  0.024435163  0.024239119            3 
 1444000    1.0195473   -7.2830316    423.34047  0.024431006  0.024233374            2 
 1445000    1.0334411   -7.2995605    424.05872   0.02445552  0.024227644            3 
 1446000    1.0221001   -7.3132756     422.1771  0.024330169  0.024221819            2 
 1447000    1.0268087   -7.3088982     423.3337  0.024379964  0.024215863            3 
 1448000    1.0290627   -7.3338916    422.50596   0.02431549  0.024209891            4 
 1449000    1.0008247   -7.3182108    422.37329  0.024291079  0.024203735            3 
 1450000    1.0228056   -7.3166964    422.71129  0.024293752  0.024197745            3 
 1451000    1.0226307   -7.2681374    424.60261  0.024385631  0.024191816            3 
 1452000    1.0038684   -7.3366344    422.42478  0.024243846  0.024185963            8 
 1453000    1.0274951   -7.3344692     424.0366  0.024319603   0.02417993           15 
 1454000    1.0010273   -7.2867473    422.54481  0.024217378  0.024173918            4 
 1455000    1.0161077   -7.2426353    424.43644  0.024309075  0.024168068            9 
 1456000    1.0524747   -7.3300144    422.97011  0.024208454  0.024162067            4 
 1457000    1.0103526   -7.3377459    423.34982  0.024213556  0.024155954            5 
 1458000    1.0398632   -7.3200085     425.2817  0.024307367  0.024149873            3 
 1459000   0.98833833   -7.3451138    423.27172  0.024175904  0.024143734            7 
 1460000    1.0308724   -7.3408657    424.69979  0.024240856  0.024137643            9 
 1461000    1.0182198    -7.279464    425.13931  0.024249333  0.024131604            4 
 1462000    1.0151199    -7.344016    424.66168  0.024205522    0.0241255            2 
 1463000    1.0241878    -7.306897     425.9594  0.024262896  0.024119541            5 
 1464000    1.0133369   -7.3352755    424.77859  0.024179109  0.024113582            8 
 1465000    1.0350623   -7.3275192    424.50647  0.024147126  0.024107504            7 
 1466000     1.020145   -7.3701551    424.41455  0.024125429  0.024101399            3 
 1467000     1.016817   -7.3358152    425.95605  0.024196549  0.024095317            4 
 1468000    1.0056687   -7.2855311    426.06067  0.024186006  0.024089211            4 
 1469000     1.026672   -7.3180527    425.34792  0.024129108  0.024083189            4 
 1470000    1.0219927   -7.3389208    426.50407  0.024178235  0.024077125            3 
 1471000    1.0055901   -7.3639476    425.77915  0.024120731  0.024070968            9 
 1472000     1.018691    -7.320187    426.92059  0.024168965  0.024064842            4 
 1473000    1.0399963   -7.2850493    427.56903  0.024189241  0.024058811            2 
 1474000    1.0469379   -7.3160132    425.71765  0.024068162  0.024052786            5 
 1475000    1.0252323    -7.351219    424.48638  0.023982281  0.024046573            3 
 1476000    1.0290796   -7.3501905    426.43848  0.024076247  0.024040373            3 
 1477000    1.0291512   -7.3510162    426.35974  0.024055503  0.024034243            4 
 1478000   0.98055095   -7.3298152    427.42759  0.024099435  0.024028106            8 
 1479000    1.0264895   -7.3271708    426.67141  0.024040535  0.024022018            3 
 1480000    1.0178637   -7.3421547    427.47895  0.024069761  0.024015787            5 
 1481000    1.0074911   -7.3652468    426.13593  0.023977939  0.024009526            6 
 1482000   0.99733467   -7.3131491    429.36856  0.024143531  0.024003336            3 
 1483000    1.0078099   -7.3703511    428.63996  0.024086309  0.023997045            2 
 1484000    1.0159182   -7.3712265    427.82211  0.024024153  0.023990675            6 
 1485000    1.0297357    -7.321562    428.87385  0.024066995  0.023984537            5 
 1486000    1.0104806   -7.3132142    429.53199  0.024087707  0.023978462            2 
 1487000    1.0122991   -7.3360107    428.35112   0.02400533  0.023972323            6 
 1488000   0.99176797   -7.3189006    430.04902  0.024084287  0.023966196            2 
 1489000    1.0086459   -7.3365367    428.79028  0.023997665  0.023960105            5 
 1490000     1.008773   -7.2942967    430.39176  0.024071127   0.02395417            4 
 1491000    1.0182936   -7.3072169    430.68462  0.024071351  0.023948198            6 
 1492000    1.0284118   -7.3154082    430.79154   0.02406119  0.023942187            4 
 1493000    1.0103914   -7.3696845      429.538  0.023975106  0.023936094            3 
 1494000    1.0235553   -7.3679702    429.28818  0.023945124  0.023929928            7 
 1495000    1.0265058   -7.3393503    431.07745  0.024028844   0.02392389            3 
 1496000   0.98014922   -7.3331028    431.82729  0.024054551  0.023917765            4 
 1497000    1.0151688   -7.3906038     430.0753  0.023940954  0.023911486            6 
 1498000     1.022434   -7.3424367    430.30652  0.023937835    0.0239053            2 
 1499000     1.025467   -7.3663438    431.06336  0.023963941  0.023899107            5 
 1500000    1.0332619   -7.3584834    430.64245   0.02392458  0.023892917            4 
 1501000    1.0294286   -7.3681921    431.01806  0.023929495  0.023886628            4 
 1502000    1.0160923   -7.3303511    431.65458  0.023948878  0.023880397            2 
 1503000     1.022555   -7.3418106    431.57518  0.023928542  0.023874247            5 
 1504000    1.0252171   -7.3509422    430.53623  0.023855066  0.023868027            5 
 1505000    1.0171513   -7.2869153     432.8631  0.023968056  0.023861892            2 
 1506000   0.99123208   -7.3862459    430.19613  0.023804567   0.02385574            3 
 1507000    1.0127251    -7.353215    432.07322  0.023892569   0.02384943            8 
 1508000    1.0229257   -7.3171495     432.5231  0.023901586  0.023843307            3 
 1509000    1.0277949   -7.3855919    431.42868  0.023825308   0.02383709            4 
 1510000    1.0161874   -7.3741925    431.27105   0.02380083  0.023830719            4 
 1511000    1.0051954   -7.3610824    432.03161  0.023827024  0.023824307            5 
 1512000     1.022861   -7.3782606    432.12691  0.023816518    0.0238179            5 
 1513000   0.99309004   -7.3129219    431.79015  0.023782229   0.02381162            4 
 1514000   0.99098482   -7.3531181    433.19736  0.023843976  0.023805312            2 
 1515000   0.99847921    -7.333021    432.73771  0.023802955  0.023798923            7 
 1516000    1.0142018   -7.3860337    432.60271  0.023779832  0.023792492            7 
 1517000    1.0180323   -7.3724956    433.04005  0.023788181  0.023786144            8 
 1518000    1.0009578   -7.3407119    434.89483  0.023874332   0.02377981            4 
 1519000    0.9974234   -7.3626136     433.5739  0.023786148   0.02377347            4 
 1520000    1.0117107   -7.3784945    432.36817  0.023704395  0.023767106            3 
 1521000    1.0095707   -7.3609261    434.26681  0.023792834   0.02376083            2 
 1522000    1.0094258   -7.3495411    435.87178  0.023865078  0.023754481            6 
 1523000    1.0393605   -7.3355879    433.93753  0.023743572  0.023748336            6 
 1524000    1.0219349   -7.3362482    435.46276  0.023811393  0.023742145            5 
 1525000   0.99877654   -7.3664852    435.61361  0.023804022  0.023735853            5 
 1526000     1.006158     -7.34672    435.22845   0.02376739  0.023729516            5 
 1527000    1.0054288   -7.3469512    435.37119  0.023759615  0.023723387            4 
 1528000    1.0051642     -7.35081    434.94197  0.023720657  0.023717208            4 
 1529000    1.0052775   -7.3259478    435.71932   0.02374751  0.023711021            3 
 1530000    1.0093145   -7.3650458    435.18729  0.023703011  0.023704847            3 
 1531000    1.0112437   -7.3840664    435.84439  0.023723296  0.023698562            4 
 1532000    1.0033117   -7.3801842    435.66732  0.023698179  0.023692277            3 
 1533000    1.0058434    -7.401631    435.29104  0.023662266   0.02368597            6 
 1534000   0.97696978   -7.3452698    437.18715  0.023749845  0.023679648            4 
 1535000    1.0319273   -7.4101441    436.41293  0.023692342  0.023673274            3 
 1536000    1.0232903   -7.3266876    437.58451  0.023740479  0.023667043            3 
 1537000    1.0178418   -7.3800676     438.7393  0.023787643  0.023660833            4 
 1538000     1.001778   -7.3888838    436.78581  0.023666331  0.023654578            7 
 1539000    1.0289541   -7.3994515    436.76123  0.023649623  0.023648212           23 
 1540000    1.0281534   -7.3767685    437.30038   0.02366344  0.023641819            6 
 1541000    1.0095731   -7.3719925    437.23727  0.023644672  0.023635502            3 
 1542000    1.0061639   -7.3484589    438.89116  0.023718718  0.023629287            4 
 1543000    1.0057928   -7.3268867    438.71507  0.023693836  0.023623032            3 
 1544000   0.98654521   -7.3299654    437.58305  0.023617393  0.023616788            3 
 1545000   0.98851701   -7.4099963    438.26057   0.02363865   0.02361043            4 
 1546000    1.0067998   -7.3488418    439.46446  0.023688252  0.023604187            6 
 1547000   0.98844478   -7.3589435    438.28273  0.023609283  0.023597946            5 
 1548000   0.99364502   -7.3455337    438.14564  0.023586651  0.023591451            2 
 1549000    1.0135262   -7.3575253    438.02181  0.023564763  0.023585053           10 
 1550000    1.0007495   -7.3928784    437.43199  0.023517849  0.023578603            5 
 1551000   0.99055699   -7.3670958    439.92341  0.023636547  0.023572039            4 
 1552000   0.99973869   -7.3541459    438.74944  0.023558282  0.023565641            5 
 1553000    1.0127195   -7.3767503    440.66523  0.023645913   0.02355925            7 
 1554000    1.0065672   -7.3509824    439.41447  0.023563624  0.023552894            3 
 1555000   0.99970606   -7.3509905    439.28382  0.023541469  0.023546521            5 
 1556000    1.0065366   -7.3400963    439.21864  0.023522849  0.023540169            4 
 1557000    1.0000058   -7.3526159    439.39512  0.023517187   0.02353391            3 
 1558000   0.98952698   -7.3954913    439.12632  0.023487715  0.023527603           13 
 1559000    1.0127339   -7.3592032    440.16963  0.023528417  0.023521152            9 
 1560000    0.9863456   -7.3398122    441.56879  0.023588076  0.023514812            2 
 1561000   0.97311953   -7.3559151    440.09285  0.023494173  0.023508382            2 
 1562000    1.0313489   -7.3474918    440.54357  0.023503178  0.023501935            6 
 1563000   0.98079606    -7.381918    439.79316  0.023448132  0.023495488            2 
 1564000    1.0263081   -7.3862862    439.86846  0.023437152  0.023488965            3 
 1565000    1.0007637   -7.3628492    440.39698  0.023450318  0.023482399            4 
 1566000    1.0176473   -7.3928274    440.45233  0.023438289  0.023475779            5 
 1567000   0.98324609   -7.4036129    440.55537  0.023428811   0.02346913            3 
 1568000    1.0173235   -7.3669456    440.81875  0.023427867  0.023462579            3 
 1569000   0.99144915   -7.3725344     440.5212  0.023397132   0.02345596            5 
 1570000   0.99834739   -7.4180011    441.20707  0.023418634  0.023449327            9 
 1571000     1.008485   -7.4120067    440.47834  0.023365072  0.023442812            6 
 1572000    1.0188291   -7.4273362    441.18552  0.023387697  0.023436255            4 
 1573000   0.99998901    -7.365799    442.03486  0.023417825  0.023429695           11 
 1574000     1.010078   -7.3769457    442.70756  0.023438562  0.023423209            5 
 1575000   0.97934921   -7.3719405    441.79816  0.023375564  0.023416656            3 
 1576000    0.9883862   -7.3746122     441.7975  0.023360697  0.023410154           12 
 1577000    0.9793291    -7.377968    443.60491  0.023441392  0.023403695            5 
 1578000   0.99964765   -7.3978445    441.73831  0.023327963  0.023397242           11 
 1579000   0.99200195   -7.3214551    445.81623  0.023528405  0.023390934            4 
 1580000   0.98952669   -7.3853701    441.94263  0.023309211  0.023384547            7 
 1581000    0.9904431   -7.3916758    443.10145  0.023355548   0.02337812           12 
 1582000   0.99657321   -7.4022873    442.52258  0.023310292  0.023371751            4 
 1583000   0.99393367   -7.3903295    444.25719  0.023386881  0.023365399            3 
 1584000   0.99784375   -7.3620569    445.14807  0.023418985  0.023358995            4 
 1585000   0.98427219   -7.4074927    443.99603   0.02334364  0.023352538           13 
 1586000    1.0044371   -7.3827073    445.04527  0.023384051   0.02334612            6 
 1587000   0.98931225   -7.4080157    444.05356  0.023317242  0.023339818            3 
 1588000    1.0092097   -7.3614643    445.20969  0.023363229  0.023333526            2 
 1589000   0.99477555   -7.3600533    446.59577  0.023421217  0.023327279            3 
 1590000   0.98875837   -7.3711396    444.94028  0.023319721  0.023321014           12 
 1591000    0.9985233   -7.3531173    446.31061  0.023376839  0.023314701            3 
 1592000    1.0312907   -7.3505709    446.99024   0.02339773  0.023308427            3 
 1593000    1.0056882   -7.4021679    444.75912  0.023266328  0.023302187            6 
 1594000    1.0025215   -7.3978194    445.83064   0.02330775  0.023295963            3 
 1595000   0.99131882   -7.3854766    446.58224  0.023332405    0.0232896            4 
 1596000   0.99702616   -7.4171222    445.63692  0.023268427  0.023283204            4 
 1597000   0.99884227   -7.3939456    445.80185  0.023262464  0.023276716            4 
 1598000    0.9962598   -7.3985021    446.28637  0.023273173  0.023270172            3 
 1599000     1.015575   -7.3370761    446.71053  0.023280724  0.023263763            5 
 1600000   0.98564321   -7.3933726     446.5178  0.023256136  0.023257328            6 
 1601000    1.0015551   -7.4227299    446.64323  0.023248138   0.02325082            3 
 1602000    1.0008072   -7.3868248    444.86345  0.023141045  0.023244203            3 
 1603000   0.99262068   -7.3778657    446.18812  0.023195473  0.023237699            4 
 1604000    0.9753989   -7.3726039    446.50088  0.023197261  0.023231258            5 
 1605000   0.98127984    -7.391996    445.57598  0.023134786  0.023224675            5 
 1606000   0.98378436   -7.4150254    446.04827  0.023144887  0.023218022            4 
 1607000    1.0139146    -7.411621    445.92975  0.023124339  0.023211365            3 
 1608000    1.0016623   -7.4153969    446.22244  0.023125127  0.023204715            5 
 1609000    1.0065764   -7.3510639     446.3925  0.023119562  0.023198115           10 
 1610000   0.98746184   -7.4057033    446.67445  0.023119795  0.023191476            6 
 1611000   0.94433912   -7.3911531    447.63201  0.023154977  0.023184729            2 
 1612000    1.0014723   -7.3570174    446.57107  0.023085767  0.023178038            4 
 1613000   0.96958863   -7.4392861    444.77014  0.022978412  0.023171347            5 
 1614000   0.99956207   -7.3698652    448.48987   0.02315623  0.023164667            4 
 1615000    0.9749004   -7.3794219    448.19425  0.023126638  0.023158112            3 
 1616000    0.9924925   -7.3928759    448.49905  0.023128045  0.023151509            4 
 1617000    1.0023953    -7.449574    446.16518  0.022993464  0.023144741            7 
 1618000    1.0017543   -7.3992044    446.68427  0.023005988  0.023137905            5 
 1619000    1.0084675   -7.3905721    447.69234  0.023043666   0.02313117            5 
 1620000   0.99444339   -7.4100902    447.93567  0.023041959  0.023124376            5 
 1621000   0.98350617   -7.4109875    447.67434  0.023014309  0.023117587            8 
 1622000    1.0037419   -7.4248009    446.99166  0.022965046   0.02311074           11 
 1623000   0.99453404   -7.3932303    448.18755    0.0230123  0.023103907            5 
 1624000   0.99774646   -7.4195297     448.3718  0.023007584  0.023097113            8 
 1625000    1.0023921   -7.3856728    448.70628  0.023010578  0.023090378            3 
 1626000   0.98514865   -7.4060889    448.93665  0.023008233  0.023083612            6 
 1627000   0.99942484   -7.3693072    450.97644  0.023098568  0.023076984            3 
 1628000     0.993141   -7.4027095    448.56008  0.022960692  0.023070186            9 
 1629000   0.99731747   -7.3720505    448.97067  0.022967601  0.023063357            3 
 1630000   0.97813185   -7.3714344    449.20146   0.02296531   0.02305656            5 
 1631000   0.99752596   -7.3885865    449.10577   0.02294634  0.023049933            5 
 1632000    1.0022791   -7.3230214    451.57628  0.023058429  0.023043333            5 
 1633000   0.98450699   -7.3906748     448.8997  0.022907721  0.023036601            3 
 1634000   0.99764531   -7.3861795    449.91452  0.022945457  0.023029806            3 
 1635000    1.0111052   -7.4018937    450.48229  0.022960361  0.023022936           14 
 1636000   0.98367205   -7.4062166    451.25507   0.02298569  0.023016162            3 
 1637000   0.99320374   -7.4336347    449.64907  0.022889894  0.023009361            2 
 1638000   0.97417856   -7.4279802    449.71185  0.022879113  0.023002423            7 
 1639000   0.99721273   -7.4200945    451.14342  0.022937941  0.022995623            4 
 1640000   0.99087314   -7.4287612    449.47213  0.022839031  0.022988841            4 
 1641000   0.99252942   -7.3848842    451.21741  0.022913742  0.022982092            6 
 1642000   0.99208955   -7.4452252    449.03542  0.022789049  0.022975234           13 
 1643000   0.98773435   -7.4177518    451.20571  0.022885256   0.02296832            3 
 1644000   0.99496414   -7.3916073    449.99781  0.022810108  0.022961452           10 
 1645000   0.99773093   -7.3901658    451.32964   0.02286371  0.022954735            3 
 1646000   0.96534338   -7.3857734    451.56298  0.022861633  0.022948001            2 
 1647000   0.99618461   -7.4247443     451.5665  0.022847931  0.022941175            4 
 1648000   0.99475195   -7.4144476     451.8298  0.022847381  0.022934342            4 
 1649000   0.96497047   -7.4384521    451.41044  0.022812333  0.022927515            4 
 1650000   0.98393855   -7.4192107    452.23291  0.022840046  0.022920703            3 
 1651000   0.96786406   -7.3739564    452.21004  0.022825057  0.022913946            3 
 1652000    0.9930606   -7.4146736     451.5674  0.022778823  0.022907162            4 
 1653000    1.0012126   -7.4380385    450.85297  0.022729026  0.022900289            5 
 1654000   0.96428942   -7.4284047    451.54512  0.022750157  0.022893406            6 
 1655000   0.98290097   -7.4270538    452.14658  0.022766696  0.022886478            4 
 1656000   0.98649279    -7.404717    452.58181  0.022774849  0.022879554            2 
 1657000    0.9953193   -7.3968947    453.60883  0.022812755   0.02287274            7 
 1658000   0.98304258   -7.4484154    452.62218  0.022749406  0.022865872            6 
 1659000   0.97998152    -7.388855    453.76589  0.022793143  0.022859057            6 
 1660000    0.9772067   -7.3853107    454.07764  0.022795062   0.02285237            4 
 1661000    1.0005025   -7.4259282    452.60365  0.022707387  0.022845526            6 
 1662000   0.99197679   -7.4127936    453.51698   0.02273952  0.022838793            9 
 1663000   0.99185195   -7.4362063    453.07588  0.022703742  0.022831991            4 
 1664000   0.96210437   -7.4416229    451.91724  0.022632073  0.022825215            5 
 1665000   0.95917141   -7.4443211    453.08544  0.022676949  0.022818371            5 
 1666000   0.98546152   -7.3846055    453.95264  0.022706715  0.022811521            5 
 1667000   0.97239592   -7.4476684    452.50766  0.022620859   0.02280465            8 
 1668000    1.0062376   -7.4398144     454.9989   0.02273176  0.022797882            6 
 1669000   0.98465728   -7.4160616     456.1302  0.022774625  0.022791246            3 
 1670000   0.98901584   -7.4087352    456.12447  0.022760702  0.022784564            6 
 1671000   0.99249612   -7.4361564    455.67904  0.022724867  0.022777853            6 
 1672000   0.96836261   -7.4107792    454.94506  0.022674694  0.022771026            6 
 1673000   0.97463188   -7.4267859    455.57291  0.022692414   0.02276422            5 
 1674000   0.97022659   -7.4198256    454.61748  0.022631296   0.02275742            4 
 1675000   0.98743048   -7.4185222    456.36574  0.022704763   0.02275063            9 
 1676000   0.96681181   -7.4539141    454.57843  0.022602348  0.022743809            3 
 1677000   0.99697062   -7.4140551    455.91615  0.022655345  0.022736923           10 
 1678000   0.97805671   -7.4545603    455.08276  0.022600455  0.022730059            3 
 1679000   0.98269774   -7.4607902    455.31519   0.02259853   0.02272326            3 
 1680000    1.0100801   -7.4334657    456.32842  0.022635338  0.022716435            6 
 1681000   0.97317822   -7.4252293    455.83325  0.022597326  0.022709753            2 
 1682000   0.99282969   -7.3794305     457.4713  0.022665047   0.02270309            8 
 1683000   0.97979067   -7.4157125    456.95989  0.022626257  0.022696464            3 
 1684000   0.98999843   -7.4652846    456.64308  0.022597144  0.022689679            4 
 1685000   0.95503667   -7.4534298    455.48353  0.022526386  0.022682818            6 
 1686000    1.0034542   -7.4033701    457.97411  0.022636126   0.02267605            4 
 1687000   0.95767283     -7.41078    457.08665   0.02257887  0.022669261            3 
 1688000   0.95628944    -7.439596    457.52306  0.022587039  0.022662503            6 
 1689000     0.980423   -7.4375616    458.33212  0.022613584  0.022655791            6 
 1690000   0.97981543   -7.4964128    457.60271  0.022564236  0.022648973            8 
 1691000   0.97202332   -7.4652237    456.98387  0.022520396  0.022642051            6 
 1692000     1.001235   -7.4252799     457.6842  0.022541578  0.022635255            2 
 1693000   0.98128854   -7.4522824    457.57426  0.022522852  0.022628505            5 
 1694000   0.97462802     -7.47669    458.25336  0.022542963  0.022621703            8 
 1695000   0.99201082   -7.4608188     457.8373  0.022509209  0.022614903            3 
 1696000   0.97892574   -7.4447836    457.60474   0.02248451  0.022608123            4 
 1697000   0.98561677   -7.4098071    459.96598  0.022587212  0.022601376            4 
 1698000   0.97804408   -7.4078886    459.24398  0.022538476  0.022594722            3 
 1699000   0.99291568   -7.4169496     459.2608  0.022526035  0.022588041            2 
 1700000   0.95169545   -7.4634237    460.20214  0.022558928  0.022581328            7 
 1701000    0.9871053   -7.4527584    458.44059  0.022459367   0.02257463            8 
 1702000   0.96697211   -7.4092458    459.49297  0.022497697  0.022567972            5 
 1703000   0.95321214   -7.4292257    460.21534  0.022519835  0.022561304            3 
 1704000   0.97335227   -7.3776634    460.87089  0.022538678  0.022554687            4 
 1705000   0.98615005   -7.4216434    461.52665   0.02255751  0.022548171            7 
 1706000   0.96778431   -7.4353971    460.85595  0.022511526  0.022541554            3 
 1707000   0.97025489   -7.4781707    459.24838  0.022419859  0.022534804            8 
 1708000   0.97253271    -7.421888    460.35906  0.022460922  0.022528073            7 
 1709000    0.9675617   -7.4587086    459.16087  0.022389354  0.022521267            3 
 1710000    0.9740716   -7.4517217    460.54377  0.022443653  0.022514475            9 
 1711000   0.97692402   -7.4262084    461.03358  0.022454392  0.022507757            6 
 1712000   0.96979239   -7.3877104     460.5678  0.022418604  0.022501051            3 
 1713000   0.99801562   -7.4533152    460.14104  0.022384756  0.022494269            5 
 1714000    1.0029959   -7.4058718    462.11238  0.022467541  0.022487488            5 
 1715000   0.97989654   -7.4156174    462.10542  0.022454102  0.022480778            5 
 1716000   0.98512753   -7.4182352    461.03933  0.022389245   0.02247416            5 
 1717000   0.97562948   -7.4241678    460.37401  0.022343914  0.022467452            4 
 1718000    1.0110303   -7.4502354    461.30428  0.022376032  0.022460713            4 
 1719000   0.97539629   -7.4405113    460.71527  0.022334462  0.022454036            5 
 1720000    0.9727686    -7.463228    462.53085   0.02240944  0.022447273            4 
 1721000   0.97482862   -7.4524104    461.24075  0.022333951  0.022440541            4 
 1722000   0.98276598   -7.4990651    460.88173  0.022303607  0.022433769            6 
 1723000   0.96367949   -7.4735466    460.96843  0.022294856   0.02242695            5 
 1724000   0.98684285    -7.458971    462.54052  0.022357914  0.022420218            3 
 1725000   0.98784189   -7.4319633    463.33008  0.022383096   0.02241353            2 
 1726000   0.96525379   -7.4996444    461.57014  0.022285156  0.022406795            2 
 1727000   0.98025983   -7.4750343     462.0843  0.022297061   0.02240001            5 
 1728000   0.97018841   -7.4444449    461.99949  0.022280068  0.022393269            5 
 1729000   0.97751275   -7.4388446    461.30439   0.02223368  0.022386553            6 
 1730000   0.97217498   -7.4611002    463.58701  0.022330781  0.022379804            7 
 1731000   0.97400978   -7.4575077    463.65001  0.022320913  0.022373094           16 
 1732000   0.98456412   -7.4634773    463.08138  0.022280667  0.022366362            7 
 1733000   0.98865336   -7.4630265    463.87941  0.022306184  0.022359569            6 
 1734000   0.98881225   -7.4620088    462.24668  0.022214854  0.022352863            4 
 1735000   0.97634436   -7.4300045     464.2636  0.022298924  0.022346174            3 
 1736000   0.97559445   -7.4143652    464.63999  0.022304147  0.022339558            6 
 1737000   0.99653495   -7.4244727    463.21159  0.022222778  0.022332943            3 
 1738000   0.95898067   -7.4530909    464.56139  0.022274712  0.022326203            4 
 1739000   0.97378862   -7.4327494    465.11824  0.022288587  0.022319412            2 
 1740000   0.97045791   -7.4693993    463.55261  0.022200795   0.02231267            5 
 1741000   0.97775084   -7.3894913    466.20609  0.022315053  0.022305997            6 
 1742000    0.9637441     -7.42468    465.78924  0.022282302  0.022299279            5 
 1743000   0.95746008   -7.4883835    463.39074  0.022154845  0.022292575            5 
 1744000   0.97469387   -7.4788612    464.69805  0.022204608  0.022285854            4 
 1745000   0.96131036   -7.4663514    464.47752  0.022181353  0.022279099            4 
 1746000   0.98025572   -7.4485327    463.74958  0.022133905  0.022272312            3 
 1747000   0.99613695   -7.4611041    464.43453  0.022153908  0.022265594            4 
 1748000   0.95128035   -7.4391156    465.45556   0.02218991  0.022258788            4 
 1749000   0.96520106   -7.4735555    464.37887  0.022125923  0.022251952            4 
 1750000   0.95779167   -7.4718984     465.9608   0.02218861  0.022245158            4 
 1751000   0.96957427   -7.4678692    465.40982  0.022149715  0.022238401            4 
 1752000   0.97095523   -7.4693643    464.72897  0.022104689  0.022231558            6 
 1753000   0.97571835   -7.4686554    466.99142   0.02219963  0.022224808            4 
 1754000   0.96427645   -7.4637125    466.64256  0.022170399  0.022218099            4 
 1755000    0.9876734   -7.4804236    467.38493  0.022193017  0.022211359            7 
 1756000   0.97767194   -7.4290591    466.22275  0.022125225  0.022204603            7 
 1757000   0.97683107   -7.4560083    466.35573   0.02211894  0.022197756            4 
 1758000    0.9562944   -7.4354858     467.8107  0.022175327  0.022190959            5 
 1759000   0.95408822   -7.4584113    465.36564  0.022046884  0.022184258            3 
 1760000   0.98653684    -7.448051    466.75575  0.022100177  0.022177473            5 
 1761000   0.96800176   -7.4505645    467.37223    0.0221168  0.022170756            4 
 1762000   0.94934342   -7.4645092    467.06298  0.022089622   0.02216397            5 
 1763000   0.94373376   -7.4579211    467.73605  0.022108908  0.022157126            4 
 1764000   0.95403188   -7.4691995     467.8301  0.022100817  0.022150402            7 
 1765000   0.98143771    -7.491051    466.86566   0.02204276  0.022143551            7 
 1766000   0.97471203   -7.4622899    467.29787  0.022050673  0.022136731            2 
 1767000   0.96149897   -7.4910185    467.73307  0.022058719  0.022129948            4 
 1768000   0.98469811   -7.5084512    466.52583   0.02198934  0.022123118            4 
 1769000   0.97573835   -7.4819039    467.44211  0.022020073  0.022116289            9 
 1770000   0.97156104   -7.4759105    468.63979   0.02206402  0.022109573            4 
 1771000   0.97633806   -7.4298642    468.31233  0.022036153  0.022102827            8 
 1772000   0.94774825   -7.4751982    467.11324  0.021967327  0.022095975            2 
 1773000   0.95790337   -7.5181032    467.51301  0.021973727  0.022089177            3 
 1774000   0.96272586   -7.5132019    468.22181  0.021994636  0.022082265            6 
 1775000   0.97018981   -7.4869507    466.92068  0.021921159  0.022075424            5 
 1776000   0.95904911   -7.4987834    467.10769  0.021917591  0.022068545            3 
 1777000   0.96882204   -7.5026296    468.39153  0.021965463   0.02206167            4 
 1778000   0.96784866   -7.4832115     467.3873  0.021906042  0.022054917            4 
 1779000   0.97195468   -7.4404946    468.77138  0.021958562  0.022048181            6 
 1780000   0.96852043   -7.4827874    469.03555  0.021958593  0.022041478            7 
 1781000   0.99078763   -7.4548451    469.54922  0.021970298  0.022034732            5 
 1782000   0.96483814   -7.5041909    467.50987  0.021862602   0.02202786            2 
 1783000   0.96526718   -7.4892256    469.54508  0.021945461  0.022021025            6 
 1784000   0.97371754   -7.4707244    470.57037  0.021981052  0.022014253            3 
 1785000   0.97440426   -7.4870124    469.87926  0.021936473   0.02200745            7 
 1786000   0.95453876   -7.4801324    469.27352  0.021895928  0.022000633            8 
 1787000   0.97363502   -7.4626534    469.86512  0.021911263  0.021993875            2 
 1788000   0.98121028    -7.462666    470.16422  0.021912948  0.021987173            8 
 1789000    0.9667197   -7.4810506     469.8377   0.02188549  0.021980463           12 
 1790000   0.96296395   -7.4446406    471.52796  0.021951954  0.021973783            7 
 1791000   0.95347969   -7.4600164    470.78674  0.021905208  0.021967209            5 
 1792000   0.97029989   -7.5116519    469.30228  0.021823953  0.021960452            9 
 1793000    0.9603617   -7.4787283    470.31769  0.021858974  0.021953662            9 
 1794000   0.95495997   -7.4835192    470.97814  0.021877468  0.021946956            5 
 1795000   0.95769444   -7.4730627    471.54427  0.021891563  0.021940142            6 
 1796000   0.96618652   -7.4844461    470.09331  0.021812051  0.021933363            4 
 1797000   0.99167308   -7.4537026    470.10705  0.021800549  0.021926569            3 
 1798000   0.96100645   -7.4583184    471.93515  0.021873153  0.021919808            9 
 1799000   0.96472511   -7.4815833    471.54359  0.021842857  0.021912969            9 
 1800000   0.96114123   -7.5090629    469.94288  0.021756615  0.021906057           13 
 1801000   0.96285114   -7.4422861    471.95706  0.021837732  0.021899149            7 
 1802000   0.98077294    -7.454061    472.81038  0.021865075  0.021892295            5 
 1803000   0.95960758   -7.4694539    471.28536  0.021782463   0.02188545            2 
 1804000   0.94685466   -7.5203244    471.37027   0.02177431  0.021878586            4 
 1805000   0.97879106   -7.4817146    471.69218  0.021777109  0.021871749            6 
 1806000   0.96917364   -7.4951973    471.78057  0.021769129  0.021864845            4 
 1807000     0.948096   -7.4774053    470.84548  0.021713959  0.021857935            8 
 1808000   0.95653845   -7.4678013    471.10871  0.021714082  0.021851163            9 
 1809000   0.96912392   -7.4752125    471.59009  0.021724253  0.021844353            4 
 1810000   0.94610826   -7.4351498    472.98124    0.0217763  0.021837663            4 
 1811000   0.96806442   -7.4533816     472.6616  0.021749567  0.021830986            5 
 1812000   0.98306336   -7.4615219    474.17991  0.021807391   0.02182429            4 
 1813000   0.96331469   -7.4618277    474.02403  0.021788198  0.021817632            6 
 1814000   0.95554717   -7.4814367    472.84637  0.021722086  0.021810861            6 
 1815000   0.96133878   -7.4477321    474.42697  0.021782689  0.021804202            6 
 1816000    0.9596252   -7.4610217    474.97983  0.021796064  0.021797576            3 
 1817000    0.9735135   -7.4920696    472.93615  0.021690339  0.021790877            3 
 1818000   0.96524586   -7.4610276    473.29837  0.021695011  0.021784098            5 
 1819000   0.95935295   -7.5306141    473.53604  0.021693973  0.021777288            5 
 1820000   0.94945671    -7.505109    473.75811  0.021692221  0.021770476            4 
 1821000   0.96153511   -7.5081876    473.32852   0.02166065  0.021763632            5 
 1822000   0.92573727   -7.4879905    474.19926  0.021688587  0.021756793            5 
 1823000   0.98936757   -7.4827785    473.82115  0.021659405  0.021749999            9 
 1824000   0.94937148   -7.5080446    474.22066  0.021665783  0.021743149           10 
 1825000   0.96178385   -7.5108788    473.72385  0.021631226  0.021736284            8 
 1826000   0.96777673    -7.518003    473.32442  0.021601151  0.021729398            3 
 1827000   0.94755537   -7.4485135    475.57211  0.021691849  0.021722693            7 
 1828000   0.93430454   -7.4922729    474.47958  0.021630178  0.021715922            3 
 1829000   0.96123937   -7.4656098    475.77162   0.02167722  0.021709187            5 
 1830000   0.95638875   -7.4658569    475.61326  0.021658163  0.021702486            4 
 1831000   0.94256138   -7.4807801    475.40689  0.021636942  0.021695781            3 
 1832000   0.95753541    -7.512268    474.37546  0.021578214  0.021688926            9 
 1833000   0.93566696   -7.5569165    473.73313   0.02153724  0.021682037            7 
 1834000   0.95350487   -7.4953974    473.54068  0.021516752  0.021675166            3 
 1835000   0.94091652   -7.5097912    474.74324  0.021559638  0.021668242            8 
 1836000    0.9590661   -7.4957308    475.96452  0.021603328  0.021661282           10 
 1837000    0.9576275   -7.5297238    474.71688   0.02153497  0.021654286            7 
 1838000    0.9629636   -7.4935838    474.46113  0.021511658  0.021647388            4 
 1839000   0.95175711   -7.5104467    475.68139  0.021555256  0.021640531            3 
 1840000   0.96734762   -7.4828828    476.25511  0.021569525  0.021633669            4 
 1841000   0.95377211   -7.4769806    475.43483  0.021520678  0.021626864            8 
 1842000   0.96647679   -7.4949571    475.26383  0.021501259  0.021620045            5 
 1843000   0.97420037    -7.500797    475.90244  0.021518468  0.021613159            4 
 1844000   0.96777166   -7.4752477    476.53358  0.021535321  0.021606265            7 
 1845000   0.96569695   -7.4895651    475.98821  0.021499016  0.021599443            3 
 1846000   0.95764265   -7.4831819     477.3475  0.021548731  0.021592601            7 
 1847000   0.98243419    -7.534726    473.79796  0.021376915  0.021585689            4 
 1848000   0.96319143   -7.4867379    476.83857  0.021502461  0.021578781            4 
 1849000   0.96291688   -7.5177818    475.73622  0.021441149  0.021572016            7 
 1850000   0.94746491   -7.4700506    477.19994  0.021495493  0.021565217            5 
 1851000   0.94287943   -7.4802005    477.11612  0.021480106  0.021558377            4 
 1852000   0.94129068    -7.470899    477.41908   0.02148214  0.021551554            5 
 1853000   0.94953452   -7.4548805    478.61574  0.021524363  0.021544892            6 
 1854000   0.95185115   -7.4589978    477.70326   0.02147174  0.021538221            4 
 1855000   0.93996065   -7.4987241    476.33796   0.02139883  0.021531459            3 
 1856000   0.96851118   -7.5101636    477.74324  0.021450397  0.021524545            6 
 1857000   0.96631963    -7.504261    477.37212  0.021422192  0.021517689           18 
 1858000   0.94894793   -7.5086095    477.17114  0.021401648  0.021510873            2 
 1859000   0.95308855   -7.5193633    477.49718  0.021404751  0.021503971           20 
 1860000   0.95537645    -7.498296    477.88783  0.021410745  0.021497016            6 
 1861000   0.94889553   -7.5304675    476.97253  0.021358254  0.021490153            5 
 1862000   0.96653836   -7.5328371    477.62279  0.021375886  0.021483311            8 
 1863000   0.96594945   -7.5140551     477.1829  0.021344735  0.021476444            4 
 1864000   0.93795918   -7.5341331    478.02833   0.02137108    0.0214696           10 
 1865000   0.96297132   -7.5543162    477.47414  0.021334859  0.021462682            7 
 1866000   0.95936893   -7.5025985    478.85555  0.021385117  0.021455806            7 
 1867000   0.94749508   -7.4959081    479.66051  0.021409593  0.021448963            4 
 1868000   0.94148915    -7.509112    479.23758  0.021379264   0.02144215            3 
 1869000   0.94042264   -7.5064564    478.72958  0.021345175  0.021435322            5 
 1870000    0.9598681   -7.4769664    480.28001  0.021402852  0.021428565            5 
 1871000   0.92892082   -7.4735144    477.82599  0.021282113  0.021421798            5 
 1872000   0.95032849   -7.5075117     477.8651  0.021272485  0.021414892            4 
 1873000   0.94961082   -7.4597013    480.96886   0.02139922  0.021408119            5 
 1874000   0.97675988   -7.5329085    478.86066  0.021294053  0.021401383           13 
 1875000   0.94832057   -7.4957118    478.82758  0.021281226  0.021394582            4 
 1876000    0.9474434   -7.4735999    480.27598  0.021334221  0.021387768            9 
 1877000   0.95858851   -7.5344276    479.36918  0.021282595  0.021380932            6 
 1878000   0.96544159   -7.4949851    481.18297  0.021351747  0.021374179            7 
 1879000    0.9703165   -7.4793319    479.94003   0.02128526  0.021367399            9 
 1880000   0.94798649   -7.5023582    479.67618  0.021262242  0.021360608            6 
 1881000   0.92626205   -7.5001359    479.60939  0.021247979  0.021353839            3 
 1882000   0.95346177   -7.5345033    480.11967  0.021259284  0.021347006            5 
 1883000   0.95435249   -7.5313282    479.86014  0.021236508  0.021340156           11 
 1884000   0.96568345   -7.5417866    479.52742  0.021210519  0.021333315            4 
 1885000    0.9584299   -7.5228828     480.2174   0.02122977  0.021326422            3 
 1886000   0.94403533    -7.583297    478.87557  0.021159225   0.02131957            8 
 1887000   0.95783721   -7.5163924    481.70397  0.021272919  0.021312696            6 
 1888000   0.95739497   -7.4952849    481.56319  0.021255437  0.021305839            3 
 1889000   0.93825234   -7.5221913    480.58736  0.021201136  0.021299067            5 
 1890000    0.9647459   -7.5584514    480.26351   0.02117564  0.021292222            4 
 1891000   0.96079301   -7.5466964    480.52364  0.021175905   0.02128539            6 
 1892000   0.94014725    -7.532577    482.11058   0.02123461   0.02127863            5 
 1893000   0.97447207   -7.5108365    483.33999  0.021277513  0.021271883            5 
 1894000   0.92213664   -7.5094535     481.6514  0.021191984  0.021265258            5 
 1895000   0.95303225   -7.5301764    481.45066  0.021171973  0.021258597            3 
 1896000   0.95385475   -7.5141419    483.07542  0.021232218  0.021251916            3 
 1897000   0.95733626   -7.4947256     482.9305  0.021214659  0.021245164            7 
 1898000   0.93588235   -7.5215479    482.58382   0.02118826    0.0212384            2 
 1899000   0.96667119   -7.5595166    481.27149  0.021119514  0.021231595           11 
 1900000   0.96315034   -7.5105286     482.2602  0.021151763  0.021224835            5 
 1901000   0.95110781   -7.5452136    482.40945  0.021147179  0.021218021            5 
 1902000   0.95688129   -7.5438882    480.63995  0.021058533  0.021211206           12 
 1903000    0.9446503   -7.5331644    481.53084  0.021086479  0.021204424            7 
 1904000   0.94450648   -7.5237572    482.72504  0.021127672  0.021197577            4 
 1905000   0.94553645   -7.5420312    482.07717   0.02108824  0.021190748            4 
 1906000   0.94012994   -7.5565663    482.03275  0.021075234  0.021183893            5 
 1907000   0.94383756   -7.5019082    483.18694  0.021114619   0.02117701           11 
 1908000   0.94351135   -7.5612066     480.8213  0.021000232  0.021170122            6 
 1909000   0.94845291   -7.5390618    481.79017  0.021031525  0.021163258            5 
 1910000   0.96008853   -7.5075609    483.42057  0.021091648  0.021156427            6 
 1911000    0.9386859   -7.5506809    482.67484  0.021048092  0.021149484            8 
 1912000   0.95240486   -7.5188959    482.83827  0.021044206  0.021142453            7 
 1913000   0.97760206   -7.5500678    481.25128  0.020964074   0.02113545            3 
 1914000   0.95401505   -7.5315986    481.46331  0.020962353  0.021128447            4 
 1915000   0.94682643   -7.5736926    481.78047  0.020965208  0.021121476            9 
 1916000   0.94833504   -7.5901115    480.82072  0.020912523  0.021114455           12 
 1917000   0.95358617   -7.5584782     482.0919  0.020956873  0.021107391            6 
 1918000   0.96093619   -7.5190194    483.18047  0.020993242   0.02110047            4 
 1919000   0.93404356   -7.5800436    481.35851  0.020903183  0.021093471           10 
 1920000   0.96307597   -7.5314888     484.4753  0.021027574  0.021086465            3 
 1921000   0.97400155   -7.5666433    480.38708   0.02083928  0.021079578            8 
 1922000   0.94002826   -7.5463769    483.39911  0.020959032  0.021072551            3 
 1923000   0.97431284   -7.5444346    481.66355  0.020872922  0.021065457            3 
 1924000   0.93941736   -7.5711056    482.31459  0.020890272  0.021058405            6 
 1925000   0.94339131   -7.5451559    482.04095  0.020867574  0.021051374            4 
 1926000   0.94304553    -7.490666    484.35538  0.020956879  0.021044337            3 
 1927000   0.93224924   -7.5392542      483.337  0.020901963  0.021037344            6 
 1928000   0.92694782   -7.5163918    483.42309  0.020894843  0.021030373            2 
 1929000   0.94213139   -7.5405199     483.9073  0.020904929  0.021023459            7 
 1930000   0.94354634   -7.5216689    485.08759   0.02094506  0.021016447            6 
 1931000    0.9446889   -7.5307705    484.41301  0.020905101  0.021009444            3 
 1932000   0.95623317   -7.5327294    483.45286  0.020852866  0.021002445            9 
 1933000   0.94514686   -7.5402263    483.91341  0.020861933  0.020995436            2 
 1934000   0.93006342   -7.5191051    485.48495  0.020918862  0.020988527            5 
 1935000   0.93986744   -7.5203742    484.26228  0.020855395   0.02098162           12 
 1936000   0.94472054   -7.5471959    484.63527  0.020860678  0.020974647            6 
 1937000   0.93226538   -7.5603762    484.58997  0.020847959  0.020967702            5 
 1938000   0.95208627   -7.5598582     485.1683   0.02086207  0.020960782            6 
 1939000   0.94312535   -7.5642604    483.71737  0.020788953  0.020953814            5 
 1940000   0.94179915   -7.5558806     484.2763  0.020802247  0.020946797            4 
 1941000   0.93907413   -7.5466132     484.7771   0.02081303  0.020939832            5 
 1942000   0.93568106   -7.5753635    485.28734  0.020824208  0.020932886           13 
 1943000   0.92198191   -7.5365761    484.38146  0.020774638  0.020925967           10 
 1944000   0.92332463   -7.5489114    485.38241  0.020806859  0.020919012            4 
 1945000   0.94270737   -7.5575742    484.54305  0.020760199  0.020912002            8 
 1946000   0.94583802   -7.5441997    485.68242  0.020798322  0.020905023            9 
 1947000   0.92249489   -7.5765061    485.35425  0.020773594  0.020897997            7 
 1948000   0.91713754   -7.5669336    485.78146  0.020781205  0.020890934            5 
 1949000   0.92177885   -7.5463882    485.41595  0.020754915  0.020883916            7 
 1950000   0.93749565     -7.62248    483.86358  0.020677931  0.020876867            8 
 1951000   0.92599864   -7.5467753    485.49339  0.020736946  0.020869797            6 
 1952000   0.93048625   -7.5561024    486.04515  0.020749878  0.020862714            5 
 1953000   0.93572322   -7.6110125    485.66045  0.020722839  0.020855641            6 
 1954000   0.93044543    -7.594512    484.78144  0.020674746  0.020848575           14 
 1955000   0.92301685   -7.5905377    484.83789  0.020666577  0.020841474            6 
 1956000   0.94248698   -7.6043275     484.6403  0.020647593  0.020834436            4 
 1957000   0.93668562   -7.5963854    486.29396  0.020707459  0.020827412           12 
 1958000   0.92816664   -7.5892427    485.03748  0.020643407  0.020820331            4 
 1959000   0.93238442   -7.5877507     485.9072  0.020669865  0.020813209            6 
 1960000   0.92671544   -7.5888298    485.86328  0.020657452  0.020806171            3 
 1961000   0.93726658   -7.5947929     486.0769  0.020655996  0.020799108            7 
 1962000   0.95665248   -7.5714862    486.84913  0.020678267  0.020792055            6 
 1963000   0.93025322   -7.5740095    484.82778  0.020581923  0.020784957            6 
 1964000   0.94550973   -7.5904515    485.73989  0.020610145  0.020777864            5 
 1965000   0.96053283   -7.6011169    485.24812  0.020578801  0.020770807            7 
 1966000   0.93886582   -7.5708715    486.79524  0.020633911  0.020763782           11 
 1967000   0.93586912     -7.62001    483.96169  0.020503376  0.020756638            8 
 1968000   0.94724793   -7.5744046    485.27754  0.020548676   0.02074958            7 
 1969000   0.93700543   -7.5715358    486.77671  0.020601689  0.020742539            5 
 1970000   0.93488741   -7.6221403    485.90808  0.020554487  0.020735421           10 
 1971000   0.94874978   -7.5398468    488.45317  0.020651664  0.020728399           11 
 1972000   0.94745937   -7.5663178    485.58101   0.02051982  0.020721424            6 
 1973000   0.95223706   -7.5617123     487.3716  0.020585048  0.020714372           16 
 1974000   0.94425886    -7.572591    486.61021  0.020542478  0.020707368            5 
 1975000   0.94297452   -7.5722887    487.27672  0.020560199  0.020700321            3 
 1976000   0.94099682   -7.5806774    487.38255  0.020554257  0.020693249            4 
 1977000   0.95486574   -7.5729601    487.79214  0.020561125  0.020686126            5 
 1978000   0.95141384   -7.6225996    485.97103  0.020474007  0.020679043            4 
 1979000   0.94070076   -7.5718389    487.66889  0.020535156  0.020671999            6 
 1980000    0.9345963   -7.5942572    488.16953  0.020545855  0.020664975            4 
 1981000    0.9241917   -7.6017745    487.77281  0.020518796  0.020657946            7 
 1982000   0.94214644   -7.5741534    488.21497  0.020527034  0.020650907            3 
 1983000   0.95938581   -7.5629811    489.07256  0.020552722  0.020643886            7 
 1984000      0.92467    -7.578481    488.99382  0.020539055  0.020636931            7 
 1985000   0.93482494   -7.5226674     488.4019  0.020503858  0.020629998            4 
 1986000   0.94074845    -7.570545    489.63159  0.020545132  0.020623124            5 
 1987000   0.96142382     -7.58556    490.26575  0.020561389  0.020616245            6 
 1988000   0.92573487   -7.5700189    489.35724  0.020512963   0.02060933            7 
 1989000   0.92592133    -7.577114    487.78257  0.020436675  0.020602386            5 
 1990000    0.9314136   -7.5576579    489.66336  0.020505166  0.020595559           11 
 1991000   0.93537057   -7.5565528    489.74904  0.020498453  0.020588633            5 
 1992000   0.94276454   -7.5702098    489.70716  0.020486411  0.020581734            5 
 1993000   0.94308159   -7.5610918    490.88973  0.020525578  0.020574846            3 
 1994000   0.94232441   -7.5684555     489.4251  0.020454075  0.020567948            8 
 1995000   0.94818481   -7.5723629    488.51937  0.020405989  0.020561072            3 
 1996000    0.9305777   -7.6163909    488.65488  0.020401423  0.020554166            6 
 1997000   0.92416054     -7.56223    489.75449  0.020437093  0.020547171            4 
 1998000   0.94223045   -7.5971377    488.98178  0.020394635  0.020540267            7 
 1999000   0.95091981   -7.5925265    488.93436  0.020382456  0.020533334           12 
 2000000   0.91514014   -7.5797209    490.38519  0.020432716  0.020526404           18 
 2001000   0.92777769   -7.5821003     488.2345  0.020332938  0.020519419            9 
 2002000   0.90461682   -7.5860764    489.86774  0.020390765  0.020512471            7 
 2003000   0.90612853   -7.5580638    490.27897  0.020397694  0.020505518            8 
 2004000   0.94315865   -7.6096241    490.29622  0.020388233  0.020498581            6 
 2005000   0.92116531   -7.5576098     491.6489  0.020434285  0.020491697           11 
 2006000   0.93996616   -7.5991996    490.34628  0.020369985  0.020484798            6 
 2007000   0.93747271   -7.5741791    492.19863  0.020436748  0.020477879            9 
 2008000   0.94534504   -7.5832932    490.87127  0.020371483  0.020470928            6 
 2009000    0.9221779   -7.5929345    489.28273  0.020295451  0.020463904            8 
 2010000   0.93297228   -7.5893545    489.87177  0.020309775  0.020456953            6 
 2011000   0.92514223   -7.6324687    489.56215  0.020286845  0.020449906            7 
 2012000   0.93615958   -7.5835664    490.34505  0.020309188  0.020442827            5 
 2013000   0.93466689   -7.5948595    490.23303  0.020294462  0.020435813            3 
 2014000    0.9180902   -7.5759024    491.48475  0.020336178  0.020428825            5 
 2015000   0.91368415   -7.5981928    490.27353  0.020275994  0.020421748           10 
 2016000   0.93324226   -7.5908801    490.87539  0.020290815   0.02041471            5 
 2017000   0.91630631   -7.6291966    490.52632  0.020266333  0.020407687            5 
 2018000   0.91424002   -7.6191713    489.66935  0.020220901   0.02040064            6 
 2019000   0.96237805   -7.5923042    491.80119  0.020298877  0.020393664           11 
 2020000   0.92992891   -7.6093695    490.92865  0.020252832  0.020386661            5 
 2021000   0.92743255   -7.5751792    491.41101    0.0202627  0.020379693            5 
 2022000   0.93384421   -7.5833991    490.97868  0.020234861  0.020372708            4 
 2023000   0.91911254   -7.6049313    492.18646  0.020274611   0.02036574           10 
 2024000   0.93053538   -7.5864027    491.37624  0.020231235  0.020358749           16 
 2025000   0.90996556   -7.6208777    490.27933  0.020176104  0.020351725            5 
 2026000   0.92275787   -7.5895559    490.82465  0.020188576  0.020344667            7 
 2027000   0.94082645   -7.6213282    490.20119  0.020152984  0.020337605           12 
 2028000   0.92023416   -7.6205113    491.63672  0.020202035  0.020330579            4 
 2029000   0.93355486   -7.6067495    490.57162  0.020148333  0.020323492            8 
 2030000   0.91423808   -7.5893041    492.14186  0.020202868  0.020316482            6 
 2031000   0.94796889   -7.6044315    491.35771  0.020160746  0.020309436            6 
 2032000   0.93053125   -7.5918735    491.62627  0.020161838  0.020302355            7 
 2033000   0.90819125   -7.6007396    492.25204  0.020177572  0.020295337            5 
 2034000   0.91399274   -7.5883502    491.45182  0.020134866  0.020288312            4 
 2035000   0.92093475   -7.5926635    492.28545  0.020159109  0.020281229            5 
 2036000   0.90794226   -7.5663472    492.97934  0.020177609  0.020274156            5 
 2037000   0.92942831   -7.5858899    492.45464  0.020146238  0.020267137            4 
 2038000   0.91235169   -7.6015534    492.88168  0.020153814  0.020260137            6 
 2039000   0.91649918   -7.5775942    492.70353  0.020136649  0.020253163            6 
 2040000   0.91242319   -7.5824644    492.93663    0.0201363    0.0202462            6 
 2041000   0.90788612   -7.6204076    493.06543  0.020131693  0.020239191            4 
 2042000   0.91946023    -7.586546    492.38285  0.020093978  0.020232216            2 
 2043000    0.9270731   -7.5821763    493.51253  0.020130222  0.020225237            3 
 2044000   0.93097628   -7.5958243    491.91395    0.0200552  0.020218235            5 
 2045000   0.93168332   -7.5423754    492.63536   0.02007479  0.020211232            4 
 2046000   0.92364664   -7.5973338    492.74507  0.020069447  0.020204264            5 
 2047000   0.93078911   -7.5933764    492.45028  0.020047642  0.020197279            8 
 2048000   0.92139046   -7.5830061    493.48152  0.020079815   0.02019026            9 
 2049000   0.94158418   -7.6049722    493.44143  0.020068384   0.02018328            9 
 2050000   0.92365078   -7.6166361    492.95081  0.020038651  0.020176301            4 
 2051000   0.92708601   -7.6204302    493.38072  0.020046348  0.020169278           10 
 2052000    0.9289986    -7.599197    493.77289  0.020052505  0.020162311            8 
 2053000   0.93871487   -7.5624768    494.25192  0.020062182  0.020155376            7 
 2054000   0.92599214    -7.578249    494.48267  0.020061777  0.020148438            4 
 2055000   0.93468129   -7.5795634    493.28768  0.020003556  0.020141503            9 
 2056000   0.93156951   -7.5802103    493.74312  0.020012286  0.020134554           15 
 2057000   0.92774011   -7.5975878    492.57044  0.019955049  0.020127538            3 
 2058000   0.91969576   -7.5892219    492.39924  0.019938421  0.020120454            2 
 2059000   0.93370152   -7.5863935    492.14551  0.019918468  0.020113377            8 
 2060000   0.90115992   -7.6103745    492.41734  0.019919795  0.020106253            4 
 2061000   0.91210651   -7.5916947    493.20557  0.019942001   0.02009917            2 
 2062000   0.91931801   -7.6246014    493.44569  0.019942034  0.020092095            4 
 2063000    0.9142612   -7.5664416    493.28691  0.019925954   0.02008504            5 
 2064000   0.90455177   -7.5855378    493.60343  0.019929079  0.020077983            3 
 2065000   0.91701071   -7.5749112    494.99322  0.019975513  0.020070977            6 
 2066000   0.90036172   -7.6211283    495.27061  0.019977033  0.020063964           11 
 2067000   0.93277001   -7.6701018    492.81773  0.019868478  0.020056836            9 
 2068000   0.92752488   -7.6250429    494.24366  0.019916331  0.020049752            5 
 2069000   0.91365591   -7.6285305    494.75342  0.019927236  0.020042687           12 
 2070000   0.91605254   -7.5956641    495.78924  0.019959309  0.020035698            7 
 2071000   0.91010092    -7.612617    494.74051  0.019907472  0.020028702            6 
 2072000   0.92448172   -7.6377772    494.14057  0.019873736  0.020021721            5 
 2073000   0.92760606   -7.6061757    496.44453  0.019956767  0.020014699            5 
 2074000   0.90157347   -7.6258929    495.53883  0.019910753   0.02000774            3 
 2075000   0.91916216   -7.6292736    494.59289  0.019863168  0.020000736            8 
 2076000    0.9162601   -7.6184263    494.73037  0.019859119   0.01999377            7 
 2077000   0.93072434   -7.6253091    494.63212  0.019845616  0.019986786            5 
 2078000   0.90338475   -7.6237764    494.74081  0.019840424  0.019979815            5 
 2079000   0.92240356   -7.6073413    494.42081  0.019818054  0.019972851            5 
 2080000   0.92496263   -7.6247547    495.45698  0.019850039  0.019965944            8 
 2081000   0.91333118   -7.5951439    495.06003  0.019824605  0.019958977            8 
 2082000   0.94114949    -7.649446    495.57247  0.019835594     0.019952            4 
 2083000   0.91330397   -7.6089044    496.65929  0.019869551  0.019945074            5 
 2084000   0.91490063   -7.6187481    497.15798  0.019879958  0.019938179            5 
 2085000   0.91053651   -7.6078094    496.62044  0.019848938  0.019931202            7 
 2086000   0.91797196    -7.598693    497.28853  0.019866113  0.019924235            5 
 2087000   0.90565907    -7.668143    495.52367  0.019786123  0.019917269            4 
 2088000   0.93811913   -7.6501937    495.79123  0.019787326  0.019910244            6 
 2089000   0.91324686   -7.6468923    495.83626   0.01977965   0.01990324            5 
 2090000    0.9021244   -7.6143873    495.51849  0.019757515  0.019896224            6 
 2091000   0.91863954   -7.6228754    496.37855  0.019782343  0.019889192            5 
 2092000   0.91717781   -7.6183852    495.20735  0.019726233  0.019882168            5 
 2093000   0.92123136   -7.6617148    494.51586  0.019689276  0.019875116            5 
 2094000   0.91310837   -7.6043883    495.14934  0.019705083  0.019868077           11 
 2095000   0.91572529   -7.6247092    496.01141  0.019729969  0.019861125            7 
 2096000   0.90973524   -7.6231416    497.21366  0.019768355  0.019854149            5 
 2097000   0.91436355   -7.6227889    497.03111  0.019751674  0.019847153            5 
 2098000   0.91233946   -7.6772808    494.34104  0.019635408  0.019840162            5 
 2099000   0.90889989   -7.6438951    496.48867  0.019711318  0.019833119            5 
 2100000   0.89419891   -7.6304282    496.71643   0.01971097  0.019826047           13 
 2101000   0.90458268    -7.641319    496.51058  0.019693423  0.019819064            4 
 2102000   0.91782438   -7.6130895    497.79199  0.019734855  0.019812097            5 
 2103000   0.90219382    -7.615981    497.13809   0.01969956  0.019805082            8 
 2104000   0.93348603   -7.6570136    494.21791  0.019574537  0.019798088            8 
 2105000   0.91758852   -7.6627189    496.00634  0.019636039  0.019791072            5 
 2106000   0.93171916   -7.6613875    495.85888   0.01962088  0.019784032            7 
 2107000   0.91877596   -7.6320106    497.01687  0.019657367  0.019777026           10 
 2108000   0.92818235    -7.625617    496.98864  0.019646926  0.019770023            3 
 2109000   0.91045987   -7.6430774    496.92665  0.019635161  0.019763038            9 
 2110000   0.91841014   -7.6072895    496.89231  0.019624499  0.019755973            8 
 2111000   0.90544531   -7.5765547    498.75151  0.019688596  0.019749008            7 
 2112000   0.89656414   -7.6251063     498.7715  0.019680062  0.019742054           16 
 2113000   0.90007993   -7.6355188    496.84857  0.019594911  0.019735013           16 
 2114000   0.89022896   -7.6247137    496.52184  0.019572762  0.019728006           10 
 2115000   0.91233751   -7.6531653     496.7505  0.019572518  0.019720974            7 
 2116000   0.90729408   -7.6294611    497.32125  0.019585745  0.019713954            7 
 2117000   0.93632996    -7.619789    497.58664  0.019586941  0.019706929            5 
 2118000    0.9159273   -7.6224182    498.21925  0.019602583  0.019699939           12 
 2119000   0.92781013   -7.6084247    496.90581  0.019541679  0.019692962            5 
 2120000   0.89739866   -7.6125638    497.87519  0.019570566  0.019685954            8 
 2121000   0.88933518   -7.6476101    497.61945  0.019551291  0.019678914            9 
 2122000   0.91444958   -7.6276847    498.85692  0.019590674  0.019671906            7 
 2123000    0.9231157   -7.6495023    497.31753  0.019521021  0.019664886            6 
 2124000   0.89745673   -7.6165536    498.78048  0.019569228   0.01965784            7 
 2125000   0.90360927   -7.6121059    497.71812  0.019518358  0.019650844            6 
 2126000   0.91061767   -7.6525769    496.97849  0.019480185   0.01964382            7 
 2127000   0.92802969   -7.6545372    497.78945  0.019502799  0.019636755            5 
 2128000   0.93963193   -7.6396362    498.13916  0.019507329  0.019629701            5 
 2129000    0.9093748    -7.665685    496.79412  0.019445519  0.019622578            9 
 2130000   0.90606207   -7.6376465     496.5721  0.019427703  0.019615504            9 
 2131000   0.90798993   -7.6706079    496.77761  0.019426623  0.019608392           18 
 2132000   0.91051757   -7.6769055    497.57371  0.019448628  0.019601283           13 
 2133000   0.92062683   -7.6332768    498.14036  0.019461649  0.019594235            3 
 2134000   0.90298244   -7.6919177    497.05403  0.019410107   0.01958715            4 
 2135000   0.91259951   -7.6371426    498.25508  0.019447895  0.019580073            5 
 2136000   0.89262036   -7.6180121    498.86223  0.019462478  0.019573014            6 
 2137000   0.90410017   -7.6455378      499.959  0.019496139  0.019566006           10 
 2138000   0.88447363   -7.6325259    498.96494  0.019448275  0.019558977            8 
 2139000   0.89837805   -7.6792928    496.75313  0.019353013  0.019551881           11 
 2140000    0.9148536   -7.6402734    499.35249   0.01944519  0.019544828           13 
 2141000   0.89961027   -7.6764873    497.94801  0.019381442  0.019537757            4 
 2142000   0.91492781    -7.624546    497.87641  0.019369608  0.019530682            4 
 2143000   0.89796525   -7.6222902    497.84869  0.019359492  0.019523605            5 
 2144000   0.90536876   -7.6423464    499.07957  0.019398304  0.019516543            7 
 2145000   0.90697582   -7.6295142    498.44477  0.019364599  0.019509441            7 
 2146000   0.90704714   -7.6672675     497.2433   0.01930892  0.019502285            4 
 2147000   0.90398087   -7.6367844    497.98121  0.019328567  0.019495191           20 
 2148000   0.91240358   -7.6641022    499.49813  0.019378419  0.019488129            6 
 2149000   0.90965988   -7.6402882    499.25065  0.019359805  0.019481086            8 
 2150000   0.91756525   -7.6785043    498.31809  0.019314655  0.019474064           17 
 2151000   0.91041925   -7.6651283     498.4537  0.019310929  0.019466981           15 
 2152000   0.89741627   -7.6392697    499.28688  0.019334219  0.019459925            6 
 2153000   0.90194225   -7.6195978    499.00836  0.019314459  0.019452853            6 
 2154000   0.90303977   -7.6537417    497.68235  0.019254192  0.019445836            5 
 2155000   0.89624873   -7.6941801    498.88046  0.019291588  0.019438762            7 
 2156000   0.90335509    -7.658646    497.93585  0.019246129  0.019431694           11 
 2157000   0.90623225   -7.6865013    498.82643  0.019271613   0.01942461            8 
 2158000    0.9050822   -7.6865439    497.48667  0.019210947  0.019417455            7 
 2159000   0.89739494   -7.6791277    499.10578  0.019264543  0.019410322            9 
 2160000   0.89483266   -7.7206794    497.83511  0.019206601  0.019403179           20 
 2161000   0.89446378   -7.6745777    499.77857  0.019272658  0.019396041            6 
 2162000   0.88085484   -7.6763136    498.68898  0.019221746  0.019388935            5 
 2163000   0.90760358   -7.6516167    499.68433  0.019251207  0.019381836            6 
 2164000   0.90913582   -7.6965356    499.99954  0.019254449  0.019374827            8 
 2165000   0.89505992   -7.6655005    500.20846  0.019253597  0.019367739            7 
 2166000   0.88417324   -7.6807081    498.42046  0.019175918  0.019360698           10 
 2167000   0.91682094   -7.6737962    499.91379  0.019224496  0.019353643            5 
 2168000   0.91212984   -7.6713566    500.67959  0.019245064  0.019346543            8 
 2169000   0.91708641   -7.6950237    499.56314  0.019193297  0.019339425           14 
 2170000   0.91125425   -7.6951021    497.41492  0.019101955  0.019332275            8 
 2171000   0.91381127   -7.7117791    497.94037  0.019113326  0.019325052           11 
 2172000   0.90519663   -7.6770958    498.32488  0.019119279  0.019317878           10 
 2173000   0.93108338   -7.6956516    498.93167   0.01913375  0.019310704           15 
 2174000    0.9190263    -7.680231    499.49729   0.01914663  0.019303602            6 
 2175000    0.9001762    -7.672977    500.37995  0.019171646  0.019296474           14 
 2176000   0.91297781   -7.6810126    500.71982  0.019175851  0.019289425            5 
 2177000   0.90763252   -7.6763972    499.58544   0.01912362  0.019282339            6 
 2178000    0.9112437   -7.7001692    499.26351  0.019102522  0.019275269            5 
 2179000   0.88670238   -7.6371698    502.34573  0.019211631  0.019268224            4 
 2180000   0.88732502   -7.6465098    500.39307  0.019128175  0.019261216            7 
 2181000   0.90484345   -7.6803535     500.4196  0.019120419   0.01925421           14 
 2182000   0.91264108   -7.6634559    499.85432  0.019090067  0.019247117            9 
 2183000   0.90924405    -7.660471    500.84418  0.019119109  0.019240043            5 
 2184000   0.91254396   -7.6706858    499.44576  0.019056996  0.019232965            5 
 2185000   0.92148969   -7.6737751    500.43839  0.019086133  0.019225902            5 
 2186000   0.89321693   -7.6816512    501.75621  0.019127638  0.019218784           12 
 2187000   0.90613723   -7.6996415    498.60746  0.018998912  0.019211692           14 
 2188000   0.90396309   -7.6977994    500.09147   0.01904675  0.019204573            4 
 2189000   0.90677017   -7.6622149     500.6412  0.019058977   0.01919746            7 
 2190000    0.9002795   -7.6631015    500.39275   0.01904082  0.019190398            9 
 2191000   0.92034342   -7.6479695    500.42065  0.019033191  0.019183346           13 
 2192000   0.89016979   -7.6831489    500.41195  0.019024177  0.019176301            8 
 2193000   0.89066495    -7.663868    500.75158  0.019028408  0.019169238            4 
 2194000   0.90968107   -7.6725996    502.05131  0.019069102   0.01916217            4 
 2195000   0.90169425   -7.6874806    501.17615  0.019027189  0.019155101            7 
 2196000   0.90376495   -7.6601699    500.20351  0.018981615   0.01914806           16 
 2197000   0.90439321   -7.6467092    501.35927  0.019016813  0.019141038           11 
 2198000   0.90561647   -7.6904928    500.68161  0.018982469  0.019134008            7 
 2199000   0.89482598   -7.6279445    502.89986    0.0190579   0.01912694            7 
 2200000   0.87811068   -7.6834768     502.0672  0.019017697  0.019119891           17 
 2201000   0.90101446    -7.679356    500.95369  0.018966897  0.019112864            6 
 2202000   0.90241725   -7.6303456    503.54294  0.019056272  0.019105861            9 
 2203000   0.91380486   -7.6924363     501.4484  0.018968392  0.019098888            5 
 2204000   0.89238946   -7.6690233    501.50309  0.018961853  0.019091847            5 
 2205000   0.89371287   -7.6790149    502.73653  0.018999869  0.019084822            8 
 2206000   0.91482995   -7.6719684    502.11618  0.018967822  0.019077842            9 
 2207000   0.86072572   -7.6412361    503.53285  0.019012719  0.019070931            4 
 2208000   0.90836672   -7.6682992    502.24807  0.018955619   0.01906403            5 
 2209000   0.90850994   -7.6649028    501.72571  0.018927332  0.019057083           16 
 2210000   0.90589518   -7.6690135    502.73476  0.018956816  0.019050133            5 
 2211000   0.89727669    -7.671367    502.63698  0.018944557  0.019043186            9 
 2212000     0.884786   -7.6798982    503.45126  0.018966669  0.019036227            9 
 2213000   0.88970785    -7.687933    504.69803  0.019005047  0.019029277            5 
 2214000   0.89241786   -7.7271924    501.04862  0.018859102  0.019022312           12 
 2215000   0.92120645   -7.6859336     504.1191  0.018966106  0.019015363            5 
 2216000   0.90221123   -7.6898528    503.36462  0.018929175   0.01900841            9 
 2217000   0.88603498   -7.7219102    501.49013  0.018850178  0.019001429            6 
 2218000   0.92417711   -7.6643646    504.71898  0.018962992  0.018994437            3 
 2219000   0.90967197    -7.680102    503.24418   0.01889906  0.018987483            2 
 2220000   0.92905655   -7.6730283    502.71264  0.018870595  0.018980476            2 
 2221000   0.88657986   -7.7001594     502.8298  0.018866494  0.018973494            8 
 2222000   0.88639098   -7.7089753    501.98952   0.01882649  0.018966533            3 
 2223000    0.8932619   -7.6997426    504.14405  0.018898787   0.01895956            5 
 2224000   0.88958516   -7.6965792     503.7358  0.018874993  0.018952563            7 
 2225000   0.89880453    -7.670282    505.20139    0.0189214  0.018945615           12 
 2226000   0.90364906   -7.7282001      502.646  0.018817236  0.018938658            6 
 2227000   0.91136519   -7.6732681    503.39427  0.018836786  0.018931658            4 
 2228000   0.88810317   -7.6770859    503.30664  0.018825054  0.018924659           10 
 2229000   0.88438619   -7.6997976     504.1868  0.018849514  0.018917695           10 
 2230000   0.90003009   -7.6686236    504.91468  0.018868261  0.018910735            3 
 2231000   0.87440648   -7.7148978    502.78268  0.018780169  0.018903786           12 
 2232000   0.88802719   -7.7045748    503.34968  0.018792924  0.018896863            6 
 2233000   0.91958997   -7.6943146    503.74795  0.018799371   0.01888996           10 
 2234000   0.89838688   -7.6859078    504.95544  0.018835998  0.018883101            7 
 2235000   0.88078328   -7.6752106    504.58844  0.018813887  0.018876288            8 
 2236000   0.91852645   -7.6585528    506.30871  0.018869585  0.018869443           12 
 2237000   0.90196842   -7.7111606    504.47585  0.018792872  0.018862543           12 
 2238000   0.87116658   -7.6661507    504.15069  0.018772367  0.018855586            8 
 2239000   0.92231453   -7.7205506     504.0184  0.018759059  0.018848647           22 
 2240000    0.8812968   -7.6818489    504.73917  0.018777499  0.018841714            7 
 2241000   0.89239123   -7.7061138    503.87432   0.01873696  0.018834748           15 
 2242000   0.89581796   -7.6950549    505.59078  0.018792402  0.018827807            5 
 2243000   0.87812927   -7.7350405    503.84873  0.018719302  0.018820846            4 
 2244000   0.90100887   -7.7179007    503.35168  0.018692501  0.018813895           11 
 2245000   0.87645678   -7.7155648    504.34205  0.018720937  0.018806907            9 
 2246000   0.88277748   -7.6694527    505.46396  0.018754228  0.018800016            5 
 2247000   0.88382765   -7.7293706    504.85496  0.018723296  0.018793139            6 
 2248000   0.90216939   -7.7293974    503.75801  0.018674304  0.018786198           12 
 2249000   0.88310522   -7.7276797    504.15353  0.018680655  0.018779234            8 
 2250000   0.89634654   -7.7287322    504.34546  0.018679461  0.018772247            6 
 2251000   0.88578275   -7.6987682    505.28864   0.01870608  0.018765292           10 
 2252000   0.88057824   -7.6704064    504.44154  0.018666427  0.018758413           27 
 2253000   0.88059582   -7.7115101    505.81372  0.018708896   0.01875151            7 
 2254000   0.88139623   -7.7223545     504.2598  0.018643145  0.018744554            4 
 2255000   0.90393379   -7.7167433    504.30685  0.018636617  0.018737593            6 
 2256000     0.901884   -7.6949901    506.23457  0.018699563  0.018730698            6 
 2257000   0.88666008   -7.6543507    506.16902  0.018688857  0.018723829            7 
 2258000   0.89550896   -7.6988207    504.08991   0.01860385   0.01871691            7 
 2259000   0.89509061   -7.6877092    505.49382  0.018647404  0.018709997            8 
 2260000   0.89373452   -7.7184323     504.0041  0.018584222   0.01870307            5 
 2261000   0.88669753   -7.6954592     504.8815  0.018608341  0.018696129            5 
 2262000   0.88592359    -7.718539    504.69119  0.018593103  0.018689179            6 
 2263000   0.87657278   -7.7080456    504.94751  0.018594326  0.018682214            9 
 2264000    0.8892767   -7.7370215    504.53839  0.018571054   0.01867517            6 
 2265000   0.89302791   -7.7171483    504.27255  0.018553074  0.018668129            7 
 2266000   0.88613694   -7.7187649    505.35806  0.018584807  0.018661136            5 
 2267000   0.88394193   -7.7349724    503.71041  0.018516042  0.018654117           20 
 2268000   0.88586899   -7.7321422    504.44715  0.018534948  0.018647069           11 
 2269000   0.88448072   -7.7631292    503.12499   0.01847822  0.018640021           14 
 2270000   0.89461667   -7.7394479    504.62758  0.018525241  0.018632969            4 
 2271000   0.87713229   -7.7405441    503.98358  0.018493453  0.018625896            7 
 2272000   0.88989776   -7.7207802      503.037  0.018450594  0.018618854            5 
 2273000   0.90759325   -7.7107148    504.67896  0.018502675  0.018611833            7 
 2274000   0.89206917   -7.7167371    505.56343  0.018526951  0.018604809            6 
 2275000   0.88103043   -7.7071952    504.78624  0.018490338  0.018597778           12 
 2276000    0.8835692   -7.7329793    503.49064  0.018434777  0.018590748            7 
 2277000   0.89669477   -7.7402046    504.19979  0.018452635  0.018583683            6 
 2278000    0.8857868   -7.7001449     505.9134  0.018507221  0.018576626            7 
 2279000   0.88776755   -7.6829194    505.39587  0.018480176  0.018569673           14 
 2280000   0.90730593   -7.7087694    504.95939  0.018456118  0.018562651           11 
 2281000   0.87754915   -7.7215859    504.47529  0.018430341  0.018555632            5 
 2282000   0.87472156   -7.7190961    504.70203  0.018430545  0.018548613            9 
 2283000    0.8533762    -7.729472    505.84998  0.018464374  0.018541533           10 
 2284000   0.89018907   -7.7868527    504.08212  0.018391788  0.018534478            5 
 2285000   0.88737561   -7.7306486    504.67112   0.01840522  0.018527429            2 
 2286000   0.89901174   -7.7314496    504.69219  0.018397936  0.018520351           11 
 2287000   0.87603843   -7.7450146    503.75531  0.018355754  0.018513304           17 
 2288000   0.89516501   -7.7313299    505.25952  0.018402517  0.018506247            8 
 2289000    0.8826652   -7.7370346    503.25961  0.018321669  0.018499171            9 
 2290000   0.88670379   -7.7115768    505.81001  0.018406478  0.018492105            7 
 2291000   0.89107824   -7.7479643     503.9829  0.018331984  0.018485057            6 
 2292000   0.87134561   -7.7132581    504.93524  0.018358611  0.018477988            3 
 2293000   0.87493051   -7.7589727    505.41256  0.018367952  0.018470959            6 
 2294000   0.88134233   -7.7488084    505.52469  0.018364018  0.018463913            2 
 2295000   0.87748798   -7.7091416    504.74596   0.01832774  0.018456875           11 
 2296000    0.8754854   -7.7323867    503.94277  0.018290606  0.018449812           18 
 2297000   0.89317588   -7.7609744    504.27107  0.018294553  0.018442747            5 
 2298000   0.90505799   -7.7405536    506.36935  0.018362683    0.0184357            5 
 2299000   0.87959838   -7.7254114    504.24664  0.018277753   0.01842872           11 
 2300000   0.88840851   -7.7254598     505.8722  0.018328703  0.018421728            6 
 2301000    0.8879485    -7.713107    506.80793  0.018354626  0.018414739            6 
 2302000   0.88335697   -7.7215301    506.14143  0.018322525  0.018407768            6 
 2303000   0.86834598   -7.7176513    506.79386  0.018338177  0.018400822            5 
 2304000   0.86419794     -7.74599    506.41774  0.018316614   0.01839389            6 
 2305000   0.89080461   -7.7113899    507.08422  0.018332763  0.018386905            6 
 2306000   0.87788645   -7.7168348    506.47152  0.018302671  0.018380014            9 
 2307000   0.88854532   -7.7773226    504.92899  0.018239018  0.018373033            4 
 2308000   0.87903038   -7.7456808    506.09721  0.018273296   0.01836607            5 
 2309000    0.8617449   -7.7334259    505.19503  0.018232822   0.01835908            8 
 2310000   0.89684953   -7.7316172     506.4505   0.01827022  0.018352082           12 
 2311000   0.88005617   -7.7579494    505.12918  0.018214668  0.018345064            7 
 2312000   0.88974684   -7.7415795    506.28411  0.018248418  0.018338132            5 
 2313000   0.87977414   -7.7162118    506.79554  0.018258954   0.01833117            7 
 2314000   0.86559294   -7.7317922    506.50031  0.018240432  0.018324182           10 
 2315000   0.87990223   -7.7332306    507.51014  0.018268904   0.01831722            9 
 2316000   0.88975708   -7.7310552    505.92221  0.018203879  0.018310268            5 
 2317000   0.88366592   -7.7201798    507.78517  0.018263026  0.018303352            5 
 2318000   0.88313329   -7.7220715    505.39969  0.018169388  0.018296404            6 
 2319000   0.87966275    -7.735868    506.84421  0.018213462  0.018289437            9 
 2320000    0.8819558   -7.7555137    506.30652  0.018186297  0.018282491           10 
 2321000   0.88000344   -7.7414927    506.02987  0.018168529  0.018275548           11 
 2322000   0.90046663   -7.7344132    507.31773  0.018206924  0.018268615           11 
 2323000    0.8865415   -7.7632626    507.64051  0.018210666  0.018261653           16 
 2324000   0.86498399    -7.747868    506.75659  0.018171134  0.018254768            5 
 2325000   0.88820367   -7.7229085    507.69367  0.018196906  0.018247841           21 
 2326000   0.88554567   -7.7493281    507.58023  0.018185018  0.018240929           14 
 2327000   0.87754704   -7.7503899    507.69634  0.018181362  0.018234007           15 
 2328000   0.87270517   -7.7448361     507.9288  0.018181873  0.018227067           12 
 2329000   0.89228144   -7.7505619    507.08031  0.018143706  0.018220159           12 
 2330000   0.88633436   -7.7352988    507.75449  0.018160032  0.018213274            8 
 2331000   0.88088529   -7.7326776    506.75663  0.018116568  0.018206406           17 
 2332000   0.88295555    -7.726597    506.43256  0.018097219  0.018199537            8 
 2333000   0.87137167   -7.7305787    507.68869   0.01813433  0.018192653            9 
 2334000   0.87578633    -7.718494     508.3755  0.018151082   0.01818581           18 
 2335000    0.8694184   -7.7347738    509.12782  0.018170158  0.018178942           11 
 2336000   0.88060763   -7.7562079    507.13877  0.018091423  0.018172067           21 
 2337000      0.88834   -7.7678522    508.34946  0.018126853  0.018165195           11 
 2338000   0.89364512   -7.7502079    507.17221  0.018077139  0.018158368            6 
 2339000   0.89254507   -7.7768399    507.96448  0.018097637  0.018151491            9 
 2340000   0.85874441   -7.7794219     508.2707  0.018100808  0.018144651           10 
 2341000   0.88546149    -7.784731    507.29486  0.018058339  0.018137786           18 
 2342000     0.886639    -7.749428    507.55237  0.018059791  0.018130902            9 
 2343000   0.88855826   -7.7655696    508.15608  0.018073555  0.018124051            6 
 2344000    0.8800291   -7.7755901    508.63315  0.018082805  0.018117222            7 
 2345000   0.87394151   -7.7782758     507.8952   0.01804887  0.018110422           13 
 2346000   0.87601251   -7.7259403    509.55837  0.018100255  0.018103688           16 
 2347000   0.88679013   -7.7700087    508.40609  0.018051629   0.01809693           15 
 2348000   0.87899962   -7.7283007     509.7481  0.018091571  0.018090264           13 
 2349000   0.88622991   -7.7292581    510.41926  0.018107679  0.018083535            6 
 2350000   0.87625382    -7.714191    510.80112  0.018113515  0.018076871            9 
 2351000   0.87756478   -7.7396989    509.19947  0.018049038  0.018070175           11 
 2352000   0.84998619   -7.7385389    509.77014  0.018061584  0.018063443            8 
 2353000   0.87153024   -7.7658496    508.63048  0.018013546   0.01805671           12 
 2354000   0.86315144   -7.7751905    510.62926  0.018076652  0.018049958            9 
 2355000     0.885009   -7.7693089    509.62126  0.018033307  0.018043189           10 
 2356000   0.87831063   -7.7506673    508.54693  0.017987653  0.018036401           15 
 2357000   0.88781868   -7.7577797    511.13113  0.018071388  0.018029599            7 
 2358000   0.87259132   -7.7556044    508.89911  0.017984843  0.018022826            5 
 2359000    0.8788679   -7.7688674      509.433  0.017996079  0.018016077            8 
 2360000   0.88125393   -7.7526331    509.68744  0.017997438  0.018009329            8 
 2361000   0.88175537   -7.7870573     510.0254  0.018001744  0.018002553            6 
 2362000   0.85715115    -7.775301    509.87326  0.017988754  0.017995768           11 
 2363000   0.87385013   -7.7757903    511.02639  0.018021808  0.017989044            7 
 2364000   0.84440983   -7.7503355    510.13985  0.017982933  0.017982259            7 
 2365000   0.86126998   -7.7636766    509.68098  0.017959161  0.017975531            3 
 2366000   0.87477556   -7.7744373    509.80023   0.01795577  0.017968787            8 
 2367000   0.87051447     -7.75344    510.97485  0.017989538  0.017962016           10 
 2368000   0.87367333   -7.7533359    510.06885  0.017950058  0.017955256            9 
 2369000   0.88554628   -7.7714731    509.80809  0.017933308  0.017948476            5 
 2370000   0.86692483   -7.7533463    511.66923  0.017991182  0.017941738           16 
 2371000     0.882963   -7.7480398    510.85791  0.017955079  0.017935006           11 
 2372000   0.86793515   -7.7694824    510.00354  0.017917494  0.017928312           12 
 2373000   0.88273714   -7.7799438    510.17891  0.017916102  0.017921559           16 
 2374000   0.87667227   -7.7516418    509.92825  0.017899756   0.01791479           13 
 2375000   0.86239013   -7.7241294    511.31733  0.017940959  0.017908082           13 
 2376000   0.86566018   -7.7676099    511.20926  0.017929618  0.017901391           12 
 2377000   0.85069935   -7.7525872    511.15178   0.01792006  0.017894654            4 
 2378000   0.88310075   -7.7771556    509.79609  0.017865016  0.017887903           17 
 2379000   0.86921044   -7.7830701    510.58062  0.017884987  0.017881131            4 
 2380000   0.87142344   -7.7365162     510.6979  0.017881579  0.017874396            7 
 2381000   0.85445387     -7.74347    511.01344  0.017885113  0.017867635            7 
 2382000   0.87014473   -7.7642037    510.04569  0.017843748  0.017860889           11 
 2383000   0.85590156   -7.7265316    510.96647   0.01786846  0.017854128           13 
 2384000   0.87503452   -7.7682596    509.22024  0.017799924  0.017847397            7 
 2385000   0.86933656   -7.7570145    510.14026  0.017824607  0.017840705            8 
 2386000   0.89096849   -7.7615525    510.70397  0.017836825  0.017834008           10 
 2387000   0.86491561   -7.7758633    510.28407  0.017814693  0.017827276            7 
 2388000    0.8518427   -7.7595439    512.10051  0.017870621  0.017820544           17 
 2389000   0.86329752   -7.7636714    511.17574  0.017830883   0.01781382           11 
 2390000   0.87273472   -7.7589697    511.79995  0.017845187  0.017807133           19 
 2391000    0.8690488   -7.7783141    510.61868  0.017796552   0.01780044            8 
 2392000   0.85876528   -7.7681833    511.94692  0.017835386  0.017793755            6 
 2393000   0.88720905   -7.7650891    511.98589   0.01782929  0.017787073            8 
 2394000   0.88902419   -7.7539591    512.37944  0.017835542  0.017780428           20 
 2395000   0.87235445   -7.7777391    511.75075   0.01780622  0.017773761            8 
 2396000   0.83372077   -7.7608181    512.00366  0.017807584  0.017767087            6 
 2397000   0.86350563    -7.782975    511.92613   0.01779746  0.017760394           16 
 2398000   0.87012877   -7.7740534    510.97945   0.01775714  0.017753678            8 
 2399000   0.87420565   -7.7572453    512.17217  0.017791169  0.017746996           15 
 2400000   0.85424693   -7.7740802    511.96922  0.017776709  0.017740325            9 
 2401000   0.85911598   -7.7866409    511.93974  0.017768282  0.017733665           17 
 2402000   0.88234009   -7.8054555    512.52381  0.017781148     0.017727           12 
 2403000   0.88644462   -7.7896607    511.17994  0.017727145  0.017720326            8 
 2404000   0.87004771   -7.8052145    511.42296  0.017728195  0.017713696           24 
 2405000      0.87831   -7.7531864    513.68208  0.017799102  0.017707085            8 
 2406000   0.86997078   -7.7748077    512.96897  0.017767005  0.017700461            7 
 2407000   0.85346976   -7.7744499    512.28823  0.017736056  0.017693849            9 
 2408000   0.87485585   -7.7899981    512.65504  0.017741384    0.0176872            9 
 2409000   0.88231197   -7.7638788    512.72141  0.017736316  0.017680573            5 
 2410000   0.85221414   -7.7879654    511.97144  0.017703024  0.017673957            7 
 2411000   0.85669302   -7.8004604    512.29825  0.017706977  0.017667307            7 
 2412000   0.88932432    -7.775234     512.6297  0.017711087  0.017660681            4 
 2413000   0.84608134   -7.8044699    513.18154  0.017722805  0.017654022           15 
 2414000   0.87938939   -7.7746701    512.60463  0.017695548  0.017647378            5 
 2415000   0.86268478   -7.7988102    512.04353  0.017668859  0.017640717           19 
 2416000   0.87964071   -7.7670434    513.38154  0.017707697  0.017634082           14 
 2417000   0.87062155   -7.8000102    511.89469  0.017649107  0.017627459            7 
 2418000   0.86605677   -7.8006726    512.43317  0.017660366  0.017620785           10 
 2419000   0.88283058   -7.8300858    512.12397  0.017642413   0.01761414            9 
 2420000   0.85077796   -7.7823537    512.17512  0.017636884  0.017607492           11 
 2421000   0.88381493   -7.7579475    513.60326  0.017678757   0.01760089            4 
 2422000   0.88921222   -7.7574314     513.5335  0.017669058  0.017594308            9 
 2423000    0.8525788   -7.7771114    513.35289  0.017655554  0.017587728           27 
 2424000   0.86796914   -7.7624282    513.39006  0.017649548  0.017581157            8 
 2425000   0.87715775   -7.7745566    514.03107  0.017664298  0.017574638            4 
 2426000   0.84766262   -7.7988952    512.01242  0.017587676   0.01756808            5 
 2427000   0.86199042   -7.7964827    513.74229  0.017639826  0.017561496            7 
 2428000   0.86883667   -7.8190665    511.91156  0.017569727   0.01755492            7 
 2429000   0.86559359   -7.8135639    512.69744  0.017589455  0.017548295           18 
 2430000   0.85188483   -7.7769038    513.62646  0.017614076  0.017541698            8 
 2431000   0.85751367   -7.8126523    512.97647  0.017584549  0.017535153            8 
 2432000   0.87478923   -7.8292352    513.01229  0.017578546  0.017528538           17 
 2433000   0.85167501   -7.7925651    513.34808  0.017582822  0.017521952            5 
 2434000   0.87598831    -7.798534    512.25666  0.017538231  0.017515351           10 
 2435000   0.86726368   -7.8264283    512.11048  0.017526026  0.017508714            7 
 2436000   0.85380785   -7.7998813    512.96021    0.0175479  0.017502111            6 
 2437000   0.86078184      -7.8032    512.87299  0.017537717   0.01749549            9 
 2438000   0.87577512   -7.8194892    513.41294  0.017548979   0.01748889            9 
 2439000   0.86263965    -7.783414    514.32596  0.017572979  0.017482277           13 
 2440000   0.86247061   -7.8193773     513.6152  0.017541503    0.0174757            7 
 2441000   0.84284268   -7.7939622    512.91093  0.017510274  0.017469098            7 
 2442000   0.84696209   -7.8126122    512.87941  0.017502028  0.017462461           21 
 2443000   0.86358713   -7.8211233    513.55555  0.017517927  0.017455837            7 
 2444000   0.85270547   -7.7943325    513.93715  0.017523771  0.017449222           17 
 2445000   0.85722776   -7.7756099    513.58212  0.017504503  0.017442575           16 
 2446000   0.86380395   -7.8308023     513.4911  0.017494246  0.017435961            8 
 2447000   0.86315919   -7.8202787    513.75898  0.017496219  0.017429393           10 
 2448000   0.86841969   -7.8193201    512.45625  0.017444725  0.017422818            9 
 2449000   0.86813851   -7.7999057    515.36727  0.017536657  0.017416213            5 
 2450000   0.86296007   -7.8440837    514.25835  0.017491781  0.017409603            9 
 2451000   0.86890175   -7.7906534    513.39182  0.017455182  0.017403001           11 
 2452000   0.86083347   -7.8147368    512.73611  0.017425779  0.017396364           10 
 2453000   0.85449994   -7.8114834    513.11746   0.01743163  0.017389704            7 
 2454000   0.86090402   -7.8303092    512.83974  0.017415096  0.017383052           12 
 2455000   0.86491254   -7.8246398    513.67904  0.017436492  0.017376447           12 
 2456000   0.86530678   -7.7875102    514.54962  0.017458931  0.017369845            8 
 2457000   0.86586725   -7.8311595    513.14105  0.017404051  0.017363234            9 
 2458000   0.85483713   -7.8512544    513.08651  0.017395122  0.017356595           12 
 2459000   0.87121295   -7.8299833    513.56412  0.017404233  0.017349979           11 
 2460000   0.86209062   -7.8401609    511.63515  0.017331814  0.017343307            4 
 2461000   0.87055265   -7.8424157    513.12511  0.017375224   0.01733663            8 
 2462000   0.86031344   -7.8371019    513.73661  0.017388864  0.017329964            7 
 2463000   0.84683976   -7.8771948    512.06873  0.017325373  0.017323306           11 
 2464000   0.83199181   -7.8404033    514.22807  0.017391372  0.017316632           15 
 2465000   0.87187614   -7.8201356    514.27368  0.017385858  0.017310041            8 
 2466000   0.85566053   -7.8332477    512.57472  0.017321395  0.017303414           11 
 2467000    0.8648894   -7.8401556    514.25986  0.017371297  0.017296788           14 
 2468000   0.84712492   -7.8078764    514.18767   0.01736182  0.017290202           12 
 2469000   0.87354566   -7.8550854    513.44251  0.017329638  0.017283638           22 
 2470000   0.87081952   -7.8581369    513.45418  0.017323016  0.017277006           30 
 2471000   0.87376186   -7.8743014    512.38733  0.017280026  0.017270341            8 
 2472000   0.85133048   -7.8434802    513.55894  0.017312532  0.017263731            9 
 2473000    0.8587383   -7.8564111    513.89343  0.017316803  0.017257098           15 
 2474000   0.85204996   -7.8190392    513.58348  0.017299363   0.01725052           14 
 2475000   0.87049631   -7.8310661    514.62146  0.017327322  0.017243941           20 
 2476000   0.85083612   -7.8169886    514.08589  0.017302298  0.017237333           21 
 2477000   0.86697635   -7.8983861    513.00384   0.01725891  0.017230731           11 
 2478000   0.85514983   -7.8366738    514.43552  0.017300092  0.017224119            9 
 2479000   0.86845209    -7.847471    513.53581  0.017262868  0.017217509           13 
 2480000   0.84581015   -7.8596412    513.09958  0.017241249  0.017210895           18 
 2481000   0.86222603   -7.8606774    514.56048  0.017283369  0.017204293           10 
 2482000   0.83774373   -7.8375095    512.70823  0.017214217  0.017197698           10 
 2483000   0.87716077   -7.8326364     513.6599  0.017239223  0.017191147           14 
 2484000   0.83668179   -7.8409261     514.1682  0.017249336  0.017184569           10 
 2485000   0.83486877   -7.8630184    514.79869  0.017263537     0.017178           18 
 2486000    0.8645403   -7.8043267     514.2323  0.017237607  0.017171429           10 
 2487000   0.84713203   -7.8341888    513.72572  0.017213702  0.017164867            9 
 2488000   0.84745099   -7.8513786    514.86733   0.01724502  0.017158303           17 
 2489000   0.85618881   -7.8075412    515.47677  0.017258496  0.017151772           12 
 2490000   0.82515369   -7.8141882    516.45145  0.017284185  0.017145259            8 
 2491000   0.85312149   -7.8314584    514.92986  0.017226343  0.017138785            7 
 2492000   0.85793257   -7.8006811    516.07842  0.017257839  0.017132328            9 
 2493000   0.85598171   -7.7949628    514.96069  0.017213554  0.017125929            6 
 2494000   0.83707095   -7.7574881    517.63755  0.017296096  0.017119533            5 
 2495000    0.8600398   -7.7960372    517.58316  0.017287347  0.017113138           15 
 2496000   0.84638023   -7.7749903     517.8644   0.01728981  0.017106718            9 
 2497000   0.84163478   -7.8244629    515.90514  0.017217499  0.017100286            9 
 2498000   0.85426223   -7.8178149    515.79381  0.017206893   0.01709385            7 
 2499000   0.85256534   -7.8307825    515.20326  0.017180314  0.017087426            7 
 2500000   0.85229992   -7.8755132    515.21954  0.017173985   0.01708094            6 
 2501000   0.85922952   -7.8531832    515.44385  0.017174592  0.017074454            4 
 2502000   0.83442433   -7.8225718    516.48935   0.01720255  0.017067969            5 
 2503000   0.83943263   -7.8436336    514.76824  0.017138375  0.017061479            5 
 2504000   0.85462721   -7.8395806    514.22694  0.017113516  0.017055007            2 
 2505000    0.8663728   -7.8224903    515.95599  0.017164205  0.017048529            7 
 2506000   0.84672168   -7.8209724    516.03742  0.017160063  0.017042067            9 
 2507000   0.86184288   -7.8454891    515.30215  0.017128778  0.017035628            8 
 2508000   0.86184084   -7.8003893    516.66141  0.017167112  0.017029194           12 
 2509000   0.85198526   -7.8426836    516.62329  0.017159004  0.017022748            6 
 2510000   0.85424024    -7.831332     516.5088  0.017148367  0.017016342           11 
 2511000   0.86695515   -7.8533479    515.18686  0.017097666   0.01700992            9 
 2512000   0.85585159   -7.8228058    515.57201  0.017103636  0.017003483            4 
 2513000   0.83768247   -7.8249142     516.8885  0.017140486  0.016997073            6 
 2514000   0.85689825   -7.8703683    515.66536  0.017093124  0.016990698            6 
 2515000   0.84299156   -7.8523618    516.30481  0.017107515  0.016984271            6 
 2516000   0.86504621   -7.8383118    516.85344  0.017118887  0.016977824            6 
 2517000   0.84211633   -7.8308871    516.06377  0.017085941  0.016971406            6 
 2518000    0.8423515   -7.8541948    516.90496  0.017106995  0.016965016            7 
 2519000   0.86601624   -7.8425417    517.75649  0.017128374  0.016958633            9 
 2520000   0.84514377   -7.8308024    518.70541  0.017152957  0.016952318           17 
 2521000   0.83267319   -7.8033581    517.78031  0.017115573  0.016945987           15 
 2522000   0.84908533   -7.8377359    517.19484  0.017089441  0.016939667           25 
 2523000   0.85330966   -7.8232679    517.12917  0.017080498   0.01693333           13 
 2524000   0.85325104   -7.8425035    518.35979  0.017114362  0.016926978            9 
 2525000   0.85408318   -7.8530652    517.02598  0.017063564  0.016920618           14 
 2526000   0.84925071   -7.8509107    517.64887  0.017077358  0.016914286           17 
 2527000   0.85112435   -7.8093731    518.72798  0.017106186  0.016907964           22 
 2528000   0.82866757   -7.8614414    516.17735   0.01701534  0.016901621           21 
 2529000   0.85593908    -7.799625    516.69847  0.017025783  0.016895269           17 
 2530000   0.84483333   -7.8151376    518.14849  0.017066814  0.016888917           13 
 2531000   0.84313042   -7.8836278    517.90819  0.017052159  0.016882565           14 
 2532000   0.85020534   -7.8584555    517.77657  0.017041093  0.016876195           15 
 2533000   0.85240217   -7.8495309    516.96384  0.017007627  0.016869843            7 
 2534000   0.83078681   -7.8701681    516.71668  0.016992788  0.016863457           20 
 2535000   0.86483413   -7.8833645    516.14013  0.016967131  0.016857067           10 
 2536000   0.87115006   -7.8719606    516.31635  0.016966231  0.016850692           18 
 2537000   0.84382796   -7.8293812    518.58436  0.017034041  0.016844327            7 
 2538000   0.85207741   -7.8482632    517.71753  0.016998868  0.016837971           11 
 2539000   0.84532021   -7.8421462    517.09959  0.016971891  0.016831623            8 
 2540000   0.85988297    -7.903898    518.70351  0.017017832  0.016825237           10 
 2541000   0.83900051    -7.841133    518.54026   0.01700578  0.016818872            7 
 2542000   0.84012855   -7.8234734    517.61569  0.016968781   0.01681251            5 
 2543000   0.84175908   -7.8756658    516.51305  0.016925975   0.01680616           13 
 2544000   0.84852371   -7.8876381     517.5209  0.016952335  0.016799802            4 
 2545000   0.83857524   -7.8694817    517.26952  0.016937443  0.016793443            6 
 2546000   0.84303408   -7.8767334    518.31726  0.016965085  0.016787061           10 
 2547000   0.84745833   -7.9188213    515.20819    0.0168567  0.016780696            6 
 2548000   0.87469416   -7.8686289    518.18083  0.016947306  0.016774328           12 
 2549000   0.84564174    -7.883726    517.03399  0.016903164  0.016767984            7 
 2550000   0.84548973    -7.864205    517.57992  0.016914377  0.016761654            6 
 2551000   0.84213204   -7.8867458    517.98884  0.016921104  0.016755292            6 
 2552000   0.84579496   -7.8697993    517.48445  0.016898003  0.016748956           11 
 2553000   0.84128023   -7.8640235    519.27963  0.016949981  0.016742661            9 
 2554000   0.85348291   -7.8807287    518.39492  0.016914478  0.016736374            9 
 2555000   0.84210199   -7.8671407    518.47649  0.016910518  0.016730094            5 
 2556000   0.85633495   -7.8522592    517.76695  0.016880769  0.016723813           14 
 2557000   0.83225308   -7.8989998    517.34947  0.016860562  0.016717484           15 
 2558000   0.85323997   -7.8551804    517.71801  0.016865976  0.016711148            5 
 2559000   0.82748875   -7.8809827    518.28586  0.016877878  0.016704811           11 
 2560000   0.83925694    -7.883727     518.6807  0.016884137  0.016698486            7 
 2561000   0.83484805   -7.8764115    517.98154  0.016854794   0.01669218            6 
 2562000   0.85042394   -7.8833002    518.70557  0.016871766  0.016685889           17 
 2563000   0.83570299   -7.8708382     519.0232  0.016875511  0.016679571           11 
 2564000   0.83614194   -7.9019242     519.2179  0.016875257   0.01667327           39 
 2565000   0.84730278   -7.8903416    518.78623  0.016854653  0.016666959           33 
 2566000   0.84229599   -7.8776615     517.3042  0.016799955   0.01666063           44 
 2567000   0.84440946   -7.8824413    518.79135  0.016841688  0.016654329           22 
 2568000   0.86045273   -7.8915548    518.07447  0.016811866  0.016648041           21 
 2569000   0.84461824   -7.9116751    518.38807  0.016815495  0.016641718           29 
 2570000   0.83776513   -7.8974786      516.828  0.016758366  0.016635374           63 
 2571000   0.84485713   -7.9259341    517.66954  0.016779124  0.016629019           31 
 2572000   0.83854818   -7.9028242    516.86342  0.016746482  0.016622664           59 
 2573000   0.82312042   -7.8954001    518.54948  0.016794581  0.016616289           43 
 2574000   0.82526948   -7.9135422    517.62249  0.016758045  0.016609919           37 
 2575000   0.83760901   -7.9288464    516.62271  0.016719181  0.016603561           48 
 2576000   0.85765423   -7.8978257    517.86667  0.016752933  0.016597188           73 
 2577000    0.8254611   -7.9094841    518.80054  0.016776631  0.016590817           66 
 2578000   0.85320274   -7.8853222    518.85468  0.016771874  0.016584467           68 
 2579000   0.83152646   -7.9210753    517.79727  0.016731203  0.016578126           88 
 2580000   0.81723497   -7.9345094    517.22311  0.016706173  0.016571764           62 
 2581000   0.83214127   -7.9266358    517.49542  0.016708492  0.016565391           53 
 2582000   0.82134231   -7.9251349    518.26954  0.016727005   0.01655904           99 
 2583000   0.83747763   -7.9482485    517.67439  0.016701329  0.016552673           91 
 2584000   0.84232659   -7.9060924    518.11566  0.016709096   0.01654629           74 
 2585000   0.85533087   -7.9227492    517.74272   0.01669061   0.01653992           74 
 2586000   0.83326997   -7.9148467    518.32446  0.016702902  0.016533571           95 
 2587000   0.84075583   -7.9404394    517.76574  0.016678448  0.016527194           83 
 2588000   0.82536426   -7.9160443    517.26789  0.016655973  0.016520823           75 
 2589000   0.83761302   -7.9170598    518.16668  0.016678469  0.016514454          100 
 2590000   0.84277669   -7.9369616    518.35433  0.016678067  0.016508092           98 
 2591000   0.82965103   -7.9022891    517.74361  0.016651988  0.016501739          123 
 2592000   0.83368716   -7.9340406    517.32324  0.016632049  0.016495386          156 
 2593000   0.84485218   -7.9320207    517.71959  0.016638372  0.016489017          175 
 2594000   0.82420176   -7.9350975    517.28843  0.016618107  0.016482638          160 
 2595000   0.83551656   -7.9171633    516.68127  0.016592205  0.016476268          191 
 2596000   0.82164458   -7.9676613    517.17828  0.016601768  0.016469888          206 
 2597000   0.82298056   -7.9237899    517.77336   0.01661447  0.016463497          234 
 2598000   0.85695726   -7.9551904    516.55521  0.016569002  0.016457101          173 
 2599000   0.83386138   -7.9424023    516.74544  0.016568726   0.01645066          198 
 2600000   0.82463082   -7.9351066    517.04232  0.016571869  0.016444267          179 
 2601000   0.83675465   -7.9237455    517.07667  0.016566598  0.016437875          221 
 2602000   0.85528421    -7.926463     517.7698   0.01658243  0.016431502          274 
 2603000   0.84986369   -7.9248691    516.37169    0.0165313   0.01642511          255 
 2604000   0.82985714   -7.9416396    517.95424  0.016575597  0.016418699          282 
 2605000   0.84992648   -7.9685856    516.63669  0.016527085    0.0164123          287 
 2606000   0.83718334   -7.9625743    517.36181  0.016543931  0.016405862          263 
 2607000   0.84440274   -7.9624147    516.27781  0.016502935  0.016399424          303 
 2608000   0.82820909   -7.9584901    517.66651   0.01654098  0.016392955          314 
 2609000   0.82423241   -7.9427235    516.92347  0.016510907  0.016386503          296 
 2610000   0.82860112   -7.9325275    516.09817   0.01647823  0.016380064          309 
 2611000   0.83229735    -7.938393    517.08638  0.016503459   0.01637362          359 
 2612000   0.82915283   -7.9689626    517.02303   0.01649512  0.016367172          361 
 2613000   0.83877816   -7.9529458    517.89564  0.016516636  0.016360717          331 
 2614000   0.83246226   -7.9615412    517.13208  0.016485976  0.016354296          336 
 2615000   0.83998918   -7.9726637    515.97185  0.016442698  0.016347843          344 
 2616000   0.82685772   -7.9687096     516.9455  0.016467428  0.016341403          374 
 2617000    0.8286633   -7.9656696    516.01583  0.016431532  0.016334965          368 
 2618000    0.8300645   -7.9434778    518.99547    0.0165201  0.016328532          389 
 2619000   0.83610116   -7.9553414    517.14304  0.016454851  0.016322135          339 
 2620000   0.85950177   -8.0030855    515.65359  0.016401196  0.016315698          421 
 2621000   0.83023303   -7.9749297    516.58871   0.01642467  0.016309242          388 
 2622000   0.84005529   -7.9989313    517.04887  0.016433031  0.016302795          455 
 2623000   0.84287124   -7.9771867     516.3948  0.016405986  0.016296335          420 
 2624000   0.82994608   -8.0007965    515.91518  0.016384501  0.016289869          452 
 2625000   0.84885748    -8.019056    516.12186  0.016384821  0.016283376          483 
 2626000   0.83135278   -7.9902656    515.56413  0.016360883  0.016276849          556 
 2627000    0.8325843   -8.0217365    515.29165  0.016346011  0.016270349          575 
 2628000   0.84618435   -8.0073301    515.39058  0.016342928   0.01626383          601 
 2629000   0.83887854   -7.9515583    517.09518  0.016390744  0.016257335          541 
 2630000   0.84730811   -8.0185081    515.11779  0.016321857  0.016250853          743 
 2631000    0.8351354   -8.0201078    517.50459  0.016391252  0.016244316          711 
 2632000   0.82823834   -8.0386045    514.52236  0.016290601  0.016237782          649 
 2633000    0.8457682   -8.0481269    515.42167  0.016312877   0.01623124          761 
 2634000   0.81680089   -8.0243204    514.73631  0.016285001  0.016224708          778 
 2635000   0.82847794   -8.0714576    514.10746  0.016258933   0.01621815          812 
 2636000   0.83873802   -8.0469791    515.58065  0.016299338  0.016211618          804 
 2637000   0.82581333   -8.0558531    515.89818  0.016303191  0.016205055          888 
 2638000   0.82559124   -8.0473287    515.11514  0.016272275  0.016198491          837 
 2639000   0.83930037    -8.050779    514.58313  0.016249309   0.01619192          932 
 2640000   0.82426477   -8.0722783    514.90008  0.016253159  0.016185355          908 
 2641000   0.84438556   -8.0769855     514.8796  0.016246359  0.016178784          980 
 2642000   0.84127685   -8.0290489    515.79108  0.016268959  0.016172238         1000 
 2643000   0.85479277   -8.0581063    515.90166   0.01626629   0.01616569          960 
 2644000   0.82054961   -8.0676851    515.35968  0.016243056  0.016159127         1011 
 2645000   0.83879061    -8.102953    513.80887  0.016188055  0.016152527         1077 
 2646000   0.83470729   -8.0866108    513.07933  0.016158961  0.016145901         1120 
 2647000   0.82357305   -8.1278397    513.28196  0.016159235  0.016139282         1076 
 2648000   0.82587083   -8.1563124    513.61066  0.016163478   0.01613264         1214 
 2649000   0.85069211   -8.1162384    515.06926  0.016203261   0.01612602         1218 
 2650000    0.8313786   -8.1083495    513.59447   0.01615077  0.016119404         1233 
 2651000   0.82525503   -8.1542165    513.11973  0.016129754  0.016112758         1270 
 2652000   0.84214356   -8.1462732    513.01206  0.016120289  0.016106105         1242 
 2653000   0.81656251    -8.172581    512.94357  0.016112061  0.016099428         1328 
 2654000   0.83260447   -8.1594047    510.98718  0.016044561  0.016092722         1432 
 2655000   0.83806339   -8.1717385    512.60485  0.016089292  0.016085995         1357 
 2656000   0.82112663    -8.195121    511.26936  0.016041333  0.016079273         1480 
 2657000   0.82451143   -8.2040751    512.11061   0.01606168   0.01607255         1527 
 2658000   0.82551102   -8.1955745    512.59208  0.016070732  0.016065822         1483 
 2659000   0.82816342   -8.1977431     511.8107    0.0160402  0.016059067         1587 
 2660000   0.82174002   -8.2197127    511.21325  0.016015453  0.016052318         1735 
 2661000   0.81423855   -8.2384494     509.5633  0.015957763  0.016045545         1673 
 2662000   0.80650231    -8.233531    510.96074  0.015995515  0.016038739         1754 
 2663000   0.82810462   -8.2223222    510.50701   0.01597531  0.016031916         1862 
 2664000   0.83302407   -8.2787936    508.88652  0.015918622  0.016025093         1905 
 2665000   0.81692542   -8.2622807    510.22176  0.015954401  0.016018255         1929 
 2666000   0.83024564   -8.2772703    509.24003   0.01591773  0.016011398         2090 
 2667000   0.85253436   -8.2894788    509.75872  0.015927969  0.016004527         2104 
 2668000   0.81743747   -8.2891381    509.15075  0.015903009  0.015997635         2204 
 2669000   0.83883593   -8.3093173     508.1875  0.015866976  0.015990723         2310 
 2670000   0.80176427    -8.320163    508.83423  0.015881218  0.015983792         2344 
 2671000   0.81527527   -8.3299922     509.3442  0.015891183  0.015976857         2356 
 2672000   0.81798911   -8.3154635    508.12429   0.01584719  0.015969865         2438 
 2673000   0.83541851   -8.3829129    507.56063  0.015823688  0.015962867         2504 
 2674000   0.81079983   -8.3537664     506.8976  0.015797108  0.015955863         2601 
 2675000   0.82133776   -8.3424291    508.71148   0.01584771  0.015948857         2643 
 2676000   0.82204662   -8.3615642    506.80299  0.015782355  0.015941804         2763 
 2677000   0.82787891   -8.3911401    507.24567   0.01579024  0.015934746         2782 
 2678000   0.83034001   -8.3981178    506.90329   0.01577369  0.015927665         2787 
 2679000   0.82307374   -8.4334421    506.07913  0.015742165   0.01592056         2959 
 2680000   0.80655208   -8.4202731    505.40087  0.015715201  0.015913426         3022 
 2681000   0.83004816   -8.4628498    504.81603  0.015691161  0.015906293         3144 
 2682000   0.83012379   -8.4363417    505.37964  0.015702822  0.015899133         3127 
 2683000   0.81003876    -8.475873    503.82779   0.01564877  0.015891946         3249 
 2684000   0.82920922   -8.4986301    504.36329  0.015659566  0.015884751         3364 
 2685000   0.82025276   -8.5039008    504.30768  0.015652008  0.015877523         3352 
 2686000   0.81591821   -8.5107959    503.32376  0.015615654  0.015870276         3485 
 2687000   0.81462985   -8.5161199    503.81931  0.015625211  0.015863001         3415 
 2688000   0.81941899   -8.5151945    503.36344  0.015605265  0.015855708         3583 
 2689000   0.80848338   -8.5370285    503.90318  0.015616189  0.015848406         3628 
 2690000   0.82549777    -8.539027    502.74793  0.015574595  0.015841082         3601 
 2691000   0.81470261   -8.5386879    503.03624  0.015577736  0.015833769         3582 
 2692000   0.82999927   -8.5488508     501.9971  0.015539781  0.015826442         3698 
 2693000   0.82087972   -8.5420645      503.169  0.015570275  0.015819128         3580 
 2694000   0.81563129   -8.5636688    502.08621  0.015531001  0.015811819         3638 
 2695000     0.820041   -8.5673155    502.32496  0.015532621  0.015804509         3709 
 2696000   0.80481561   -8.5724908    502.84065  0.015542799  0.015797179         3688 
 2697000   0.80645801   -8.5778956      503.445   0.01555571  0.015789849         3640 
 2698000   0.81579073   -8.5511724    503.80777  0.015561149  0.015782527         3593 
 2699000   0.80527199   -8.5888096    502.13108  0.015503615  0.015775203         3692 
 2700000   0.83093291   -8.5982907     501.4063  0.015475503   0.01576787         3750 
 2701000    0.8046999   -8.6021527    502.80784  0.015513015  0.015760547         3751 
 2702000   0.81437106   -8.5997199    502.34697   0.01549306   0.01575321         3698 
 2703000   0.83683735   -8.6226598    501.71318  0.015467788  0.015745856         3768 
 2704000   0.81378887   -8.5859998    502.41978  0.015483844   0.01573851         3716 
 2705000   0.79753874   -8.5966904    502.66796  0.015485766  0.015731173         3773 
 2706000   0.81541938    -8.611334    502.57782  0.015477267  0.015723837         3772 
 2707000   0.81571533   -8.6314497    501.28093  0.015431626  0.015716486         3738 
 2708000   0.81127735   -8.6095372    502.69278  0.015469374  0.015709137         3807 
 2709000   0.81105435   -8.6197052    501.49959  0.015426959  0.015701773         3779 
 2710000   0.80511847   -8.6226969    501.58966  0.015424036  0.015694434         3823 
 2711000    0.8245232   -8.6226687    502.14076  0.015435287  0.015687092         3832 
 2712000   0.80665742   -8.6435748    500.83131  0.015389359   0.01567973         3834 
 2713000   0.81207067   -8.6248834    501.61074  0.015407628  0.015672357         3785 
 2714000   0.82997729   -8.6703508    500.94795    0.0153816  0.015664983         3835 
 2715000   0.81078472   -8.6047993    501.68022  0.015398411  0.015657637         3778 
 2716000    0.8082028   -8.6285588    501.45948  0.015385968  0.015650279         3800 
 2717000   0.81079865   -8.6235853    500.70607  0.015357197  0.015642916         3810 
 2718000   0.81479368   -8.6520961    499.10539  0.015302471  0.015635552         3833 
 2719000   0.79768418   -8.6224743    500.64348  0.015343983  0.015628189         3812 
 2720000    0.8249388   -8.6319973    500.47768  0.015333262  0.015620834         3816 
 2721000   0.81109198   -8.6446158    500.42806  0.015326108  0.015613492         3825 
 2722000    0.8187258   -8.6461031     501.2468  0.015345542  0.015606137         3832 
 2723000   0.83165681   -8.6516318    501.65373   0.01535236  0.015598798         3818 
 2724000   0.79780354   -8.6550242    501.01787  0.015327272   0.01559145         3812 
 2725000   0.81466534   -8.6551012    500.58058  0.015308275   0.01558411         3811 
 2726000   0.80776117   -8.6552779    500.76218   0.01530821  0.015576778         3833 
 2727000   0.81888495   -8.6541617    501.22125  0.015316625  0.015569439         3851 
 2728000   0.80412463   -8.6517736    499.38416  0.015254892  0.015562116         3832 
 2729000   0.81250311   -8.6862764    500.90544  0.015295757   0.01555478         3852 
 2730000   0.82676197   -8.6508632    502.04262  0.015324866  0.015547428         3815 
 2731000   0.79281561   -8.6717151    500.02504  0.015257691  0.015540085         3813 
 2732000   0.79154032   -8.6646301    500.07675  0.015253683  0.015532751         3845 
 2733000     0.822164    -8.662722    499.51828  0.015231073  0.015525409         3847 
 2734000   0.80325964   -8.6303651    501.17866  0.015276111  0.015518079         3841 
 2735000    0.8354078   -8.6570795    500.84486  0.015260355  0.015510751         3826 
 2736000    0.8237663   -8.6408078    500.68629  0.015249948  0.015503421         3810 
 2737000   0.80916935   -8.6897604    499.30727  0.015202389  0.015496087         3829 
 2738000   0.81342546   -8.6444009    499.84402  0.015213173  0.015488756         3853 
 2739000   0.78894866   -8.6747732    500.97039  0.015241888   0.01548143         3813 
 2740000    0.8106173   -8.6796087    500.53147  0.015222977    0.0154741         3844 
 2741000    0.8187903   -8.6570785    500.23928  0.015208539  0.015466775         3852 
 2742000   0.80162941   -8.6898114    499.32698  0.015175267  0.015459437         3817 
 2743000   0.80866833   -8.6922517    499.74708  0.015182497  0.015452111         3830 
 2744000   0.80034797   -8.6739255    500.25591  0.015192417  0.015444774         3857 
 2745000   0.82396901   -8.6973058    500.29926  0.015188199  0.015437452         3831 
 2746000   0.79249846   -8.6232577    500.86345  0.015199789  0.015430132         3816 
 2747000   0.82047146   -8.6712536    499.41096  0.015150193  0.015422819         3809 
 2748000   0.79989215   -8.6698492    498.95161   0.01513075  0.015415502         3837 
 2749000   0.81023154   -8.6658156    500.84653  0.015182688  0.015408186         3857 
 2750000   0.81017425   -8.6757941    500.40968   0.01516393  0.015400879         3854 
 2751000   0.80954784   -8.6564662    499.77507  0.015139194  0.015393585         3798 
 2752000   0.81030209   -8.6701346    500.36354  0.015151512  0.015386294         3833 
 2753000   0.82806579   -8.7057571    499.36947  0.015115918  0.015379001         3847 
 2754000    0.8048499   -8.6908651    500.67494  0.015149932  0.015371711         3818 
 2755000   0.82200398   -8.6716652    500.58622  0.015141749  0.015364426         3815 
 2756000   0.80593176   -8.6705927    500.36195  0.015129474  0.015357148         3820 
 2757000   0.81845983   -8.6847034    500.28054  0.015121525  0.015349873         3794 
 2758000   0.80848703   -8.6669601    500.98172  0.015137229  0.015342587         3819 
 2759000   0.81790968   -8.6912775    499.40474  0.015084111  0.015335306         3781 
 2760000   0.81596704   -8.6838522    499.63138  0.015085489  0.015328034         3790 
 2761000   0.80627277   -8.6953703    500.13273  0.015095157  0.015320759         3819 
 2762000   0.82286767   -8.6399348    499.92763  0.015083503  0.015313489         3840 
 2763000   0.79163141   -8.6817641    499.71185  0.015071536  0.015306217         3833 
 2764000    0.8286232   -8.6688288    500.26806  0.015082853  0.015298951         3805 
 2765000   0.79587476   -8.6900807    499.48183  0.015053702  0.015291701         3827 
 2766000    0.7890713   -8.6927732    499.96305  0.015062758  0.015284446         3836 
 2767000   0.81090192   -8.6871018    499.98526  0.015057983  0.015277201         3832 
 2768000   0.80084646   -8.6855158    499.81462  0.015047406  0.015269954         3831 
 2769000   0.81409439   -8.6620765    500.82837   0.01507248  0.015262723         3794 
 2770000   0.80858635   -8.6751048    499.45841  0.015025825  0.015255479         3827 
 2771000   0.80416546   -8.7009593    499.49276  0.015021435  0.015248243         3823 
 2772000   0.81425897    -8.677029    499.71482  0.015022692  0.015241006         3853 
 2773000   0.80000922   -8.6742257    500.57534  0.015043134  0.015233773         3785 
 2774000    0.8140685   -8.6746771    499.65443  0.015010046  0.015226557         3799 
 2775000   0.80202803   -8.6969373     499.9871  0.015014628  0.015219341         3852 
 2776000   0.79624064   -8.6630832    500.39401  0.015021434  0.015212123         3837 
 2777000   0.81672207   -8.6886042    499.45839  0.014987948  0.015204908         3839 
 2778000   0.80055905   -8.7036619    499.26985  0.014976897  0.015197691         3842 
 2779000   0.81898452   -8.6676935    501.33868  0.015033546  0.015190476         3869 
 2780000   0.80996735   -8.6749373    500.82264  0.015012669  0.015183267         3811 
 2781000   0.80547186   -8.6889644    499.20589  0.014958824  0.015176073         3835 
 2782000   0.80283202   -8.6617651    498.19693  0.014923225  0.015168883         3805 
 2783000   0.79875479   -8.7141801    499.21679  0.014948401   0.01516169         3889 
 2784000   0.80372332   -8.6938607    499.45035  0.014950022  0.015154498         3846 
 2785000   0.80586138    -8.674974    500.42166  0.014973718  0.015147306         3824 
 2786000   0.80531251   -8.6797891    499.20302  0.014931892  0.015140118         3837 
 2787000   0.81791104   -8.6919058    499.22087  0.014927068   0.01513293         3832 
 2788000   0.79518802   -8.6893738     499.6722  0.014935205   0.01512575         3841 
 2789000   0.80230158   -8.7127124    498.37771  0.014891171  0.015118573         3862 
 2790000   0.79914072   -8.6794681    500.65893   0.01495397    0.0151114         3850 
 2791000   0.79883284   -8.6841032    499.03761  0.014900203   0.01510422         3809 
 2792000    0.7845252   -8.7116252    498.84477  0.014889111  0.015097028         3838 
 2793000   0.80326292   -8.6721955    500.07572  0.014920507  0.015089861         3864 
 2794000   0.79131434   -8.6717486    499.75128   0.01490549  0.015082686         3831 
 2795000   0.79916469   -8.7047486    499.17613  0.014883009  0.015075521         3802 
 2796000   0.80259241    -8.668997    500.20306  0.014908293  0.015068362         3803 
 2797000   0.79589151   -8.6687425    500.09848  0.014899847   0.01506121         3831 
 2798000    0.7975093   -8.6917747    499.88317   0.01488811  0.015054064         3809 
 2799000    0.8037694   -8.6697012      500.835  0.014911129  0.015046915         3834 
 2800000   0.80760806   -8.7009675     499.8993  0.014877955  0.015039775         3841 
 2801000   0.80846159   -8.6767041    500.22504  0.014882335  0.015032646         3837 
 2802000   0.79903082   -8.6885833    499.43674  0.014853579  0.015025522         3845 
 2803000   0.79325778   -8.6965238    500.45869  0.014878662  0.015018378         3829 
 2804000   0.80607968   -8.7049578    499.49514   0.01484472  0.015011252         3859 
 2805000   0.81285341   -8.6990119    500.37945    0.0148657  0.015004133         3834 
 2806000   0.80927086   -8.6979303    499.76814  0.014842247  0.014997013         3859 
 2807000   0.79137806   -8.6987624    498.95569   0.01481284  0.014989893         3852 
 2808000    0.8082526   -8.6847835    500.32788  0.014848287  0.014982786         3807 
 2809000   0.82129726   -8.6940037    500.12627   0.01483702  0.014975668         3815 
 2810000   0.78949971   -8.7110802    499.61012  0.014816433  0.014968567         3852 
 2811000   0.79937115   -8.7056707    499.98287  0.014822213  0.014961466         3868 
 2812000   0.78826474   -8.6953958    499.59185  0.014805354  0.014954372         3823 
 2813000   0.80333418   -8.6620321    501.34833  0.014852125  0.014947281         3840 
 2814000     0.798476   -8.6437886    499.89903  0.014803928  0.014940209         3793 
 2815000   0.81049126    -8.703275    498.95087    0.0147706  0.014933141         3818 
 2816000   0.80587064   -8.6792761    499.85352  0.014792067  0.014926059         3801 
 2817000   0.79622256   -8.6878759    497.95247  0.014730578  0.014918979         3832 
 2818000   0.79939542   -8.7002649    499.86959  0.014782044  0.014911908         3838 
 2819000    0.7997203   -8.7293808    499.02926  0.014751959  0.014904839         3877 
 2820000   0.80651135   -8.7119335    499.60214  0.014763657  0.014897769         3843 
 2821000   0.80749819   -8.7202512    499.65173  0.014759888  0.014890706         3886 
 2822000   0.80057051    -8.703333     498.7436  0.014727841  0.014883638         3883 
 2823000   0.81562777   -8.6969265    499.72835  0.014751693  0.014876573         3850 
 2824000   0.78621442   -8.7176878    500.34896  0.014764783  0.014869521         3835 
 2825000   0.80652564   -8.7073329    499.79145   0.01474311  0.014862462         3854 
 2826000   0.78150175   -8.7176011    498.47745  0.014699146  0.014855405         3875 
 2827000   0.81383151   -8.6990524    499.40332  0.014721239  0.014848352         3844 
 2828000   0.80378738    -8.717491    498.45626  0.014688127  0.014841309         3842 
 2829000   0.81297782   -8.6975965    499.01982  0.014699535  0.014834259         3819 
 2830000   0.80448879   -8.6947864    499.81962  0.014717892  0.014827224         3843 
 2831000   0.79761969   -8.7311998    499.69253  0.014708952  0.014820194         3841 
 2832000    0.8101748   -8.7138403    499.76342  0.014705845  0.014813159         3824 
 2833000   0.79747822   -8.7180982    499.72024  0.014699383  0.014806133         3844 
 2834000   0.80689673   -8.6951582    499.17845  0.014678265  0.014799105         3821 
 2835000   0.78930295   -8.7185967    498.76543  0.014660947  0.014792077         3788 
 2836000   0.80384852   -8.7059326    500.05757  0.014693746   0.01478506         3834 
 2837000   0.81494044   -8.7334828    498.44229   0.01464112  0.014778038         3842 
 2838000   0.79538132   -8.6862237    501.52522  0.014726486  0.014771015         3794 
 2839000   0.77617492    -8.709582    499.05501  0.014648791  0.014763998         3825 
 2840000   0.79348282    -8.739559    499.62424  0.014660336  0.014756989         3837 
 2841000   0.80884856   -8.6941743    499.26456  0.014644625  0.014749986         3890 
 2842000   0.79872432   -8.7126261    498.58131  0.014619438  0.014742984         3842 
 2843000   0.80389088    -8.723265    499.68965  0.014646783  0.014735987         3861 
 2844000   0.79993625   -8.6894372    500.57147  0.014667471  0.014728987         3863 
 2845000   0.78833236   -8.7312177    499.10518  0.014619367  0.014721986         3850 
 2846000   0.80378805   -8.7218562    498.36238   0.01459248  0.014714983         3825 
 2847000   0.79936617   -8.7301996    499.07335  0.014608165  0.014707986         3855 
 2848000   0.77824475    -8.680748    499.73538  0.014622407  0.014700983         3839 
 2849000   0.79766949   -8.7119244    499.19377  0.014601432  0.014693991         3871 
 2850000   0.78542334   -8.7188014    498.68596  0.014581461  0.014687002         3872 
 2851000   0.77303502   -8.7231854    498.90774  0.014582829  0.014680022         3863 
 2852000   0.77727338   -8.7252176    499.42396  0.014592799  0.014673041         3855 
 2853000   0.79261866   -8.7108483    499.07629  0.014577529  0.014666078         3845 
 2854000   0.80541318   -8.7164681    499.21201  0.014576384  0.014659107         3851 
 2855000   0.81228799   -8.7363276    499.78553  0.014588019  0.014652153         3850 
 2856000   0.80430658   -8.6997697    499.32265  0.014569405  0.014645196         3854 
 2857000   0.78473827   -8.7439305    498.84246  0.014550299  0.014638236         3880 
 2858000   0.78829834   -8.7321484     499.0628  0.014551633  0.014631287         3839 
 2859000   0.78962133    -8.723823    499.42927  0.014557225  0.014624336         3850 
 2860000   0.79906723   -8.6980315    498.81864  0.014534343  0.014617382         3819 
 2861000   0.78570867   -8.7217295    499.32802  0.014544099  0.014610431         3858 
 2862000   0.80704413   -8.7112053    499.82411  0.014553462    0.0146035         3841 
 2863000   0.78057333   -8.7193458    499.50946   0.01453922  0.014596567         3849 
 2864000   0.78070774   -8.7392742    499.51375  0.014534269  0.014589632         3834 
 2865000   0.78271726   -8.7066662    499.18898  0.014519749  0.014582697         3856 
 2866000   0.81413882    -8.703961    498.78373    0.0145029  0.014575771         3825 
 2867000   0.78326069   -8.7301334     498.5647  0.014491475  0.014568848         3843 
 2868000   0.82066298    -8.735345    499.00806  0.014499304  0.014561914         3854 
 2869000   0.79522894   -8.7263203    498.99885  0.014493983  0.014554979         3854 
 2870000   0.77914942   -8.7196171    498.70366  0.014480362  0.014548053         3870 
 2871000   0.80000503   -8.7348716    499.02284  0.014484583  0.014541137         3866 
 2872000   0.78008529    -8.740252    498.07006  0.014451893  0.014534213         3852 
 2873000   0.79972673   -8.7165783    498.99042  0.014473559  0.014527286         3851 
 2874000   0.78591245   -8.7548158    498.20652  0.014445793  0.014520363         3884 
 2875000   0.80222822   -8.7236085    499.55564  0.014479873  0.014513444         3862 
 2876000   0.78631267   -8.7365687    498.66594  0.014449059   0.01450653         3873 
 2877000   0.79138585   -8.7270622    499.46477  0.014467176  0.014499609         3849 
 2878000   0.80946665   -8.7304997    498.58811  0.014436765  0.014492706         3857 
 2879000   0.78727124   -8.7201288    498.86717  0.014439828  0.014485795         3846 
 2880000   0.80908966   -8.7399314    498.05633  0.014411352  0.014478897         3862 
 2881000   0.79088946   -8.7483724    498.63118  0.014422978  0.014472004         3866 
 2882000    0.7869493   -8.7639881    498.63259  0.014418014  0.014465101         3879 
 2883000   0.79545097   -8.7221832    499.35268  0.014433827  0.014458201         3827 
 2884000   0.79037574   -8.7208785    497.55327  0.014376828  0.014451313         3830 
 2885000   0.76729221   -8.7299855    499.74868   0.01443526  0.014444433         3851 
 2886000   0.77651468   -8.7317559    498.58017  0.014396517  0.014437549         3834 
 2887000   0.79521234   -8.7404927    497.15855  0.014350495  0.014430666         3863 
 2888000   0.79358442   -8.7252807    499.21828   0.01440496  0.014423783         3850 
 2889000   0.78844713    -8.732749    497.83069  0.014359948  0.014416911         3860 
 2890000   0.78460415   -8.7132058    498.91112  0.014386134  0.014410043         3848 
 2891000   0.80132879   -8.7559828     498.7017  0.014375121  0.014403178         3830 
 2892000   0.79018144   -8.7418728    498.31821    0.0143591  0.014396322         3828 
 2893000   0.79026604   -8.7291293    499.09531  0.014376521  0.014389467         3824 
 2894000   0.78679273     -8.75955    498.52641  0.014355172   0.01438262         3818 
 2895000   0.79275733   -8.7494574     497.8276  0.014330098  0.014375776         3858 
 2896000   0.79900996   -8.7259931    499.18946  0.014364338  0.014368922         3844 
 2897000   0.79768215   -8.7318426    498.35357  0.014335335  0.014362081         3825 
 2898000   0.78482759   -8.7366128    498.71741   0.01434085  0.014355245         3838 
 2899000   0.77944807   -8.7108602    498.45484  0.014328356  0.014348409         3837 
 2900000   0.80133216   -8.7664544    498.09777  0.014313154  0.014341581         3850 
 2901000   0.79728969   -8.7528279    498.50699  0.014319976  0.014334765         3856 
 2902000   0.79866446   -8.7386992    497.69377  0.014291689   0.01432794         3847 
 2903000   0.80323039    -8.762697    498.99567  0.014324138  0.014321119         3848 
 2904000   0.80724508    -8.749267    498.82056  0.014314181  0.014314307         3829 
 2905000   0.80062416   -8.7497779    497.91915  0.014283395  0.014307487         3838 
 2906000   0.80164502   -8.7322041    499.23885  0.014316324  0.014300671         3863 
 2907000   0.78897714   -8.7353412    499.04059  0.014305716  0.014293864         3858 
 2908000   0.77514862   -8.7539588    497.28856  0.014250589  0.014287052         3844 
 2909000   0.77720292   -8.7772161    499.36756  0.014305247  0.014280254         3823 
 2910000   0.78394543   -8.7330577    499.19244  0.014295316  0.014273457         3852 
 2911000   0.80874306   -8.7590862    499.12913  0.014288593  0.014266661         3865 
 2912000    0.7929022    -8.731292    497.90625  0.014248691   0.01425987         3863 
 2913000    0.7828433   -8.7390661    498.44051  0.014259083  0.014253081         3840 
 2914000   0.79974921   -8.7789293    498.10374  0.014244559  0.014246299         3849 
 2915000   0.79396846   -8.7404436    497.89244  0.014233632  0.014239521         3842 
 2916000   0.79362129   -8.7519531    496.87923  0.014199795  0.014232747         3844 
 2917000   0.78677121   -8.7486943    498.08145  0.014229272  0.014225979         3851 
 2918000   0.77579403   -8.7542831     498.6585  0.014240875  0.014219217         3856 
 2919000   0.79251999   -8.7702264    498.82064  0.014240626  0.014212451         3848 
 2920000   0.77835385   -8.7590868    498.08799   0.01421484  0.014205702         3874 
 2921000   0.79515413   -8.7245358    497.56824  0.014195145  0.014198949         3861 
 2922000   0.78941426    -8.754038    499.05105  0.014232576  0.014192202         3864 
 2923000   0.78183804    -8.759214    498.08293  0.014200106  0.014185459         3859 
 2924000   0.79621172   -8.7434351    499.40475  0.014232921  0.014178718         3876 
 2925000   0.78433022   -8.7558112    498.91764  0.014214178  0.014171985         3908 
 2926000   0.77101377   -8.7316303    499.14282  0.014215733  0.014165247         3887 
 2927000   0.77766182   -8.7611405    498.87828  0.014203345  0.014158514         3869 
 2928000   0.77771482    -8.786204     499.0495  0.014203367  0.014151788         3863 
 2929000   0.77466905    -8.763282     498.5094  0.014183151  0.014145066         3885 
 2930000     0.772799   -8.7288745    499.27851  0.014200185  0.014138358         3857 
 2931000    0.7990522   -8.7209853    498.98352  0.014186953  0.014131642         3860 
 2932000   0.77991034   -8.7581228    497.49341  0.014139763  0.014124933         3870 
 2933000   0.76508652   -8.7756986    498.60718  0.014166587  0.014118226         3873 
 2934000   0.77313736   -8.7526886    498.32826  0.014153836  0.014111531         3878 
 2935000   0.78964948   -8.7698916    498.07415  0.014141799  0.014104827         3874 
 2936000   0.77680882   -8.7486291    498.67585   0.01415406  0.014098127         3861 
 2937000   0.78020024   -8.7753162    496.92007  0.014099423   0.01409144         3875 
 2938000   0.79293208   -8.7658449    498.34916  0.014135159  0.014084743         3857 
 2939000   0.79109195    -8.781944    498.08639  0.014122899  0.014078053         3891 
 2940000   0.77213535   -8.7412435    498.34221  0.014125346  0.014071372         3864 
 2941000    0.7909732   -8.7658015     497.4329  0.014094778   0.01406469         3899 
 2942000    0.7819367   -8.7317205    498.24945  0.014113116  0.014057998         3868 
 2943000   0.77996753   -8.7492755    497.90471  0.014098559  0.014051327         3878 
 2944000    0.7755394   -8.7674867    497.69073  0.014087713  0.014044654         3871 
 2945000   0.77538478   -8.7894857    498.11333  0.014094888  0.014037987         3880 
 2946000   0.79521671   -8.7718689     497.3902  0.014069648  0.014031324         3866 
 2947000   0.78590692   -8.7326332      497.655  0.014072362  0.014024661         3876 
 2948000   0.78964351   -8.7727531    498.15165  0.014081627  0.014018007         3903 
 2949000    0.7671355   -8.7489787    498.33583  0.014082057  0.014011341         3876 
 2950000   0.78017019   -8.7523179    497.95717  0.014066587  0.014004679         3864 
 2951000   0.78408564   -8.7641319    498.14432  0.014067105  0.013998039         3872 
 2952000   0.77838674    -8.752015    499.14479  0.014090582  0.013991392         3917 
 2953000   0.78424645   -8.7669026    498.25877  0.014060807  0.013984749         3873 
 2954000   0.78033756   -8.7556128    498.88078  0.014073594   0.01397811         3860 
 2955000   0.77511545   -8.7753046    498.39775   0.01405521  0.013971463         3847 
 2956000   0.76641672   -8.7495892    497.75712  0.014032395  0.013964829         3842 
 2957000   0.78228865    -8.775375    497.53667  0.014021437  0.013958196         3879 
 2958000   0.77517679   -8.7600327    498.81914  0.014052827  0.013951563         3864 
 2959000   0.78844745   -8.7519214    497.82551  0.014020094  0.013944944         3790 
 2960000   0.76089647   -8.7731846    497.67733  0.014011186  0.013938324         3866 
 2961000   0.78153551   -8.7593463    496.72987  0.013979789  0.013931709         3858 
 2962000   0.77654745   -8.7742075    497.88076  0.014007449  0.013925103         3891 
 2963000   0.77698954   -8.7430554    498.27932  0.014013931  0.013918491         3875 
 2964000   0.77850233    -8.756494     497.6985  0.013992873  0.013911894         3880 
 2965000   0.77038104   -8.7778063    497.62538  0.013986098  0.013905288         3876 
 2966000   0.76277306   -8.7617734    498.95823  0.014018831  0.013898699         3862 
 2967000   0.75180057   -8.7855732    496.81471  0.013953902    0.0138921         3892 
 2968000   0.79103546   -8.7504308    499.52027  0.014025165  0.013885518         3882 
 2969000   0.75884022   -8.7722646    497.32679  0.013958875  0.013878937         3875 
 2970000    0.7757008    -8.748162    499.53042  0.014016005  0.013872358         3865 
 2971000    0.7759044   -8.7733461    497.79673  0.013962659  0.013865777         3860 
 2972000    0.7860126   -8.7530821    498.80165  0.013986139  0.013859199         3863 
 2973000   0.77895771   -8.7460417    498.15745  0.013963377  0.013852628         3894 
 2974000    0.7750318   -8.7408579    498.54873  0.013969646  0.013846054         3862 
 2975000   0.79197585   -8.7439718    498.94414  0.013976026  0.013839495         3855 
 2976000   0.75880581    -8.741932    498.67988   0.01396393  0.013832935         3859 
 2977000   0.77539447   -8.7835907    498.77653  0.013961945  0.013826377         3864 
 2978000   0.76991615    -8.716806    497.99149  0.013935289  0.013819825         3864 
 2979000   0.77006066   -8.7723829     498.7542  0.013951947  0.013813268         3863 
 2980000   0.78520914   -8.7855682    498.05573  0.013927733  0.013806722         3875 
 2981000   0.77523284   -8.7615966    497.94869  0.013920068  0.013800173         3899 
 2982000   0.77639609   -8.7808932    497.67662  0.013907797  0.013793631         3869 
 2983000   0.78026579   -8.7376154    497.93175  0.013910262  0.013787094         3869 
 2984000   0.77569902   -8.7744711     497.5775  0.013895708  0.013780557         3875 
 2985000   0.76514716   -8.7497389    497.98883  0.013902536  0.013774024         3857 
 2986000   0.78637989   -8.8012903    497.35846  0.013880287  0.013767491         3890 
 2987000   0.78430602   -8.7515799    497.87294  0.013889994  0.013760973         3885 
 2988000   0.77061551   -8.7510968    498.76386  0.013910192   0.01375445         3884 
 2989000   0.77612009    -8.770342    497.97767   0.01388362  0.013747926         3872 
 2990000   0.77371454   -8.7608469    498.76585  0.013900943  0.013741405         3876 
 2991000   0.76208697   -8.7688369    497.72796  0.013867379  0.013734881         3878 
 2992000   0.78374946   -8.7852536    497.60612  0.013859351  0.013728369         3883 
 2993000   0.75888914   -8.7754758    497.92336  0.013863553  0.013721856         3896 
 2994000   0.76912839   -8.8008153    497.85523  0.013857026  0.013715353         3885 
 2995000   0.76260836    -8.734265    498.31517  0.013865197  0.013708845         3878 
 2996000   0.77450729   -8.7727971    496.85133  0.013819852   0.01370235         3883 
 2997000   0.77048614   -8.7730665     498.7063   0.01386682  0.013695851         3854 
 2998000   0.77850117   -8.7696402     498.1478   0.01384667  0.013689355         3877 
 2999000   0.76906969   -8.7769845    497.82721  0.013833145  0.013682864         3869 
 3000000   0.77884101   -8.7806344    496.31265  0.013786462  0.013676384         3871 
 3001000   0.77303678   -8.7723843    498.26558  0.013836099  0.013669899         3831 
 3002000   0.75262675   -8.7673798    498.71986    0.0138441  0.013663423         3884 
 3003000   0.78716105   -8.8067104    497.33237  0.013800987  0.013656947         3884 
 3004000   0.76936953   -8.7715033    499.19719  0.013848124  0.013650472         3885 
 3005000   0.75655624   -8.7694053    497.00988  0.013782859  0.013643998         3850 
 3006000   0.76827854   -8.7614164    498.04922  0.013807086  0.013637531         3875 
 3007000   0.78217992   -8.7745757    497.56537  0.013789086  0.013631069         3873 
 3008000    0.7853478   -8.7604698    498.31644  0.013805309   0.01362461         3862 
 3009000   0.78722918   -8.7605692    498.05898  0.013793591  0.013618152         3878 
 3010000   0.75454786    -8.799014    497.95361  0.013786091  0.013611688         3857 
 3011000   0.78537262   -8.7805158    498.47926   0.01379606  0.013605237         3867 
 3012000   0.77003668   -8.7635504    498.21852  0.013784266  0.013598787         3887 
 3013000   0.76682692    -8.778905    498.94895  0.013799894  0.013592335         3888 
 3014000    0.7690063   -8.7919904    497.37669  0.013751844  0.013585889         3881 
 3015000   0.75788032   -8.7648818      497.196  0.013742288  0.013579453         3892 
 3016000   0.78415776   -8.7783607    497.70638  0.013751834   0.01357301         3861 
 3017000   0.76557477   -8.7842712     497.3726  0.013738057  0.013566573         3915 
 3018000   0.76632118   -8.7960482     497.9752  0.013750144  0.013560141         3873 
 3019000   0.76927185   -8.7883853    496.89644  0.013715812  0.013553717         3935 
 3020000   0.77361603   -8.7678257    498.64004  0.013759383  0.013547293         3907 
 3021000   0.78158288    -8.786254    497.66862  0.013728032  0.013540875         3906 
 3022000   0.76512975   -8.7755785    496.93255  0.013703192  0.013534458         3875 
 3023000    0.7579108   -8.7697945    497.91651  0.013725783  0.013528052         3886 
 3024000   0.78318054   -8.7803224    497.23933  0.013702583  0.013521644         3910 
 3025000   0.76634645   -8.7431526    497.89622  0.013716149  0.013515248         3887 
 3026000   0.76327877   -8.7921147    495.84341  0.013655084  0.013508852         3888 
 3027000   0.77171116   -8.7705203    497.21965  0.013688461  0.013502464         3879 
 3028000   0.77519141   -8.7757814    497.44942  0.013690264  0.013496068         3889 
 3029000   0.77876553   -8.7880299     497.5744  0.013689182  0.013489679         3883 
 3030000    0.7518031   -8.7801854    497.11233  0.013671956  0.013483291         3882 
 3031000   0.77443814   -8.7867124     497.0426  0.013665528  0.013476899         3865 
 3032000   0.76879243   -8.7859673    497.17289  0.013664602  0.013470516         3864 
 3033000   0.76027227   -8.7866852    497.84463  0.013678553  0.013464128         3900 
 3034000   0.76699331   -8.7933475    497.81875  0.013673334  0.013457745         3903 
 3035000   0.77033638    -8.785141      497.319  0.013655107  0.013451365         3886 
 3036000   0.77228837   -8.7850948     497.1028  0.013644675  0.013444988         3883 
 3037000   0.77174704   -8.7913932    498.20357  0.013670387  0.013438625         3847 
 3038000   0.76875848   -8.7956159    497.35487  0.013642607  0.013432264         3870 
 3039000   0.76383096   -8.7923258    497.51201  0.013642427  0.013425912         3896 
 3040000   0.76823724   -8.7767718    498.65963  0.013669398  0.013419557         3899 
 3041000   0.76871756   -8.7677069    497.90001  0.013644087  0.013413207         3891 
 3042000   0.77056662   -8.7841272    497.90477  0.013639732  0.013406868         3893 
 3043000   0.77115352   -8.7900274    496.32431  0.013591968  0.013400529         3894 
 3044000   0.75300799   -8.7875746    496.48368  0.013591866  0.013394185         3886 
 3045000   0.75944374   -8.8144185    497.42843  0.013613257  0.013387848         3905 
 3046000   0.76006515   -8.7652648    498.40042   0.01363538  0.013381516         3860 
 3047000   0.77665257      -8.7691    498.04969  0.013621313  0.013375188         3881 
 3048000   0.76160014   -8.7771254     497.2531  0.013595065  0.013368866         3902 
 3049000   0.75365416   -8.8097294    495.96464  0.013555391  0.013362538         3911 
 3050000   0.76311902   -8.7800617    497.56717  0.013594731   0.01335621         3899 
 3051000   0.76648829   -8.7704871    497.88586   0.01359898  0.013349892         3898 
 3052000   0.75377774   -8.7634605    497.68264  0.013588975  0.013343572         3853 
 3053000    0.7441177   -8.8080302    497.25064  0.013572733  0.013337258         3904 
 3054000   0.78809398   -8.8020727    496.78768  0.013555656  0.013330953         3919 
 3055000   0.77062507   -8.7887623       497.62  0.013573923  0.013324653         3904 
 3056000   0.76924211   -8.8088147    496.76522  0.013546172  0.013318356         3859 
 3057000   0.75661636   -8.7731934    498.27475   0.01358289  0.013312064         3900 
 3058000   0.76061809   -8.7737596    497.80234  0.013565575  0.013305773         3881 
 3059000    0.7582536   -8.7947533    497.27568  0.013546793  0.013299489         3865 
 3060000   0.74542732   -8.7976343    497.74103  0.013555039   0.01329321         3905 
 3061000   0.75343603   -8.7822287    497.64634  0.013548033  0.013286933         3846 
 3062000   0.76381971   -8.7974523     497.2906  0.013533927  0.013280652         3869 
 3063000   0.75579637   -8.7802579    496.71908  0.013513959  0.013274373         3870 
 3064000   0.77120253   -8.8284049    495.75212   0.01348325  0.013268108         3888 
 3065000   0.77728322   -8.7915895    497.75768  0.013533379  0.013261847         3897 
 3066000   0.75178109   -8.7870594    498.04101  0.013536666  0.013255586         3879 
 3067000   0.75162333   -8.7865873      497.003  0.013504049  0.013249325         3883 
 3068000   0.74660855   -8.7739976    498.07318  0.013528715  0.013243072         3872 
 3069000   0.75368663   -8.7897756    496.61906  0.013484823  0.013236818         3874 
 3070000    0.7624346   -8.8050914    497.15427  0.013494958  0.013230575         3873 
 3071000   0.77099995   -8.7706767    497.00239  0.013486443  0.013224333         3897 
 3072000   0.76697908   -8.7979447    496.53971  0.013469502  0.013218096         3898 
 3073000   0.76349414   -8.8004016    497.07509  0.013479637  0.013211862         3852 
 3074000   0.75966241   -8.7857844    497.53408  0.013487695  0.013205636         3875 
 3075000   0.77251911   -8.7780396    497.11846  0.013472045  0.013199408         3889 
 3076000   0.76706369   -8.8001199    497.15734  0.013468719  0.013193186         3899 
 3077000   0.74226081   -8.8000405    497.82627  0.013482458  0.013186966         3881 
 3078000   0.76276514   -8.7694806    498.75736  0.013503286   0.01318075         3854 
 3079000   0.75119938   -8.7965429    497.69555  0.013470162  0.013174533         3868 
 3080000   0.75920613   -8.7831579    497.56045  0.013462134  0.013168322         3862 
 3081000   0.74588608   -8.7855139    497.11177  0.013445628  0.013162116         3829 
 3082000   0.75915451   -8.7805765    497.28327  0.013445903  0.013155918         3905 
 3083000   0.76490813   -8.7917473    496.71849  0.013426275  0.013149721         3890 
 3084000   0.77154946   -8.7995585    496.53753  0.013417032  0.013143523         3905 
 3085000   0.75570352   -8.7750113    497.35272  0.013434704  0.013137325         3856 
 3086000   0.76906894   -8.7889335    497.85024  0.013443785  0.013131136         3878 
 3087000   0.75183981    -8.796441    496.97844  0.013415896  0.013124956         3884 
 3088000   0.76340114   -8.8173641    497.80531  0.013433865  0.013118773         3875 
 3089000   0.75559379   -8.7765691    497.03312  0.013408685  0.013112589         3872 
 3090000   0.75147292   -8.7824461    498.03074   0.01343125   0.01310641         3879 
 3091000    0.7505668   -8.7754746    497.78969  0.013420406  0.013100239         3883 
 3092000   0.75672194   -8.7900965    497.29616  0.013402764  0.013094066         3891 
 3093000   0.74093799   -8.7803434     496.8724  0.013387014   0.01308789         3903 
 3094000   0.76419079   -8.8010687    496.29749  0.013367202  0.013081725         3906 
 3095000   0.75889968   -8.8061045    496.45295  0.013367069  0.013075559         3906 
 3096000   0.77219148   -8.8094739    496.73146  0.013370248  0.013069406         3878 
 3097000   0.75330753   -8.7956947    497.60586  0.013389459  0.013063241         3893 
 3098000   0.76490005   -8.7818799    497.08629  0.013371161  0.013057079         3913 
 3099000   0.75711843   -8.8085379    497.49242  0.013377768  0.013050932         3873 
 3100000   0.74970555   -8.8052601    497.86745  0.013383534  0.013044784         3895 
 3101000   0.76948237   -8.7998533    496.26501  0.013336155   0.01303863         3888 
 3102000   0.74508852   -8.8290706     496.6179  0.013341336  0.013032478         3893 
 3103000    0.7675464   -8.7871218     497.2379  0.013353687  0.013026339         3878 
 3104000   0.75138777   -8.8070295    497.67748  0.013361187  0.013020205         3894 
 3105000   0.75719295   -8.8004876    497.76564  0.013359249  0.013014077         3889 
 3106000   0.74713581   -8.8055423    497.84955    0.0133572  0.013007944         3883 
 3107000     0.744819   -8.8076875     496.6785  0.013321492  0.013001814         3883 
 3108000   0.74870897   -8.7901146    496.12645  0.013302404  0.012995705         3853 
 3109000   0.76442023     -8.79709    497.13436  0.013325141  0.012989594         3889 
 3110000   0.74796392   -8.7981773    497.16074  0.013321563  0.012983498         3871 
 3111000   0.77189421   -8.8105553    496.05595  0.013287688  0.012977391         3885 
 3112000   0.75532339   -8.7952667    497.69517  0.013327313  0.012971287         3870 
 3113000   0.74012076   -8.7973715    497.82794  0.013326586  0.012965186         3881 
 3114000   0.74905211   -8.8146778    497.05395  0.013301594  0.012959097         3869 
 3115000   0.74971947   -8.7948761    496.93701  0.013294195  0.012952997         3858 
 3116000   0.74323704   -8.7981882    495.92881  0.013262966  0.012946908         3900 
 3117000   0.75095198   -8.8081856    496.21526  0.013266369  0.012940818         3878 
 3118000   0.75229656   -8.8242409    496.76204  0.013276728  0.012934728         3893 
 3119000   0.74413968   -8.8265349    496.69639  0.013270717  0.012928638         3916 
 3120000    0.7630505   -8.7915272    497.19182  0.013279696  0.012922549         3863 
 3121000   0.76525375   -8.7964407    495.73197  0.013236462  0.012916468         3880 
 3122000   0.76793353   -8.8331246    496.50969  0.013252981  0.012910399         3868 
 3123000   0.74097071   -8.8103308    497.20741  0.013267355  0.012904328         3872 
 3124000   0.76743359   -8.8003219    496.70017  0.013249578  0.012898261         3887 
 3125000   0.74943775    -8.807832    496.18651   0.01323164  0.012892196         3863 
 3126000    0.7546894   -8.7924267    497.43282  0.013260632  0.012886136         3874 
 3127000   0.73883402   -8.7975149    496.03192  0.013219058   0.01288008         3894 
 3128000   0.73798784   -8.8056378    497.26682  0.013247731   0.01287402         3868 
 3129000    0.7567847   -8.8161014    497.09407  0.013238896   0.01286796         3885 
 3130000   0.75182585   -8.7963651    496.77127  0.013226072  0.012861915         3861 
 3131000   0.74074227   -8.7956135    496.52217  0.013215218  0.012855864         3891 
 3132000   0.75273471    -8.785481     496.7688  0.013217561  0.012849821         3889 
 3133000   0.75560985    -8.815251    496.00434  0.013193008  0.012843782         3891 
 3134000    0.7507333   -8.8141883    496.06509  0.013190414  0.012837752         3906 
 3135000   0.76648257   -8.8095118    496.89936  0.013208383  0.012831718         3902 
 3136000   0.75018798   -8.8173279    497.32649  0.013215521  0.012825691         3872 
 3137000   0.73624929   -8.8220294    497.46252  0.013214922  0.012819661         3879 
 3138000    0.7470061   -8.8336621    496.41754   0.01318296  0.012813637         3891 
 3139000    0.7461951   -8.8025358    497.54849  0.013208784  0.012807608         3817 
 3140000   0.75234848   -8.8176635    496.36013  0.013173039  0.012801592         3851 
 3141000   0.75336804   -8.7996569    496.64295  0.013176349  0.012795568         3891 
 3142000   0.74445703   -8.8116035    496.55241  0.013169754  0.012789557         3855 
 3143000   0.75403948   -8.8287427    496.97199  0.013176689   0.01278354         3891 
 3144000   0.76461623   -8.8209891     496.3229  0.013155293  0.012777531         3881 
 3145000    0.7358522   -8.8110311    495.99114   0.01314232  0.012771527         3881 
 3146000   0.73787878   -8.7867506      497.336  0.013173766  0.012765526         3861 
 3147000   0.73881742   -8.8173258     496.9198  0.013158558  0.012759529         3876 
 3148000   0.74215377   -8.7990516    496.61472  0.013146302  0.012753532         3877 
 3149000   0.75414266   -8.8148462    495.95174  0.013124583  0.012747531         3864 
 3150000   0.75515296   -8.8412922    496.74657  0.013141444  0.012741544         3846 
 3151000   0.73131908   -8.8142655    495.88092   0.01311438   0.01273556         3841 
 3152000   0.74796244   -8.7972191    496.76438  0.013133576  0.012729577         3845 
 3153000   0.74699352    -8.833721    495.82304  0.013104531  0.012723596         3890 
 3154000   0.75501476   -8.8284956    496.35136  0.013114335  0.012717622         3884 
 3155000   0.73208817   -8.8390067    496.70076  0.013119407  0.012711645         3877 
 3156000   0.75183507   -8.8194285    496.34269  0.013105796  0.012705679         3860 
 3157000   0.75125817   -8.8259148    496.55805  0.013107329  0.012699713         3879 
 3158000   0.75959304    -8.837045     495.6511  0.013079246  0.012693747         3869 
 3159000   0.75432089   -8.8189971    496.12086  0.013087498  0.012687789         3850 
 3160000   0.73905622   -8.8190727    496.08745  0.013082475  0.012681838         3857 
 3161000   0.75292836   -8.8261472    496.25562   0.01308277  0.012675877         3860 
 3162000   0.74340242   -8.7978526    497.66118  0.013115675  0.012669928         3857 
 3163000   0.72679299   -8.7975061    496.27929  0.013075121  0.012663985         3860 
 3164000   0.74567637   -8.8229042    496.89411  0.013087181  0.012658042         3893 
 3165000   0.73791667   -8.8059344    496.21494  0.013065164  0.012652103         3893 
 3166000   0.74564831   -8.8112422    496.21659  0.013061081  0.012646159         3867 
 3167000   0.73369496   -8.8352569    496.15356  0.013055298  0.012640223         3873 
 3168000   0.73914779   -8.8184464    496.73828  0.013066558  0.012634285         3875 
 3169000   0.74046579   -8.8188088    496.04933  0.013044318  0.012628355         3858 
 3170000    0.7291878   -8.8457362    496.22071  0.013044709  0.012622426         3875 
 3171000   0.73603042   -8.8360424    496.07225  0.013036693  0.012616501         3896 
 3172000   0.74661829   -8.8442422    496.31834  0.013039048  0.012610585         3890 
 3173000   0.75176414   -8.8283878    496.17786   0.01303125  0.012604671         3918 
 3174000   0.74167517   -8.8278778     495.8353   0.01301815  0.012598764         3880 
 3175000   0.76527027   -8.8351842    496.25831  0.013025153  0.012592856         3881 
 3176000   0.74241495   -8.8205818    497.03932  0.013041544  0.012586956         3879 
 3177000   0.74698079    -8.833459    496.44215  0.013021775  0.012581054         3879 
 3178000   0.76086408   -8.8459049    496.95424  0.013031105   0.01257516         3879 
 3179000   0.72947574   -8.8320132     496.6254  0.013018386  0.012569268         3903 
 3180000   0.75079341   -8.8187133    496.62975  0.013014406  0.012563379         3838 
 3181000   0.75303103   -8.8250588    496.45051  0.013005619  0.012557493         3885 
 3182000   0.76347851   -8.8514634    496.25398  0.012996385  0.012551613         3882 
 3183000   0.73563207   -8.8128593    497.24981  0.013018374  0.012545738         3879 
 3184000   0.75525911   -8.8347329     495.7411  0.012974798   0.01253986         3862 
 3185000   0.74476198   -8.8520075    495.71362  0.012970006  0.012533988         3871 
 3186000   0.74887627   -8.8186898    495.58727   0.01296263  0.012528121         3901 
 3187000   0.74010019   -8.8152772    497.19794  0.013000678  0.012522258         3864 
 3188000   0.74499154   -8.8223405    497.31183  0.012999577  0.012516398         3910 
 3189000     0.733376   -8.8335221    495.84647  0.012957209   0.01251054         3878 
 3190000   0.72384414   -8.8282182    495.67557  0.012948683  0.012504685         3872 
 3191000   0.73687875   -8.8586897    495.79006  0.012947615  0.012498826         3874 
 3192000   0.73554528   -8.8295662    496.07192  0.012950917  0.012492973         3925 
 3193000   0.73850725   -8.8183296    497.57326  0.012986044  0.012487127         3905 
 3194000   0.73864583   -8.8336535    496.36654  0.012950494  0.012481284         3904 
 3195000   0.72126888   -8.8381352    496.42714  0.012948021  0.012475448         3896 
 3196000   0.75169444   -8.8361486    496.71169   0.01295139  0.012469612         3882 
 3197000   0.73660992   -8.8379148    495.56177  0.012917364  0.012463774         3907 
 3198000   0.74880927   -8.8455684    495.67893  0.012916378  0.012457943         3914 
 3199000    0.7395674    -8.827819    495.66082  0.012911869  0.012452119         3864 
 3200000   0.74722245   -8.8525998      496.305  0.012924609  0.012446302         3891 
 3201000   0.73651651   -8.8372599    496.94123  0.012937135  0.012440486         3864 
 3202000   0.73975883   -8.8469687    495.47882  0.012895035  0.012434669         3887 
 3203000   0.73379934   -8.8387382    496.37499  0.012914325  0.012428856         3871 
 3204000   0.74150158   -8.8408576    496.39758  0.012910882  0.012423044         3906 
 3205000   0.74264651   -8.8450018    495.92473  0.012894559   0.01241724         3899 
 3206000   0.73960185   -8.8294089    497.29176   0.01292607  0.012411439         3861 
 3207000   0.75690994   -8.8326252     496.8276  0.012909978  0.012405638         3900 
 3208000   0.74386085   -8.8417544    496.02425  0.012885085  0.012399841         3918 
 3209000   0.74813207   -8.8521277    496.03187  0.012881268   0.01239405         3901 
 3210000   0.73708452   -8.8343871     496.3732  0.012886116  0.012388264         3876 
 3211000   0.74775879   -8.8178459    495.58148  0.012861556  0.012382487         3895 
 3212000   0.73757126   -8.8389907    496.41853  0.012879269  0.012376707         3885 
 3213000   0.73540815     -8.82422    496.63638   0.01288091  0.012370923         3896 
 3214000   0.74957023   -8.8358391    496.69892  0.012878524  0.012365142         3907 
 3215000   0.72926574   -8.8479762    495.44214  0.012841942  0.012359369         3904 
 3216000   0.74829221   -8.8290384    495.81009  0.012847484  0.012353597         3901 
 3217000   0.72642154   -8.8394188    496.54472   0.01286252   0.01234783         3852 
 3218000   0.74154355   -8.8255166    495.87195  0.012841101  0.012342074         3896 
 3219000   0.71737301   -8.8589487    497.36752  0.012875829  0.012336315         3891 
 3220000   0.73820967   -8.8291709      496.629  0.012852717   0.01233056         3876 
 3221000   0.73378809   -8.8570752     494.9365  0.012804939  0.012324803         3914 
 3222000   0.73616843   -8.8374089     495.2701  0.012809593  0.012319054         3891 
 3223000   0.71480081   -8.8239161    496.51312  0.012837758  0.012313308         3894 
 3224000    0.7361208   -8.8530732    495.37037  0.012804238  0.012307559         3890 
 3225000   0.74646755   -8.8505869    495.56723  0.012805355  0.012301809         3906 
 3226000   0.73673198   -8.8164028    495.85306  0.012808769  0.012296068         3904 
 3227000   0.74507469   -8.8451146    495.58923  0.012797987  0.012290332         3882 
 3228000   0.72582993   -8.8473355    495.82885  0.012800208  0.012284604         3874 
 3229000    0.7214239   -8.8540381     495.6972  0.012792846  0.012278874         3866 
 3230000   0.72816253    -8.857481    496.00084  0.012796719  0.012273142         3898 
 3231000   0.73411147   -8.8541501    496.26694  0.012799622  0.012267421         3896 
 3232000   0.75051739   -8.8430786    496.60843  0.012804467  0.012261699         3884 
 3233000   0.73310178   -8.8256544    496.73496  0.012803767  0.012255977         3892 
 3234000   0.73031833   -8.8485512    495.72675  0.012773829   0.01225026         3879 
 3235000   0.74131211   -8.8301854    494.89057   0.01274834  0.012244548         3893 
 3236000   0.73336565   -8.8458297    495.39287  0.012757336  0.012238838         3878 
 3237000   0.73953243   -8.8413171    495.15323  0.012747226  0.012233133         3920 
 3238000   0.72773599   -8.8510278    496.94591  0.012789425  0.012227432         3897 
 3239000   0.73861971    -8.836036    495.93692  0.012759517   0.01222173         3859 
 3240000   0.73030061   -8.8205444    496.26577  0.012764037  0.012216029         3909 
 3241000   0.72273641   -8.8404349    496.27015  0.012760212  0.012210333         3882 
 3242000   0.72834686   -8.8414939     497.0112  0.012775324  0.012204636         3892 
 3243000    0.7341902   -8.8262798    495.56148  0.012734132  0.012198947         3863 
 3244000   0.73106548   -8.8390085    496.49799  0.012754264   0.01219326         3865 
 3245000   0.73247663   -8.8345293    496.44126  0.012748877  0.012187577         3895 
 3246000   0.73005333   -8.8460355    495.96382  0.012732692  0.012181902         3893 
 3247000   0.74025856   -8.8645319    497.10883  0.012758157   0.01217623         3884 
 3248000   0.72069216   -8.8307127    496.14387  0.012729471  0.012170553         3892 
 3249000   0.72507926   -8.8563802    495.62525  0.012712251  0.012164887         3892 
 3250000   0.73127852   -8.8258359    496.70107  0.012735925  0.012159216         3888 
 3251000   0.72356609   -8.8533602    494.69238  0.012680518  0.012153552         3895 
 3252000   0.72167751   -8.8380722    495.96768  0.012709299  0.012147888         3873 
 3253000   0.73237811   -8.8216314    495.81712  0.012701535  0.012142233         3893 
 3254000   0.73821831   -8.8372466    496.23486   0.01270833  0.012136581         3877 
 3255000    0.7178089   -8.8564386    496.27927  0.012705562   0.01213093         3908 
 3256000   0.73636699   -8.8535695    495.44603  0.012680334  0.012125276         3865 
 3257000   0.72759675   -8.8604917    495.80449  0.012685613  0.012119627         3895 
 3258000   0.72838336   -8.8235545    496.24593   0.01269301  0.012113983         3877 
 3259000   0.71043514   -8.8576633    496.44432  0.012694188  0.012108339         3875 
 3260000   0.73695257   -8.8540433    495.61137  0.012669002    0.0121027         3897 
 3261000   0.71698673   -8.8450419    496.12548  0.012678255  0.012097065         3859 
 3262000   0.73768199   -8.8682981    495.91834  0.012669077  0.012091434         3907 
 3263000   0.73753996   -8.8705638    494.89538  0.012639069  0.012085812         3909 
 3264000   0.71552659   -8.8398554    495.47768  0.012650063  0.012080191         3886 
 3265000   0.71789454    -8.833401    495.36973  0.012643434  0.012074572         3903 
 3266000   0.72962825    -8.855698    495.72986  0.012648751  0.012068958         3899 
 3267000   0.72399523   -8.8722203    495.33303  0.012634758  0.012063345         3916 
 3268000   0.72534275   -8.8657672    495.27566  0.012629428   0.01205773         3906 
 3269000    0.7424258   -8.8487884    495.66728  0.012635548  0.012052115         3929 
 3270000   0.72567553   -8.8378957    496.12784  0.012643421  0.012046515         3887 
 3271000   0.71628295   -8.8509262    496.38195   0.01264603  0.012040909         3866 
 3272000   0.73604751   -8.8437248    495.46041  0.012618694   0.01203531         3919 
 3273000    0.7283537   -8.8763752    494.44437   0.01258897  0.012029712         3914 
 3274000   0.75411431   -8.8414493    496.16021  0.012628798  0.012024115         3924 
 3275000   0.73318574   -8.8624165    495.47447  0.012607493  0.012018531         3905 
 3276000   0.73417588   -8.8616601    495.04752  0.012592784  0.012012942         3906 
 3277000   0.72112498   -8.8618925    496.41737  0.012623776  0.012007365         3919 
 3278000   0.73694752   -8.8562318    495.47172  0.012595885  0.012001787         3895 
 3279000   0.73295697   -8.8525575     495.7538  0.012599212   0.01199621         3894 
 3280000    0.7196516   -8.8457724    495.68978  0.012593744  0.011990633         3892 
 3281000   0.74130056   -8.8782046     496.1193  0.012600815  0.011985057         3872 
 3282000   0.71663344   -8.8426442    494.97261   0.01256786  0.011979486         3878 
 3283000   0.72184506   -8.8593555    495.64731  0.012581158  0.011973914         3875 
 3284000   0.73665288   -8.8438521    495.58121   0.01257565   0.01196836         3901 
 3285000   0.72333619   -8.8440122    494.75489   0.01255086  0.011962806         3915 
 3286000   0.72201982   -8.8484645     496.2607  0.012585228  0.011957255         3881 
 3287000    0.7403598   -8.8644931    496.02661  0.012575464  0.011951702         3891 
 3288000   0.74037726    -8.859918    494.64873  0.012536718  0.011946158         3898 
 3289000   0.72161713   -8.8579614    495.17095  0.012546137  0.011940613         3931 
 3290000   0.70844284   -8.8696062    494.10071  0.012515216   0.01193507         3930 
 3291000   0.71832903   -8.8682197    495.24944    0.0125405  0.011929534         3897 
 3292000   0.72599195   -8.8685712    495.91687  0.012553586  0.011923991         3920 
 3293000   0.72635475   -8.8784699    494.21065  0.012506596  0.011918455         3940 
 3294000   0.71447861   -8.8298691     496.1008  0.012550617  0.011912928         3912 
 3295000   0.72958765   -8.8708357    495.44279  0.012530167  0.011907403         3916 
 3296000   0.72752618   -8.8893756     493.8068  0.012485002  0.011901878         3910 
 3297000   0.71420302   -8.8592244    495.61146  0.012526829  0.011896355         3922 
 3298000   0.71640231   -8.8812803     495.4295  0.012518433  0.011890838         3924 
 3299000   0.73498713   -8.8449125     495.9645  0.012528152  0.011885319         3926 
 3300000   0.72405617   -8.8392656    495.45366  0.012511456  0.011879819         3915 
 3301000   0.72502847   -8.8603242    494.60623  0.012486273  0.011874315         3921 
 3302000    0.7203268   -8.8484798     496.4024  0.012527821  0.011868807         3909 
 3303000   0.72578759   -8.8337079    496.20519  0.012519053  0.011863312         3906 
 3304000   0.72039935   -8.8531868    495.43638  0.012495873  0.011857813         3901 
 3305000   0.71640246   -8.8872965     495.7553  0.012500134  0.011852314         3911 
 3306000   0.72021191   -8.8708181    496.30389  0.012510181  0.011846829         3895 
 3307000   0.72477809   -8.8832233    495.43622  0.012484533  0.011841339         3885 
 3308000   0.73566584   -8.8850475    494.77797  0.012464177  0.011835856         3927 
 3309000    0.7239114   -8.8793869    495.56696   0.01248028  0.011830377         3903 
 3310000   0.73008983   -8.8638927    495.18804   0.01246697  0.011824889         3924 
 3311000   0.71582338   -8.8602068     494.5764   0.01244781  0.011819412         3921 
 3312000    0.7296977   -8.8674328    495.31362  0.012462601   0.01181393         3894 
 3313000   0.71239007   -8.8677391    494.82848  0.012446636  0.011808466         3896 
 3314000   0.72049406   -8.8710139    495.14888  0.012450938  0.011803001         3916 
 3315000   0.71779346   -8.8636229    495.69669  0.012460952  0.011797532         3901 
 3316000   0.73592719   -8.8632201    494.30245  0.012422156  0.011792075         3897 
 3317000   0.72173155   -8.8541282    495.00347  0.012436023  0.011786609         3916 
 3318000   0.71658971   -8.8650951    496.05768  0.012458752  0.011781146         3926 
 3319000   0.71253854   -8.8674057     495.5163  0.012441406  0.011775694         3916 
 3320000   0.72625646   -8.8634927     495.6102  0.012440015  0.011770237         3922 
 3321000   0.70989716   -8.8506226    495.61933  0.012436498  0.011764785         3910 
 3322000   0.72624276   -8.8642432    494.94327  0.012415795  0.011759342         3924 
 3323000    0.7343132    -8.867617    495.11266  0.012416307  0.011753897         3921 
 3324000   0.73438565   -8.8376939    494.99564  0.012409638  0.011748459         3924 
 3325000   0.71299442   -8.8585735    495.43457  0.012416907  0.011743023         3920 
 3326000   0.71818278   -8.8679447    495.76032  0.012421335   0.01173759         3903 
 3327000   0.72696378   -8.8685751    494.65486  0.012389912   0.01173216         3914 
 3328000   0.72214629   -8.8755877    494.54714  0.012383492  0.011726735         3937 
 3329000   0.72876999   -8.8667042    495.10417  0.012393716  0.011721316         3910 
 3330000   0.73008723   -8.8539422     495.3245  0.012395508  0.011715904         3909 
 3331000   0.71975481    -8.870387    495.19067  0.012388439  0.011710491         3908 
 3332000   0.70764155   -8.8805167    495.72467  0.012398076  0.011705086         3908 
 3333000   0.71845705   -8.8876376    495.12662  0.012379403   0.01169968         3927 
 3334000   0.70588727   -8.8705136    494.43136  0.012358312  0.011694273         3899 
 3335000   0.71802675   -8.8768052    495.61137  0.012384092   0.01168887         3903 
 3336000   0.71952532   -8.8672265    495.32763  0.012373292  0.011683477         3905 
 3337000    0.7163566   -8.8405057    495.66228  0.012377941  0.011678077         3919 
 3338000   0.72547282    -8.880162     494.7984  0.012352666  0.011672681         3934 
 3339000   0.71332647   -8.8764671     495.6447  0.012370088  0.011667293         3908 
 3340000   0.73461187   -8.8944443    495.20693  0.012355462  0.011661905         3921 
 3341000   0.70888141   -8.8719886    495.37531  0.012355964  0.011656521         3928 
 3342000   0.71813525   -8.8752656    494.22278  0.012323528  0.011651138         3923 
 3343000   0.71146133   -8.8928615    494.15589  0.012318175  0.011645756         3900 
 3344000   0.71057311   -8.8756279    494.87503  0.012332412  0.011640378         3891 
 3345000   0.70369913   -8.8533645    494.74948  0.012325597  0.011635009         3907 
 3346000   0.70258792   -8.8882303    495.28351  0.012335214  0.011629634         3903 
 3347000   0.72391865    -8.893105    495.55153  0.012338202  0.011624271         3894 
 3348000    0.7114418   -8.8811497    495.28032  0.012327766  0.011618915         3921 
 3349000   0.71688089   -8.8883649    495.09072  0.012319367  0.011613555         3907 
 3350000   0.74464192    -8.876951    495.77549  0.012332724  0.011608202         3915 
 3351000   0.72729873   -8.8611946    495.83405    0.0123305  0.011602849         3928 
 3352000   0.73468718   -8.8701016    495.51517  0.012318893  0.011597499         3914 
 3353000   0.71696281   -8.9067605    494.71818  0.012295412  0.011592145         3914 
 3354000   0.72733952   -8.8751121    494.59203  0.012288611  0.011586801         3898 
 3355000   0.70416746    -8.867754    495.63508  0.012310856  0.011581454         3900 
 3356000   0.70659208   -8.8821538    494.95421  0.012290281  0.011576114         3910 
 3357000   0.71468525   -8.8715601    495.21933  0.012293202  0.011570782         3920 
 3358000   0.73412766   -8.8767441    494.75751   0.01227808  0.011565454         3925 
 3359000   0.73460438   -8.8596307    496.05484   0.01230661  0.011560127         3894 
 3360000   0.71680551   -8.8996352    494.44138  0.012262931  0.011554796         3909 
 3361000   0.72301718    -8.868331    495.81257   0.01229328  0.011549476         3890 
 3362000   0.73152391   -8.8785376     495.5361  0.012282771  0.011544163         3914 
 3363000   0.72501058   -8.8800821     494.8795  0.012262848   0.01153885         3916 
 3364000   0.71591808   -8.8553839    495.57173  0.012276351  0.011533536         3909 
 3365000   0.70484523   -8.8877262    494.74932  0.012252336  0.011528228         3899 
 3366000   0.71367891   -8.8901477    494.37424   0.01223941  0.011522923         3913 
 3367000   0.71875414   -8.8904827    494.86713  0.012247974  0.011517622         3930 
 3368000   0.72532427   -8.8572828    495.18927  0.012252308  0.011512322         3914 
 3369000   0.72179379   -8.8673162    495.27548  0.012250803  0.011507025         3912 
 3370000   0.71671392   -8.8767424    494.77934    0.0122349  0.011501729         3922 
 3371000   0.72183355   -8.8571984    494.58856  0.012226554  0.011496437         3897 
 3372000   0.70632159   -8.8771347    494.94284  0.012231683  0.011491151         3909 
 3373000   0.70750502   -8.8733164     493.7218   0.01219789  0.011485865         3907 
 3374000   0.70898554   -8.8896166    495.39655  0.012235639   0.01148058         3904 
 3375000   0.71729163   -8.8828157    495.07667  0.012224115    0.0114753         3909 
 3376000   0.71855998   -8.8772812    495.56847  0.012232634   0.01147003         3902 
 3377000   0.70886795   -8.8765872     495.3176  0.012222821  0.011464752         3905 
 3378000    0.7032079   -8.8779181    493.60181  0.012176875  0.011459482         3917 
 3379000   0.70743464   -8.8981083    493.40534  0.012168426  0.011454208         3935 
 3380000   0.72523313   -8.8905748     495.2606  0.012210567  0.011448941         3912 
 3381000   0.71470293   -8.8924358    493.46414  0.012162677  0.011443673         3918 
 3382000   0.71620047   -8.8998073    493.85553  0.012168725  0.011438408         3905 
 3383000   0.71011859   -8.8951454    494.39555   0.01217843   0.01143316         3900 
 3384000   0.70754697   -8.8771733    495.10324  0.012192259   0.01142791         3922 
 3385000   0.70560141   -8.8512948     495.9965  0.012210647  0.011422658         3854 
 3386000   0.69994334   -8.9030177    495.65031  0.012198521  0.011417412         3899 
 3387000   0.69945193   -8.9036312    494.40491  0.012164278  0.011412161         3891 
 3388000   0.70328439   -8.8753674    495.03764  0.012176251  0.011406916         3870 
 3389000   0.69241574   -8.8849828    493.55561  0.012136215  0.011401675         3869 
 3390000   0.70236058   -8.8812281    495.39121  0.012177758  0.011396435         3848 
 3391000   0.70193172   -8.8966852    493.89527  0.012137405  0.011391201         3895 
 3392000   0.70477616   -8.8931236    494.70828    0.0121538   0.01138597         3877 
 3393000   0.70561762   -8.8911442    494.63742  0.012148478  0.011380741         3888 
 3394000   0.69556244   -8.9026351    493.32356  0.012112639  0.011375516         3911 
 3395000   0.71540475   -8.9118061    493.43906  0.012111906  0.011370288         3904 
 3396000   0.71082097   -8.8921123    494.08041  0.012124078  0.011365071         3894 
 3397000   0.70717705    -8.901357    493.73965  0.012112149  0.011359853         3891 
 3398000   0.71081316   -8.9079553    494.49758  0.012127172  0.011354641         3920 
 3399000   0.71213386   -8.9002662    494.89074  0.012133244   0.01134943         3910 
 3400000   0.71584838   -8.8898223    494.92576  0.012130533  0.011344217         3902 
 3401000   0.70426894   -8.9034977    493.17302   0.01208402  0.011339007         3931 
 3402000   0.70670089   -8.8799167    494.37362  0.012109877   0.01133381         3896 
 3403000   0.71479416   -8.8575255    495.33269  0.012129804  0.011328615         3911 
 3404000   0.71177801   -8.8964446    493.58825  0.012083535  0.011323413         3918 
 3405000   0.71133977   -8.8557469    495.30691  0.012122049  0.011318224         3905 
 3406000   0.71798301   -8.9357405     494.5235  0.012099322  0.011313036         3926 
 3407000   0.71928324   -8.8947737    494.12994  0.012086145  0.011307852         3930 
 3408000   0.69219497   -8.9094777    494.67283  0.012095873  0.011302667         3929 
 3409000   0.70229287    -8.878509    495.11735  0.012103191  0.011297483         3917 
 3410000   0.70116566   -8.8962808    493.33682   0.01205613  0.011292301         3923 
 3411000   0.72116032   -8.8885277    495.46047  0.012104478  0.011287131         3895 
 3412000   0.70219044     -8.91339    493.72999  0.012058665  0.011281961         3909 
 3413000   0.70296964   -8.8976696    494.30539  0.012069181  0.011276796         3894 
 3414000   0.72254236   -8.9100023     494.3583  0.012066938  0.011271629         3927 
 3415000   0.71723587   -8.8976703    493.51182  0.012042748  0.011266464         3917 
 3416000   0.69591409   -8.8723158    494.76717  0.012069847  0.011261307         3931 
 3417000   0.71915541   -8.8958821    493.59637  0.012037761  0.011256153         3905 
 3418000    0.7030901   -8.8917455    493.73986  0.012037738  0.011251001         3911 
 3419000   0.70951206    -8.898942    494.76299  0.012059155  0.011245855         3897 
 3420000   0.70528626   -8.8901991    495.09467   0.01206371  0.011240708         3919 
 3421000   0.70287698   -8.8997408     495.2381  0.012063678  0.011235566         3927 
 3422000   0.71183333   -8.8886681    494.83434   0.01205032   0.01123043         3903 
 3423000   0.71284948   -8.9176766    494.97552  0.012050237  0.011225298         3928 
 3424000   0.71515804   -8.8926282    494.82227  0.012042987  0.011220171         3916 
 3425000   0.70922395   -8.9056286    493.87167  0.012016342  0.011215047         3898 
 3426000   0.70952518   -8.8861911     494.9049  0.012037967  0.011209925         3905 
 3427000   0.70401579   -8.8884327    494.92684  0.012034988  0.011204807         3918 
 3428000   0.70425832   -8.9035927     494.6497   0.01202474  0.011199693         3926 
 3429000   0.69685245   -8.9064057     495.0669  0.012031372  0.011194575         3916 
 3430000   0.69723583   -8.8975608     494.5335  0.012014905  0.011189456         3917 
 3431000   0.70215273   -8.8986263     493.8235  0.011994159   0.01118435         3927 
 3432000   0.70537641   -8.8957166    493.93375  0.011993341  0.011179243         3902 
 3433000   0.70058646   -8.8776522      495.741  0.012033717  0.011174133         3897 
 3434000   0.70595928   -8.9095451    494.21168    0.0119931  0.011169029         3901 
 3435000   0.69859464   -8.8930631    494.68918  0.012001193  0.011163927         3906 
 3436000   0.70622187   -8.8892401    494.65179  0.011996794  0.011158829         3906 
 3437000   0.68883277   -8.9289842    494.22274    0.0119829   0.01115373         3938 
 3438000   0.69593227   -8.9236239     493.4176  0.011959899  0.011148631         3906 
 3439000   0.69823799   -8.8922918    493.71278  0.011963574  0.011143539         3922 
 3440000   0.71332023   -8.8803038    494.08338  0.011969074  0.011138451         3903 
 3441000    0.7053257   -8.8993503     494.9203  0.011985864  0.011133364         3927 
 3442000   0.69470372   -8.9065004    493.34825  0.011944321  0.011128285         3924 
 3443000    0.7039645    -8.884712    493.71493  0.011949727    0.0111232         3931 
 3444000    0.7066522   -8.8920299     494.9645  0.011976493  0.011118126         3917 
 3445000   0.69777383   -8.8930275    495.06522  0.011975453  0.011113053         3924 
 3446000     0.714311    -8.876853    494.67702   0.01196259  0.011107987         3908 
 3447000   0.70301174   -8.9027844    494.31708  0.011950418   0.01110292         3899 
 3448000   0.70201868   -8.9100084    493.85788  0.011935854  0.011097859         3899 
 3449000   0.68945837   -8.9075159    493.86031  0.011932452   0.01109281         3915 
 3450000   0.70688295   -8.9254083    492.93708  0.011906693  0.011087752         3888 
 3451000   0.71438139   -8.9045001    494.68417  0.011945431  0.011082702         3890 
 3452000   0.68498974   -8.8891326    494.11521  0.011928235  0.011077656         3913 
 3453000   0.70250455     -8.89794    495.15992  0.011949993  0.011072608         3913 
 3454000   0.69983453   -8.9007292    494.27746  0.011925243  0.011067557         3934 
 3455000   0.69755867   -8.9234794    493.30882  0.011898428  0.011062514         3921 
 3456000   0.69661289   -8.8952326    494.49274  0.011923533  0.011057476         3897 
 3457000   0.69601075   -8.9179616    493.68753  0.011900673  0.011052438         3922 
 3458000   0.69707616   -8.9246202    494.61488   0.01191958  0.011047405         3910 
 3459000   0.69716135    -8.911352      493.587   0.01189137  0.011042382         3903 
 3460000     0.696613   -8.8944937    494.67708  0.011914188   0.01103736         3878 
 3461000   0.69396284   -8.8866583    495.77007  0.011937062  0.011032341         3873 
 3462000   0.68713837   -8.8944674    494.39235  0.011900451  0.011027318         3904 
 3463000   0.69419919   -8.9074515     494.4387   0.01189813  0.011022301         3891 
 3464000   0.70172843   -8.9375784    494.30629   0.01189151  0.011017283         3904 
 3465000   0.68288783   -8.9222884    494.27126  0.011887236  0.011012266         3905 
 3466000   0.69710808   -8.9244385    494.02945  0.011877992  0.011007253         3878 
 3467000   0.69524546   -8.9039213    494.84558  0.011894183  0.011002249         3917 
 3468000   0.69246237   -8.8676174    494.77954  0.011889166  0.010997247         3884 
 3469000   0.69740766   -8.9023071    493.46362  0.011854128  0.010992245         3907 
 3470000   0.69280333   -8.9007854    494.30652  0.011870954  0.010987252         3937 
 3471000   0.69548483   -8.9026393    493.88233   0.01185735  0.010982251         3927 
 3472000   0.69545019   -8.9146403    493.33942  0.011840904   0.01097726         3930 
 3473000    0.6846299    -8.902527    493.71436  0.011846491  0.010972273         3907 
 3474000   0.69089024    -8.909947    494.70692   0.01186689  0.010967292         3921 
 3475000   0.69016913   -8.9070143    494.21085  0.011851579  0.010962312         3903 
 3476000   0.69615973   -8.9188592    493.82251   0.01183886  0.010957327         3916 
 3477000   0.70138943   -8.9094422    494.52557  0.011852305  0.010952357         3904 
 3478000   0.68826434   -8.9043346    493.35336  0.011820811  0.010947383         3908 
 3479000   0.70459456   -8.9138214    493.88034  0.011830036  0.010942409         3913 
 3480000   0.71076935   -8.9037997    493.24607  0.011811448  0.010937445         3901 
 3481000   0.68916378   -8.9282474    494.24887  0.011832061   0.01093248         3907 
 3482000   0.69716665   -8.9122407     493.9244  0.011820898  0.010927519         3904 
 3483000   0.69214233   -8.8960128    494.97763  0.011842703   0.01092256         3909 
 3484000   0.69141732   -8.9039901     494.5521  0.011829126  0.010917608         3909 
 3485000   0.69530149   -8.9044176    493.93846  0.011811058  0.010912651         3913 
 3486000   0.69767999   -8.9140795    494.88013  0.011830181  0.010907696         3905 
 3487000   0.68990644   -8.8892366    494.76426  0.011824019  0.010902747         3919 
 3488000   0.69758532   -8.9135676     494.7686  0.011820733  0.010897804         3916 
 3489000   0.68316728   -8.9067456    494.16168  0.011802849  0.010892859         3918 
 3490000   0.69475031   -8.9264524    493.26173  0.011777978  0.010887919         3928 
 3491000   0.69355165   -8.9227546    493.68187  0.011784634  0.010882984         3912 
 3492000   0.68108562   -8.9327807    494.06394  0.011790377  0.010878047         3893 
 3493000   0.69428717   -8.9305215    492.15196  0.011741387  0.010873112         3913 
 3494000   0.70436842   -8.9007159    493.72242  0.011775482  0.010868177         3922 
 3495000   0.69175296   -8.9161407    493.63375  0.011769999  0.010863249         3949 
 3496000   0.69850196   -8.9245734    493.27985  0.011758196  0.010858331         3921 
 3497000   0.68144284   -8.9171609    494.52432  0.011784489  0.010853408         3929 
 3498000   0.68896374   -8.9070163    494.42684  0.011778798  0.010848492         3933 
 3499000   0.70863499   -8.9274397     493.3397   0.01174954  0.010843576         3902 
 3500000   0.68433155   -8.9223606    493.68478    0.0117544   0.01083867         3907 
 3501000    0.6891142   -8.9182601    493.90025  0.011756171  0.010833765         3915 
 3502000    0.6874329   -8.9256156    493.39917   0.01174089  0.010828851         3934 
 3503000   0.68065549    -8.905657    494.06787  0.011753446  0.010823948         3929 
 3504000   0.69113281   -8.9235489    493.02277  0.011725237  0.010819042         3934 
 3505000   0.68438096   -8.9086416    493.64723  0.011736739  0.010814141         3911 
 3506000   0.69744603   -8.9253646     493.1431  0.011721409   0.01080924         3928 
 3507000   0.68845325   -8.9347309    493.53422   0.01172736  0.010804344         3922 
 3508000   0.69103942   -8.9076238    493.91341  0.011733025  0.010799452         3898 
 3509000    0.6984706    -8.924625    492.88731  0.011705313  0.010794565         3921 
 3510000   0.69712081    -8.916489      493.249  0.011710565  0.010789681         3894 
 3511000   0.68466223    -8.928501    493.48197  0.011712759  0.010784803         3918 
 3512000   0.68104645   -8.9077504    493.39221  0.011707294  0.010779926         3926 
 3513000   0.69110431   -8.9181312    494.16865   0.01172238   0.01077505         3908 
 3514000   0.67861442   -8.9119843    494.32484  0.011722748  0.010770177         3922 
 3515000   0.69877821    -8.881288    494.67661  0.011727753  0.010765308         3882 
 3516000   0.69484404   -8.9348229    493.18659  0.011689102  0.010760436         3885 
 3517000   0.69839716   -8.9186687     494.3209  0.011712655  0.010755569         3928 
 3518000   0.68891649   -8.9224739    493.15196  0.011681636  0.010750705         3915 
 3519000   0.69677576   -8.9041489    494.35882  0.011706896  0.010745847         3912 
 3520000    0.6834306   -8.9158927    494.31107   0.01170244  0.010740994         3899 
 3521000   0.68165318   -8.9105736    493.72765  0.011685308  0.010736134         3884 
 3522000   0.67636039   -8.9047176    494.38592  0.011697566  0.010731281         3914 
 3523000   0.68726839   -8.9452919    494.16226  0.011688955  0.010726433         3897 
 3524000   0.66788006   -8.9328435    493.47025  0.011669274   0.01072159         3903 
 3525000   0.67377852   -8.9269311    493.73573   0.01167224  0.010716745         3897 
 3526000   0.68801089   -8.9098283    494.29818  0.011682222  0.010711903         3919 
 3527000   0.70832453   -8.9112679    493.37484  0.011657094  0.010707068         3904 
 3528000   0.68512272   -8.9256352    494.23234  0.011674044  0.010702236         3922 
 3529000   0.68282234   -8.9177556    494.12389  0.011668175    0.0106974         3894 
 3530000   0.69248237   -8.9270839    494.80607  0.011680974  0.010692574         3896 
 3531000   0.68801858   -8.9145749    493.89631  0.011656195  0.010687751         3893 
 3532000   0.69324479   -8.9114418    493.81223  0.011650911  0.010682926         3923 
 3533000   0.68991804   -8.9325633    493.86366  0.011648827  0.010678108         3892 
 3534000   0.68727856   -8.9374559    493.32691  0.011632874   0.01067329         3887 
 3535000   0.69697679    -8.937487    494.94556  0.011667741  0.010668473         3901 
 3536000   0.69324359   -8.9231257    493.29337  0.011625504  0.010663664         3928 
 3537000   0.67836665   -8.9434738    493.57376  0.011628823  0.010658856         3912 
 3538000   0.65792957   -8.9388946    493.53885  0.011624714   0.01065405         3904 
 3539000   0.67348628   -8.9363128    493.96302  0.011631417  0.010649243         3905 
 3540000   0.68547332   -8.9201165     493.8799  0.011626175  0.010644445         3899 
 3541000   0.67487837   -8.9145736    494.62519  0.011640431  0.010639644         3892 
 3542000   0.68489122    -8.922083    493.68905   0.01161512  0.010634849         3918 
 3543000   0.70162434   -8.9308818    493.26725  0.011601921  0.010630061         3888 
 3544000   0.67333183   -8.9421468    493.46782  0.011603363  0.010625265         3918 
 3545000   0.69667005   -8.8989235    494.14035  0.011615899  0.010620481         3907 
 3546000   0.68989074   -8.9262894     492.7847  0.011580765  0.010615696         3909 
 3547000   0.68270171   -8.9137961    493.68373  0.011598622  0.010610912         3901 
 3548000   0.69785346   -8.9324296    494.09514  0.011605016  0.010606129         3913 
 3549000   0.69456896   -8.9384417     493.3689  0.011584693  0.010601351         3895 
 3550000   0.68313468   -8.9219477    493.70674   0.01158936  0.010596581         3892 
 3551000   0.68988775   -8.9442445    494.35225  0.011601245   0.01059181         3906 
 3552000   0.67623724   -8.9360909    493.70183  0.011582719  0.010587047         3911 
 3553000    0.6933614   -8.9223313    493.39374  0.011572233  0.010582286         3898 
 3554000   0.68341291   -8.9256235    493.62821  0.011574475  0.010577522         3907 
 3555000   0.68681684   -8.9462123    492.65975  0.011548517  0.010572762         3895 
 3556000   0.69558849   -8.9260997    493.91323  0.011574645  0.010568005         3903 
 3557000   0.69229296   -8.9576311     493.6208  0.011564539  0.010563249         3893 
 3558000   0.69111323   -8.9338996     493.7702  0.011564788  0.010558494         3929 
 3559000   0.67895813   -8.9272975     493.7461  0.011560975  0.010553748         3918 
 3560000   0.68375043   -8.9200736    493.59066  0.011554089  0.010549004         3903 
 3561000   0.67767327   -8.9096817    492.76063   0.01153142  0.010544262         3917 
 3562000   0.69254463   -8.9302778    494.07094  0.011558837  0.010539517         3922 
 3563000   0.70659703   -8.9334194     493.4408  0.011540855  0.010534779         3916 
 3564000   0.69115452    -8.904519    493.72936  0.011544364  0.010530044         3881 
 3565000   0.67635178    -8.935769    494.24625  0.011553208  0.010525309         3899 
 3566000   0.69027791   -8.9241671    493.89271  0.011541707  0.010520579         3919 
 3567000   0.66332122   -8.9500632    492.79942  0.011512929  0.010515852         3941 
 3568000   0.68493438   -8.9246402     493.9433  0.011536419  0.010511123         3891 
 3569000   0.67440037   -8.9222114     493.2596  0.011517222    0.0105064         3883 
 3570000   0.68001739   -8.9219066     492.8353  0.011504092  0.010501682         3870 
 3571000    0.6780218    -8.926578    493.73151  0.011521785  0.010496962         3913 
 3572000   0.67975425   -8.9384978    493.40148   0.01151086  0.010492244         3906 
 3573000   0.68953584   -8.9441137     493.4629   0.01150907  0.010487531         3934 
 3574000   0.66683534    -8.956041    492.91747  0.011493133  0.010482818         3921 
 3575000   0.66288895   -8.9224185    493.01442  0.011492178  0.010478108         3911 
 3576000   0.68715792   -8.9325978    493.14917  0.011492104  0.010473404         3925 
 3577000     0.680424   -8.9440157    492.33126  0.011469836  0.010468699         3914 
 3578000   0.67636644   -8.9439713    492.85891   0.01147892  0.010463998         3903 
 3579000   0.68717365   -8.9360959    492.50234   0.01146741  0.010459303         3905 
 3580000   0.68125485   -8.9347555    492.88555  0.011473127  0.010454606         3918 
 3581000   0.66850415   -8.9214625    493.80014  0.011491207  0.010449918         3904 
 3582000   0.67099443   -8.9431246    493.14186  0.011472684  0.010445232         3914 
 3583000   0.67825679   -8.9457695     493.2392  0.011471746  0.010440544         3878 
 3584000   0.68328755   -8.9418891    492.41348  0.011449346  0.010435866         3918 
 3585000   0.68653534   -8.9221822    493.90782  0.011480888  0.010431183         3907 
 3586000   0.66827687   -8.9411385    493.60203  0.011470581   0.01042651         3890 
 3587000   0.69339011   -8.9206424    492.94714  0.011452169  0.010421838         3912 
 3588000     0.674898   -8.9419598    493.43884  0.011460397  0.010417169         3935 
 3589000   0.66592154   -8.9274328    493.72954  0.011463953  0.010412502         3908 
 3590000   0.69402881   -8.9249156    493.76535  0.011461591  0.010407835         3911 
 3591000   0.67889676   -8.9546761    493.31158  0.011447869  0.010403169         3924 
 3592000   0.67285339   -8.9393844    492.21941  0.011419344  0.010398509         3907 
 3593000    0.6724333   -8.9384238    493.85782  0.011454166  0.010393849         3915 
 3594000   0.67284027   -8.9303229    493.88519  0.011451614   0.01038919         3936 
 3595000   0.68932021   -8.9471592    493.60491  0.011441931  0.010384535         3930 
 3596000   0.69715632   -8.9617502    493.63208  0.011439379  0.010379886         3929 
 3597000   0.68806155    -8.927187    493.19622  0.011426101  0.010375238         3932 
 3598000   0.67236619   -8.9454896     492.7623  0.011412875   0.01037059         3907 
 3599000   0.67819558   -8.9374798    492.77491  0.011409996  0.010365943         3907 
 3600000   0.67544213   -8.9594244    493.44052  0.011422234  0.010361299         3935 
 3601000   0.66619891   -8.9515307    492.55953  0.011398675  0.010356659         3923 
 3602000   0.68011311   -8.9591012    493.62019  0.011420049  0.010352027         3920 
 3603000   0.68102755   -8.9578761    493.21369  0.011407477  0.010347398         3910 
 3604000   0.66965717   -8.9498399    492.82267  0.011395271  0.010342766         3906 
 3605000   0.67072025   -8.9462876    493.06064  0.011397611  0.010338136         3934 
 3606000   0.66849954   -8.9426456    493.07572  0.011394799  0.010333511         3924 
 3607000   0.67835847   -8.9474806    493.59557   0.01140365  0.010328886         3917 
 3608000   0.67209289   -8.9380844     494.0557  0.011411116  0.010324268         3900 
 3609000   0.67452348    -8.943302    492.59458  0.011374217  0.010319647         3936 
 3610000   0.66598564   -8.9429248    492.94507  0.011379157  0.010315026         3911 
 3611000   0.67646578   -8.9315728    493.50031  0.011388819  0.010310418         3911 
 3612000   0.65826617   -8.9156932    493.37512  0.011382778  0.010305806         3909 
 3613000   0.67917098   -8.9498408    493.02314  0.011371509  0.010301199         3906 
 3614000   0.68253408   -8.9563027    492.53895  0.011357198  0.010296595         3905 
 3615000   0.67656206   -8.9268423    492.98676  0.011364379  0.010291992         3898 
 3616000   0.66923689   -8.9415807    494.25445  0.011390451  0.010287395         3898 
 3617000    0.6754367   -8.9469999     493.0916  0.011360511  0.010282797         3910 
 3618000   0.68525776   -8.9492474    492.68042    0.0113479  0.010278204         3898 
 3619000   0.66862454   -8.9541777    493.45174  0.011362525  0.010273611         3911 
 3620000   0.66813707   -8.9531843    493.88352  0.011369326  0.010269025         3895 
 3621000   0.67379281   -8.9701183    492.92822  0.011344201  0.010264439         3921 
 3622000   0.66909426   -8.9487893    493.37055  0.011351246  0.010259855         3920 
 3623000   0.67376102   -8.9815811    491.77008    0.0113113   0.01025527         3918 
 3624000   0.66559762   -8.9389239    494.01173  0.011359725  0.010250693         3878 
 3625000    0.6836043   -8.9574701     492.8476   0.01132983  0.010246119         3908 
 3626000   0.66376989   -8.9461514     493.3188  0.011337534  0.010241546         3887 
 3627000    0.6637723   -8.9453885    492.66013  0.011319275  0.010236978         3873 
 3628000    0.6679121   -8.9421021    493.20036  0.011328564  0.010232412         3905 
 3629000   0.66514451   -8.9500539    493.41014   0.01133026  0.010227848         3899 
 3630000   0.67092142   -8.9539336    492.99155  0.011317529  0.010223285         3916 
 3631000   0.66822681   -8.9372972    493.16118  0.011318305  0.010218721         3904 
 3632000   0.66594179    -8.965734    492.73988  0.011305522  0.010214166         3898 
 3633000   0.67047741   -8.9447631    493.60618  0.011322281  0.010209616         3890 
 3634000   0.67011858   -8.9302873    493.28428  0.011311784   0.01020507         3893 
 3635000   0.66942513   -8.9543924     493.3744  0.011310738  0.010200523         3856 
 3636000    0.6703731    -8.954774    493.02946  0.011299722  0.010195982         3873 
 3637000   0.64896626    -8.926657    493.50406  0.011307489  0.010191447         3872 
 3638000   0.67491068     -8.95411    493.54913  0.011305413  0.010186912         3869 
 3639000   0.67524547   -8.9499749    493.17865  0.011293823  0.010182379         3892 
 3640000   0.65391806   -8.9500076    492.81731  0.011282448  0.010177851         3884 
 3641000   0.67398213   -8.9569492    493.15501  0.011287078  0.010173323         3911 
 3642000   0.65230219   -8.9371755     493.3465   0.01128836  0.010168792         3900 
 3643000     0.673296   -8.9558384    492.81832   0.01127318   0.01016427         3891 
 3644000   0.68140027    -8.973794    494.31466  0.011304305  0.010159744         3903 
 3645000   0.66147508   -8.9597343     492.5368  0.011260558  0.010155223         3912 
 3646000   0.67703723   -8.9414311    493.77781  0.011285834  0.010150708         3912 
 3647000    0.6811121   -8.9307196    492.91861  0.011263107  0.010146194         3910 
 3648000   0.67368872   -8.9636697    493.77598  0.011279605  0.010141684         3907 
 3649000   0.66248416   -8.9657532    492.81749  0.011254624  0.010137177         3908 
 3650000   0.66600415   -8.9557597    493.69769  0.011271637   0.01013267         3885 
 3651000   0.66519224   -8.9756716    493.06917  0.011254204  0.010128163         3906 
 3652000   0.68159295   -8.9573943    493.01859  0.011249968  0.010123659         3908 
 3653000   0.67837362   -8.9457711    492.71187  0.011239891   0.01011916         3897 
 3654000   0.67188522   -8.9687582    492.57454  0.011233683  0.010114661         3898 
 3655000   0.66881844   -8.9627665    493.74639  0.011257328  0.010110169         3891 
 3656000   0.67749714   -8.9633081    493.47238  0.011248003  0.010105675         3925 
 3657000   0.66319848   -8.9503528     492.2899  0.011217982  0.010101181         3922 
 3658000   0.66747584   -8.9565234    493.31204    0.0112382  0.010096693         3917 
 3659000   0.67033415   -8.9528572    492.87639  0.011225207  0.010092203         3853 
 3660000   0.67027771   -8.9560945    492.68079  0.011217686   0.01008773         3938 
 3661000   0.67032713   -8.9464536    492.66377  0.011214235  0.010083253         3879 
 3662000   0.66940813   -8.9404743    492.32195  0.011203394  0.010078775         3905 
 3663000   0.66698302   -8.9473822    492.69782  0.011208887  0.010074302         3919 
 3664000   0.68237007   -8.9640219    494.22288  0.011240513  0.010069833         3924 
 3665000   0.67264377   -8.9461577    492.83013  0.011205778  0.010065364         3922 
 3666000   0.66540882   -8.9845971    492.70812  0.011199948  0.010060897         3925 
 3667000   0.66765419   -8.9587951    492.69652   0.01119663  0.010056432         3909 
 3668000   0.66086835   -8.9638003    493.30105  0.011207312  0.010051976         3927 
 3669000   0.66350348   -8.9504072    492.33357  0.011182283  0.010047518         3932 
 3670000   0.66135941   -8.9551042    492.34689  0.011179539  0.010043064         3932 
 3671000    0.6674561   -8.9467071    493.28268  0.011197736  0.010038609         3914 
 3672000   0.65687062   -8.9743425    492.94207  0.011186957  0.010034156         3931 
 3673000   0.66267558   -8.9609994    491.82227  0.011158505  0.010029703         3922 
 3674000   0.66978894   -8.9554871    492.38222  0.011168169  0.010025255         3920 
 3675000   0.68286575   -8.9649203    492.14707  0.011159797  0.010020817         3908 
 3676000   0.67957034    -8.954177    492.50046  0.011164773  0.010016377         3903 
 3677000   0.67019357   -8.9904932    492.73975   0.01116716  0.010011938         3917 
 3678000   0.66777026   -8.9700687    491.40879  0.011133968  0.010007503         3909 
 3679000   0.66896655   -8.9389565    492.80001  0.011162454  0.010003069         3917 
 3680000   0.66904219   -8.9710497    492.97371  0.011163354 0.0099986377         3921 
 3681000   0.66396326   -8.9887508    492.05031  0.011139417 0.0099942078         3926 
 3682000   0.66581542   -8.9543325    493.54335  0.011170183 0.0099897831         3887 
 3683000   0.67905634   -8.9674852    492.02218  0.011132731 0.0099853654         3906 
 3684000   0.66753295   -8.9704544    491.78847  0.011124423 0.0099809527         3910 
 3685000    0.6640239   -8.9673164     493.4358  0.011158657 0.0099765365         3929 
 3686000   0.67187893    -8.949182    493.81995  0.011164314 0.0099721248         3908 
 3687000   0.66081422   -8.9746745    491.98385  0.011119787 0.0099677164         3873 
 3688000   0.67305307   -8.9474026    493.07162  0.011141351  0.009963313         3894 
 3689000   0.66907001   -8.9518044    493.29087  0.011143283 0.0099589121         3933 
 3690000   0.65861709   -8.9572125    492.88313  0.011131055 0.0099545107         3887 
 3691000   0.68660031   -8.9568827    492.72817  0.011124541 0.0099501135         3938 
 3692000   0.67858727   -8.9530204    492.98448  0.011127313 0.0099457185         3925 
 3693000   0.65669603   -8.9638136    493.04722  0.011125716 0.0099413245         3912 
 3694000   0.65997722   -8.9517257    493.32392  0.011128946 0.0099369283         3924 
 3695000   0.65517364   -8.9568732      492.473  0.011106743 0.0099325427         3927 
 3696000   0.66529811   -8.9471621    492.09195  0.011095147 0.0099281498         3935 
 3697000   0.65005865   -8.9561985     491.7062  0.011083451 0.0099237604         3916 
 3698000   0.67093242   -8.9870026    492.76981  0.011104421 0.0099193711         3933 
 3699000   0.65110102   -8.9734701    492.07559   0.01108578 0.0099149889         3910 
 3700000   0.65507504    -8.965225    492.98065  0.011103168 0.0099106066         3918 
 3701000     0.664508   -8.9492122    492.47874  0.011088867 0.0099062249         3901 
 3702000   0.64071683   -8.9675765    492.51383  0.011086661 0.0099018498         3908 
 3703000   0.65014164    -8.955201     493.1678  0.011098384 0.0098974786         3920 
 3704000   0.65529872   -8.9904364    492.45285  0.011079303 0.0098931058         3917 
 3705000   0.67224001   -8.9817609    492.46316  0.011076544 0.0098887353         3925 
 3706000   0.66642673   -8.9726682    493.81165  0.011103878 0.0098843686         3924 
 3707000   0.66887726   -8.9819144    492.00069  0.011060172 0.0098800037         3928 
 3708000   0.65790441   -8.9702098    492.10373  0.011059505 0.0098756386         3942 
 3709000   0.66849166   -8.9851953    491.58716  0.011044917 0.0098712803         3928 
 3710000   0.66718275   -8.9685591    492.22201    0.0110562 0.0098669199         3896 
 3711000   0.64887563   -8.9863335    491.77859  0.011043263 0.0098625611         3927 
 3712000   0.65045367   -8.9606934    492.80469  0.011063324 0.0098582071         3912 
 3713000   0.65465333   -8.9736367    492.45858  0.011052576 0.0098538584         3909 
 3714000   0.65660897   -8.9561107     493.3682   0.01107001 0.0098495114         3917 
 3715000   0.65855725    -8.980689    492.74088  0.011052958 0.0098451703         3900 
 3716000   0.66806299   -8.9762838    492.53083  0.011045273 0.0098408291         3942 
 3717000   0.66208733   -8.9754014    491.58116  0.011021011 0.0098364897         3904 
 3718000   0.66229161   -8.9773758    492.77454  0.011044794 0.0098321524         3908 
 3719000   0.65769964   -8.9654838    492.04247  0.011025421 0.0098278172         3923 
 3720000   0.64422841   -8.9732142    492.95094  0.011042808 0.0098234837         3920 
 3721000   0.64489666    -8.963609    492.33145  0.011025966 0.0098191526         3920 
 3722000   0.67018209   -8.9662139    492.55438  0.011027995 0.0098148257         3926 
 3723000   0.65508459   -8.9820724    492.07629  0.011014332 0.0098105008         3936 
 3724000   0.64520871   -8.9805597    492.21324  0.011014439 0.0098061788         3930 
 3725000   0.65409591   -8.9784707    492.51602  0.011018255 0.0098018582         3916 
 3726000   0.65204588   -8.9708383    493.02759   0.01102674 0.0097975413         3907 
 3727000   0.66238693   -8.9781587    492.97498  0.011022605 0.0097932243         3907 
 3728000    0.6467328   -8.9890858    492.35516  0.011005793 0.0097889124         3922 
 3729000    0.6585608    -8.993107     492.2971  0.011001544 0.0097845994         3908 
 3730000    0.6547546   -8.9866944    492.54842   0.01100421 0.0097802888         3949 
 3731000   0.65993949   -8.9587738     492.2031  0.010993547 0.0097759777         3919 
 3732000   0.66469233   -8.9586182    492.04333  0.010987034 0.0097716769         3910 
 3733000   0.63897299    -8.997812    492.76795  0.011000267 0.0097673752         3913 
 3734000   0.65888172   -8.9629481    493.21614  0.011007323  0.009763077         3911 
 3735000   0.65527363   -8.9829572    492.73159  0.010993565 0.0097587803         3932 
 3736000    0.6563893   -8.9760343    492.42208  0.010983719 0.0097544863         3921 
 3737000   0.65787317   -8.9745868    491.79143  0.010966716 0.0097501963         3922 
 3738000   0.65369133   -8.9816148    492.73357  0.010984786 0.0097459044         3907 
 3739000   0.65036736   -8.9701389    491.61896  0.010957006 0.0097416206         3916 
 3740000   0.65114012   -8.9685393    491.82514  0.010958671 0.0097373398         3917 
 3741000   0.65313507    -8.954392    492.85047  0.010978581 0.0097330586         3905 
 3742000   0.66782438   -8.9648688    491.61672  0.010948172 0.0097287833         3912 
 3743000   0.65657373   -8.9687984    491.68715  0.010946815 0.0097245049         3928 
 3744000    0.6510562   -8.9863844    492.96773  0.010972394  0.009720232         3911 
 3745000   0.64506664   -8.9874743    492.22882  0.010953022 0.0097159621         3922 
 3746000   0.65698835   -8.9933443    492.51568   0.01095648  0.009711694         3929 
 3747000   0.63996698   -8.9818021    492.13092  0.010944999 0.0097074264         3928 
 3748000   0.65040302   -8.9664308    492.05198  0.010940323 0.0097031558         3916 
 3749000   0.65675193   -8.9683706    493.10842  0.010960888 0.0096988904         3947 
 3750000    0.6525542   -8.9832969    492.57411  0.010946091 0.0096946265         3936 
 3751000   0.66820919   -8.9608147    491.58138  0.010921118 0.0096903672         3943 
 3752000   0.64424736   -8.9964561    492.09036  0.010929512 0.0096861104         3924 
 3753000    0.6612371   -8.9967191    492.04962  0.010925695 0.0096818549         3927 
 3754000   0.65576507   -8.9692302    491.29218  0.010905971 0.0096776125         3918 
 3755000   0.65440279   -9.0021276    492.06457  0.010920208  0.009673365         3932 
 3756000   0.65409567   -8.9596606    492.30466  0.010922627 0.0096691195         3925 
 3757000    0.6438787   -8.9735817    493.08703  0.010937074 0.0096648728         3910 
 3758000   0.64626336   -8.9817409     492.3693  0.010918248 0.0096606268         3936 
 3759000   0.65399215   -8.9912077    492.36274  0.010915198 0.0096563896         3921 
 3760000    0.6517197   -8.9924574    491.96735  0.010903532 0.0096521527         3927 
 3761000   0.63629083   -8.9778239    492.49013  0.010912216 0.0096479205         3910 
 3762000    0.6588602     -8.97858    492.53534  0.010910317 0.0096436915         3940 
 3763000   0.63395787    -8.977966    492.80043  0.010913288 0.0096394593         3919 
 3764000   0.64744765   -8.9911476    491.68036  0.010885591 0.0096352372         3951 
 3765000   0.65231404   -8.9860276    491.37713  0.010875988 0.0096310115         3943 
 3766000   0.65345272   -8.9820638     492.0195  0.010887314 0.0096267844         3950 
 3767000   0.66440295   -8.9905114    491.76185  0.010878724 0.0096225636         3926 
 3768000    0.6653977   -8.9887299    492.19703  0.010885462 0.0096183449         3911 
 3769000   0.64335811   -8.9994812    491.54716  0.010868205 0.0096141294         3928 
 3770000   0.65006492   -9.0107321    491.83819  0.010871755 0.0096099175         3922 
 3771000   0.64463099   -9.0105245    492.06049  0.010873784 0.0096057082         3920 
 3772000   0.66456182   -8.9740168    491.62621  0.010861307 0.0096014994         3930 
 3773000   0.64988893   -9.0164204     491.8421  0.010863197 0.0095972917         3940 
 3774000   0.64182661   -8.9767977    491.60235  0.010855024 0.0095930859         3935 
 3775000   0.64491579   -8.9952258    491.66253  0.010853477 0.0095888874         3904 
 3776000   0.64627969   -8.9899988    491.22658  0.010840982 0.0095846897         3938 
 3777000   0.64356809   -8.9710974    492.32467  0.010862339 0.0095804957         3909 
 3778000   0.63962272   -8.9986216    491.94541  0.010851099 0.0095763026         3923 
 3779000   0.64540113   -8.9828812    491.54257  0.010839344 0.0095721127         3929 
 3780000   0.64887015   -8.9955268    492.20749  0.010851135  0.009567924         3916 
 3781000    0.6334793   -8.9800658    492.12804  0.010846514 0.0095637361         3931 
 3782000   0.63619584   -9.0003095    492.27943  0.010846982 0.0095595546         3914 
 3783000   0.64391143   -8.9979893     492.2211   0.01084283 0.0095553705         3926 
 3784000   0.63531158   -9.0116077    491.89094  0.010832693 0.0095511906         3949 
 3785000    0.6579803   -8.9899933    491.24928  0.010815704 0.0095470134         3939 
 3786000   0.66208177   -8.9913563    492.30166  0.010836011 0.0095428384         3930 
 3787000   0.65490434   -8.9806848    491.86935  0.010823637 0.0095386666         3933 
 3788000   0.65017387   -8.9956239    492.58671  0.010836561 0.0095344999         3939 
 3789000   0.63983904   -8.9847774     491.9263  0.010819176 0.0095303359         3930 
 3790000   0.63993434   -8.9932403    491.76295   0.01081273 0.0095261727         3927 
 3791000   0.64131631   -8.9963286    491.87241  0.010812284  0.009522014         3925 
 3792000   0.63803099   -8.9835284    492.32742  0.010819432 0.0095178537         3920 
 3793000    0.6488043   -8.9967936    491.41783  0.010796595 0.0095136964         3927 
 3794000   0.64839729   -9.0024189    492.23081  0.010811606 0.0095095449         3921 
 3795000   0.65633054   -8.9901227    492.22869  0.010808711 0.0095053912         3933 
 3796000   0.64439412   -9.0040181    492.00649  0.010800985 0.0095012437         3932 
 3797000   0.66267178   -8.9779693    491.30115  0.010782661 0.0094971025         3927 
 3798000   0.63988509    -9.006271    491.63719  0.010787195 0.0094929596         3915 
 3799000   0.66440998   -8.9940568    491.44167  0.010780066 0.0094888217         3908 
 3800000   0.65094661   -8.9851495    491.84158     0.010786 0.0094846811         3940 
 3801000   0.64786574   -8.9853255    491.88495  0.010784113 0.0094805455         3921 
 3802000    0.6517864   -8.9921253    491.79464  0.010779297 0.0094764101         3928 
 3803000   0.64684168    -8.997404    491.97978  0.010780519 0.0094722801         3929 
 3804000    0.6496946   -8.9938068    492.07189  0.010779703 0.0094681502         3912 
 3805000   0.65682258   -9.0083485    492.06871    0.0107768 0.0094640181         3912 
 3806000   0.64212912   -8.9864226    491.54547  0.010762512 0.0094598952         3919 
 3807000   0.65083269   -8.9809457    492.33034  0.010776866 0.0094557722         3920 
 3808000   0.64336233   -9.0042384    490.39445  0.010731671 0.0094516502         3909 
 3809000   0.64813611   -9.0147369    491.95693  0.010763038 0.0094475288         3913 
 3810000   0.63218322   -8.9778435    491.75068  0.010755702 0.0094434119         3917 
 3811000   0.62851234   -8.9920053    492.15513  0.010761723 0.0094392938         3917 
 3812000   0.63243951     -8.99704    492.00077  0.010755526 0.0094351789         3915 
 3813000   0.63904623    -8.993738    492.18888  0.010756816 0.0094310702         3915 
 3814000   0.64265304   -8.9795589    492.07098   0.01075142 0.0094269628         3916 
 3815000   0.63862853   -8.9985206    492.35177  0.010754735 0.0094228601         3907 
 3816000   0.64342243   -9.0145463    492.22191  0.010749081 0.0094187584         3907 
 3817000    0.6415045   -9.0191505    492.93248  0.010761778 0.0094146602         3934 
 3818000   0.64006276   -9.0037082    491.95132  0.010737544 0.0094105615         3930 
 3819000   0.64716841   -9.0107567    491.12444  0.010716689 0.0094064651         3949 
 3820000   0.65584884   -9.0104951    491.73878  0.010727286 0.0094023659         3919 
 3821000   0.63496492   -9.0146516    491.70735  0.010723793 0.0093982754         3924 
 3822000   0.64878365   -9.0145509    491.54056   0.01071735 0.0093941846         3904 
 3823000   0.62721431   -9.0355046    491.30731  0.010709463 0.0093900929         3912 
 3824000   0.64346907   -8.9955208    490.88547  0.010697469 0.0093860057         3894 
 3825000   0.63544336   -8.9943353    492.56787  0.010731326 0.0093819223         3908 
 3826000   0.64943799   -9.0054916    492.08976  0.010718108 0.0093778434         3927 
 3827000   0.64785737    -9.017732    491.61053  0.010704872 0.0093737671         3941 
 3828000   0.66043115   -8.9708765    492.42649  0.010719838 0.0093696916         3913 
 3829000    0.6446512    -9.004963    491.58133  0.010698645 0.0093656166         3907 
 3830000   0.64053636   -8.9984845    491.89814  0.010702745 0.0093615501         3908 
 3831000   0.65191256   -8.9906642    491.55947  0.010692584 0.0093574846         3910 
 3832000   0.63364219   -9.0001563    493.07135  0.010722672 0.0093534178         3910 
 3833000   0.63423349   -8.9958601     492.7002  0.010711805 0.0093493551         3881 
 3834000   0.63306258   -9.0043896    491.65599  0.010686315 0.0093452937         3908 
 3835000   0.63245136   -9.0225315    491.64454   0.01068328  0.009341237         3908 
 3836000   0.63781659   -9.0124427    491.70291  0.010681763 0.0093371819         3914 
 3837000   0.63852579   -8.9982965    491.74528  0.010679899 0.0093331266         3912 
 3838000   0.63269592   -9.0036982    491.68869  0.010675888 0.0093290705         3913 
 3839000   0.64322092   -8.9996504    491.98056  0.010679443 0.0093250213         3915 
 3840000   0.63287227   -8.9890746    491.99793  0.010677038 0.0093209763         3918 
 3841000   0.63674051   -9.0190566    490.58614  0.010643629 0.0093169272         3931 
 3842000   0.64250042   -9.0128349    491.35684  0.010657575 0.0093128862         3916 
 3843000   0.63079892   -9.0126607    490.90636  0.010645033 0.0093088448         3909 
 3844000   0.62618855   -8.9921627    491.36064  0.010652112  0.009304806         3904 
 3845000   0.63351972   -9.0013493    491.71717  0.010657069 0.0093007656         3892 
 3846000   0.63165744   -9.0094767    491.58491  0.010651432 0.0092967317         3911 
 3847000   0.63407786   -9.0205603     490.9338  0.010634559  0.009292698         3927 
 3848000   0.62997998   -9.0119349    490.58196  0.010624176 0.0092886687         3904 
 3849000     0.635683   -9.0000508    490.96785  0.010629771 0.0092846409         3911 
 3850000   0.64185255    -8.991734    491.15887  0.010631144 0.0092806171         3885 
 3851000   0.62907125   -9.0064398     491.2242  0.010629797 0.0092765967         3928 
 3852000   0.63275967   -9.0365162    491.09872  0.010624323 0.0092725768         3926 
 3853000   0.61784368   -8.9999025    491.01866  0.010619834 0.0092685559         3905 
 3854000    0.6283709   -9.0006006    491.30438  0.010623257  0.009264539         3900 
 3855000   0.63344468   -9.0155499    491.43298  0.010623281 0.0092605194         3922 
 3856000   0.64014631   -9.0278585     491.1359  0.010614106 0.0092565063         3907 
 3857000   0.61625357   -9.0170289    490.99859  0.010608387 0.0092524951         3916 
 3858000   0.63705644   -8.9949471    492.43696  0.010636706  0.009248489         3913 
 3859000   0.64447561   -9.0015386    492.30424  0.010631084  0.009244482         3895 
 3860000   0.63438565   -9.0010496    491.35171  0.010607766 0.0092404843         3913 
 3861000   0.62655229   -9.0067288    491.44632   0.01060706 0.0092364801         3929 
 3862000   0.63784951   -8.9961333    490.91269  0.010592799 0.0092324828         3935 
 3863000   0.63438222   -8.9912903    492.29919  0.010619967 0.0092284868         3910 
 3864000   0.62775445   -9.0053268    491.67715  0.010603803 0.0092244949         3901 
 3865000   0.63935425   -9.0213473    491.31428  0.010593236 0.0092205041         3908 
 3866000   0.64205244   -9.0034549    491.23869  0.010588866 0.0092165201         3911 
 3867000    0.6386461   -9.0171676    490.95929  0.010580107 0.0092125334         3939 
 3868000   0.64327181   -9.0062091    492.45772  0.010609654 0.0092085516         3899 
 3869000   0.63434334   -9.0167341    491.31004  0.010582193 0.0092045711         3911 
 3870000   0.62292953   -9.0157632    491.57203    0.0105851 0.0092005872         3890 
 3871000   0.63141526   -9.0192838    491.37361  0.010578094 0.0091966115         3918 
 3872000   0.65345363   -9.0205342    491.22427  0.010572148 0.0091926362         3923 
 3873000   0.63333731   -9.0161485    491.10158  0.010566778 0.0091886606         3922 
 3874000   0.62066788    -9.023658    491.04197  0.010562768 0.0091846879         3920 
 3875000   0.63601898   -9.0107543    491.94351   0.01057943  0.009180722         3900 
 3876000   0.63485567   -9.0127045    492.07317  0.010579489 0.0091767545         3914 
 3877000   0.61810837   -9.0102802    491.77782  0.010570411 0.0091727893         3904 
 3878000   0.63344373   -9.0123553    492.26409  0.010578135 0.0091688289         3906 
 3879000   0.64459017   -9.0193168    490.95241  0.010547229 0.0091648682         3914 
 3880000   0.62812379   -9.0139698    491.44803  0.010555155 0.0091609099         3931 
 3881000   0.62964118   -9.0119294    491.44944  0.010552466 0.0091569592         3914 
 3882000   0.64105362   -9.0093612    490.55603  0.010530569 0.0091530064         3899 
 3883000   0.62548626   -9.0165005    490.95885  0.010536502 0.0091490499         3922 
 3884000   0.62404923   -9.0001985    490.68477  0.010527909 0.0091451037         3897 
 3885000    0.6338913   -9.0284256    491.08648  0.010533815 0.0091411608         3906 
 3886000   0.62764898   -9.0009528    491.49895   0.01053995 0.0091372171         3879 
 3887000   0.63313936   -9.0259559    491.69233  0.010541384 0.0091332744         3909 
 3888000   0.63806848   -8.9885752    491.89323  0.010542979 0.0091293396         3911 
 3889000   0.63264981   -9.0271808    491.95759  0.010541647 0.0091254075         3908 
 3890000    0.6327486   -9.0287041    490.86272  0.010515482 0.0091214755         3903 
 3891000   0.62857922   -9.0270024    491.52189  0.010526897  0.009117549         3925 
 3892000   0.60783855   -9.0199984    491.29249  0.010519281 0.0091136219         3917 
 3893000   0.62389579   -9.0132483    490.48498  0.010499293 0.0091096933         3894 
 3894000   0.61875466   -9.0239508    490.93014  0.010506124 0.0091057685         3907 
 3895000   0.61871777    -9.024219    491.23005  0.010509843 0.0091018477         3905 
 3896000   0.62670306   -9.0145526    491.28932  0.010508413 0.0090979262         3915 
 3897000    0.6310441   -9.0034706    491.54997   0.01051129 0.0090940116         3905 
 3898000   0.61984107   -9.0301916    490.82788  0.010493156 0.0090900958         3918 
 3899000    0.6285384   -9.0001306    492.13133  0.010518324  0.009086185         3913 
 3900000   0.62594561   -9.0355968    491.57118  0.010503658 0.0090822745         3910 
 3901000   0.63104384   -9.0268088    491.29189  0.010494999 0.0090783671         3890 
 3902000   0.62952488   -9.0072668    491.09924  0.010488195 0.0090744624         3911 
 3903000   0.61613947   -9.0032229    491.62496  0.010496732  0.009070555         3902 
 3904000   0.63285013   -9.0292025      491.675  0.010495112 0.0090666521         3883 
 3905000   0.63074097   -9.0227903     490.5915  0.010469302 0.0090627548         3889 
 3906000   0.61848769    -9.001224    490.97479  0.010474799 0.0090588566         3905 
 3907000   0.63085459   -8.9969799    491.94559  0.010492825 0.0090549632         3902 
 3908000   0.63897721   -9.0158839     491.4656  0.010479904 0.0090510746         3910 
 3909000   0.62894922   -9.0110632    491.46167   0.01047714 0.0090471838         3921 
 3910000   0.62850096   -9.0263277    491.64296  0.010478324 0.0090432945         3924 
 3911000   0.62906393   -9.0212604    490.86353  0.010459037  0.009039408         3922 
 3912000   0.63160305   -9.0272385    490.14554  0.010441069 0.0090355252         3894 
 3913000   0.62428995   -8.9958988    491.33543  0.010463741 0.0090316486         3904 
 3914000   0.62794713   -9.0161371    491.60011  0.010466703 0.0090277689         3921 
 3915000    0.6165383   -9.0100023    490.57676  0.010442247  0.009023896         3909 
 3916000   0.63847814   -8.9959224    491.40849   0.01045728 0.0090200223         3920 
 3917000   0.64135599   -9.0149408    491.09127  0.010447861 0.0090161527         3893 
 3918000   0.63166236   -9.0297698    490.89254  0.010440968  0.009012284         3930 
 3919000    0.6168579   -9.0350462    490.92942  0.010439088 0.0090084154         3920 
 3920000   0.63980953   -9.0470348    490.93568  0.010436558 0.0090045478         3936 
 3921000   0.62137114   -9.0366545    490.95389  0.010434283 0.0090006857         3936 
 3922000   0.62123527   -9.0364561    491.05833  0.010433842 0.0089968256         3937 
 3923000   0.62947423   -9.0159524    490.69925  0.010423555 0.0089929663         3922 
 3924000   0.62037294   -9.0371669    490.78434  0.010422705 0.0089891061         3930 
 3925000   0.63155388   -9.0304681    491.12514  0.010427285 0.0089852482         3928 
 3926000   0.61473718   -9.0146859    490.84108    0.0104186 0.0089813934         3932 
 3927000   0.61481334   -9.0503128    491.21099  0.010423797 0.0089775421         3941 
 3928000   0.62145361   -9.0142783    490.20056  0.010399706 0.0089736926         3919 
 3929000   0.61859746   -9.0397698    490.94839  0.010412921 0.0089698487         3932 
 3930000   0.63469763   -9.0215258    491.76198  0.010427523 0.0089660052         3916 
 3931000   0.61641339   -9.0260941    491.04905  0.010409757 0.0089621635         3938 
 3932000   0.63157168   -9.0124722    490.53829  0.010396284 0.0089583197         3926 
 3933000   0.61334541   -9.0534578    490.25548  0.010387649 0.0089544828         3935 
 3934000   0.62844194   -9.0404569    490.97003  0.010400145 0.0089506461         3910 
 3935000   0.62643902   -9.0258223    491.52603  0.010409276  0.008946812         3924 
 3936000   0.63848494    -9.036999    490.83958  0.010392098 0.0089429828         3952 
 3937000   0.62230281   -9.0349883    489.44994  0.010360044 0.0089391532         3943 
 3938000   0.61056443   -9.0271387    490.34258  0.010376303 0.0089353221         3928 
 3939000   0.62727778   -9.0208319    490.80732  0.010383501 0.0089314984         3938 
 3940000   0.63256836   -9.0268961    491.09273  0.010386902  0.008927676         3946 
 3941000   0.60991751   -9.0265412    490.77806  0.010377613 0.0089238583         3950 
 3942000   0.60936647   -9.0209078     491.4088  0.010388314 0.0089200401         3918 
 3943000    0.6048074   -9.0253856    491.04623  0.010378017 0.0089162277         3926 
 3944000   0.62211603   -9.0267613    490.54953   0.01036489 0.0089124122         3920 
 3945000   0.61768466    -9.055798     490.3737  0.010358549 0.0089085993         3918 
 3946000   0.62130327   -9.0192655    491.08197  0.010370881 0.0089047907         3929 
 3947000   0.61741428   -9.0364755     490.3187  0.010352139 0.0089009805         3939 
 3948000    0.6320984    -9.021857    490.92274  0.010362267 0.0088971724         3939 
 3949000   0.60513769   -9.0580925     491.5462  0.010372799 0.0088933675         3929 
 3950000   0.62587791   -9.0436402    490.72769  0.010352905 0.0088895633         3893 
 3951000   0.62896748   -9.0352664    491.08925   0.01035791 0.0088857634         3941 
 3952000   0.60109449   -9.0181013    491.36573   0.01036112 0.0088819671         3916 
 3953000   0.62868977    -9.029648    490.50795  0.010340415 0.0088781688         3928 
 3954000   0.61870588    -9.017122    490.57192  0.010339149 0.0088743722         3934 
 3955000   0.61134109   -9.0351665    491.20896  0.010349957 0.0088705814         3918 
 3956000   0.63507301   -9.0335702    491.82545  0.010360327 0.0088667947         3933 
 3957000   0.61342135   -9.0276394    490.86297  0.010337439 0.0088630078         3929 
 3958000   0.60705545   -9.0386955    491.08318  0.010339464 0.0088592223         3935 
 3959000   0.61377377   -9.0419153    490.21091  0.010318492 0.0088554399         3929 
 3960000   0.61971642   -9.0362716    490.89826  0.010330351 0.0088516572         3932 
 3961000   0.61669824   -9.0384151    490.41829  0.010317645 0.0088478782         3942 
 3962000   0.62547335   -9.0413005    491.27721  0.010333106 0.0088441055         3932 
 3963000   0.61458859   -9.0385736    490.24416  0.010308776 0.0088403303         3940 
 3964000   0.60917323   -9.0195011    492.44376  0.010352417 0.0088365588         3925 
 3965000    0.6217901   -9.0318074     490.9784  0.010319008 0.0088327884         3922 
 3966000   0.62308807    -9.021566    490.05408  0.010296984 0.0088290189         3912 
 3967000   0.62708437   -9.0187823    490.34828  0.010300569 0.0088252522         3932 
 3968000   0.63168326   -9.0460606    489.66981  0.010283724 0.0088214915         3927 
 3969000   0.62084401   -9.0351027    491.15259  0.010312266 0.0088177325         3903 
 3970000   0.60578804   -9.0115537    490.69862  0.010300139 0.0088139772         3921 
 3971000   0.62514173   -9.0569869    490.85829  0.010300896 0.0088102187         3943 
 3972000   0.60844931   -9.0391679    491.24038  0.010306319 0.0088064665         3928 
 3973000   0.60316017   -9.0320252    490.74737  0.010293384 0.0088027148         3943 
 3974000   0.61803997   -9.0562756    490.04851  0.010276139 0.0087989635         3925 
 3975000   0.59804183   -9.0470901    491.42144  0.010302336 0.0087952132         3922 
 3976000   0.62745786   -9.0236141    490.91318  0.010289092 0.0087914659         3902 
 3977000   0.62961257   -9.0445134    490.60528  0.010280054 0.0087877198         3937 
 3978000   0.61861312   -9.0421176    490.49811  0.010275224 0.0087839796         3944 
 3979000   0.61810692    -9.047003    489.72175  0.010256382 0.0087802387         3928 
 3980000   0.61354089   -9.0340714    490.67884  0.010273845 0.0087765041         3941 
 3981000   0.61959593   -9.0405887    490.52596  0.010268064  0.008772767         3938 
 3982000   0.61129556   -9.0450735    490.35432  0.010261893 0.0087690349         3934 
 3983000   0.61025716   -9.0498936    489.88427  0.010249483  0.008765303         3944 
 3984000   0.61860934   -9.0483892    491.28399  0.010276188 0.0087615716         3932 
 3985000   0.61846997   -9.0132288    491.71578  0.010282639 0.0087578455         3933 
 3986000   0.60728202   -9.0342866    490.18009  0.010247953 0.0087541227         3930 
 3987000   0.60734508   -9.0439063    489.62964  0.010233878    0.0087504         3935 
 3988000   0.62251135   -9.0211525    491.00065   0.01025996 0.0087466803         3910 
 3989000   0.61570567   -9.0450215    490.58751  0.010248757 0.0087429614         3934 
 3990000   0.60826453   -9.0566783    490.12421  0.010236512 0.0087392429         3932 
 3991000   0.60407463   -9.0394939     490.9625  0.010251451 0.0087355281         3938 
 3992000   0.60738069   -9.0233118    490.86937  0.010246939 0.0087318124         3928 
 3993000   0.62831816   -9.0557266    490.63311  0.010239442 0.0087280983         3934 
 3994000   0.61554765   -9.0370228    491.07395  0.010246076 0.0087243878         3899 
 3995000   0.60859312   -9.0485705    491.06791  0.010243386 0.0087206795         3927 
 3996000   0.60950838   -9.0489248    490.73791   0.01023394 0.0087169725         3929 
 3997000   0.60048813   -9.0298755    490.52682  0.010226979  0.008713271         3913 
 3998000    0.6173103   -9.0456217    491.34243  0.010241421 0.0087095713         3924 
 3999000   0.61072327   -9.0218829    490.47172  0.010220716 0.0087058702         3927 
 4000000   0.61051862   -9.0450626    490.41525  0.010216984  0.008702175         3942 
 4001000   0.60221875   -9.0441578    491.07264  0.010228123 0.0086984824         3933 
 4002000   0.60499847   -9.0212395     490.3832  0.010211211 0.0086947887         3920 
 4003000   0.60208737   -9.0399657    491.05593  0.010222665 0.0086910969         3929 
 4004000   0.61228674   -9.0668796    490.53047  0.010209176 0.0086874093         3932 
 4005000   0.60579312    -9.023719    491.28643  0.010222356 0.0086837216         3919 
 4006000   0.59686065   -9.0436775    490.65291  0.010206626 0.0086800398         3932 
 4007000   0.60643131    -9.036625    490.28006  0.010196324 0.0086763599         3939 
 4008000   0.60944901   -9.0461221    491.09463  0.010210717 0.0086726783         3945 
 4009000   0.58869441   -9.0381738    491.04868  0.010207215 0.0086690036         3930 
 4010000   0.60091593   -9.0297027      491.066  0.010205029 0.0086653298         3940 
 4011000   0.60677549   -9.0522945     491.8849  0.010219498 0.0086616567         3912 
 4012000   0.60506765   -9.0485924    490.26327  0.010183268  0.008657987         3929 
 4013000    0.6052913   -9.0571425    491.80947  0.010212839 0.0086543197         3925 
 4014000   0.61298772   -9.0489842    490.04935  0.010173753 0.0086506545         3924 
 4015000   0.61382742   -9.0453277    490.76257  0.010186023 0.0086469875         3932 
 4016000   0.61171256   -9.0340764    491.31458  0.010194941 0.0086433215         3927 
 4017000   0.61785783   -9.0377042      490.216  0.010169613 0.0086396629         3934 
 4018000   0.59937717   -9.0573563    490.30687  0.010168966 0.0086360039         3934 
 4019000   0.60555525   -9.0488902    490.21487  0.010164528 0.0086323467         3910 
 4020000   0.60723568   -9.0331093    491.62982  0.010191331 0.0086286926         3922 
 4021000   0.61793252   -9.0565957    489.87408   0.01015241 0.0086250382         3917 
 4022000   0.60779449    -9.062674     489.6307  0.010144843 0.0086213875         3937 
 4023000   0.60172284   -9.0565973    489.83895  0.010146635 0.0086177362         3931 
 4024000   0.61679493   -9.0573661    490.53941  0.010158619  0.008614086         3922 
 4025000    0.6158191   -9.0466077    490.99683  0.010165566 0.0086104418         3909 
 4026000   0.60292238   -9.0480033    490.80456  0.010159061 0.0086067994         3917 
 4027000   0.59779815   -9.0457133    490.35041   0.01014714 0.0086031585         3942 
 4028000   0.59895946   -9.0605188    491.01988  0.010158472 0.0085995169         3914 
 4029000   0.60780101   -9.0530213    490.70583  0.010149455 0.0085958806         3904 
 4030000   0.60984535   -9.0458025    489.52186  0.010122454 0.0085922463         3910 
 4031000   0.62570351   -9.0616338    490.51058  0.010140382 0.0085886138         3918 
 4032000   0.60371333   -9.0479612    490.13153  0.010130033 0.0085849829         3911 
 4033000   0.61929186   -9.0506092    490.54383  0.010136041 0.0085813531         3925 
 4034000   0.60671774   -9.0449427    490.12229   0.01012482 0.0085777271         3939 
 4035000   0.60008044   -9.0534866    490.29607    0.0101259 0.0085740994         3923 
 4036000   0.61276428    -9.049412    490.44962  0.010126561 0.0085704758         3936 
 4037000    0.6107571   -9.0786213    489.58274  0.010106158 0.0085668552         3935 
 4038000     0.600046    -9.053642    490.97303  0.010132347 0.0085632406         3912 
 4039000   0.60617992   -9.0517554    490.65274  0.010123231  0.008559622         3924 
 4040000   0.59473939    -9.042744    490.24122  0.010112236 0.0085560075         3912 
 4041000   0.61202585   -9.0588629    490.82528  0.010121778 0.0085523929         3926 
 4042000   0.61164737   -9.0504003    490.52843  0.010113154 0.0085487818         3918 
 4043000   0.60854606   -9.0391673    490.67229  0.010113618 0.0085451738         3932 
 4044000   0.61166482   -9.0697487     490.2406  0.010102221 0.0085415657         3926 
 4045000   0.60535657   -9.0690348    489.44652  0.010083365 0.0085379607         3914 
 4046000   0.61589769   -9.0591249    490.43299   0.01010119 0.0085343577         3918 
 4047000   0.60480101   -9.0641966    489.35335  0.010076463 0.0085307582         3906 
 4048000   0.61144792   -9.0374667    490.22404  0.010091898 0.0085271594         3910 
 4049000   0.61496178   -9.0638859    490.35008     0.010092  0.008523566         3923 
 4050000   0.60393312   -9.0696932    490.22017  0.010086835 0.0085199683         3899 
 4051000   0.59732106   -9.0492392    489.76978   0.01007508 0.0085163758         3920 
 4052000   0.60903812   -9.0656469    490.37523  0.010085045 0.0085127841         3905 
 4053000   0.60139629   -9.0672006    490.51093  0.010085347 0.0085091923         3929 
 4054000   0.59669004   -9.0672309    489.86791  0.010069641 0.0085056057         3917 
 4055000   0.59013576   -9.0623438    490.60705  0.010082348 0.0085020226         3912 
 4056000   0.61133546   -9.0624702    490.12562  0.010069971 0.0084984381         3924 
 4057000   0.58836801   -9.0635516    489.62987  0.010057306 0.0084948552         3902 
 4058000   0.58640677   -9.0592573    490.35623  0.010069743 0.0084912707         3941 
 4059000   0.58300528   -9.0720435    491.03389  0.010081175 0.0084876946         3926 
 4060000   0.61168075   -9.0401326    490.41994  0.010066091 0.0084841201         3904 
 4061000   0.61230132   -9.0649527    489.97885  0.010054561 0.0084805484         3921 
 4062000   0.61269629    -9.048105    490.47396  0.010062243 0.0084769736         3919 
 4063000   0.61598582   -9.0538449    490.32757  0.010056764  0.008473406         3918 
 4064000   0.60233152   -9.0635916    490.49086  0.010057637 0.0084698377         3912 
 4065000   0.59944908     -9.05396    490.70412  0.010059535 0.0084662721         3925 
 4066000   0.58921527   -9.0491819    490.54069  0.010053711 0.0084627075         3932 
 4067000   0.59763707   -9.0413974    490.22483  0.010044767 0.0084591429         3918 
 4068000   0.59674837    -9.069704    490.10974  0.010039941 0.0084555862         3910 
 4069000   0.59622579   -9.0720249    489.58201  0.010026665 0.0084520282         3931 
 4070000   0.59804391   -9.0684833    489.77083  0.010028068 0.0084484723         3921 
 4071000   0.60255113   -9.0655258    489.39937  0.010018001 0.0084449199         3933 
 4072000   0.59453458   -9.0648465    490.39132  0.010035841 0.0084413661         3925 
 4073000   0.60444803   -9.0618993    490.70749  0.010039845 0.0084378183         3918 
 4074000     0.600638   -9.0700239    490.31265  0.010029305 0.0084342711         3920 
 4075000   0.60315331   -9.0535631    489.90555  0.010018518 0.0084307294         3937 
 4076000   0.59383844   -9.0467565    489.88426  0.010015625 0.0084271845         3908 
 4077000   0.60765037   -9.0490882    489.70962  0.010009599 0.0084236444         3915 
 4078000   0.60117092   -9.0482322    490.11685  0.010015466 0.0084201058         3914 
 4079000   0.60609758   -9.0589445    490.19592  0.010014626  0.008416566         3942 
 4080000   0.60233681     -9.05968    489.89654  0.010006057 0.0084130293         3914 
 4081000   0.60563998    -9.062876    490.31341  0.010012117 0.0084094963         3914 
 4082000   0.59017787   -9.0725395     488.9539 0.0099819104 0.0084059634         3907 
 4083000   0.58874195   -9.0749526    489.46714 0.0099899408 0.0084024312         3936 
 4084000   0.59817535   -9.0786626    489.07971 0.0099795893 0.0083989018         3927 
 4085000   0.59952427   -9.0894181    489.22566 0.0099801237 0.0083953744         3922 
 4086000   0.60206405   -9.0686708    490.00418 0.0099935588 0.0083918473         3910 
 4087000   0.59931536   -9.0709504    490.79842  0.010007308  0.008388325         3937 
 4088000   0.58588041   -9.0646642    490.45648 0.0099978898 0.0083848034         3936 
 4089000   0.58336258   -9.0579235    489.50392 0.0099760317 0.0083812862         3912 
 4090000   0.59309056   -9.0506513    489.05227 0.0099643902 0.0083777687         3917 
 4091000   0.59080863   -9.0702693    489.81302  0.009977451 0.0083742543         3897 
 4092000   0.57870322   -9.0704996     490.1651 0.0099821828 0.0083707413         3922 
 4093000   0.60407519   -9.0630857    489.86457  0.009973625 0.0083672313         3906 
 4094000   0.60907025   -9.0662991    490.15477 0.0099770959 0.0083637226         3923 
 4095000    0.5937297   -9.0601789    489.44047 0.0099601235 0.0083602158         3909 
 4096000   0.60011652   -9.0728707    489.87708 0.0099665747 0.0083567093         3929 
 4097000   0.60383724   -9.0829497    489.64409 0.0099594031  0.008353207         3906 
 4098000   0.57660605   -9.0603175    490.15559 0.0099673742 0.0083497059         3910 
 4099000   0.60030177   -9.0814045     490.1353   0.00996453 0.0083462028         3933 
 4100000   0.59048955   -9.0928899    489.46287 0.0099484323 0.0083427048         3929 
 4101000   0.58991914   -9.0639834    489.89237 0.0099547339 0.0083392079         3925 
 4102000   0.60434001   -9.0720223    489.61676  0.009946708 0.0083357156         3924 
 4103000   0.60738628   -9.0546398    490.62069  0.009964674  0.008332223         3911 
 4104000   0.60240586   -9.0707172    490.00297 0.0099497029 0.0083287334         3924 
 4105000   0.59503816   -9.0765557    489.80466 0.0099432534  0.008325244         3913 
 4106000   0.58943036   -9.0703202    490.20693  0.009948996 0.0083217589         3935 
 4107000   0.59153386   -9.0696011    489.33721 0.0099289264  0.008318274         3932 
 4108000     0.585483   -9.0835464    490.23125 0.0099446455 0.0083147929         3944 
 4109000   0.59553262    -9.075584    490.74404 0.0099526251 0.0083113117         3927 
 4110000   0.59277919   -9.0723398    489.48234 0.0099246216 0.0083078368         3943 
 4111000   0.60167345   -9.0750182    489.75748 0.0099277849 0.0083043591         3941 
 4112000   0.59791404   -9.0810822    489.60063 0.0099221917 0.0083008853         3916 
 4113000   0.58976367   -9.0733924    489.63009 0.0099203761 0.0082974128         3918 
 4114000   0.58256669   -9.0900783    490.15792 0.0099286567 0.0082939392         3928 
 4115000   0.58798912   -9.0842003    489.98306 0.0099227028 0.0082904692         3914 
 4116000   0.58534924   -9.0758708    490.66578 0.0099341144 0.0082870037         3921 
 4117000   0.60090593   -9.0726233    490.36352 0.0099255834 0.0082835385         3917 
 4118000    0.6047986   -9.0799976     490.2022 0.0099199085 0.0082800773         3941 
 4119000   0.58958793   -9.0815153    489.02838 0.0098937521  0.008276615         3936 
 4120000   0.58572886   -9.0657464    489.78669 0.0099066888 0.0082731567         3918 
 4121000    0.5968893   -9.0622481     489.8829 0.0099062304 0.0082697022         3951 
 4122000   0.59607556   -9.0652088    490.39947 0.0099142704 0.0082662493         3930 
 4123000   0.58879755   -9.0605371    489.50109 0.0098937078 0.0082627976         3942 
 4124000   0.59123685   -9.0999011    489.46649 0.0098906097 0.0082593482         3926 
 4125000   0.59727322   -9.0736469    490.22298 0.0099034945 0.0082559022         3936 
 4126000    0.5888915   -9.0635823    489.89298 0.0098944292 0.0082524562         3922 
 4127000   0.58937614   -9.0662417    490.16823 0.0098975897  0.008249009         3917 
 4128000   0.59229593   -9.0789025    489.79827 0.0098877236 0.0082455682         3921 
 4129000    0.6015167   -9.0931109    489.60587 0.0098814457 0.0082421258         3940 
 4130000   0.60148576   -9.0673786    489.90267 0.0098850417 0.0082386892         3946 
 4131000   0.59548488   -9.0889635    490.14123 0.0098874613 0.0082352486         3908 
 4132000   0.59475178     -9.10963    489.54991 0.0098731428 0.0082318132         3930 
 4133000   0.58337569   -9.0712162    489.23985 0.0098645021 0.0082283777         3918 
 4134000   0.59461399   -9.0663688    489.15897 0.0098604856 0.0082249451         3932 
 4135000   0.60251648   -9.0806207    489.24468 0.0098598284 0.0082215124         3924 
 4136000   0.57693537   -9.0734276    488.90746 0.0098506499  0.008218084         3946 
 4137000    0.5932982    -9.076388    489.64675 0.0098631607 0.0082146553         3931 
 4138000   0.58390138   -9.0630641     489.3511 0.0098548231 0.0082112326         3919 
 4139000   0.57529602   -9.0767679    489.60027 0.0098574589 0.0082078122         3929 
 4140000   0.58838136   -9.0809167    489.52006 0.0098534634 0.0082043908         3919 
 4141000   0.59724477   -9.0790306    489.66793 0.0098540595 0.0082009729         3945 
 4142000   0.58782593   -9.0755316    489.07572 0.0098397658 0.0081975522         3933 
 4143000   0.59026278   -9.0867055    490.15679 0.0098591357 0.0081941348         3936 
 4144000   0.60000295   -9.0778514    489.95837 0.0098527664 0.0081907247         3934 
 4145000   0.58059161   -9.0658291    489.33042 0.0098377649 0.0081873115         3919 
 4146000    0.5945227   -9.0809167    489.30347 0.0098348503 0.0081839024         3927 
 4147000   0.58641711   -9.0733621    488.91652 0.0098247029 0.0081804951         3921 
 4148000    0.5977363   -9.0937575    490.45064  0.009853155 0.0081770896         3933 
 4149000   0.59219154    -9.083792    489.34225 0.0098285179  0.008173687         3925 
 4150000    0.5741528   -9.0775582    490.09795 0.0098413242 0.0081702903         3929 
 4151000   0.59781367   -9.0947826    489.97674 0.0098365202 0.0081668934         3913 
 4152000   0.59030151    -9.095367    489.39273 0.0098224295 0.0081634932         3927 
 4153000   0.60169117   -9.0820574    488.96146 0.0098114106  0.008160098         3926 
 4154000   0.59053604   -9.0890599    489.02286 0.0098102804 0.0081567041         3938 
 4155000    0.5863016   -9.0979854    490.45268 0.0098365961  0.008153313         3922 
 4156000   0.58258046   -9.0950884    489.38465 0.0098128138 0.0081499229         3926 
 4157000   0.57209362   -9.0947757    489.55815 0.0098139314 0.0081465345         3935 
 4158000   0.58272524   -9.0630045    490.18383 0.0098241107 0.0081431473         3931 
 4159000   0.59111811   -9.0867585    490.06647 0.0098193971 0.0081397632         3930 
 4160000   0.59128741    -9.088203    489.66515 0.0098089975 0.0081363797         3925 
 4161000   0.59586056   -9.0954152    488.97607 0.0097928397 0.0081329973         3934 
 4162000    0.5860888   -9.0901173    489.29165 0.0097968053 0.0081296174         3951 
 4163000   0.59271036   -9.0696557    490.00616  0.009808755 0.0081262422         3910 
 4164000   0.57784141   -9.0550936    488.69904 0.0097802402 0.0081228658         3924 
 4165000   0.58859099     -9.09637    489.73339 0.0097985872 0.0081194907         3928 
 4166000   0.58081704   -9.0915827    488.73273 0.0097762187 0.0081161211         3933 
 4167000   0.58225374   -9.0907208    489.76333 0.0097944831 0.0081127524         3932 
 4168000   0.57113018   -9.0715223    489.07069 0.0097782847 0.0081093836         3929 
 4169000   0.58341917   -9.0928075    489.56489 0.0097858176 0.0081060187         3916 
 4170000   0.58891379   -9.1012873    489.60425 0.0097842575 0.0081026594         3929 
 4171000   0.57584735    -9.087998     489.3235 0.0097763026 0.0080992982         3938 
 4172000   0.57136072   -9.0890066    489.47833  0.009777052   0.00809594         3922 
 4173000   0.58412863    -9.081316    489.41062 0.0097733569 0.0080925825         3929 
 4174000   0.58599311   -9.0853926    489.24335 0.0097676759 0.0080892282         3904 
 4175000   0.59886831   -9.0884059    489.96211 0.0097796827 0.0080858758         3914 
 4176000   0.58393438   -9.0696672    489.86645 0.0097754321 0.0080825258         3906 
 4177000   0.58174415   -9.0808171    489.55823 0.0097669426 0.0080791771         3914 
 4178000   0.59407491   -9.0963886    489.26345 0.0097587253 0.0080758313         3922 
 4179000   0.58205808   -9.0727111    489.38279 0.0097587699 0.0080724846         3919 
 4180000   0.59568947   -9.0895583    489.57149 0.0097601972 0.0080691398         3935 
 4181000   0.59120538   -9.0864579    489.36002 0.0097536478 0.0080657992         3939 
 4182000   0.58859217   -9.0928375    488.95742 0.0097432931 0.0080624611         3914 
 4183000   0.58941997   -9.0877595    489.44329 0.0097506433 0.0080591252         3919 
 4184000   0.58170285    -9.065116    488.88553 0.0097372038 0.0080557878         3917 
 4185000   0.57282244   -9.0864186    490.40919 0.0097652168  0.008052456         3926 
 4186000   0.57342397   -9.0857424    489.14531 0.0097377232 0.0080491214         3935 
 4187000   0.57382366   -9.0995025    489.82625 0.0097489501 0.0080457893         3929 
 4188000   0.59826548   -9.0927034    489.33489 0.0097368452 0.0080424596         3919 
 4189000   0.58238205   -9.1008009    489.67692 0.0097413249 0.0080391324         3905 
 4190000   0.58782332   -9.0914295    489.84156 0.0097422744 0.0080358082         3937 
 4191000   0.58317247   -9.0984686    488.93619 0.0097219476  0.008032486         3925 
 4192000   0.57293326   -9.0769395    489.77848 0.0097363725 0.0080291616         3918 
 4193000    0.5734053   -9.0987433    489.31997 0.0097249377 0.0080258404         3939 
 4194000    0.5793595   -9.1016498    489.60123 0.0097282076 0.0080225188         3915 
 4195000   0.57979734   -9.0963447    489.25876 0.0097190855 0.0080192039         3930 
 4196000   0.58785895   -9.1017141    488.74512 0.0097065681 0.0080158873         3936 
 4197000   0.58402806   -9.1064588    489.23895 0.0097140607 0.0080125735         3931 
 4198000   0.57706092   -9.1083153     489.6511 0.0097199282 0.0080092619         3918 
 4199000   0.58615098   -9.0894645    489.01594  0.009705008 0.0080059516         3939 
 4200000   0.57668811   -9.1099717    488.88763 0.0097001514 0.0080026421         3924 
 4201000   0.58398237   -9.1090421    489.07488 0.0097015567 0.0079993328         3919 
 4202000   0.58097821   -9.0969104    489.18461 0.0097014241 0.0079960264         3901 
 4203000   0.57595087   -9.0818144    489.88089 0.0097129211 0.0079927252         3936 
 4204000   0.58445904    -9.083166    489.53432 0.0097037408 0.0079894254         3928 
 4205000   0.58309979   -9.0948562    489.27986 0.0096963904 0.0079861227         3931 
 4206000   0.57331549   -9.0696747    489.18943 0.0096922934 0.0079828239         3905 
 4207000   0.57920491   -9.0710491    489.78529 0.0097017924 0.0079795307         3916 
 4208000   0.58089342   -9.1032413    489.38235 0.0096915072 0.0079762376         3908 
 4209000   0.57140055   -9.0963014    488.72983 0.0096762856 0.0079729476         3912 
 4210000   0.58630805    -9.096584    488.80704 0.0096755155 0.0079696567         3920 
 4211000   0.58688953   -9.0976628    488.73891 0.0096718694  0.007966369         3900 
 4212000   0.57660335   -9.1121474    489.33662 0.0096813989 0.0079630791         3917 
 4213000   0.59357541   -9.0944079    489.67703 0.0096858341 0.0079597939         3890 
 4214000   0.59445324   -9.0901281     489.1077 0.0096722768 0.0079565117         3912 
 4215000   0.58243269   -9.1182593    489.65069 0.0096807174 0.0079532328         3925 
 4216000   0.58377029   -9.0919984    489.62175 0.0096778493 0.0079499556         3900 
 4217000   0.57183226   -9.1039659    489.53775 0.0096738943  0.007946679         3909 
 4218000   0.57958288   -9.0996233    488.83623 0.0096577412    0.0079434         3917 
 4219000   0.57904925   -9.0937038    489.33308 0.0096652658 0.0079401252         3915 
 4220000   0.57981767   -9.1074766    488.95573 0.0096555238 0.0079368555         3916 
 4221000   0.57338718   -9.1063043    488.64144 0.0096470315 0.0079335861         3919 
 4222000   0.56997423   -9.0966446    489.78303 0.0096672791 0.0079303187         3910 
 4223000   0.58133005   -9.1111624    489.16762  0.009652846 0.0079270509         3915 
 4224000   0.57389995    -9.092903    489.43804 0.0096558957 0.0079237878         3938 
 4225000   0.58060895   -9.0826862    489.44988 0.0096538438 0.0079205254         3917 
 4226000   0.59382137   -9.1129615    489.38942 0.0096503672 0.0079172652         3944 
 4227000   0.58076717   -9.1176732    489.97981 0.0096597234 0.0079140077         3914 
 4228000   0.57089812   -9.0999374    489.06971 0.0096395007 0.0079107541         3927 
 4229000   0.55953901   -9.1005294    488.94759 0.0096348149 0.0079074993         3925 
 4230000   0.58140193    -9.095989    488.72224 0.0096280977 0.0079042436         3938 
 4231000   0.57495552    -9.097362    489.25742 0.0096363631 0.0079009927         3922 
 4232000   0.56181968   -9.0938494    488.79338 0.0096249484 0.0078977423         3904 
 4233000   0.56566767   -9.1065165    489.36202 0.0096338692 0.0078944943         3927 
 4234000    0.5623581   -9.0932134    488.78175 0.0096201731 0.0078912479         3900 
 4235000   0.57227211   -9.1065469    489.03449 0.0096228747 0.0078880059         3925 
 4236000   0.57641768   -9.1030067    488.36336    0.0096074  0.007884761         3921 
 4237000   0.57305436   -9.1045412    488.96544 0.0096169744 0.0078815207         3914 
 4238000   0.57681821   -9.1133198    488.52569 0.0096060581 0.0078782813         3921 
 4239000   0.58034799   -9.1364834    488.46255 0.0096025508  0.007875042         3939 
 4240000    0.5667159   -9.1109662    488.58517 0.0096026959  0.007871804         3933 
 4241000   0.57293264   -9.1132485    488.00382 0.0095890085 0.0078685687         3917 
 4242000   0.57546467    -9.105703    488.54553 0.0095973897 0.0078653357         3901 
 4243000   0.57065234   -9.1065013    488.21206 0.0095885784 0.0078621066         3944 
 4244000   0.57503163   -9.1086885    488.59643 0.0095938664 0.0078588776         3922 
 4245000   0.57533267   -9.1013117     489.0428  0.009600369 0.0078556479         3905 
 4246000   0.57248958   -9.0996971    488.48879 0.0095872349 0.0078524196         3920 
 4247000    0.5738372    -9.107808     488.6595 0.0095883271 0.0078491956         3931 
 4248000   0.58265401   -9.1105021     488.9222 0.0095912232 0.0078459731         3906 
 4249000   0.56370189   -9.0898068    489.18857 0.0095941902 0.0078427522         3925 
 4250000   0.57469877   -9.1189641    489.00159 0.0095882665 0.0078395351         3934 
 4251000   0.56691036   -9.1056025    488.99865 0.0095859533  0.007836317         3911 
 4252000   0.57245596   -9.0887618    488.05675 0.0095652389 0.0078330973         3924 
 4253000   0.58291095   -9.0992008    489.07958 0.0095830311 0.0078298826         3929 
 4254000   0.55969768   -9.1172571    488.76096 0.0095745369  0.007826669         3910 
 4255000    0.5688697    -9.103388    488.99791 0.0095769273 0.0078234576         3919 
 4256000   0.57726656   -9.1138818    488.56681 0.0095662361 0.0078202498         3918 
 4257000   0.56208722   -9.1014278    490.06532 0.0095933232 0.0078170436         3932 
 4258000   0.57034415   -9.1051452    488.98527 0.0095699326 0.0078138379         3910 
 4259000   0.57203642   -9.0889337    489.72205 0.0095821016 0.0078106339         3900 
 4260000   0.56972288   -9.1186007    489.42201  0.009573983  0.007807434         3943 
 4261000   0.57794694   -9.0991947     489.6047  0.009575309 0.0078042348         3923 
 4262000   0.57583378   -9.1135115    489.79721 0.0095768265 0.0078010362         3911 
 4263000   0.57570898   -9.0879457    489.32566  0.009565362 0.0077978411         3924 
 4264000   0.56631344   -9.1009337    489.11919 0.0095590836 0.0077946475         3908 
 4265000   0.56505029   -9.1170072    488.46786 0.0095441161  0.007791454         3927 
 4266000   0.56695026   -9.1070124     488.8843 0.0095500137 0.0077882623         3934 
 4267000   0.57065997   -9.0860194    489.72215 0.0095641385 0.0077850739         3931 
 4268000   0.55740557   -9.1255197    488.23794 0.0095329182 0.0077818845         3922 
 4269000   0.56716467   -9.0899735    489.81423 0.0095614552 0.0077786973         3900 
 4270000   0.55856452   -9.1049187    488.51048  0.009533772 0.0077755136         3938 
 4271000    0.5622794   -9.1169717    488.85275  0.009538218 0.0077723317         3921 
 4272000   0.57741948   -9.1192084    487.68164 0.0095131406 0.0077691499         3925 
 4273000   0.56648942   -9.1247743    488.15007 0.0095200498 0.0077659716         3923 
 4274000    0.5596718   -9.0931988    488.37628  0.009522233 0.0077627943         3918 
 4275000   0.55315036    -9.111418    489.66258 0.0095450796  0.007759618         3921 
 4276000    0.5638395   -9.1266378    488.80776 0.0095261881 0.0077564443         3912 
 4277000    0.5677078   -9.1071873    489.43574 0.0095361963 0.0077532717         3925 
 4278000   0.56909365   -9.1311653    488.90515 0.0095236316 0.0077501004         3940 
 4279000    0.5631373   -9.1125195    488.04794 0.0095047117 0.0077469294         3924 
 4280000   0.56043361   -9.1201434    488.32952 0.0095079735 0.0077437627         3925 
 4281000   0.56562382   -9.1092404    488.82174  0.009515334 0.0077405977         3915 
 4282000   0.56604498   -9.1143625    488.33234 0.0095035876 0.0077374324         3923 
 4283000   0.56093713   -9.1177786     488.6382 0.0095073197 0.0077342694         3907 
 4284000   0.57605094   -9.1051884    488.56191 0.0095036164 0.0077311118         3919 
 4285000   0.56794555   -9.1131374    489.03922 0.0095106811 0.0077279532         3910 
 4286000   0.56775751   -9.1351581    488.53512 0.0094986608 0.0077247977         3936 
 4287000   0.57189736   -9.1043455    488.80025 0.0095015987 0.0077216418         3939 
 4288000    0.5791038   -9.1204314    488.56137 0.0094947406 0.0077184873         3934 
 4289000   0.57877165   -9.1192397    488.91291 0.0094993571 0.0077153339         3923 
 4290000   0.57101558    -9.117617    488.61166  0.009491291  0.007712186         3916 
 4291000   0.57023273   -9.1168356    487.89005  0.009475065 0.0077090378         3933 
 4292000   0.57035551   -9.1035971    488.79348 0.0094903985 0.0077058934         3941 
 4293000   0.56058492    -9.088445    488.62817 0.0094849788  0.007702747         3953 
 4294000   0.57897268   -9.1070439    488.95376 0.0094890886 0.0076996046         3921 
 4295000   0.56809816   -9.1012882    488.44697 0.0094770464 0.0076964651         3935 
 4296000   0.55987293   -9.1193853    488.57482 0.0094773203 0.0076933255         3916 
 4297000   0.58017091   -9.1360295    489.23564 0.0094879304 0.0076901892         3884 
 4298000   0.56303507   -9.1137397    487.90018 0.0094598298 0.0076870526         3931 
 4299000    0.5620087   -9.1244057     488.5472 0.0094701714 0.0076839188         3905 
 4300000   0.55936031   -9.1192049    488.28055 0.0094628013 0.0076807851         3895 
 4301000   0.57780107   -9.1229696    489.42135 0.0094827045 0.0076776544         3899 
 4302000   0.57202959   -9.1118134    488.05543 0.0094540414 0.0076745262         3924 
 4303000   0.57160268   -9.1352632    488.61357 0.0094626534 0.0076713989         3922 
 4304000   0.55170476    -9.115563    488.64246 0.0094610142 0.0076682691         3919 
 4305000   0.56310149    -9.116502    488.08458 0.0094480174 0.0076651415         3925 
 4306000   0.56396528   -9.1160338    488.29812 0.0094499559  0.007662019         3910 
 4307000   0.56723787   -9.1139959    488.44164 0.0094505386 0.0076588984         3915 
 4308000   0.57670984   -9.1173369    488.96711 0.0094585096 0.0076557797         3915 
 4309000   0.56508498   -9.1110979    488.72886  0.009451707 0.0076526625         3921 
 4310000   0.56119634   -9.1112138    488.90909 0.0094529986 0.0076495478         3892 
 4311000   0.55771857    -9.116699    488.69982 0.0094467606 0.0076464312         3939 
 4312000   0.56633061   -9.1319464    488.40398 0.0094388525 0.0076433195         3916 
 4313000   0.56361194   -9.1337774    488.76907  0.009443718 0.0076402086         3931 
 4314000   0.56575987    -9.137882    488.96355 0.0094452857 0.0076371001         3919 
 4315000   0.56053888   -9.1210867    488.82575 0.0094404354 0.0076339927         3939 
 4316000     0.563419   -9.1202355    488.85124 0.0094387404 0.0076308847         3940 
 4317000   0.55460091    -9.128913    488.65164 0.0094327009 0.0076277804         3925 
 4318000   0.55735034    -9.099251    488.53872 0.0094283372 0.0076246798         3943 
 4319000   0.57963395   -9.1448919    487.96246 0.0094150356 0.0076215787         3910 
 4320000   0.55693669   -9.1228941    488.32859 0.0094199188 0.0076184786         3915 
 4321000   0.57188946   -9.1149338    489.16207 0.0094338129 0.0076153803         3918 
 4322000   0.55706081   -9.1308354    488.51165 0.0094190894 0.0076122857         3915 
 4323000   0.57353415   -9.1270929    488.75741  0.009421648 0.0076091897         3938 
 4324000   0.56051225   -9.1191857    488.45224 0.0094135877 0.0076060995         3926 
 4325000   0.56174872   -9.1218211    488.38603 0.0094101354 0.0076030085         3928 
 4326000    0.5582622   -9.1179009    488.03305 0.0094011606 0.0075999187         3908 
 4327000   0.55368945   -9.1193386    489.59654 0.0094290992  0.007596833         3931 
 4328000   0.57007357   -9.1110631    489.00659 0.0094155613 0.0075937478         3927 
 4329000   0.54122204   -9.1146414    488.41887 0.0094020727  0.007590664         3932 
 4330000   0.55446299   -9.1251164     487.8911  0.009389744 0.0075875797         3922 
 4331000   0.56083504   -9.1268585    488.50088 0.0093993089    0.0075845         3936 
 4332000   0.57145784   -9.1019064    488.34164 0.0093940759 0.0075814207         3938 
 4333000   0.56137465   -9.1208609    488.25894 0.0093903174 0.0075783447         3919 
 4334000   0.55565127   -9.1404096    488.46473 0.0093921076 0.0075752674         3942 
 4335000   0.56057258   -9.1215239     488.6739  0.009393962 0.0075721931         3915 
 4336000   0.56343516   -9.1276347    488.94747 0.0093970531 0.0075691208         3909 
 4337000   0.56415274   -9.1372398    487.59561 0.0093689111 0.0075660495         3913 
 4338000   0.57137236   -9.1301189     488.3795 0.0093818099 0.0075629813         3948 
 4339000   0.56560285   -9.1330847    488.67342 0.0093852928  0.007559914         3923 
 4340000    0.5641439    -9.120353    488.59075 0.0093815428 0.0075568463         3913 
 4341000   0.56149046   -9.1136864    488.81845 0.0093837527 0.0075537843         3920 
 4342000   0.54933845   -9.1507324    488.15431 0.0093688452 0.0075507204         3936 
 4343000   0.54407538   -9.1285597    488.91207 0.0093812278 0.0075476578         3927 
 4344000   0.55448287   -9.1194179    489.55399 0.0093913825 0.0075446005         3922 
 4345000   0.55534427   -9.1390561    488.71952 0.0093732167 0.0075415405         3922 
 4346000   0.55423072   -9.1283859    488.37687 0.0093644897 0.0075384841         3918 
 4347000   0.54991513   -9.1370978    488.91337 0.0093726203 0.0075354316         3911 
 4348000   0.55959162   -9.1467028    487.99126 0.0093527917 0.0075323772         3914 
 4349000   0.56856311    -9.142065    488.28162 0.0093562049 0.0075293261         3922 
 4350000   0.56669679   -9.1223212    488.23632 0.0093531863 0.0075262762         3917 
 4351000   0.55247034   -9.1411552    487.64936 0.0093397946 0.0075232275         3932 
 4352000    0.5538837   -9.1345945    488.74279 0.0093585859 0.0075201813         3942 
 4353000   0.54818758   -9.1419701    488.69078 0.0093554403 0.0075171377         3943 
 4354000   0.56435973   -9.1483281    487.99346 0.0093399452 0.0075140952         3916 
 4355000   0.55394989   -9.1242225    487.81802 0.0093344435 0.0075110505         3915 
 4356000   0.56535548   -9.1332525    488.32409 0.0093419821  0.007508011         3927 
 4357000   0.55538588   -9.1294128    488.14962  0.009336501 0.0075049743         3921 
 4358000   0.55666992   -9.1495976    487.89926 0.0093295713 0.0075019391         3946 
 4359000   0.55020608   -9.1279525    488.55656  0.009339997 0.0074989043         3910 
 4360000   0.54688169   -9.1316848    488.15469 0.0093301737 0.0074958718         3933 
 4361000   0.55460368   -9.1294258     488.6937 0.0093383341 0.0074928406         3924 
 4362000   0.55854394   -9.1372472     487.9989 0.0093229195 0.0074898097         3919 
 4363000   0.55508445    -9.145956    488.25079 0.0093255938 0.0074867807         3936 
 4364000    0.5457425   -9.1443997    488.58338  0.009329808 0.0074837535         3932 
 4365000   0.54270716   -9.1235733    488.10639 0.0093185641 0.0074807278         3941 
 4366000   0.54571384   -9.1373068     487.7015 0.0093087017 0.0074777032         3933 
 4367000   0.55041004   -9.1185667    488.34494 0.0093188485  0.007474683         3926 
 4368000   0.54923558   -9.1399168    488.74725 0.0093243904 0.0074716657         3942 
 4369000    0.5426663   -9.1263832    488.95044 0.0093261318 0.0074686464         3908 
 4370000   0.55651093   -9.1340143    488.30929 0.0093117713  0.007465631         3915 
 4371000   0.55207404    -9.152984    487.74996 0.0092989774 0.0074626155         3913 
 4372000   0.54853953   -9.1336076    487.57968 0.0092936047 0.0074596022         3926 
 4373000   0.55170173   -9.1299046     488.6303 0.0093115004 0.0074565912         3920 
 4374000   0.54367249   -9.1437647    488.52012 0.0093072726 0.0074535843         3904 
 4375000   0.54414477   -9.1276501    487.59751 0.0092875716 0.0074505777         3930 
 4376000   0.55873071   -9.1198229    487.47742 0.0092831624 0.0074475724         3911 
 4377000   0.55657287   -9.1321319    488.16677 0.0092941658 0.0074445681         3916 
 4378000    0.5433271   -9.1394242    488.65348 0.0093013072 0.0074415646         3939 
 4379000   0.55447015   -9.1250346    488.16301 0.0092898495  0.007438564         3940 
 4380000   0.55794219   -9.1319516    488.14691 0.0092874223 0.0074355634         3922 
 4381000   0.55123484    -9.147381    487.96684  0.009281877 0.0074325639         3917 
 4382000   0.54465432   -9.1237309    488.73276 0.0092943244 0.0074295681         3909 
 4383000    0.5490134   -9.1455956    488.18211 0.0092817345 0.0074265742         3925 
 4384000   0.55266395   -9.1486194    487.99121 0.0092759886 0.0074235821         3910 
 4385000   0.54838789   -9.1277349    488.11073 0.0092761446 0.0074205908         3930 
 4386000   0.55639352   -9.1292926    487.58096 0.0092639642    0.0074176         3909 
 4387000   0.54545659   -9.1476164     488.5858 0.0092809398 0.0074146119         3916 
 4388000   0.55959325   -9.1361886    488.76088 0.0092821499 0.0074116247         3898 
 4389000   0.55862576   -9.1440743    488.29315 0.0092711542 0.0074086384         3927 
 4390000   0.54509448   -9.1423613    487.16812 0.0092476864 0.0074056506         3921 
 4391000   0.55505975   -9.1460564    488.02059 0.0092617587 0.0074026693         3905 
 4392000    0.5334718   -9.1367617    488.16274  0.009262347 0.0073996872         3943 
 4393000     0.558511   -9.1705386    488.26081 0.0092620989 0.0073967092         3920 
 4394000   0.54768451   -9.1311229    488.05816 0.0092561479  0.007393732         3914 
 4395000   0.54733307   -9.1349323    488.98895 0.0092716904 0.0073907565         3918 
 4396000   0.55395618   -9.1371329    488.24451 0.0092554691 0.0073877787         3926 
 4397000   0.55835045   -9.1323189    488.31608 0.0092547207 0.0073848044         3921 
 4398000   0.54899918    -9.120418     487.7184 0.0092412915 0.0073818338         3937 
 4399000   0.54450339   -9.1501723    488.58859 0.0092556754 0.0073788629         3909 
 4400000   0.54112995   -9.1428033    487.95676 0.0092416054 0.0073758972         3926 
 4401000   0.54547278   -9.1270327    487.74903 0.0092355721 0.0073729333         3924 
 4402000   0.54514135   -9.1554158    487.77179 0.0092339049 0.0073699699         3911 
 4403000   0.54985924   -9.1538092    487.85384 0.0092333606 0.0073670067         3926 
 4404000   0.54430542   -9.1432871    488.37238 0.0092410759 0.0073640477         3914 
 4405000   0.55405403   -9.1287848    488.85124 0.0092480371 0.0073610888         3899 
 4406000   0.54090864   -9.1436243    487.43166 0.0092190888  0.007358131         3887 
 4407000   0.55554605   -9.1542419    487.47136 0.0092177475 0.0073551737         3912 
 4408000   0.55635965    -9.147718     487.4156 0.0092146023 0.0073522219         3938 
 4409000   0.55080084   -9.1291681    488.38347 0.0092308058 0.0073492707         3922 
 4410000   0.54321404   -9.1411273    487.57383 0.0092134133 0.0073463206         3890 
 4411000   0.55202541   -9.1451392     487.6501 0.0092127654 0.0073433742         3904 
 4412000   0.54563103   -9.1474646    487.12986 0.0092008512 0.0073404244         3916 
 4413000   0.55446651   -9.1611171    488.22729 0.0092194895 0.0073374786         3908 
 4414000   0.53933762   -9.1570345    487.53469 0.0092043251 0.0073345348         3923 
 4415000   0.53410435   -9.1596159     488.0534  0.009212031 0.0073315925         3899 
 4416000   0.54230595    -9.150681    487.48715 0.0091992594 0.0073286523         3918 
 4417000   0.54881919   -9.1392588    488.05087  0.009207812 0.0073257142         3904 
 4418000   0.55366406   -9.1354541    488.31188 0.0092106512 0.0073227755         3919 
 4419000   0.53682346   -9.1499944    487.73089 0.0091976105 0.0073198391         3927 
 4420000   0.54680427   -9.1299085    488.53153 0.0092106246 0.0073169049         3923 
 4421000   0.54133294   -9.1370903    487.71881 0.0091932219 0.0073139712         3923 
 4422000   0.54495931   -9.1413431    487.73279 0.0091914065  0.007311038         3922 
 4423000   0.54649864   -9.1553975    487.76822 0.0091899959 0.0073081048         3939 
 4424000   0.54649226   -9.1512732    487.88623 0.0091901415 0.0073051741         3923 
 4425000   0.55808869   -9.1576037    487.78286 0.0091861179 0.0073022465         3924 
 4426000   0.54691066   -9.1552888    488.18037 0.0091915268  0.007299321         3923 
 4427000   0.55106612   -9.1502979    487.42915 0.0091753096 0.0072963966         3947 
 4428000   0.54341327   -9.1616994    487.73658 0.0091790233 0.0072934738         3931 
 4429000   0.54354276   -9.1544409    487.26305 0.0091680411 0.0072905525         3942 
 4430000   0.54164483   -9.1530396    487.96787 0.0091792301 0.0072876338         3920 
 4431000   0.55416028   -9.1548957    488.08954 0.0091794468 0.0072847151         3917 
 4432000   0.54809646   -9.1622548    487.69852 0.0091700233 0.0072817999         3911 
 4433000   0.54126543   -9.1357569    487.63441 0.0091667496 0.0072788853         3902 
 4434000   0.53917544   -9.1599853    488.42971 0.0091796291 0.0072759721         3926 
 4435000   0.54708117   -9.1566427    487.85428  0.009166747 0.0072730585         3916 
 4436000   0.53792666   -9.1513926    487.65103 0.0091608624 0.0072701493         3930 
 4437000   0.53714942   -9.1428708    488.43637 0.0091735476 0.0072672417         3934 
 4438000    0.5407668   -9.1421971    488.33088 0.0091694997 0.0072643344         3928 
 4439000   0.54926993   -9.1422298    487.31509 0.0091483647   0.00726143         3955 
 4440000   0.52995582   -9.1550321    487.65981 0.0091527742 0.0072585261         3952 
 4441000   0.56128366   -9.1655571    487.97015 0.0091565366 0.0072556239         3938 
 4442000   0.53512712   -9.1504307    487.98118 0.0091546822 0.0072527259         3907 
 4443000    0.5371664   -9.1366117    487.91341 0.0091513506 0.0072498277         3924 
 4444000   0.55047677   -9.1517524    488.69527 0.0091639527 0.0072469317         3943 
 4445000   0.54240044   -9.1600148     486.9446 0.0091290702 0.0072440351         3929 
 4446000   0.52654156   -9.1523812    488.02536  0.009147274 0.0072411406         3919 
 4447000    0.5466862   -9.1550932    487.96556 0.0091440964 0.0072382473         3932 
 4448000   0.54362033   -9.1483466    487.91629 0.0091411175 0.0072353564         3919 
 4449000   0.52870127   -9.1626595    488.25131 0.0091453381 0.0072324666         3935 
 4450000   0.53935915   -9.1730211    487.82265 0.0091352556 0.0072295792         3939 
 4451000   0.54857281   -9.1761323    487.47762 0.0091267435  0.007226693         3911 
 4452000   0.53563613   -9.1505523    487.86857 0.0091320112 0.0072238094         3919 
 4453000   0.54662617    -9.170446    487.87091 0.0091300043  0.007220927         3922 
 4454000   0.53881296   -9.1592829    487.62602 0.0091233727 0.0072180454         3932 
 4455000   0.53472837   -9.1631819    487.39057 0.0091169205 0.0072151665         3925 
 4456000   0.52542293   -9.1871696    488.04226 0.0091270619 0.0072122863         3940 
 4457000   0.53905262   -9.1409879    488.15427 0.0091271085 0.0072094095         3932 
 4458000   0.55634558   -9.1826863    487.62391 0.0091151471 0.0072065346         3936 
 4459000   0.54896344   -9.1648768    487.71969 0.0091148929 0.0072036637         3904 
 4460000   0.54079876   -9.1422332    488.02624  0.009118577 0.0072007899         3931 
 4461000   0.54748346   -9.1489251    487.89855 0.0091141476 0.0071979201         3922 
 4462000   0.52574632   -9.1671115    487.70323 0.0091084571  0.007195052         3923 
 4463000   0.53838225   -9.1529914    487.03474 0.0090939341 0.0071921849         3945 
 4464000   0.53773166   -9.1655941     487.5881 0.0091022271 0.0071893208         3909 
 4465000   0.52862222   -9.1523726    487.67696  0.009101847 0.0071864581         3929 
 4466000   0.53294809   -9.1689636    487.42184 0.0090950484  0.007183593         3920 
 4467000   0.53990458   -9.1608231    487.69584 0.0090981239 0.0071807314         3938 
 4468000   0.54440958   -9.1627247    487.15423  0.009085986 0.0071778704         3913 
 4469000   0.53297812    -9.156703    486.99614  0.009081005 0.0071750114         3933 
 4470000   0.53285842   -9.1688072    487.74309 0.0090928987 0.0071721553         3942 
 4471000   0.53007175    -9.156132     487.4353 0.0090851281 0.0071692994         3933 
 4472000   0.53375428   -9.1592543    487.94142 0.0090925279 0.0071664434         3929 
 4473000   0.52658193   -9.1658941    487.62908 0.0090846762 0.0071635903         3924 
 4474000   0.53897349    -9.148296    488.11264 0.0090916525 0.0071607384         3921 
 4475000   0.52991171   -9.1664545      488.832 0.0091030168 0.0071578878         3933 
 4476000   0.53582867   -9.1589332    488.02858 0.0090860251 0.0071550422         3940 
 4477000   0.54506055   -9.1786172    487.42595 0.0090727785 0.0071521976         3940 
 4478000   0.54266763   -9.1645793     487.2121 0.0090667728 0.0071493513         3933 
 4479000   0.52435548    -9.164265    487.85012  0.009076619 0.0071465083         3917 
 4480000   0.54026688   -9.1648627    486.91241 0.0090571505 0.0071436654         3928 
 4481000   0.53189683   -9.1644016    487.24605  0.009061334 0.0071408251         3932 
 4482000   0.54505329   -9.1732443     487.3077 0.0090604585 0.0071379893         3933 
 4483000   0.53667645   -9.1581467    488.25352 0.0090760191 0.0071351535         3919 
 4484000   0.52429845    -9.167595    488.05291 0.0090702668 0.0071323198         3943 
 4485000   0.54372379   -9.1600797    488.15344 0.0090701123 0.0071294852         3939 
 4486000   0.53698646   -9.1567063    487.74348 0.0090604748 0.0071266511         3934 
 4487000   0.53120849   -9.1716802    486.79719 0.0090408809 0.0071238193         3925 
 4488000   0.53638359   -9.1617787    487.80943 0.0090576618 0.0071209905         3927 
 4489000     0.526361   -9.1487473    486.61343 0.0090334415 0.0071181627         3919 
 4490000    0.5442398   -9.1526567    487.41289 0.0090462675 0.0071153364         3925 
 4491000   0.54224972   -9.1708257    486.96683 0.0090359762 0.0071125128         3934 
 4492000   0.53811453   -9.1540234    487.07049 0.0090358876 0.0071096887         3925 
 4493000   0.53462042   -9.1755162    488.02173 0.0090515196 0.0071068667         3920 
 4494000   0.53797379   -9.1619659    486.81879  0.009027199 0.0071040465         3926 
 4495000   0.53794399   -9.1770405    487.45449 0.0090369761 0.0071012278         3946 
 4496000   0.52911748   -9.1771096    486.65948 0.0090202306 0.0070984105         3944 
 4497000   0.53933309   -9.1700775    487.47134 0.0090332692 0.0070955944         3932 
 4498000   0.54641521   -9.1580791     487.4874 0.0090315584 0.0070927795         3923 
 4499000   0.54128327   -9.1657393    487.67673 0.0090330579 0.0070899676         3910 
 4500000   0.53365882   -9.1644783    487.77351 0.0090328428 0.0070871551         3923 
 4501000   0.52350245   -9.1736017    486.80095 0.0090128295 0.0070843443         3923 
 4502000    0.5256272   -9.1875247    487.05713 0.0090155695 0.0070815339         3923 
 4503000   0.53134938   -9.1573892    487.42658 0.0090204045 0.0070787261         3919 
 4504000   0.52549719   -9.1819187    487.14924 0.0090132704  0.007075919         3940 
 4505000   0.54281776   -9.1726609    487.71279 0.0090216943 0.0070731166         3924 
 4506000   0.52914905   -9.1544117    486.92927 0.0090052018 0.0070703153         3925 
 4507000   0.52532909   -9.1722135    487.40004 0.0090119081 0.0070675157         3925 
 4508000   0.52542291   -9.1531259    487.51667 0.0090120651  0.007064717         3925 
 4509000   0.52139183   -9.1593414    487.81002  0.009015488 0.0070619184         3927 
 4510000   0.53549507   -9.1725146    487.19499 0.0090021246 0.0070591223         3935 
 4511000    0.5182634   -9.1720879    487.48142 0.0090054205 0.0070563296         3942 
 4512000   0.52823357   -9.1614695    487.43394 0.0090025476 0.0070535369         3913 
 4513000   0.52539136   -9.1597347    487.49628 0.0090017039 0.0070507466         3946 
 4514000   0.52435545   -9.1832757    486.82247 0.0089872704 0.0070479561         3942 
 4515000   0.52423944   -9.1681974    487.81248 0.0090035527 0.0070451705         3929 
 4516000   0.52566796   -9.1614367    487.82722  0.009001831 0.0070423836         3930 
 4517000   0.53247242   -9.1620269    487.79209 0.0089991899 0.0070395984         3924 
 4518000   0.52289681   -9.1738522    486.62027 0.0089755841 0.0070368162         3935 
 4519000   0.51668453   -9.1651408    487.37151 0.0089874514 0.0070340351         3935 
 4520000   0.52396731   -9.1696803     487.4763 0.0089873949 0.0070312533         3924 
 4521000   0.52539762   -9.1985992    487.32762 0.0089826664 0.0070284734         3935 
 4522000   0.52031142   -9.1606085    487.81212 0.0089896085 0.0070256947         3934 
 4523000   0.52625701   -9.1717019    488.05633 0.0089921205 0.0070229216         3931 
 4524000   0.52032458    -9.181647    487.65689  0.008982775 0.0070201462         3931 
 4525000   0.53669807    -9.145828    487.96591 0.0089864809 0.0070173728         3912 
 4526000    0.5437544   -9.1906937    486.76211 0.0089623308 0.0070146035         3921 
 4527000   0.52612902   -9.1789055    487.64005 0.0089765123 0.0070118336         3918 
 4528000   0.53393289   -9.1803725    487.85761 0.0089785337 0.0070090662         3927 
 4529000   0.52047285   -9.1692444    486.99819 0.0089607381  0.007006298         3921 
 4530000   0.53388646   -9.1886398    487.46133 0.0089672799 0.0070035337         3910 
 4531000   0.52009792   -9.1778752    487.64726 0.0089687203 0.0070007682         3945 
 4532000   0.52135571   -9.1732111    487.06248 0.0089559885  0.006998006         3932 
 4533000   0.52987332   -9.1766705     487.4652 0.0089614163 0.0069952452         3911 
 4534000   0.52746518   -9.1799722    487.60326 0.0089619773 0.0069924853         3927 
 4535000   0.51435577   -9.1930622     487.6902 0.0089615986 0.0069897249         3931 
 4536000   0.51887355   -9.1728228    487.27197 0.0089519395 0.0069869666         3932 
 4537000   0.52906916    -9.165792     487.3354 0.0089511315 0.0069842089         3928 
 4538000   0.52113669    -9.180498    486.91828 0.0089414992 0.0069814534         3927 
 4539000   0.52638887   -9.1943544    486.55478 0.0089328557 0.0069786985         3946 
 4540000   0.52090574   -9.1692595    487.45094 0.0089473374 0.0069759455         3909 
 4541000   0.52881088   -9.1820011      486.336 0.0089249064 0.0069731968         3932 
 4542000   0.53786771   -9.1832066    486.73752 0.0089303082 0.0069704472         3927 
 4543000   0.51600226   -9.2001922    487.40129 0.0089405182    0.0069677         3923 
 4544000   0.52250134   -9.1789581    487.39517 0.0089384384 0.0069649534         3939 
 4545000   0.52721993   -9.1759725    487.50938 0.0089385658 0.0069622098         3904 
 4546000   0.52048225   -9.1757452    488.22573 0.0089497311 0.0069594652         3932 
 4547000   0.52811522   -9.1856571    487.72233  0.008938537 0.0069567221         3932 
 4548000   0.51683606   -9.1864535    486.88397 0.0089212103 0.0069539821         3928 
 4549000   0.53285632   -9.1605786    486.68312 0.0089155698 0.0069512436         3935 
 4550000   0.51596358    -9.189081     486.8542 0.0089167436 0.0069485048         3915 
 4551000   0.52568275   -9.1850415    486.82604 0.0089142686 0.0069457678         3938 
 4552000   0.52324158   -9.1747501    487.26888 0.0089204173 0.0069430331         3911 
 4553000   0.52357875   -9.1815344    487.28305 0.0089187175 0.0069403002         3938 
 4554000   0.51400206   -9.1791845     487.3495 0.0089179749 0.0069375685         3926 
 4555000   0.53349539   -9.1890223    487.95786 0.0089271471 0.0069348398         3923 
 4556000   0.52064851   -9.1657812    487.48139 0.0089164727   0.00693211         3940 
 4557000   0.51583978   -9.1823647    487.50797 0.0089150021 0.0069293836         3923 
 4558000   0.51914369   -9.1889035    487.75268 0.0089175201 0.0069266568         3943 
 4559000    0.5229887   -9.1839106    486.86322 0.0088993058 0.0069239316         3916 
 4560000   0.51149467   -9.1911543    486.79443 0.0088960971 0.0069212077         3926 
 4561000   0.53753449   -9.1871753    486.32965 0.0088856547 0.0069184841         3920 
 4562000   0.52515203   -9.1787782    487.15798 0.0088988379 0.0069157636         3914 
 4563000   0.52821329   -9.1862315    486.86012 0.0088914478 0.0069130443         3938 
 4564000   0.52580657    -9.201117    487.45247 0.0089003154 0.0069103279         3934 
 4565000   0.51616115   -9.1764811    487.63038 0.0089016134 0.0069076139         3929 
 4566000   0.52824843   -9.1729838    487.50603 0.0088973943 0.0069048996         3928 
 4567000   0.52002915   -9.1871669    486.80561 0.0088826656 0.0069021875         3936 
 4568000   0.52370977   -9.1914571    487.05895 0.0088853428 0.0068994763         3941 
 4569000   0.51811966   -9.1766663    486.79878 0.0088786529  0.006896767         3935 
 4570000   0.50186779   -9.1651939    486.66852 0.0088743349 0.0068940572         3936 
 4571000   0.51984641   -9.1826052    487.04104 0.0088791848  0.006891351         3932 
 4572000    0.5117739   -9.1930012    486.57568 0.0088687605 0.0068886443         3912 
 4573000   0.51524367   -9.1883391    486.58517 0.0088669942 0.0068859418         3932 
 4574000   0.52209091   -9.1889718    487.74194 0.0088861307  0.006883239         3936 
 4575000   0.51732272   -9.1805564    486.45314  0.008860713  0.006880539         3924 
 4576000   0.53699167   -9.1796445    487.29752 0.0088741536 0.0068778397         3936 
 4577000   0.50876163   -9.1856481    486.69516 0.0088612475  0.006875142         3947 
 4578000   0.52441673    -9.189451    487.77014 0.0088788798  0.006872445         3925 
 4579000   0.51104435   -9.1910289    486.98374 0.0088626289   0.00686975         3930 
 4580000   0.51375514   -9.1853752    486.92493 0.0088596239 0.0068670574         3924 
 4581000   0.51109943   -9.1681223    487.34622 0.0088653536 0.0068643657         3948 
 4582000   0.51918402   -9.1788368     487.3487  0.008863464 0.0068616771         3908 
 4583000   0.53495596    -9.190992    487.03699  0.008855862 0.0068589882         3935 
 4584000   0.51910547   -9.2004541    486.40475 0.0088424365 0.0068563004         3926 
 4585000     0.515677     -9.19576     486.6623 0.0088451891 0.0068536137         3916 
 4586000   0.51475571   -9.1814222    488.18501 0.0088709299 0.0068509289         3922 
 4587000   0.52238439   -9.1735242    487.59157 0.0088582148 0.0068482442         3930 
 4588000   0.52373594   -9.2017487     486.5501 0.0088373674 0.0068455624         3926 
 4589000    0.5184268   -9.2047143    487.36625 0.0088502624 0.0068428818         3940 
 4590000   0.51994089   -9.1836201    486.87222 0.0088393648 0.0068402028         3913 
 4591000   0.51420675   -9.1884662    486.48995 0.0088305008 0.0068375255         3935 
 4592000   0.51483657   -9.1868964    487.18232 0.0088411426 0.0068348506         3915 
 4593000   0.51025887    -9.181573    487.50632 0.0088450963 0.0068321758         3936 
 4594000   0.52104748   -9.1858555    487.33884 0.0088401328 0.0068295016         3907 
 4595000   0.51141167   -9.1765575    487.33711 0.0088381775 0.0068268311         3936 
 4596000    0.5282344   -9.1825767    487.24929 0.0088346622  0.006824161         3923 
 4597000   0.52209698   -9.1900963    487.11885 0.0088303758 0.0068214929         3916 
 4598000   0.52074472   -9.1911416    486.51676 0.0088175432  0.006818824         3928 
 4599000   0.50882423   -9.1932155    486.15627 0.0088090938 0.0068161578         3919 
 4600000   0.50753081   -9.1966583    487.07902 0.0088238953 0.0068134934         3909 
 4601000   0.51695136   -9.2005169    487.31728 0.0088262928 0.0068108321         3930 
 4602000   0.51669402   -9.1847677    486.61056 0.0088115776 0.0068081696         3920 
 4603000    0.5190094    -9.186463    487.31219 0.0088223657  0.006805508         3907 
 4604000   0.51953524   -9.2070469    486.42726  0.008804432 0.0068028523         3914 
 4605000     0.514278   -9.1958566    487.36369  0.008819466 0.0068001952         3933 
 4606000   0.50841351   -9.1937093    486.43816 0.0088008061 0.0067975387         3906 
 4607000   0.51652114   -9.1753399    486.76622   0.00880483 0.0067948833         3907 
 4608000   0.52040113   -9.1956116    487.04953 0.0088080428 0.0067922314         3925 
 4609000    0.4979143   -9.1934835    486.74933 0.0088007039 0.0067895808         3941 
 4610000   0.51720269   -9.1937499    487.01127 0.0088035298 0.0067869288         3933 
 4611000   0.52064582   -9.1846176    486.09847 0.0087851237 0.0067842794         3920 
 4612000   0.50909603   -9.1824542    487.26208  0.008804244 0.0067816321         3931 
 4613000   0.52114631   -9.1932532    487.02186  0.008797996 0.0067789866         3928 
 4614000   0.51950489    -9.184684    486.49859 0.0087866384 0.0067763413         3937 
 4615000   0.51324637   -9.1876246    487.28412 0.0087989187 0.0067736994         3922 
 4616000   0.51533252   -9.1924272    486.81038   0.00878846  0.006771059         3917 
 4617000   0.51313396   -9.1957235    486.81088 0.0087865655 0.0067684171         3938 
 4618000   0.51777544   -9.1789537    487.43576  0.008795939 0.0067657792         3904 
 4619000   0.50999121   -9.1979859    487.17134 0.0087892643  0.006763141         3906 
 4620000   0.51315601   -9.1924834    487.11193 0.0087862903 0.0067605028         3903 
 4621000   0.50834201   -9.2000902    487.15106 0.0087850945 0.0067578687         3922 
 4622000   0.52001741   -9.1910007    486.87449 0.0087782073 0.0067552361         3927 
 4623000    0.5129905   -9.1848685     486.4956 0.0087694787 0.0067526027         3933 
 4624000   0.50244949   -9.2027983    486.94305 0.0087756461 0.0067499723         3927 
 4625000   0.51049537   -9.1951061    486.84659 0.0087720107 0.0067473433         3902 
 4626000   0.51267245   -9.2007502    486.09753 0.0087566208 0.0067447149         3937 
 4627000   0.52185412   -9.1907048    487.29941 0.0087763743 0.0067420891         3938 
 4628000   0.51252052   -9.1811718     487.5707 0.0087793629 0.0067394644         3930 
 4629000   0.52230666   -9.2022836    486.42455 0.0087568328 0.0067368398         3929 
 4630000   0.50746753   -9.1819652     486.1792 0.0087505256  0.006734214         3932 
 4631000   0.51321958   -9.1825844    486.46306  0.008753744  0.006731592         3928 
 4632000   0.51744272   -9.1981555     486.6285 0.0087548304 0.0067289741         3928 
 4633000   0.51112222    -9.198974    486.40158 0.0087488592 0.0067263547         3907 
 4634000   0.51423717   -9.1954001    487.01714 0.0087580409 0.0067237364         3927 
 4635000   0.51027113   -9.1799962    487.25498 0.0087604275  0.006721121         3931 
 4636000     0.505906   -9.1856508    486.69708 0.0087485096 0.0067185063         3925 
 4637000    0.5170789    -9.214103    487.00956 0.0087522385  0.006715892         3911 
 4638000   0.50464349   -9.2111843    486.37012 0.0087388622   0.00671328         3927 
 4639000   0.50554134   -9.2000227    485.85327  0.008727694 0.0067106695         3920 
 4640000   0.50677692   -9.2129269    486.85996  0.008743893 0.0067080599         3927 
 4641000    0.5055317   -9.1959145    486.89262 0.0087425953 0.0067054537         3922 
 4642000   0.50925533   -9.1909837    487.54152 0.0087523611 0.0067028473         3941 
 4643000   0.50577802   -9.1817684     486.6404 0.0087343026  0.006700242         3899 
 4644000     0.511557   -9.2000859    487.68992 0.0087512548 0.0066976393         3908 
 4645000   0.50719276   -9.2092941    486.06306 0.0087201841 0.0066950356         3910 
 4646000   0.51008094    -9.213804    486.51624 0.0087264356 0.0066924362         3923 
 4647000   0.51864967   -9.2128072    487.08665 0.0087347868 0.0066898381         3921 
 4648000   0.50431071   -9.2097664    487.87334 0.0087470119 0.0066872372         3921 
 4649000   0.50834219   -9.2092447    486.29154 0.0087167768 0.0066846401         3910 
 4650000   0.50805695   -9.1958367     485.8478 0.0087069498 0.0066820447         3931 
 4651000   0.51239586   -9.1885236    486.53126 0.0087173234 0.0066794524         3933 
 4652000   0.49798198   -9.2058597    485.91067 0.0087043327 0.0066768585         3924 
 4653000   0.51540359   -9.2033583    486.34883 0.0087103093 0.0066742656         3930 
 4654000    0.5067491   -9.2175613    486.36641 0.0087087525 0.0066716728         3923 
 4655000   0.51469385   -9.2014722    486.90426 0.0087165103 0.0066690836         3928 
 4656000   0.50349734   -9.1965051    486.08828 0.0087000336 0.0066664976         3919 
 4657000   0.51165901   -9.2129455    486.58267 0.0087070123 0.0066639116         3922 
 4658000   0.50248057   -9.1935378    486.06344 0.0086958538 0.0066613257         3919 
 4659000   0.50319902   -9.2173172     486.8281 0.0087076644  0.006658744         3927 
 4660000   0.49671687    -9.223829    486.67836  0.008703118 0.0066561612         3926 
 4661000   0.49430742   -9.1931441    486.55863 0.0086991101 0.0066535811         3919 
 4662000   0.50343875   -9.1960687    486.25197 0.0086917626     0.006651         3927 
 4663000   0.51684763   -9.2060682    486.70577 0.0086980087  0.006648421         3928 
 4664000   0.49726797    -9.209945    487.12452 0.0087036256  0.006645844         3924 
 4665000   0.50230624   -9.1997048    486.12652 0.0086839322 0.0066432697         3949 
 4666000   0.51234175   -9.2178777    485.49175 0.0086707342 0.0066406959         3918 
 4667000   0.50706459    -9.194878    487.10754 0.0086977276 0.0066381239         3940 
 4668000   0.49985591   -9.2055166    486.46978 0.0086844791 0.0066355526         3928 
 4669000    0.5092493   -9.2142815    486.91291 0.0086905281 0.0066329816         3929 
 4670000   0.49856731   -9.2251307    486.97561 0.0086897861 0.0066304133         3938 
 4671000   0.50707957   -9.2003203    487.16738 0.0086913469 0.0066278459         3912 
 4672000   0.51762204   -9.2096764    485.57096 0.0086610117 0.0066252784         3910 
 4673000   0.51076343   -9.2244995    486.24173 0.0086711201 0.0066227169         3935 
 4674000   0.49926884   -9.2089601    486.49199 0.0086737268  0.006620152         3906 
 4675000   0.49971797   -9.2165275    486.34568 0.0086692635   0.00661759         3935 
 4676000   0.49658935   -9.2107193    486.23142 0.0086653733 0.0066150288         3946 
 4677000   0.50038719   -9.2083526    486.16556  0.008662347 0.0066124711         3938 
 4678000   0.50342313   -9.2216582    486.99897 0.0086753415  0.006609913         3934 
 4679000    0.5074066   -9.2128283    486.39597  0.008662748 0.0066073563         3935 
 4680000   0.50415948   -9.2183606    485.98857 0.0086536425 0.0066048028         3947 
 4681000   0.50326097   -9.2207257    486.38078 0.0086587763 0.0066022496         3923 
 4682000   0.50035664   -9.2218237    486.23495 0.0086543313 0.0065996975         3925 
 4683000   0.49133461   -9.2074269    486.85836 0.0086635768 0.0065971464         3923 
 4684000   0.50631202     -9.20022    486.57331 0.0086566558 0.0065945979         3932 
 4685000   0.50193159   -9.2081537    486.11712 0.0086466937 0.0065920509         3942 
 4686000   0.50450159   -9.2154444    487.84819  0.008675633 0.0065895045         3934 
 4687000   0.50722992   -9.2177588    486.06627    0.0086421 0.0065869593         3941 
 4688000   0.50142457   -9.2021797    485.40258 0.0086284588 0.0065844151         3909 
 4689000   0.50342422   -9.2181294    485.76501 0.0086330598 0.0065818712         3924 
 4690000   0.49667018   -9.2003836    486.16313  0.008638293 0.0065793292         3939 
 4691000   0.49961379   -9.2036709    486.37141 0.0086401515 0.0065767893         3937 
 4692000   0.50243234    -9.220286    486.93632 0.0086483433 0.0065742512         3931 
 4693000   0.50875552   -9.2131248    486.34542 0.0086360079  0.006571715         3927 
 4694000   0.50313343   -9.2008714    486.13984 0.0086305184 0.0065691791         3934 
 4695000    0.5031157   -9.2118884    486.11492 0.0086282379 0.0065666443         3936 
 4696000   0.51752855   -9.1950046    486.70738  0.008636914 0.0065641139         3924 
 4697000   0.50379615   -9.2237807    486.60718 0.0086332975 0.0065615828         3919 
 4698000   0.49138615   -9.2112787    486.25072 0.0086251369 0.0065590498         3925 
 4699000   0.50149734   -9.2006211    486.69942 0.0086312588 0.0065565205         3943 
 4700000   0.49946553   -9.2105666    486.64652 0.0086284843 0.0065539909         3932 
 4701000   0.49635533   -9.2120199    485.96846 0.0086146292 0.0065514642         3928 
 4702000      0.49885    -9.203575    486.31539 0.0086189457 0.0065489392         3938 
 4703000   0.50601757   -9.2114449    486.46223  0.008619715 0.0065464146         3920 
 4704000   0.50772273   -9.2139542    486.65367 0.0086212739 0.0065438908         3931 
 4705000   0.50039484   -9.2146034    486.59125 0.0086183361 0.0065413705         3944 
 4706000   0.50502805   -9.2204746     485.9493  0.008605137 0.0065388485         3944 
 4707000   0.50291711    -9.214464    487.01915 0.0086222497 0.0065363287         3946 
 4708000   0.51153081     -9.20576    486.48472 0.0086109587 0.0065338117         3927 
 4709000   0.49557862   -9.2092469    485.73039 0.0085957809 0.0065312948         3931 
 4710000   0.49804945   -9.2191426    485.83883 0.0085958746 0.0065287812         3928 
 4711000   0.49938189    -9.218856    486.60658 0.0086076307 0.0065262675         3944 
 4712000   0.48990746   -9.2432258    486.18867 0.0085984132 0.0065237548         3950 
 4713000   0.49392335   -9.2180359    486.37613 0.0085999033 0.0065212441         3907 
 4714000   0.49522509   -9.2107664    486.59609 0.0086019673 0.0065187346         3918 
 4715000    0.5075072   -9.2151007    486.05871 0.0085906453 0.0065162276         3912 
 4716000   0.49433115   -9.2212564    486.39308 0.0085947321 0.0065137217         3947 
 4717000   0.48903747   -9.2175052    486.04315  0.008586728 0.0065112165         3930 
 4718000   0.48995061   -9.2312969    485.89342 0.0085822634  0.006508711         3936 
 4719000   0.50398694   -9.2105318    486.54492 0.0085919495 0.0065062094         3924 
 4720000    0.5063992   -9.2326211     486.4995 0.0085893273  0.006503707         3939 
 4721000   0.50210618   -9.2071002    486.14724   0.00858129 0.0065012082         3943 
 4722000   0.49341818   -9.2150052    486.39561 0.0085838559 0.0064987083         3933 
 4723000   0.48938478   -9.2083071    486.40083 0.0085821305 0.0064962092         3932 
 4724000   0.50916325   -9.2149346    485.91727 0.0085717836 0.0064937135         3915 
 4725000   0.49298631   -9.2137213    485.37641 0.0085604305 0.0064912172         3940 
 4726000   0.50426733   -9.2254751    486.07428 0.0085709246 0.0064887234         3920 
 4727000   0.49815403   -9.2048017    486.66052 0.0085794464 0.0064862316         3948 
 4728000   0.49356276   -9.2193431     486.5333 0.0085753894 0.0064837407         3923 
 4729000   0.49751249   -9.2166806    486.51813 0.0085733089 0.0064812493         3936 
 4730000   0.49078005   -9.2308308    486.63159 0.0085734952 0.0064787611         3939 
 4731000   0.48671893   -9.2332631    486.16453 0.0085634561 0.0064762737         3934 
 4732000   0.50153423   -9.2206593    485.83427 0.0085558303 0.0064737861         3931 
 4733000   0.48920078   -9.2288106    486.19718 0.0085604124 0.0064713007         3928 
 4734000   0.49486922   -9.2297808    485.74976 0.0085507281 0.0064688177         3934 
 4735000   0.49806513   -9.2459989     486.2572 0.0085578528 0.0064663335         3939 
 4736000   0.49432407   -9.2164073    486.47197 0.0085598249 0.0064638527         3922 
 4737000   0.50944355    -9.236547       486.27 0.0085544648 0.0064613725         3937 
 4738000   0.48754801   -9.2333743    486.00065 0.0085479219 0.0064588917         3931 
 4739000    0.4974869    -9.205751    487.07909 0.0085650822 0.0064564151         3932 
 4740000   0.50785409   -9.2382576    485.84606 0.0085415974  0.006453939         3939 
 4741000   0.48683359   -9.2267994    486.02398 0.0085429231 0.0064514638         3942 
 4742000   0.48960926   -9.2071986    486.55013 0.0085503679 0.0064489902         3926 
 4743000   0.49057109    -9.220269    486.86615 0.0085541174 0.0064465174         3911 
 4744000   0.49070855   -9.2328552    486.24036 0.0085413216 0.0064440453         3923 
 4745000   0.49092654   -9.2178111    485.34685 0.0085238295 0.0064415741         3925 
 4746000    0.4921534   -9.2204217    485.27501  0.008520772 0.0064391071         3938 
 4747000    0.4842611   -9.2084946     485.6867 0.0085262043 0.0064366406         3933 
 4748000   0.49303998   -9.2309651    486.13859 0.0085323397 0.0064341748         3937 
 4749000   0.48227656   -9.2275737    486.29163 0.0085332286 0.0064317117         3913 
 4750000   0.49132826   -9.2208401    486.37983 0.0085329794 0.0064292513         3941 
 4751000   0.49635187   -9.2221838    485.85183 0.0085219222 0.0064267875         3937 
 4752000    0.4883009   -9.2436309    485.54275 0.0085147087 0.0064243255         3931 
 4753000   0.48279451    -9.222171    486.43938 0.0085286377 0.0064218656         3921 
 4754000   0.49498374   -9.2324704    486.01023 0.0085193211 0.0064194082         3918 
 4755000    0.4868357   -9.2230951     485.7918 0.0085137013 0.0064169517         3921 
 4756000   0.48670155   -9.2265436    486.11598 0.0085175914 0.0064144936         3927 
 4757000   0.48480137   -9.2294713     486.3375 0.0085196815 0.0064120401         3932 
 4758000   0.48434836    -9.228905    485.70664 0.0085068418 0.0064095873         3927 
 4759000   0.48999307   -9.2249248    486.47033  0.008518427  0.006407137         3938 
 4760000   0.49079333   -9.2235076    486.01303 0.0085086315 0.0064046878         3936 
 4761000   0.49817032   -9.2113132    485.83562 0.0085037391 0.0064022371         3940 
 4762000   0.49132585   -9.2251689    485.90734 0.0085032084 0.0063997903         3944 
 4763000   0.49388541   -9.2321991    486.27103 0.0085077862 0.0063973444         3931 
 4764000   0.49862482   -9.2302761    485.65396 0.0084952065 0.0063948992         3922 
 4765000   0.49282472   -9.2165345    485.98492 0.0084992116 0.0063924559         3926 
 4766000   0.49287572   -9.2181151     485.5109 0.0084891401 0.0063900136         3939 
 4767000   0.48720903   -9.2448269    485.58423 0.0084886413 0.0063875724         3942 
 4768000   0.49334662   -9.2302749    484.99232 0.0084765157 0.0063851301         3929 
 4769000   0.49569789   -9.2277757    486.39056  0.008499171 0.0063826907         3941 
 4770000   0.49214355   -9.2254062    486.64325 0.0085018038 0.0063802516         3943 
 4771000   0.48099456   -9.2401003    485.85163 0.0084861949 0.0063778157         3907 
 4772000    0.4907743   -9.2140967     485.5652 0.0084794146 0.0063753813         3926 
 4773000   0.49095266   -9.2284051    486.52121 0.0084943294 0.0063729496         3934 
 4774000   0.49020682    -9.236631    486.29208 0.0084885505 0.0063705161         3923 
 4775000   0.49026147   -9.2232754    485.68983 0.0084762622 0.0063680842         3938 
 4776000   0.48487199   -9.2314018    485.92792 0.0084786419 0.0063656548         3920 
 4777000   0.48737111   -9.2372523    486.14491 0.0084806523 0.0063632273         3925 
 4778000     0.487898   -9.2531664     485.8812  0.008474278 0.0063607999         3918 
 4779000   0.48924517   -9.2375365    485.83807 0.0084717527 0.0063583737         3937 
 4780000   0.47874708   -9.2330502    486.20391 0.0084763583 0.0063559492         3921 
 4781000    0.4940781   -9.2134673    485.50866 0.0084624671 0.0063535239         3915 
 4782000     0.482778   -9.2350051    486.41497 0.0084764912 0.0063511018         3944 
 4783000   0.49612453   -9.2251275    486.20177 0.0084710045   0.00634868         3922 
 4784000   0.48224653    -9.221733    485.89066 0.0084638144 0.0063462593         3931 
 4785000   0.48267023   -9.2377634    485.82285 0.0084608647  0.006343841         3930 
 4786000   0.47888094   -9.2292149    486.70821 0.0084745127 0.0063414218         3925 
 4787000    0.4854937    -9.237212    485.73492 0.0084557991  0.006339006         3926 
 4788000   0.49810484   -9.2254364    486.80629 0.0084726798  0.006336591         3933 
 4789000   0.49419899   -9.2387703    486.26172 0.0084614345 0.0063341758         3918 
 4790000   0.49824693   -9.2286071    485.84588 0.0084524335  0.006331763         3941 
 4791000   0.48914477   -9.2334622    485.98607 0.0084531077 0.0063293521         3917 
 4792000   0.48322999   -9.2328385    485.06417 0.0084353117  0.006326942         3926 
 4793000   0.48928652   -9.2421284    484.99088 0.0084322776 0.0063245326         3914 
 4794000   0.49192759   -9.2367875    485.94068  0.008447029  0.006322123         3940 
 4795000   0.47867143   -9.2301759     485.5301 0.0084381317 0.0063197153         3926 
 4796000   0.48615152    -9.245237     486.0698   0.00844575 0.0063173076         3928 
 4797000    0.4740641   -9.2405892    486.17451 0.0084458084 0.0063149024         3924 
 4798000   0.47973658   -9.2565811     485.5298 0.0084328505 0.0063124987         3935 
 4799000   0.48558406    -9.248137    485.85345 0.0084367135 0.0063100951         3928 
 4800000   0.49679738   -9.2346885    485.32858 0.0084258434 0.0063076925         3922 
 4801000   0.49564713   -9.2263242    486.68007 0.0084475469 0.0063052934         3907 
 4802000    0.4719227   -9.2133669    486.58993 0.0084442235 0.0063028947         3947 
 4803000    0.4676415   -9.2284563    485.63218 0.0084258482  0.006300497         3935 
 4804000   0.47932191   -9.2334516    486.58725 0.0084406614 0.0062980997         3942 
 4805000   0.48481491   -9.2520923    485.67487 0.0084230813 0.0062957057         3948 
 4806000   0.49104755   -9.2352226    485.90186 0.0084252646 0.0062933111         3923 
 4807000   0.47944304   -9.2391325    486.04836 0.0084260516  0.006290919         3940 
 4808000   0.48906719    -9.234327     486.3401 0.0084293556 0.0062885291         3918 
 4809000   0.48489312   -9.2432737      485.945 0.0084207562 0.0062861406         3939 
 4810000   0.49033003   -9.2466102    485.72867 0.0084152576 0.0062837516         3924 
 4811000   0.48550542    -9.253711    485.26953 0.0084055556 0.0062813642         3940 
 4812000   0.49394454   -9.2488557     485.6555 0.0084104929 0.0062789784         3928 
 4813000    0.4722158   -9.2454307    485.87624 0.0084125674 0.0062765931         3929 
 4814000   0.48446257   -9.2351713    485.78148 0.0084091796 0.0062742073         3933 
 4815000   0.47362988    -9.249552     485.6037 0.0084043562  0.006271824         3934 
 4816000   0.48790674   -9.2398963    485.87585 0.0084073202 0.0062694434         3917 
 4817000    0.4786677   -9.2265676    485.59152 0.0084006561  0.006267063         3933 
 4818000   0.48670453    -9.244829    486.07409 0.0084072591 0.0062646847         3934 
 4819000    0.4842837   -9.2405218    485.94138 0.0084032195 0.0062623052         3942 
 4820000   0.47256178   -9.2595748    485.32724 0.0083908582 0.0062599289         3921 
 4821000   0.48575697    -9.250824    485.80398 0.0083973585 0.0062575547         3948 
 4822000   0.49110723   -9.2454789    485.15008 0.0083843164 0.0062551797         3955 
 4823000   0.48447678   -9.2252126    485.80781 0.0083939423 0.0062528085         3919 
 4824000   0.48347944   -9.2390179     485.5925 0.0083884829 0.0062504355         3932 
 4825000   0.48800112   -9.2279067    486.01159 0.0083939826 0.0062480665         3931 
 4826000   0.48459994   -9.2388107    485.53509 0.0083840152 0.0062456989         3941 
 4827000   0.48539257   -9.2430101    485.46632 0.0083810911 0.0062433323         3930 
 4828000   0.47422797   -9.2463186    485.33593 0.0083771045 0.0062409652         3941 
 4829000   0.47949841   -9.2365512    485.88666 0.0083848737 0.0062385993         3926 
 4830000   0.48077532   -9.2405056    485.44015  0.008375434 0.0062362369         3933 
 4831000   0.49374106   -9.2413091    485.23741 0.0083702031 0.0062338744         3938 
 4832000   0.46967927   -9.2475458    485.21743 0.0083681262 0.0062315116         3937 
 4833000   0.47091546   -9.2462036    485.72141 0.0083750847 0.0062291495         3934 
 4834000   0.47607481    -9.249427    485.35829 0.0083670922 0.0062267895         3914 
 4835000   0.47037638   -9.2409351    485.23114 0.0083631702 0.0062244305         3934 
 4836000   0.47130392    -9.246221    486.03132 0.0083752296 0.0062220747         3920 
 4837000   0.47269515   -9.2516359    485.42251 0.0083630093 0.0062197205         3934 
 4838000   0.48156643   -9.2507435    485.67085 0.0083655583 0.0062173661         3927 
 4839000    0.4639768   -9.2555502    485.74112 0.0083650396 0.0062150109         3935 
 4840000   0.46769085   -9.2418175    485.58302 0.0083605892 0.0062126583         3926 
 4841000   0.48047696    -9.232595    485.23366 0.0083528483 0.0062103077         3941 
 4842000     0.475387   -9.2530919    484.48991 0.0083383229 0.0062079572         3926 
 4843000   0.48956037   -9.2424513    486.09666 0.0083642484 0.0062056086         3937 
 4844000   0.47706906   -9.2582008    485.72622 0.0083561488 0.0062032632         3943 
 4845000   0.47307078   -9.2491839    484.98657 0.0083417023 0.0062009178         3943 
 4846000   0.47530694    -9.251993    485.49621 0.0083487449 0.0061985716         3940 
 4847000    0.4695975   -9.2582345    485.21645 0.0083422125 0.0061962289         3913 
 4848000     0.485617   -9.2600904    485.41604 0.0083439226 0.0061938879         3911 
 4849000   0.47471487   -9.2310673    485.35255 0.0083411107 0.0061915465         3941 
 4850000   0.48080667   -9.2591089    486.02628 0.0083509669 0.0061892078         3929 
 4851000   0.48170285   -9.2547931    485.13868 0.0083339978 0.0061868681         3944 
 4852000   0.48195118    -9.257695    484.82843 0.0083269516 0.0061845322         3912 
 4853000   0.47213838   -9.2439942    485.72508 0.0083406326 0.0061821955         3949 
 4854000   0.47055389   -9.2434789    484.69513 0.0083212322 0.0061798594         3947 
 4855000   0.47478671   -9.2505045    485.98373 0.0083416362 0.0061775249         3914 
 4856000   0.47302563   -9.2352892    486.27088 0.0083448462 0.0061751915         3935 
 4857000   0.46803567   -9.2505884     485.0967 0.0083229823 0.0061728594         3928 
 4858000   0.47106831   -9.2528774    485.04437 0.0083203715 0.0061705292         3931 
 4859000   0.47817784   -9.2532703    486.01904  0.008335375 0.0061681985         3913 
 4860000   0.48360311   -9.2511662    485.32303 0.0083217255 0.0061658698         3930 
 4861000   0.47543693   -9.2362966    485.34348 0.0083203642 0.0061635438         3927 
 4862000   0.47740458   -9.2387544    486.09141 0.0083314721 0.0061612188         3931 
 4863000   0.46409668   -9.2580755    484.97635 0.0083106509  0.006158893         3931 
 4864000   0.47252888   -9.2499867    484.48072  0.008300451 0.0061565667         3939 
 4865000   0.47966809   -9.2596228    484.94043 0.0083066193 0.0061542438         3916 
 4866000   0.46825655   -9.2465954    484.61514 0.0082993414  0.006151922         3920 
 4867000   0.48062564   -9.2593734    484.49643 0.0082956036  0.006149601         3938 
 4868000   0.47236891   -9.2663802    485.21669 0.0083062293 0.0061472824         3943 
 4869000    0.4707086   -9.2510277    486.07589 0.0083192287 0.0061449613         3937 
 4870000   0.46909786   -9.2575149    485.21024 0.0083027078 0.0061426434         3909 
 4871000   0.47066015   -9.2446728    485.19724 0.0083007809 0.0061403268         3934 
 4872000   0.46764534   -9.2467287    485.58595 0.0083057258 0.0061380097         3930 
 4873000   0.46856608   -9.2589061    485.96172 0.0083104474 0.0061356957         3919 
 4874000    0.4756369   -9.2732201    485.50315 0.0083009019 0.0061333836         3927 
 4875000   0.47352837   -9.2502987    485.17546 0.0082935976  0.006131071         3921 
 4876000   0.46834532   -9.2571804    485.30071 0.0082940373 0.0061287589         3926 
 4877000   0.47497918   -9.2638745    485.54907 0.0082965804 0.0061264495         3928 
 4878000   0.46668826   -9.2470592    485.14382 0.0082879565 0.0061241419         3913 
 4879000   0.46815041   -9.2596936    485.42135  0.008290998 0.0061218354         3914 
 4880000   0.47021511   -9.2468623    485.25853 0.0082865186 0.0061195293         3931 
 4881000   0.47116358   -9.2566074    484.58873 0.0082733854 0.0061172242         3923 
 4882000   0.47951136   -9.2681442    485.78701 0.0082921449 0.0061149208         3917 
 4883000   0.46440776   -9.2613394    484.68426 0.0082716271 0.0061126198         3914 
 4884000   0.46820803   -9.2539594    484.78466 0.0082716465 0.0061103195         3939 
 4885000   0.46759117   -9.2597321    485.87152  0.008288494 0.0061080186         3931 
 4886000   0.46427246   -9.2621523    485.37662 0.0082783568 0.0061057201         3915 
 4887000   0.46846221   -9.2487488    485.05565 0.0082711897 0.0061034216         3920 
 4888000    0.4721804   -9.2569915    485.66917 0.0082799572 0.0061011259         3943 
 4889000   0.49632636   -9.2469701    485.15625 0.0082695209 0.0060988301         3914 
 4890000   0.46662195    -9.252112    484.05935 0.0082491369 0.0060965356         3941 
 4891000   0.47480785   -9.2615823     484.9614 0.0082628195  0.006094242         3902 
 4892000   0.47496924   -9.2762669    485.74898 0.0082745465  0.006091951         3922 
 4893000   0.46889662   -9.2578469    484.69281 0.0082548677 0.0060896595         3911 
 4894000   0.46950134   -9.2753533    484.62944  0.008252102 0.0060873688         3924 
 4895000    0.4703616   -9.2618854    485.20701 0.0082602488  0.006085079         3933 
 4896000   0.46094106   -9.2534052    485.13668 0.0082573645 0.0060827898         3927 
 4897000   0.46469679   -9.2645248    485.56139 0.0082629056 0.0060805039         3912 
 4898000    0.4658819   -9.2449271    485.37411 0.0082580324 0.0060782186         3928 
 4899000   0.45600277   -9.2727635    485.37614 0.0082563813 0.0060759348         3909 
 4900000   0.46532003   -9.2620909    484.98449 0.0082480355 0.0060736527         3922 
 4901000   0.45665308   -9.2579818    485.10228 0.0082483554   0.00607137         3915 
 4902000   0.48786991   -9.2689602    485.02387 0.0082453398 0.0060690878         3920 
 4903000   0.45793657   -9.2569681    484.96474 0.0082426531 0.0060668073         3919 
 4904000   0.46508824   -9.2609766     484.5093 0.0082332331 0.0060645279         3927 
 4905000   0.46411637   -9.2525175    485.16753 0.0082427375 0.0060622492         3917 
 4906000   0.47396974   -9.2701484     485.1493 0.0082407477 0.0060599721         3940 
 4907000   0.47160376   -9.2576549    485.10769 0.0082383618 0.0060576971         3926 
 4908000   0.48267746   -9.2716626    484.87858 0.0082327931 0.0060554234         3929 
 4909000   0.46777443   -9.2648294    485.36848 0.0082394324 0.0060531496         3917 
 4910000   0.46467854   -9.2676478    485.35555 0.0082375348  0.006050879         3936 
 4911000   0.45898048   -9.2681214    485.36938 0.0082360921 0.0060486065         3926 
 4912000   0.45959977   -9.2602573    485.18466 0.0082312815 0.0060463359         3939 
 4913000   0.45562592   -9.2595402    485.17862 0.0082295037 0.0060440664         3908 
 4914000   0.47253407   -9.2791894    485.08819 0.0082262954 0.0060417994         3927 
 4915000   0.46634873   -9.2563425     484.5509  0.008215512 0.0060395338         3936 
 4916000   0.46099365   -9.2594165    485.57833 0.0082312573 0.0060372689         3934 
 4917000   0.46914881   -9.2537749    485.07331 0.0082210241 0.0060350045         3936 
 4918000   0.46512315    -9.271219    484.24879 0.0082053814 0.0060327407         3938 
 4919000   0.46658703    -9.275658    485.30873 0.0082216698 0.0060304794         3926 
 4920000    0.4632924    -9.265336    484.90011 0.0082130777 0.0060282202         3939 
 4921000   0.45584261   -9.2636845    484.44412 0.0082036868 0.0060259624         3928 
 4922000   0.46769863   -9.2633061     484.8881  0.008209537  0.006023705         3938 
 4923000   0.47298752   -9.2669049    484.93451 0.0082086551 0.0060214489         3938 
 4924000    0.4641671   -9.2684655    484.78549 0.0082044661 0.0060191928         3920 
 4925000   0.45500936   -9.2677509    485.60227 0.0082166205 0.0060169395         3930 
 4926000   0.46352617   -9.2666858    485.39951 0.0082115224 0.0060146864         3923 
 4927000   0.46432014   -9.2757032    484.54929 0.0081954754  0.006012434         3936 
 4928000   0.45776427   -9.2595406    484.67356 0.0081959138 0.0060101846         3930 
 4929000   0.46560729    -9.274719    484.80364 0.0081964502 0.0060079359         3920 
 4930000   0.46038634   -9.2714313     485.3648 0.0082042732 0.0060056872         3924 
 4931000   0.45642412     -9.25941    484.79671 0.0081930087 0.0060034373         3918 
 4932000   0.46587942   -9.2550812    484.83966 0.0081920732 0.0060011919         3930 
 4933000   0.45985808     -9.26787    485.70615 0.0082050502 0.0059989472         3939 
 4934000   0.46732056     -9.26331     485.3482 0.0081973416 0.0059967032         3942 
 4935000   0.46713275   -9.2734537    484.17801 0.0081759204 0.0059944604         3940 
 4936000   0.47155026   -9.2744051    485.37673 0.0081945018 0.0059922183         3934 
 4937000   0.45405977   -9.2776701    484.39461 0.0081762644 0.0059899779         3930 
 4938000   0.45824122   -9.2740006    484.63353 0.0081786406 0.0059877401         3931 
 4939000   0.44989154   -9.2673889    485.56026  0.008192621 0.0059855022         3930 
 4940000   0.47060695   -9.2799792    484.70239 0.0081764911 0.0059832641         3926 
 4941000   0.45972455   -9.2642768    484.75675 0.0081757531 0.0059810271         3934 
 4942000   0.46214714   -9.2615055    484.74838 0.0081739575 0.0059787935         3936 
 4943000    0.4681258   -9.2769348    484.63768 0.0081704377  0.005976561         3929 
 4944000   0.45806606   -9.2525532    484.34881 0.0081639161  0.005974327         3932 
 4945000   0.46233847   -9.2663548    484.02683  0.008156839 0.0059720953         3938 
 4946000   0.45679687   -9.2777909     484.1909 0.0081579542 0.0059698643         3926 
 4947000   0.45960116    -9.286802    484.86033 0.0081675818 0.0059676357         3927 
 4948000   0.45453677   -9.2680277    485.21423 0.0081718916 0.0059654086         3928 
 4949000   0.46272555    -9.255741    485.32269 0.0081720665 0.0059631822         3945 
 4950000   0.45897612   -9.2759166    484.71839 0.0081602423 0.0059609569         3911 
 4951000   0.45864105   -9.2855634     484.1987 0.0081498468 0.0059587314         3934 
 4952000   0.46486055   -9.2752605    485.29117 0.0081665854 0.0059565083         3924 
 4953000   0.46238304   -9.2706283    485.65666 0.0081710859 0.0059542855         3932 
 4954000   0.45550718   -9.2652167    484.90679 0.0081568225  0.005952063         3942 
 4955000   0.46349171    -9.268438    485.11409 0.0081586629 0.0059498438         3935 
 4956000   0.46482418   -9.2671726    484.60845 0.0081485145 0.0059476242         3916 
 4957000    0.4547625   -9.2600767    484.86617 0.0081512032 0.0059454062         3921 
 4958000   0.45105292   -9.2674655    484.73515  0.008147357 0.0059431876         3931 
 4959000   0.46058165    -9.272153     484.7104 0.0081452981 0.0059409707         3934 
 4960000    0.4621361   -9.2741885    484.65449 0.0081427166 0.0059387559         3928 
 4961000   0.45718495   -9.2624962    485.00525 0.0081469672 0.0059365426         3938 
 4962000   0.46162274    -9.269892    485.30022 0.0081502791 0.0059343301         3921 
 4963000   0.46443247   -9.2712164    484.73079 0.0081390757 0.0059321188         3916 
 4964000   0.46252051   -9.2585484    484.62747 0.0081357016 0.0059299081         3925 
 4965000   0.46468541   -9.2837579    485.28201 0.0081450488 0.0059276988         3933 
 4966000   0.45966779   -9.2839809    485.64592 0.0081495153 0.0059254913         3950 
 4967000   0.45777012   -9.2789156    484.68473 0.0081317484 0.0059232852         3928 
 4968000    0.4553905   -9.2734415    484.83542 0.0081326393 0.0059210794         3946 
 4969000   0.45009465   -9.2694939    484.44223 0.0081244085 0.0059188739         3929 
 4970000   0.44747255   -9.2877921    484.77059 0.0081282795   0.00591667         3927 
 4971000    0.4551199   -9.2751735    484.67195 0.0081249907  0.005914468         3924 
 4972000    0.4547661   -9.2730794     484.2777 0.0081167489 0.0059122674         3917 
 4973000   0.45233959   -9.2611406    484.83405 0.0081244395 0.0059100662         3922 
 4974000   0.46287467   -9.2751871    484.92305 0.0081242972 0.0059078685         3927 
 4975000   0.45503285   -9.2765002    484.93496 0.0081228637 0.0059056716         3940 
 4976000   0.44357692   -9.2757688    484.74992 0.0081181324 0.0059034753         3924 
 4977000   0.45261233   -9.2713345    484.40718 0.0081107624 0.0059012798         3940 
 4978000   0.45229494   -9.2851899    484.73003 0.0081145377 0.0058990876         3922 
 4979000   0.45685311   -9.2772938    484.77594 0.0081136764 0.0058968953         3943 
 4980000   0.45159551   -9.2734435    484.91508 0.0081143755 0.0058947043         3927 
 4981000   0.44745531   -9.2908618    484.64031 0.0081081494 0.0058925138         3913 
 4982000   0.45328933   -9.2890506    484.10947 0.0080976427 0.0058903227         3931 
 4983000   0.46215513   -9.2834411    484.43107  0.008101396 0.0058881336         3934 
 4984000   0.43674227   -9.2688172    483.90007  0.008090892  0.005885948         3915 
 4985000   0.45472864    -9.273587    485.62319  0.008118074 0.0058837612         3925 
 4986000   0.44693372   -9.2902981    484.33479 0.0080949122 0.0058815763         3938 
 4987000   0.45306186   -9.2827978    484.89759 0.0081026935 0.0058793911         3940 
 4988000   0.44686182    -9.285065    484.28527 0.0080908392 0.0058772096         3927 
 4989000   0.45275152   -9.2883886    484.80469 0.0080978935 0.0058750284         3937 
 4990000    0.4502615   -9.2780362    485.49076 0.0081077281 0.0058728475         3930 
 4991000   0.46269971   -9.2886155      484.598 0.0080911975 0.0058706664         3933 
 4992000   0.45743983   -9.2768245    484.43312 0.0080868242 0.0058684871         3926 
 4993000   0.44986195   -9.2880013    484.93823 0.0080936349 0.0058663099         3935 
 4994000   0.44950579   -9.2625866    484.46055 0.0080840434 0.0058641332         3928 
 4995000   0.45440442   -9.2831185    485.07817 0.0080927289 0.0058619573         3930 
 4996000    0.4625371   -9.2683281    484.28584 0.0080778929  0.005859783         3931 
 4997000   0.44138289   -9.2853145    484.58668 0.0080812934 0.0058576103         3922 
 4998000   0.44991832   -9.2691119    484.99404 0.0080864685 0.0058554387         3912 
 4999000   0.45394775   -9.2703404    484.42484 0.0080753624 0.0058532674         3924 
 5000000   0.45273162   -9.2973351    484.02401 0.0080670668 0.0058510963         3937 
 5001000   0.44763439   -9.2965299    485.00097 0.0080817332  0.005848928         3946 
 5002000   0.46034199   -9.2862067    484.87077 0.0080779483 0.0058467592         3933 
 5003000   0.45810583   -9.2807859    484.99826 0.0080784573 0.0058445925         3934 
 5004000   0.44617992   -9.2749402    484.66325 0.0080712638 0.0058424272         3929 
 5005000   0.44706327   -9.2818218     484.4815  0.008066625 0.0058402628         3917 
 5006000   0.44978499   -9.2799064    484.52172 0.0080656832 0.0058380986         3924 
 5007000   0.44904743   -9.2773797     484.5767 0.0080649874 0.0058359362         3919 
 5008000   0.44668542   -9.2787085    485.29207 0.0080752808 0.0058337757         3940 
 5009000   0.45171073   -9.2877744    484.31508 0.0080574146 0.0058316156         3924 
 5010000   0.44710294   -9.2900625    484.77776 0.0080635023 0.0058294575         3955 
 5011000   0.44175301   -9.2907913    484.58411 0.0080586728 0.0058272977         3945 
 5012000   0.44891337   -9.2809207    483.77966 0.0080436896 0.0058251426         3931 
Loop time of 13495.2 on 48 procs for 5000000 steps with 4000 atoms

Performance: 64022.797 tau/day, 370.502 timesteps/s
99.4% CPU use with 48 MPI tasks x no OpenMP threads

MPI task timing breakdown:
Section |  min time  |  avg time  |  max time  |%varavg| %total
---------------------------------------------------------------
Pair    | 1019       | 1121.2     | 1212.9     | 176.6 |  8.31
Neigh   | 94.574     | 99.038     | 102.36     |  20.7 |  0.73
Comm    | 845.77     | 956.14     | 1090.8     | 199.8 |  7.09
Output  | 18.958     | 18.963     | 19.057     |   0.3 |  0.14
Modify  | 11097      | 11161      | 11230      |  38.1 | 82.70
Other   |            | 138.9      |            |       |  1.03

Nlocal:        83.3333 ave          88 max          73 min
Histogram: 1 0 0 1 3 4 15 7 13 4
Nghost:        2467.62 ave        2484 max        2452 min
Histogram: 2 5 7 4 7 8 4 4 3 4
Neighs:        17255.8 ave       19833 max       13996 min
Histogram: 2 0 5 9 2 7 5 11 4 3
FullNghs:      34512.3 ave       36697 max       29434 min
Histogram: 1 0 1 0 0 10 12 10 11 3

Total # of neighbors = 1656592
Ave neighs/atom = 414.14800
Neighbor list builds = 265991
Dangerous builds = 0

#clear
#
#next RN
#
#jump SELF
Total wall time: 3:44:58
