
units lj                  # Use reduced LJ style units
atom_style atomic         # Uncharged point particles
atom_modify map hash      # Needed for indexing of clusters etc
                          # Used to be able to find where atoms are in relation to each other.

lattice fcc 1.0 spacing 1 1 1
Lattice spacing in x,y,z = 1.5874011 1.5874011 1.5874011
region box block 0 10 0 10 0 10 units lattice
create_box 2 box
Created orthogonal box = (0.0000000 0.0000000 0.0000000) to (15.874011 15.874011 15.874011)
  3 by 4 by 4 MPI processor grid
create_atoms 1 box
Created 4000 atoms
  using lattice units in orthogonal box = (0.0000000 0.0000000 0.0000000) to (15.874011 15.874011 15.874011)
  create_atoms CPU = 0.002 seconds
set type 1 type/fraction 2 0.07 78393
Setting atom values ...
  309 settings made for type/fraction
mass 1 1.0
mass 2 1.0
pair_style lj/cut  3.5
pair_modify tail  yes
pair_coeff 1  1  1.0  1.0   # Intearaction between 1 and 1 set with epsilon = 1 and sigma = 1
pair_coeff 1  2  1.5  0.8
pair_coeff 2  2  0.5  0.88

write_data data.0
System init for write_data ...
Neighbor list info ...
  update every 1 steps, delay 10 steps, check yes
  max neighbors/atom: 2000, page size: 100000
  master list distance cutoff = 3.8
  ghost atom cutoff = 3.8
  binsize = 1.9, bins = 9 9 9
  1 neighbor lists, perpetual/occasional/extra = 1 0 0
  (1) pair lj/cut, perpetual
      attributes: half, newton on
      pair build: half/bin/atomonly/newton
      stencil: half/bin/3d
      bin: standard
WARNING: Not all mixed pair coeffs generated from mixing. Use write_data with 'pair ij' option to store all pair coeffs. (../write_data.cpp:312)


#############################
#   M E L T   S Y S T E M   #
#############################

velocity all create 2.4 8172548 mom yes dist gaussian # Assign velocities
                                                    # Temperature 2.4, random number seed, zero linear momentum
                                                                                # Gaussian distribution

timestep 0.002   # simulation timestep
thermo 1000       # output thermodynamic data every 1000 steps bf 100

# Define a fix  in this case with index 1 applied to all
# particles in the simulation. This fix is for simulations
# in the anisotropic NPT ensemble. Note that we use the MTK
# correction.
fix 1 all npt temp 2.4 2.4 0.1 iso 5.68 5.68 0.5 mtk yes tchain 5 pchain 5 # Use NPT ensemble
                                                                         # Set temperature and pressure and damping
                                                                         # Numbers of thermostats in chain and in barostat
run 10000          # run for 10000 steps
Per MPI rank memory allocation (min/avg/max) = 3.642 | 3.644 | 3.648 Mbytes
Step Temp E_pair E_mol TotEng Press Volume 
       0          2.4   -7.8774228            0   -4.2783228   -2.8368304         4000 
    1000    2.4261653    -4.576035            0  -0.93769684    5.6472102    4934.9216 
    2000    2.3986871   -4.5672698            0  -0.97013862     5.553188    4947.3805 
    3000    2.3491183   -4.5222156            0  -0.99941916    5.7985636    4935.9164 
    4000    2.4230288   -4.5832466            0  -0.94961205    5.7994109    4904.9453 
    5000    2.3797388   -4.5670176            0  -0.99830173    5.5302871    4949.4696 
    6000    2.4329072    -4.574159            0  -0.92571051    5.6917542    4922.6829 
    7000    2.3808426   -4.5062122            0  -0.93584111    5.7924205    4947.1128 
    8000    2.3628145   -4.5352608            0  -0.99192507    6.0584689    4896.2875 
    9000    2.4339334   -4.4969625            0  -0.84697514    5.8180562    4946.4417 
   10000    2.4039198   -4.5639334            0  -0.95895518    5.3948049    4967.7812 
Loop time of 2.16102 on 48 procs for 10000 steps with 4000 atoms

Performance: 799623.130 tau/day, 4627.449 timesteps/s
99.6% CPU use with 48 MPI tasks x no OpenMP threads

MPI task timing breakdown:
Section |  min time  |  avg time  |  max time  |%varavg| %total
---------------------------------------------------------------
Pair    | 0.90474    | 0.95917    | 1.1168     |   3.9 | 44.38
Neigh   | 0.19061    | 0.19672    | 0.2237     |   1.4 |  9.10
Comm    | 0.5806     | 0.75376    | 0.82422    |   5.5 | 34.88
Output  | 0.00024622 | 0.00025317 | 0.0003162  |   0.0 |  0.01
Modify  | 0.20451    | 0.23618    | 0.26845    |   4.0 | 10.93
Other   |            | 0.01494    |            |       |  0.69

Nlocal:        83.3333 ave          91 max          75 min
Histogram: 3 2 2 8 7 8 4 6 5 3
Nghost:        1424.79 ave        1443 max        1402 min
Histogram: 1 3 3 5 10 6 6 5 7 2
Neighs:        7666.25 ave        8661 max        6541 min
Histogram: 1 2 5 5 6 11 7 8 2 1

Total # of neighbors = 367980
Ave neighs/atom = 91.995000
Neighbor list builds = 899
Dangerous builds = 163

# Equilibrate just above the melting temperature to avoid step fn in T

fix 1 all npt temp 1.25 1.25 0.1 iso 5.68 5.68 0.5 mtk yes tchain 5 pchain 5
run 2000
Per MPI rank memory allocation (min/avg/max) = 3.642 | 3.644 | 3.648 Mbytes
Step Temp E_pair E_mol TotEng Press Volume 
   10000    2.4039198   -4.5639334            0  -0.95895518    5.3948049    4967.7812 
   11000    1.2172989    -6.073167            0   -4.2476751     5.935319    4070.5334 
   12000    1.2267734   -6.1263461            0    -4.286646    5.8334469    4055.7514 
Loop time of 0.480383 on 48 procs for 2000 steps with 4000 atoms

Performance: 719425.211 tau/day, 4163.340 timesteps/s
99.6% CPU use with 48 MPI tasks x no OpenMP threads

MPI task timing breakdown:
Section |  min time  |  avg time  |  max time  |%varavg| %total
---------------------------------------------------------------
Pair    | 0.20674    | 0.22554    | 0.24186    |   1.8 | 46.95
Neigh   | 0.031497   | 0.033476   | 0.036314   |   0.5 |  6.97
Comm    | 0.14996    | 0.16462    | 0.19102    |   2.2 | 34.27
Output  | 5.3938e-05 | 5.5015e-05 | 6.6704e-05 |   0.0 |  0.01
Modify  | 0.043676   | 0.052117   | 0.059989   |   2.3 | 10.85
Other   |            | 0.004579   |            |       |  0.95

Nlocal:        83.3333 ave          91 max          75 min
Histogram: 2 4 1 11 1 11 8 2 4 4
Nghost:        1629.65 ave        1647 max        1609 min
Histogram: 1 3 4 7 7 5 10 2 4 5
Neighs:        9410.85 ave       10268 max        8009 min
Histogram: 1 0 3 5 7 8 3 9 4 8

Total # of neighbors = 451721
Ave neighs/atom = 112.93025
Neighbor list builds = 142
Dangerous builds = 12

#############################
# L I N E A R  Q U E N C H  #
#############################

# Define solid atoms. This closely follows ten Wolde  Ruiz-Montero and Frenkel  Faraday Discuss  1996  104  93-110
# Compute components of the per-atom q6 vector
compute q6 all orientorder/atom degrees 1 6 components 6 nnn NULL cutoff 1.3 # compute the Q6 parameter.
                                                                             # Use all neighbours within 1.3 unit cell.

# get number of connections
compute coord_number all coord/atom orientorder q6 0.5

# An atom is solid if it has 8 or more connections (of a possible 14)
variable is_solid atom c_coord_number>=8
group solid dynamic all var is_solid    # Must be dynamic to update
dynamic group solid defined

# do clustering
compute cluster solid cluster/atom 1.3 # Create a cluster where all atoms within are solid and max 1.3 units from another member

# define chunks one chunk per cluster
compute clus_chunks solid chunk/atom c_cluster nchunk every compress yes  # Says which atoms are in which chunk

# count the size of each chunk
compute size_chunks solid property/chunk clus_chunks count


# Find the maximum entry in the vector of chunk sizes
variable max_n equal max(c_size_chunks)


# Thermo style which includes this variable
# thermo_style custom step temp pe vol v_max_n

thermo ${N}  # Print the thermo information every 100 steps
thermo 1000  

# Reset the npt fix at a lower temperature (below freezing)
fix 1  all npt temp  ${temp} ${temp}  0.1  iso  5.68  5.68  0.5  mtk yes tchain  5  pchain  5
fix 1  all npt temp  0.45 ${temp}  0.1  iso  5.68  5.68  0.5  mtk yes tchain  5  pchain  5
fix 1  all npt temp  0.45 0.45  0.1  iso  5.68  5.68  0.5  mtk yes tchain  5  pchain  5

dump dmp2 all dcd ${N} traj.dcd
dump dmp2 all dcd 1000 traj.dcd


compute msd all msd com yes
variable twopoint equal c_msd[4]/6/(step*dt+1.0e-6)
fix 9 all vector 10 c_msd[4]
variable fit equal slope(f_9)/6/(10*dt)
thermo_style custom step temp pe c_msd[4] v_twopoint v_fit v_max_n

fix 1 all npt temp 1.25 ${temp} 0.1 iso 5.68 5.68 0.5 mtk yes tchain 5 pchain 5
fix 1 all npt temp 1.25 0.45 0.1 iso 5.68 5.68 0.5 mtk yes tchain 5 pchain 5
run 5000000 # 5000000  # Run for this many steps
Neighbor list info ...
  update every 1 steps, delay 10 steps, check yes
  max neighbors/atom: 2000, page size: 100000
  master list distance cutoff = 3.8
  ghost atom cutoff = 3.8
  binsize = 1.9, bins = 9 9 9
  4 neighbor lists, perpetual/occasional/extra = 1 3 0
  (1) pair lj/cut, perpetual
      attributes: half, newton on
      pair build: half/bin/atomonly/newton
      stencil: half/bin/3d
      bin: standard
  (2) compute orientorder/atom, occasional
      attributes: full, newton on
      pair build: full/bin/atomonly
      stencil: full/bin/3d
      bin: standard
  (3) compute coord/atom, occasional
      attributes: full, newton on
      pair build: full/bin/atomonly
      stencil: full/bin/3d
      bin: standard
  (4) compute cluster/atom, occasional
      attributes: full, newton on
      pair build: full/bin/atomonly
      stencil: full/bin/3d
      bin: standard
Per MPI rank memory allocation (min/avg/max) = 9.746 | 9.750 | 9.754 Mbytes
Step Temp PotEng c_msd[4] v_twopoint v_fit v_max_n 
   12000    1.2267734   -6.1263461 2.0423609e-30 1.4183061e-32 8.3333333e+20            1 
   13000    1.2355431   -6.0945833   0.55134847  0.003534285  0.046011102            2 
   14000     1.260974   -6.0899458    1.1155514 0.0066401868   0.04514722            4 
   15000    1.2597128   -6.1218714    1.7027323 0.0094596234  0.046646756            5 
   16000    1.2573816   -6.1247142    2.1764145  0.011335492  0.046347915            2 
   17000    1.2606369   -6.1389701    2.6652338  0.013064871  0.044895356            2 
   18000    1.2403786   -6.0776553    3.2326615  0.014966025   0.04436254            2 
   19000    1.2285201   -6.0992041    3.7383273  0.016396172  0.044101034            2 
   20000    1.2631222   -6.1001255    4.2494718  0.017706132  0.043840147            3 
   21000    1.2638105   -6.1024647    4.7411538  0.018814102    0.0437652            5 
   22000    1.2477423   -6.0841881    5.3028304  0.020086478  0.043606569            3 
   23000    1.2414193   -6.1062781    5.9164203  0.021436305  0.043736758            2 
   24000    1.2507261   -6.1271988    6.4922039  0.022542374  0.044041042            1 
   25000      1.25289   -6.1106573    7.0503457  0.023501152  0.044364061            2 
   26000    1.2297205     -6.13601    7.5470773   0.02418935  0.044594133            2 
   27000    1.2593441   -6.1355562    7.9817421  0.024635006  0.044522463            3 
   28000    1.2473969   -6.0868552    8.5471941  0.025438077   0.04439947            2 
   29000    1.2577986   -6.1305064    9.0622579   0.02604097  0.044350975            2 
   30000    1.2575065   -6.1246015     9.474878  0.026319105  0.044243294            2 
   31000    1.2513544   -6.1565231    10.013428  0.026917816   0.04410764            6 
   32000    1.2395363    -6.155043    10.505669  0.027358512  0.044011493            2 
   33000    1.2431847   -6.1625498    11.060745  0.027931173  0.043862625            2 
   34000     1.250542   -6.1056587    11.611431  0.028459389  0.043815208            2 
   35000    1.2289933   -6.0809851    12.080056  0.028762037  0.043743181            1 
   36000     1.263468   -6.1310713    12.639035  0.029257026  0.043700231            2 
   37000    1.2337855   -6.1346269    13.118433  0.029546021  0.043666455            2 
   38000    1.2561484   -6.1191744     13.78057  0.030220548  0.043662664            2 
   39000    1.2739044   -6.1116077    14.370097  0.030705335  0.043706083            2 
   40000    1.2321901   -6.1128622    14.993192  0.031235816  0.043812834            3 
   41000    1.2608699   -6.1274276    15.489456  0.031482634  0.043918847            2 
   42000     1.251911   -6.1193441     15.98703  0.031720298  0.043960974            1 
   43000    1.2649305   -6.1476508     16.54529  0.032064515  0.044024931            2 
   44000    1.2445032    -6.072334    17.214404  0.032603038  0.044106512            2 
   45000    1.2336829   -6.1034642    17.644738  0.032675441  0.044188628            3 
   46000    1.2462221   -6.1034308    18.326886   0.03320088  0.044276157            3 
   47000    1.2395947   -6.1212667    18.714089  0.033181009  0.044346616            3 
   48000    1.2324526   -6.0828957    19.352158  0.033597496  0.044429743            3 
   49000    1.2544911   -6.0893122    19.988355  0.033993801   0.04449069            2 
   50000     1.231238   -6.1143996     20.48222  0.034137033  0.044543192            5 
   51000     1.274481   -6.1324677    20.896403   0.03414445  0.044582533            3 
   52000    1.2464372   -6.1118006    21.513763  0.034477184  0.044627401            3 
   53000     1.241961   -6.1510252    22.175407  0.034866992  0.044679719            2 
   54000    1.2538987   -6.1560483    22.692557  0.035019378  0.044732964            3 
   55000    1.2428769   -6.1028483    23.289179  0.035286635  0.044804324            2 
   56000    1.2464813   -6.1312553    23.887743  0.035547237  0.044860172            1 
   57000    1.2514738   -6.1498468    24.319162   0.03555433  0.044925475            3 
   58000    1.2349058   -6.1189417    24.948846  0.035846042  0.044981133            2 
   59000    1.2104151   -6.1346636    25.420363  0.035904467  0.045018509            2 
   60000      1.24839   -6.1458668    26.120573  0.036278573  0.045079049           14 
   61000    1.2352268   -6.1538239    26.724879  0.036509397  0.045141233            3 
   62000    1.2441801   -6.1252585    27.344742  0.036753685  0.045205289            1 
   63000    1.2475843    -6.130293    28.005545  0.037044371  0.045274922            3 
   64000    1.2604044   -6.0964397    28.535643  0.037155785  0.045341499            2 
   65000    1.2326304   -6.1319417    29.097844  0.037304928  0.045412114            4 
   66000    1.2682277    -6.099374     29.60666  0.037382147  0.045486636            2 
   67000    1.2369948   -6.0924179    30.123173  0.037466632  0.045552231            2 
   68000    1.2617042   -6.1242995    30.766904  0.037704539   0.04561375            2 
   69000    1.2487124   -6.1155037    31.163461   0.03763703  0.045654216            2 
   70000    1.2243779    -6.103481    31.769376  0.037820685   0.04566972            1 
   71000    1.2220562   -6.1190036    32.114718   0.03769333  0.045682273            3 
   72000    1.2181126   -6.1255985     32.66362  0.037805115  0.045688512            2 
   73000    1.2564784   -6.1373053    33.099772  0.037785127  0.045686725            4 
   74000    1.2618705   -6.1172267     33.71616  0.037968649  0.045684662            2 
   75000    1.2315191   -6.1205585    33.943786  0.037715318  0.045661598            2 
   76000     1.225989   -6.1204218     34.62249  0.037963256  0.045624373            2 
   77000    1.2289612   -6.1170182    35.119158  0.038007747  0.045606998            3 
   78000    1.2440302   -6.0872488    35.866017  0.038318394  0.045593182            4 
   79000    1.2390703   -6.1073366     36.20886  0.038194999  0.045579268            2 
   80000    1.2585504   -6.1142675    37.003425  0.038545234  0.045566251            3 
   81000    1.2220932   -6.0668876    37.567883  0.038650085  0.045572756            3 
   82000    1.2553292   -6.1660998    38.182641  0.038803497  0.045586033            2 
   83000    1.2519717   -6.1259224    38.875842  0.039031969  0.045608639            3 
   84000    1.2266658   -6.1214175    39.469512  0.039156262  0.045639636            1 
   85000    1.2091985   -6.1491884    39.700377  0.038921938  0.045644207            4 
   86000    1.2228579   -6.1348021    40.214662  0.038967696  0.045637739            3 
   87000    1.2526993   -6.1667663    40.782881  0.039064062  0.045628845            2 
   88000    1.2416442   -6.1096548    41.237469  0.039050633  0.045627928            2 
   89000    1.2159679   -6.1230668     41.64885   0.03899705   0.04561549            4 
   90000    1.2538154   -6.1434734     42.27358  0.039142204  0.045594217            4 
   91000    1.2300289   -6.1242182    42.748654  0.039147119  0.045574416            3 
   92000    1.2433822    -6.158129    42.949162  0.038903227  0.045544244            6 
   93000    1.2422487   -6.1695049    43.683605  0.039143015   0.04550446            3 
   94000    1.2231339   -6.0952328    44.461941  0.039416614  0.045485437            2 
   95000     1.269653   -6.1474418     44.80526  0.039302859  0.045473444            3 
   96000    1.2330928   -6.1355066    45.336476   0.03935458  0.045444863            2 
   97000    1.2518995   -6.1075408    45.810175   0.03935582  0.045422741            3 
   98000    1.2019091   -6.1240331    46.697498  0.039708756  0.045403119            3 
   99000    1.2534816   -6.2033778    47.221225  0.039748506  0.045402299            4 
  100000    1.2273134   -6.1354505    47.961845  0.039968204  0.045406514            1 
  101000    1.2340512   -6.1657998    48.568277  0.040072835  0.045412785            1 
  102000    1.2217113   -6.1318428    49.012468  0.040042866   0.04543132            4 
  103000    1.2391559   -6.1239864    49.711168  0.040219391  0.045446729            2 
  104000    1.2434707   -6.1607656    50.060889  0.040112892  0.045456664            2 
  105000    1.2294326   -6.1640994    50.662759  0.040208539  0.045462328            4 
  106000    1.2163351   -6.1498511     51.12128  0.040189686  0.045463647            2 
  107000    1.2208052   -6.1263973     51.39526  0.040027461   0.04545892            3 
  108000    1.2360546   -6.2197664    51.900324  0.040046546  0.045444923            1 
  109000    1.2068087   -6.1332859    52.394518  0.040056971  0.045431446            3 
  110000    1.2596699   -6.1117579    53.146122  0.040262213  0.045418141            2 
  111000    1.2259373   -6.1147081     53.72471  0.040333866  0.045407973            4 
  112000    1.2237601   -6.1117217    54.078744   0.04023716  0.045402752            2 
  113000    1.2222759   -6.1363191    54.538054  0.040219804  0.045389513            2 
  114000    1.2261748   -6.1546219    54.899365  0.040131115  0.045367976            2 
  115000    1.2234663   -6.1302888    55.209913  0.040007183   0.04533603            1 
  116000    1.2371658   -6.1381586    55.590276  0.039935543  0.045301783            2 
  117000     1.219016   -6.1308286    56.315183  0.040110529  0.045275675            2 
  118000    1.2649609   -6.1797055    56.672963  0.040023278  0.045247064            2 
  119000    1.2334085   -6.1390613    57.378527  0.040181041  0.045219517            3 
  120000    1.2320484   -6.1215077    57.982481  0.040265612  0.045190878            3 
  121000     1.219539   -6.1111216    58.671063  0.040407068  0.045165207            8 
  122000    1.2222662   -6.1620657    59.115688  0.040379568  0.045144944            2 
  123000    1.2671655   -6.1272662    59.614094  0.040388952  0.045127776            1 
  124000    1.2179838   -6.1370918    60.248991  0.040489913  0.045107199            2 
  125000    1.2603919   -6.1609382    60.650549  0.040433699   0.04508641            3 
  126000    1.2321295   -6.1358622     61.06637  0.040387811  0.045071621            2 
  127000    1.2232544   -6.1365891    61.902746  0.040618599  0.045058259            2 
  128000    1.2434319   -6.1433984    62.460243  0.040664221  0.045052232            2 
  129000    1.2220362    -6.157095    63.092587  0.040757485  0.045044262            3 
  130000    1.2255635   -6.1460171    63.417874  0.040652483  0.045034561            3 
  131000    1.2140442    -6.157974    63.878774  0.040635352  0.045017704            2 
  132000    1.2230553   -6.1128643    64.397238  0.040654822  0.044999017            3 
  133000    1.2164465   -6.1437531    64.951083  0.040696167  0.044983835            3 
  134000    1.2317071   -6.1325685    65.286273  0.040600916  0.044971643            2 
  135000    1.2399673   -6.1215855    66.087027  0.040794461  0.044960932            4 
  136000    1.2166482    -6.147754    66.340885  0.040650052  0.044945401            2 
  137000    1.2497061   -6.1204469    66.817767   0.04064341  0.044923402            3 
  138000    1.2281325   -6.1973436    67.315656   0.04064955  0.044904744            4 
  139000    1.2344276   -6.1194401     67.90948  0.040713117  0.044888176            4 
  140000    1.2088674   -6.1104997    68.398042   0.04071312  0.044869071            3 
  141000    1.2228514   -6.1633217    68.995409  0.040777428  0.044844843            2 
  142000    1.2330997   -6.1498366    69.065819  0.040531584  0.044818499            3 
  143000    1.2100896   -6.1224519    69.808815  0.040681128  0.044789957            2 
  144000    1.2141479   -6.1434551    70.471677   0.04078222  0.044770621            2 
  145000    1.2128106   -6.1093669      70.6671  0.040613276  0.044752191            2 
  146000     1.205175   -6.1474169    71.290801  0.040691096  0.044729752            4 
  147000    1.2189738   -6.1862133    71.507257  0.040536994  0.044705826            2 
  148000    1.2098654   -6.1598444    72.140115  0.040619434  0.044685056            4 
  149000    1.2030141   -6.1606978    72.782842  0.040706287  0.044663034            2 
  150000    1.2208181   -6.1491224    73.507201  0.040837334  0.044643845            5 
  151000    1.2476076   -6.1654217    74.248408  0.040975942  0.044629977            8 
  152000     1.230405    -6.156534    74.425349  0.040803371  0.044616035            2 
  153000    1.2345552   -6.1640795    75.194557  0.040955641  0.044601076            8 
  154000    1.2329334   -6.1544479    75.387227  0.040793954  0.044584542            1 
  155000    1.2233085   -6.1248334    75.975051  0.040846802  0.044563406            5 
  156000     1.232805   -6.1548994    76.268869  0.040741917  0.044540066            3 
  157000    1.2041807   -6.1192585    76.905653   0.04082041  0.044519421            3 
  158000    1.2339487   -6.0934702    77.386043  0.040815424  0.044503161            6 
  159000    1.2302095   -6.1258972    78.061001  0.040912474  0.044485587            5 
  160000    1.2350068   -6.1409436    78.300569  0.040781546  0.044466154            2 
  161000    1.2297652   -6.1256929     79.17786  0.040982329  0.044445669            2 
  162000     1.197167   -6.1479622    79.328072  0.040806621  0.044426775            4 
  163000    1.2247491    -6.151831    79.904398  0.040850919  0.044408985            3 
  164000    1.1999082   -6.1453098    80.575883   0.04094303  0.044394916            2 
  165000    1.2104107   -6.1676484    81.204192  0.041012218  0.044380774            3 
  166000    1.2430613   -6.1384252    81.679442  0.041003736  0.044365965            5 
  167000     1.249373   -6.1523935    82.016973  0.040926633  0.044348199            3 
  168000    1.1993463    -6.166165     82.33437  0.040840461  0.044328586            2 
  169000    1.2382901   -6.1416175     83.02362  0.040938669   0.04431001            1 
  170000     1.225288   -6.1704362    83.214384  0.040791364  0.044289077            2 
  171000    1.2093386    -6.164097    83.740334  0.040809129  0.044266702            3 
  172000    1.2063002    -6.156558    84.060185  0.040726834  0.044245077            3 
  173000    1.2260256   -6.1089857    85.016069  0.040951863  0.044222521            2 
  174000    1.2236432   -6.1671687    85.189178  0.040799415  0.044200035            3 
  175000    1.2367667   -6.1867755    85.752091  0.040834329   0.04417679            2 
  176000    1.2353871    -6.186216    86.435413  0.040925858   0.04415777            4 
  177000    1.2307825   -6.1347837    87.055799  0.040986722  0.044138612            3 
  178000     1.228661   -6.1362398    87.238565  0.040842025  0.044118058            5 
  179000    1.2079909   -6.1533922    88.251473  0.041085416  0.044102401            4 
  180000    1.2246566   -6.1736766    88.782355  0.041102942  0.044090363            3 
  181000     1.211511   -6.1256058     89.12163  0.041032058  0.044077507            3 
  182000    1.2200901   -6.1718758     89.54659  0.041001186   0.04406502            3 
  183000    1.2058122   -6.1622037    90.202277  0.041075718  0.044052933            2 
  184000    1.2435933   -6.1546283    90.712748  0.041083672  0.044040387            2 
  185000    1.2119619   -6.1376982    91.341001  0.041144595  0.044028801            2 
  186000    1.2463564   -6.1683653    91.645808   0.04105995  0.044016765            3 
  187000    1.2635071   -6.1374821    92.117887  0.041050752  0.044001552            3 
  188000    1.2216281   -6.1784052    92.536005  0.041017733  0.043987539            4 
  189000    1.2244896   -6.1843899    93.196196  0.041091797   0.04397426            3 
  190000    1.2320719   -6.1385974    94.398812  0.041402988  0.043965818            3 
  191000    1.2424651   -6.1425108    94.585477   0.04126766  0.043957415            2 
  192000     1.227998   -6.1576017    95.395901  0.041404471   0.04395225            3 
  193000    1.2470312   -6.1658461    95.777947  0.041354899  0.043948248            4 
  194000    1.1971342    -6.181316    96.161278  0.041306391  0.043943224            4 
  195000    1.1986248   -6.1115805    96.973051  0.041441475  0.043938273            3 
  196000    1.2341644   -6.1859091    97.243043  0.041344831  0.043932073            2 
  197000    1.1903128   -6.1783865    97.528592  0.041255749  0.043927998            4 
  198000    1.2326324   -6.1930262    98.169912  0.041317303  0.043920972            2 
  199000    1.2346762   -6.1769496    98.988236   0.04145236  0.043913091            4 
  200000    1.2166236   -6.1646868    99.099236  0.041291348  0.043906039            5 
  201000    1.2228728    -6.175166    99.800957  0.041376848  0.043901234            4 
  202000    1.2241174   -6.1434838    100.28073  0.041369939  0.043896955            3 
  203000    1.2347776    -6.187566    100.50179  0.041256892  0.043888525            2 
  204000    1.2289428   -6.1860574    100.98279  0.041251141  0.043876369            2 
  205000    1.2599131   -6.1700711    101.38744  0.041214408  0.043863048            2 
  206000    1.2387062   -6.1527877    101.87074  0.041209847  0.043851231            2 
  207000    1.2377961   -6.1543371    102.19052  0.041139502  0.043839846            2 
  208000    1.2329432   -6.0930378    103.04515  0.041284115   0.04382933            1 
  209000    1.2536245   -6.1712156    103.48121  0.041260451  0.043817195            1 
  210000    1.2211502   -6.1581172    103.72513  0.041160767  0.043803286            3 
  211000    1.2134109   -6.1675575    104.21801  0.041160353  0.043788348            2 
  212000    1.2174443   -6.1837056    104.77685   0.04118587  0.043777016            2 
  213000     1.229064   -6.1299634    105.61154  0.041319068  0.043766025            2 
  214000    1.2051536   -6.1855662      105.647  0.041139797  0.043753888            1 
  215000    1.2362202   -6.2024698    106.22781   0.04117357  0.043742207            4 
  216000    1.2166128   -6.1607822    107.11632  0.041325742  0.043731967            3 
  217000    1.2132628   -6.1742386    107.78764  0.041393104  0.043724383            3 
  218000    1.1921685   -6.2398715    107.92406  0.041255374  0.043715831            4 
  219000    1.2093083   -6.1430819     109.0041  0.041477968  0.043706457            2 
  220000    1.1920275   -6.1665522    108.75771  0.041196104  0.043696295            3 
  221000    1.2332985   -6.1519841     109.4647  0.041276283  0.043683502            3 
  222000    1.1963153   -6.1582123    110.23644  0.041380045   0.04367243            2 
  223000    1.2188018   -6.1475295    110.58397  0.041324355  0.043662234            4 
  224000    1.2114026   -6.1811963    110.39636  0.041070075  0.043651629            6 
  225000    1.2040963   -6.1556293    111.65481  0.041353632  0.043641247            5 
  226000    1.2175215   -6.1952851    112.05324  0.041317564  0.043631773            2 
  227000    1.2047808   -6.1694616    112.59208  0.041333361  0.043619399            3 
  228000    1.1946795   -6.1931394    112.28226  0.041038838  0.043606796            1 
  229000    1.2149436   -6.1273907    113.14257  0.041172695   0.04359235            4 
  230000    1.2290611   -6.1663207    113.73073  0.041206788  0.043578219            3 
  231000    1.2112484    -6.152576    114.17687  0.041189347  0.043566006            4 
  232000    1.2128681    -6.162523    115.12582  0.041352664   0.04355549            2 
  233000    1.2501906   -6.1577367    115.93256  0.041463719  0.043546881            6 
  234000    1.2110154    -6.183614    116.12038  0.041353412  0.043540849            2 
  235000    1.2096559   -6.1517444    117.21545  0.041565761   0.04353466            2 
  236000    1.2223314   -6.2039161    117.39391  0.041452653  0.043530806            3 
  237000     1.206173   -6.1812024    118.57352  0.041692517  0.043527469            2 
  238000    1.2030326   -6.1846908      119.066  0.041689777  0.043525635            3 
  239000    1.2121303   -6.1634519    119.57898  0.041694204  0.043522732            2 
  240000    1.2277754   -6.1661967    119.54089  0.041507252   0.04352138            1 
  241000    1.2221594   -6.1658499    120.44479  0.041647576  0.043519963            4 
  242000    1.2081261   -6.2157565    120.33265  0.041436864  0.043515771            5 
  243000    1.2210912   -6.2024486    121.01374   0.04149991  0.043511715            2 
  244000    1.1951955   -6.1809607    121.34297  0.041442272   0.04350891            3 
  245000    1.1916233   -6.1483342    122.46288  0.041654042  0.043504816            6 
  246000    1.2194187   -6.1799555    122.26602  0.041418028  0.043500395            5 
  247000    1.2158411   -6.1971264    122.96817  0.041487238  0.043493669            3 
  248000    1.1926579   -6.1651176    123.80733  0.041601925  0.043489218            1 
  249000    1.2258963   -6.1433816    124.50397  0.041667994  0.043486598            2 
  250000    1.2223653   -6.1473747    125.38158   0.04179386  0.043485822            3 
  251000    1.1941919    -6.139034    125.97022  0.041822781  0.043485442            4 
  252000    1.2242846   -6.1741902     126.2862   0.04176131  0.043484261            4 
  253000    1.2305477   -6.1731382    126.02826  0.041511286  0.043479542            2 
  254000     1.223026   -6.1703706    126.41348  0.041474238  0.043474144            3 
  255000    1.2181723   -6.1992821     127.0643   0.04152428  0.043466706            4 
  256000     1.217757   -6.1344924    127.83487  0.041612914  0.043458792            3 
  257000    1.2087814   -6.1892617    127.64888  0.041390688  0.043451444            5 
  258000    1.2114001   -6.1630791    128.46783  0.041494778  0.043444767            1 
  259000    1.2030665   -6.1677582    129.30967  0.041605429  0.043439055            4 
  260000     1.197699   -6.1905544    129.18812  0.041406449   0.04343242            3 
  261000    1.2103155   -6.1192026    130.56042  0.041685958  0.043426314            4 
  262000     1.199393   -6.1429447    130.30552  0.041445776  0.043421408            3 
  263000    1.1784797    -6.142658    131.43767  0.041646917  0.043417215            2 
  264000    1.2081357   -6.1877192    131.76934  0.041593857  0.043412513            4 
  265000    1.2294618   -6.1521217     132.3244  0.041611446  0.043407532            2 
  266000    1.2266385   -6.1978598    132.50188  0.041510614  0.043403685            2 
  267000    1.2275016    -6.157927    133.56153   0.04168587  0.043398253            2 
  268000    1.2212324   -6.2118878    133.22928  0.041427016  0.043389986            2 
  269000    1.1964489   -6.1810648    133.46675  0.041346576  0.043380568            3 
  270000    1.1972406   -6.1845849    133.91548  0.041331938  0.043371629            6 
  271000    1.1952181    -6.129535    134.54685  0.041373569  0.043361497            2 
  272000    1.2195443   -6.1738022    134.87915   0.04132327  0.043349634            5 
  273000    1.2035238   -6.1816711    135.57218  0.041383448  0.043337281            2 
  274000    1.1727367   -6.1420345     136.3086  0.041456387  0.043326769            3 
  275000    1.2151853   -6.1914619    136.58002  0.041387886  0.043317387            3 
  276000    1.2176755   -6.1911875    136.83344  0.041314444  0.043308084            3 
  277000    1.1919475    -6.170238    137.99561  0.041514923  0.043299372            4 
  278000     1.200745   -6.1544315    138.14578  0.041410605    0.0432903            5 
  279000    1.2125541    -6.195229    138.47187  0.041359579  0.043281531            5 
  280000    1.2143035   -6.1827352    138.47146  0.041211745  0.043270057            4 
  281000    1.2173008   -6.1998935    138.88518  0.041187777  0.043257478            2 
  282000    1.2068219   -6.1533443    139.58728  0.041249196   0.04324507            2 
  283000    1.2270636   -6.1586889    139.47283  0.041069739  0.043232619            3 
  284000    1.2231511   -6.2155822    140.31163  0.041171252  0.043217811            2 
  285000    1.2000937   -6.1854022    141.01182  0.041231527  0.043202778            3 
  286000    1.1782692   -6.1644645    141.56658  0.041249004  0.043190774            2 
  287000    1.1825438   -6.1543792    142.26139  0.041307024  0.043179094            5 
  288000     1.214342    -6.191856    143.47155  0.041513759   0.04316988            3 
  289000    1.2030853   -6.1818029    143.69406  0.041434273  0.043162499            1 
  290000    1.2098905   -6.1819175    144.03338  0.041388901  0.043152839            2 
  291000    1.2344608   -6.1886083    144.88813  0.041491447  0.043145096            2 
  292000    1.2073636   -6.1257679    145.38352  0.041490731  0.043136823            6 
  293000    1.2256751   -6.2035525    145.72568  0.041446439   0.04312952            4 
  294000    1.2065763   -6.2268161    145.96916  0.041374477  0.043121008            3 
  295000    1.2091451   -6.2021674    146.68262  0.041435769  0.043112715            6 
  296000    1.1979986   -6.1773051     147.5631  0.041543664  0.043105935            3 
  297000    1.2064544   -6.1802484    147.87967  0.041492611  0.043100654            3 
  298000    1.2225216   -6.1802964    149.07503  0.041687648  0.043096558            7 
  299000    1.2292021   -6.1959755    149.35509  0.041626278  0.043094083            3 
  300000    1.2144589   -6.1808492    150.07356  0.041687099   0.04309166            2 
  301000    1.1976435   -6.1763276    150.76171  0.041739122   0.04308825            7 
  302000    1.1925166   -6.1795923    150.86763  0.041630142  0.043085373            3 
  303000    1.1973869   -6.1912667    151.38523  0.041635103  0.043082578            4 
  304000    1.2106077   -6.2020225    151.39291  0.041500251  0.043077751            3 
  305000     1.218853   -6.2034602    152.31887  0.041617177  0.043073224            2 
  306000    1.2035401    -6.143972    152.84209  0.041623664  0.043069162            5 
  307000      1.20738   -6.1956546    153.27929  0.041606757  0.043066459            2 
  308000    1.2511732   -6.1787831    153.95248  0.041653808  0.043063675            3 
  309000    1.2127183   -6.1841699    154.96164  0.041791166  0.043061137            4 
  310000    1.1971855    -6.205544    154.55495  0.041547031  0.043058362            4 
  311000    1.2168283   -6.1504679    155.54817  0.041679573  0.043054023            3 
  312000     1.211879   -6.1869133    155.62133  0.041565526  0.043050101            4 
  313000    1.1961418   -6.1666463    156.15614  0.041575116  0.043045959            2 
  314000    1.2060438   -6.1663029    157.34324   0.04175776  0.043043798            3 
  315000    1.1867509   -6.1964512    157.94892   0.04178543  0.043042413            3 
  316000    1.2051852   -6.2492584    158.28021  0.041740561  0.043041433            3 
  317000    1.2166197   -6.1673628    158.97939   0.04179269  0.043041529            3 
  318000    1.1930456   -6.1592412    159.85337  0.041890297  0.043041537            3 
  319000    1.1965366   -6.1859504    159.75571  0.041733466  0.043040915            2 
  320000    1.2027232   -6.1860451    160.12352  0.041698834  0.043039874            2 
  321000    1.1837695   -6.2052796    161.10243  0.041823061  0.043039823            3 
  322000    1.1730337   -6.1949976    161.38267  0.041765701  0.043040605            3 
  323000     1.198771   -6.1758465    162.38385  0.041894698  0.043041747            4 
  324000    1.2243878   -6.1711403    162.99487  0.041922548   0.04304328            5 
  325000    1.1645712    -6.230216    163.55617  0.041937481  0.043044117            2 
  326000     1.193062    -6.241427    163.77688  0.041865257  0.043043394            2 
  327000    1.2400234   -6.2019152    164.12858  0.041826855  0.043041545            2 
  328000    1.1966951   -6.1907416    164.73309  0.041852918  0.043042224            2 
  329000    1.1979564   -6.1767678    165.44972  0.041907223  0.043042395            4 
  330000    1.1993872   -6.1999484    165.93162  0.041901925  0.043043081            3 
  331000     1.197071   -6.1796041    166.43294  0.041901547  0.043043702            4 
  332000    1.1964283   -6.2084961    167.22977  0.041975343  0.043044849            3 
  333000    1.2105923   -6.2006889    167.81948  0.041996867  0.043046111            2 
  334000    1.2315423   -6.2008662    168.37224  0.042009043  0.043046796            2 
  335000    1.1840824   -6.1969199    168.32962  0.041873039  0.043047907            2 
  336000    1.1835461   -6.2058404    168.93363  0.041898222  0.043049317            2 
  337000    1.2149211   -6.2016847    169.88289  0.042008628  0.043049183            1 
  338000    1.1838371   -6.2055165    169.95134  0.041901218  0.043048332            2 
  339000    1.1965707   -6.1941482    170.16382  0.041829848  0.043047585            2 
  340000    1.2016103   -6.1641509    171.06677  0.041928131  0.043046684            2 
  341000    1.2053981   -6.2183193    171.16619   0.04182947  0.043046531            4 
  342000     1.168396   -6.1805552    171.63616  0.041821677  0.043045375            2 
  343000    1.2119674   -6.2068926    171.89079   0.04176161  0.043043812            2 
  344000    1.2117826   -6.2146652    172.89144  0.041882617  0.043042641            2 
  345000    1.1866054   -6.1608884    173.31363  0.041863195  0.043040133            2 
  346000    1.1920144   -6.1699089    174.20662  0.041957278   0.04303809            5 
  347000    1.1905231   -6.1970297    174.17412  0.041828559  0.043036985            6 
  348000    1.1658968   -6.2105023    175.03525  0.041914571  0.043036486            2 
  349000    1.1697762   -6.2021561    175.07531  0.041804038  0.043034769            3 
  350000    1.1927875   -6.2060691    175.42626  0.041768157  0.043031165            4 
  351000    1.1703447   -6.2180141    176.04062  0.041795019  0.043029171            3 
  352000    1.1939519   -6.2007153    176.78675  0.041852923  0.043027875            4 
  353000    1.2021356   -6.1864062    176.77968  0.041732692  0.043025742            3 
  354000    1.2014961   -6.1736491    177.59266  0.041806182  0.043023145            6 
  355000    1.2199205   -6.2290561    178.12677  0.041813795   0.04302015            2 
  356000    1.1917113   -6.2370585    178.06827  0.041682646  0.043017151            4 
  357000    1.1831586   -6.1920131    178.39943  0.041643191  0.043013811            2 
  358000    1.1893582   -6.2034345    178.99439  0.041665362  0.043010785            3 
  359000    1.1834983   -6.1722904    180.95652  0.042004763  0.043007761            4 
  360000    1.2103339   -6.2137855    180.51749  0.041786455  0.043004477            2 
  361000    1.1818114   -6.1538577    180.91039  0.041761402  0.043001033            2 
  362000    1.1780467   -6.1994352    181.18506  0.041709268  0.042997521            3 
  363000    1.2080445   -6.1847381    182.42747  0.041879584  0.042994308            2 
  364000    1.2130643     -6.21495    182.30956  0.041737537  0.042991601            2 
  365000    1.1803455   -6.1838267     183.0076  0.041782557  0.042988149            3 
  366000    1.1897281   -6.2193691    183.41308  0.041760719  0.042985401            2 
  367000      1.20883   -6.2029219    183.36096  0.041635096  0.042981943            2 
  368000    1.2078718   -6.2221777     184.9002  0.041870517  0.042977476            2 
  369000    1.2131462   -6.2418636    184.99785  0.041779099  0.042974526            4 
  370000    1.1968235   -6.2423134    185.43804  0.041765324   0.04297154            3 
  371000    1.2049692   -6.1973161    185.65358  0.041701163  0.042968473            3 
  372000    1.1788608   -6.1997705    186.30207  0.041734335  0.042966088            3 
  373000    1.2084851   -6.2253489    187.42739  0.041873859  0.042963721            2 
  374000    1.2127114   -6.1883985    187.24732  0.041721775  0.042961882            2 
  375000    1.1749999   -6.2065199    188.66553  0.041925673  0.042959583            3 
  376000    1.2057747   -6.1778592     189.0773   0.04190543  0.042957817            2 
  377000    1.2296233   -6.2577368    189.22721  0.041827411  0.042957159            2 
  378000    1.1875087   -6.2153515     189.6197  0.041803284  0.042956239            5 
  379000    1.1920997    -6.236106    190.53534  0.041894313   0.04295625            4 
  380000     1.203198   -6.2305915    191.08249  0.041904056   0.04295532            2 
  381000     1.164182   -6.2271104    192.06273  0.042008471  0.042955095            3 
  382000    1.2111879   -6.2133968    192.15749  0.041919173  0.042954895            3 
  383000    1.1717483   -6.2099718    192.79897  0.041949298  0.042954705            2 
  384000    1.1740509   -6.1914727    192.84782  0.041850655  0.042954231            2 
  385000     1.206188   -6.2145141    193.71426  0.041929494  0.042953335            4 
  386000    1.1759899   -6.2382574    194.05189  0.041893759  0.042951947            3 
  387000     1.173436    -6.188795    194.87309  0.041962336  0.042950932            3 
  388000    1.1777114   -6.2052115     195.9284  0.042080841  0.042951281            4 
  389000    1.2190888   -6.2108512    196.21016  0.042033025  0.042951872            4 
  390000    1.1818424   -6.2298401    196.08029  0.041897497  0.042951807            4 
  391000    1.1883272   -6.2622426    196.70308  0.041923077  0.042951135            5 
  392000    1.1938344   -6.1888202    197.06652  0.041893394  0.042950004            2 
  393000    1.1856325   -6.2129098    197.50761  0.041880325  0.042947845            2 
  394000    1.2031627   -6.2175052    197.10585  0.041689055  0.042945605            3 
  395000    1.1975433   -6.2075778    198.11204   0.04179579  0.042942895            2 
  396000    1.1970865   -6.2006305    198.94711  0.041865973   0.04293997            7 
  397000    1.1778922   -6.2297838    199.73584  0.041926078  0.042937367            3 
  398000    1.1713861   -6.2445491    199.92603  0.041860558  0.042934723            4 
  399000    1.1793504   -6.1825073    200.46228  0.041867644  0.042932407            6 
  400000    1.1911191   -6.2079995     201.1878  0.041914124  0.042931223            4 
  401000    1.1661593   -6.2101315     200.9534   0.04176089  0.042928162            3 
  402000    1.1864492   -6.2039096    201.43938  0.041757749  0.042923978            3 
  403000    1.1828664   -6.1977379    202.08004  0.041786608  0.042920396            4 
  404000    1.1782357   -6.1888403    202.56178  0.041782546  0.042918132            2 
  405000    1.1789971   -6.1844124    203.54206  0.041881081  0.042914467            4 
  406000    1.2202366   -6.2551569    203.29605  0.041727433  0.042911354            3 
  407000    1.1460635   -6.2182317    204.13756  0.041797208  0.042907869            3 
  408000    1.1932047   -6.2385093    204.65083  0.041799597  0.042904742            4 
  409000    1.1874319   -6.2208066    205.30932  0.041831564  0.042901627            2 
  410000    1.2040461   -6.2146321    206.27454   0.04192572  0.042899203            1 
  411000    1.1959253   -6.2519765    205.74439  0.041716219  0.042895925            2 
  412000    1.1792408    -6.206521    206.70989  0.041810252  0.042891904            1 
  413000    1.1713947   -6.1988286    206.68012   0.04170301  0.042887827            5 
  414000    1.1873298   -6.2221716    206.37831  0.041541529  0.042882996            2 
  415000    1.2006422   -6.2126576     207.6067  0.041688093   0.04287797            2 
  416000    1.1678532   -6.2339951     207.2528  0.041516986  0.042871758            7 
  417000    1.1924396   -6.2237604    208.04968  0.041576675  0.042865647            2 
  418000    1.1794696   -6.2132967    208.71815  0.041610477   0.04285986            5 
  419000    1.1742541   -6.2282764     208.8444  0.041536276  0.042854198            4 
  420000     1.190185   -6.2199963    209.49676  0.041566817  0.042848176            3 
  421000      1.18797   -6.2311983    209.34267  0.041437582  0.042841305            3 
  422000    1.1749487   -6.2098778    210.17114   0.04150299  0.042834933            2 
  423000     1.178472   -6.2371975    211.32683  0.041632551  0.042828775            6 
  424000    1.1852806   -6.1743416    211.51977  0.041572282  0.042821993            2 
  425000    1.2014311   -6.2172293    212.07794  0.041583909  0.042815065            3 
  426000    1.1986226   -6.2194476    212.51298  0.041571396  0.042808624            2 
  427000    1.1709738   -6.2478692    212.52766  0.041476905  0.042801914            7 
  428000    1.2018661    -6.220657    213.62262  0.041593189  0.042794548            4 
  429000    1.1611057   -6.2087114    213.69172  0.041509659  0.042786613            2 
  430000    1.1624696   -6.2338506    213.93967  0.041461177  0.042779264            2 
  431000    1.1925469   -6.2208754    213.64586  0.041308171  0.042771267            2 
  432000    1.1946437   -6.2280956    215.68803  0.041606487  0.042762933            3 
  433000    1.1701766   -6.2381367    214.98814  0.041375701  0.042755571            4 
  434000    1.1806034   -6.2280407    215.74401    0.0414255  0.042748283            1 
  435000    1.1957784   -6.2301246    216.55112  0.041484889   0.04274063            2 
  436000    1.1845554   -6.2342812    216.22019   0.04132649  0.042732201            6 
  437000    1.1909809   -6.1965209    217.15055  0.041409335  0.042724157            3 
  438000    1.1909474   -6.2296534    217.68866  0.041417172  0.042716464            2 
  439000     1.180961   -6.2129139    218.21826   0.04142336  0.042708175            2 
  440000    1.2083989   -6.1955143    218.12452  0.041311462  0.042700484            2 
  441000    1.1674565   -6.2120585    218.98726  0.041380812  0.042691245            7 
  442000    1.1827113   -6.2064017    218.95363   0.04128085  0.042681894            4 
  443000    1.1880769   -6.2446247    220.27036  0.041435357  0.042674154            2 
  444000    1.1773748   -6.2180727    220.34005  0.041355115  0.042666387            3 
  445000    1.1692196   -6.2347958    220.06873  0.041211373  0.042657375            2 
  446000    1.2022738   -6.2078501    221.03044  0.041298663  0.042647969            4 
  447000    1.1930578   -6.2344172    220.61322  0.041128489  0.042638395            2 
  448000    1.1777224   -6.2017448     222.1998  0.041331809  0.042629061            4 
  449000    1.1627497   -6.2443103    221.83934  0.041172855  0.042620137            4 
  450000    1.1903598   -6.2649649    222.32096  0.041170547  0.042611082            3 
  451000    1.1771912   -6.2382481    222.70806  0.041150787  0.042601921            3 
  452000    1.1767213   -6.2598144    223.08898  0.041129974  0.042592456            3 
  453000    1.1802766    -6.212731    224.04899  0.041215781  0.042582686            3 
  454000    1.1950888   -6.2561971    224.39129  0.041187829  0.042572443            3 
  455000    1.1917718   -6.2603166    224.60443  0.041136343  0.042562588            7 
  456000    1.1791072    -6.235823     225.7597  0.041257255  0.042552831            3 
  457000    1.1764751   -6.2573105    225.59764  0.041137424  0.042542519            2 
  458000    1.1923169   -6.2347487    225.80289   0.04108495  0.042532005            3 
  459000      1.18304   -6.2002991     226.7937  0.041175328  0.042521529            5 
  460000    1.1546425   -6.2434213    226.71333  0.041071255   0.04251122            2 
  461000    1.1600966   -6.2270679     227.6271  0.041147342  0.042501216            2 
  462000    1.1746364   -6.2311015    227.49527  0.041034499  0.042490566            4 
  463000    1.1771007   -6.2357339    228.01718  0.041039809  0.042479686            2 
  464000    1.1617376   -6.2475346    228.27715  0.040998052  0.042469209            5 
  465000    1.1735257   -6.2477135      228.029  0.040865413  0.042458119            3 
  466000    1.1734881   -6.2223743    229.40504  0.041023792  0.042446967            3 
  467000    1.1889539    -6.279162    230.15624  0.041069993  0.042436843            3 
  468000    1.1765965   -6.2565689     230.2058  0.040991062  0.042425848            2 
  469000    1.1652839   -6.2232256    230.57584   0.04096941  0.042414622            1 
  470000    1.1548353   -6.2390457    230.55427  0.040878417  0.042403092            5 
  471000    1.1930831   -6.2522095    230.98218  0.040867335  0.042391614            6 
  472000    1.1871847   -6.2324572    230.87479  0.040761793  0.042379887            2 
  473000    1.1713838   -6.2387968     230.7308  0.040650247  0.042366568            3 
  474000    1.2007228   -6.2431685     231.8071   0.04075371   0.04235352            2 
  475000    1.1730678   -6.2236812    232.46445  0.040783238  0.042340432            4 
  476000    1.1550645   -6.1921678    232.60231  0.040721694  0.042326878            4 
  477000    1.1787891   -6.2447798    233.02637  0.040710407  0.042313432            3 
  478000    1.1953974   -6.2571857    233.03617  0.040626947  0.042298436            7 
  479000    1.1767485   -6.2571488    233.18739   0.04056844  0.042283538            4 
  480000    1.1823225   -6.2849378    233.21502  0.040488718  0.042268572            3 
  481000    1.2129088   -6.2562748    233.22151  0.040405667  0.042253211            5 
  482000    1.1744787   -6.2498334    234.46241  0.040536378  0.042238176            4 
  483000    1.1625037   -6.2679531    234.60568  0.040477171  0.042223766            4 
  484000    1.1863348   -6.2345865    235.70316    0.0405825   0.04221007            3 
  485000    1.1970148   -6.2384843    236.30721  0.040602614  0.042196209            4 
  486000    1.1558061   -6.2615531    235.82973  0.040437197  0.042182212            2 
  487000    1.1742454   -6.2401822    236.64356  0.040493423  0.042168655            2 
  488000     1.162911   -6.2523174    237.31373  0.040524886  0.042154088            6 
  489000    1.1604453   -6.2398905    237.45381  0.040465885  0.042138494            3 
  490000    1.1707623   -6.2454873    237.96034  0.040469446  0.042124368            3 
  491000    1.1892711   -6.2628182    238.55549  0.040488033  0.042110318            4 
  492000    1.1763391   -6.2662554    239.09062  0.040496379  0.042096717            2 
  493000    1.1429419    -6.247665     240.4899   0.04065076   0.04208393            3 
  494000    1.1770343   -6.2206133    240.60827   0.04058844  0.042071143            5 
  495000    1.1729692   -6.2265762    240.73055  0.040527029   0.04205849            2 
  496000    1.1726311   -6.2584687    240.87789  0.040470075  0.042044702            2 
  497000    1.1608402   -6.2991375    240.89436  0.040391408  0.042030015            3 
  498000    1.1693804   -6.2721473    241.67506  0.040440941  0.042015283            2 
  499000    1.1885474   -6.2535464    242.37105  0.040476127  0.042001623            3 
  500000     1.166727   -6.2123084    243.72888  0.040621479  0.041988417            6 
  501000    1.1946138   -6.2525159    243.04725   0.04042702  0.041975173            3 
  502000    1.1879584   -6.2782233    243.97142  0.040499903  0.041962649            6 
  503000    1.1473982   -6.2691491    244.49392  0.040505952  0.041949515            3 
  504000    1.1549827   -6.2361098    244.31364  0.040395774  0.041936063            4 
  505000     1.140505   -6.2671982    244.51309  0.040348695  0.041922364            2 
  506000    1.1535049   -6.2523405    245.74243  0.040471415   0.04190908            2 
  507000    1.1883291   -6.2569694    245.81972  0.040404292  0.041896182            3 
  508000    1.1846551   -6.2770176    246.33682  0.040409584  0.041882731            3 
  509000    1.1604843   -6.2252073    247.93775  0.040592297  0.041870215            2 
  510000    1.1491551   -6.2366232    247.03746  0.040365597  0.041857672            4 
  511000     1.159459   -6.2631891    247.12965  0.040301639   0.04184427            7 
  512000    1.1586837   -6.2703035    247.24569  0.040241812  0.041831114            4 
  513000    1.1568724   -6.2448695     248.2082  0.040319721  0.041818198            2 
  514000    1.1695214   -6.2172648    248.36108  0.040266064  0.041804589            2 
  515000    1.1591478   -6.2722932    248.39268   0.04019299  0.041790495            4 
  516000    1.1594906   -6.2619319    248.97022  0.040208369  0.041776232            3 
  517000    1.1675698   -6.2369145    249.69811  0.040247923    0.0417621            4 
  518000    1.1453211   -6.2321964    250.00717  0.040219943  0.041748526            2 
  519000    1.2186012   -6.2393334     250.8565  0.040278821  0.041735104            3 
  520000    1.1739848   -6.2540057    250.21607  0.040098729  0.041721229            3 
  521000     1.176733   -6.2625539    251.41688  0.040213832  0.041706585            5 
  522000    1.1684946   -6.2777571    250.84915  0.040046161  0.041692635            5 
  523000    1.1872039   -6.2607762    252.27044  0.040196055  0.041678994            3 
  524000    1.1545083   -6.2766437    253.64856  0.040338512  0.041665452            2 
  525000    1.1691623   -6.2550852    253.22714  0.040194784    0.0416525            6 
  526000    1.1910595   -6.2366954    253.91917  0.040228006  0.041638836            3 
  527000     1.160647   -6.2341428    254.05842  0.040173691  0.041625331            3 
  528000    1.1526109   -6.2466326    255.31967  0.040296665  0.041612037            2 
  529000    1.1852951     -6.24476    255.19392  0.040200681   0.04159848            1 
  530000    1.1922622   -6.2827174     255.7388  0.040210503  0.041584881            3 
  531000    1.1529001   -6.2617371    256.14882  0.040199124  0.041570235            2 
  532000    1.1827177   -6.2330976    256.78915  0.040223865  0.041556604            2 
  533000    1.1840944   -6.2363696    257.23514  0.040218127    0.0415434            2 
  534000    1.1558106   -6.2297409    256.61245  0.040045638  0.041530155            7 
  535000    1.1626455   -6.2773344    257.70968  0.040141694  0.041516784            2 
  536000    1.1628386   -6.2758232    258.10557  0.040128354  0.041503274            3 
  537000    1.1743727   -6.2528537    258.31682   0.04008641  0.041489179            3 
  538000    1.1620567   -6.2476327     258.2632  0.040003593  0.041475767            2 
  539000      1.13946   -6.2697776    258.81215  0.040014247  0.041462201            2 
  540000    1.1746518   -6.2473969    258.64057  0.039913668  0.041448145            2 
  541000    1.1778908   -6.2337622    259.37483  0.039952993   0.04143416            3 
  542000    1.1824927    -6.236918    260.76408  0.040092878  0.041420776            5 
  543000    1.1541048   -6.2946496    260.28387  0.039945345  0.041407379           14 
  544000    1.1878147   -6.2558172    261.14274  0.040003483  0.041393547            3 
  545000    1.1643381   -6.2158692    261.91003  0.040047406  0.041380739            2 
  546000    1.1769469   -6.2727144    262.42922  0.040053299  0.041367198            2 
  547000    1.1554406   -6.2644216    262.15748  0.039938677  0.041353515            6 
  548000    1.1784874   -6.2719845    263.03548  0.039999312  0.041340107            5 
  549000    1.1824041   -6.2323242    263.11989  0.039939267  0.041326584            6 
  550000    1.1748903   -6.2648682    263.60902   0.03994076  0.041312907            2 
  551000    1.1421398   -6.2583515    264.06905  0.039937847  0.041299616            3 
  552000    1.1443047   -6.3062516    263.67397  0.039805853  0.041285481            3 
  553000    1.1675762   -6.2620449    264.40115  0.039843452  0.041271346            3 
  554000    1.1560683   -6.2193982    264.97131  0.039857297  0.041258294            2 
  555000    1.1965117   -6.3087243    266.50961  0.040016458  0.041245209            3 
  556000    1.1690913   -6.2456939    266.62118  0.039961208  0.041232506            3 
  557000    1.1980592   -6.2924691    267.29735  0.039990627  0.041220185            2 
  558000    1.1682526   -6.2646571     266.8646  0.039854331   0.04120727            4 
  559000    1.1504681   -6.2167711    268.26781   0.03999222  0.041194164            4 
  560000    1.1438293   -6.2683255    268.34479   0.03993226  0.041181278            3 
  561000    1.1619657   -6.2655913    268.08797  0.039822931  0.041168668            6 
  562000    1.1696941   -6.2470174    269.32546  0.039935566  0.041156163            3 
  563000    1.1501295   -6.2794287    270.22711  0.039998092  0.041143443            3 
  564000    1.1697821   -6.2984305    269.02535  0.039749608  0.041130576            3 
  565000    1.1864261   -6.2430846    270.70339  0.039926754  0.041117514            7 
  566000    1.1653472   -6.2518522    270.61765  0.039843587  0.041104885            3 
  567000    1.1693935   -6.2621464    270.97928  0.039826466   0.04109183            5 
  568000    1.1762637   -6.2724394    271.22365  0.039792203  0.041078966            4 
  569000    1.1256273   -6.2639266    271.45307  0.039755869  0.041066488            3 
  570000    1.1549258    -6.220478    272.79487  0.039882291  0.041053966            3 
  571000     1.127959    -6.271454    272.05684  0.039704734  0.041041874            2 
  572000    1.1666936   -6.2609374    274.37738  0.039973395  0.041030258            2 
  573000    1.1849049     -6.24556    273.49841  0.039775801  0.041019052            5 
  574000    1.1517306   -6.2128239    275.16385  0.039948293   0.04100701            5 
  575000    1.1336467   -6.2531067    274.75526  0.039819603  0.040995241            3 
  576000    1.1762663   -6.2736704    275.41248  0.039845556  0.040983765            3 
  577000    1.1752778   -6.2928732    275.21098  0.039747398   0.04097182            6 
  578000    1.1628738   -6.2684041    276.52861    0.0398686  0.040960231            2 
  579000    1.1309527    -6.282733    276.70999  0.039825848   0.04094856            2 
  580000    1.1523812   -6.2226807    277.61515  0.039887234  0.040937091            2 
  581000    1.1750974    -6.303537    278.20441    0.0399031  0.040925545            2 
  582000     1.154904   -6.2479506    278.38321  0.039860139  0.040913464           11 
  583000     1.155619   -6.2483417    277.94562   0.03972922  0.040902062            1 
  584000    1.1861397   -6.2515442    280.22768  0.039986826  0.040890405            3 
  585000    1.1567769   -6.2729605    278.56081  0.039681028  0.040878853            3 
  586000    1.1711124    -6.210858    279.03405  0.039680609   0.04086707            2 
  587000     1.162026   -6.3085395    279.35504  0.039658581  0.040855378            2 
  588000    1.1546226   -6.3223631    279.94707  0.039675038  0.040843855            1 
  589000    1.1560828   -6.2657913    281.67737  0.039852486  0.040832311            2 
  590000    1.1596125   -6.2695646    281.64814   0.03978081  0.040821735            3 
  591000    1.1695759   -6.2729868     283.2325    0.0399369  0.040812147            2 
  592000    1.1588353   -6.2681061    283.53773  0.039912405  0.040802132            3 
  593000    1.1378117   -6.2859568     283.4459  0.039832195  0.040792113            7 
  594000     1.173368   -6.2806901     284.6569   0.03993503  0.040782293            2 
  595000    1.1634685   -6.2366211     284.9669  0.039911331  0.040772875            5 
  596000    1.1785247   -6.2563876    284.22999   0.03974133  0.040763221            2 
  597000    1.1569582   -6.2680986    286.36753  0.039973134  0.040754079            2 
  598000    1.1743908   -6.3008289    286.17373  0.039879282  0.040745492            3 
  599000     1.181357   -6.2882353    286.68149  0.039883345  0.040737007            3 
  600000    1.1677166   -6.2609233     287.8151   0.03997432  0.040728279            8 
  601000    1.1483017   -6.2578378    287.85647  0.039913543  0.040719965            2 
  602000     1.140654   -6.3164583    287.35299  0.039777545  0.040710583            3 
  603000    1.1269944   -6.2566118     288.2904  0.039841128  0.040701478            7 
  604000     1.161333    -6.255617    288.34699  0.039782974  0.040692123            3 
  605000    1.1740968   -6.2774848     288.8653  0.039788609  0.040682775            3 
  606000    1.1408647   -6.2571189    288.92166  0.039730701  0.040673179            4 
  607000    1.1667375   -6.2512964    289.10921  0.039690995  0.040663205            8 
  608000    1.1528079   -6.2772521    289.62602  0.039696549  0.040653267            2 
  609000     1.131014   -6.2335753    290.84119  0.039797645  0.040643831            3 
  610000    1.1718854   -6.2777297     290.7962  0.039726257  0.040634726            3 
  611000     1.154952   -6.2520692    291.71544  0.039786612  0.040624547            6 
  612000    1.1493604   -6.2557787    291.24184  0.039657114  0.040614111            2 
  613000    1.1471338   -6.2883914    291.89004  0.039680538  0.040603776            4 
  614000     1.127309   -6.2535209    291.76388  0.039598789  0.040592827            4 
  615000     1.150885   -6.2594839    292.59987  0.039647678  0.040581756            4 
  616000    1.1604864   -6.2629721    293.25481  0.039671917  0.040571193            5 
  617000    1.1483448   -6.2638475    292.77057  0.039542216  0.040560673            3 
  618000     1.184129   -6.2938963    293.78929    0.0396156  0.040549977            2 
  619000    1.1641459   -6.2665297    294.36485  0.039629086  0.040539614            3 
  620000    1.1491929   -6.2966494    293.75911  0.039483751  0.040529384            2 
  621000    1.1323052   -6.2426433    294.72786  0.039550169  0.040518846            2 
  622000    1.1660825    -6.279326    295.22109  0.039552664  0.040508618            5 
  623000    1.1364679   -6.2288465    296.04809  0.039599797  0.040497885            3 
  624000    1.1604023   -6.2606142    295.59383  0.039475672  0.040486919            2 
  625000    1.1484358   -6.2815597    296.17644  0.039490192  0.040475866            3 
  626000    1.1691719   -6.2513351    298.65282  0.039756766  0.040465053            6 
  627000    1.1563054    -6.291228    297.06301  0.039482059  0.040454604            2 
  628000    1.1561777   -6.3077936    297.39988   0.03946389  0.040443813            4 
  629000    1.1416396   -6.2457443    297.70951  0.039442171  0.040432618            2 
  630000    1.1686191    -6.245644    297.63966  0.039370325  0.040421552            3 
  631000    1.1875708   -6.2820307    298.43828  0.039413402  0.040410492            1 
  632000     1.148374   -6.3050397    299.15932  0.039446113   0.04039894            9 
  633000    1.1438935   -6.2503226    299.78882  0.039466669  0.040387687            3 
  634000    1.1427713   -6.2662539    300.35715  0.039479121  0.040376707            3 
  635000    1.1478894   -6.2773208    301.26534  0.039536134  0.040365933            2 
  636000    1.1418087   -6.3002858    299.59885  0.039255614   0.04035456            3 
  637000    1.1211262    -6.250661    300.36929  0.039294778  0.040343272            4 
  638000    1.1726344   -6.2924238     299.6683  0.039141628  0.040331737            5 
  639000    1.1559282   -6.2424341    301.45354   0.03931319  0.040319999            2 
  640000    1.1370112   -6.3035148    301.88867  0.039308421  0.040308793           11 
  641000    1.1624743   -6.2698922    301.97998  0.039258967  0.040297685            4 
  642000     1.146818   -6.3156227    302.41607  0.039254422  0.040286337            4 
  643000    1.1585728   -6.2825482    303.30871  0.039309061  0.040274971            2 
  644000    1.1603326    -6.276838    302.95573  0.039202346  0.040263319            3 
  645000    1.1532707   -6.3036134     303.1905    0.0391719  0.040252185            2 
  646000    1.1664921   -6.3025346    303.82599   0.03919324  0.040241069            8 
  647000    1.1377319   -6.2970903    305.69905  0.039373912  0.040229991            4 
  648000    1.1621958   -6.2966496    305.99453  0.039351149  0.040218969            2 
  649000    1.1279008   -6.2722086    305.91605  0.039280438  0.040207885            2 
  650000    1.1391041   -6.2751655    307.02459  0.039362127  0.040197198            3 
  651000    1.1187707   -6.2609645    306.24398  0.039201738  0.040185872            4 
  652000    1.1554521   -6.2808459    306.25149  0.039142573  0.040174567            2 
  653000    1.1640738   -6.2891884    306.75818  0.039147291  0.040162535            5 
  654000    1.1326529   -6.2712597    308.29139  0.039282797  0.040150915            2 
  655000    1.1623333   -6.2659299    307.89858  0.039172847  0.040139311            5 
  656000    1.1606524   -6.2484333    309.59435   0.03932855  0.040127963            2 
  657000    1.1686773   -6.2970883     309.3808  0.039241603  0.040117243            2 
  658000    1.1663787    -6.303649    310.15413  0.039279904  0.040106779            4 
  659000    1.1392763   -6.2830358     309.6301  0.039154034  0.040096241            3 
  660000    1.1699802   -6.2805449    309.77027  0.039112408  0.040085033            6 
  661000    1.1327374   -6.3008619    310.13537  0.039099264  0.040073618            2 
  662000    1.1343279   -6.2806745      309.797  0.038997609  0.040062271            2 
  663000    1.1504221   -6.2922824    310.94747  0.039083392  0.040051425            2 
  664000    1.1489246   -6.3577367    309.66205  0.038863209  0.040040156            4 
  665000    1.1483211   -6.2929074    311.48849  0.039033645   0.04002869            2 
  666000    1.1367474   -6.2826859    312.55156  0.039108053  0.040017355            4 
  667000    1.1588648    -6.219896    313.30864  0.039144008   0.04000575            3 
  668000    1.1591366   -6.2831182    312.36478  0.038967662  0.039994649            1 
  669000    1.1345595   -6.3070873    313.40952  0.039039552  0.039982952            3 
  670000    1.1264316   -6.2880018      314.303  0.039092413  0.039971466            3 
  671000    1.1600148   -6.2811339    314.17301  0.039018009  0.039959926            1 
  672000    1.1429316   -6.2827763    313.69496  0.038900664  0.039948583            5 
  673000    1.1418463   -6.2712463    315.40148   0.03905417  0.039936897            2 
  674000    1.1504616    -6.286553    315.45998   0.03900346  0.039925775            2 
  675000    1.1486989   -6.3072499    314.81723  0.038866325  0.039914419            4 
  676000    1.1388315   -6.3362601    315.58951  0.038904032  0.039902944            2 
  677000    1.1392919   -6.2974554    316.02011  0.038899571  0.039891578            1 
  678000    1.1533877   -6.2798112    316.43606  0.038893322  0.039880162            3 
  679000    1.1757079   -6.3257796      316.169  0.038803265  0.039868301            4 
  680000    1.1482496   -6.3200051    317.02828  0.038851505  0.039855998            5 
  681000    1.1574567   -6.2761882    318.11264  0.038927147  0.039843753            2 
  682000    1.1376201   -6.2781666     318.4785  0.038914773  0.039831583            4 
  683000    1.1552093   -6.2651796    318.46096  0.038855657  0.039819399            1 
  684000    1.1322681   -6.3226716    317.92805  0.038733924  0.039807285            5 
  685000    1.1429221   -6.2849971    319.95368  0.038923806  0.039795571            4 
  686000    1.1646617   -6.2809502    320.43903  0.038926024   0.03978442            6 
  687000    1.1313398    -6.290017    320.73917   0.03890577  0.039773295            4 
  688000    1.1367383   -6.3161054     321.1932  0.038904215   0.03976241            3 
  689000    1.1368669   -6.2509548    321.77379  0.038917972  0.039751907            2 
  690000    1.1447837   -6.2635589    322.26861   0.03892133  0.039741197            4 
  691000    1.1469653   -6.2677225    322.95118  0.038947321  0.039731019            3 
  692000     1.158151   -6.2789901    322.97409  0.038893797  0.039720571            4 
  693000    1.1521862   -6.3287612    322.16764  0.038740697  0.039709868            8 
  694000    1.1624864   -6.2425107    325.28171  0.039058802  0.039699699            3 
  695000    1.1406645   -6.3012249    324.41387  0.038898546  0.039688896            5 
  696000    1.1543104    -6.274481    324.92055  0.038903323  0.039678035            3 
  697000    1.1441031   -6.2847943    325.34533  0.038898294  0.039667477            4 
  698000    1.1419992   -6.3226974    325.26039  0.038832425  0.039657089            2 
  699000    1.1535349    -6.301843    325.76165   0.03883663  0.039646917            2 
  700000    1.1361415   -6.2997197    326.73536  0.038897066  0.039636198            2 
  701000    1.1561705   -6.3360654     324.7901   0.03861033  0.039625174            3 
  702000    1.1198585   -6.2854053    325.63598  0.038655743  0.039613937            3 
  703000    1.1430018   -6.3011197    326.26502  0.038675322  0.039603028            2 
  704000     1.136961   -6.2746866    328.01626  0.038827682  0.039592619            2 
  705000    1.1309786   -6.3151757    328.81703  0.038867261  0.039582251            4 
  706000     1.111172   -6.3189042    328.72453   0.03880129  0.039571884            3 
  707000    1.1421644   -6.3056569    328.92976  0.038770598  0.039561772            6 
  708000    1.1338433   -6.2979352    329.36095   0.03876659  0.039551595            2 
  709000    1.1365808   -6.2912326    329.86514  0.038771173  0.039542063            2 
  710000    1.1647524   -6.3255598     330.3006  0.038767676  0.039532291            5 
  711000    1.1221533   -6.3239837    330.79281  0.038770841  0.039521915            2 
  712000     1.136358   -6.3039267    331.53566  0.038803331  0.039511346            4 
  713000    1.1495786   -6.3178481    330.79678   0.03866255  0.039501261            4 
  714000    1.1365145   -6.3138299    331.38991  0.038677628  0.039491016            4 
  715000    1.1329937   -6.2794746    332.78336  0.038785939  0.039480858            4 
  716000    1.1254949   -6.2861622    332.59788  0.038710182  0.039470459            4 
  717000    1.1536908   -6.3313277    332.77731  0.038677047  0.039459895            3 
  718000    1.1348435    -6.314893    332.22982  0.038559636   0.03944921            5 
  719000     1.132463   -6.2911179    334.29045  0.038744836  0.039438159            2 
  720000    1.1342432   -6.2846994    334.45825  0.038710445  0.039427312            3 
  721000    1.1119097   -6.3145466     333.7527  0.038575208   0.03941676            2 
  722000    1.1448388   -6.3349555    334.09015  0.038560728  0.039406508            9 
  723000    1.1468286    -6.328576    334.98111  0.038610086  0.039396387           12 
  724000    1.1288354   -6.3631726    335.86466  0.038658455  0.039385908            3 
  725000    1.1235544   -6.2964297    336.64366  0.038694674  0.039375513            3 
  726000    1.1422661   -6.3334742    336.63868  0.038640803   0.03936566            2 
  727000    1.1356644   -6.3290522    337.07035  0.038637133  0.039355872            8 
  728000    1.1627354   -6.3525264    337.73548  0.038660197  0.039345853            1 
  729000    1.1439968   -6.3045336    337.82726  0.038617657  0.039336099            3 
  730000    1.1579754   -6.3377723    338.36916  0.038626616  0.039326562            2 
  731000    1.1530159   -6.3091495    339.33527  0.038683912  0.039317406            4 
  732000    1.1253673   -6.3241768    339.64371  0.038666178  0.039307543            1 
  733000    1.1463827   -6.3179307    339.09915  0.038551518  0.039297735            3 
  734000     1.117755   -6.2878762    339.94287  0.038594785  0.039287391            2 
  735000     1.129216   -6.3153419    339.31082  0.038470614  0.039276864            2 
  736000     1.144103   -6.3382023     339.4545  0.038434612  0.039266591            7 
  737000    1.1706874   -6.3229703    341.41311  0.038603924  0.039256563            2 
  738000    1.1230806    -6.288503    340.90616  0.038494373  0.039246553            8 
  739000    1.1464417   -6.3090196    342.05097  0.038571377  0.039236517            2 
  740000    1.1340005    -6.324398    340.68745  0.038365704  0.039226517            6 
  741000    1.1203195   -6.3688074    341.83783  0.038443301  0.039216331            2 
  742000    1.1447116   -6.2961526     342.2558  0.038438432  0.039206022            5 
  743000    1.1352403    -6.341303    342.42302  0.038405453  0.039195715            5 
  744000    1.1680316   -6.2769957    342.10595  0.038318319  0.039185154            7 
  745000     1.133466   -6.2825419    343.74853  0.038450619  0.039174902            3 
  746000    1.1308069   -6.2989843    343.55726   0.03837771   0.03916456            2 
  747000    1.1416643   -6.2903937    343.89762  0.038364304  0.039153989            3 
  748000     1.108086   -6.3259855    344.16244  0.038342518  0.039143463            4 
  749000    1.1324868   -6.3405987    344.10147  0.038284543  0.039132642            5 
  750000    1.1404015   -6.3006388    345.63629  0.038404032  0.039122136            3 
  751000    1.1267355   -6.2917767    346.55972  0.038455362  0.039111648            3 
  752000    1.1436257   -6.3507301    343.84948  0.038103887  0.039100936            4 
  753000    1.1543334   -6.3203782    345.83447  0.038272961    0.0390905            3 
  754000    1.1429973   -6.3080058    346.94674   0.03834513  0.039080193            3 
  755000    1.1060269   -6.3392117    347.07198  0.038308165  0.039069704            4 
  756000    1.1262851   -6.3275885    347.92521  0.038351544  0.039059178            2 
  757000    1.1184129   -6.3152439    348.20594  0.038331786  0.039048422            3 
  758000     1.137525   -6.3498366    347.82481  0.038239316  0.039037757            2 
  759000    1.1386948   -6.3219041    348.84185  0.038300598  0.039026976            2 
  760000    1.1411635   -6.2688154    350.13566  0.038392068  0.039016274            3 
  761000    1.1153828   -6.3383632    350.19051  0.038347624  0.039006215            4 
  762000    1.1278263    -6.310247    349.94702  0.038270671  0.038995929            5 
  763000    1.1166733   -6.3447762    350.93949  0.038328908  0.038985645            4 
  764000     1.121873   -6.3224971    350.74253  0.038257256  0.038975618            2 
  765000    1.1293035    -6.341732    350.99657   0.03823492  0.038965579            8 
  766000    1.1094207   -6.3183821    353.13908   0.03841809  0.038955661            2 
  767000    1.1456998   -6.3286358    351.91244  0.038234729  0.038945635            5 
  768000    1.1263876   -6.3124455    352.02706  0.038197381  0.038935567            3 
  769000    1.1383894   -6.3131167    352.00913  0.038145766  0.038925296            3 
  770000    1.0977375   -6.3531792    352.69232  0.038170164  0.038914811            7 
  771000    1.1146686   -6.3232161    352.92272   0.03814556  0.038904432            8 
  772000    1.1155002   -6.3158526    355.18275  0.038340107  0.038894559            4 
  773000     1.116646   -6.3349219    354.78018  0.038247108  0.038884698            8 
  774000     1.132045   -6.3187321    355.72963  0.038299917  0.038875359            3 
  775000    1.1155382   -6.3320334    355.06051  0.038178549  0.038865833            3 
  776000    1.1043699   -6.3509503    355.76008  0.038204476  0.038856277           13 
  777000    1.1426497   -6.3380449     355.8984  0.038170142  0.038846525            4 
  778000     1.124024   -6.3100278    356.37677  0.038172319  0.038836612            2 
  779000     1.122877   -6.3265911    357.11223  0.038201993   0.03882674            3 
  780000    1.1018778   -6.3208513    357.45246  0.038189365  0.038817011           10 
  781000    1.1316838   -6.3449241    357.30866  0.038125124  0.038807413            2 
  782000    1.1359949   -6.3157023    358.71419   0.03822615  0.038797927            4 
  783000    1.1207605   -6.3269538    359.17242  0.038226099  0.038788401            6 
  784000    1.1304972   -6.3105915    358.49532   0.03810537  0.038778804            3 
  785000    1.1352992   -6.3108055    360.27737  0.038246005  0.038769496            3 
  786000    1.1052577   -6.3681704    359.83579  0.038150529  0.038760142            4 
  787000    1.1291361   -6.3297332    360.25157  0.038146079  0.038751051            4 
  788000    1.1250242   -6.3311103    361.02243   0.03817919  0.038742044            3 
  789000     1.109733   -6.3890247    360.77076  0.038104221  0.038732717            4 
  790000    1.1426986    -6.330542    362.46378  0.038234576  0.038723591            2 
  791000    1.1187649    -6.325107    362.99068  0.038241749  0.038714679            7 
  792000    1.1080398   -6.3133401    362.99815  0.038194249  0.038706055            3 
  793000     1.104474   -6.3130412    362.71857  0.038116705  0.038697037            4 
  794000    1.1216288   -6.3191316    364.59004  0.038265117  0.038688014            4 
  795000    1.1204675   -6.3001259    364.56777  0.038214651  0.038679136            3 
  796000    1.1156101   -6.3450763    363.88457  0.038095119  0.038669832            9 
  797000    1.1441266   -6.3265382    365.22908    0.0381879  0.038660844            4 
  798000    1.1294949   -6.2996142    365.74384  0.038193801  0.038651969            3 
  799000    1.1380599   -6.3139588    365.15416  0.038084498  0.038642789            5 
  800000    1.1128012   -6.3140658    366.91489  0.038220301  0.038633845            2 
  801000    1.1133431   -6.3605693    365.96457  0.038073717  0.038624618            3 
  802000    1.1189179   -6.3100678    366.55237   0.03808732  0.038615355            3 
  803000    1.1222332   -6.3237219    366.90221  0.038076194  0.038606187            5 
  804000    1.1287933   -6.3053603    367.01584  0.038040614  0.038597103            3 
  805000    1.1216512   -6.3241616    368.38234  0.038134817  0.038587729            4 
  806000    1.1286485    -6.351103    367.57024   0.03800354  0.038578573            2 
  807000    1.1397189    -6.344344    367.41605  0.037940526  0.038569547            3 
  808000    1.1409836   -6.3124652    368.78456  0.038034712  0.038560112            2 
  809000    1.1107481   -6.3184338    366.66936  0.037769814  0.038550602            2 
  810000    1.1031967   -6.3193285    368.24722  0.037885517  0.038540367            4 
  811000    1.1312689     -6.34558    369.60757  0.037978583  0.038530709            3 
  812000    1.1462731   -6.2982357    369.80477   0.03795205  0.038521198            2 
  813000    1.1170887   -6.3227947    371.21299  0.038049712  0.038511981            6 
  814000    1.1528349    -6.355645    371.69785  0.038052605  0.038503193            3 
  815000      1.11349   -6.3868196    371.04685  0.037939351  0.038494603            4 
  816000    1.1282694   -6.3553694    371.53452  0.037942659  0.038485779            3 
  817000    1.1123209   -6.3463918    372.72509  0.038017655  0.038476954            3 
  818000    1.1366617   -6.3136271    373.21859  0.038021453  0.038468155            6 
  819000    1.1143678   -6.3608139    372.67694  0.037919917  0.038458945            6 
  820000    1.0958011   -6.3168739    374.41192  0.038049992  0.038449733            3 
  821000      1.11402   -6.2921139    374.55532  0.038018201  0.038441307           10 
  822000    1.1442413    -6.342766     374.6999  0.037986607  0.038432497            3 
  823000    1.1172769   -6.3452169    374.20811  0.037890655  0.038423645            2 
  824000    1.1154317   -6.3168184    375.53663  0.037979028  0.038414714            5 
  825000    1.1365165   -6.3096004    376.42695  0.038022924  0.038405841            2 
  826000    1.1005609   -6.3326868      375.817  0.037915355  0.038396797            4 
  827000    1.1170692   -6.3240127    376.15737  0.037903806  0.038387838            4 
  828000    1.1293491   -6.2859313    377.00447  0.037943284  0.038378782            6 
  829000    1.0949353   -6.3607863    376.68678  0.037865579  0.038369734            4 
  830000    1.1215988   -6.3189462    377.21326  0.037872817  0.038360724            2 
  831000    1.1193676   -6.3496236     376.4204  0.037747733  0.038351642            5 
  832000    1.1195697    -6.340033    377.85878  0.037846432   0.03834238            6 
  833000     1.093715   -6.3250465    377.10933  0.037726024  0.038333098            4 
  834000    1.1281875    -6.366833    377.33666  0.037703503  0.038323309            3 
  835000    1.1330289   -6.3223112    378.64219  0.037788642  0.038313995            2 
  836000    1.1272691   -6.3262335     378.6922  0.037748425   0.03830451            6 
  837000    1.1185503   -6.3572353    378.74231  0.037708314  0.038295253            3 
  838000    1.1276366   -6.3170784    379.77246  0.037765758  0.038285996            3 
  839000    1.1384574   -6.3381936    380.50094  0.037793101  0.038276965            3 
  840000    1.1097796   -6.3318626    380.61425   0.03775935  0.038267988            5 
  841000    1.1422412   -6.3267525     382.2567    0.0378772   0.03825933            2 
  842000    1.1356627   -6.3293027    382.09465  0.037816177  0.038250853            4 
  843000    1.1031751   -6.3426173    382.27284  0.037788933  0.038242033            4 
  844000    1.0875049   -6.2858522    381.48798  0.037666665  0.038232843            4 
  845000    1.1009242   -6.3430383    381.30579  0.037604121  0.038223512            3 
  846000    1.1255133   -6.3471173    383.05134  0.037731614  0.038214067            4 
  847000    1.1218042   -6.3666466    382.84621  0.037666884  0.038204615           11 
  848000    1.1337999   -6.3613827    383.91917  0.037727906  0.038195061            2 
  849000     1.097713   -6.3092663    384.46416  0.037736961  0.038185449            2 
  850000    1.1237504    -6.332413    384.62341  0.037708178  0.038176023            2 
  851000    1.1106752   -6.3366524     384.4432   0.03764622  0.038166779            3 
  852000    1.1522336   -6.3435123    384.97931  0.037654471  0.038157528            3 
  853000    1.1083759   -6.3430819    385.41794  0.037653179  0.038148094            5 
  854000    1.1153689   -6.2920292    387.05096  0.037768439  0.038138909            5 
  855000    1.1520367   -6.3223597    385.16154  0.037540111  0.038129587            2 
  856000    1.1038551   -6.3539552    386.47023   0.03762366  0.038120247            1 
  857000    1.1299092   -6.3258765    386.65207   0.03759744  0.038110892            2 
  858000    1.0945699   -6.3804111    385.63295  0.037454637  0.038101503            2 
  859000    1.1104444    -6.392376    386.63086  0.037507845  0.038092024            5 
  860000    1.1275559   -6.3336953    389.16056  0.037709357  0.038082711            6 
  861000    1.1199627   -6.3328362    388.89996  0.037640337    0.0380736            3 
  862000    1.1057299   -6.3536431    389.36947   0.03764206   0.03806448           11 
  863000    1.1175151   -6.3483427    389.09899  0.037572325  0.038055245            2 
  864000    1.1120451   -6.3460277    390.20853  0.037635854   0.03804618            4 
  865000    1.0889099   -6.3268792    389.81566  0.037554495   0.03803713            4 
  866000    1.1246601   -6.3778136    389.87476  0.037516817  0.038027959            2 
  867000    1.1120615   -6.3644822    390.45054  0.037528887  0.038018838            4 
  868000    1.1238562   -6.3808891      390.065  0.037448636  0.038009126            5 
  869000    1.1031405   -6.3599691    391.30048  0.037524019  0.037999484            3 
  870000    1.1048435   -6.3596486    390.17854  0.037373423  0.037989907            2 
  871000    1.1355984   -6.3807444    391.75351  0.037481201    0.0379804            3 
  872000    1.1039939   -6.3207892    391.62191  0.037425641  0.037970644            4 
  873000    1.1055475   -6.3887243    393.11213  0.037525022  0.037960858            4 
  874000    1.0902895   -6.3251968    391.98007  0.037374148  0.037951118            5 
  875000    1.1333754   -6.3617586    392.06204  0.037339242  0.037941357            4 
  876000    1.0949238   -6.3341121    392.09933  0.037300164  0.037931442            4 
  877000    1.1487903   -6.3973037    391.69562  0.037219272  0.037921422            4 
  878000    1.1224533   -6.3629893    394.70745  0.037462742  0.037911567            4 
  879000     1.089025   -6.4058241    393.39909  0.037296084  0.037901898            2 
  880000    1.1134895   -6.3340928     394.1535  0.037325142  0.037892035            3 
  881000    1.1076878   -6.3585196    394.22069   0.03728913  0.037882462            3 
  882000    1.1061521   -6.3211781    395.42916  0.037361031  0.037873035            3 
  883000    1.1255374   -6.3824184     395.2015  0.037297235  0.037863589            4 
  884000    1.1146555   -6.3325516    396.02287  0.037332472  0.037853985            4 
  885000    1.1016123   -6.3221979    397.88401  0.037465538   0.03784468            2 
  886000    1.1177394   -6.3683993    397.62927  0.037399292  0.037835793            3 
  887000    1.1255091   -6.3409883    397.54099  0.037348834  0.037826614            2 
  888000    1.1155505   -6.3442567     398.0261    0.0373523  0.037817549            4 
  889000    1.1113232   -6.3545533    398.54331  0.037358765  0.037807919            3 
  890000    1.0911586   -6.3871047    397.44359   0.03721382  0.037798285            3 
  891000    1.0806832   -6.3769888    398.36539  0.037258267  0.037788679            6 
  892000     1.090366   -6.3485141    399.45506  0.037318298  0.037779063            5 
  893000    1.1101664   -6.3127063    400.80271  0.037402269  0.037769753            4 
  894000     1.098476   -6.3468843     399.5213  0.037240986  0.037760231            6 
  895000    1.1206814   -6.3639757    400.01427  0.037245276  0.037750494            5 
  896000    1.1050156   -6.3459812    399.13648  0.037122069  0.037740763            2 
  897000    1.1243622   -6.3964786    398.93081  0.037061576  0.037730932            5 
  898000    1.1127162   -6.3594101     399.6138  0.037083686  0.037720987            2 
  899000    1.1312936   -6.3328278    401.02355  0.037173114  0.037711634            3 
  900000    1.1101102   -6.3266345    401.37404  0.037164263  0.037702112            3 
  901000    1.0704059   -6.3294185    402.60267  0.037236651  0.037692753            2 
  902000    1.1278652   -6.3753286    402.23308  0.037161223  0.037683504            3 
  903000    1.1108925     -6.37549    404.08846  0.037291294  0.037674258            3 
  904000     1.103605   -6.3667312    403.76044  0.037219804   0.03766505            2 
  905000    1.1273349   -6.3067343    404.77757  0.037272336  0.037656029            2 
  906000    1.1058018   -6.3409924    405.46773  0.037294677  0.037646894            3 
  907000    1.1195622    -6.335379    404.03482  0.037121906  0.037637832            5 
  908000    1.1257539   -6.3946464    404.85012  0.037155848  0.037628753            3 
  909000    1.1274442   -6.3864178    404.79722  0.037110123  0.037619703            5 
  910000     1.112357   -6.3966128    404.53928  0.037045722  0.037610487            3 
  911000     1.111677   -6.3544678    406.18165  0.037155292  0.037601337            2 
  912000    1.0881243   -6.3604062    406.99354  0.037188737  0.037592585            2 
  913000    1.0832033   -6.3610514    408.19759  0.037257903  0.037583767            2 
  914000    1.0831066   -6.3541098    408.58758  0.037252697  0.037574953            2 
  915000    1.1152022   -6.3623173    408.18252  0.037175093    0.0375662            6 
  916000    1.0974251   -6.3516803    408.98896  0.037207875  0.037557368            4 
  917000    1.1207075   -6.3479031    409.67444  0.037229593  0.037548517            2 
  918000    1.0964625   -6.3280445    409.34861   0.03715946  0.037539877            3 
  919000    1.1063169   -6.3611472    409.20996  0.037106453  0.037530981            3 
  920000    1.1184067   -6.3368404    408.51441  0.037003117  0.037521599            3 
  921000     1.121665   -6.3766934    409.01845  0.037008546  0.037512179            2 
  922000    1.0984276   -6.3730449    410.44583  0.037097417  0.037502672            4 
  923000    1.0985464    -6.359048    410.34429  0.037048058  0.037493266            3 
  924000    1.0847161   -6.3306752    410.35977  0.037009359  0.037483702            6 
  925000    1.1018361   -6.3537613    410.37294  0.036970535  0.037474417            3 
  926000    1.1084212   -6.3669059    410.95535  0.036983023  0.037465202            2 
  927000    1.0907614   -6.3322231    411.17253  0.036962651  0.037456101            3 
  928000    1.0886039   -6.3553679    411.33377    0.0369373  0.037447068            5 
  929000    1.1008592   -6.3967756    412.06884  0.036963477  0.037437865            6 
  930000    1.0954915   -6.3891343    412.62806   0.03697384  0.037428426            2 
  931000    1.1067231   -6.3846495    413.13009  0.036979063  0.037419056            3 
  932000    1.0917819   -6.3730758    411.49237  0.036792952  0.037409628            4 
  933000    1.0976129   -6.3765162    414.46752   0.03701925  0.037400404            3 
  934000    1.1107856   -6.3667018    413.70188  0.036911303  0.037391228            5 
  935000    1.0895998   -6.3817166    413.64418  0.036866683  0.037381944            3 
  936000    1.1057858   -6.3625245    416.27445  0.037061471  0.037372782            3 
  937000    1.1204196    -6.390925    415.60916   0.03696275  0.037363811            4 
  938000    1.1055057    -6.371188     416.6979  0.037020069  0.037354811            3 
  939000    1.0763789   -6.3820211    416.08061  0.036925861  0.037345897            2 
  940000    1.0972627    -6.359324    417.82542  0.037041261  0.037337193            6 
  941000    1.1152564    -6.360131    415.53953  0.036799462  0.037328223            4 
  942000    1.0985843   -6.3804698    417.64542  0.036946694  0.037319421            2 
  943000     1.108263   -6.3558496    418.61076  0.036992821  0.037310753            4 
  944000    1.0828694   -6.3780014     418.2426  0.036921133  0.037302049            5 
  945000    1.0931381   -6.3446637    419.78219   0.03701783  0.037293727            3 
  946000    1.0939739    -6.379883    420.64123  0.037054372  0.037285467            3 
  947000    1.1048697   -6.3681758    420.97393   0.03704452  0.037277226            4 
  948000     1.090045   -6.3928865    421.51176  0.037052722  0.037269043            2 
  949000    1.1151896   -6.3659914    421.52491  0.037014832  0.037260756            4 
  950000       1.1075   -6.3459882    421.84306  0.037003778  0.037252555            5 
  951000    1.1063604   -6.3769128    421.88432  0.036968483  0.037244598            2 
  952000    1.1125405   -6.3479311    422.69792  0.037000868  0.037236747            2 
  953000    1.0983341   -6.3494914    423.77777  0.037056468  0.037228893            1 
  954000     1.090728    -6.373865    422.93957  0.036944407  0.037221092            3 
  955000    1.0819681   -6.3818772    423.68018  0.036970348  0.037213083            3 
  956000    1.1175858   -6.4019165    423.62701   0.03692704  0.037204863            7 
  957000    1.0882453   -6.4028724     423.7371  0.036898041  0.037196692            5 
  958000    1.0980024   -6.3804142    422.79773  0.036777813  0.037188386            7 
  959000    1.0894852   -6.3543089    423.52855  0.036802968  0.037180068            4 
  960000    1.1080223   -6.3681165    424.26116  0.036828226   0.03717174            7 
  961000    1.1192832   -6.3607932    424.42607  0.036804203  0.037163303            3 
  962000    1.0823681   -6.3738659    425.59741  0.036867413  0.037154722            2 
  963000    1.0788464   -6.3872454    425.33432  0.036806362  0.037146173            4 
  964000    1.0825701   -6.3640686    424.64595  0.036708675  0.037137528            5 
  965000    1.1098416   -6.3890307    424.87617  0.036690516  0.037128854            5 
  966000    1.0686936   -6.3865227    426.35222  0.036779867   0.03712026            3 
  967000    1.0960128   -6.3856318    426.48961  0.036753672  0.037111451            7 
  968000    1.0994238   -6.3571259    426.60723  0.036725829  0.037102602            2 
  969000    1.0906683   -6.3756213    427.87289  0.036796774   0.03709399            3 
  970000    1.1064265   -6.3878399    427.23768  0.036704268  0.037085167            8 
  971000    1.1176931   -6.3595107    428.42871  0.036768685  0.037076536            5 
  972000    1.1268782   -6.3624409    428.40131  0.036728508  0.037067989            2 
  973000    1.1154996   -6.3845204      429.642  0.036797019  0.037059354            5 
  974000    1.1069459   -6.3764008     429.3943  0.036738048  0.037050712            5 
  975000    1.0765566   -6.3567126    430.02125  0.036753953  0.037042003            3 
  976000    1.1167996    -6.379969     429.9785  0.036712645  0.037033148            4 
  977000    1.0967833    -6.370198    429.94277   0.03667202  0.037024446            3 
  978000    1.0966843   -6.3763005    430.16415  0.036653387  0.037015648            3 
  979000    1.0860203   -6.3759292    431.62825  0.036740573  0.037007156            3 
  980000    1.1018951   -6.3764592     430.5268  0.036609422   0.03699859            3 
  981000    1.0827275   -6.3743695    432.25682  0.036719063  0.036990105            2 
  982000    1.0869965   -6.3927334    431.78017  0.036641223  0.036981412            4 
  983000    1.1259333    -6.379305    431.83143  0.036608293  0.036972876            2 
  984000      1.11189   -6.4003513    433.52847  0.036714809  0.036964294           11 
  985000    1.0829546   -6.4109833    434.16707  0.036731563  0.036955761            6 
  986000     1.112492   -6.3987237    434.21825  0.036698635   0.03694745            3 
  987000    1.1234797   -6.3683674    434.38359  0.036675413  0.036939085            8 
  988000    1.0889206   -6.3938336    432.95782  0.036518035  0.036930495            3 
  989000    1.0700386   -6.3798325    436.08551   0.03674465  0.036921747            3 
  990000     1.094442   -6.3638416    434.03659  0.036535067  0.036913359            5 
  991000    1.1146515   -6.3971264    436.03916  0.036666596  0.036905185            2 
  992000    1.0884036   -6.3708708    435.62389  0.036594749  0.036896897            2 
  993000    1.0732277    -6.372028    436.65054  0.036644053  0.036888599            4 
  994000    1.0861337   -6.3953196    435.66338  0.036524428  0.036880249            4 
  995000    1.1061431   -6.3873893    437.34386  0.036628464  0.036872084            2 
  996000    1.1043817   -6.3891101     436.9925  0.036562291  0.036864039            3 
  997000     1.081444   -6.3651444    437.97905  0.036608078    0.0368559            2 
  998000     1.098087   -6.3593874    439.26106  0.036678445  0.036847942            4 
  999000    1.0671368   -6.3911264    438.01944  0.036538158  0.036839799            3 
 1000000    1.0754314   -6.3665698    439.02332  0.036585276  0.036831781            3 
 1001000    1.0814637   -6.4013471    440.02426  0.036632056  0.036823676            5 
 1002000    1.1089881   -6.3932359    439.51593  0.036553221   0.03681572            5 
 1003000    1.1138189   -6.3736585    439.66775  0.036529391  0.036807386            3 
 1004000    1.1118515   -6.3831111    439.58394  0.036486051  0.036799251            2 
 1005000    1.1080162   -6.4004917    440.40108  0.036517502  0.036791051            2 
 1006000    1.0800074   -6.3676403    441.97571  0.036611639  0.036783034            2 
 1007000    1.1004322   -6.4462766     440.1481   0.03642404  0.036774886            3 
 1008000    1.0762785   -6.4040211    443.11381  0.036633087  0.036766974            4 
 1009000    1.0572995   -6.3720245    443.18036  0.036602276  0.036759264            4 
 1010000    1.1091696   -6.3855535    443.64883  0.036604689  0.036751594            5 
 1011000    1.1020905   -6.3991851    442.82345   0.03650045  0.036743898            2 
 1012000    1.0848945   -6.3654319    442.70754  0.036454837  0.036736146            4 
 1013000    1.0807133   -6.3882434    445.71614  0.036666349  0.036728192            3 
 1014000    1.0853588   -6.4031908    444.13846  0.036500531  0.036720364            4 
 1015000    1.0980564   -6.4052533    443.75044  0.036432713  0.036712501            6 
 1016000    1.0999318   -6.3749036    445.91299  0.036574228   0.03670453            6 
 1017000    1.0821933   -6.3944662     447.1098  0.036636333  0.036697081            2 
 1018000    1.1042804    -6.409562    445.61881  0.036478292  0.036689535            2 
 1019000    1.0652761   -6.3886217    445.65548  0.036445492  0.036681827            3 
 1020000    1.0724627   -6.4085407    447.42995  0.036554734   0.03667416            3 
 1021000     1.076977   -6.3723205    447.75007   0.03654506  0.036666699            2 
 1022000    1.0856686   -6.3954298    447.83637  0.036516338   0.03665908            5 
 1023000    1.0741852   -6.3950731    446.93426  0.036407157  0.036651437            4 
 1024000    1.0880376   -6.3877176    447.39459  0.036409065  0.036643646            6 
 1025000    1.1102602    -6.382382    449.13824  0.036515304  0.036636082            5 
 1026000     1.079392   -6.4065667    448.45288  0.036424048  0.036628496            2 
 1027000    1.0672617   -6.3918145    450.37028  0.036544164  0.036620946            7 
 1028000    1.1171667    -6.403929    450.10351   0.03648699  0.036613327            3 
 1029000    1.0686929   -6.3612161    450.39124  0.036474833  0.036605883            4 
 1030000    1.0917438   -6.3912763    449.68755  0.036382488  0.036598146            5 
 1031000    1.0861814   -6.3885037    449.97007  0.036370035  0.036590138            4 
 1032000      1.09541   -6.3887412    450.30563  0.036361889  0.036582265            5 
 1033000    1.0914612   -6.4241316     450.8303  0.036369014  0.036574504            2 
 1034000    1.0821638   -6.4075919      451.278  0.036369922  0.036566412            2 
 1035000    1.1029272   -6.4123639    451.27372  0.036334438  0.036558309            3 
 1036000    1.1011099   -6.3965622    450.94127  0.036272625  0.036550316            5 
 1037000    1.0694074   -6.3943943    453.48266  0.036441873   0.03654251            2 
 1038000    1.0744145    -6.410429    453.62648  0.036418311   0.03653484            2 
 1039000    1.0877101   -6.3694157    452.98968  0.036332185  0.036526945            5 
 1040000    1.0927766   -6.3825895    455.80959  0.036523204  0.036519072            4 
 1041000     1.083372   -6.4063903    454.35458  0.036371645  0.036511511            3 
 1042000     1.080232   -6.3836994    455.14276  0.036399773  0.036503941            2 
 1043000    1.1021275   -6.3713952     455.3906  0.036384675  0.036496433            3 
 1044000    1.0849623   -6.4005723    455.28196  0.036341153  0.036488881            4 
 1045000     1.096401   -6.3632039     457.2054  0.036459761  0.036481373            5 
 1046000    1.0854665   -6.3662929    457.12148  0.036418219   0.03647368            4 
 1047000    1.0723012   -6.4280671    454.84309  0.036202092  0.036465981            6 
 1048000    1.0719881   -6.3983848    455.61698  0.036229086  0.036458169            2 
 1049000    1.1007453   -6.3759851    456.54929  0.036268612   0.03645049            3 
 1050000    1.0997277   -6.4115993     456.1129  0.036199436  0.036442512            3 
 1051000    1.0611904   -6.4119989    457.14302  0.036246671  0.036434401            3 
 1052000    1.0982582   -6.4008227    457.39654  0.036232299  0.036426442            2 
 1053000    1.0901052   -6.4298116      457.076  0.036172523  0.036418298            3 
 1054000    1.0917693   -6.4554225    457.06096  0.036137014  0.036410155            5 
 1055000    1.0787742   -6.4054599    458.49522  0.036216052  0.036402308            3 
 1056000    1.0852016   -6.3964665    458.97322  0.036219477   0.03639455            4 
 1057000    1.1036975   -6.3971697     458.5828  0.036154431  0.036386667            3 
 1058000    1.0864354   -6.4087897    459.75245  0.036212386  0.036378868            3 
 1059000    1.0799421   -6.3903752    460.68564  0.036251624  0.036371168            5 
 1060000    1.0879574   -6.3986956    460.30481  0.036187485  0.036363633            7 
 1061000    1.0872732   -6.4385908    461.18228  0.036222297  0.036355633            5 
 1062000    1.0938304   -6.4171306    460.44043  0.036129977  0.036347625            6 
 1063000    1.0707428   -6.3954853    461.83916  0.036205641  0.036339819            2 
 1064000    1.0907127   -6.3807147    462.49796  0.036223211  0.036332006            2 
 1065000    1.0919189   -6.3951445    461.30151   0.03609558  0.036324384            6 
 1066000    1.0864891   -6.4222643    462.46757  0.036152875  0.036316576            8 
 1067000    1.0569068   -6.4095866    461.60252  0.036051431  0.036308619            7 
 1068000    1.0866041   -6.4011475     463.2274   0.03614446  0.036300749            4 
 1069000     1.078262   -6.4149134    463.02714  0.036095037  0.036293066            3 
 1070000    1.1066065   -6.3901081    462.46625  0.036017621  0.036284976            3 
 1071000    1.0720425   -6.4035889     463.9209  0.036097176  0.036277193            2 
 1072000    1.0831364   -6.4256238    464.36224  0.036097811  0.036269418            3 
 1073000    1.0703372   -6.4105946    465.30057  0.036137043   0.03626178            5 
 1074000    1.0965892   -6.4322432    463.92005  0.035996279  0.036253866            4 
 1075000    1.0802834   -6.4117368    465.88051  0.036114768  0.036246002            6 
 1076000    1.0771056   -6.4134477    465.22354  0.036030324  0.036238081            2 
 1077000    1.1029795   -6.4055254     465.7383  0.036036699  0.036230163            2 
 1078000     1.060048   -6.4226877    467.62393  0.036149036  0.036222463            5 
 1079000    1.0565857   -6.4095327    466.32015   0.03601484  0.036214931            4 
 1080000    1.0780508   -6.4176787    467.01282   0.03603494  0.036207173            3 
 1081000    1.0726411   -6.3683636    469.10281  0.036162721  0.036199802            2 
 1082000    1.0759276   -6.4057574    468.00645  0.036044859   0.03619246            5 
 1083000    1.0572098   -6.4003757    468.94001  0.036083411  0.036185022            3 
 1084000    1.0828416   -6.4427596    469.19022  0.036069359  0.036177514            9 
 1085000    1.0895176   -6.4346039    469.71774  0.036076631  0.036170016            4 
 1086000    1.0670375   -6.4378757    471.02061  0.036143386  0.036162712            2 
 1087000    1.0664675   -6.3867774    470.21048  0.036048028  0.036155253            5 
 1088000    1.0846353   -6.4354593    470.79379  0.036059574  0.036147736            3 
 1089000    1.0804884   -6.3963152    471.10316  0.036050135  0.036140377            5 
 1090000     1.073213   -6.4357743    469.09252  0.035863343  0.036132748            2 
 1091000    1.0746662   -6.4197311    469.75089  0.035880759   0.03612493            4 
 1092000    1.0749246    -6.408618    469.84655  0.035855201  0.036117156            2 
 1093000    1.0758553   -6.3882232    471.06816  0.035915535  0.036109565            5 
 1094000    1.0783748   -6.3960631    472.21052  0.035969723  0.036101892            3 
 1095000    1.0941195   -6.4225947    472.35045  0.035947522   0.03609429            3 
 1096000    1.0713129   -6.4023715    473.27173  0.035984772  0.036086646            3 
 1097000     1.101855   -6.4362689    472.93582  0.035926453  0.036078802            3 
 1098000    1.0820576   -6.4149931    473.47839  0.035934911  0.036071053            4 
 1099000    1.0774416   -6.4127526     474.4734  0.035977661  0.036063244            4 
 1100000    1.0869904   -6.4230588    474.25455  0.035928375  0.036055598            5 
 1101000    1.0643139   -6.4079772    475.12233  0.035961424  0.036048274            4 
 1102000    1.0685618   -6.4105741    476.01411  0.035996227  0.036040906            3 
 1103000    1.0713775   -6.3978668    475.14514  0.035897941  0.036033026            6 
 1104000    1.0867156   -6.4046895    476.04464  0.035933321  0.036025221            2 
 1105000    1.0729671   -6.4599325    474.67356  0.035797402  0.036017523            5 
 1106000    1.0728033   -6.4491101    475.38229  0.035818437   0.03600978            3 
 1107000    1.0635508   -6.4145808    476.45641  0.035866938   0.03600202            3 
 1108000    1.0934189   -6.3925882    476.46099  0.035834912  0.035994365            2 
 1109000    1.0649333   -6.4184772    476.33284   0.03579297  0.035986662            4 
 1110000    1.0865195   -6.4313741    476.63311  0.035783267  0.035978834            6 
 1111000    1.0644601   -6.4265499    477.83929  0.035841531  0.035971073            3 
 1112000    1.0922614   -6.4167222    478.32782   0.03584591  0.035963504            6 
 1113000    1.0870419   -6.3954568    478.18567   0.03580306  0.035955793            5 
 1114000    1.0822825    -6.384428    477.74909  0.035738263   0.03594793            5 
 1115000    1.0752656   -6.4198843    478.63264  0.035772245  0.035940201            6 
 1116000     1.079239   -6.4182992    478.65211  0.035741645  0.035932579            4 
 1117000    1.0950408   -6.4362961    478.70847  0.035713852  0.035924853            6 
 1118000     1.078596   -6.4298861    480.55877  0.035819825  0.035916953            5 
 1119000    1.0659773   -6.4174043    480.00591  0.035746642  0.035909273            6 
 1120000    1.0773576   -6.4105519    480.90784  0.035781833  0.035901736            6 
 1121000    1.0776922   -6.4220327    481.18352  0.035770408  0.035894056            6 
 1122000    1.0700581   -6.4605182    480.46359  0.035685056  0.035886269            3 
 1123000    1.0833197   -6.4201031    482.08582  0.035773658  0.035878387            5 
 1124000    1.0836914   -6.4267582    483.01221  0.035810514   0.03587071            3 
 1125000    1.0677456   -6.4024127    483.59738  0.035822028  0.035863198            4 
 1126000    1.0654459   -6.4316964    481.90703  0.035665115  0.035855848            4 
 1127000    1.0560571   -6.4457381     482.9484   0.03571047  0.035848379            2 
 1128000    1.0539358   -6.4083315    483.44034  0.035715155  0.035841022            4 
 1129000    1.0879787    -6.419031    484.06114  0.035729343  0.035833591            9 
 1130000    1.0856601   -6.4238123    483.83023  0.035680695  0.035826198            5 
 1131000    1.0752837   -6.4119564     485.2255  0.035751952  0.035818741            3 
 1132000    1.0690641   -6.4236587    484.87678  0.035694698   0.03581146            5 
 1133000    1.0569312    -6.419613    486.50468  0.035782928  0.035804304            4 
 1134000    1.0685935   -6.4659704     485.6738  0.035690314  0.035797105            4 
 1135000    1.0673453   -6.4414447    488.40698  0.035859543  0.035790132            3 
 1136000     1.084009    -6.446385    487.05203  0.035728582  0.035783065            4 
 1137000    1.0853939   -6.4099512    488.01333  0.035767614  0.035775859            4 
 1138000    1.0694194   -6.4043084    489.16365   0.03582042  0.035768893            4 
 1139000    1.0608093   -6.4105145    488.43535  0.035735686   0.03576183            2 
 1140000    1.0779114   -6.4060676    489.34093  0.035770536  0.035754777            3 
 1141000    1.0758518   -6.4525532    490.16546  0.035799405  0.035748003            3 
 1142000    1.0438486   -6.4284629    489.65731  0.035730977  0.035740991            4 
 1143000    1.0717481   -6.4227646    489.18562  0.035665327  0.035733854            4 
 1144000    1.0598952   -6.4057673    491.14959  0.035777214  0.035726776            3 
 1145000     1.067073   -6.4091336    491.54015  0.035774393  0.035719773            6 
 1146000    1.0548397   -6.4400926    489.59351  0.035601622  0.035712634            7 
 1147000    1.0775333   -6.3895235    489.98017  0.035598675  0.035705292            3 
 1148000       1.0741   -6.4366768    489.84118  0.035557577  0.035697962            7 
 1149000    1.0628524   -6.4665043    489.39273  0.035494106  0.035690396            3 
 1150000    1.0740453   -6.4271501    490.18121  0.035520377   0.03568267            3 
 1151000    1.0874551   -6.4369916     490.3095  0.035498805  0.035675178           10 
 1152000    1.0711697   -6.4542134    491.52827  0.035556154  0.035667753            3 
 1153000    1.0712423   -6.4451908    491.12641  0.035496271  0.035660198            4 
 1154000    1.0626769   -6.4484552    491.07043   0.03546147  0.035652338            4 
 1155000     1.052658   -6.4216013    491.21051  0.035440873   0.03564437            4 
 1156000    1.0450585   -6.4267847     492.6409  0.035513329  0.035636407            7 
 1157000    1.0869722   -6.3967348    492.09806  0.035443537  0.035628621            4 
 1158000    1.0648793   -6.4382296    492.07058  0.035410951  0.035620753            2 
 1159000    1.0676054   -6.4177096    492.37651  0.035402395  0.035612649            8 
 1160000    1.0878269   -6.4236129    492.56895    0.0353857  0.035604715            6 
 1161000    1.0692169    -6.455425    492.94079  0.035381912  0.035596836            3 
 1162000    1.0592825   -6.4437989    493.61202    0.0353996    0.0355891            7 
 1163000    1.0461655   -6.4270636    494.85555  0.035458265  0.035581219            3 
 1164000    1.0774849   -6.4322549    493.85514  0.035356181  0.035573224            4 
 1165000    1.0781033    -6.470268    493.20198  0.035279111  0.035565264            2 
 1166000    1.0510265   -6.4442679     493.8336  0.035293997  0.035556895            3 
 1167000    1.0860382   -6.4628584    495.52686  0.035384666  0.035548887            5 
 1168000    1.0536847   -6.4448509    495.62104   0.03536109  0.035540906            6 
 1169000    1.0542508   -6.4218816     495.6112   0.03533014  0.035532862            3 
 1170000    1.0862074   -6.4442664    496.44165  0.035359092  0.035524859            3 
 1171000    1.0527246     -6.42133    496.90421  0.035361814  0.035516778            4 
 1172000    1.0709434   -6.4499192    496.07858  0.035272936  0.035508952            6 
 1173000    1.0475982   -6.4218192    497.98542  0.035378333  0.035500917            2 
 1174000    1.0681498   -6.4379674    495.03566  0.035138818  0.035492835            5 
 1175000    1.0813147    -6.445224    495.35901  0.035131845   0.03548432            2 
 1176000     1.060732   -6.4447413    498.23288  0.035305618   0.03547585            2 
 1177000     1.070058   -6.4190356    497.52556  0.035225542  0.035467639            3 
 1178000    1.0718688   -6.4295639     496.9937  0.035158015  0.035459228            8 
 1179000    1.0308791   -6.4287986     498.6759  0.035247095  0.035451015            2 
 1180000    1.0762036   -6.4469886    499.74783  0.035292926  0.035442736            2 
 1181000    1.0701976   -6.4381195    499.23883  0.035227126  0.035434656            7 
 1182000    1.0862506   -6.4590488    497.28344  0.035059464  0.035426245            5 
 1183000     1.047198   -6.4650396    499.52187  0.035187509  0.035418109            5 
 1184000    1.0481619    -6.436669    499.60931  0.035163943   0.03540984            4 
 1185000    1.0658324   -6.4087025    500.71851  0.035212272  0.035401604           10 
 1186000    1.0778349   -6.4561116    498.81813  0.035049053   0.03539297            7 
 1187000    1.0540055   -6.4129948    499.44416  0.035063476  0.035384567            5 
 1188000    1.0304956   -6.4246532    500.60816  0.035115611  0.035376226            6 
 1189000    1.0600557   -6.4283073    500.27774   0.03506292  0.035368023            3 
 1190000    1.0485665   -6.4515012    501.21568  0.035099137   0.03535986            2 
 1191000    1.0697544   -6.3980159    503.11191  0.035202345  0.035351769            3 
 1192000     1.053689   -6.4262803    501.72386  0.035075773  0.035343762            3 
 1193000    1.0621572   -6.4397961     503.5356  0.035172925  0.035335764            2 
 1194000    1.0771171   -6.4202356    504.02764  0.035177809  0.035327917            4 
 1195000    1.0498903   -6.4657581    503.31791  0.035098878  0.035320033            4 
 1196000    1.0541493   -6.4615901    502.66311  0.035023907  0.035311967            3 
 1197000    1.0450055     -6.44254    504.04644  0.035090952  0.035303736            3 
 1198000    1.0799176   -6.4319595    504.73744  0.035109727  0.035295769            5 
 1199000    1.0562041   -6.4545241    505.38375  0.035125365  0.035287899            8 
 1200000    1.0414476   -6.4655668    504.49905  0.035034656  0.035280035            3 
 1201000     1.057926   -6.4883247    505.53632  0.035077457  0.035272044            5 
 1202000    1.0733719   -6.4629311    506.36659  0.035105837  0.035264026            3 
 1203000    1.0721265    -6.416665     505.9458  0.035047506  0.035256252            4 
 1204000    1.0554844   -6.4154136    508.42656    0.0351901  0.035248306            4 
 1205000    1.0812245   -6.4815519    505.51518  0.034959556  0.035240435            6 
 1206000    1.0595132   -6.4499878    506.51944  0.034999961   0.03523241            7 
 1207000    1.0737685   -6.4570156    508.10354  0.035080333  0.035224255            5 
 1208000    1.0809005   -6.4441117    507.16895  0.034986821  0.035216098            4 
 1209000    1.0322964   -6.4699726    507.56515  0.034985191  0.035208011            3 
 1210000    1.0518144   -6.4266423    507.82868  0.034974427  0.035199988            4 
 1211000    1.0471118   -6.4639151    508.18458  0.034970037  0.035192108            2 
 1212000     1.062045   -6.4349911    508.38402  0.034954897  0.035184131            6 
 1213000    1.0744929   -6.3902102    509.62714  0.035011483  0.035176241            7 
 1214000    1.0586317   -6.4692997     509.5568  0.034977814  0.035168385            3 
 1215000    1.0748504   -6.4732232    509.17242  0.034922663   0.03516022            4 
 1216000    1.0355519   -6.4517225    509.63295  0.034925504  0.035152081            5 
 1217000    1.0601801   -6.4538264    510.20952  0.034936286  0.035143981            4 
 1218000    1.0583086    -6.474464    509.81563  0.034880653  0.035135839            3 
 1219000    1.0435478   -6.4749194    509.69706  0.034843933  0.035127652            3 
 1220000    1.0645577    -6.473036    511.75521  0.034955957  0.035119348            3 
 1221000     1.069084   -6.4392163    510.44938  0.034838205  0.035111088            3 
 1222000    1.0474103   -6.4421426    511.46503  0.034878958     0.035103            3 
 1223000    1.0444935   -6.4790067    511.66076  0.034863775  0.035094609            5 
 1224000    1.0653872   -6.4744629    511.89019  0.034850912   0.03508623            4 
 1225000    1.0499896   -6.4207833    513.64004  0.034941499  0.035077873            2 
 1226000    1.0725959   -6.4274032    511.41539  0.034761786  0.035069495            3 
 1227000    1.0694685   -6.4477877    511.86931  0.034764283  0.035060922            3 
 1228000    1.0724351   -6.4647139    513.21145  0.034827053  0.035052385            6 
 1229000    1.0418313    -6.431226    513.15112  0.034794624  0.035044009            7 
 1230000     1.060064   -6.4536491    514.18622  0.034836465  0.035035829            4 
 1231000    1.0554111   -6.4699276    512.96677  0.034725614  0.035027474            5 
 1232000    1.0718122    -6.446574    514.12039   0.03477546  0.035019215            2 
 1233000    1.0739138   -6.4608154    515.27924  0.034825577  0.035010765            4 
 1234000    1.0689063   -6.4217808    515.15278  0.034788816  0.035002722            4 
 1235000    1.0517721   -6.4490044    516.86107  0.034875916   0.03499457            3 
 1236000    1.0605882   -6.4682978    514.87062  0.034713499  0.034986438            4 
 1237000     1.079433   -6.4951808    515.68928  0.034740587  0.034978407            6 
 1238000    1.0386818   -6.4489115    516.68161  0.034779322  0.034970559            3 
 1239000    1.0462624   -6.4658018    517.30978  0.034793501  0.034962853            4 
 1240000    1.0529676   -6.4776595    518.69832  0.034858758  0.034955058            4 
 1241000    1.0598516   -6.4265059    520.41187  0.034945734  0.034947634            2 
 1242000    1.0444397   -6.4443212    520.38338  0.034915685  0.034940079            4 
 1243000    1.0392079   -6.4605171    519.68753  0.034840945  0.034932649            3 
 1244000    1.0222822    -6.445931    519.67989  0.034812426  0.034925196            4 
 1245000    1.0631381   -6.4826106    521.67791    0.0349182  0.034917667            5 
 1246000    1.0338504   -6.4908797    520.39473  0.034804356  0.034910192            9 
 1247000    1.0570902   -6.4881536    519.46414  0.034714257  0.034902455            3 
 1248000    1.0359273   -6.4895246    521.24191  0.034805149    0.0348949            4 
 1249000    1.0563923   -6.4960198    521.99182  0.034827317  0.034887406            7 
 1250000    1.0474334   -6.4160725      522.579    0.0348386  0.034879839           11 
 1251000    1.0488014   -6.4320598    521.50975  0.034739525  0.034872316            3 
 1252000    1.0406775   -6.4647489    521.07233  0.034682663  0.034864795            3 
 1253000    1.0485505   -6.4691331    522.24122  0.034732723  0.034857028            3 
 1254000    1.0379614    -6.464063    523.45568  0.034785731  0.034849258            7 
 1255000    1.0438332   -6.4547769    523.41216  0.034755124  0.034841645            2 
 1256000    1.0437504   -6.4823034    523.40316  0.034726855  0.034833949            4 
 1257000    1.0609813   -6.4737612    524.20965  0.034752695  0.034826059            3 
 1258000    1.0384914    -6.479425    521.92449  0.034573694  0.034818153            3 
 1259000    1.0277653   -6.4634373    523.71553  0.034664782   0.03481027            5 
 1260000    1.0661942   -6.4196901    524.30105  0.034675995  0.034802368            2 
 1261000    1.0298172   -6.4915578     526.0773   0.03476588  0.034794592            5 
 1262000    1.0574215   -6.4827399    524.94848  0.034663793  0.034786801            3 
 1263000    1.0358776   -6.4717403     526.8603   0.03476249  0.034778972            4 
 1264000    1.0316638   -6.4907649    525.22166  0.034626955  0.034771182            4 
 1265000    1.0416893   -6.4560463    526.27082  0.034668697  0.034763571            7 
 1266000    1.0587003   -6.4768457    525.80896  0.034610911   0.03475596            4 
 1267000    1.0582053   -6.4660997    528.44336  0.034756864  0.034748391            3 
 1268000    1.0427113   -6.4474115    528.26632  0.034717818  0.034741005            3 
 1269000    1.0594484   -6.4927874    527.48057  0.034638861  0.034733373            8 
 1270000    1.0589946   -6.4295793    527.66537  0.034623712  0.034725694            4 
 1271000    1.0547229    -6.481268    527.74295  0.034601557  0.034718072            3 
 1272000     1.053501   -6.4592916    527.16655  0.034536593  0.034710447            1 
 1273000    1.0539856   -6.4902127    529.88564   0.03468746  0.034702931            4 
 1274000    1.0490711   -6.4581953    529.45885  0.034632316  0.034695202            4 
 1275000    1.0590186   -6.4667478    529.53426  0.034610082   0.03468744            2 
 1276000    1.0279308   -6.4839785    529.06085  0.034552041  0.034679924            4 
 1277000    1.0300259   -6.4799282    531.88279  0.034709135  0.034672403            2 
 1278000    1.0686051    -6.463913    531.05536  0.034628023  0.034665195            5 
 1279000    1.0311511   -6.5286426    530.90805   0.03459135  0.034657873            4 
 1280000    1.0370194   -6.4704191    531.20944  0.034583948  0.034650413            2 
 1281000    1.0552191   -6.4834721    530.55275   0.03451423  0.034642975            2 
 1282000    1.0310695   -6.4982074    530.80658  0.034503808  0.034635347            4 
 1283000     1.042391   -6.4562983     533.1493  0.034629079  0.034627945           10 
 1284000    1.0527985   -6.4716774    532.73906  0.034575484  0.034620468            8 
 1285000    1.0230105   -6.4684894    532.40672  0.034527025  0.034612756            3 
 1286000    1.0470614   -6.4496448    533.59975  0.034577485  0.034605118            2 
 1287000    1.0419148   -6.4812256    532.12901  0.034455388  0.034597635            3 
 1288000    1.0668271   -6.4754493    531.48629  0.034387053  0.034589742            3 
 1289000    1.0387158   -6.4765663    532.76659  0.034443147  0.034582112            3 
 1290000    1.0442515   -6.4661608    534.12445  0.034504164   0.03457437            9 
 1291000     1.038806   -6.4950129    533.43999  0.034433256   0.03456675            3 
 1292000    1.0233206   -6.4866473    533.15442  0.034388185  0.034558831            2 
 1293000    1.0283826   -6.4907688    534.33916  0.034437946  0.034550945            4 
 1294000    1.0621113   -6.4814696    533.42208  0.034352272  0.034542963            7 
 1295000       1.0536   -6.4854117    534.50437  0.034395391  0.034535149            3 
 1296000     1.048593   -6.4835903    533.93095   0.03433198  0.034527387            5 
 1297000    1.0603705   -6.4748563     535.9891  0.034437747   0.03451966            3 
 1298000    1.0527178   -6.4984893    534.43653  0.034311539  0.034511882            6 
 1299000    1.0260135   -6.4754262    535.34694   0.03434353  0.034504085            3 
 1300000    1.0435874   -6.4707414    535.97497   0.03435737  0.034496359            4 
 1301000     1.020681   -6.4800636    537.81292  0.034448688  0.034488685            8 
 1302000    1.0685757   -6.4620035    536.98356  0.034369148  0.034481113            5 
 1303000    1.0186928   -6.4768019    536.33666  0.034301398  0.034473395            3 
 1304000    1.0558942   -6.4513264    538.88686  0.034438066  0.034465758            3 
 1305000    1.0415989   -6.4917707    537.55891  0.034326878  0.034457974            4 
 1306000     1.048579   -6.4875843    537.39001  0.034289817   0.03445011            5 
 1307000    1.0252432   -6.4705969    537.98227  0.034301343  0.034442137            3 
 1308000    1.0394322   -6.4996321    535.83444   0.03413828  0.034434012            7 
 1309000    1.0374592   -6.4755302     538.3187  0.034270353  0.034425977            4 
 1310000    1.0603434   -6.5086363    536.51592  0.034129511  0.034417771            3 
 1311000    1.0281288   -6.5013761      537.857  0.034188723  0.034409457            6 
 1312000    1.0470385   -6.4918635    538.15509  0.034181599  0.034401316            5 
 1313000    1.0521973   -6.4845873    539.21091  0.034222576  0.034393182            4 
 1314000    1.0270318     -6.47596    539.29444  0.034201829  0.034385063            6 
 1315000    1.0604655   -6.4959936    538.99349  0.034156749   0.03437698            4 
 1316000    1.0313963   -6.4996529    539.80412  0.034182125  0.034369055            6 
 1317000     1.031945   -6.4882414    539.39691  0.034130404  0.034360978            3 
 1318000    1.0187665   -6.4767042     539.7608  0.034127516   0.03435292            3 
 1319000    1.0377809   -6.5174461    541.60152  0.034217938  0.034344919            6 
 1320000    1.0475521    -6.501648     541.6896  0.034197576  0.034337002            4 
 1321000    1.0467689   -6.5028828    539.97833  0.034063735  0.034328877            3 
 1322000    1.0404066   -6.5183307    542.04059  0.034167965  0.034320702            4 
 1323000     1.016948   -6.4649714     541.4456  0.034104661  0.034312616            5 
 1324000    1.0395893   -6.4843489    541.91117  0.034108206    0.0343046            4 
 1325000    1.0236633   -6.4389053    543.11297  0.034158048  0.034296755            3 
 1326000    1.0336796   -6.4942536    543.30338  0.034144255  0.034288813            4 
 1327000    1.0341311   -6.4683109    543.33409  0.034120453  0.034280895            3 
 1328000    1.0495019   -6.5110989    543.71697  0.034118785  0.034272913            3 
 1329000    1.0287857   -6.5007132    543.75215  0.034095319  0.034265107            7 
 1330000    1.0479563   -6.5047171    544.39524  0.034109977  0.034257328            7 
 1331000    1.0557089   -6.4795457    543.94939  0.034056436  0.034249794            5 
 1332000    1.0431699   -6.4791754    545.91322   0.03415373  0.034242004           11 
 1333000    1.0274178   -6.4724345    546.61369  0.034171899  0.034234417            4 
 1334000    1.0592282   -6.4886502    546.25744  0.034124028  0.034226887            3 
 1335000    1.0316065   -6.4861092    547.40055  0.034169822  0.034219478            3 
 1336000     1.048708   -6.4924607    546.26923  0.034073679   0.03421189            4 
 1337000    1.0341555   -6.4974506    546.53603  0.034064823  0.034204214            3 
 1338000    1.0065641   -6.5075827     546.8002  0.034055817  0.034196522           11 
 1339000    1.0315866   -6.4723575    547.02511  0.034044381  0.034188733            5 
 1340000    1.0272606   -6.5041665    546.82432  0.034006488  0.034181007            5 
 1341000    1.0339167   -6.4705594    547.52292  0.034024542  0.034173125            6 
 1342000    1.0495121   -6.4910302    548.05677  0.034032338  0.034165218            3 
 1343000    1.0460075   -6.4674527    548.68925  0.034046243  0.034157244            9 
 1344000    1.0234068   -6.4903984    548.59582  0.034015118   0.03414917            3 
 1345000    1.0558951   -6.5145845    547.50719  0.033922378  0.034141012            3 
 1346000    1.0508655   -6.4589615    547.93383  0.033923591   0.03413283            3 
 1347000    1.0143224   -6.4723699    548.60088  0.033939673  0.034124802            3 
 1348000    1.0153985   -6.4815707    549.48119  0.033968916  0.034116794            8 
 1349000    1.0414528   -6.4726346    552.40909  0.034124604  0.034108872            3 
 1350000    1.0461609   -6.4954753    550.07709  0.033955376  0.034101112            4 
 1351000    1.0154945    -6.500302    550.27978  0.033942745  0.034093155            5 
 1352000    1.0701958   -6.4575697    549.92656  0.033895868  0.034085345            3 
 1353000    1.0354213   -6.4829823    552.36519  0.034021014    0.0340777            4 
 1354000    1.0323186   -6.4794189    551.69538  0.033954664  0.034069838            2 
 1355000    1.0361916   -6.4875692    551.44267  0.033914064  0.034062087            7 
 1356000    1.0315098   -6.4911766     553.2405  0.033999539  0.034054235            3 
 1357000    1.0437086   -6.5312034    552.23483  0.033912726  0.034046417            4 
 1358000    1.0132921   -6.4978922    553.87547  0.033988431  0.034038784            5 
 1359000    1.0449982   -6.5035589    553.90146  0.033965015  0.034031128            6 
 1360000    1.0483238   -6.5395936    554.53966  0.033979146  0.034023474            3 
 1361000    1.0479637   -6.5196118    555.48489  0.034012055  0.034015771            4 
 1362000    1.0467984   -6.5303237    554.35878  0.033918183  0.034008002            3 
 1363000    1.0343855   -6.5114471    553.52372  0.033842243  0.034000258            7 
 1364000    1.0466728   -6.4525153    555.54692  0.033941038  0.033992586            5 
 1365000    1.0160133   -6.4740033    555.83366  0.033933679  0.033984838            4 
 1366000    1.0175615   -6.4634307    556.86258  0.033971607  0.033977134            4 
 1367000    1.0478917   -6.5088295    556.06936    0.0338984  0.033969436            4 
 1368000    1.0337349   -6.5375104    557.44651  0.033957511   0.03396186            6 
 1369000    1.0285916   -6.4799135    556.58033  0.033879981  0.033954141            7 
 1370000    1.0394171   -6.4562674    558.96819  0.034000498  0.033946485            4 
 1371000     1.028443   -6.4858396    557.18169   0.03386711  0.033939071            6 
 1372000    1.0294563    -6.487901    559.16161  0.033962683   0.03393158            6 
 1373000    1.0213904   -6.4810257    558.78214  0.033914915  0.033924215            5 
 1374000     1.023587   -6.5029665    558.16219  0.033852632    0.0339168            4 
 1375000    1.0348588   -6.5083256    557.81263  0.033806826  0.033909306            5 
 1376000    1.0482302   -6.5084469    558.94345  0.033850742  0.033901808            7 
 1377000    1.0379101   -6.4819382    559.54518  0.033862574  0.033894459            9 
 1378000    1.0042748   -6.5060339    561.57001  0.033960451  0.033886949            6 
 1379000    1.0297811   -6.5007465    559.94603  0.033837686  0.033879568            4 
 1380000    1.0041853   -6.4848148    560.76943  0.033862888  0.033872273            4 
 1381000    1.0467662   -6.4904022    559.39144  0.033755216  0.033864825            4 
 1382000    1.0463473   -6.5513834     561.7502  0.033873022  0.033857384            3 
 1383000    1.0271428   -6.4864229    561.50748  0.033833905  0.033850065           10 
 1384000    1.0289882   -6.5154251    562.50201  0.033869341    0.0338428            2 
 1385000    1.0605485   -6.5075002    563.01675  0.033875857  0.033835449            4 
 1386000    1.0111753    -6.492057    560.76337  0.033715931  0.033828125            9 
 1387000     1.019436   -6.5106091    563.22196  0.033839339  0.033820648            5 
 1388000    1.0089401   -6.4746037    561.46784  0.033709645  0.033813054            2 
 1389000    1.0287095   -6.5094885    563.00618  0.033777669  0.033805573            3 
 1390000    1.0220733   -6.4978537    561.76095  0.033678714  0.033798108            5 
 1391000    1.0399819   -6.5072229    561.89786  0.033662704  0.033790712            3 
 1392000    1.0350745   -6.5205159    563.02177  0.033705805   0.03378329            6 
 1393000    1.0499267    -6.496223    565.33448  0.033819962  0.033776065            2 
 1394000    1.0401605   -6.4995473    565.38504  0.033798723  0.033768999            3 
 1395000    1.0037738   -6.5143711     565.8894  0.033804623  0.033761825            5 
 1396000    1.0382626   -6.5449965     565.4702  0.033755384  0.033754622            4 
 1397000     1.046378   -6.4890907    565.97551  0.033761364  0.033747283            2 
 1398000    1.0481429   -6.4937517    564.53514  0.033651355  0.033740202            2 
 1399000    1.0400515   -6.4795201    566.81472  0.033763088  0.033732838            5 
 1400000    1.0137261   -6.5011108    567.15294  0.033759103  0.033725654            3 
 1401000     1.032636   -6.4859692    565.82237  0.033655863  0.033718351            3 
 1402000    1.0412583   -6.4974489    567.51506  0.033732469  0.033710916            6 
 1403000    1.0165332   -6.5096689    566.03162  0.033620315  0.033703585            5 
 1404000    1.0253097    -6.493483    568.54004  0.033745254   0.03369632            8 
 1405000    1.0405685   -6.4585434    566.99176  0.033629404  0.033688953            5 
 1406000    1.0346521   -6.5012748    567.72443  0.033648911  0.033681606            3 
 1407000    1.0483282   -6.5005411    568.20264  0.033653319  0.033674346            4 
 1408000    1.0543112   -6.5007515    569.78412  0.033723019  0.033667117            6 
 1409000       1.0259   -6.4988642    568.87002  0.033645021   0.03365988            6 
 1410000    1.0262803   -6.5037466    568.09988  0.033575643  0.033652532            2 
 1411000    1.0189485    -6.478028     568.3492  0.033566572  0.033645154            7 
 1412000    1.0194129   -6.5309499    568.63912   0.03355991   0.03363757            4 
 1413000    1.0446189   -6.5121171    568.64366  0.033536427  0.033630038            4 
 1414000    1.0158988   -6.5183377    568.81511  0.033522814  0.033622447            5 
 1415000    1.0294264   -6.5036001    570.87623  0.033620508  0.033614973            3 
 1416000    1.0212905    -6.535525    569.17625  0.033496719  0.033607413            3 
 1417000    1.0216024    -6.524375    569.39986  0.033486231  0.033599802           14 
 1418000    1.0387773   -6.4952456    569.84551  0.033488805  0.033592142            4 
 1419000    1.0045604   -6.4990799    571.16287  0.033542569  0.033584485            5 
 1420000    1.0382098   -6.5358555    571.46694  0.033536792  0.033576921            3 
 1421000    1.0337193   -6.4926884     571.2395  0.033499853  0.033569388            4 
 1422000    1.0508477    -6.532966    572.75509  0.033565113  0.033561773            8 
 1423000    1.0177947    -6.513069    572.60049  0.033532472  0.033554227            6 
 1424000    1.0193616   -6.4912647    573.45215  0.033558764  0.033546729            4 
 1425000    1.0195151    -6.486672    571.62076  0.033428114   0.03353919            6 
 1426000    1.0239521   -6.4750189    573.07844  0.033489858  0.033531953            5 
 1427000    1.0169134   -6.5044234    571.88597  0.033396751  0.033524353           12 
 1428000    1.0250028   -6.5111513     572.2638  0.033395413  0.033516663            3 
 1429000     1.036011   -6.5208287    573.37183  0.033436659  0.033509018            9 
 1430000   0.99655472   -6.5100366    574.61471  0.033485706  0.033501557            4 
 1431000    1.0367608   -6.5082102    575.44869  0.033510872  0.033494147            3 
 1432000    1.0138418     -6.50713     575.0139  0.033462169   0.03348669           12 
 1433000    1.0244735   -6.4694349    576.96762  0.033552432  0.033479269            5 
 1434000    1.0260903   -6.5348454    575.91569  0.033467904  0.033471993           14 
 1435000    1.0060956   -6.5070188    575.41441  0.033415471  0.033464624            5 
 1436000    1.0129295   -6.5123586    576.18966   0.03343719  0.033457357            1 
 1437000    1.0311635   -6.5329396    575.08969  0.033350133  0.033449927            6 
 1438000     1.034546   -6.5251706    577.12012  0.033444606  0.033442467            6 
 1439000    1.0189677   -6.5516572    576.65256  0.033394288  0.033435053            5 
 1440000    1.0459447   -6.5098715    578.21974   0.03346179  0.033427632            6 
 1441000     1.041747   -6.5451022    577.03859  0.033370263   0.03342033            5 
 1442000    1.0219581    -6.530864     577.6041  0.033379803  0.033412788            3 
 1443000   0.99696732   -6.5031896    578.10429  0.033385556  0.033405514            4 
 1444000    1.0282326   -6.5015224    579.05179  0.033417116  0.033398216            3 
 1445000    1.0479724   -6.5106796    580.52363  0.033478871  0.033390906           16 
 1446000    1.0276479   -6.5521301    578.41272  0.033334066  0.033383482            4 
 1447000    1.0409062   -6.5181846    579.58573  0.033378584  0.033376206            3 
 1448000    1.0421431   -6.5119474     580.4679  0.033406302  0.033368972            3 
 1449000    1.0159284   -6.4912898    580.34673  0.033376278  0.033361775            5 
 1450000    1.0226777   -6.5511826    579.63479  0.033312344  0.033354438            5 
 1451000    1.0282029   -6.5114672    579.49057  0.033281104  0.033347154            2 
 1452000    1.0311515   -6.5114216    579.94168  0.033284073  0.033339888            5 
 1453000    1.0415277   -6.5210688    582.15482  0.033388095   0.03333258            3 
 1454000    1.0171755   -6.5035657    582.00983  0.033356822  0.033325227            7 
 1455000    1.0217152   -6.5372069    580.50647  0.033247793  0.033317806            7 
 1456000    1.0090383   -6.5111807    582.52878  0.033340704  0.033310369            5 
 1457000   0.99301153   -6.5269444    582.20777  0.033299461  0.033302892            3 
 1458000    1.0132295    -6.527071    581.34325  0.033227209  0.033295335            5 
 1459000    1.0328344   -6.5432659     578.9732  0.033069066   0.03328786            5 
 1460000    1.0209594    -6.538988    581.05978  0.033165513  0.033280215            5 
 1461000    1.0352465   -6.5280582     583.3831  0.033275331  0.033272725            6 
 1462000    1.0394226   -6.5479659    582.78763  0.033218629  0.033265194            5 
 1463000    1.0288558   -6.4998353    582.63786  0.033187392  0.033257647            5 
 1464000     1.041712   -6.5176523    583.65452  0.033222594    0.0332501            4 
 1465000    1.0018791   -6.5201542    584.76214   0.03326292  0.033242569            4 
 1466000     1.003037   -6.5052981    583.77186  0.033183939  0.033235123            4 
 1467000    1.0159633   -6.5111538    584.10403  0.033180188  0.033227725            3 
 1468000     1.023577   -6.5226522    585.78482  0.033252998  0.033220384            2 
 1469000    1.0100204   -6.5168327    586.31202  0.033260269  0.033213096            3 
 1470000    1.0092073   -6.5275061    586.04315  0.033222401   0.03320579            6 
 1471000    1.0072073   -6.5098103    586.88532  0.033247526  0.033198483            2 
 1472000    1.0220863   -6.5076381    585.95014  0.033171996   0.03319114            6 
 1473000    1.0104087   -6.5232553    585.41345  0.033119114  0.033183951            4 
 1474000    1.0352282   -6.5469881    586.35905  0.033150105  0.033176683            9 
 1475000    1.0279555   -6.5318919     587.5018  0.033192192  0.033169521            5 
 1476000    1.0299475   -6.5759394    585.38424  0.033050149  0.033162156            5 
 1477000    1.0038395   -6.5117627    590.73548  0.033329693   0.03315491            3 
 1478000    1.0199565   -6.5367858    588.36805  0.033173661    0.0331478            3 
 1479000   0.98881303   -6.5384903    589.77288  0.033230385   0.03314064            2 
 1480000    1.0138025   -6.5200098    588.05429  0.033111165  0.033133417            2 
 1481000    1.0151048   -6.4892298    588.35805  0.033105899  0.033126134            4 
 1482000    1.0362942   -6.5440438    590.20378  0.033187347  0.033119018            3 
 1483000    1.0125842   -6.5074366    590.38673  0.033175249   0.03311177            7 
 1484000   0.99963421    -6.560295    588.75761  0.033061411  0.033104385            7 
 1485000    1.0005559    -6.556558    589.73675  0.033094094   0.03309709            4 
 1486000    1.0195811   -6.5198526    589.64361    0.0330666  0.033089828            6 
 1487000   0.99279281    -6.546024    590.09938  0.033069905  0.033082442            4 
 1488000    1.0122848   -6.5448898    589.98122  0.033041063   0.03307514            3 
 1489000    1.0211711   -6.4961776    592.18353  0.033142127  0.033068007            6 
 1490000    1.0547722   -6.5523636    592.14532  0.033117747  0.033060728            7 
 1491000    1.0128083   -6.5095811     594.3513   0.03321883  0.033053603            4 
 1492000    1.0124226    -6.532372    593.79197  0.033165325  0.033046583            7 
 1493000    1.0608175   -6.5303665    593.06702  0.033102647  0.033039475            3 
 1494000   0.99352377   -6.5436673    591.68776  0.033003556  0.033032216            4 
 1495000      1.01835   -6.5333059    592.58446  0.033031464  0.033024965            6 
 1496000    1.0285512    -6.518879    594.43622  0.033112535  0.033017698            4 
 1497000    1.0242332    -6.516671    595.35658  0.033141649  0.033010653            5 
 1498000    1.0155891     -6.50547    593.04611  0.032990994  0.033003713            5 
 1499000     1.018829   -6.5217992    595.00606  0.033077944  0.032996699            3 
 1500000    1.0311023   -6.5125666    593.91724  0.032995402  0.032989543            3 
 1501000   0.99126465   -6.5481311    595.10409  0.033039312  0.032982479            3 
 1502000   0.99886382   -6.5300273    596.17322  0.033076632  0.032975444            3 
 1503000    1.0121469   -6.5194471    595.85886  0.033037196  0.032968541            4 
 1504000    1.0152841   -6.5335107    597.80764  0.033123207  0.032961612            3 
 1505000    1.0036712   -6.5135917    596.90322  0.033051119  0.032954653            2 
 1506000   0.99510303   -6.5217797    598.39138   0.03311152  0.032947764            4 
 1507000    1.0174343   -6.5506052    597.39343  0.033034364  0.032940914            6 
 1508000   0.99280137   -6.5389955    597.97548  0.033044622  0.032933912            8 
 1509000    1.0045369   -6.5347587    596.73194   0.03295405  0.032926885            4 
 1510000    0.9925608    -6.500627    600.04993  0.033115338  0.032919968            3 
 1511000    1.0128868    -6.556374    598.08001  0.032984779  0.032913005            2 
 1512000    1.0027272   -6.5463468    596.39692    0.0328702  0.032905955            3 
 1513000    1.0306471   -6.5398102    598.89557  0.032986097  0.032899019            8 
 1514000    1.0055401   -6.5572701    599.34857  0.032989243   0.03289206            4 
 1515000   0.99340743   -6.5449399    600.05581   0.03300637  0.032885143            4 
 1516000    1.0415603   -6.5687803    599.68287  0.032964098  0.032878266            3 
 1517000    1.0341664    -6.552241    601.12694  0.033021695  0.032871309            2 
 1518000   0.98703619   -6.5272096    601.30616  0.033009781  0.032864478            4 
 1519000    1.0128682   -6.5610126    599.41411   0.03288425   0.03285766            2 
 1520000   0.99472135   -6.5475346    601.09239  0.032954627    0.0328508            3 
 1521000    1.0177993   -6.5297319    602.13427  0.032990043  0.032844039            5 
 1522000    1.0135876    -6.534758    603.00557  0.033016074  0.032837222            8 
 1523000   0.98311831   -6.5607819    603.49777  0.033021327  0.032830369            5 
 1524000    1.0079976    -6.580076    602.87391  0.032965546  0.032823379            3 
 1525000    1.0124127   -6.5312065    602.31679  0.032913486  0.032816615            6 
 1526000    1.0359678    -6.560783    604.32569  0.033001621  0.032809842            3 
 1527000    1.0132417    -6.543948    604.94733  0.033013934  0.032803045            6 
 1528000    1.0302433   -6.5477102    604.04134  0.032942917  0.032796304            3 
 1529000    1.0301916   -6.5601421    603.56928  0.032895644  0.032789349            5 
 1530000   0.98993205   -6.5813702     604.2819  0.032912957  0.032782506           13 
 1531000    1.0097928   -6.5371213    603.45301  0.032846343  0.032775666            9 
 1532000    1.0041003   -6.5036687    606.58219  0.032995115  0.032768949            3 
 1533000   0.99862651   -6.5342795     604.5397  0.032862563  0.032762227            8 
 1534000     1.027382   -6.5631672    605.76628  0.032907773  0.032755428            5 
 1535000   0.97802431   -6.5502239    608.24216  0.033020747  0.032748525            5 
 1536000    1.0212835   -6.5746158    605.34488  0.032842062  0.032741623            7 
 1537000   0.98692117   -6.5151917    604.84022  0.032793332  0.032734699            2 
 1538000    1.0185024   -6.5613859    605.33361  0.032798744  0.032727803            4 
 1539000    1.0115159   -6.5209935    607.11742  0.032874021  0.032720952            7 
 1540000      1.01597   -6.5643844    605.85634  0.032784434  0.032714127            3 
 1541000   0.99128198   -6.5605644    606.45567  0.032795569  0.032707297            5 
 1542000     1.004564   -6.5250727    608.90189  0.032906501  0.032700451            4 
 1543000   0.99872286   -6.5792031    606.53461  0.032757324  0.032693644           11 
 1544000    1.0152363   -6.5162254    608.39809  0.032836684   0.03268669            4 
 1545000    1.0184594   -6.6085606    608.09708  0.032799195  0.032679734            4 
 1546000   0.99934185   -6.5537613     609.7002  0.032864392  0.032672888            5 
 1547000    1.0092987   -6.5664268    608.74043  0.032791447  0.032666052            4 
 1548000    1.0123334   -6.5406025    608.36131  0.032749855  0.032659244            5 
 1549000   0.99593255   -6.5765379    608.03725  0.032711279  0.032652299            5 
 1550000   0.99512969   -6.5758838    607.25988  0.032648381   0.03264512            4 
 1551000    1.0134307   -6.5234091     609.2881  0.032736305   0.03263793            3 
 1552000    1.0116308   -6.5525982    608.08406  0.032650562   0.03263086            7 
 1553000   0.99429972   -6.5288021    609.51642  0.032706397  0.032623796            5 
 1554000    1.0269118   -6.5350244    609.82138  0.032701704  0.032616777            4 
 1555000    1.0024885   -6.5589356    608.76625  0.032624129  0.032609703            4 
 1556000    1.0010803   -6.6044712    608.61727  0.032595184   0.03260261            7 
 1557000     1.003358   -6.5683067    610.60335  0.032680547  0.032595461            6 
 1558000    1.0336588   -6.5002593    611.30783  0.032697252  0.032588441            3 
 1559000   0.98724604   -6.5623522    609.76498  0.032593809  0.032581412            5 
 1560000    1.0013561   -6.5499477    610.65893  0.032620669  0.032574358            5 
 1561000   0.99395507   -6.5542345    611.74824  0.032657924  0.032567447            8 
 1562000    1.0085819   -6.5656987    611.32392  0.032614379  0.032560484            6 
 1563000    1.0073046   -6.5352313    613.32705  0.032700312  0.032553329            4 
 1564000    1.0114637   -6.5772703    613.07017  0.032665717  0.032546288            5 
 1565000    0.9783356   -6.5567568    612.82396  0.032631734  0.032539114           14 
 1566000    1.0060219   -6.5563237    611.06898  0.032517506    0.0325321           19 
 1567000   0.99632771   -6.5310549    613.44305  0.032623008  0.032525093            5 
 1568000    1.0171259    -6.530944      614.868  0.032677934  0.032518202            6 
 1569000    1.0054144   -6.5811376    612.51023   0.03253188  0.032511392            4 
 1570000   0.98910368   -6.5637644    613.08544   0.03254169  0.032504412            5 
 1571000    1.0001002   -6.5453925     614.2787  0.032584272   0.03249756            6 
 1572000    1.0156385   -6.5364708    615.90982  0.032650012  0.032490766            4 
 1573000   0.98854001   -6.5317669    616.27364  0.032648529  0.032484044            3 
 1574000    1.0093886   -6.5804043    614.78334  0.032548885   0.03247722            3 
 1575000   0.99342787   -6.5636816    615.56624  0.032569642  0.032470327            4 
 1576000   0.99348904   -6.5833209    615.73767  0.032558041  0.032463429            3 
 1577000   0.98943907   -6.5601202    616.36031  0.032570298  0.032456419            5 
 1578000   0.99889015   -6.5826621     615.6108  0.032510076  0.032449448            7 
 1579000   0.99586372   -6.5603206    617.24276  0.032575615  0.032442428            4 
 1580000    1.0104385    -6.549703     618.0071  0.032595311  0.032435703            3 
 1581000    0.9966752   -6.6040779    615.97307  0.032467482  0.032428782            6 
 1582000    1.0315149   -6.5887848    616.51435  0.032475471  0.032421896            8 
 1583000    1.0030929   -6.5596488    618.81296  0.032575961  0.032415031            4 
 1584000   0.98104195   -6.5424345    618.39473  0.032533393  0.032408087            4 
 1585000    1.0126463   -6.5398346    619.37973  0.032564655  0.032401316            5 
 1586000   0.98669325   -6.5423897    618.64428  0.032505479   0.03239448           10 
 1587000   0.98785106   -6.5688702    618.45945  0.032475291  0.032387496            5 
 1588000   0.98597357   -6.5680422    617.79893  0.032420179  0.032380481            3 
 1589000    1.0029141   -6.6063249     619.2943  0.032478199  0.032373461            3 
 1590000    1.0072804    -6.580574    619.60266  0.032473934    0.0323664            3 
 1591000    1.0076789   -6.5479244    622.29324   0.03259445  0.032359575            3 
 1592000    1.0282535   -6.5494984    620.08287  0.032458274  0.032352819            5 
 1593000   0.99977353   -6.5670894    619.79162  0.032422663  0.032346033            4 
 1594000    1.0002731   -6.5809657    619.27568  0.032375349  0.032339098            4 
 1595000   0.98352428   -6.5379509    620.41169  0.032414404   0.03233207            8 
 1596000   0.97458185   -6.5766337    620.50343  0.032398884  0.032325123            7 
 1597000    1.0089459   -6.5694541     621.1311  0.032411349  0.032318168            7 
 1598000   0.97929376    -6.584182    622.01732  0.032437282    0.0323113            7 
 1599000   0.97240991   -6.5843341    621.75084  0.032403108  0.032304408            5 
 1600000   0.98956792   -6.5842993    620.37511  0.032311204  0.032297458            9 
 1601000   0.95834206    -6.574966    622.37381  0.032395056  0.032290455            3 
 1602000   0.99642858   -6.5736903    622.24534  0.032368151   0.03228352            3 
 1603000    1.0142953   -6.5874253    621.24492  0.032295951    0.0322767            3 
 1604000    1.0178648   -6.5420591    623.98427  0.032418135   0.03226971            4 
 1605000   0.98552909   -6.5597244    625.02289  0.032451863  0.032262808            3 
 1606000   0.98673428   -6.5626724    624.71843  0.032415859   0.03225603            5 
 1607000     0.990697   -6.5943015    623.40133  0.032327387  0.032249135            6 
 1608000    1.0003261   -6.5713531    623.04841  0.032288993  0.032242267            4 
 1609000    1.0149875   -6.5481778    625.85619  0.032414346  0.032235455            5 
 1610000   0.98530887   -6.5787705    622.87276  0.032239791  0.032228733            3 
 1611000     1.022762   -6.5680841    623.92514  0.032274216  0.032221885            3 
 1612000   0.98783619   -6.5728701    626.52141   0.03238841  0.032215025            5 
 1613000    1.0125778   -6.5617401     626.4613  0.032365225  0.032208136            3 
 1614000    1.0116199   -6.5677903    624.32776  0.032235014  0.032201262            7 
 1615000   0.99609992   -6.5739424    625.47279  0.032274138  0.032194313            3 
 1616000   0.99434625   -6.5339938    625.50583   0.03225587  0.032187428           13 
 1617000   0.99756875   -6.5702928    626.13821  0.032268512  0.032180481            3 
 1618000    1.0111194   -6.5637934    625.94585  0.032238662  0.032173439            3 
 1619000    1.0034184   -6.5794091    626.27176  0.032235524  0.032166436            7 
 1620000   0.96815205   -6.5894977    627.77362  0.032292882  0.032159403            7 
 1621000   0.99567961   -6.5675757    628.34422  0.032302294   0.03215249            4 
 1622000   0.97689759   -6.5684846    627.31921  0.032229717  0.032145739            4 
 1623000     1.005531   -6.5796254    627.76461  0.032232728  0.032138897            5 
 1624000   0.98552464   -6.5739008    627.68326  0.032208706  0.032131888           10 
 1625000   0.98368249   -6.5712782    629.00378  0.032256604  0.032124977            2 
 1626000    1.0008113   -6.5622654     628.2237  0.032196786  0.032118065           11 
 1627000   0.99340165   -6.5517805    629.15832  0.032224868  0.032111252            7 
 1628000   0.98450386   -6.5832461    629.43683   0.03221933  0.032104367            7 
 1629000   0.98679686   -6.5673077    631.40849  0.032300414  0.032097499            5 
 1630000   0.97864694   -6.5746158    629.23575  0.032169517  0.032090551            4 
 1631000   0.97987984   -6.5613706    629.64205  0.032170553   0.03208363           13 
 1632000    0.9981334   -6.5688471    629.89884  0.032163952  0.032076554            3 
 1633000    1.0019915   -6.6020665    630.51571  0.032175736  0.032069539            4 
 1634000   0.98862853   -6.5677666    630.65962  0.032163383  0.032062612            7 
 1635000    1.0039576   -6.5921036    630.61914  0.032141648   0.03205568            4 
 1636000   0.99731292   -6.5619043    630.21237  0.032101282  0.032048765            8 
 1637000   0.98866424   -6.5805347    632.02692  0.032174044  0.032041845            3 
 1638000   0.98202118   -6.5957158    631.32086  0.032118481  0.032035009            6 
 1639000   0.97562056   -6.5885885    631.53065  0.032109551  0.032027933            9 
 1640000    1.0049746    -6.607464    630.01808  0.032013114  0.032020851            4 
 1641000    1.0008395    -6.599881    631.98547  0.032093513  0.032013792            6 
 1642000   0.96311014   -6.5769489     632.8888  0.032119813  0.032006896            6 
 1643000   0.97056411   -6.5836345    632.70879  0.032091134  0.031999954            6 
 1644000   0.97320679    -6.602528    632.91352  0.032081991  0.031993069            4 
 1645000   0.96761933   -6.5620227    631.18167  0.031974756  0.031986245            2 
 1646000   0.99499685   -6.5996806    632.03996  0.031998783  0.031979289            3 
 1647000   0.98350432    -6.594165    634.98398  0.032128313  0.031972322            2 
 1648000    1.0012767   -6.5837256     633.4571  0.032031609  0.031965407            3 
 1649000   0.99502997   -6.5756922    635.83598  0.032132402  0.031958538            4 
 1650000    0.9765788    -6.584881    634.07803  0.032024143  0.031951506            4 
 1651000    1.0014372   -6.6065135    632.31934  0.031915977  0.031944589            8 
 1652000   0.96304894   -6.5746094    634.31432  0.031997292  0.031937691            6 
 1653000    0.9890454    -6.598361    634.30112   0.03197727  0.031930771            4 
 1654000    1.0076836   -6.5364956    636.74146  0.032080888  0.031923937            5 
 1655000   0.97219995   -6.5880261    634.65682  0.031956537  0.031917106           11 
 1656000   0.96659167   -6.5707042     637.6431  0.032087515  0.031910299            5 
 1657000   0.97668918   -6.5903905    635.38095  0.031954383  0.031903485            3 
 1658000    1.0033408   -6.6011864    637.76433  0.032054902   0.03189667            7 
 1659000   0.99739767   -6.5704724    637.02515  0.031998451  0.031889684            4 
 1660000   0.97500362   -6.5843767    638.26607   0.03204147  0.031882798            5 
 1661000   0.98269757   -6.5909357    638.73796  0.032045854  0.031875942            3 
 1662000   0.97319828   -6.6064497    636.70455  0.031924616  0.031869082            4 
 1663000   0.96423645   -6.5634145    638.53273   0.03199703  0.031862146            6 
 1664000   0.96776667    -6.575931    636.47562  0.031874781   0.03185516            5 
 1665000   0.96432031   -6.5850489    636.59279  0.031861501  0.031848323            6 
 1666000   0.97144711   -6.5801363     639.0945  0.031967512  0.031841452            4 
 1667000    0.9765335   -6.5452412    640.04322  0.031995762   0.03183449            6 
 1668000   0.97999869   -6.5675878    639.03064  0.031925991  0.031827553            4 
 1669000   0.98323664   -6.5660227    638.95162  0.031902917  0.031820702            8 
 1670000   0.99429193    -6.576654     640.0806   0.03194015  0.031813741           15 
 1671000   0.96678234   -6.6026235    640.87538  0.031960671   0.03180682           12 
 1672000   0.97791497   -6.6014937    638.03319    0.0317999  0.031799873            7 
 1673000   0.97249419   -6.5728604    640.34157  0.031895874  0.031792924            5 
 1674000   0.98711817   -6.6053828    639.68646  0.031844209  0.031785971           17 
 1675000   0.98788179   -6.6185344    640.30286  0.031855864   0.03177901            4 
 1676000   0.98012793    -6.614282    640.75944  0.031859558  0.031772064            9 
 1677000    0.9718033   -6.5668915     640.8032  0.031842735  0.031765055            4 
 1678000   0.98800479   -6.6094271    641.87625  0.031877048  0.031757919            5 
 1679000   0.97777832   -6.5864596    639.33675  0.031732021  0.031750767            4 
 1680000    1.0030858   -6.6347211    638.65744  0.031679437  0.031743645            5 
 1681000   0.99505607   -6.5530515    640.13117  0.031733649  0.031736493            5 
 1682000   0.97619461    -6.582115    642.03414  0.031809064  0.031729427            5 
 1683000   0.96667654   -6.6015885    641.88839  0.031782947  0.031722286            6 
 1684000   0.98818871   -6.5969474    643.40423  0.031839085  0.031715252           11 
 1685000   0.97284364   -6.6095338    641.24987  0.031713644  0.031708145            9 
 1686000   0.99268407   -6.5830703    642.43404  0.031753363  0.031701083            4 
 1687000     1.000809   -6.5825313    642.04066  0.031715109  0.031693954            7 
 1688000   0.95355667   -6.5895904    641.84135   0.03168648  0.031686793            3 
 1689000   0.97893634   -6.6043342    642.46416  0.031698449  0.031679591            5 
 1690000   0.97184267   -6.5846541    644.85136  0.031797405   0.03167234            6 
 1691000   0.99065318   -6.5922685    642.72151   0.03167364  0.031665168            8 
 1692000   0.98814273   -6.5760189     643.2557   0.03168123   0.03165799            4 
 1693000    1.0075189   -6.5632198    645.83071  0.031789265  0.031650792            7 
 1694000   0.95918823   -6.5811472    643.54936  0.031658272  0.031643677            6 
 1695000   0.98264309   -6.6010586    643.84155   0.03165396  0.031636523            8 
 1696000   0.99638354   -6.5846195     643.9463  0.031640443  0.031629337            6 
 1697000   0.98736803   -6.6421605    644.08667  0.031628691   0.03162218            5 
 1698000   0.98553917   -6.6001701    645.28009  0.031668634  0.031615019            3 
 1699000   0.95155449   -6.5930812    644.58094  0.031615702  0.031607863            5 
 1700000    0.9918221   -6.5912781    644.53791  0.031594995  0.031600667            6 
 1701000   0.98980185    -6.584218    644.96379  0.031597285  0.031593505            5 
 1702000   0.98682081   -6.6026075    643.78248  0.031520881  0.031586415            5 
 1703000   0.98522759   -6.6124898    646.06618  0.031614121  0.031579179            7 
 1704000   0.96092577   -6.5970535    646.62479  0.031622887  0.031571844           13 
 1705000   0.98658313   -6.6123908    646.32849  0.031589858  0.031564577            8 
 1706000   0.96726275   -6.6039704     645.2546  0.031518884   0.03155733            6 
 1707000   0.98882545    -6.626481    646.29073  0.031551002  0.031550019            6 
 1708000   0.95463985   -6.6095438    645.03176  0.031471105  0.031542736            5 
 1709000    1.0027192   -6.6074733    646.69401  0.031533743  0.031535463            9 
 1710000   0.99184554   -6.6298364    646.09875  0.031486294  0.031528221            7 
 1711000   0.98445795   -6.5773425    649.41239   0.03162928  0.031521077            4 
 1712000   0.98086554   -6.6037242    648.08864  0.031546371  0.031513782            5 
 1713000   0.97863839    -6.624055    646.38165  0.031444914   0.03150648            2 
 1714000    0.9811954   -6.5828153    646.94862  0.031454133  0.031499162           15 
 1715000   0.99122174   -6.6026643    649.08666  0.031539682  0.031491861            2 
 1716000   0.97317717   -6.6136603     648.4713  0.031491419   0.03148462           11 
 1717000   0.97749843   -6.5867639     648.4649  0.031472767  0.031477299            9 
 1718000   0.97143003   -6.5987689    647.42905  0.031404203   0.03146992           10 
 1719000   0.99252959   -6.6278364    648.26789  0.031426599  0.031462551            7 
 1720000   0.97602059   -6.6277014    649.22929  0.031454908  0.031455235            6 
 1721000   0.95944557   -6.6370705    650.06246  0.031476974  0.031447733            5 
 1722000   0.97008542   -6.6049388    648.72985  0.031394205  0.031440313            6 
 1723000   0.97802869    -6.610016    648.95235  0.031386745  0.031432847            2 
 1724000   0.98715881   -6.5872048    649.09835  0.031375597  0.031425508            6 
 1725000   0.97354365   -6.6191416    649.43986  0.031373906  0.031418057            5 
 1726000   0.97182587   -6.5910806    651.20703   0.03144105  0.031410733            5 
 1727000   0.98468764   -6.5978187      648.757  0.031304623   0.03140335            3 
 1728000   0.96952222   -6.6268527    650.07473  0.031350055  0.031395914            5 
 1729000   0.98600294   -6.6296844    652.78338  0.031462473  0.031388624            5 
 1730000   0.95592219   -6.6125279    651.81627  0.031397701  0.031381263            6 
 1731000   0.99118996   -6.6396974    651.25396  0.031352492   0.03137396            2 
 1732000   0.98151128   -6.6032382    651.71618  0.031356629  0.031366591            4 
 1733000   0.98019701   -6.6100509    653.26143   0.03141284   0.03135925            4 
 1734000    0.9899718    -6.596297    653.24818  0.031394088  0.031351917            3 
 1735000   0.98004431    -6.572133    652.23579  0.031327367  0.031344648           12 
 1736000   0.97237698    -6.611109    651.66641   0.03128199  0.031337315            4 
 1737000   0.98114856   -6.6110223    653.22275  0.031338647  0.031329837            6 
 1738000   0.97286564   -6.6038703    653.43159  0.031330628   0.03132243            9 
 1739000   0.97028251   -6.6511365    653.12675  0.031298004  0.031314898            6 
 1740000   0.97994979   -6.6338313    652.61383  0.031255452  0.031307334            4 
 1741000   0.96708051   -6.6334567    652.65124   0.03123929  0.031299741            4 
 1742000   0.96920347   -6.5963078    652.05596   0.03119288   0.03129222            7 
 1743000   0.99741105   -6.5879983    651.67694  0.031156863   0.03128467            2 
 1744000    0.9527784   -6.6488973    652.00929  0.031154878   0.03127719            5 
 1745000   0.97792873   -6.6195979    651.24921  0.031100726  0.031269618            8 
 1746000   0.97654258   -6.6209563    652.28683  0.031132437  0.031262013            6 
 1747000    0.9663169   -6.6156221    653.47636  0.031171358  0.031254476            6 
 1748000   0.99807913   -6.6634818    653.47108  0.031153274  0.031246933            4 
 1749000   0.96554236    -6.602093    653.60161  0.031141681  0.031239389            5 
 1750000   0.99174453   -6.6556442    653.96526  0.031141203  0.031231864            6 
 1751000   0.96348487   -6.6242608    652.21556  0.031040146  0.031224262            4 
 1752000   0.96256108   -6.6197045     653.8347  0.031099444  0.031216757            5 
 1753000   0.97123691   -6.6003168    655.77379  0.031173882  0.031209255            5 
 1754000   0.95703591   -6.6126076    655.84104  0.031159304   0.03120184            3 
 1755000    0.9619929   -6.6275984    654.57936  0.031081641  0.031194412            5 
 1756000   0.96212037   -6.6426894    655.92727  0.031127908  0.031186952            5 
 1757000   0.98176022    -6.617477    653.50136  0.030995132  0.031179418            9 
 1758000   0.93994028   -6.6230455     656.2296  0.031106826  0.031171866            4 
 1759000   0.98857321   -6.5989078     655.0072   0.03103123  0.031164297            6 
 1760000     0.977514   -6.6217869      655.933  0.031057434   0.03115662            5 
 1761000   0.96981616   -6.6616118    655.31276  0.031010446  0.031148963            4 
 1762000   0.96074403   -6.6425026    656.09208  0.031029705  0.031141207            5 
 1763000   0.95472297   -6.6117213    656.69322  0.031040519  0.031133471            4 
 1764000   0.97964925   -6.6226408     658.6158  0.031113747  0.031125846            4 
 1765000   0.95901393   -6.6375689    657.05842  0.031022588   0.03111822            3 
 1766000   0.95502234   -6.6355396    656.76173  0.030991021  0.031110589            2 
 1767000   0.96167861   -6.6329836    656.20944  0.030947436  0.031102866            7 
 1768000   0.97203204   -6.6113994    656.81165  0.030958317  0.031095079            4 
 1769000   0.98156685   -6.6225092    656.10692  0.030907618  0.031087232            7 
 1770000    0.9927044   -6.6258702     656.8237  0.030923903  0.031079455            4 
 1771000   0.94814006   -6.6356377    657.81392  0.030953036  0.031071776           10 
 1772000   0.97592964   -6.6313192    657.62294  0.030926587  0.031064017            4 
 1773000   0.95001538   -6.5978265    658.83733  0.030966222  0.031056235            7 
 1774000   0.95496145   -6.6080315    656.63156   0.03084515  0.031048473            2 
 1775000   0.96575602   -6.6147125    655.95929  0.030796211  0.031040711            6 
 1776000   0.96412278   -6.6576759     658.5361  0.030899779  0.031032862            5 
 1777000   0.95837643   -6.6350786    660.46398    0.0309728  0.031025047            4 
 1778000    0.9578874   -6.6086697     659.0074  0.030887111  0.031017278            4 
 1779000   0.95300677   -6.6106825     659.0297  0.030870793  0.031009571            6 
 1780000   0.94265399     -6.58561    662.17415  0.031000662  0.031001882            5 
 1781000   0.95428757   -6.6158895    659.38095  0.030852562  0.030994207            7 
 1782000   0.95333881   -6.6426051    660.74067  0.030898834  0.030986475            7 
 1783000   0.95933228   -6.6207009    660.95064  0.030891318  0.030978816            3 
 1784000   0.93320124   -6.6113442    660.49252  0.030852603  0.030971031            3 
 1785000   0.97071694   -6.6512257    659.65963  0.030796435  0.030963307            5 
 1786000   0.96563857   -6.6102236    660.53178  0.030819885  0.030955551            4 
 1787000   0.97129458   -6.6141709    661.42445  0.030844266  0.030947883            9 
 1788000   0.96670343   -6.6106674    661.36308  0.030824155  0.030940179            5 
 1789000   0.95791274   -6.6480337    660.59009  0.030770919  0.030932479            8 
 1790000   0.96925388   -6.6128975    661.38465  0.030790719  0.030924737            2 
 1791000   0.98523451   -6.6170726    661.36682  0.030772698  0.030916946            9 
 1792000   0.96474435   -6.6285826    663.00717  0.030831807  0.030909149            5 
 1793000   0.94913698   -6.6520033    660.62111  0.030703714  0.030901322            8 
 1794000   0.93881895   -6.6400961    662.52631  0.030775098  0.030893443            6 
 1795000   0.95830471   -6.6193017     662.8943  0.030775037  0.030885581            5 
 1796000   0.98616659   -6.6076932    660.96909  0.030668573  0.030877735            6 
 1797000   0.95794897   -6.6275507    663.39159  0.030763847  0.030869862            4 
 1798000    0.9507797   -6.6244771    662.92953  0.030725321  0.030861946           11 
 1799000   0.98497239   -6.6011808    663.50885  0.030735077  0.030854104            8 
 1800000   0.95907159   -6.6294661    663.61808  0.030723059   0.03084641            6 
 1801000   0.96275103   -6.6204656    663.49465  0.030700289  0.030838721            6 
 1802000   0.93224817   -6.6618955    663.65366  0.030690606   0.03083091            7 
 1803000   0.97323812   -6.5822037    665.11432  0.030741094  0.030823167            8 
 1804000   0.96778116   -6.6163782    664.67964  0.030703974  0.030815495            4 
 1805000    0.9529302   -6.6412863    664.38657  0.030673433   0.03080774            6 
 1806000   0.97374416   -6.6315659    665.95802   0.03072896   0.03080014            4 
 1807000   0.95694631   -6.6252472    665.39343  0.030685917  0.030792476            5 
 1808000   0.97303141   -6.6230154    664.92451  0.030647332  0.030784847            5 
 1809000   0.96660519   -6.6625956    664.56351   0.03061376  0.030777197           17 
 1810000   0.97419266   -6.6262778    666.73308  0.030696735  0.030769487            4 
 1811000   0.95750339   -6.5958302    666.48872   0.03066854  0.030761837            6 
 1812000   0.96582953   -6.6220965    667.13245   0.03068122  0.030754312            3 
 1813000    0.9741821   -6.6627104    664.52369  0.030544387  0.030746654            7 
 1814000    0.9373196   -6.6435872    666.61588  0.030623662  0.030738934            3 
 1815000   0.95930886   -6.6301587    665.98111  0.030577645   0.03073113            8 
 1816000   0.96002765   -6.6559779    667.74515  0.030641756  0.030723442            4 
 1817000   0.95190514   -6.6403307    665.88597  0.030539624  0.030715743            8 
 1818000   0.97368186   -6.6112808    666.35427  0.030544292  0.030707972            3 
 1819000   0.95522033    -6.612431    667.15258  0.030564073  0.030700172            9 
 1820000   0.95872056   -6.6503537    667.18334  0.030548688  0.030692402            5 
 1821000   0.97790112   -6.6309085    668.15806  0.030576518  0.030684621            6 
 1822000    0.9616496   -6.6343178    667.80789   0.03054372  0.030676857            4 
 1823000    0.9436526    -6.617504    667.35391  0.030506213  0.030669164            5 
 1824000   0.95982376   -6.6210584     667.4862  0.030495532  0.030661368            8 
 1825000   0.95863054   -6.6343171    670.06628  0.030596634  0.030653557            6 
 1826000   0.95381943   -6.6300583    669.12138  0.030536755  0.030645765            5 
 1827000   0.96919777    -6.628255    668.34407  0.030484586  0.030637946            6 
 1828000   0.96251477    -6.616146    668.71013  0.030484597   0.03063017            5 
 1829000   0.97341457   -6.6269355    669.44071  0.030501217  0.030622402            4 
 1830000    0.9761623   -6.6768032    668.02934  0.030420279  0.030614707            7 
 1831000   0.95863986    -6.638132    670.50974  0.030516555  0.030607005            4 
 1832000   0.95106579   -6.6641282    670.02406  0.030477805  0.030599293            5 
 1833000   0.96044485   -6.6436689    670.72334  0.030492969  0.030591629            3 
 1834000    0.9444677   -6.6146903    672.87612   0.03057416  0.030584046            4 
 1835000   0.95761719   -6.6253499    672.93026  0.030559957  0.030576402            2 
 1836000   0.96035135   -6.6601106    671.00846  0.030456085  0.030568764            5 
 1837000   0.95978262   -6.6272627     670.9779  0.030438119  0.030561177            7 
 1838000   0.94937855   -6.6470466    672.05919  0.030470583  0.030553461            6 
 1839000   0.95635942   -6.6308149    672.08153  0.030455027  0.030545877            6 
 1840000   0.96966979   -6.6456977    673.26965  0.030492285  0.030538297            4 
 1841000   0.99030339   -6.6336919     673.6858  0.030494559  0.030530757            4 
 1842000   0.94915938    -6.640093    672.58502  0.030428204  0.030523179            9 
 1843000   0.97506595   -6.6141519    674.09232  0.030479848  0.030515673            8 
 1844000   0.94546921   -6.6610793     672.2831  0.030381557  0.030508182            6 
 1845000   0.94069604   -6.6422963    674.08466  0.030446462  0.030500659            3 
 1846000   0.97137964   -6.6238044    674.71841  0.030458578  0.030493139            4 
 1847000   0.96641088   -6.6557305    674.88666  0.030449678  0.030485689            3 
 1848000   0.93670554   -6.6174963    676.14441  0.030489918  0.030478162            4 
 1849000   0.94982005   -6.6459366    673.44764  0.030351886  0.030470647            6 
 1850000   0.96624822   -6.6108339    677.04241  0.030497406   0.03046314            3 
 1851000   0.99283417   -6.6009098    673.31952  0.030313322  0.030455671            6 
 1852000   0.94808644   -6.6713245      674.237  0.030338238  0.030448076            3 
 1853000   0.95857626   -6.6817174    676.00711  0.030401471  0.030440461            6 
 1854000   0.95681276   -6.6394933    676.51197  0.030407766   0.03043287            5 
 1855000   0.94351247   -6.6358625    676.73635  0.030401453  0.030425393            5 
 1856000   0.97238371   -6.6538929    675.89117  0.030347125  0.030417822            8 
 1857000   0.95046913   -6.6659002    675.47289  0.030312013  0.030410302            4 
 1858000   0.98993682    -6.653559    676.00221  0.030319439  0.030402641            6 
 1859000   0.96610222   -6.6394373    675.82184  0.030295044  0.030395094            5 
 1860000   0.97004697   -6.6659339    677.81849  0.030368212  0.030387514            7 
 1861000   0.95768427   -6.6466425    677.15208  0.030322053  0.030379926            4 
 1862000   0.95653103   -6.6439733    677.18069  0.030307048  0.030372334            8 
 1863000    0.9698761    -6.660225    677.90299   0.03032309  0.030364821            7 
 1864000   0.96997089   -6.6676596    677.19572  0.030275202  0.030357182           10 
 1865000   0.98366667   -6.6633854    677.65771  0.030279612  0.030349589            8 
 1866000   0.93454264   -6.6340587    678.82506  0.030315517  0.030342064            9 
 1867000   0.97196076   -6.6303718    678.62656   0.03029042  0.030334569            5 
 1868000   0.96689348   -6.6212662    681.06311  0.030382901  0.030327045            6 
 1869000   0.94878732   -6.6802904    678.98021  0.030273774  0.030319513            5 
 1870000   0.93501749   -6.6481463    681.41761  0.030366203  0.030311927            5 
 1871000   0.95783672   -6.6336578    678.22153  0.030207622  0.030304459            2 
 1872000   0.95461236   -6.6734825    679.05247  0.030228475  0.030296996            8 
 1873000   0.93070203   -6.6663002    679.46186  0.030230551  0.030289484           13 
 1874000   0.94618383   -6.6483066    680.68283  0.030268713  0.030281988            4 
 1875000   0.96018508   -6.6356567     680.7192  0.030254187   0.03027452            6 
 1876000   0.95589069   -6.6520601     680.9085  0.030246469  0.030267065           11 
 1877000   0.93651281   -6.6539774    682.35593  0.030294616  0.030259581            5 
 1878000    0.9655125   -6.6520797     680.8538   0.03021183   0.03025214           11 
 1879000   0.93594852   -6.6582157     681.1087  0.030207056  0.030244616            5 
 1880000   0.96005191   -6.6625218    679.55468  0.030122105  0.030237021           12 
 1881000   0.94458623   -6.6423422     683.1769  0.030266565  0.030229485            9 
 1882000    0.9683973   -6.6314085    682.40862  0.030216464  0.030221977            4 
 1883000   0.93474958    -6.627524    682.58778  0.030208346  0.030214532            3 
 1884000   0.94402277   -6.6781354    681.81303  0.030158043  0.030207013           12 
 1885000   0.95278509   -6.6583701    681.00854  0.030106479  0.030199547            4 
 1886000    0.9503414   -6.6326824      684.147  0.030229189  0.030192016           10 
 1887000   0.96740035   -6.6495823     683.8272  0.030199046  0.030184594            7 
 1888000   0.96577291    -6.654717    681.85036  0.030095796  0.030177159            2 
 1889000   0.95493796   -6.6923416    682.58287  0.030112179  0.030169669            5 
 1890000    0.9507423   -6.6244789    684.15604   0.03016561  0.030162342            5 
 1891000   0.94022522   -6.6591152    682.32331  0.030068892  0.030154904            5 
 1892000   0.96029022    -6.682477     683.2016  0.030091684  0.030147466            6 
 1893000   0.95275588   -6.6753697    683.53422  0.030090431  0.030139976            6 
 1894000   0.96469825   -6.6582324    683.35283  0.030066562   0.03013255            5 
 1895000   0.95485122   -6.6450879    686.22151  0.030176847  0.030125155            6 
 1896000   0.94452233    -6.635555    686.17294  0.030158797  0.030117752            5 
 1897000   0.92973284   -6.6526117    686.50306    0.0301574  0.030110324            6 
 1898000   0.95832101    -6.650405    684.85074  0.030068965  0.030102964            3 
 1899000     0.959282   -6.6577277    686.57049  0.030128598   0.03009559            7 
 1900000   0.96108584    -6.649758    685.97344  0.030086554  0.030088229           10 
 1901000    0.9582283   -6.6450431    685.93259  0.030068937  0.030080786            3 
 1902000   0.95550384   -6.6411425    686.59741  0.030082256  0.030073373            6 
 1903000   0.95354953   -6.6592222    687.98347  0.030127145  0.030065978            3 
 1904000   0.92839891   -6.6417116    686.88309   0.03006316  0.030058573            7 
 1905000   0.95194456   -6.7123519    687.26707  0.030064176  0.030051159            5 
 1906000   0.93739925   -6.6731708    686.35739   0.03000863   0.03004369            4 
 1907000   0.95820267   -6.6685787    685.46555  0.029953922  0.030036224            9 
 1908000   0.95453348   -6.6766711    687.29711  0.030018217  0.030028713            5 
 1909000   0.93568352   -6.6609823    688.11587  0.030038234   0.03002131            3 
 1910000   0.94788122   -6.6812341    686.46762  0.029950594   0.03001393            6 
 1911000   0.94120149   -6.6576287    687.60128  0.029984357  0.030006543            4 
 1912000   0.96137028   -6.6335259    689.89325  0.030068569  0.029999179            5 
 1913000   0.96322693   -6.6516793    688.91756  0.030010348  0.029991887            3 
 1914000   0.92254252   -6.6835968    688.10157  0.029959142  0.029984564            6 
 1915000   0.95834401     -6.68517    689.64757  0.030010773  0.029977191            8 
 1916000   0.94182607   -6.6649793    687.85479  0.029917136  0.029969865            6 
 1917000   0.92912239   -6.6393648    688.26155  0.029919212  0.029962512           16 
 1918000   0.93940451   -6.6587732    689.57562  0.029960706  0.029955155            3 
 1919000   0.93900966   -6.6870309    689.03969  0.029921821  0.029947709            4 
 1920000   0.94903154   -6.6929085    689.14114   0.02991064   0.02994025            4 
 1921000    0.9389669   -6.6599976    690.00577  0.029932577   0.02993278            4 
 1922000    0.9531275   -6.6238184    692.25364  0.030014466  0.029925412            4 
 1923000   0.95093983   -6.6889684    690.77271  0.029934681  0.029918064           11 
 1924000   0.97231195   -6.6668725    690.58735  0.029911094  0.029910707           10 
 1925000   0.94446759   -6.6441519    691.78585  0.029947439  0.029903452            7 
 1926000   0.94945163   -6.7007975    691.05018   0.02990006  0.029896084            6 
 1927000   0.94083401    -6.702164    692.09189  0.029929592  0.029888689           10 
 1928000   0.93057006   -6.6871972    691.05261  0.029869148  0.029881394            7 
 1929000   0.94052247   -6.7098175    693.04965  0.029939937   0.02987403            4 
 1930000   0.94738021   -6.6793994    692.82459  0.029914706  0.029866738            6 
 1931000   0.93785594   -6.6704248    694.82201  0.029985414   0.02985954            4 
 1932000   0.93172401   -6.6809163    690.31979  0.029775698  0.029852288            8 
 1933000   0.92838139   -6.7057191    692.73598  0.029864458  0.029844919            5 
 1934000   0.97201779   -6.6547618    694.15239  0.029910048  0.029837664            6 
 1935000   0.94793039   -6.6501763    693.80318  0.029879551   0.02983054            3 
 1936000   0.94330898   -6.6745803    693.92409  0.029869322  0.029823257            4 
 1937000    0.9439346   -6.6587133    694.79052  0.029891177  0.029816071            9 
 1938000    0.9164695   -6.6484042    693.74584  0.029830832   0.02980891            4 
 1939000   0.93655803    -6.671521    694.33179  0.029840631  0.029801608            5 
 1940000   0.92086564   -6.6528063    695.19931  0.029862513  0.029794351            5 
 1941000   0.94129697   -6.6774921     695.7272  0.029869792  0.029787185            5 
 1942000   0.92675713    -6.703241    694.19886  0.029788828  0.029779973           17 
 1943000     0.954504   -6.6823195    694.20473  0.029773749  0.029772686            3 
 1944000   0.93266188   -6.6726495    693.92706   0.02974653  0.029765397            6 
 1945000    0.9490169    -6.675285    695.61761  0.029803668  0.029758138            8 
 1946000   0.92340768   -6.6817679    694.47565  0.029739451  0.029750914           10 
 1947000   0.95607634    -6.675665    697.11952  0.029837336   0.02974371            4 
 1948000   0.93588973    -6.674115    697.42556  0.029835111  0.029736506            8 
 1949000   0.94719444   -6.6731678    696.48236  0.029779475  0.029729228            9 
 1950000   0.96750298   -6.6829646    695.37698  0.029716965  0.029721994           14 
 1951000   0.94800773   -6.6638664    695.77449  0.029718712  0.029714766            5 
 1952000    0.9411772   -6.6623457    694.17227  0.029635086  0.029707427            6 
 1953000   0.93604071   -6.6821306    697.49397  0.029761647  0.029700164           14 
 1954000   0.95220352   -6.6975047    696.17043  0.029689971   0.02969287            4 
 1955000   0.93241366   -6.6719923    696.02877  0.029668746  0.029685615            6 
 1956000   0.94491416   -6.6649758    697.43256  0.029713384  0.029678313            7 
 1957000   0.92056944   -6.7054007    694.67949   0.02958097  0.029671022            6 
 1958000   0.95003341   -6.6732494    698.17346  0.029714567  0.029663708            4 
 1959000   0.95890549   -6.6323489    698.25097  0.029702696  0.029656484            5 
 1960000   0.94655823   -6.6653984    699.08973  0.029723203   0.02964924            3 
 1961000   0.94858374   -6.6815839    698.29124  0.029674114   0.02964192            7 
 1962000   0.94849118   -6.6658553    699.32012  0.029702689  0.029634608            7 
 1963000   0.92650727   -6.6739943    698.87038  0.029668466  0.029627278            6 
 1964000   0.93801535   -6.6550799    698.91641  0.029655313  0.029620063            3 
 1965000   0.93974902     -6.69006    700.31661  0.029699602  0.029612831            8 
 1966000   0.91987943   -6.7040323    700.22275  0.029680517  0.029605538            5 
 1967000   0.95782166   -6.6713177    700.61783  0.029682165  0.029598257            9 
 1968000   0.94319619   -6.6772683    699.35156  0.029613464  0.029590972            9 
 1969000   0.94125659   -6.6716839    699.47351  0.029603585  0.029583729            4 
 1970000   0.94342813   -6.6756923    700.63172  0.029637552  0.029576475            6 
 1971000   0.94880664   -6.7038361    697.89929  0.029506988  0.029569203            4 
 1972000   0.93934976   -6.6597073    700.22543  0.029590324  0.029561942            8 
 1973000   0.93117072   -6.7022265    700.80425  0.029599774  0.029554797            5 
 1974000   0.92801486   -6.6727656    701.27217  0.029604533  0.029547596            6 
 1975000   0.94126892   -6.6965487     701.0736  0.029581164  0.029540324            4 
 1976000   0.94007008   -6.6622418    702.85261   0.02964122  0.029533091            7 
 1977000     0.928446   -6.6626612    701.78395  0.029581181    0.0295259            5 
 1978000   0.93257307    -6.680079    700.76536  0.029523313   0.02951868            3 
 1979000   0.95359843   -6.6598577    700.41733   0.02949374  0.029511417           12 
 1980000   0.94594342   -6.6914893    701.84989  0.029539137  0.029504118            5 
 1981000   0.95142502   -6.7207973    703.07055  0.029575574  0.029496877           11 
 1982000   0.93533039    -6.702885    701.27569  0.029485187  0.029489513            2 
 1983000   0.93009016    -6.654523    701.47528  0.029478706  0.029482286            7 
 1984000   0.93444821   -6.6814376    702.06373  0.029488564  0.029475046            6 
 1985000    0.9242858   -6.6867686    699.65709  0.029372674  0.029467746            8 
 1986000   0.92005917   -6.6969934    700.53746  0.029394825  0.029460425           10 
 1987000   0.94347106   -6.7136465    702.14581  0.029447484  0.029453078            9 
 1988000   0.94345554   -6.6792538    702.89916  0.029464251  0.029445747            3 
 1989000    0.9318887   -6.7027849    703.78545   0.02948657   0.02943853            4 
 1990000    0.9257915   -6.6893931    705.12166  0.029527708  0.029431319            7 
 1991000   0.92916885   -6.7286794     702.6391  0.029408969  0.029424098            5 
 1992000   0.93253892   -6.7100299    704.34986  0.029465774  0.029416861            9 
 1993000   0.92200418    -6.666713    705.37456  0.029493835  0.029409595           11 
 1994000    0.9131941   -6.6888913    705.07416   0.02946649  0.029402356            8 
 1995000   0.92236598   -6.6822598    706.65909  0.029517924  0.029395151            7 
 1996000    0.9240227   -6.7024081    703.64905  0.029377465   0.02938785            4 
 1997000   0.92733622   -6.6586322    705.32792  0.029432812  0.029380552            5 
 1998000   0.92749978     -6.68551    704.92695  0.029401357  0.029373327            3 
 1999000   0.94026886   -6.6751842    706.86913  0.029467614  0.029366086            8 
 2000000   0.95030256   -6.6871671     705.5085  0.029396187  0.029358893            3 
 2001000   0.93543338   -6.6980893    705.64923  0.029387358  0.029351678            8 
 2002000   0.91802301   -6.6751416    706.85377  0.029422817  0.029344416            6 
 2003000    0.9357035   -6.6998393    705.90641  0.029368714  0.029337264            7 
 2004000   0.94554922   -6.6869119     706.0617  0.029360516  0.029330065            6 
 2005000   0.94630568   -6.7111221    706.67928  0.029371541  0.029322846            6 
 2006000    0.9387693   -6.6804065    706.82479  0.029362944  0.029315712            9 
 2007000   0.92681528   -6.7139552    707.09101  0.029359368  0.029308547            4 
 2008000   0.92600059   -6.6656154    708.04037  0.029384146  0.029301353            3 
 2009000   0.92829477   -6.6717714    707.90141  0.029363755  0.029294158            2 
 2010000   0.95122564   -6.6699391    708.84812  0.029388396  0.029286981            4 
 2011000   0.93606935   -6.7357681    709.35514  0.029394793  0.029279798            8 
 2012000   0.94432734   -6.6754153    708.91746  0.029362055   0.02927268            4 
 2013000   0.92526373    -6.686011    710.66127  0.029419659  0.029265562            7 
 2014000   0.92513377   -6.7155514    707.13247   0.02925904   0.02925843           12 
 2015000   0.93981535   -6.6727515    710.24308  0.029373163  0.029251315            7 
 2016000   0.95441208   -6.7055082    710.29753  0.029360844  0.029244274            8 
 2017000   0.94365233   -6.6866849    710.07788  0.029337212  0.029237205            6 
 2018000   0.92357089   -6.7001531     707.5436  0.029218021   0.02923011            6 
 2019000   0.93976898   -6.7076778    707.95174  0.029220395  0.029222961            7 
 2020000   0.93838385   -6.6631071     711.7522  0.029362715  0.029215865            8 
 2021000   0.93371479   -6.6807516    709.53456  0.029256744  0.029208774            5 
 2022000   0.92912143   -6.6953645     711.3542  0.029317269   0.02920164           18 
 2023000   0.92200273   -6.6880801    710.67023  0.029274602  0.029194428            3 
 2024000   0.93128214    -6.704858    710.18213  0.029240041  0.029187276            7 
 2025000   0.92642023   -6.6882396    711.80899  0.029292551  0.029180169            8 
 2026000   0.93430296   -6.6970226    711.24741  0.029254994  0.029173052            8 
 2027000   0.93154812   -6.6827617    712.91664  0.029309186   0.02916593            3 
 2028000   0.92681529   -6.7070865    712.34031  0.029271051  0.029158955            3 
 2029000    0.9160416   -6.7051758     712.2941  0.029254727  0.029151943            5 
 2030000   0.92225671   -6.6935548    712.93927  0.029266801  0.029144834            4 
 2031000   0.93357625   -6.6915681    715.12776  0.029342186  0.029137829            6 
 2032000   0.93124361   -6.7047362    711.76529   0.02918985  0.029130854            5 
 2033000   0.92811586   -6.7034748    713.77088  0.029257701  0.029123866            4 
 2034000   0.91613938   -6.7237689    711.17184  0.029136834  0.029116861            4 
 2035000   0.93210975   -6.6939898    714.06979  0.029241187  0.029109807           14 
 2036000   0.92104991   -6.7342931    712.22101  0.029151155  0.029102823            9 
 2037000   0.92686314   -6.7165227    714.88345  0.029245764  0.029095856            4 
 2038000   0.92380687   -6.6876695    713.77328  0.029186019  0.029088942            5 
 2039000   0.92029747   -6.6934765    716.04918   0.02926472  0.029081888            3 
 2040000   0.94183799   -6.6897828     713.9859  0.029166091  0.029074943            8 
 2041000   0.93273096   -6.6698884    714.58588  0.029176298  0.029068005           10 
 2042000   0.92080837   -6.6873096    716.60267  0.029244314  0.029061099            6 
 2043000   0.91571557   -6.6610682    716.90879  0.029242486  0.029054143            8 
 2044000   0.93141059   -6.6874231    715.04713   0.02915228  0.029047262            2 
 2045000   0.91874344   -6.6799576    715.60546  0.029160777  0.029040317            7 
 2046000    0.9261193   -6.7091581    714.69236  0.029109333  0.029033327            6 
 2047000   0.91767781    -6.698685    715.79749  0.029140103  0.029026366            2 
 2048000   0.93058249   -6.7192428    714.75149  0.029083313  0.029019299            4 
 2049000   0.91172543   -6.7132329    715.48386  0.029098904  0.029012313            5 
 2050000   0.92383164   -6.7045049     718.0836   0.02919039  0.029005333            3 
 2051000    0.9208028   -6.7356906    716.54224  0.029113531  0.028998316            7 
 2052000   0.93674325   -6.6822584    717.32493  0.029131129  0.028991322           14 
 2053000   0.91838907   -6.7341588    717.96211  0.029142803  0.028984374            7 
 2054000   0.92696816   -6.6887003    717.32438  0.029102742  0.028977424            5 
 2055000    0.9132158   -6.7047472    716.91014  0.029071782   0.02897042            7 
 2056000   0.92055618   -6.6991234     717.4562  0.029079775  0.028963437            6 
 2057000   0.93507714   -6.7133987    719.36232  0.029142858  0.028956433           13 
 2058000   0.92636086   -6.7071204    718.74941   0.02910388  0.028949457            5 
 2059000   0.91552026   -6.7081483    717.66289   0.02904577  0.028942438            5 
 2060000   0.92719635   -6.7410937     717.4664  0.029023722  0.028935429            8 
 2061000   0.91769902   -6.7318231    719.39281  0.029087531  0.028928409           13 
 2062000   0.93753833   -6.7280494    718.83448   0.02905086  0.028921425            8 
 2063000   0.91607778   -6.6702644    721.95941  0.029163007  0.028914602            8 
 2064000    0.9109532   -6.7022498    719.43937  0.029047132   0.02890784            5 
 2065000   0.89728311   -6.7115748      719.321  0.029028289  0.028900958            6 
 2066000   0.92739406   -6.7253833    720.79919  0.029073862  0.028894031            5 
 2067000   0.92283926   -6.7153985    720.88486   0.02906325  0.028887105           10 
 2068000   0.92840249   -6.7396529    718.72156  0.028962023  0.028880173            4 
 2069000   0.93176016   -6.7012375    720.20581  0.029007806   0.02887328            9 
 2070000   0.92195964    -6.674854    721.96473  0.029064603   0.02886644           12 
 2071000   0.90744728   -6.7185123    719.04712  0.028933169  0.028859513            4 
 2072000   0.92270701   -6.6951934    721.44299  0.029015564  0.028852574            2 
 2073000   0.91109429   -6.7054838    722.03919  0.029025534  0.028845683            7 
 2074000   0.93116164   -6.7145657    719.41131  0.028905951   0.02883874            5 
 2075000    0.9133335   -6.7170732    720.05007  0.028917673  0.028831823           12 
 2076000   0.92844292   -6.7390976    721.57519  0.028964964  0.028824834            8 
 2077000    0.9342985    -6.703484    721.03286  0.028929259  0.028817886            6 
 2078000   0.92259627    -6.719476     723.3456  0.029008085  0.028810974            7 
 2079000   0.93965817   -6.7254623    724.48175  0.029039673   0.02880415            6 
 2080000   0.92805259   -6.7069686    723.48127  0.028985628  0.028797311            9 
 2081000    0.9045762   -6.7097634    722.95246  0.028950523  0.028790498            7 
 2082000   0.91004099    -6.683403    723.04616  0.028940368  0.028783673            7 
 2083000     0.917729   -6.6983281    722.78077  0.028915857  0.028776867           11 
 2084000   0.92816596    -6.705997    726.22172  0.029039576  0.028769993           10 
 2085000   0.92075506   -6.7341036    724.64708  0.028962713  0.028763089            5 
 2086000   0.89334048   -6.7328738    723.10309  0.028887148  0.028756205            5 
 2087000   0.90992738   -6.7285238    722.50882  0.028849578  0.028749333            6 
 2088000   0.91739912   -6.7258254    724.62505  0.028920221  0.028742427            6 
 2089000   0.93115069   -6.7733425    721.60975  0.028786092  0.028735549            3 
 2090000   0.93587503   -6.6992896    723.46386  0.028846246  0.028728603            6 
 2091000   0.92031136    -6.741886    722.96409  0.028812534   0.02872167           12 
 2092000    0.9193744   -6.7450372    725.02763   0.02888096  0.028714709            4 
 2093000   0.92124724   -6.7301981    725.30251  0.028878106  0.028707774           15 
 2094000   0.91776108   -6.7074406    725.53821  0.028873695  0.028700865            5 
 2095000   0.90000762   -6.6918164    724.52025  0.028819421  0.028693947            5 
 2096000   0.92949014   -6.7528904    724.46403  0.028803436  0.028686989           12 
 2097000   0.90207777   -6.7186182    725.00147  0.028811058  0.028679941            9 
 2098000   0.92213318   -6.7077975    724.11543  0.028762132  0.028672987            7 
 2099000   0.92871336   -6.6925656    724.53247  0.028764986  0.028665986            3 
 2100000   0.91728369   -6.7261018     723.2223  0.028699298  0.028658894            7 
 2101000   0.89925871   -6.7320661     723.0964  0.028680644  0.028651771           12 
 2102000   0.91461216   -6.7371829    724.19347  0.028710493  0.028644648            5 
 2103000   0.92009536   -6.7342967    722.90373  0.028645733  0.028637544            8 
 2104000   0.91389551   -6.7275071    724.58481  0.028698701  0.028630505            6 
 2105000   0.89900903   -6.7285259    725.44681  0.028719193  0.028623454            4 
 2106000   0.93819548    -6.722747    727.36937  0.028781631  0.028616393            3 
 2107000   0.92071715    -6.730582     725.0496  0.028676222  0.028609303            6 
 2108000   0.91752742    -6.698634    726.27619  0.028711108  0.028602253            8 
 2109000    0.9021992   -6.7373453     724.2475  0.028617335  0.028595082            8 
 2110000   0.88625368   -6.7184741    725.65849  0.028659498   0.02858792            5 
 2111000   0.91278466   -6.7177549    726.55422  0.028681281  0.028580822            8 
 2112000   0.92607877   -6.7067198    725.73872  0.028635524   0.02857369            6 
 2113000   0.91778504   -6.7096036    726.26614  0.028642772  0.028566576            5 
 2114000   0.89155853   -6.7361018    727.51492   0.02867845  0.028559442            7 
 2115000   0.91148291   -6.7419753    727.11005  0.028648938  0.028552339            6 
 2116000   0.90718449   -6.7191905    729.92392  0.028746216  0.028545343           13 
 2117000   0.91243414   -6.7262758    727.87574  0.028652013  0.028538362           14 
 2118000   0.89882585   -6.6970885    728.11742  0.028647994  0.028531339            3 
 2119000   0.91244723   -6.7481985     726.2516  0.028561098  0.028524305            8 
 2120000   0.91531681   -6.7143941    726.34575  0.028551327  0.028517305            6 
 2121000   0.90646851   -6.7247609    728.02437  0.028603818  0.028510276            8 
 2122000   0.90794172   -6.6853306    730.62961  0.028692649  0.028503251            8 
 2123000   0.93531965   -6.7220767    729.83033   0.02864776  0.028496208            8 
 2124000   0.90772389    -6.733207    728.73043  0.028591119  0.028489204            3 
 2125000    0.9076862   -6.7497504    729.49499  0.028607647  0.028482116            4 
 2126000   0.90658608   -6.7333934    727.93225  0.028532936  0.028475078            3 
 2127000   0.91221808   -6.7177617    729.05031  0.028563325  0.028468041            6 
 2128000   0.90502364   -6.7382838    729.23811  0.028557257  0.028460965            5 
 2129000   0.91665968   -6.7448324    728.76439  0.028525301   0.02845389            5 
 2130000   0.91144893   -6.7408105    729.51203  0.028541159  0.028446795            6 
 2131000   0.90783997   -6.7366347    729.29999  0.028519474  0.028439697           15 
 2132000   0.90278929    -6.713736    728.27114  0.028465883  0.028432582            4 
 2133000   0.90557609   -6.7403047     731.2131  0.028567475   0.02842553            8 
 2134000   0.89712943    -6.720202    730.14209  0.028512265   0.02841848           12 
 2135000    0.9110752   -6.7430859    730.54298  0.028514558  0.028411427           11 
 2136000   0.91671257   -6.7314429    731.79852  0.028550192  0.028404391            5 
 2137000   0.88698888   -6.7541654    730.97341  0.028504657  0.028397402            8 
 2138000   0.90261678   -6.7351406    731.87445  0.028526444  0.028390439            4 
 2139000   0.90000842   -6.7511007    729.55971  0.028422928  0.028383423            8 
 2140000   0.91302553   -6.7483919    730.69102    0.0284537  0.028376415            6 
 2141000   0.91995433   -6.7208158    731.75891  0.028481975  0.028369338            5 
 2142000   0.93409719   -6.7509317    730.08509  0.028403559  0.028362309            8 
 2143000   0.89913145   -6.7114996    730.84205  0.028419741  0.028355224            3 
 2144000   0.92112351   -6.7331571    732.23132  0.028460484  0.028348213            6 
 2145000   0.91379411   -6.7299164    731.07613  0.028402336  0.028341153           13 
 2146000   0.93027006   -6.7506667    732.00562  0.028425195  0.028334035            9 
 2147000   0.91996687   -6.7271573    733.12323  0.028455334  0.028326998            5 
 2148000   0.90548632    -6.716771    732.59446  0.028421573  0.028320013            6 
 2149000   0.91285198   -6.7379815    733.21393  0.028432369  0.028313049            5 
 2150000   0.90088921   -6.7569265    732.52727   0.02839253  0.028306043            9 
 2151000   0.92960792   -6.7193208    732.57146  0.028381042  0.028298994            3 
 2152000   0.91118705   -6.7232681    734.10554  0.028427259  0.028291933            5 
 2153000   0.90961138   -6.7458469    732.65193  0.028357793  0.028284816            9 
 2154000   0.90965972   -6.7278076    732.96293  0.028356659  0.028277738            5 
 2155000   0.90814121   -6.7479844    733.77011  0.028374714  0.028270691            5 
 2156000   0.90144451   -6.7533602    731.97636  0.028292222   0.02826351           18 
 2157000    0.9053913   -6.7328746    734.32311  0.028369769  0.028256358            8 
 2158000   0.90700774   -6.8078015    732.96366  0.028304127  0.028249171            3 
 2159000   0.90186844   -6.7536697    732.55715  0.028275326  0.028241986            8 
 2160000   0.89364414   -6.7024112     735.6066  0.028379884  0.028234755            5 
 2161000   0.90966161   -6.7182001     732.9747  0.028265259  0.028227563            5 
 2162000   0.91689291   -6.7390477    732.21316  0.028222832  0.028220371            8 
 2163000   0.91244669   -6.7291253     733.7977  0.028270831  0.028213156            5 
 2164000   0.88176396   -6.7560656    731.30926   0.02816194  0.028205898           14 
 2165000   0.91916152   -6.7271182    733.98617   0.02825197  0.028198639           10 
 2166000   0.89540446   -6.7649061    732.34514   0.02817579  0.028191373           11 
 2167000   0.92248072   -6.7114373    733.70739  0.028215174  0.028184151            7 
 2168000   0.86437093   -6.7346558    732.07914  0.028139573  0.028176938            5 
 2169000   0.92653616   -6.7381826    735.58045  0.028261121  0.028169808            4 
 2170000     0.911206   -6.7526599    735.35487  0.028239434  0.028162556           10 
 2171000   0.93551266   -6.7776268    734.31108  0.028186361  0.028155309            5 
 2172000   0.90660052   -6.7760053    736.26005   0.02824816  0.028148071            5 
 2173000   0.91534631   -6.7644052    734.73984  0.028176862  0.028140776            4 
 2174000   0.91204498   -6.7478223     733.8867  0.028131198  0.028133522            6 
 2175000   0.90635609   -6.7565827    734.17962  0.028129487  0.028126251            4 
 2176000    0.9070751   -6.7771329    735.06345  0.028150408  0.028118925            5 
 2177000   0.88332389   -6.7599172    735.59219  0.028157717  0.028111593            5 
 2178000   0.90093522   -6.7271622    737.57926  0.028220817  0.028104295            7 
 2179000   0.90838597   -6.7785589    735.44281  0.028126159   0.02809705            8 
 2180000   0.93347507   -6.7773602    733.61518  0.028043394  0.028089683            6 
 2181000   0.92094433   -6.7611981    734.45493  0.028062622  0.028082347            3 
 2182000   0.89486503   -6.7736279    734.65027  0.028057221  0.028075021            5 
 2183000   0.88759102   -6.7341078    735.55926  0.028079068  0.028067738           13 
 2184000   0.89182898   -6.7537189    734.98516  0.028044306  0.028060419            4 
 2185000   0.90570299   -6.7463718    735.54774  0.028052927  0.028053072            7 
 2186000   0.88799938   -6.7268727    736.68722  0.028083532  0.028045837           10 
 2187000   0.90330117   -6.7282026    736.18958  0.028051729  0.028038599            7 
 2188000   0.89195393   -6.7612535    736.02312  0.028032569  0.028031213            3 
 2189000   0.90558879   -6.7683454     738.0497  0.028096913  0.028023904            6 
 2190000   0.89971461   -6.7472193    736.67619  0.028031819  0.028016582           12 
 2191000   0.91317266   -6.7526768    735.28413  0.027966078  0.028009296           13 
 2192000   0.89222376   -6.7502554    735.92376  0.027977637  0.028001948            5 
 2193000   0.89681025   -6.7214616    738.04861  0.028045623  0.027994618            8 
 2194000   0.91855108   -6.7451869    739.02644   0.02806998   0.02798734           10 
 2195000   0.91749549   -6.7736499    736.86754  0.027975229  0.027980016            6 
 2196000   0.91280257   -6.7591587    736.62131  0.027953146  0.027972738            5 
 2197000   0.90207702   -6.7735332    737.24617  0.027964124  0.027965372            9 
 2198000   0.90005349   -6.7407546    735.58792  0.027888532  0.027958015            9 
 2199000   0.87968092   -6.7718344    736.99171  0.027929048  0.027950763            8 
 2200000   0.88017643   -6.7701003    736.62833  0.027902588  0.027943482            5 
 2201000   0.87431964   -6.7368337    739.07944  0.027982714  0.027936183           15 
 2202000    0.8962981   -6.7346548    738.42724  0.027945324  0.027928943            5 
 2203000   0.88853263    -6.729937    739.84006  0.027986082  0.027921721           11 
 2204000   0.91005732   -6.7353042    739.98702   0.02797894  0.027914463            7 
 2205000   0.88968972   -6.7815494    739.06825  0.027931529  0.027907155           11 
 2206000   0.91508404   -6.7861495    739.21802  0.027924525  0.027899735            7 
 2207000   0.90865588   -6.7410085    738.49073  0.027884411  0.027892402            7 
 2208000   0.89382659   -6.7527395    736.95041  0.027813648  0.027885087            4 
 2209000   0.88904588   -6.7386959    739.63377  0.027902285  0.027877775           15 
 2210000   0.88299046   -6.7578595    737.40689   0.02780569  0.027870483           12 
 2211000   0.89561835   -6.7967038    738.48079  0.027833589  0.027863141            4 
 2212000   0.90990858   -6.7763679    740.27625  0.027888647  0.027855841            5 
 2213000   0.88111444   -6.7762506     741.6356  0.027927233  0.027848588            6 
 2214000   0.88584775   -6.7537986    741.40106  0.027905791  0.027841424           10 
 2215000   0.91192971   -6.7670538    740.22509   0.02784895  0.027834273            6 
 2216000    0.8889197   -6.7623733    742.85915  0.027935437  0.027827125            9 
 2217000   0.89694512   -6.7744491    742.58563  0.027912556  0.027819997           14 
 2218000   0.89384547   -6.7392294    741.22595  0.027848886  0.027812901            8 
 2219000    0.8968749   -6.7750227    741.75923  0.027856363  0.027805825            7 
 2220000   0.89462845   -6.7596483    745.10504  0.027969408  0.027798725            6 
 2221000   0.90451899   -6.7459167     743.3363  0.027890451  0.027791598            9 
 2222000   0.90759755   -6.7556553    742.88457  0.027860957  0.027784495            7 
 2223000   0.89944112   -6.7994693     742.1029  0.027819122  0.027777358            5 
 2224000   0.87351961   -6.7699898    742.93906  0.027837944  0.027770199            9 
 2225000   0.89757907    -6.769701    741.48745  0.027771065  0.027762956            6 
 2226000   0.91333443   -6.7762821    741.65255  0.027764771  0.027755764            6 
 2227000   0.89908885   -6.7737125    741.95523  0.027763629  0.027748617            4 
 2228000   0.91745148    -6.760498    743.78038  0.027819434  0.027741464            3 
 2229000   0.88833357    -6.759079    743.89039  0.027811066  0.027734414            8 
 2230000   0.90930892    -6.783335    743.97808  0.027801872  0.027727363            4 
 2231000   0.88074561   -6.7533564    747.21249  0.027910223  0.027720242            6 
 2232000   0.89344501   -6.7864302    744.83871  0.027809092  0.027713221           13 
 2233000   0.88845501   -6.7353068    745.68961  0.027828393    0.0277062            5 
 2234000   0.88379798   -6.7843365    747.14655  0.027870283  0.027699155            7 
 2235000   0.88601231   -6.7777584    746.71533  0.027841735  0.027692192            4 
 2236000   0.89414583   -6.7399603    747.83281  0.027870931  0.027685178            6 
 2237000   0.89786037   -6.8109004      745.469  0.027770414  0.027678205            5 
 2238000   0.88591324   -6.7825674    745.50351  0.027759291  0.027671156            9 
 2239000   0.91299225   -6.7850651    744.86546  0.027723145  0.027664093            2 
 2240000   0.88966717   -6.7847482       744.97  0.027714658  0.027656998            7 
 2241000   0.89035264   -6.7433199    747.90704  0.027811507  0.027649975           13 
 2242000   0.88365485   -6.8072189    746.96655  0.027764145  0.027642968           13 
 2243000   0.88707175   -6.7774626    748.20513  0.027797783  0.027635973           15 
 2244000   0.89635814   -6.7549989    749.33995  0.027827538  0.027629049           18 
 2245000   0.89984728   -6.7578083    747.48007  0.027746105  0.027622092            5 
 2246000   0.89244689   -6.7707615    748.19872  0.027760416   0.02761517            3 
 2247000    0.8968981   -6.7690058    747.53654  0.027723503  0.027608248            7 
 2248000   0.89184461   -6.8118959    748.65936  0.027752793  0.027601263            8 
 2249000   0.89334244    -6.720985    748.88665  0.027748875  0.027594296            5 
 2250000   0.87049682   -6.7379052    749.99416  0.027777562  0.027587429            5 
 2251000   0.89247294   -6.7368744    748.47501  0.027708981  0.027580523            8 
 2252000   0.87440932   -6.7587028    749.22957  0.027724599  0.027573483            9 
 2253000   0.89556914   -6.7511231    749.70729  0.027729963  0.027566546            5 
 2254000   0.90522176   -6.7799551    750.55723  0.027749084  0.027559668            6 
 2255000   0.89104523   -6.7477342    748.36768  0.027655864  0.027552822            6 
 2256000   0.91302852   -6.7600347    749.84281  0.027698094  0.027545923            4 
 2257000   0.87449872   -6.7490103    749.50271  0.027673265  0.027539006            3 
 2258000   0.89026143   -6.7825234    747.76285  0.027596798  0.027532069            4 
 2259000   0.88062309   -6.7607016    748.76051  0.027621385  0.027525116            5 
 2260000   0.88278851   -6.7713238    749.46876  0.027635279  0.027518109           12 
 2261000   0.90229326   -6.7581513    752.62518  0.027739392  0.027511125            8 
 2262000   0.87166901   -6.7705267     751.2976   0.02767822  0.027504191            7 
 2263000   0.88662149   -6.7501033    749.98335  0.027617593  0.027497264            9 
 2264000   0.88898963    -6.729282    752.03918  0.027681065  0.027490372            6 
 2265000   0.90064655   -6.7671461    751.68876  0.027655952  0.027483444            7 
 2266000   0.90028371   -6.7877043    753.16097  0.027697888  0.027476527           11 
 2267000   0.90653103   -6.7677637    751.25005  0.027615426  0.027469637            6 
 2268000   0.90192264   -6.7788389    752.29021  0.027641469  0.027462731           10 
 2269000   0.88505745   -6.7839674    750.81637  0.027575157  0.027455799           11 
 2270000   0.87725277   -6.7529097    750.25645  0.027542454  0.027448843           12 
 2271000    0.9057967   -6.7854575    750.44646  0.027537299  0.027441883            5 
 2272000   0.88392306   -6.8238045    752.00282  0.027582263  0.027434901            8 
 2273000   0.89411613   -6.7698472    753.59995  0.027628683  0.027427938            7 
 2274000   0.89232937   -6.7953391    751.50002  0.027539579  0.027420989            8 
 2275000    0.8656017   -6.7585319    752.56208  0.027566376  0.027414031            9 
 2276000   0.88283748   -6.8048425    752.47682  0.027551143  0.027407042            5 
 2277000   0.88301755   -6.7636793    753.68528   0.02758327  0.027400055            9 
 2278000   0.89217718   -6.7664004    750.60623  0.027458525  0.027393011            8 
 2279000   0.90844878   -6.8030621    750.94726  0.027458946  0.027385987            4 
 2280000   0.87527013   -6.7589719    752.14174  0.027490561  0.027378968            8 
 2281000   0.87847743   -6.7891005     751.7959  0.027465874  0.027371965            3 
 2282000   0.88446812   -6.7835507    754.05628  0.027536382  0.027364975           15 
 2283000   0.86307469    -6.786936    753.48064  0.027503309  0.027358006            6 
 2284000   0.88768206   -6.7886466    753.47629  0.027491108   0.02735105            8 
 2285000    0.8994737   -6.7683391      753.303  0.027472757  0.027344041            8 
 2286000   0.89714833   -6.7910853    753.78351  0.027478256  0.027337026            9 
 2287000   0.89024657   -6.7781905    753.72109  0.027463966  0.027329994            4 
 2288000   0.89834026   -6.8117779    753.56151   0.02744615  0.027322948            4 
 2289000    0.8805112   -6.7589399    751.88131  0.027372991  0.027315938            9 
 2290000   0.87293062   -6.8074819    752.51992  0.027384277  0.027308866            7 
 2291000   0.88633785   -6.7744166    754.48807  0.027443913  0.027301851           14 
 2292000   0.87294542   -6.7820394    754.37817  0.027427944  0.027294911            4 
 2293000   0.86999764   -6.7614161    754.59138  0.027423731  0.027287924            4 
 2294000   0.87636595   -6.7928157    753.97546  0.027389402  0.027280891            5 
 2295000   0.89543001   -6.7949792    754.27361  0.027388294  0.027273912            2 
 2296000   0.85651148   -6.7940889    753.86524  0.027361543  0.027266902            5 
 2297000   0.88689014    -6.753836    755.82804   0.02742084    0.0272599           19 
 2298000   0.87412502   -6.7831144    755.86171  0.027410129  0.027252927            9 
 2299000   0.88690472     -6.76238    756.98637  0.027438972  0.027245973            8 
 2300000   0.88564657     -6.81565      754.492  0.027336667  0.027239001            7 
 2301000   0.86239549   -6.7950624     756.5612  0.027399725  0.027232047            8 
 2302000   0.88107535   -6.8148926    756.10127  0.027371173  0.027225144           14 
 2303000   0.85934727   -6.8244702    755.16395  0.027325371  0.027218137            5 
 2304000   0.88216244    -6.768081    758.53257  0.027435351  0.027211223            9 
 2305000   0.87348767   -6.8035915    756.27859  0.027341959  0.027204341           13 
 2306000     0.871886    -6.779488    757.02735  0.027357161  0.027197408           11 
 2307000   0.86972454   -6.7717054    757.59652  0.027365862  0.027190519            7 
 2308000   0.86837959   -6.7738999    755.80137  0.027289189  0.027183599            6 
 2309000   0.86999605    -6.804869    756.42656  0.027299934  0.027176634            6 
 2310000   0.88174954   -6.8071206    757.16467  0.027314743  0.027169677           21 
 2311000   0.88544604   -6.7778321    755.38724   0.02723883  0.027162715            4 
 2312000   0.88750687   -6.7968778    757.12685  0.027289751  0.027155793            5 
 2313000   0.87579288   -6.8193199    756.78398    0.0272656  0.027148771            7 
 2314000   0.87238595   -6.7972695    756.88281  0.027257376  0.027141748            6 
 2315000   0.89797682   -6.7525572    757.33601  0.027261916  0.027134827            5 
 2316000   0.90632164   -6.7662033    758.83542  0.027304095  0.027127951            3 
 2317000   0.90033917   -6.7852654    759.48367  0.027315626  0.027121049           12 
 2318000   0.87737677   -6.7989775    758.50636  0.027268707  0.027114108            7 
 2319000   0.88532871   -6.7978612    758.97356  0.027273737  0.027107144           15 
 2320000   0.86983639   -6.8294756    757.58158  0.027211982  0.027100221            6 
 2321000    0.8817207   -6.8164021    756.47961  0.027160693  0.027093234            8 
 2322000   0.87185493     -6.80808    756.55485  0.027151696  0.027086219            6 
 2323000   0.88570027   -6.7542608    759.35471  0.027240447  0.027079251            5 
 2324000   0.87096997   -6.7754127     757.5719  0.027164799  0.027072265            5 
 2325000   0.89263849   -6.8250033     756.2286  0.027104968  0.027065263           10 
 2326000    0.8828936   -6.7666943    758.24558  0.027165577  0.027058195            6 
 2327000   0.89495987   -6.7903725    757.38634  0.027123132   0.02705117           10 
 2328000     0.895223   -6.8078814    759.79248  0.027197612  0.027044121            5 
 2329000   0.89006667   -6.7804207    760.01958   0.02719406  0.027037113            6 
 2330000   0.87200505   -6.7757977    757.18193  0.027080899  0.027030131            4 
 2331000   0.87825373   -6.7965086     759.7253  0.027160207  0.027023196            9 
 2332000     0.875153   -6.7916566    760.15273  0.027163834  0.027016196            3 
 2333000   0.88955833   -6.7989873    757.56839   0.02705988  0.027009198            4 
 2334000   0.88600966   -6.8255184    759.04927  0.027101159  0.027002124            5 
 2335000    0.8592088   -6.7938563    759.25678  0.027096959  0.026995048            4 
 2336000   0.85919666   -6.7923897    759.03351  0.027077394  0.026987958            8 
 2337000   0.88124499   -6.8274784    758.20571   0.02703629  0.026980872           10 
 2338000   0.88668044   -6.7742858    759.68627  0.027077498  0.026973806           10 
 2339000   0.87673484    -6.803788    761.27331  0.027122464   0.02696679            8 
 2340000   0.86987712    -6.806111    760.84692  0.027095688  0.026959694            4 
 2341000   0.85430201   -6.7725748    759.39931  0.027032583  0.026952653            6 
 2342000   0.87523464   -6.8060488    757.93225  0.026968839  0.026945573            7 
 2343000   0.89837418   -6.8053581    758.72706  0.026985598  0.026938523           10 
 2344000   0.87963335    -6.767514    760.40599  0.027033774  0.026931494            5 
 2345000   0.88790808   -6.8126066    759.53068   0.02699114  0.026924534            5 
 2346000   0.87782621   -6.7853631    758.81089  0.026954067  0.026917512            9 
 2347000    0.8631241   -6.7944227    760.94315  0.027018291  0.026910484            9 
 2348000   0.88323382   -6.8206655    759.81484  0.026966739  0.026903367            9 
 2349000   0.88502638    -6.853052    757.96906  0.026889778  0.026896251            8 
 2350000   0.86503728   -6.7741917     760.7767  0.026977897  0.026889086            8 
 2351000   0.88951287   -6.8071826    760.38438  0.026952516   0.02688198           14 
 2352000   0.85846749   -6.7962809    761.39225  0.026976766  0.026874859           10 
 2353000   0.86581441   -6.7925914     761.0321  0.026952547  0.026867827            4 
 2354000   0.86506411   -6.8117593    761.80673  0.026968519  0.026860766            5 
 2355000    0.8737172   -6.8156792    761.79771  0.026956748  0.026853695            7 
 2356000   0.87964669    -6.826978    760.75964  0.026908589  0.026846616            7 
 2357000   0.88684759   -6.8285455    761.57973  0.026926168  0.026839555            9 
 2358000   0.89650674   -6.8025168    761.76702  0.026921368  0.026832469           14 
 2359000   0.86393824   -6.7940932    762.67528   0.02694204  0.026825475            6 
 2360000    0.8815486   -6.8233668    763.23587  0.026950419  0.026818502           17 
 2361000   0.88542848   -6.8233965    762.41484  0.026910025  0.026811517            7 
 2362000   0.87336699   -6.7945257    765.19085  0.026996572  0.026804568            5 
 2363000   0.89785543    -6.792712    761.47497  0.026854104  0.026797605           13 
 2364000   0.87646357   -6.8042714    763.89709  0.026928126  0.026790665           18 
 2365000   0.89321316   -6.8056187    763.19201  0.026891896  0.026783734           18 
 2366000   0.86978053    -6.839798    762.19444  0.026845394  0.026776748            5 
 2367000   0.85781142   -6.8004082    763.72208  0.026887836  0.026769773            4 
 2368000   0.87863962   -6.8175297    765.10925  0.026925297  0.026762787           13 
 2369000   0.86923302    -6.789487    762.92138   0.02683697  0.026755832            8 
 2370000   0.87722742   -6.7881308    766.00922   0.02693422  0.026748853            9 
 2371000   0.88486255    -6.765608     765.9801  0.026921837  0.026741878           19 
 2372000   0.86853014   -6.8177401    765.44745  0.026891774  0.026734935           14 
 2373000   0.86569657   -6.7832163    764.43639  0.026844936  0.026727956           14 
 2374000   0.86849778   -6.8229497    764.30836  0.026829134  0.026720946            5 
 2375000   0.88508344   -6.8302107    765.39474  0.026855956  0.026713916            5 
 2376000   0.87596376   -6.7882015    765.17623  0.026836989  0.026706899            4 
 2377000   0.88390732   -6.8056926    764.26481  0.026793746  0.026699911            5 
 2378000   0.85828177   -6.8047213    765.44477  0.026823829   0.02669292            4 
 2379000   0.87193122   -6.8115609    763.77152  0.026753941  0.026685878            8 
 2380000   0.88070422    -6.751173    765.59977  0.026806715  0.026678853            6 
 2381000    0.8525935   -6.8354224    763.17168  0.026710475  0.026671797            9 
 2382000    0.8693025   -6.8053928    765.16215  0.026768897  0.026664715            8 
 2383000   0.87061832    -6.791434    765.53262  0.026770619  0.026657622            5 
 2384000   0.85842409   -6.7839899    763.98967  0.026705455  0.026650547            9 
 2385000   0.85844201   -6.8030947    765.43945  0.026744914  0.026643487            7 
 2386000   0.85702089   -6.8177598    765.82812   0.02674728  0.026636436            6 
 2387000   0.86830013   -6.8336676    763.61519  0.026658818  0.026629324            5 
 2388000   0.86330862   -6.8172191    767.62957  0.026787743  0.026622298            8 
 2389000   0.86645737   -6.8244311    766.38428  0.026733092  0.026615283            9 
 2390000   0.87318268   -6.8069005    767.64303  0.026765796  0.026608304           11 
 2391000   0.84882814   -6.8040984    766.17682    0.0267035   0.02660132           11 
 2392000   0.88101901   -6.8147327     767.1483  0.026726181  0.026594284            9 
 2393000   0.86394831   -6.8092172    767.08451  0.026712791  0.026587231            5 
 2394000   0.87160428   -6.8218962    764.78257  0.026621504  0.026580166            4 
 2395000   0.87025101   -6.8117257    766.22359  0.026660529  0.026573111            7 
 2396000   0.86957111   -6.8028213    766.86592  0.026671742  0.026566074            9 
 2397000   0.87275675   -6.8019426    767.22272  0.026673019  0.026559012           12 
 2398000   0.87265236   -6.8244422     766.7848  0.026646678  0.026551928            3 
 2399000   0.87705848   -6.8517252    766.02256  0.026609093   0.02654484            6 
 2400000   0.86553337   -6.7939638    766.73506  0.026622745  0.026537718            7 
 2401000   0.85787587   -6.8103554    764.05268  0.026518558  0.026530629            5 
 2402000   0.87464169   -6.8212545    766.25334  0.026583866  0.026523465            7 
 2403000   0.84763084   -6.8239583    765.28815  0.026539331  0.026516233           14 
 2404000   0.86249039   -6.8227953     765.5382  0.026536959  0.026509031            3 
 2405000   0.87002652   -6.8160751    764.78918  0.026499972  0.026501868            7 
 2406000   0.86256425   -6.7818139    767.59168  0.026586024  0.026494692            6 
 2407000   0.87843399   -6.8101236      766.655  0.026542549  0.026487573            5 
 2408000   0.87040213   -6.8248347    765.81383  0.026502417  0.026480444            8 
 2409000    0.9049765   -6.7819043    766.17342  0.026503854  0.026473332           11 
 2410000   0.87075744   -6.7824734     767.5535  0.026540577  0.026466233            6 
 2411000   0.87293595   -6.8565182     767.1169  0.026514479  0.026459051            4 
 2412000   0.85720651   -6.7849497    767.90982  0.026530881  0.026451889            7 
 2413000   0.87383103   -6.7991461    768.34188  0.026534807  0.026444762            8 
 2414000   0.86056175   -6.8248782    768.49171  0.026528988  0.026437652            6 
 2415000   0.86972329   -6.8097216    767.74466  0.026492224  0.026430495            7 
 2416000    0.8612067   -6.8489921    767.70446  0.026479873   0.02642334           13 
 2417000   0.85444801    -6.839445    766.89426  0.026440983  0.026416145            6 
 2418000   0.88984129   -6.8109161    766.65806  0.026421907  0.026409019            6 
 2419000   0.86011115   -6.8399689    767.27357  0.026432188  0.026401876            8 
 2420000   0.86490785    -6.839685    767.47093  0.026428062  0.026394705            6 
 2421000   0.84716215   -6.8259039    767.56449  0.026420367  0.026387509           10 
 2422000   0.84325719   -6.8797569    768.81078  0.026452339  0.026380325           12 
 2423000    0.8656411   -6.8400256    768.93171  0.026445581  0.026373058            5 
 2424000   0.84731377   -6.8366265    768.07226  0.026405124  0.026365824            4 
 2425000   0.84361296    -6.829694    767.70762  0.026381705  0.026358583            7 
 2426000   0.86363921   -6.8260005    769.41245  0.026429392  0.026351371            6 
 2427000    0.8573435   -6.8459412    769.52118  0.026422235  0.026344189            6 
 2428000   0.86578391   -6.7984723    770.68194  0.026451192  0.026337032            4 
 2429000     0.850321   -6.8166044    768.00342  0.026348409  0.026329891            4 
 2430000   0.86692654   -6.8140642    769.63832  0.026393632  0.026322682            5 
 2431000   0.86670778    -6.809484    768.02872  0.026327599   0.02631554            9 
 2432000   0.84793325   -6.8214974    770.17015   0.02639015  0.026308404            9 
 2433000   0.86470021   -6.8002305    770.70368  0.026397578  0.026301275            9 
 2434000   0.85852961   -6.8319714    769.03341  0.026329547  0.026294165           16 
 2435000   0.85377695   -6.8309682    771.16074  0.026391538  0.026287017           11 
 2436000   0.86076587   -6.8092758    768.69847  0.026296472  0.026279883            8 
 2437000   0.87466726   -6.8358455     770.3221  0.026341202  0.026272736            7 
 2438000   0.86230133   -6.8171099    769.96813  0.026318298  0.026265656           13 
 2439000   0.85530686   -6.8231973    770.15657  0.026313946  0.026258596            6 
 2440000   0.85004433   -6.8414106    770.81928  0.026325795  0.026251454           13 
 2441000   0.88146296   -6.8404458    772.30269  0.026365652  0.026244292           11 
 2442000   0.86643583   -6.8410251    772.32949   0.02635577  0.026237242            3 
 2443000   0.84619587   -6.8545055    772.58351  0.026353647   0.02623018            8 
 2444000   0.87464794   -6.8512049    772.04679  0.026324563  0.026223096           16 
 2445000   0.87088946   -6.8172188     770.3943  0.026257474  0.026216022           11 
 2446000    0.8727324   -6.8598398     770.9511  0.026265709  0.026208917            8 
 2447000   0.86303777   -6.8369799    771.64764  0.026278696  0.026201859            3 
 2448000   0.85225536   -6.8201515    771.95112  0.026278292   0.02619481            4 
 2449000   0.84397986   -6.8600916    772.52216  0.026286993  0.026187765            3 
 2450000    0.8377894   -6.8550624    772.94302  0.026290579  0.026180673            3 
 2451000   0.85377509   -6.8487222    771.71182  0.026237992  0.026173579           14 
 2452000    0.8465608   -6.8315359    771.67638  0.026226087  0.026166456            8 
 2453000    0.8722795   -6.8338874    774.01144  0.026294722  0.026159349            9 
 2454000   0.86032757   -6.8377724      773.917    0.0262808  0.026152246            8 
 2455000   0.83729445   -6.8173953     773.2278    0.0262467  0.026145134            9 
 2456000   0.85178343    -6.831184    773.98464  0.026261694  0.026138053           15 
 2457000   0.86106415    -6.844243    774.34203  0.026263127  0.026130955           11 
 2458000   0.88253577   -6.8328038    774.12636   0.02624513  0.026123913           17 
 2459000   0.87696795   -6.8188735    774.06294  0.026232308  0.026116872           19 
 2460000    0.8534807   -6.8560305    774.74751  0.026244834  0.026109849            8 
 2461000   0.86569787   -6.8474395    773.93415  0.026206628  0.026102793           12 
 2462000     0.854618   -6.8377315    774.41886   0.02621239   0.02609577           20 
 2463000   0.85393985   -6.8319611    774.56273  0.026206615  0.026088754           13 
 2464000   0.86809967   -6.8577608    774.75422  0.026202456  0.026081705            5 
 2465000   0.82555995   -6.8341195    775.33669  0.026211518  0.026074649            5 
 2466000   0.85960919   -6.8450392    775.12964  0.026193891  0.026067615           11 
 2467000   0.85774718   -6.8214408    776.49238  0.026229306  0.026060567           11 
 2468000   0.86506663   -6.8612591    773.18652  0.026107054  0.026053503            7 
 2469000   0.84776416   -6.8210584    776.68703  0.026214629  0.026046457           12 
 2470000   0.85965579   -6.8317642    774.35385  0.026125299  0.026039463            5 
 2471000   0.87126515    -6.860422    773.36273  0.026081301  0.026032424            5 
 2472000   0.84124842    -6.843409    774.42941  0.026106709  0.026025356            4 
 2473000   0.87453165    -6.870449    772.94602  0.026046166  0.026018293           27 
 2474000   0.86336045   -6.8425201    775.33829  0.026116218  0.026011266            6 
 2475000    0.8546705   -6.8359984    776.20157  0.026134733  0.026004248            8 
 2476000   0.86067121   -6.8366792    777.81673  0.026178538  0.025997232            5 
 2477000   0.83918981   -6.8401777    776.62794  0.026127975   0.02599022            4 
 2478000   0.83380315    -6.818729     776.8111  0.026123591  0.025983173            8 
 2479000   0.84646174   -6.8378729    777.25801  0.026128076   0.02597611           12 
 2480000    0.8500234   -6.8500892     775.5388  0.026059771   0.02596905           13 
 2481000   0.86979627   -6.8465473    776.68871  0.026087891  0.025962041            7 
 2482000   0.84898381   -6.8256526    778.36162  0.026133549  0.025955059           13 
 2483000   0.86593775   -6.7935971    777.27379  0.026086514  0.025948048            8 
 2484000   0.84438594   -6.8398639    774.67866  0.025988951  0.025941043           10 
 2485000   0.84828033   -6.8292245    777.35341   0.02606819  0.025934042            5 
 2486000    0.8711428   -6.8246779    777.19297  0.026052326  0.025927048            3 
 2487000   0.83739818   -6.8527775    777.21991  0.026042753  0.025920068            9 
 2488000   0.86822798   -6.8658468    776.60935  0.026011835  0.025913027            9 
 2489000   0.84546775   -6.8332806     776.6061  0.026001276  0.025905993           12 
 2490000   0.84183525   -6.8167536     777.4567    0.0260193  0.025898971           17 
 2491000    0.8587633   -6.8158232    777.23369  0.026001395  0.025891974           12 
 2492000   0.83175608   -6.8381369    776.17149  0.025955441  0.025884962           13 
 2493000   0.84249764   -6.8599951    779.21839  0.026046878   0.02587798            6 
 2494000   0.85709361   -6.8486167    779.78041  0.026055213  0.025871013            6 
 2495000   0.86731128   -6.8225178    777.87977  0.025981288  0.025864054           10 
 2496000   0.84426812   -6.8294979    778.13462  0.025979388  0.025857128            4 
 2497000   0.86828348   -6.8379086    779.20748  0.026004788  0.025850207            9 
 2498000   0.85953372   -6.8554219    780.30852  0.026031109  0.025843304            4 
 2499000   0.86359567   -6.8422005    779.84387  0.026005198  0.025836386            6 
 2500000   0.85438265   -6.8320463    779.41668  0.025980556  0.025829436            6 
 2501000   0.83896326   -6.8438445    779.39657  0.025969498  0.025822496            7 
 2502000   0.85850823   -6.8291159    778.25534  0.025921108  0.025815561            8 
 2503000   0.83896157   -6.8177994    779.46098  0.025950892  0.025808629            8 
 2504000   0.84609281    -6.840392    780.05765  0.025960385  0.025801687            8 
 2505000   0.83217696    -6.827435    780.06808  0.025950368  0.025794724            5 
 2506000   0.84067499   -6.8530126    779.83498  0.025932262  0.025787813            4 
 2507000   0.86224459   -6.8716411     781.5896  0.025980242  0.025780884            8 
 2508000   0.86673535   -6.8620356    780.20119   0.02592375  0.025773997           14 
 2509000   0.87323011   -6.8581072    781.37645  0.025952453  0.025767087            5 
 2510000   0.85387376   -6.8443872    781.18196  0.025935656  0.025760226            8 
 2511000   0.83916747   -6.8395347    780.76382   0.02591145  0.025753319            7 
 2512000   0.86061528   -6.8067727    780.81747  0.025902915  0.025746458            8 
 2513000   0.83792174   -6.8816625    780.70092  0.025888743  0.025739542            7 
 2514000   0.86098291   -6.8392323    780.91911  0.025885677  0.025732594            8 
 2515000   0.86309886   -6.8363977     780.8255  0.025872283  0.025725683            8 
 2516000   0.86033159   -6.8572409     781.8234  0.025895052  0.025718798           11 
 2517000    0.8520002    -6.854508    781.03172  0.025858553  0.025711902           10 
 2518000     0.839621   -6.8585516    780.62583   0.02583485  0.025705001            8 
 2519000   0.84836559   -6.8591256    780.59846  0.025823689  0.025698071            8 
 2520000   0.84493998   -6.8652403    781.11397  0.025830489  0.025691172            9 
 2521000   0.86217889   -6.8622074    782.03506   0.02585069    0.0256843           10 
 2522000   0.85110302   -6.8496333    782.61912  0.025859738  0.025677408           16 
 2523000   0.83705267    -6.856083    781.22228  0.025803352  0.025670547            5 
 2524000   0.87117647   -6.8568377    782.58765  0.025838208  0.025663745            8 
 2525000   0.85007644   -6.8524036    784.96688  0.025906498  0.025656949           11 
 2526000    0.8439796    -6.851309    782.99729  0.025831265  0.025650106           10 
 2527000   0.86387873   -6.8208915    784.58442  0.025873382    0.0256433            7 
 2528000   0.84852639   -6.8610786     783.6839  0.025833462  0.025636466            5 
 2529000   0.84250533   -6.8615819    783.18263  0.025806729  0.025629612            5 
 2530000   0.83855306   -6.8489546    782.57239  0.025776429  0.025622711            7 
 2531000   0.84354225   -6.8397175     783.7976  0.025806585   0.02561583            6 
 2532000   0.84765849   -6.8743604    781.80772  0.025730902  0.025608989           14 
 2533000   0.84836703   -6.8626368    783.04234  0.025761361  0.025602114            7 
 2534000   0.84695401   -6.8677337    785.39708  0.025828633  0.025595248           11 
 2535000   0.86060564   -6.8687233    782.86891  0.025735336  0.025588386           17 
 2536000   0.84316154   -6.9042278    782.02964  0.025697609  0.025581485            3 
 2537000   0.84834349   -6.9070257     784.0719  0.025754562  0.025574596            9 
 2538000   0.84849603   -6.8742987    783.69668  0.025732095   0.02556769           11 
 2539000   0.83681628   -6.8650784    783.36556  0.025711092  0.025560837           16 
 2540000   0.83653834   -6.8621341    784.33797  0.025732873  0.025553979            7 
 2541000   0.83592375   -6.8715325    780.15154   0.02558545  0.025547056            5 
 2542000   0.84061115   -6.8634898     784.7078  0.025724751  0.025540102           10 
 2543000   0.85322447   -6.8883449    783.14748  0.025663504  0.025533143            7 
 2544000   0.86573677   -6.8541038    785.26317  0.025722719  0.025526188           11 
 2545000   0.84766738   -6.8942855    785.31745  0.025714389  0.025519308           17 
 2546000   0.82652524   -6.8735091    784.05879  0.025663092  0.025512458            7 
 2547000   0.84392831   -6.8456616    785.06314  0.025685877  0.025505551           13 
 2548000   0.85573317   -6.8469417    782.99497  0.025608156  0.025498656            4 
 2549000   0.85115925   -6.8953124    783.49993  0.025614618  0.025491733           20 
 2550000   0.81824585   -6.8656225    784.16007  0.025626146   0.02548483            8 
 2551000   0.83010528   -6.8587727     786.1896  0.025682399  0.025477955            5 
 2552000   0.83576524   -6.8699318    784.59676  0.025620323  0.025471094           10 
 2553000   0.84796356   -6.8598701    787.48085  0.025704428   0.02546424           15 
 2554000   0.84933559   -6.8737544    786.17328  0.025651699  0.025457374            7 
 2555000   0.83186069   -6.8640279    784.42517  0.025584643  0.025450475           10 
 2556000   0.84744153   -6.8613274    784.90383  0.025590239  0.025443576            8 
 2557000   0.86696825    -6.890474    785.96275  0.025614742  0.025436662           14 
 2558000   0.83853333   -6.8499988    786.89421  0.025635073  0.025429761            4 
 2559000   0.84833006   -6.8750416    785.21692  0.025570435  0.025422866           19 
 2560000    0.8538108   -6.8582911    785.09931  0.025556618  0.025415961            9 
 2561000   0.85142952   -6.8519228    784.77679  0.025536144  0.025409041           16 
 2562000   0.84636606   -6.8691652    785.00774  0.025533689  0.025402131           12 
 2563000   0.82950015   -6.8599534    787.00027  0.025588512  0.025395285            8 
 2564000   0.83258834   -6.8961802    785.65341  0.025534757  0.025388396           10 
 2565000   0.86792486   -6.8650641    788.42546  0.025614862   0.02538148            5 
 2566000   0.84053335   -6.8765766    787.05611  0.025560409  0.025374605            6 
 2567000   0.85210397   -6.8452166    785.21195  0.025490584  0.025367711            9 
 2568000   0.81938802   -6.8539776    787.68805  0.025561009  0.025360802           18 
 2569000   0.85267257     -6.87802    787.01873  0.025529348  0.025353903            8 
 2570000   0.84156862   -6.8764646    786.80713  0.025512553  0.025347007            6 
 2571000   0.85792407   -6.8962751    787.73265  0.025532628  0.025340076            5 
 2572000   0.84413163   -6.8621849    786.71953  0.025489876  0.025333221            8 
 2573000   0.84001485   -6.8610866    786.65109  0.025477753  0.025326318           10 
 2574000   0.83517988   -6.8680008    788.30339  0.025521348  0.025319421           20 
 2575000   0.85946291   -6.8786871    788.05798  0.025503495  0.025312501           15 
 2576000   0.84296368   -6.8987682    786.27723  0.025435987  0.025305571            8 
 2577000   0.83778912   -6.8811306    785.99964   0.02541714  0.025298614            7 
 2578000   0.83536549    -6.856796    786.38252  0.025419657  0.025291715           12 
 2579000   0.81234089   -6.8906117    787.62527  0.025449957  0.025284792            5 
 2580000   0.82751573   -6.8548815     787.9659  0.025451095  0.025277896            5 
 2581000    0.8593009   -6.8871862    788.21812  0.025449377  0.025270982           11 
 2582000   0.83174167   -6.8753099     786.8486   0.02539532  0.025264042           15 
 2583000   0.83506207   -6.8314689     789.1839   0.02546083  0.025257119            7 
 2584000   0.83228337   -6.8960529    787.37019  0.025392486  0.025250151            7 
 2585000   0.84155868   -6.9119089    786.52381  0.025355378  0.025243182            9 
 2586000    0.8434774   -6.9045331    784.66205  0.025285578  0.025236217            5 
 2587000   0.83080889    -6.875474    787.25249  0.025359248  0.025229271            8 
 2588000   0.82607222   -6.8992562    786.67906  0.025330985  0.025222275            7 
 2589000   0.84494456   -6.8741122    788.48674  0.025379385  0.025215326           14 
 2590000   0.82797314   -6.8689828    786.95469  0.025320292  0.025208335           10 
 2591000   0.84471286    -6.894741    785.57791  0.025266239   0.02520138           11 
 2592000   0.82584235   -6.8728634    788.28675  0.025343581  0.025194424            9 
 2593000   0.82765817   -6.8688482    787.80867  0.025318443   0.02518748            9 
 2594000    0.8435504   -6.8673095    788.44024  0.025328972  0.025180539           20 
 2595000   0.84314619   -6.8759478    786.18026  0.025246637  0.025173547           19 
 2596000   0.82895408   -6.8648836    785.76842  0.025223691  0.025166549            8 
 2597000   0.84855537    -6.867177    787.98241  0.025285021  0.025159542            7 
 2598000   0.83684249   -6.8807971    787.07256  0.025246105  0.025152579           11 
 2599000   0.83153334   -6.8699468     787.2241   0.02524125  0.025145602            8 
 2600000   0.86663717   -6.8719464    787.25289  0.025232464    0.0251386           11 
 2601000   0.83402173   -6.8550713    790.21388   0.02531763  0.025131592           11 
 2602000   0.83363391   -6.8725925    788.93956  0.025267088  0.025124567            7 
 2603000   0.81703706   -6.8914192    787.03284  0.025196339  0.025117576            6 
 2604000   0.82571714   -6.8564362       789.03  0.025250576  0.025110605           13 
 2605000   0.85286028   -6.8929283    787.65118  0.025196775  0.025103649            7 
 2606000   0.82020136   -6.9027034     788.1393  0.025202715  0.025096664           11 
 2607000   0.84460405   -6.8950511    786.95057   0.02515505   0.02508971           10 
 2608000   0.83409108   -6.8600354    788.65999  0.025200025  0.025082743            7 
 2609000   0.83476796   -6.8874575    789.37457  0.025213191  0.025075779           11 
 2610000   0.84294234   -6.9176268     787.9544  0.025158187    0.0250688           13 
 2611000   0.81611302   -6.8808789    789.90425  0.025210783  0.025061837           10 
 2612000   0.83064845   -6.8769147    788.20421  0.025146893  0.025054899            9 
 2613000   0.83169713   -6.8910131    789.74798  0.025186503  0.025047929            5 
 2614000    0.8350317   -6.9010773    789.87536  0.025180928  0.025040966           20 
 2615000   0.83267819   -6.8962397    791.49887  0.025223036  0.025034017           14 
 2616000   0.82618646   -6.8853471    789.63383  0.025153983  0.025027097            3 
 2617000   0.84083664   -6.9294397    790.93949  0.025185947  0.025020161            9 
 2618000   0.82735496   -6.8974034     790.0004  0.025146435  0.025013226            6 
 2619000   0.84083829   -6.8877731    793.44373  0.025246396  0.025006344            4 
 2620000   0.82947993   -6.8918497    792.29239   0.02520014  0.024999477            9 
 2621000   0.84056977   -6.8673856    791.38889  0.025161799  0.024992625            7 
 2622000   0.83170997    -6.900292    791.87852  0.025167764  0.024985765            5 
 2623000   0.83833787   -6.8722897    792.14109  0.025166511  0.024978901            6 
 2624000   0.82655838   -6.9094401    792.59801  0.025171431  0.024972055            8 
 2625000   0.82839003     -6.91062    791.65994  0.025132062  0.024965205           10 
 2626000   0.81215093   -6.8732852    792.61434  0.025152778  0.024958386           12 
 2627000   0.83620316   -6.9045069     793.4389   0.02516936  0.024951543           17 
 2628000   0.81527974   -6.9371055     791.3034  0.025092066  0.024944686            9 
 2629000   0.84732628    -6.881856    791.55235  0.025090413  0.024937824           12 
 2630000   0.83999961   -6.8803397    792.35885  0.025106427  0.024931069            9 
 2631000    0.8324383   -6.8679674    793.32353   0.02512744  0.024924229            7 
 2632000   0.82579299   -6.8935111    793.20224  0.025114053  0.024917403            7 
 2633000   0.84210696   -6.8906994    791.64922  0.025055362  0.024910571           12 
 2634000   0.81389957   -6.8724963    792.90379  0.025085541  0.024903673            8 
 2635000   0.83478602   -6.8572071    793.02279  0.025079784  0.024896789            6 
 2636000   0.83434368   -6.9088059    791.13632  0.025010632   0.02488994           16 
 2637000   0.83568735    -6.894722    793.12595  0.025064023  0.024883039            6 
 2638000   0.82841458   -6.9007943    794.23282  0.025089488  0.024876189           11 
 2639000   0.82975643   -6.8949038     791.3001  0.024987372  0.024869304           11 
 2640000   0.82384285   -6.8811361    793.65015  0.025052088   0.02486245           11 
 2641000   0.83433554   -6.9099926    791.97467  0.024989735  0.024855609            9 
 2642000   0.82467003    -6.920334    792.47882  0.024996178  0.024848725            9 
 2643000   0.80587883   -6.8964328    792.99293   0.02500293   0.02484184           10 
 2644000   0.83045158   -6.9125193    794.50125  0.025041013  0.024834953           11 
 2645000   0.83600043   -6.8914436    791.64551  0.024941572  0.024828059            9 
 2646000   0.82984134   -6.8869111    793.94679  0.025004623  0.024821139            9 
 2647000   0.82129875   -6.9340675    792.69026  0.024955618  0.024814231            9 
 2648000   0.83282881   -6.8661612    794.64023   0.02500756  0.024807333           15 
 2649000   0.82193363   -6.8999433    793.30529  0.024956125  0.024800481           12 
 2650000   0.81223191   -6.8774532    792.00204  0.024905724  0.024793607           10 
 2651000    0.8273883   -6.9184387     791.1188  0.024868565  0.024786754            7 
 2652000   0.82800341   -6.8775195    795.29165  0.024990311  0.024779909            5 
 2653000   0.81322457   -6.9192571    794.94334   0.02496995   0.02477307            9 
 2654000   0.81650378   -6.8726989    794.43856  0.024944692   0.02476622           18 
 2655000   0.83199618   -6.8972762    795.64938  0.024973301  0.024759373            5 
 2656000   0.81413116   -6.8847182    794.32593  0.024922375  0.024752523            8 
 2657000   0.82057746   -6.8675105    796.89848   0.02499368  0.024745708            6 
 2658000   0.82759677    -6.893336    794.87808  0.024920933   0.02473888            6 
 2659000   0.83207603    -6.892374    795.57142   0.02493329  0.024732019            8 
 2660000   0.82804541   -6.9042179    792.45921  0.024826416  0.024725084           11 
 2661000   0.84666755   -6.9187608    794.49276  0.024880771  0.024718155            7 
 2662000   0.82102497   -6.9083987    792.91046   0.02482189  0.024711221            5 
 2663000   0.81247042   -6.8937743    793.79561  0.024840268  0.024704248            6 
 2664000   0.81811222   -6.9045092    793.98302  0.024836806   0.02469734            7 
 2665000   0.80449222   -6.8746183    794.41805   0.02484109  0.024690465            4 
 2666000   0.80715398   -6.8917299    795.69688  0.024871745  0.024683589           12 
 2667000   0.84755462   -6.9053965    797.36568  0.024914563  0.024676716            7 
 2668000   0.84294355   -6.9118143    795.13811  0.024835648  0.024669853            7 
 2669000   0.82599155    -6.916268    795.22752  0.024829134  0.024662979            7 
 2670000   0.81923317   -6.9076692    796.85537  0.024870642   0.02465613            3 
 2671000   0.83040434   -6.9179581    796.98771   0.02486546  0.024649271            9 
 2672000   0.81524651   -6.9050226    795.28884   0.02480317  0.024642398           11 
 2673000   0.82979912   -6.9254874    795.55054   0.02480205  0.024635575           20 
 2674000   0.81595133   -6.8946506    797.08603  0.024840627  0.024628737           10 
 2675000   0.81970491   -6.9216884    794.05779  0.024737003  0.024621863           15 
 2676000   0.81626211      -6.9093    797.09267  0.024822268  0.024615002           21 
 2677000   0.83570296   -6.9190817    797.00257  0.024810191  0.024608174            9 
 2678000   0.83615591    -6.929701    799.99933  0.024894179  0.024601373           13 
 2679000   0.81500538    -6.921278    796.06185  0.024762407  0.024594593           16 
 2680000   0.83849138   -6.8987197    797.37184  0.024793901  0.024587835           14 
 2681000   0.82972038   -6.9368553     796.4806   0.02475695  0.024581089           11 
 2682000   0.82220131   -6.8756266    797.76716  0.024787694   0.02457433           14 
 2683000   0.81170802   -6.9035697    798.89646  0.024813531  0.024567579            8 
 2684000   0.82402462   -6.9357849    796.66806  0.024735099  0.024560797            6 
 2685000   0.81547066   -6.9033924    798.79614  0.024791935  0.024554003            8 
 2686000   0.81637728   -6.9214281    797.51608  0.024742991  0.024547237           10 
 2687000     0.803611   -6.9095531     795.6845  0.024676979  0.024540378           13 
 2688000   0.81138682   -6.8984302    798.51368  0.024755508  0.024533556            4 
 2689000   0.82165116   -6.9258124    796.11565  0.024671986  0.024526718            4 
 2690000    0.8156963    -6.910289    797.64941  0.024710329  0.024519882            7 
 2691000   0.80967138    -6.900183    800.29566  0.024783094  0.024513097           11 
 2692000   0.80374776   -6.9056788    800.48567  0.024779769  0.024506308           11 
 2693000   0.81356029   -6.8776809    797.54123  0.024679454  0.024499486           10 
 2694000   0.82325663   -6.9111255    798.70857  0.024706402  0.024492655           15 
 2695000   0.81909674   -6.9070576     796.7165  0.024635637  0.024485833            7 
 2696000   0.81257799   -6.8961476    797.55433  0.024652396  0.024479022           16 
 2697000    0.8138895   -6.8917931    798.53119  0.024673439  0.024472212           12 
 2698000   0.84524193   -6.9085565      797.223  0.024623888  0.024465395            7 
 2699000   0.81635017   -6.9140939    798.11439  0.024642287  0.024458567           12 
 2700000   0.82855083   -6.9003327    798.53363    0.0246461  0.024451737            9 
 2701000   0.81991586   -6.9094448    798.57534  0.024638262   0.02444493            9 
 2702000   0.83381944   -6.9081125    797.52691  0.024596808  0.024438128            8 
 2703000   0.82365223   -6.8805471    799.59596  0.024651497  0.024431352           15 
 2704000   0.82763057    -6.939859    800.89631  0.024682455  0.024424555            8 
 2705000   0.83455776   -6.8983488     800.0776  0.024648108  0.024417796           11 
 2706000    0.8242677   -6.9115098    799.41401  0.024618564  0.024411015            5 
 2707000   0.82799522   -6.9091168    801.64641  0.024678193  0.024404249            5 
 2708000   0.81051998   -6.9125211    799.32746  0.024597719  0.024397492           12 
 2709000   0.82079473   -6.9185361    799.49622   0.02459383  0.024390746            9 
 2710000   0.80412153   -6.9284186    800.29805  0.024609411  0.024383958            7 
 2711000   0.81043811   -6.9175074    800.91055  0.024619161  0.024377211            6 
 2712000   0.80611307   -6.9196399    801.31733  0.024622583  0.024370476           28 
 2713000   0.82857029   -6.8834552    798.56973  0.024529111   0.02436374           17 
 2714000   0.83667418   -6.9116539     802.7237   0.02464762  0.024356984           11 
 2715000   0.83876982    -6.893538    801.90683  0.024613469  0.024350296           12 
 2716000   0.81080173   -6.9465499    800.87568  0.024572769  0.024343579            7 
 2717000   0.82241416    -6.924276    802.19002  0.024604037  0.024336817            8 
 2718000   0.83335551   -6.9216775    799.55834  0.024514298   0.02433006            6 
 2719000   0.82750743   -6.9286503    802.89348  0.024607499  0.024323327           10 
 2720000    0.8270394   -6.9361513    801.00108  0.024540474  0.024316604            8 
 2721000   0.81068604   -6.9532049    800.51152  0.024516462   0.02430981            7 
 2722000    0.8111684    -6.976807    799.98662  0.024491386  0.024303012            6 
 2723000   0.83091756   -6.9255709     801.9642  0.024542912  0.024296267           10 
 2724000   0.80242626   -6.9041951     802.1804  0.024540516  0.024289592            8 
 2725000   0.83466944   -6.9563754    802.88705  0.024553121  0.024282871           15 
 2726000    0.8189661   -6.9432804    801.11964  0.024490084  0.024276142           12 
 2727000   0.80702192   -6.9313603     801.6789  0.024498194  0.024269436           13 
 2728000   0.81420265   -6.9285012    802.57193  0.024516494  0.024262758           12 
 2729000   0.82182961   -6.9118688    801.48524  0.024474326  0.024256089           11 
 2730000    0.8259733   -6.9192099    801.23349  0.024457677  0.024249475            5 
 2731000   0.82324739   -6.9146357    803.96378  0.024532033  0.024242823           14 
 2732000   0.82310376    -6.904206    803.33097  0.024503751  0.024236182            5 
 2733000   0.80388687   -6.8975073    804.63375  0.024534509  0.024229545           12 
 2734000    0.8157098    -6.896728    801.89418  0.024442032  0.024222913            9 
 2735000   0.81016198   -6.9056282    802.32869  0.024446334  0.024216287           11 
 2736000   0.81963354   -6.9187952    801.28994  0.024405761   0.02420963           20 
 2737000   0.79583592   -6.9290102    802.58439  0.024436256  0.024202953           24 
 2738000    0.8362089   -6.9085543     803.3092  0.024449391  0.024196302            8 
 2739000   0.81054665    -6.943373    803.82486  0.024456154  0.024189654           10 
 2740000   0.79900917   -6.9465306    802.97711  0.024421445  0.024182984            8 
 2741000    0.8074745   -6.9012702     805.5233  0.024489946   0.02417634            7 
 2742000   0.81460134    -6.928263    804.65512  0.024454629  0.024169712           11 
 2743000    0.8124337   -6.9321899    805.29128  0.024465041  0.024163082            7 
 2744000   0.80078168   -6.9410768    803.97843  0.024416255  0.024156427           11 
 2745000   0.80841786   -6.9335105    803.57919   0.02439524  0.024149732           14 
 2746000   0.80339971    -6.957974    803.84915  0.024394548  0.024143034           14 
 2747000   0.80420922   -6.9206613     803.1249  0.024363697  0.024136348            8 
 2748000   0.84288531   -6.8999901    803.47865  0.024365558  0.024129652            6 
 2749000   0.79788253   -6.9164155     803.1533  0.024346832  0.024122998           11 
 2750000   0.80877463   -6.9435557    804.14073  0.024367901  0.024116355            6 
 2751000   0.82276343   -6.9415738    802.90125  0.024321497  0.024109682           10 
 2752000   0.81667361    -6.934052    804.42153  0.024358695  0.024102997           11 
 2753000    0.7932829   -6.9353822    803.46485  0.024320888  0.024096304            9 
 2754000   0.80841857   -6.9396285    802.65045  0.024287414  0.024089608           10 
 2755000   0.79860839   -6.9275416    803.39712  0.024301183  0.024082896            9 
 2756000   0.81513774    -6.943345    803.92372  0.024308288  0.024076132            7 
 2757000   0.80221054   -6.9442226    804.54262  0.024318178  0.024069426           27 
 2758000   0.82034793   -6.9491825    802.55986  0.024249452  0.024062727            6 
 2759000   0.80986354   -6.9125648    805.27854  0.024322778  0.024056045           13 
 2760000   0.80512786   -6.9395135    804.83223   0.02430049  0.024049341            7 
 2761000   0.79396537   -6.9302606    804.80482  0.024290861  0.024042643           11 
 2762000   0.80936117   -6.9247707    804.87976  0.024284328  0.024035918            7 
 2763000   0.81815353   -6.9515139    803.70103  0.024239988   0.02402917           26 
 2764000   0.80716031   -6.9381263    804.31844  0.024249832  0.024022446            4 
 2765000   0.81401297   -6.9324739    804.90504  0.024258741  0.024015769           12 
 2766000   0.81192042    -6.930695    805.72475  0.024274667  0.024009092           10 
 2767000   0.80406533   -6.9336551     807.5619  0.024321223  0.024002443           12 
 2768000   0.82164816   -6.9141098    805.91991  0.024263003   0.02399579           12 
 2769000   0.80867272   -6.9521474    804.58463  0.024214055  0.023989087           16 
 2770000   0.80023321   -6.9307887     804.0937  0.024190545  0.023982344           20 
 2771000   0.80393605   -6.9345534    804.23398  0.024186033  0.023975638           16 
 2772000   0.81668931   -6.9052104    805.04146  0.024201583  0.023968954           32 
 2773000   0.81724895   -6.9311509    805.09666  0.024194514  0.023962318           30 
 2774000    0.8294018   -6.9435814    804.95428  0.024181515  0.023955636           21 
 2775000   0.81402222   -6.9290145    804.92987  0.024172068  0.023948975           13 
 2776000   0.80799501   -6.9227632    806.33976  0.024205684  0.023942333           12 
 2777000   0.80831323   -6.9080625    806.05332  0.024188372  0.023935709            9 
 2778000   0.81557302   -6.9217978    807.25664  0.024215762  0.023929095           11 
 2779000   0.80295815    -6.936948    808.21385  0.024235752  0.023922507            9 
 2780000   0.79991204   -6.9425504    808.37225  0.024231782  0.023915905            7 
 2781000   0.81778877   -6.9558597    807.08217  0.024184411  0.023909269           11 
 2782000   0.82279049   -6.9424712     806.3846  0.024154823   0.02390265            7 
 2783000   0.80302992   -6.9403294    807.88449  0.024191055  0.023896009            7 
 2784000   0.80927635   -6.9485263    808.24878  0.024193271  0.023889388           29 
 2785000    0.8300061   -6.9241814    807.25554  0.024154864  0.023882737           10 
 2786000   0.79712836   -6.9470639    807.23674  0.024145631  0.023876097            5 
 2787000   0.79860672   -6.9348254    808.38614  0.024171335  0.023869503            8 
 2788000     0.804369   -6.9509757    807.46002  0.024134984  0.023862893            6 
 2789000   0.79687454   -6.9553961    808.09038  0.024145165   0.02385629           16 
 2790000   0.81446366   -6.9450516    807.41935  0.024116468  0.023849652           21 
 2791000   0.79946108    -6.924942    806.51408  0.024080798  0.023843004           16 
 2792000   0.81943854   -6.9307669    808.76818  0.024139451  0.023836344            7 
 2793000    0.8090993   -6.9418252    807.49182  0.024092726  0.023829708            8 
 2794000   0.81726754   -6.9427387    807.48577  0.024083923  0.023823085           14 
 2795000    0.7957989   -6.9572908     806.5443  0.024047236  0.023816396           13 
 2796000   0.80212684   -6.9458317     808.1316  0.024085944   0.02380974           17 
 2797000   0.80282244   -6.9540907    807.28823  0.024052205  0.023803087            4 
 2798000   0.80492287   -6.9761384    808.69736  0.024085578  0.023796411            8 
 2799000   0.81296902   -6.9318361     808.5488   0.02407255  0.023789745            7 
 2800000   0.79941344   -6.8957666    809.27801  0.024085655  0.023783145            6 
 2801000   0.81939758   -6.9590108    807.68718  0.024029727  0.023776535            7 
 2802000   0.79430449   -6.9240378    808.85658   0.02405593  0.023769922            9 
 2803000   0.79465156   -6.9335574    807.83455  0.024016963  0.023763348           15 
 2804000   0.80348175   -6.9413274    811.74291  0.024124551  0.023756824            4 
 2805000   0.80119298   -6.9571234    807.91126  0.024002117  0.023750238            7 
 2806000    0.8152999   -6.9342847    808.24776  0.024003557  0.023743683           19 
 2807000   0.80364523    -6.954312    810.07405  0.024049224  0.023737093           11 
 2808000   0.80670571   -6.9529111    810.94825  0.024066603  0.023730485           13 
 2809000   0.79180042   -6.9488245    810.20174  0.024035889  0.023723878            4 
 2810000   0.81256639   -6.9681712    809.40276   0.02400364   0.02371727            4 
 2811000   0.81443973   -6.9172587     810.2531   0.02402031  0.023710725           10 
 2812000   0.81045562   -6.9805513    808.39338  0.023956655   0.02370415            9 
 2813000   0.81352302   -6.9502295    810.72079  0.024017087  0.023697572           13 
 2814000   0.79796774   -6.9502165    810.46167  0.024000879  0.023691011            9 
 2815000   0.79553572   -6.9488455     809.9653  0.023977658  0.023684434            5 
 2816000   0.79116937   -6.9576763     811.1165  0.024003211  0.023677849           10 
 2817000   0.80792593   -6.9308213    810.27617  0.023969831  0.023671286            8 
 2818000   0.80309458   -6.9557112    810.91564  0.023980235  0.023664769           22 
 2819000   0.78785924   -6.9577172     811.5762  0.023991256   0.02365824           10 
 2820000   0.80283177   -6.9332414    811.96218  0.023994154  0.023651713           10 
 2821000   0.78462053    -6.951169    811.62982  0.023975831  0.023645216            8 
 2822000   0.80013323   -6.9643939    811.05578  0.023950383  0.023638664           10 
 2823000   0.80177713   -6.9371625    811.32636  0.023949887  0.023632093           12 
 2824000   0.79781826   -6.9591487    809.09281  0.023875496   0.02362549           11 
 2825000    0.8037526   -6.9271847    812.33705  0.023962745  0.023618931           21 
 2826000    0.7956775   -6.9413854    811.54882  0.023931022  0.023612358            5 
 2827000   0.78956522   -6.9586181    811.24803   0.02391369  0.023605807            7 
 2828000   0.81000251    -6.915861    813.25152  0.023964272  0.023599299           10 
 2829000   0.80057049   -6.9484834    812.46977  0.023932773  0.023592741           13 
 2830000   0.81254398   -6.9399627    811.02244  0.023881697  0.023586168           15 
 2831000   0.79014113   -6.9791158    811.47857  0.023886688  0.023579597           19 
 2832000   0.79793905    -6.971876    810.97627  0.023863473  0.023572995           12 
 2833000   0.79299488   -6.9762891    811.19753  0.023861558  0.023566428           13 
 2834000   0.80696077   -6.9311589    810.00875  0.023818182  0.023559864            5 
 2835000   0.77887163   -6.9615697    812.52018  0.023883603  0.023553311            6 
 2836000   0.80489348   -6.9578076    809.75123  0.023793819  0.023546766           10 
 2837000   0.81137055   -6.9630783    812.57454  0.023868363    0.0235402           11 
 2838000   0.80828963   -6.9594101     811.6884  0.023833932  0.023533637            7 
 2839000   0.79256353   -6.9232663    812.00708  0.023834892  0.023527116           12 
 2840000   0.82234627   -6.9592701    812.36062  0.023836873  0.023520595            9 
 2841000   0.78261764   -6.9307635    812.89503  0.023844158  0.023514087            9 
 2842000   0.79918133    -6.937551    812.68069  0.023829483  0.023507575           11 
 2843000   0.80035204      -6.9416    812.86267  0.023826435  0.023501012           15 
 2844000   0.79474844    -6.958439    812.68088  0.023812731  0.023494435           15 
 2845000   0.79441273   -6.9651492    812.03877  0.023785553  0.023487861           17 
 2846000   0.81038233    -6.947499    812.32118  0.023785464  0.023481273           24 
 2847000   0.78885265   -6.9213132    812.34277  0.023777742  0.023474793            8 
 2848000   0.79353828   -6.9924044    811.83683  0.023754589   0.02346824           12 
 2849000   0.77976684   -6.9632531    812.76498    0.0237734  0.023461697            6 
 2850000   0.80926073   -6.9607691    814.38773  0.023812507  0.023455161            8 
 2851000   0.80678421   -6.9711318    813.30078  0.023772383  0.023448663            6 
 2852000   0.80493971    -6.918168    815.22292  0.023820212  0.023442169            5 
 2853000   0.79160067   -6.9546002    811.98618   0.02371732   0.02343568           13 
 2854000   0.79319782    -6.973359     815.0131  0.023797393  0.023429187            5 
 2855000   0.79826112   -6.9777393    814.27149  0.023767411  0.023422656            6 
 2856000   0.80106099   -6.9582438    813.56899  0.023738591  0.023416146           10 
 2857000   0.80403829   -6.9852099    810.64901  0.023645112  0.023409566           18 
 2858000   0.78528231   -6.9405173    813.10076  0.023708326  0.023403041            6 
 2859000   0.79536495   -6.9755252    812.35228  0.023678217  0.023396521           15 
 2860000   0.77597266   -6.9695719    813.00979  0.023689096   0.02338999           15 
 2861000   0.76979299    -6.949618    812.43911  0.023664194  0.023383481            6 
 2862000   0.79125781   -6.9802674    813.58627  0.023689328  0.023376999            9 
 2863000   0.80724814   -6.9476469    814.91598  0.023719757  0.023370468            5 
 2864000   0.80778058   -6.9624662    814.07212  0.023686922  0.023363958            8 
 2865000   0.79746657   -6.9483469    813.38148  0.023658566  0.023357449           17 
 2866000   0.78464937   -6.9729956    814.41632    0.0236804  0.023350918           10 
 2867000   0.78639761   -6.9542915    813.55457  0.023647093  0.023344384           15 
 2868000   0.80445953   -6.9922693    813.74352  0.023644338  0.023337849           11 
 2869000   0.78266123   -6.9667663    811.83443  0.023580644  0.023331292           17 
 2870000   0.79286977   -6.9876586    814.54319   0.02365108  0.023324718            9 
 2871000   0.78319964   -6.9895546    814.35923  0.023637502  0.023318173           15 
 2872000   0.78692082   -6.9799865    812.49456  0.023575167  0.023311659           10 
 2873000   0.80942196   -6.9758038    814.83683    0.0236349  0.023305136            6 
 2874000   0.78769701   -6.9837849    814.99983  0.023631403  0.023298587           11 
 2875000   0.76760345   -6.9960503    813.03156  0.023566132   0.02329201           15 
 2876000   0.80110686   -6.9730497    812.38794  0.023539289  0.023285422           21 
 2877000   0.78150565   -6.9616331    815.30596  0.023615629  0.023278882            7 
 2878000   0.79515898   -6.9454187    815.54665  0.023614392   0.02327234            5 
 2879000   0.79435813   -6.9861825    812.34955  0.023513649  0.023265779           14 
 2880000   0.77259772   -6.9857615    812.98818  0.023523964  0.023259206           17 
 2881000   0.78700823   -6.9634873    815.88004  0.023599446  0.023252656           26 
 2882000   0.79335592   -6.9789365    815.51656  0.023580747  0.023246097           10 
 2883000   0.78382292    -6.947751    812.20917  0.023476968  0.023239523           15 
 2884000   0.79060858   -6.9754921    815.81579  0.023573041   0.02323292           14 
 2885000   0.78869251   -6.9578088    813.48632  0.023497583  0.023226328            9 
 2886000   0.80301024   -6.9779836    813.20015  0.023481178  0.023219723            6 
 2887000   0.77829649   -6.9845223    814.90634  0.023522294  0.023213164           13 
 2888000   0.78937402   -6.9892889    814.20433  0.023493892  0.023206604           27 
 2889000   0.78650006   -7.0067562    814.19603  0.023485521  0.023200037           13 
 2890000   0.79454988   -6.9789593    815.21897  0.023506891  0.023193447            8 
 2891000   0.78098015   -6.9895512    814.35975  0.023473993  0.023186871            9 
 2892000   0.78810379   -6.9922967    814.84289  0.023479797  0.023180297            9 
 2893000   0.79613044   -6.9675523    815.44653  0.023489069  0.023173738            5 
 2894000   0.78667473   -6.9755674    815.23293  0.023474802  0.023167186            7 
 2895000   0.79103501   -7.0111101    813.60178   0.02341974   0.02316063            7 
 2896000   0.78517027   -6.9726679    814.61828  0.023440904   0.02315404           22 
 2897000   0.79001122   -6.9629832    815.47595  0.023457483  0.023147495           27 
 2898000   0.79098901   -6.9887647    815.79864  0.023458668  0.023140911           23 
 2899000   0.79263865   -6.9499212    816.66131  0.023475374  0.023134335           14 
 2900000   0.79302157   -6.9680455    814.07112  0.023392848  0.023127769           24 
 2901000   0.80829793   -6.9794319    815.51013  0.023426121  0.023121167           10 
 2902000    0.7824518   -6.9492961    815.23846  0.023410247   0.02311456            9 
 2903000   0.79799371    -6.981998    815.32516  0.023404672  0.023107969            7 
 2904000    0.7715736   -6.9644512    814.31384  0.023367592  0.023101381           12 
 2905000   0.78637152    -6.968357    814.56099  0.023366638   0.02309485           29 
 2906000   0.80059227   -6.9787406    815.53971  0.023386663  0.023088276            8 
 2907000   0.76362144   -6.9951005     815.9362  0.023389984  0.023081728           10 
 2908000   0.80894719   -6.9753056    816.31409   0.02339277  0.023075169           16 
 2909000    0.7911502   -6.9852793    814.05105  0.023319899  0.023068607           16 
 2910000   0.79968045   -6.9766593    813.86786   0.02330664  0.023062056           16 
 2911000   0.79983834   -7.0016993    814.77933  0.023324726  0.023055483            8 
 2912000   0.79883663   -6.9582067     815.2845  0.023331173   0.02304888            6 
 2913000   0.78539072   -6.9885392     815.3885  0.023326139  0.023042302            8 
 2914000   0.76752515   -6.9952426    816.38673  0.023346681  0.023035738           22 
 2915000   0.78572022   -6.9984791    816.85182  0.023351967  0.023029167           11 
 2916000   0.77661216   -6.9602045    815.72431  0.023311737  0.023022599           21 
 2917000   0.79627693   -6.9624219    817.21504  0.023346333  0.023016035            8 
 2918000   0.78928742   -6.9871676    815.72492  0.023295777  0.023009447           14 
 2919000   0.79651254   -6.9916637    814.96543  0.023266114  0.023002867            9 
 2920000   0.81342587   -6.9716604    817.80055  0.023339057  0.022996297            7 
 2921000   0.79035443   -6.9713402    817.09271  0.023310873  0.022989747            7 
 2922000   0.78438225   -6.9665537    817.79018  0.023322786  0.022983204           12 
 2923000   0.76921208   -6.9839409    816.92455  0.023290129  0.022976659           13 
 2924000    0.7830135   -6.9687257    817.22995  0.023290867  0.022970086           10 
 2925000   0.77438477   -6.9825634    815.37397  0.023230028  0.022963497           17 
 2926000   0.79068096   -7.0063077    815.31927  0.023220531   0.02295692            8 
 2927000   0.77409234   -7.0078024    817.93615  0.023287101  0.022950362            7 
 2928000   0.76606489   -6.9792322    817.12767  0.023256138   0.02294381            7 
 2929000   0.79342613   -6.9728064    817.23684  0.023251304  0.022937271           17 
 2930000   0.80142962   -6.9790557    815.00659  0.023179937  0.022930735            8 
 2931000   0.78071631   -6.9826914    815.87293   0.02319666  0.022924196            8 
 2932000   0.78766993   -6.9907487    815.65035  0.023182423  0.022917654           15 
 2933000   0.78168934   -6.9838831    816.69552  0.023204214  0.022911102           11 
 2934000   0.77861449   -7.0162206    814.56935  0.023135917  0.022904533           14 
 2935000   0.79282553    -6.987161    816.01672  0.023169129  0.022897947           12 
 2936000     0.777747   -6.9917948    816.67479  0.023179916  0.022891388           14 
 2937000   0.77424912   -6.9944529    816.79281  0.023175372  0.022884841           12 
 2938000   0.79392488   -7.0141494    816.06472  0.023146832   0.02287826           23 
 2939000   0.79047128   -6.9962059    816.71085  0.023157277  0.022871682           19 
 2940000   0.77962117    -6.982252    816.49725  0.023143346  0.022865121           10 
 2941000   0.78724382   -6.9938154    816.65966  0.023140079  0.022858564           10 
 2942000   0.77564575   -6.9793539    817.79572  0.023164393  0.022851996           18 
 2943000   0.76493969   -6.9733676    817.87759   0.02315884  0.022845437            9 
 2944000   0.76965934   -7.0130179    816.07086  0.023099832  0.022838898            9 
 2945000   0.78580464   -6.9750155    817.87912  0.023143156  0.022832344            7 
 2946000   0.78454218   -7.0133629    818.34799  0.023148563  0.022825819           11 
 2947000   0.78295229   -6.9702356    817.98327  0.023130394  0.022819331           16 
 2948000    0.7740316   -6.9765898    817.44604  0.023107362  0.022812855           13 
 2949000   0.79050853   -6.9701688    818.93169  0.023141508  0.022806331            5 
 2950000   0.77878874   -6.9774534    818.79269  0.023129737  0.022799861            5 
 2951000   0.78429534   -6.9840932    818.09996  0.023102337  0.022793373            7 
 2952000   0.75675741    -6.969357    820.21842  0.023154314  0.022786887            5 
 2953000   0.78004885   -6.9944855    819.48559  0.023125793  0.022780429            6 
 2954000   0.78453116   -6.9843292    821.50184  0.023174843  0.022773971           10 
 2955000   0.77277985   -6.9674054    820.41604   0.02313638  0.022767515           10 
 2956000   0.78608904   -6.9690668    820.48519  0.023130503  0.022761043           10 
 2957000   0.79138826   -6.9869519    820.31793  0.023117967  0.022754543           13 
 2958000   0.78693416   -6.9872373    820.34664   0.02311096  0.022748055           22 
 2959000   0.78468943   -6.9774249    820.20923   0.02309928  0.022741559           10 
 2960000   0.78586442   -7.0086353    818.69629  0.023048882  0.022735068           29 
 2961000   0.78441029   -7.0145939    819.32788  0.023058873  0.022728578           25 
 2962000   0.76033001   -7.0245645    818.30009  0.023022172  0.022722092            7 
 2963000   0.78973375   -7.0193386    818.89956  0.023031262  0.022715589           13 
 2964000   0.76996937   -6.9793648    817.13585  0.022973905   0.02270911           10 
 2965000   0.76176737   -6.9875121    818.85527  0.023014482  0.022702643           10 
 2966000   0.79181826   -7.0149583    820.27782  0.023046691  0.022696167            8 
 2967000   0.76302187    -7.021407    820.38411  0.023041908  0.022689671            8 
 2968000   0.74855677   -6.9629478    820.83977  0.023046939  0.022683159            7 
 2969000   0.76632574   -7.0033339    819.48858  0.023001251  0.022676658            5 
 2970000   0.78235273    -6.993805    820.60129  0.023024727  0.022670173           17 
 2971000    0.7893642   -6.9975371    818.65879  0.022962493  0.022663692           14 
 2972000   0.77237689   -6.9934888     819.0397  0.022965447  0.022657198           20 
 2973000   0.77333917   -7.0360012    818.13305  0.022932309  0.022650717           11 
 2974000    0.7735744   -7.0080953    820.77877  0.022998733  0.022644239            8 
 2975000   0.76133051   -6.9891651    820.22674  0.022975539   0.02263777           14 
 2976000   0.78316155    -7.015667     820.9093  0.022986931  0.022631302           10 
 2977000   0.77852023   -7.0058134    819.41144  0.022937281  0.022624849           19 
 2978000   0.78244463   -7.0166371    819.77952  0.022939879  0.022618391           11 
 2979000   0.76116765   -7.0056897    820.47184  0.022951545  0.022611965           12 
 2980000   0.77480564   -7.0008019    821.81912  0.022981519  0.022605556           22 
 2981000   0.76904643   -7.0016701    821.28156  0.022958782   0.02259913           10 
 2982000   0.77428405   -6.9690727     820.7267  0.022935577  0.022592707           14 
 2983000   0.77797096   -6.9845652    820.45185   0.02292021  0.022586255           12 
 2984000   0.77217748    -6.994286    819.98098  0.022899379  0.022579836            9 
 2985000   0.76906267    -7.030337    821.16219  0.022924684  0.022573412           11 
 2986000   0.78575007   -7.0063815    822.42698  0.022952305  0.022566992            8 
 2987000   0.77521207   -7.0009823     822.2386  0.022939365  0.022560608            6 
 2988000   0.77341225   -6.9839765    824.14315  0.022984805   0.02255423           11 
 2989000   0.75600401    -7.007021    823.53784  0.022960239  0.022547877           16 
 2990000    0.7589131   -7.0127088    822.94313  0.022935985  0.022541526           26 
 2991000   0.77778847    -7.024511    821.56707  0.022889977  0.022535143           22 
 2992000    0.7575405   -7.0180959    822.40735  0.022905731  0.022528763           14 
 2993000   0.76218688   -7.0182187    822.64511  0.022904697  0.022522385           12 
 2994000   0.77228859    -7.011988    823.98241  0.022934269  0.022516005           14 
 2995000   0.76738506   -7.0126506    822.45591  0.022884138  0.022509656           19 
 2996000   0.78047681   -7.0187863    823.27563    0.0228993  0.022503352           18 
 2997000   0.77727037   -6.9783226    823.68427  0.022903022   0.02249701           36 
 2998000   0.77212944   -6.9925317    824.13158  0.022907816  0.022490683           10 
 2999000   0.76235058   -7.0125269    822.13615   0.02284473  0.022484309           11 
 3000000   0.78275439    -7.010406     824.1092  0.022891922  0.022477931            7 
 3001000   0.79001189   -7.0174138    824.67046   0.02289988  0.022471584            8 
 3002000   0.76596586   -7.0193432    822.53324  0.022832924  0.022465225           10 
 3003000   0.77466559   -7.0179662    822.62396  0.022827838  0.022458846           13 
 3004000    0.7618218   -7.0279478    824.12409  0.022861853  0.022452477            5 
 3005000   0.77632675   -7.0471733    822.40381  0.022806539  0.022446107           12 
 3006000   0.79352472   -6.9924979    823.35812  0.022825408  0.022439762           17 
 3007000   0.77664601   -7.0092488    823.34478  0.022817448  0.022433426           11 
 3008000   0.76260566   -6.9925924    825.52291  0.022870205  0.022427067            6 
 3009000   0.77593525   -7.0207026    824.28854  0.022828419  0.022420716           20 
 3010000   0.76700878   -7.0176206    823.52419  0.022799673  0.022414333           12 
 3011000   0.75891146   -7.0105565     821.9259  0.022747866  0.022407952            7 
 3012000   0.78125863   -6.9938437    822.97204  0.022769257  0.022401599           10 
 3013000    0.7605316   -7.0463339    823.65489  0.022780587  0.022395244            7 
 3014000   0.76427902   -7.0113098    822.74849  0.022747967  0.022388886           16 
 3015000   0.77236012   -7.0112059      823.715  0.022767137  0.022382513           10 
 3016000   0.77175336   -7.0155297    823.37569  0.022750213  0.022376161            9 
 3017000   0.76594125   -7.0417693    822.42589  0.022716437  0.022369807           11 
 3018000   0.75910462   -7.0248066    823.07022  0.022726702  0.022363413           13 
 3019000   0.77053813   -7.0283852    822.11882  0.022692912  0.022357045           10 
 3020000   0.76675079   -6.9911618     824.2066  0.022743008  0.022350659           16 
 3021000   0.77449207   -6.9823813     824.4803  0.022743029  0.022344319           14 
 3022000   0.77131546    -7.033023    822.51673  0.022681357  0.022337965           19 
 3023000   0.76211309   -7.0480419    823.01318   0.02268754  0.022331604           15 
 3024000   0.76114625   -7.0290101    824.36184  0.022717203  0.022325239            8 
 3025000   0.76630804   -7.0533996    823.62615  0.022689426  0.022318894            9 
 3026000   0.77249545   -7.0066496    825.33499  0.022728987  0.022312569           12 
 3027000    0.7558418   -7.0275617    826.47873  0.022752966  0.022306265           16 
 3028000   0.76855818   -7.0219385    825.33931  0.022714094  0.022299973           12 
 3029000   0.76798628   -7.0234376    825.78577  0.022718878  0.022293676            7 
 3030000   0.77504425   -7.0230918    825.54505  0.022704759  0.022287407            9 
 3031000   0.76096628   -7.0155215    826.59244  0.022726065  0.022281151           13 
 3032000   0.77297283   -7.0355656    826.70793  0.022721744  0.022274868           20 
 3033000   0.76581845   -7.0409469      824.731  0.022659935  0.022268581           11 
 3034000   0.74639539   -7.0175735    825.39118  0.022670599   0.02226228           43 
 3035000   0.75782573   -7.0340086    827.31789  0.022716032  0.022256005           27 
 3036000   0.76643571   -7.0241596    823.87057  0.022613927  0.022249722           14 
 3037000   0.76796577   -7.0343092    825.33214  0.022646585  0.022243451           18 
 3038000   0.78558056   -7.0265114    824.23482  0.022609031  0.022237134           12 
 3039000   0.77129994   -7.0475771    825.92603  0.022647966  0.022230868           14 
 3040000    0.7696565   -7.0302505    826.86596  0.022666282  0.022224618           16 
 3041000   0.75557964   -7.0490883    827.06442  0.022664267  0.022218351           14 
 3042000    0.7601426    -7.010368    825.39192  0.022610999   0.02221207            8 
 3043000   0.75721151   -7.0247839    827.61316  0.022664398  0.022205799            9 
 3044000   0.75394272   -7.0150754    828.00412  0.022667656   0.02219952            6 
 3045000   0.76974738   -7.0430957    826.60354  0.022621881  0.022193249            7 
 3046000   0.77333769   -7.0482357    824.51377  0.022557282  0.022186988            5 
 3047000   0.77732768   -7.0480769    827.63185  0.022635156  0.022180712            7 
 3048000   0.75285753   -7.0133291    826.95309  0.022609172  0.022174456           10 
 3049000   0.75654924   -7.0395944    825.69218  0.022567295  0.022168218            8 
 3050000    0.7511469   -7.0445641    826.71309  0.022587789  0.022161951            5 
 3051000   0.74967888   -7.0325526    828.93111  0.022640968  0.022155667           13 
 3052000   0.76175072   -7.0331232    827.09736   0.02258348  0.022149386           11 
 3053000   0.76962753   -7.0362242    826.19384  0.022551421  0.022143116            9 
 3054000   0.77027439   -7.0298718    827.53063  0.022580513  0.022136859            8 
 3055000   0.77786022   -7.0323702    825.77622  0.022525265  0.022130592           14 
 3056000   0.76868222   -7.0394611    828.55679  0.022593717  0.022124358            6 
 3057000   0.74340885   -7.0322289    828.87971  0.022595129  0.022118099            7 
 3058000   0.76669683   -7.0364241    828.62451  0.022580786  0.022111856            4 
 3059000   0.76523962   -7.0283995    826.68172  0.022520478  0.022105617           14 
 3060000   0.77226472   -7.0264652    827.75237  0.022542276  0.022099364            8 
 3061000   0.77043989   -7.0323787    826.97835   0.02251384  0.022093136           17 
 3062000   0.76042185   -7.0668863    826.39722  0.022490671  0.022086881           15 
 3063000   0.77764188   -7.0424104    825.19756   0.02245069  0.022080597           27 
 3064000   0.76348758   -7.0205066    828.90349  0.022544155  0.022074355           13 
 3065000   0.78566494    -7.039685    828.43962  0.022524187  0.022068127           11 
 3066000   0.75684916   -7.0283725    826.74373  0.022470747   0.02206187           15 
 3067000   0.76605018   -7.0167999    828.00195  0.022497607  0.022055622            8 
 3068000   0.75453338   -7.0510065    825.92414  0.022433837  0.022049375            7 
 3069000   0.76942162   -7.0038195    828.34464  0.022492252  0.022043109           15 
 3070000   0.75286932   -7.0210928    828.05948  0.022477185  0.022036854            8 
 3071000   0.74429183   -7.0506354    826.35956  0.022423737  0.022030585           13 
 3072000   0.76328343   -7.0359125    829.02158   0.02248865  0.022024297           17 
 3073000   0.76085672   -7.0155508    827.44073  0.022438462  0.022018012           16 
 3074000   0.77196428    -7.046425    827.89161  0.022443386   0.02201174           16 
 3075000   0.75807345   -7.0450401    827.56888  0.022427341  0.022005455           20 
 3076000    0.7615394   -7.0244684    829.61829  0.022475571  0.021999188           10 
 3077000   0.75153292   -7.0107487    830.03338  0.022479509  0.021992945            8 
 3078000   0.76570723     -7.03151    828.42063  0.022428542  0.021986658           12 
 3079000   0.75328735   -7.0131606    827.64847  0.022400359  0.021980386           14 
 3080000   0.77280825   -7.0385393    827.30087  0.022383682  0.021974136           31 
 3081000   0.75397833   -7.0259752    828.79857  0.022416926  0.021967881           18 
 3082000   0.74537697   -7.0291528    828.00658  0.022388238  0.021961637           14 
 3083000   0.75220951   -7.0331974    828.51447  0.022394704  0.021955378           13 
 3084000   0.74459171    -7.058169    828.81177  0.022395476  0.021949154           37 
 3085000   0.75994194   -7.0239367    830.28127  0.022427911  0.021942921           10 
 3086000   0.75839553   -7.0329119    829.29354  0.022393971  0.021936697           17 
 3087000   0.76698769    -7.025163    828.12835  0.022355263  0.021930479           11 
 3088000   0.74494215   -7.0351863    828.92058  0.022369402  0.021924267           15 
 3089000    0.7605141   -7.0493752     828.2617  0.022344386  0.021918046           36 
 3090000   0.73976829   -7.0385431    829.22082  0.022363021  0.021911832           24 
 3091000   0.76801438   -7.0326357    829.92594  0.022374796  0.021905626           17 
 3092000   0.76036612   -7.0483111    830.49402   0.02238287  0.021899425           14 
 3093000   0.75642421   -7.0606314    828.50498  0.022322044  0.021893229           22 
 3094000   0.74707653   -7.0584807    830.40965  0.022366129  0.021886992           10 
 3095000   0.76223371   -7.0403977    829.48137  0.022333909  0.021880786           10 
 3096000   0.76212585   -7.0608304    829.23595  0.022320089  0.021874583           10 
 3097000   0.76950753   -7.0584607    829.65959  0.022324281  0.021868387           12 
 3098000   0.75954151    -7.048016    832.30552  0.022388248  0.021862188           24 
 3099000   0.77261655   -7.0389676    830.45343  0.022331221  0.021856022           24 
 3100000     0.761704   -7.0329648    828.31086  0.022266421  0.021849843           21 
 3101000   0.74459565    -7.046514      830.347  0.022313958  0.021843667           31 
 3102000   0.76459319   -7.0634577    831.95421  0.022349941  0.021837507           10 
 3103000   0.76328533   -7.0540874    831.31942  0.022325691  0.021831331           14 
 3104000   0.76659321   -7.0435625    831.06308  0.022311616  0.021825163           16 
 3105000   0.77118471   -7.0329945    830.93488   0.02230099  0.021818983            7 
 3106000   0.75611492   -7.0310356    831.16428  0.022299965  0.021812832            5 
 3107000    0.7456346   -7.0609996    829.68962  0.022253235  0.021806652           12 
 3108000   0.77664838   -7.0310196    830.05241  0.022255803  0.021800491            9 
 3109000   0.74638426   -7.0251424    831.22448   0.02228006  0.021794348           15 
 3110000   0.75804773   -7.0441819     830.7906   0.02226127  0.021788196           16 
 3111000   0.74216673   -7.0460486    831.93167   0.02228468  0.021782031           11 
 3112000   0.75867142   -7.0445124    832.74019   0.02229917  0.021775865           26 
 3113000   0.73886729   -7.0608043    829.97583  0.022218006  0.021769681           20 
 3114000   0.74603862    -7.065572    828.59824  0.022174006  0.021763507           18 
 3115000   0.74524973   -7.0374899    831.38629  0.022241474  0.021757315           12 
 3116000   0.73926833   -7.0454203    830.69773  0.022215921  0.021751162            8 
 3117000   0.76079305   -7.0849773    831.12407  0.022220192  0.021744995           18 
 3118000   0.77231165   -7.0435542    831.28178  0.022217281  0.021738822           10 
 3119000   0.76141194   -7.0597077    829.37302  0.022159159  0.021732669            9 
 3120000   0.75483904   -7.0463628     831.8859  0.022219175  0.021726494            7 
 3121000   0.76162842   -7.0567584    831.14189   0.02219219   0.02172033            8 
 3122000   0.75169891    -7.051709    830.25414  0.022161385  0.021714158           14 
 3123000   0.74807691   -7.0159054    832.78324  0.022221775   0.02170803           18 
 3124000   0.74769111    -7.055951    831.54374  0.022181598  0.021701887           17 
 3125000   0.73580263   -7.0523634    832.14686  0.022190583  0.021695733           10 
 3126000   0.74534132   -7.0398083    833.57481  0.022221551  0.021689586            7 
 3127000   0.75007012   -7.0325687    830.81584  0.022140919  0.021683434           13 
 3128000   0.75638364   -7.0524562    831.05229   0.02214014   0.02167731           11 
 3129000   0.74197583   -7.0661991    832.63156  0.022175124  0.021671184           15 
 3130000   0.75504602   -7.0836529    831.90077  0.022148583  0.021665059           12 
 3131000   0.74878456   -7.0640408    832.49683  0.022157373  0.021658934            9 
 3132000    0.7339658   -7.0846421    831.53577  0.022124728  0.021652797           17 
 3133000   0.76131341   -7.0827525    833.69074  0.022174985  0.021646679            7 
 3134000   0.75115572   -7.0498929    832.32582  0.022131616  0.021640531           10 
 3135000   0.76006652   -7.0881466    833.12865  0.022145897  0.021634403           13 
 3136000   0.75186421    -7.058094    832.29566    0.0221167  0.021628252           20 
 3137000   0.76461111   -7.0631774      831.146   0.02207911  0.021622096           19 
 3138000   0.76875802   -7.0710904    832.47686  0.022107416  0.021615945           14 
 3139000   0.75730993      -7.0578    831.31767  0.022069599  0.021609806           18 
 3140000     0.749426   -7.0794234    831.86011  0.022076967  0.021603669           17 
 3141000   0.74538328     -7.06338    831.27759  0.022054484  0.021597537            7 
 3142000   0.76026851   -7.0249541    832.59638  0.022082442  0.021591407            7 
 3143000   0.74179928   -7.0486197    832.53399  0.022073762  0.021585297           16 
 3144000   0.73839703    -7.050968    831.32601  0.022034722  0.021579172            9 
 3145000   0.75015157   -7.0825271    832.10184  0.022048273   0.02157304           11 
 3146000    0.7427886   -7.0732876    833.41564  0.022076066  0.021566935            7 
 3147000   0.75713281    -7.057653    831.22464  0.022011033  0.021560822           14 
 3148000   0.74361389   -7.1054484    833.01485  0.022051431  0.021554729           14 
 3149000   0.74742028   -7.0592652    832.95415  0.022042822  0.021548633           17 
 3150000   0.74679571   -7.0793528     833.1221  0.022040267  0.021542553            8 
 3151000   0.74501279   -7.0671727    832.96078  0.022029006  0.021536488           16 
 3152000   0.75379521   -7.0662599    836.23056  0.022108464  0.021530433           13 
 3153000   0.75680493   -7.0298745    834.96855  0.022068098  0.021524398           13 
 3154000   0.74366574   -7.0464659    834.95588  0.022060766  0.021518364           12 
 3155000   0.76344383   -7.0546732    834.48358  0.022041299  0.021512324            8 
 3156000   0.74494181   -7.0439299    834.16714   0.02202596  0.021506261           12 
 3157000   0.73783248    -7.046311    833.93391  0.022012826   0.02150022           26 
 3158000    0.7406892   -7.0411601    835.30067  0.022041922  0.021494184           18 
 3159000   0.75596557   -7.0710628    833.13931  0.021977928  0.021488147           22 
 3160000   0.74637601   -7.0626576    833.12003  0.021970465  0.021482099           34 
 3161000   0.75200766   -7.0505223     836.0136  0.022039797  0.021476046           32 
 3162000   0.75339342   -7.0628207    833.20492  0.021958806  0.021469994           23 
 3163000   0.74376245   -7.0723664    835.77147  0.022019482  0.021463965           13 
 3164000   0.73311136   -7.0422555    833.72722  0.021958681  0.021457946           14 
 3165000   0.74915077   -7.0521596    834.89632  0.021982526  0.021451932           19 
 3166000   0.75953363   -7.0587384    835.43568  0.021989779  0.021445957           10 
 3167000   0.76349496   -7.0291852    835.75181  0.021991154   0.02143996           16 
 3168000   0.74384832    -7.050061    836.93877  0.022015435  0.021433979           12 
 3169000   0.74531961   -7.0692783    835.86903  0.021980357  0.021427986           11 
 3170000   0.75469936   -7.0361623    835.09676  0.021953122  0.021422002           12 
 3171000    0.7478697   -7.0570491     836.5929  0.021985517  0.021415998           11 
 3172000   0.74822319   -7.0663426    837.74649  0.022008893  0.021409998           20 
 3173000   0.73377976   -7.0820108    835.74426  0.021949371  0.021404017           15 
 3174000   0.75307078   -7.0511354    837.99351   0.02200151  0.021398038           11 
 3175000   0.75392961   -7.0652214    836.51262  0.021955712  0.021392073           10 
 3176000   0.74073188   -7.0722877    836.51302  0.021948809  0.021386077           11 
 3177000   0.74452318   -7.0693026    836.43398  0.021939827  0.021380094           13 
 3178000   0.74766417   -7.0507513    836.12844  0.021924912   0.02137412           22 
 3179000   0.73636127   -7.0820995    836.18913  0.021919606  0.021368148           34 
 3180000   0.74617092   -7.0848108     836.7375  0.021927083  0.021362154           15 
 3181000    0.7252974   -7.0442513    836.53176    0.0219148   0.02135616           13 
 3182000   0.74901217   -7.0562841    835.96929  0.021893183  0.021350184           38 
 3183000   0.74581011   -7.0645956    835.41793   0.02187187  0.021344196           15 
 3184000   0.74591555   -7.0954979    836.49114  0.021893089  0.021338222           26 
 3185000   0.75070839   -7.0656165    837.58974  0.021914959  0.021332246           15 
 3186000   0.74030429   -7.0793768    837.57567  0.021907713  0.021326258           10 
 3187000   0.73927329   -7.0773485    836.30172  0.021867527  0.021320296            4 
 3188000   0.71759788   -7.0790301    839.17429  0.021935756  0.021314356           23 
 3189000    0.7320399   -7.0771357    837.48908  0.021884841   0.02130843           21 
 3190000   0.74315128   -7.0538055    840.15304  0.021947572  0.021302485           31 
 3191000   0.74995133    -7.073121    838.79064  0.021905114  0.021296535           11 
 3192000    0.7438106    -7.075927    838.40199  0.021888105  0.021290599           10 
 3193000   0.74205367   -7.0861776    838.58401  0.021886001  0.021284648           18 
 3194000   0.74623471   -7.0695201     841.0878  0.021944474  0.021278721           17 
 3195000   0.73119313   -7.0880518    838.11635  0.021860103   0.02127279           13 
 3196000   0.74158669   -7.0755894    837.77239  0.021844295  0.021266849           11 
 3197000   0.74204999   -7.0836798    839.14165  0.021873153  0.021260918           15 
 3198000   0.74598174   -7.0685654    840.79153  0.021909306  0.021254988           16 
 3199000   0.74345959   -7.1002565    839.57572  0.021870786  0.021249061           38 
 3200000   0.74739569   -7.1057518    838.04968  0.021824211  0.021243116           25 
 3201000   0.74257125   -7.0666028    839.65234  0.021859115  0.021237192           11 
 3202000   0.74159032   -7.0922511    838.13791  0.021812875  0.021231275           12 
 3203000   0.74704025   -7.0893314    837.27965  0.021783735   0.02122531           13 
 3204000   0.73316905   -7.0760208    839.41686  0.021832523  0.021219382           12 
 3205000   0.72036789   -7.0776539    839.54255   0.02182898  0.021213425           14 
 3206000   0.73440916   -7.1086077    839.49435  0.021820918   0.02120747           30 
 3207000    0.7480119   -7.0999229    839.99714  0.021827179  0.021201547           33 
 3208000   0.73402153   -7.0683542    838.93125  0.021792686  0.021195647           29 
 3209000   0.74356852   -7.0533956    838.00578  0.021761862  0.021189755           16 
 3210000   0.73030586   -7.0836262    839.91097  0.021804542  0.021183864           10 
 3211000   0.73755665   -7.0802489    839.18685  0.021778959  0.021177973           10 
 3212000   0.74021567   -7.0958733    839.06102  0.021768914  0.021172062           29 
 3213000   0.73593032   -7.0876622    839.36607  0.021770051  0.021166157           34 
 3214000   0.72078697   -7.1033233     839.0611   0.02175537  0.021160251           33 
 3215000   0.73405071    -7.100068    838.72171  0.021739806  0.021154305           67 
 3216000    0.7352837   -7.0748472    837.37596  0.021698175  0.021148364           43 
 3217000   0.71724309   -7.0875053    838.75161  0.021727065  0.021142434           22 
 3218000   0.73205162   -7.0834211    838.07865  0.021702886  0.021136515           10 
 3219000   0.72764396   -7.1185594    836.90202  0.021665684  0.021130578           38 
 3220000   0.72828928   -7.0825888    840.12432  0.021742348  0.021124637           16 
 3221000   0.72615561   -7.0909093    838.27974  0.021687875  0.021118703           44 
 3222000   0.74359882   -7.1155795    839.44688   0.02171133  0.021112787           20 
 3223000   0.72811805   -7.1033461    839.51548  0.021706368  0.021106844           19 
 3224000   0.72945003   -7.0969493    840.06788  0.021713913  0.021100903           26 
 3225000   0.75147574   -7.1078745    838.09875  0.021656299  0.021094984           11 
 3226000   0.74829096   -7.1054105    838.42861  0.021658106  0.021089057           21 
 3227000    0.7277132   -7.0914813    838.60213  0.021655876  0.021083106           33 
 3228000   0.71826311   -7.1034186    838.99241  0.021659242  0.021077151           10 
 3229000   0.72598804   -7.0900891    838.45845  0.021638754  0.021071193           11 
 3230000   0.73381848   -7.0886118     839.3088  0.021653994  0.021065263           17 
 3231000   0.72173389   -7.1011851    838.87032  0.021635983  0.021059312           21 
 3232000   0.73279284   -7.0993156    838.59435  0.021622173  0.021053356           21 
 3233000   0.71428533   -7.0879465    840.47431  0.021663942  0.021047421           11 
 3234000   0.73685035   -7.0711711    837.88971  0.021590644  0.021041518           24 
 3235000   0.73272641   -7.1011906    839.85909  0.021634701  0.021035608           10 
 3236000   0.73986302   -7.0956702    838.78481   0.02160035  0.021029698           34 
 3237000   0.74711059   -7.0800276    840.56407  0.021639483  0.021023789           18 
 3238000   0.74879717    -7.078108     839.8748  0.021615061  0.021017851           38 
 3239000   0.75448441    -7.097917    840.49003  0.021624216  0.021011947           27 
 3240000   0.73487078   -7.0774548     839.5886  0.021594357  0.021006057           15 
 3241000   0.73898568   -7.0941492    839.81646  0.021593553   0.02100019           15 
 3242000   0.74274518   -7.1372146    838.91115  0.021563622  0.020994305           11 
 3243000   0.73832119   -7.0890418     840.0377  0.021585921  0.020988415           15 
 3244000   0.73228021   -7.0837118    841.84243  0.021625628  0.020982539           13 
 3245000   0.73925055   -7.0737198    842.75052  0.021642284  0.020976709           10 
 3246000   0.74614057   -7.1141331     840.6486  0.021581654   0.02097087           13 
 3247000   0.73976223    -7.071411    841.89118  0.021606898  0.020965015           15 
 3248000   0.72839427   -7.1103617    839.03682  0.021527012  0.020959158           15 
 3249000   0.73663205    -7.088584    841.49711   0.02158349   0.02095331            8 
 3250000    0.7220074   -7.1051497    839.98751  0.021538141  0.020947464            7 
 3251000   0.71935538    -7.093623    840.68636   0.02154943   0.02094161           10 
 3252000   0.73369597   -7.1034291    839.10532  0.021502289  0.020935752            6 
 3253000   0.73239019   -7.1037827    840.78959  0.021538826  0.020929884           13 
 3254000   0.74224017   -7.1055919    840.05063  0.021513282  0.020924025            6 
 3255000   0.72840825   -7.0800148    840.65808  0.021522224   0.02091814           20 
 3256000   0.73501712   -7.1017867     839.8535  0.021495022  0.020912265           27 
 3257000   0.73197084   -7.1017981    841.60935  0.021533347   0.02090642           29 
 3258000   0.72290513   -7.1032983    842.07794  0.021538724  0.020900578           35 
 3259000   0.71321995   -7.0937847    840.75477  0.021498281  0.020894737           33 
 3260000   0.73535658   -7.0684972    842.47335  0.021535617  0.020888895           21 
 3261000    0.7090389    -7.070803    842.89725  0.021539846  0.020883059           24 
 3262000   0.72976747   -7.0920678     840.9936  0.021484611  0.020877238            6 
 3263000   0.73917067    -7.110254    841.65697  0.021494968  0.020871376           20 
 3264000   0.72545996    -7.084932    841.16357  0.021475786  0.020865527           32 
 3265000   0.72580922   -7.1251037    841.68738  0.021482577  0.020859688           21 
 3266000   0.72481551   -7.1098986    838.30791  0.021389771  0.020853843            9 
 3267000   0.73928177   -7.1100077    841.37782   0.02146153   0.02084797            9 
 3268000   0.72778034   -7.1125432    842.54046   0.02148461  0.020842122           11 
 3269000   0.72229734   -7.0888333    840.66175  0.021430145  0.020836247           17 
 3270000   0.71414685   -7.1115189    840.01527  0.021407117  0.020830397            9 
 3271000   0.74266957    -7.131379    841.08336  0.021427784  0.020824546            8 
 3272000   0.73650766   -7.1132814    841.78513  0.021439108  0.020818704           28 
 3273000    0.7249983   -7.1047228    839.88048  0.021384064  0.020812843            9 
 3274000   0.71581363   -7.1069073    841.00303  0.021406104  0.020807008           13 
 3275000   0.72396992    -7.114736    841.12868  0.021402765  0.020801169           18 
 3276000   0.72960261   -7.1207959    842.97424  0.021443179   0.02079534           27 
 3277000   0.75221876   -7.1216408    842.83153  0.021433006  0.020789528           14 
 3278000    0.7417246    -7.101738    844.40967  0.021466587  0.020783708           14 
 3279000   0.73367037   -7.0956391    844.31848  0.021457723  0.020777885           24 
 3280000   0.73250438   -7.1096389    842.68736   0.02140974  0.020772053           12 
 3281000   0.72740725    -7.129523    842.08721  0.021387972  0.020766214           23 
 3282000   0.71514688    -7.127809    841.64185  0.021370147  0.020760383           23 
 3283000   0.72211808   -7.0976589    843.31729  0.021406165  0.020754563           27 
 3284000   0.73139531   -7.1328082    842.09384  0.021368601  0.020748726           24 
 3285000    0.7309241   -7.1251327    842.30095   0.02136735  0.020742883           31 
 3286000   0.72375205   -7.1376367    843.63899  0.021394781  0.020737019           29 
 3287000   0.73657109   -7.1088559    841.48289  0.021333609  0.020731159           24 
 3288000   0.71447112   -7.1068419     843.0044  0.021365683  0.020725331           24 
 3289000   0.72683501   -7.0998749     844.1808  0.021388994   0.02071951           12 
 3290000   0.72998803   -7.0906079    843.66172  0.021369345  0.020713689           11 
 3291000   0.71935254   -7.0962826    841.59634  0.021310553  0.020707887           16 
 3292000   0.73908137   -7.0896825    841.32963  0.021297328  0.020702083           17 
 3293000   0.73580704   -7.1064587    842.17243  0.021312188  0.020696286           12 
 3294000   0.73743646   -7.0900604    843.61065  0.021342103  0.020690484           10 
 3295000   0.71665558   -7.0979395     843.3074  0.021327957  0.020684685           11 
 3296000   0.71786483   -7.1048937    842.82664   0.02130933  0.020678855           13 
 3297000   0.71926973   -7.1213753    842.86879  0.021303933   0.02067303           12 
 3298000   0.72611181   -7.0986804    843.91663   0.02132395  0.020667207           12 
 3299000   0.70499161   -7.0919894    842.70483  0.021286876  0.020661383           14 
 3300000   0.70719128   -7.1185175    841.68922  0.021254778  0.020655545           11 
 3301000   0.72937515   -7.1212682    843.19154  0.021286265  0.020649699           11 
 3302000   0.71927802   -7.1173058    842.59421  0.021264744  0.020643872           19 
 3303000   0.73351823   -7.1171313    842.69733  0.021260907  0.020638036           34 
 3304000   0.72813606   -7.1311011    843.15414  0.021265994  0.020632191           29 
 3305000   0.72829399   -7.1135216    843.79363  0.021275684   0.02062634           24 
 3306000   0.72891665   -7.1448202    841.43867  0.021209888  0.020620477           20 
 3307000    0.7386666     -7.15326    841.91352   0.02121544    0.0206146           29 
 3308000   0.72801317   -7.1247268    842.77685  0.021230775  0.020608737           20 
 3309000   0.72310933   -7.1232993    843.25752  0.021236464  0.020602876           24 
 3310000   0.72938323   -7.1505819     843.5536  0.021237503  0.020597022           28 
 3311000   0.70423593   -7.1227301    842.15416  0.021195866  0.020591146           36 
 3312000   0.71340189   -7.1359269    842.77094  0.021204985  0.020585309           13 
 3313000   0.72148339   -7.1283256    841.85459  0.021175535  0.020579489           26 
 3314000   0.70481658    -7.155685    840.89504  0.021145017  0.020573631           48 
 3315000   0.72574341   -7.1271816     842.7322  0.021184822  0.020567779           26 
 3316000    0.7273214   -7.1177035    842.82779  0.021180835  0.020561956           29 
 3317000   0.71514985   -7.1219888    843.38333  0.021188406   0.02055614           39 
 3318000   0.71221308   -7.1179171    843.93828  0.021195958  0.020550322           44 
 3319000   0.72126682   -7.1262376    842.35302   0.02114977  0.020544508           34 
 3320000   0.71825489   -7.1369186    842.79234  0.021154426  0.020538694           26 
 3321000   0.72127889   -7.0883951    843.18325  0.021157865  0.020532876           33 
 3322000   0.71542339   -7.1176966     842.4487   0.02113307  0.020527074           14 
 3323000   0.70469976    -7.092868    844.36995  0.021174891  0.020521272           10 
 3324000   0.73833113   -7.1612171    843.06873  0.021135899  0.020515473           17 
 3325000   0.69940949   -7.1266766    845.07183  0.021179745  0.020509667           14 
 3326000   0.72507446   -7.1212129    843.67069  0.021138271  0.020503887           15 
 3327000   0.71307362   -7.1566865    844.55232  0.021154001  0.020498083           18 
 3328000   0.71015503    -7.134849    843.76115  0.021127833  0.020492276            5 
 3329000    0.7286939   -7.1253338    843.90064  0.021124979  0.020486493           14 
 3330000    0.7222444   -7.1099701    844.48839  0.021133343   0.02048071           17 
 3331000   0.70925941   -7.1088836      843.832  0.021110577  0.020474927            7 
 3332000   0.71429964   -7.1149115    844.77061  0.021127716  0.020469126            6 
 3333000   0.73663165   -7.1129064    844.78129  0.021121644  0.020463359           16 
 3334000   0.72582769   -7.0893346    845.54743  0.021134459   0.02045758            9 
 3335000   0.68990593   -7.1471969    843.46182  0.021076007  0.020451792           18 
 3336000   0.70054437   -7.1445031    843.70352  0.021075727  0.020445978            9 
 3337000   0.72009986   -7.1229641    844.39103  0.021086581  0.020440166           26 
 3338000   0.72029958   -7.0980688    844.08231  0.021072556   0.02043438           13 
 3339000    0.7229655   -7.1179012    842.55044  0.021028013  0.020428581           22 
 3340000   0.70129728   -7.1048311    843.24501  0.021039047  0.020422778           42 
 3341000   0.72296353   -7.1273515    843.92975  0.021049829  0.020416978           21 
 3342000    0.7179162   -7.1277506    844.64048  0.021061253  0.020411178           55 
 3343000   0.71678675   -7.1294842    844.24419  0.021045074  0.020405356           63 
 3344000   0.72380237   -7.1745555    843.70402  0.021025319  0.020399521           32 
 3345000   0.73275019   -7.1161216    843.52298  0.021014524  0.020393715           18 
 3346000   0.71209411    -7.132303    844.12856  0.021023325  0.020387937            8 
 3347000   0.71594627   -7.1417893    842.25228  0.020970329  0.020382136           26 
 3348000   0.72456807   -7.1361834    843.61031  0.020997867  0.020376342           32 
 3349000   0.71367077   -7.1256392    842.76466  0.020970555  0.020370555           12 
 3350000   0.70820233   -7.1264911    845.46797  0.021031542  0.020364774           15 
 3351000   0.71354779   -7.1128596    845.09969  0.021016107  0.020358984           19 
 3352000    0.7145086   -7.1103192     844.1148  0.020985352  0.020353216           25 
 3353000   0.71298412    -7.119584     845.0992  0.021003559  0.020347449           20 
 3354000   0.70828185   -7.1353794    844.06796  0.020971675  0.020341682           13 
 3355000   0.71008565    -7.134351     842.7441  0.020932541  0.020335898           33 
 3356000   0.70720946   -7.1292996    843.05456  0.020934013   0.02033012           35 
 3357000   0.72790008   -7.1660273    843.06034   0.02092792  0.020324329           19 
 3358000   0.72419088   -7.1425411    845.58005  0.020984218  0.020318537           47 
 3359000   0.72268135   -7.1197218    842.35319  0.020897916  0.020312745           52 
 3360000   0.71918359   -7.1353163    842.11008  0.020885667  0.020306946           28 
 3361000   0.72481387   -7.1336945    843.87605  0.020923238  0.020301145           28 
 3362000   0.71983756   -7.1483553    843.27225  0.020902049  0.020295346           19 
 3363000   0.71295784   -7.1334567    843.16814  0.020893254  0.020289555           16 
 3364000   0.71039021   -7.1464211    842.86528   0.02087954  0.020283755           31 
 3365000   0.70872921   -7.1413723    843.42228  0.020887129  0.020277961           27 
 3366000   0.71740106   -7.1377803    844.51777  0.020908045  0.020272146           39 
 3367000   0.70281556   -7.1419938    841.96501  0.020838655  0.020266338           21 
 3368000   0.73770607   -7.1271328    845.16896  0.020911742   0.02026055           37 
 3369000   0.71813954   -7.1355485    845.19138  0.020906089  0.020254779           29 
 3370000   0.70302423   -7.1488648    843.93582  0.020868838  0.020249006           38 
 3371000    0.7101146   -7.1288281    844.69887  0.020881511  0.020243231           45 
 3372000   0.72028463   -7.1361024    846.25082  0.020913672  0.020237475           29 
 3373000   0.70517005   -7.1226571    844.13169  0.020855116  0.020231721           27 
 3374000   0.70607229   -7.1196181     844.9791  0.020869865  0.020225967           34 
 3375000   0.72241273   -7.1296787    846.34795   0.02089748  0.020220228           35 
 3376000   0.72498924   -7.1167339    847.55109  0.020920989  0.020214497           38 
 3377000   0.70994988   -7.1208042    845.88522  0.020873685  0.020208769           22 
 3378000   0.70932623   -7.1358659    847.91488  0.020917577   0.02020302           11 
 3379000   0.71324792   -7.1366972    844.51033  0.020827423  0.020197282           16 
 3380000   0.70193995   -7.1432591    844.35112  0.020817335  0.020191536           14 
 3381000   0.71395539   -7.1422243    845.26454  0.020833692  0.020185778           19 
 3382000   0.71175448   -7.1346646    844.62889  0.020811869  0.020180017           18 
 3383000   0.71591835    -7.153433    844.37191  0.020799387  0.020174225           29 
 3384000   0.71717938   -7.1359405    844.65967  0.020800327  0.020168439           31 
 3385000   0.70933614   -7.1538907    846.52953  0.020840215  0.020162646           44 
 3386000    0.6995829   -7.1549169    845.06965  0.020798131   0.02015684           23 
 3387000   0.72424203    -7.140544    842.89755  0.020738548   0.02015106           33 
 3388000   0.70233572   -7.1555274    842.42636  0.020720837   0.02014527           35 
 3389000   0.71776801    -7.121991     844.2807   0.02076032  0.020139473           18 
 3390000   0.71733871   -7.1588799    844.86081  0.020768457  0.020133696           27 
 3391000   0.68348139   -7.1490031     843.8421  0.020737297   0.02012791           25 
 3392000   0.71962389   -7.1867573    845.43316  0.020770272  0.020122099           13 
 3393000   0.71384755   -7.1655934    845.30203   0.02076093  0.020116311           20 
 3394000   0.72270534   -7.1384736    845.26434  0.020753888  0.020110534           18 
 3395000   0.71135283   -7.1622644    845.14349  0.020744808  0.020104742           31 
 3396000   0.70403991   -7.1845975    843.25886  0.020692453  0.020098967           19 
 3397000   0.70078435   -7.1744254    844.17337  0.020708796  0.020093179           30 
 3398000   0.69409551   -7.1757635    843.75619  0.020692471  0.020087409           62 
 3399000   0.71284046   -7.1493501    845.31768  0.020724666  0.020081645           22 
 3400000   0.71741486   -7.1514555     844.4537  0.020697394  0.020075881           16 
 3401000   0.69856571   -7.1901363    842.59797  0.020645839  0.020070123           26 
 3402000   0.71109218    -7.169719    845.87661  0.020720081  0.020064359           40 
 3403000   0.70507611   -7.1461526    844.99641  0.020692438  0.020058604           10 
 3404000   0.71125245   -7.1350713    846.22489  0.020716434  0.020052853           21 
 3405000   0.71539387   -7.1329979    846.47042  0.020716359  0.020047107           25 
 3406000   0.71437797   -7.1581378    845.68188  0.020690984  0.020041381           47 
 3407000   0.71929317   -7.1384507    847.30359  0.020724577  0.020035631           32 
 3408000   0.70750804   -7.1639764    846.06865  0.020688298  0.020029871           54 
 3409000   0.68910557   -7.1395263    844.35391  0.020640313   0.02002412           49 
 3410000    0.7054714   -7.1380855    846.01929  0.020674958  0.020018375           44 
 3411000   0.70644773   -7.1289911    845.04505  0.020645096  0.020012649           46 
 3412000   0.72324107   -7.1520838     845.7923  0.020657295  0.020006904           38 
 3413000   0.70357699   -7.1691732    844.11824  0.020610368  0.020001149           72 
 3414000   0.70352775   -7.1527037    844.96283  0.020624947  0.019995383           28 
 3415000   0.69447302   -7.1287555    845.09085  0.020622032  0.019989632           53 
 3416000   0.70482547   -7.1492976     846.3993  0.020647914  0.019983879           52 
 3417000   0.69190962   -7.1328641    845.71291  0.020625132  0.019978134           37 
 3418000   0.69825399   -7.1588801    845.81078  0.020621484  0.019972384           23 
 3419000   0.69561472   -7.1416663     845.8997   0.02061762  0.019966647           23 
 3420000   0.70469627   -7.1653283    847.30071  0.020645729  0.019960922           29 
 3421000   0.70424758   -7.1608262    845.01452  0.020584004  0.019955182           15 
 3422000   0.69944143   -7.1522834     846.7525  0.020620312  0.019949433           15 
 3423000   0.70589765   -7.1566591    846.14543  0.020599509  0.019943691           44 
 3424000   0.71884545   -7.1488091     845.6188  0.020580676  0.019937942           20 
 3425000   0.69315762   -7.1531109    845.40555  0.020569478  0.019932194           20 
 3426000   0.70700895   -7.1452112    844.91789  0.020551612  0.019926438           18 
 3427000   0.70863389   -7.1728688    845.64217  0.020563227  0.019920679           30 
 3428000   0.70598337   -7.1540641    844.32824  0.020525288  0.019914916           34 
 3429000    0.7154042   -7.1625261    846.07152  0.020561668  0.019909136           51 
 3430000    0.7104082   -7.1717219    845.61968  0.020544696  0.019903383           42 
 3431000   0.70508794   -7.1527641    845.69957  0.020540648  0.019897615           23 
 3432000   0.70073123   -7.1592257    845.01593  0.020518064   0.01989184           28 
 3433000   0.72348475    -7.143383      846.282   0.02054282  0.019886078           26 
 3434000   0.68981457   -7.1845964    845.25586  0.020511936  0.019880309           19 
 3435000   0.70293565   -7.1471296    843.90509  0.020473195  0.019874558           12 
 3436000   0.72141712   -7.1578206    846.23998  0.020523864  0.019868809           10 
 3437000   0.68833378   -7.1527065    846.09627  0.020514409  0.019863057           10 
 3438000   0.72594922   -7.1556173    845.37858  0.020491046  0.019857304            8 
 3439000   0.70241671   -7.1522936     846.1776  0.020504449   0.01985156           13 
 3440000   0.69716158    -7.152228    845.41519  0.020480019    0.0198458           12 
 3441000   0.69645709   -7.1526507     845.9164  0.020486206  0.019840055            9 
 3442000   0.69417674   -7.1524153    847.77776  0.020525319  0.019834314           17 
 3443000   0.69942804   -7.1478311    845.18792  0.020456673  0.019828586           11 
 3444000    0.7107984   -7.1421464    845.98641  0.020470055  0.019822853           10 
 3445000   0.69385879   -7.1419308    846.27138  0.020471006  0.019817101           12 
 3446000   0.69981441   -7.1720405    845.79695  0.020453592  0.019811347           20 
 3447000   0.70098662   -7.1619242    845.23317  0.020434029  0.019805591           25 
 3448000   0.71395114   -7.1644081    847.06231   0.02047231  0.019799853           21 
 3449000   0.69940501   -7.1483148    845.52256  0.020429172  0.019794098           19 
 3450000   0.69522684   -7.1735054    845.51514  0.020423071  0.019788332            6 
 3451000   0.69710736   -7.1756853     844.4406  0.020391206  0.019782579           12 
 3452000   0.68961353    -7.171079    846.31951  0.020430656  0.019776814            9 
 3453000   0.71176549   -7.1626996    845.54442  0.020406034  0.019771068           10 
 3454000   0.67819607   -7.1557966    845.49229  0.020398868  0.019765325           29 
 3455000   0.70370457   -7.1431224    845.88426  0.020402418  0.019759583           13 
 3456000   0.69144807   -7.1593754    844.85036  0.020371585  0.019753836           16 
 3457000    0.6938578   -7.1403445    844.01497  0.020345554  0.019748076            8 
 3458000   0.71141644    -7.153041    846.84704   0.02040792  0.019742325           10 
 3459000   0.69681167   -7.1589267    844.35213  0.020341913  0.019736569           15 
 3460000   0.69688271   -7.1749837    844.00024  0.020327559  0.019730822           12 
 3461000   0.69621914   -7.1585891     846.1451  0.020373329  0.019725073           16 
 3462000   0.70832838   -7.1705721    844.84493  0.020336148  0.019719335           20 
 3463000   0.71362299   -7.1695831    846.51521  0.020370469  0.019713605           11 
 3464000   0.70780012   -7.1623198    847.05395  0.020377549  0.019707867            7 
 3465000    0.6942433   -7.1581064    846.37192  0.020355265  0.019702132           14 
 3466000    0.7023349   -7.1938374    845.17897   0.02032071  0.019696386           15 
 3467000   0.68018607   -7.1478018    845.43398  0.020320978   0.01969065           15 
 3468000   0.70026588   -7.1662469    847.41177  0.020362644  0.019684926           47 
 3469000    0.6846591   -7.1700794    845.96442  0.020322005  0.019679196           24 
 3470000   0.70905138   -7.1537654    846.97147  0.020340333  0.019673454           21 
 3471000   0.69591041   -7.1707089    844.71834  0.020280379  0.019667716           31 
 3472000   0.67300696   -7.1760892    847.09189  0.020331507  0.019661989           21 
 3473000   0.70882634   -7.1768935    846.23127  0.020305002  0.019656252           20 
 3474000    0.6883736   -7.1821704    846.38453  0.020302834  0.019650512           55 
 3475000    0.6986759   -7.2017018    845.86838  0.020284613  0.019644769           37 
 3476000   0.68047643   -7.1813092    845.74636  0.020275852  0.019639025           43 
 3477000   0.70058394    -7.183522    846.05595  0.020277441  0.019633283           47 
 3478000   0.70568947   -7.1847632    846.83253  0.020290218  0.019627533           28 
 3479000   0.69662177   -7.1885437    845.15503  0.020244204  0.019621783           48 
 3480000   0.70096899   -7.1959112    846.67195  0.020274711  0.019616039           44 
 3481000   0.69908257   -7.1707077    845.97561  0.020252217  0.019610302           55 
 3482000   0.69245717   -7.1759415    846.46863    0.0202582  0.019604562           18 
 3483000   0.69335113   -7.1694266    846.19555   0.02024585   0.01959882           28 
 3484000   0.69334617   -7.1772758    846.66755  0.020251329  0.019593093           22 
 3485000   0.68583642    -7.178513     846.2214  0.020234849  0.019587371           19 
 3486000   0.67829169   -7.1683166    846.11353  0.020226466  0.019581659           18 
 3487000    0.6946817   -7.2012992    845.77945  0.020212682  0.019575944           22 
 3488000   0.68201008    -7.191007    844.93816  0.020186787  0.019570225           12 
 3489000   0.69226363   -7.1516293    845.19947  0.020187243  0.019564498           19 
 3490000   0.70884449   -7.1656356    846.66845  0.020216534  0.019558798           14 
 3491000   0.68501211   -7.1819404    846.59914  0.020209089  0.019553083           25 
 3492000   0.70783364   -7.1597288    846.11369  0.020191717  0.019547378           17 
 3493000   0.69760888   -7.1826045    846.57189  0.020196867  0.019541665           39 
 3494000   0.68845088   -7.1645774      846.805  0.020196647  0.019535959           43 
 3495000   0.69276368   -7.1887731    846.43579  0.020182065  0.019530243           18 
 3496000   0.68476038   -7.1911269    846.89269  0.020187183  0.019524549           30 
 3497000   0.69847085    -7.183399    845.77249  0.020154716  0.019518844           24 
 3498000   0.71041723   -7.1892938    845.93849  0.020152909  0.019513128           30 
 3499000   0.67637643   -7.1732206    848.05438  0.020197542  0.019507411           35 
 3500000    0.7130562   -7.1711588    845.61904  0.020133787  0.019501702           23 
 3501000   0.70112014   -7.1723706    847.28415   0.02016767  0.019495995           22 
 3502000   0.69892348   -7.2076754    846.12414  0.020134308  0.019490262           18 
 3503000    0.6992547   -7.1845328    846.16496  0.020129531  0.019484539           22 
 3504000   0.67813064   -7.1838119    845.76946   0.02011438  0.019478818           19 
 3505000   0.70639922   -7.1703035    845.07143  0.020092046    0.0194731           21 
 3506000   0.68624455   -7.1895632    844.97376  0.020083993  0.019467381           20 
 3507000   0.70459023   -7.1911293    845.29136  0.020085813  0.019461664           30 
 3508000   0.68402905   -7.1934143    846.33243  0.020104818  0.019455939           13 
 3509000   0.69556488   -7.1860164     845.8586  0.020087836  0.019450218           22 
 3510000   0.68367452   -7.2014299    846.13152  0.020088592  0.019444505           30 
 3511000   0.67651413   -7.1732747    846.08437  0.020081752  0.019438813           23 
 3512000   0.69325957   -7.1842766    846.69887  0.020090615  0.019433115           14 
 3513000   0.68294036   -7.1711985    846.78021  0.020086825  0.019427415           43 
 3514000   0.68796305   -7.1976525    847.56258  0.020099663   0.01942172           24 
 3515000    0.6735067   -7.2012533    846.14589  0.020060358  0.019416005           29 
 3516000   0.69155768    -7.166282    845.83649  0.020047319  0.019410316           14 
 3517000   0.70465469   -7.2229586     846.5923  0.020059527  0.019404619           17 
 3518000   0.69170967   -7.2010554    846.50737  0.020051814  0.019398931           13 
 3519000   0.69973524   -7.1706939    846.81297  0.020053352  0.019393264           27 
 3520000   0.68507092    -7.188615    847.87278  0.020072746  0.019387606           28 
 3521000   0.70053398   -7.1596278    848.06259  0.020071537   0.01938194           15 
 3522000   0.69171675   -7.1750746    846.95418  0.020039612  0.019376287           13 
 3523000   0.69389793     -7.17815    848.47436  0.020069883  0.019370624           15 
 3524000   0.68276257   -7.1951807    845.47206  0.019993191  0.019364953           17 
 3525000   0.70252426   -7.1833517    846.96811  0.020022887  0.019359278           18 
 3526000   0.69649664   -7.2180432     845.3799  0.019979672  0.019353602           25 
 3527000   0.68013629   -7.2065339    846.52108  0.020000971  0.019347902           20 
 3528000   0.69164334   -7.2030462    848.44469  0.020040738  0.019342216           21 
 3529000   0.69015558   -7.1731736    847.76053  0.020018904  0.019336534           31 
 3530000   0.69102567   -7.2058638    846.58836  0.019985561   0.01933086           46 
 3531000    0.6679393   -7.2061857    846.53624  0.019978671  0.019325182           36 
 3532000   0.70368772   -7.2102625    846.94169  0.019982581  0.019319523           40 
 3533000   0.68946925   -7.1829335    846.68261  0.019970814  0.019313858           41 
 3534000   0.69178613   -7.1892162    849.39235  0.020029059  0.019308203           47 
 3535000   0.69462822    -7.182579    846.64893  0.019958721   0.01930256           57 
 3536000   0.70473477   -7.1786149    847.05162  0.019962566  0.019296927           35 
 3537000   0.70356237   -7.1981129    846.44012  0.019942515  0.019291261           26 
 3538000   0.69455642   -7.2007773    848.08213  0.019975554    0.0192856           49 
 3539000   0.69074762   -7.1873302    849.03663  0.019992386  0.019279931           91 
 3540000   0.68210604   -7.1920868    847.61156  0.019953191  0.019274271           41 
 3541000    0.6903314   -7.1790452    847.40185  0.019942621  0.019268626           27 
 3542000   0.68417757   -7.1952703    848.47726  0.019962292  0.019262991           20 
 3543000   0.68226473   -7.2044386    848.41603  0.019955217  0.019257342           43 
 3544000   0.69261173   -7.1960465    847.81765  0.019935516  0.019251689           37 
 3545000   0.66969629   -7.1779886    848.24059  0.019939835  0.019246023           40 
 3546000   0.68364086   -7.1901407    846.72449  0.019898583  0.019240366           35 
 3547000   0.68034656   -7.2068618    847.54364  0.019912218   0.01923471           26 
 3548000    0.6824697   -7.1987986    848.77386    0.0199355  0.019229046           27 
 3549000   0.68300903   -7.1990814    847.24764  0.019894046   0.01922339           58 
 3550000   0.69737454   -7.2157891    846.76582  0.019877132  0.019217726           29 
 3551000   0.69315849   -7.2202638     847.3655  0.019885607  0.019212063           24 
 3552000   0.69349158   -7.2107821    848.01716  0.019895297  0.019206415           20 
 3553000   0.68622122   -7.1798727    847.69138  0.019882057  0.019200747           12 
 3554000    0.6806624   -7.1947535    846.12948   0.01983984  0.019195078           22 
 3555000   0.67130192   -7.1910637    844.96959   0.01980707  0.019189404           26 
 3556000   0.68947992   -7.1957709    846.20789  0.019830518   0.01918372           14 
 3557000   0.68644627   -7.2182173    846.74514   0.01983753  0.019178046           40 
 3558000   0.68671674   -7.2095161    847.51153  0.019849905  0.019172386           26 
 3559000   0.68453439   -7.2034625    847.67552  0.019848167  0.019166707           29 
 3560000   0.68103026   -7.1792214    847.18194  0.019831038   0.01916104           43 
 3561000    0.6759718   -7.1874504    846.54419  0.019810545  0.019155352           28 
 3562000   0.68955756   -7.2134325    847.47312  0.019826715  0.019149677           16 
 3563000   0.67269882   -7.2106741    846.08556  0.019788698  0.019143993           16 
 3564000   0.68081597    -7.176675    846.29269  0.019787989  0.019138322           57 
 3565000   0.67181624   -7.1946278    846.48899  0.019787026  0.019132658           33 
 3566000   0.69008062    -7.218722    846.58877  0.019783809  0.019126991           37 
 3567000   0.67442254   -7.2154926    846.06314  0.019765983  0.019121319           27 
 3568000   0.67960079   -7.1903079    846.09832  0.019761265  0.019115644           25 
 3569000   0.68612186   -7.2089854    846.65627  0.019768756  0.019109984           24 
 3570000   0.67329768   -7.2423838    846.64967  0.019763064  0.019104315           26 
 3571000   0.67620591   -7.1884093     849.8895  0.019833135  0.019098655           22 
 3572000   0.68923532   -7.1841823    846.80666  0.019755661  0.019093007           33 
 3573000    0.6914987   -7.2196444     847.1855  0.019758968  0.019087346           44 
 3574000   0.66915844   -7.2117033    847.57298  0.019762474  0.019081696           47 
 3575000   0.68257517   -7.1867748    846.86225  0.019740379  0.019076041           18 
 3576000   0.68823938   -7.2057537    846.98709  0.019737768  0.019070391           44 
 3577000   0.67862952   -7.2215697    848.56678  0.019769052  0.019064736           55 
 3578000   0.68728262   -7.1737368    849.53319  0.019786035  0.019059094           48 
 3579000    0.6734328   -7.2019774    847.65903  0.019736869  0.019053468           70 
 3580000     0.682704     -7.19913    848.08512  0.019741274  0.019047846           21 
 3581000   0.68291723   -7.2012642    846.31128  0.019694482  0.019042214           51 
 3582000   0.69331154   -7.2153549    846.41024  0.019691286  0.019036582           48 
 3583000    0.7007726   -7.2164337    848.47555  0.019733825  0.019030954           28 
 3584000   0.68542331   -7.1956071    848.11571  0.019719952   0.01902533           16 
 3585000   0.66712476   -7.1885868    849.16857  0.019738925  0.019019697           26 
 3586000    0.6894236   -7.2050203    848.46163  0.019716993  0.019014075           29 
 3587000    0.6905411   -7.2200736    847.76459  0.019695302  0.019008445           30 
 3588000   0.65211962   -7.2098196    848.10161  0.019697641  0.019002826           34 
 3589000   0.67898614   -7.2132659    848.59382  0.019703581  0.018997214           33 
 3590000   0.67166876   -7.2092879    847.70881  0.019677549  0.018991608           74 
 3591000   0.67931176   -7.2144075    848.24438  0.019684498  0.018985991           76 
 3592000   0.66303207   -7.2257936    848.57644  0.019686721  0.018980399           20 
 3593000   0.65971115   -7.1975464    850.01417  0.019714588  0.018974806           23 
 3594000   0.68179027   -7.2346643    847.72832  0.019656101  0.018969205           32 
 3595000   0.67842843   -7.1944379    848.65792  0.019672182  0.018963584           33 
 3596000   0.66907781    -7.212734    849.82936  0.019693858  0.018957974           27 
 3597000   0.67465026    -7.209932    847.71087  0.019639303  0.018952377           22 
 3598000   0.66634996   -7.1983782    848.67757  0.019656234   0.01894678           37 
 3599000   0.67638971   -7.1876997    849.26906  0.019664468  0.018941182           25 
 3600000   0.66718674   -7.2049823    850.79631  0.019694359  0.018935588           14 
 3601000    0.6790672   -7.2014534    849.04848  0.019648442  0.018929982           29 
 3602000   0.67916926   -7.2241729    845.52202  0.019561401  0.018924396           74 
 3603000   0.67680282    -7.221282    848.25908  0.019619277  0.018918788           77 
 3604000   0.67901585   -7.2157013    848.57844  0.019621218  0.018913179           61 
 3605000   0.68133129   -7.2077787    847.13309  0.019582365   0.01890758           30 
 3606000    0.6709356    -7.235537    847.60466  0.019587832  0.018901987           63 
 3607000   0.68171664   -7.2247581    848.14659  0.019594922   0.01889641           28 
 3608000   0.68796244   -7.2300654    848.20133  0.019590755   0.01889082           42 
 3609000   0.68598847   -7.2168647    848.34407  0.019588623  0.018885229           32 
 3610000   0.67363645   -7.2184642    848.51645  0.019587176  0.018879661           29 
 3611000   0.67926252   -7.2076865    849.87776  0.019613167   0.01887408           37 
 3612000   0.69322927   -7.2192625    847.90602  0.019562247  0.018868497           23 
 3613000   0.67194024   -7.2017008    848.16159  0.019562727  0.018862934           19 
 3614000   0.67243183   -7.2125412     849.2335   0.01958203  0.018857376           24 
 3615000   0.67325253   -7.2017676    847.94284  0.019546861  0.018851816           14 
 3616000   0.67376528   -7.2135428    850.24858  0.019594593  0.018846224           34 
 3617000     0.683855   -7.2011305    849.49501  0.019571814  0.018840633           21 
 3618000   0.67281807   -7.1937406    848.43796  0.019542057  0.018835049           36 
 3619000   0.67904016     -7.20611    846.57262  0.019493705  0.018829457           22 
 3620000   0.67779399   -7.2230919    847.95871  0.019520228  0.018823881           30 
 3621000    0.6814762   -7.2129654    849.26131  0.019544815  0.018818315           57 
 3622000   0.66746602   -7.2063807    847.48923  0.019498648   0.01881272           31 
 3623000   0.67214882   -7.2450884     847.8326  0.019501164  0.018807122           31 
 3624000   0.67342774   -7.2166473    847.70076  0.019492751  0.018801528           56 
 3625000   0.67326284   -7.2135398    849.08028  0.019519087  0.018795931           21 
 3626000   0.66829492   -7.2177082    847.10635  0.019468339  0.018790339           33 
 3627000   0.67581653   -7.2348588    848.95184  0.019505373  0.018784744           53 
 3628000   0.68479318   -7.2245443    848.25869  0.019484075  0.018779149           29 
 3629000   0.67038748   -7.2393714    850.07919   0.01952051  0.018773558           35 
 3630000   0.65232855   -7.2399573    848.70602  0.019483609  0.018767973           15 
 3631000   0.65793909   -7.2259022    846.59262   0.01942974  0.018762388           32 
 3632000   0.65301008    -7.215176    848.03538  0.019457493  0.018756792           45 
 3633000   0.65629158   -7.2202989    849.28504  0.019480802  0.018751193           26 
 3634000   0.68027061   -7.2180652    849.85166  0.019488435  0.018745609           30 
 3635000   0.65753328   -7.2317737    848.16367  0.019444376  0.018740025           20 
 3636000   0.67281299   -7.2253847    848.09353   0.01943742  0.018734425           56 
 3637000   0.67148974   -7.2416725    849.35036  0.019460873  0.018728832           51 
 3638000   0.66800195   -7.2420629    847.74749  0.019418808  0.018723246           36 
 3639000   0.66436468   -7.2240319    848.49639  0.019430622  0.018717661           39 
 3640000   0.66645641   -7.2298086    847.56006  0.019403848  0.018712064           20 
 3641000   0.68103501   -7.2604189    846.38195  0.019371554  0.018706469           40 
 3642000   0.68694137    -7.254992    845.74038  0.019351555  0.018700865           26 
 3643000   0.66340939   -7.2521192    847.19486  0.019379515   0.01869526           25 
 3644000   0.67516619   -7.2614661    848.01246  0.019392894   0.01868964           30 
 3645000   0.67469065   -7.2087738    847.52674  0.019376469  0.018684045           50 
 3646000   0.67896952   -7.2481257    846.74478  0.019353282  0.018678456           31 
 3647000   0.66006164   -7.2345871    847.16973  0.019357685  0.018672865           42 
 3648000   0.68210748   -7.2451129    847.83847  0.019367655  0.018667276           32 
 3649000   0.68452491   -7.2432367    847.49106  0.019354413  0.018661684           42 
 3650000   0.67149084   -7.2445716    847.55933   0.01935067  0.018656091           32 
 3651000   0.65291317   -7.2377273    846.77279  0.019327417  0.018650493           27 
 3652000    0.6541504   -7.2279125     847.9261  0.019348442  0.018644903           52 
 3653000   0.66097361   -7.2271375    848.38672  0.019353653  0.018639308           47 
 3654000   0.65983384   -7.2404576    846.55357  0.019306549  0.018633702           49 
 3655000   0.65607539   -7.2414419    848.69223  0.019350028  0.018628105           27 
 3656000   0.68394338   -7.2610374    848.86738  0.019348728  0.018622525           72 
 3657000   0.68321401   -7.2437988    847.85419  0.019320349  0.018616947           25 
 3658000   0.67048512   -7.2387005    847.77529   0.01931327  0.018611366           30 
 3659000   0.66178004   -7.2225223    847.28789  0.019296891  0.018605786           18 
 3660000   0.66775834    -7.233354    847.44884  0.019295283  0.018600226           30 
 3661000   0.67230571   -7.2214298    847.47637  0.019290639  0.018594666           31 
 3662000   0.68178042   -7.2477753    848.13431  0.019300344  0.018589086           28 
 3663000   0.67938893   -7.2334588    848.32609  0.019299438  0.018583503           48 
 3664000   0.67169398   -7.2233087    848.17654  0.019290769  0.018577941           56 
 3665000   0.68086756   -7.2416909    847.94393  0.019280217  0.018572369           54 
 3666000   0.65610567   -7.2623613    848.37453  0.019284746  0.018566781           54 
 3667000   0.66964356   -7.2370131    846.62206  0.019239661  0.018561197           51 
 3668000   0.66827151   -7.2320183    847.27765   0.01924931  0.018555615           55 
 3669000   0.66765077   -7.2113699    849.19358   0.01928758  0.018550036           28 
 3670000   0.67335908   -7.2674274    847.15854  0.019236116  0.018544471           54 
 3671000    0.6711754   -7.2268143    849.04347  0.019273664  0.018538904           17 
 3672000   0.66601582    -7.227969    847.33428  0.019229627  0.018533341           76 
 3673000    0.6582746   -7.2404986    848.50266    0.0192509  0.018527772           44 
 3674000   0.65834685   -7.2592073    847.12418  0.019214393  0.018522198           50 
 3675000    0.6664922   -7.2363054    847.65411  0.019221182  0.018516623           98 
 3676000   0.66042838   -7.2468392    847.66718  0.019216249  0.018511065           41 
 3677000   0.66438957   -7.2275954    848.43282  0.019228375  0.018505505           55 
 3678000   0.65675974   -7.2467573    846.37959  0.019176627  0.018499948           59 
 3679000   0.66930669   -7.2293103    847.73709  0.019202163  0.018494378           84 
 3680000   0.66867831   -7.2581169    847.01333  0.019180555  0.018488812           86 
 3681000   0.66633655   -7.2413843    848.49935  0.019208986  0.018483244          104 
 3682000   0.66469864   -7.2549182    847.83836   0.01918881  0.018477686           66 
 3683000   0.65960448   -7.2765625    847.44535  0.019174707  0.018472136           95 
 3684000   0.66870007   -7.2217507    847.14462    0.0191627  0.018466582           69 
 3685000   0.65293624   -7.2249487    849.21563  0.019204334  0.018461039           90 
 3686000   0.66465631   -7.2554898    848.80792  0.019189906  0.018455507           80 
 3687000   0.66217859   -7.2540482    849.64972  0.019203728  0.018449992           85 
 3688000   0.65832973   -7.2134883    849.25717   0.01918965  0.018444497           45 
 3689000   0.65891203   -7.2296663    850.76491  0.019218508  0.018438995           38 
 3690000   0.68591073   -7.2377754    850.42677  0.019205663  0.018433508          121 
 3691000   0.66801285    -7.248783     849.0749  0.019169938     0.018428           65 
 3692000   0.67139485   -7.2484141    849.27897  0.019169352  0.018422496          116 
 3693000    0.6502592   -7.2304393    849.25068  0.019163523  0.018416997          103 
 3694000   0.67012809   -7.2464289    849.87651  0.019172453  0.018411505           61 
 3695000   0.65669265   -7.2641104    849.92443  0.019168345  0.018406009           68 
 3696000   0.66881724   -7.2309293    850.41154  0.019174142  0.018400526           20 
 3697000   0.64682084   -7.2439155    848.14068  0.019117769  0.018395052           75 
 3698000    0.6576695   -7.2666003    849.04295  0.019132931  0.018389575           70 
 3699000   0.68104181   -7.2436682    851.29327  0.019178455  0.018384104           72 
 3700000    0.6609636   -7.2576763    850.89214  0.019164237  0.018378634           45 
 3701000   0.63878906   -7.2581607    849.95138  0.019137877  0.018373145           32 
 3702000   0.65762482   -7.2542507    849.03577  0.019112096  0.018367659           39 
 3703000   0.65737867   -7.2425424    849.65724  0.019120921  0.018362158           55 
 3704000   0.66362218   -7.2555668    849.55012  0.019113349  0.018356689           82 
 3705000   0.65884794    -7.259275    848.52323  0.019085093  0.018351201           58 
 3706000   0.67823055   -7.2590194    848.69545  0.019083816  0.018345715           30 
 3707000   0.66150083   -7.2625825    849.29937  0.019092244  0.018340227           39 
 3708000   0.65192942    -7.260638    850.05936  0.019104175  0.018334748           39 
 3709000   0.65634481   -7.2765365     849.2425  0.019080671  0.018329275           42 
 3710000   0.66767508   -7.2617327    849.34007  0.019077719  0.018323795           43 
 3711000   0.66272726   -7.2367726    849.87761  0.019084649  0.018318323           42 
 3712000   0.66935585    -7.270758    850.87293  0.019101853  0.018312835           47 
 3713000     0.662022   -7.2424335    849.69043  0.019070169  0.018307363           87 
 3714000   0.65415171   -7.2641866     849.1335  0.019052538  0.018301894           66 
 3715000   0.66168967   -7.2563908     850.1659  0.019070568  0.018296424           65 
 3716000   0.64778036   -7.2667848    850.43679   0.01907151  0.018290937           81 
 3717000   0.67335877   -7.2748319    847.16447  0.018993016  0.018285443           81 
 3718000   0.65789285   -7.2556189    849.58503   0.01904216  0.018279964           65 
 3719000   0.67123827   -7.2514841    849.36485  0.019032106   0.01827448           22 
 3720000   0.65728531   -7.2677244    848.30914  0.019003341  0.018269009           18 
 3721000   0.65348502   -7.2365328    849.58891  0.019026895  0.018263549           35 
 3722000   0.65608593   -7.2658334    850.79826  0.019048859  0.018258093           59 
 3723000   0.64796018   -7.2646647    850.32365   0.01903312  0.018252618          100 
 3724000   0.65988674   -7.2596445    850.34983  0.019028594  0.018247158          108 
 3725000   0.66579496   -7.2685476    849.98435   0.01901531  0.018241697           29 
 3726000   0.65060147   -7.2655893    849.32381  0.018995433  0.018236221           43 
 3727000   0.65846778   -7.2739171    848.59968  0.018974145  0.018230751          100 
 3728000   0.65657416   -7.2673252    850.01608  0.019000717  0.018225277          125 
 3729000   0.64835926   -7.2498551    850.14519  0.018998507  0.018219801           58 
 3730000   0.64729285   -7.2606717    849.46271  0.018978166  0.018214336           37 
 3731000   0.66083786   -7.2732839    849.38017  0.018971236  0.018208876           51 
 3732000   0.65126139   -7.2700443    849.97249  0.018979379  0.018203416           95 
 3733000   0.65419012   -7.2403966    850.23976  0.018980261  0.018197951           88 
 3734000   0.66711689   -7.2868563     849.2161  0.018952332  0.018192497           85 
 3735000   0.66376726   -7.2441601    849.17959  0.018946443  0.018187048          108 
 3736000   0.64073703   -7.2580091    849.85683  0.018956478  0.018181596           53 
 3737000   0.66222526   -7.2825542    847.69063    0.0189031  0.018176133          131 
 3738000   0.63297508   -7.2631557    849.95423  0.018948507  0.018170674           66 
 3739000   0.65306291   -7.2577044    850.08278  0.018946304  0.018165222           93 
 3740000   0.64979517   -7.2634329    849.03223   0.01891783   0.01815977           50 
 3741000    0.6441414   -7.2610391     849.5622  0.018924579  0.018154311           60 
 3742000   0.64552699   -7.2489058    850.03598  0.018930073   0.01814886           49 
 3743000    0.6580891   -7.2736594    848.72676  0.018895867  0.018143402           56 
 3744000   0.65216417   -7.2775949    849.60375   0.01891034  0.018137955           73 
 3745000   0.66026608   -7.2618346    849.76962  0.018908981  0.018132507           43 
 3746000   0.65211735    -7.264026    850.84386  0.018927831  0.018127062           75 
 3747000   0.64015453   -7.2671732    849.62311   0.01889563  0.018121608           90 
 3748000   0.64514723   -7.2681725    850.70492  0.018914642  0.018116155           64 
 3749000   0.65754319   -7.2704435     850.3224  0.018901094  0.018110707          187 
 3750000   0.66378589   -7.2662105    850.26856  0.018894857   0.01810527          119 
 3751000   0.65610014    -7.286855    850.24848  0.018889374  0.018099827          140 
 3752000   0.63733969   -7.2742816    848.83965  0.018853048  0.018094379          127 
 3753000   0.64147365   -7.2619631    847.04901  0.018808265  0.018088925          129 
 3754000   0.65113188   -7.2698942    849.17541  0.018850457   0.01808347           64 
 3755000   0.64617075   -7.2731749    850.40564  0.018872739  0.018078023           62 
 3756000   0.65522806   -7.2859848    847.96325  0.018813526  0.018072575           80 
 3757000   0.64687263   -7.2905715    846.11577   0.01876754  0.018067123           69 
 3758000   0.65707729   -7.2809858    849.36964    0.0188347  0.018061666           61 
 3759000   0.65145854   -7.2722801    849.15836  0.018825006  0.018056208           91 
 3760000   0.66081583   -7.2780579    847.21347  0.018776894  0.018050759          119 
 3761000   0.64123685   -7.2859262    849.06554  0.018812938   0.01804531          113 
 3762000   0.65618375   -7.2613464    848.64056  0.018798524  0.018039878          145 
 3763000   0.65044482   -7.2890398     850.1606   0.01882719  0.018034442           73 
 3764000   0.65999402   -7.2622889    848.60242  0.018787691  0.018028995          155 
 3765000   0.64838618   -7.2863961    848.63935  0.018783518  0.018023556          134 
 3766000   0.64990681   -7.2875723    848.14879  0.018767675  0.018018107           86 
 3767000   0.65544714   -7.2601476    848.49983  0.018770459  0.018012661          115 
 3768000   0.64890414   -7.2820415    848.56983  0.018767026  0.018007212          147 
 3769000   0.65204703   -7.2866075     849.8238  0.018789772  0.018001776          158 
 3770000   0.64531062   -7.2514296    848.85855  0.018763452  0.017996344           59 
 3771000   0.63457922   -7.2737657    847.22602  0.018722399  0.017990906          105 
 3772000    0.6560619   -7.2763272    849.74256  0.018773033  0.017985474          114 
 3773000   0.64843825    -7.276607    847.35465  0.018715316   0.01798003          132 
 3774000   0.65655775   -7.2846647    847.14667  0.018705765  0.017974588          161 
 3775000   0.64630946    -7.276506    847.74365  0.018713988  0.017969148          128 
 3776000   0.65622354   -7.2708303    847.72206  0.018708555  0.017963696          117 
 3777000   0.65477718   -7.2816694    848.75457  0.018726383  0.017958253           64 
 3778000   0.66085745   -7.2889829    849.62679  0.018740665  0.017952815          135 
 3779000   0.64130962   -7.2842866    848.86128  0.018718825  0.017947382          134 
 3780000   0.64630592   -7.2841286    848.06901  0.018696407  0.017941946           79 
 3781000   0.64407445   -7.2743827    849.91203  0.018732082  0.017936528           41 
 3782000   0.64793917   -7.2813287    849.02037  0.018707482  0.017931098           74 
 3783000   0.64240465   -7.2705071    847.51718  0.018669424  0.017925668           68 
 3784000   0.63492856   -7.2892349    850.38586  0.018727666  0.017920243           61 
 3785000    0.6376325   -7.2576693    848.13159  0.018673086  0.017914823           97 
 3786000   0.64781117   -7.2778831     851.5697   0.01874383  0.017909418           60 
 3787000   0.63912697   -7.2723566    848.59435  0.018673408  0.017904013          101 
 3788000   0.64780955   -7.2714039    850.89504  0.018719092  0.017898608           72 
 3789000    0.6483001     -7.27192    848.45746  0.018660541  0.017893196           70 
 3790000   0.64259644   -7.2639135     849.3197  0.018674576  0.017887789          100 
 3791000   0.64877631   -7.2859122     848.8126  0.018658503  0.017882371          128 
 3792000   0.63489388   -7.2669264    847.82801  0.018631945  0.017876949          109 
 3793000   0.65254434   -7.2818065    849.33339  0.018660106  0.017871526           72 
 3794000   0.65317013    -7.295206    850.00677  0.018669978  0.017866114           74 
 3795000   0.65676519   -7.2924904      847.416  0.018608169  0.017860684           71 
 3796000    0.6355578   -7.2928241    846.99738  0.018594077  0.017855247           85 
 3797000   0.64910926   -7.2956016    848.64966  0.018625442  0.017849807           84 
 3798000   0.65190358   -7.3116769    848.68201  0.018621248   0.01784439          130 
 3799000   0.65210037   -7.2972244    848.99484  0.018623209  0.017838953          130 
 3800000    0.6503118   -7.2854255     846.6555  0.018567007  0.017833517          131 
 3801000   0.65262828   -7.2821093    847.71463  0.018585342  0.017828071          115 
 3802000   0.62905658   -7.2878492    848.14808  0.018589954  0.017822635          124 
 3803000   0.64000718   -7.2929974    847.38647  0.018568377  0.017817202          118 
 3804000   0.63739534   -7.3035568    847.53179   0.01856668  0.017811781          106 
 3805000   0.62544283   -7.2950522    847.84552  0.018568671   0.01780634           75 
 3806000   0.63614957   -7.2813583    849.38695  0.018597542  0.017800921          128 
 3807000   0.64593591   -7.3064025    849.54194   0.01859605  0.017795504          163 
 3808000    0.6398821    -7.272957     849.0348  0.018580068  0.017790107          241 
 3809000   0.63482228   -7.2887087    848.90385  0.018572325  0.017784704          116 
 3810000   0.63232397   -7.3006431    849.19249  0.018573764  0.017779291           93 
 3811000   0.65022176   -7.2871434    848.13479  0.018545762  0.017773883          135 
 3812000   0.64678533   -7.2781155    849.99454  0.018581553  0.017768483          128 
 3813000   0.64380129   -7.2790072    847.97694  0.018532585  0.017763078          149 
 3814000   0.64863255    -7.283735     846.2466  0.018489919  0.017757659          131 
 3815000   0.63063909   -7.3066559    847.16584  0.018505152  0.017752242          238 
 3816000   0.64814866   -7.2830856    847.15837  0.018500139  0.017746814          134 
 3817000   0.63694868   -7.3159461    846.94833  0.018490707  0.017741387           97 
 3818000   0.63275727   -7.3204579    847.33529   0.01849431  0.017735958          146 
 3819000    0.6513219    -7.315329    848.69468   0.01851913  0.017730522          151 
 3820000   0.63374187   -7.3021767    847.01867   0.01847772  0.017725096          184 
 3821000   0.63165278   -7.3399594    848.05155   0.01849541  0.017719667          311 
 3822000   0.62894711   -7.3067931    847.17998  0.018471568  0.017714241          125 
 3823000   0.64537078   -7.3138621    847.74461  0.018479044  0.017708827          332 
 3824000   0.63475985   -7.2930516    847.88286  0.018477224  0.017703418          199 
 3825000   0.63437171    -7.334131     848.4982    0.0184858  0.017698002          149 
 3826000   0.63448349   -7.3047252     848.9588     0.018491  0.017692588          201 
 3827000   0.63784887   -7.3084498    847.95546  0.018464321  0.017687182          118 
 3828000   0.63003595    -7.310626    849.56007  0.018494429  0.017681777          187 
 3829000   0.63050183   -7.3219859     848.1282  0.018458436  0.017676372          385 
 3830000   0.64212016   -7.3124578    848.04863  0.018451885  0.017670961          296 
 3831000   0.65181641   -7.2963882    849.21131  0.018472359  0.017665552          265 
 3832000   0.63870999   -7.3172794    847.74952   0.01843575  0.017660145          278 
 3833000   0.63158506   -7.3080234    847.67402  0.018429299  0.017654731          307 
 3834000   0.64330201   -7.3138862     847.9896  0.018431351  0.017649326          253 
 3835000   0.62575924   -7.3052594    847.85977  0.018423724  0.017643914          278 
 3836000   0.63725445   -7.3103554    849.15731  0.018447109  0.017638514          231 
 3837000   0.64698586   -7.3177302    848.48876  0.018427781  0.017633108          178 
 3838000   0.63833029   -7.3369368    849.28111  0.018440184  0.017627702          244 
 3839000   0.63724113   -7.3348726    848.39805  0.018416212  0.017622295          323 
 3840000   0.64897529   -7.3540922    846.89732  0.018378848  0.017616878          400 
 3841000   0.62502653    -7.328408    847.95195  0.018396944  0.017611457          272 
 3842000   0.65213537   -7.3433889    845.96329  0.018349022  0.017606057          266 
 3843000   0.65149357   -7.3308545    847.68589    0.0183816  0.017600641          210 
 3844000    0.6355619   -7.3370375    845.97677  0.018339767  0.017595227          279 
 3845000   0.63246989   -7.3315379    847.89946  0.018376668  0.017589816          302 
 3846000    0.6332292   -7.3143531    846.93436  0.018350978  0.017584414          330 
 3847000   0.64305904   -7.3080288    847.45351  0.018357454  0.017579022          111 
 3848000   0.63329025   -7.3259699    848.95628  0.018385228  0.017573627          210 
 3849000   0.62852382   -7.3190363    847.00943  0.018338301  0.017568235          306 
 3850000     0.639967   -7.3295284    847.51719  0.018344528  0.017562827          253 
 3851000   0.62683234    -7.315901    846.83018  0.018324898   0.01755743          278 
 3852000    0.6365589   -7.3397319    847.87596  0.018342765  0.017552041          307 
 3853000   0.62652031   -7.3357501    848.61614  0.018354013  0.017546655          221 
 3854000   0.63468913   -7.3310394    847.67655  0.018328934  0.017541278          178 
 3855000   0.63376541   -7.3300809    848.74424   0.01834726  0.017535908          218 
 3856000   0.62545987    -7.330171    847.57428  0.018317217  0.017530531          206 
 3857000   0.63191452   -7.3282502    849.03394  0.018344005  0.017525152          245 
 3858000   0.63500936   -7.3115979    847.10708   0.01829763  0.017519771          385 
 3859000   0.62871261   -7.3130812    847.79439  0.018307731  0.017514382          249 
 3860000   0.62740455    -7.328602    848.02967  0.018308067   0.01750901          354 
 3861000   0.62954271   -7.3130733    846.51836  0.018270706  0.017503627          194 
 3862000   0.62570566   -7.2990177    847.83083  0.018294295  0.017498265          237 
 3863000   0.62624007   -7.3262201    848.25539  0.018298718  0.017492888          304 
 3864000   0.62865263   -7.3342352    847.01576  0.018267248  0.017487508          111 
 3865000    0.6248619   -7.3204072    845.47104  0.018229216  0.017482126          147 
 3866000   0.63481011   -7.3410766    846.36619  0.018243796  0.017476741          121 
 3867000   0.61767736   -7.3293087    847.91708    0.0182725   0.01747135           93 
 3868000   0.63667692    -7.346738    848.86463   0.01828819  0.017465969          126 
 3869000    0.6361968   -7.3240043    847.87606  0.018262171  0.017460599          152 
 3870000    0.6285569   -7.3300303    847.64871  0.018252556  0.017455236          199 
 3871000   0.62841874   -7.3213344    847.78198   0.01825071  0.017449875          246 
 3872000   0.63358512    -7.308531    847.57796  0.018241605  0.017444518          285 
 3873000   0.63115723   -7.3398608    848.31791  0.018252817  0.017439171          256 
 3874000    0.6276831   -7.3241033    847.40703  0.018228511  0.017433809          283 
 3875000   0.63848057   -7.3166575    847.79509  0.018232152  0.017428459          170 
 3876000   0.64156371   -7.3206529     846.0943  0.018190882  0.017423109          252 
 3877000   0.62886026   -7.3086318    848.05793  0.018228397  0.017417771          173 
 3878000   0.62713648   -7.3116737     847.6768  0.018215506  0.017412438          246 
 3879000   0.61703566   -7.3173701    849.35824  0.018246933    0.0174071          255 
 3880000   0.64067735   -7.3395867    846.35991  0.018177833  0.017401766          241 
 3881000   0.64525734   -7.3139796    848.99989  0.018229835  0.017396438          248 
 3882000   0.62639783   -7.3378994      849.089  0.018227052  0.017391105          253 
 3883000   0.62465798   -7.3387759    848.42187  0.018208041  0.017385777          254 
 3884000   0.62622373   -7.3223035    850.30936   0.01824385  0.017380454          158 
 3885000   0.62824085   -7.3116119    848.67381  0.018204071  0.017375124          123 
 3886000   0.61741989   -7.3351345    846.94925  0.018162405  0.017369803          174 
 3887000   0.62564957    -7.314856    846.97214  0.018158223  0.017364482          262 
 3888000   0.64989932   -7.3186008    847.18987  0.018158219   0.01735916          218 
 3889000   0.61914172    -7.368045    847.11137  0.018151868   0.01735383          293 
 3890000   0.62297009   -7.3473208    848.00169  0.018166274  0.017348494          224 
 3891000   0.62854937   -7.3212632    848.61232  0.018174684  0.017343167          210 
 3892000   0.62668748   -7.3293839     847.3548  0.018143088  0.017337839          250 
 3893000   0.63222259   -7.3309787    848.72062  0.018167665  0.017332524          161 
 3894000   0.62679418   -7.3260574    847.34116  0.018133478  0.017327208          181 
 3895000   0.64337617   -7.3140301    847.59433  0.018134239  0.017321894          289 
 3896000   0.63039412   -7.3316073       848.66  0.018152379  0.017316592          217 
 3897000   0.63547122   -7.3185591     849.0076  0.018155154  0.017311286          216 
 3898000   0.62733839   -7.2950845    847.88312  0.018126456  0.017305982          216 
 3899000   0.62970279   -7.3180815    846.47376  0.018091685  0.017300675          219 
 3900000   0.64680528   -7.3087326    848.49988  0.018130339  0.017295373          281 
 3901000   0.60929841   -7.3262299    848.55157  0.018126796  0.017290067          268 
 3902000   0.64210416   -7.3270343    847.04584  0.018089993  0.017284752          355 
 3903000   0.62350428   -7.3331629    848.71159  0.018120924   0.01727945          304 
 3904000   0.62483356    -7.339177    848.64255  0.018114809  0.017274136          311 
 3905000   0.63712108   -7.3547424    849.35007  0.018125268   0.01726884          231 
 3906000   0.64060902   -7.3192345    848.48282  0.018102125  0.017263542          247 
 3907000   0.63049781   -7.3475158    847.38491  0.018074074  0.017258236          259 
 3908000   0.62880868   -7.3472445    846.81998  0.018057403  0.017252942          222 
 3909000   0.61568238   -7.3348618    849.59876  0.018112023  0.017247646          228 
 3910000   0.61069338   -7.3328416    848.14681  0.018076445  0.017242359          218 
 3911000   0.63211759    -7.330374    848.92064  0.018088312  0.017237068          246 
 3912000   0.62915597   -7.3102926      851.168  0.018131561  0.017231786          209 
 3913000   0.62987175   -7.3178032    847.23995  0.018043274  0.017226507          267 
 3914000   0.62435912   -7.3243056    848.12162  0.018057435  0.017221229          244 
 3915000   0.62919213   -7.3281197    846.81848  0.018025085  0.017215945          246 
 3916000   0.63205742   -7.3469266    848.79355  0.018062512  0.017210662          245 
 3917000   0.62487043   -7.3247969    847.67053  0.018034008  0.017205393          270 
 3918000   0.63103229   -7.3293604    848.16087  0.018039835  0.017200112          252 
 3919000   0.63908089   -7.3528926    846.28099  0.017995258   0.01719482          179 
 3920000   0.61745713   -7.3440345     848.0618  0.018028525  0.017189527          223 
 3921000   0.62814982   -7.3251356    847.39385  0.018009731  0.017184236          210 
 3922000   0.62595679   -7.3250622    848.90934  0.018037339  0.017178953          217 
 3923000   0.63029999   -7.3523261    848.85196  0.018031523  0.017173668          191 
 3924000   0.62526443   -7.3288823      848.131  0.018011617  0.017168385          196 
 3925000   0.61723422   -7.3448465    847.85856  0.018001243  0.017163111          228 
 3926000   0.61922411   -7.3197186    848.10369  0.018001861  0.017157833          197 
 3927000   0.62665545   -7.3200548    849.48746  0.018026642  0.017152561          204 
 3928000   0.63850275   -7.3281368    849.42017  0.018020625   0.01714731          194 
 3929000   0.62030401   -7.3315766    849.18997  0.018011156  0.017142053          258 
 3930000   0.61153585   -7.3270969    849.12468  0.018005188  0.017136791          311 
 3931000   0.61989349   -7.3246109    848.33888   0.01798395  0.017131531          211 
 3932000   0.61666023   -7.3478734    848.31668  0.017978906  0.017126266          220 
 3933000    0.6292748   -7.3535625    847.42256  0.017955389  0.017121005          320 
 3934000   0.61650202   -7.3515078    848.20143  0.017967324  0.017115751          267 
 3935000   0.62224998   -7.3458996    849.16323  0.017983126  0.017110488          271 
 3936000   0.61338688   -7.3542369    848.16972  0.017957523  0.017105222          319 
 3937000    0.6183958   -7.3486437    847.62219  0.017941372  0.017099951          304 
 3938000   0.61876337   -7.3731416    847.60084  0.017936365  0.017094673          322 
 3939000   0.63229509   -7.3652098    846.76268  0.017914079  0.017089391          326 
 3940000   0.62336411    -7.343219    846.95434  0.017913586  0.017084103          253 
 3941000   0.60762386   -7.3310894    848.62334  0.017944332  0.017078829          289 
 3942000   0.61233954   -7.3634153    847.29267  0.017911649  0.017073552          294 
 3943000   0.60978195   -7.3432364    848.01036  0.017922275  0.017068268          263 
 3944000   0.61572777   -7.3554373    847.24548   0.01790157  0.017062991          298 
 3945000   0.61515861    -7.377367    847.54294  0.017903315   0.01705771          272 
 3946000   0.63614601    -7.356822    848.25035  0.017913718  0.017052443          291 
 3947000   0.61893392    -7.346409    847.14574  0.017885857  0.017047187          272 
 3948000   0.61813719   -7.3460502    847.27779  0.017884114  0.017041937          309 
 3949000   0.61411854   -7.3493062    848.76219   0.01791091  0.017036673          256 
 3950000   0.61006468   -7.3678406    847.11598  0.017871645   0.01703141          328 
 3951000   0.63320143   -7.3592017    847.31747  0.017871372  0.017026152          296 
 3952000   0.61944798   -7.3690947    846.53104  0.017850267  0.017020883          378 
 3953000   0.61888417   -7.3589975    846.63829  0.017848012  0.017015623          391 
 3954000   0.63079935   -7.3727124    847.64612  0.017864739  0.017010355          373 
 3955000   0.60505506    -7.345029    846.86472  0.017843757  0.017005093          394 
 3956000   0.61646059   -7.3748632    847.35967  0.017849673  0.016999841          478 
 3957000    0.6233487   -7.3737949     848.1035  0.017860827  0.016994583          399 
 3958000   0.61262074   -7.3724538    847.68559  0.017847515  0.016989326          450 
 3959000   0.62133134   -7.3374308    846.34283  0.017814743  0.016984076          353 
 3960000   0.63954463   -7.3753028    847.86786  0.017842337  0.016978823          364 
 3961000   0.62964702   -7.3797258    846.14741  0.017801637  0.016973558          409 
 3962000   0.61629422   -7.3622374    847.29477  0.017821277  0.016968288          461 
 3963000    0.6105003   -7.3772549     847.0546  0.017811729  0.016963035          461 
 3964000   0.61832743   -7.3691678    846.66411  0.017799027  0.016957778          337 
 3965000   0.61499076   -7.3804069    846.37959  0.017788558  0.016952519          456 
 3966000   0.60597262   -7.3979095    846.60216  0.017788749  0.016947256          408 
 3967000    0.6210357   -7.3962518     848.0105   0.01781385  0.016941996          453 
 3968000   0.60892995    -7.369611    847.36668  0.017795839  0.016936735          370 
 3969000   0.62699291    -7.378206    845.96339  0.017761892  0.016931469          463 
 3970000   0.60975249   -7.3858952     847.6605  0.017793042  0.016926207          492 
 3971000   0.61613585    -7.376817    847.01106  0.017774932  0.016920947          339 
 3972000   0.61560946   -7.3796335    848.25955   0.01779665  0.016915694          556 
 3973000   0.61817895   -7.3650836    845.29036  0.017729893  0.016910438          354 
 3974000   0.62262967   -7.3678876    845.64794   0.01773293  0.016905188          400 
 3975000   0.61292214   -7.3684597    847.28648  0.017762819  0.016899932          460 
 3976000   0.61363022   -7.3622464    845.95924  0.017730534  0.016894677          516 
 3977000   0.63296823   -7.3699518    846.11061  0.017729247  0.016889421          488 
 3978000   0.60744574   -7.3641147    845.54023  0.017712842  0.016884167          323 
 3979000    0.6087737   -7.3918998    846.54505  0.017729435  0.016878911          581 
 3980000   0.60471939   -7.3813965    847.61109  0.017747301  0.016873661          495 
 3981000   0.61279359   -7.3750041    847.01966  0.017730463  0.016868417          387 
 3982000   0.59968656   -7.3874187    846.07544   0.01770625   0.01686318          511 
 3983000   0.61317474   -7.3606505    846.53371  0.017711392  0.016857942          442 
 3984000   0.60879942   -7.3849959    845.69173  0.017689335  0.016852699          457 
 3985000   0.60760568   -7.3677807    846.67083  0.017705371  0.016847457          506 
 3986000   0.60475901   -7.3757995     845.2136  0.017670463  0.016842204          529 
 3987000   0.61502321   -7.3759203    846.26494  0.017688006  0.016836947          542 
 3988000   0.61249283   -7.3825825    847.11307  0.017701293  0.016831694          618 
 3989000   0.60399408   -7.3761521    845.82305  0.017669906   0.01682645          568 
 3990000   0.60462693   -7.3824527    845.37147  0.017656046  0.016821212          681 
 3991000   0.61678196   -7.3652266    845.10611  0.017646081  0.016815981          586 
 3992000   0.62538785   -7.3854584    845.42033   0.01764822  0.016810758          557 
 3993000   0.61260696    -7.367295    846.70145  0.017670537  0.016805524          703 
 3994000   0.60736921   -7.3951288    846.40613  0.017659951  0.016800297          632 
 3995000   0.60737643   -7.3858956    844.88895  0.017623883  0.016795066          698 
 3996000   0.60512245   -7.3624496    845.02337  0.017622276  0.016789833          526 
 3997000   0.61385899   -7.3896114    846.25428   0.01764353  0.016784603          656 
 3998000   0.61279612   -7.3840375    847.20996  0.017659037  0.016779366          702 
 3999000   0.62344071   -7.4094579    847.03161  0.017650905  0.016774123          770 
 4000000   0.60692898   -7.3880854    846.19745  0.017629113  0.016768878          705 
 4001000   0.61539281   -7.3849654    846.38105  0.017628531  0.016763649          757 
 4002000   0.61570499   -7.3660339    844.60348  0.017587112  0.016758408          776 
 4003000   0.60756166   -7.3810124    846.00162  0.017611825  0.016753168          687 
 4004000   0.61040234    -7.370902    845.58171  0.017598687  0.016747933          736 
 4005000   0.61399307    -7.410466    845.51292  0.017592861  0.016742695          754 
 4006000   0.61224699   -7.3814259    847.03256  0.017620081  0.016737455          715 
 4007000   0.62350617   -7.3842056    845.48542  0.017583508  0.016732221          734 
 4008000   0.60710562   -7.3983998    843.97031   0.01754762  0.016726983          592 
 4009000   0.61670607   -7.3968832    845.35598  0.017572046  0.016721744          759 
 4010000   0.61301078   -7.3939962    844.92975  0.017558806  0.016716505          722 
 4011000   0.61089356   -7.4234938    846.83282  0.017593967  0.016711269          738 
 4012000   0.61849345   -7.3891454    845.50528  0.017562007  0.016706038          808 
 4013000   0.61524745   -7.4036966    845.27626  0.017552875  0.016700803          813 
 4014000   0.60086911   -7.3848331    845.17216  0.017546341  0.016695575          833 
 4015000   0.59583941   -7.3804431    845.67812  0.017552472  0.016690355          659 
 4016000    0.6234223   -7.3803293    847.08549  0.017577305  0.016685135          664 
 4017000   0.60641883   -7.3923038    846.61125  0.017563091  0.016679917          704 
 4018000   0.60978109   -7.4029202    846.50032  0.017556419  0.016674694          735 
 4019000   0.61011195   -7.4018227    845.27715  0.017526689  0.016669477          695 
 4020000   0.60681836   -7.3851733    844.79077  0.017512246  0.016664261          718 
 4021000   0.61647314   -7.4092354    846.52784  0.017543891  0.016659047          767 
 4022000   0.61481192   -7.4032103    847.00273  0.017549369  0.016653833          787 
 4023000   0.59559077   -7.3872087    846.66055  0.017537918  0.016648625          715 
 4024000   0.60786583   -7.3813782    846.21713  0.017524377  0.016643421          857 
 4025000   0.60958281    -7.383224    843.92605  0.017472589  0.016638204          773 
 4026000   0.59029911    -7.409851     843.5023  0.017459478  0.016632985          830 
 4027000   0.61257749   -7.4013637    844.87643  0.017483578  0.016627769          797 
 4028000    0.6006909   -7.3982273    845.35936  0.017489229  0.016622557          692 
 4029000   0.60676344   -7.4121514     846.0317  0.017498794  0.016617347          797 
 4030000   0.60793153   -7.4194662    845.20937  0.017477448   0.01661215          725 
 4031000    0.6044015   -7.4085527     844.5108   0.01745867  0.016606944          717 
 4032000   0.60321317   -7.3955568    844.68913  0.017458026  0.016601738          750 
 4033000   0.60237645   -7.4108679    846.03301  0.017481466  0.016596543          877 
 4034000    0.6009748   -7.4164187    845.77036  0.017471706   0.01659134          740 
 4035000   0.60377799   -7.3903412    846.73128  0.017487222   0.01658615          753 
 4036000   0.60798795   -7.4043584    846.86144  0.017485577  0.016580954          704 
 4037000     0.603575   -7.4126669    845.55835  0.017454346   0.01657576          703 
 4038000    0.6142363     -7.41261     845.3327  0.017445367  0.016570554          699 
 4039000   0.61072581   -7.4018994    846.24321  0.017459834  0.016565356          728 
 4040000   0.60492481   -7.4210286    844.73207  0.017424341  0.016560156          781 
 4041000   0.59701451   -7.4168373    845.52553  0.017436392  0.016554948          774 
 4042000   0.60583342   -7.4084875    844.69018  0.017414856  0.016549748          811 
 4043000   0.60199756   -7.4142018    846.00317  0.017437612  0.016544547          748 
 4044000   0.61038109   -7.4080782    845.99494   0.01743313  0.016539345          821 
 4045000   0.59919483   -7.4219575    845.86217  0.017426085  0.016534153          894 
 4046000   0.59147898   -7.3875724    845.22716  0.017408699  0.016528954          834 
 4047000   0.59950085   -7.4207565    844.75637  0.017394703  0.016523752          881 
 4048000   0.60008103   -7.4254836    845.65367  0.017408878  0.016518564          850 
 4049000   0.60238182   -7.4118061    844.98032   0.01739072  0.016513364          853 
 4050000   0.60616583   -7.4181458    846.14399   0.01741037  0.016508176          790 
 4051000   0.60641325   -7.4038812     844.5014  0.017372283  0.016502987          861 
 4052000   0.60626706   -7.4230426    845.22693  0.017382916  0.016497796          757 
 4053000   0.59141577   -7.4136591    845.04566  0.017374901   0.01649261          833 
 4054000   0.60600937   -7.4040767    844.60913  0.017361641  0.016487427          720 
 4055000   0.58941353   -7.3837905     844.2036  0.017349026  0.016482247          727 
 4056000   0.58610742   -7.4056084    841.67186  0.017292732  0.016477063          859 
 4057000   0.59237015   -7.4129425    844.52182   0.01734701  0.016471872          851 
 4058000   0.59898339   -7.4250825    844.80292  0.017348507  0.016466683          812 
 4059000   0.60039242   -7.4178409    844.06271  0.017329037  0.016461483          817 
 4060000   0.60166321   -7.4339374    844.36442  0.017330961  0.016456289          854 
 4061000   0.59489883   -7.4235238     844.2988  0.017325347  0.016451097          954 
 4062000     0.603309   -7.4196009    844.16239  0.017318283  0.016445905          908 
 4063000    0.5948808   -7.4052286    845.13879  0.017334047  0.016440716          951 
 4064000   0.60453986    -7.426284     844.2812  0.017312197  0.016435527          948 
 4065000   0.60414527   -7.4203372    845.26783  0.017328164  0.016430331         1005 
 4066000   0.60299066   -7.4190799    843.63869  0.017290513  0.016425144          972 
 4067000   0.60676618   -7.4361303    843.92051  0.017292036  0.016419957          949 
 4068000   0.60269388   -7.4281204    841.72722  0.017242855  0.016414768          769 
 4069000   0.60644295    -7.418588    844.94546  0.017304527  0.016409585          794 
 4070000   0.60216089   -7.4145817    845.97362  0.017321327  0.016404402          800 
 4071000   0.61256019   -7.4349766    844.15346  0.017279814  0.016399212          939 
 4072000   0.59011485   -7.4399353    842.19837  0.017235559  0.016394018          957 
 4073000   0.60943999   -7.4001468    843.27025  0.017253258  0.016388829          850 
 4074000   0.59260929   -7.4302948    843.76737  0.017259192  0.016383649          957 
 4075000   0.60301234   -7.4438463    843.13364  0.017241997  0.016378457          875 
 4076000   0.60557003   -7.4396331    843.16308  0.017238368  0.016373262          907 
 4077000   0.59319207   -7.4465032    842.84146  0.017227567  0.016368065         1002 
 4078000   0.59845836   -7.4453406    845.02697  0.017268002  0.016362872         1003 
 4079000   0.60238734   -7.4318846    843.85114  0.017239747  0.016357686          962 
 4080000   0.59438952   -7.4334883    842.81839  0.017214428  0.016352504         1014 
 4081000   0.60877795   -7.4375835    843.08426  0.017215639  0.016347313         1005 
 4082000   0.59789537   -7.4407499    843.28413  0.017215502  0.016342129         1028 
 4083000   0.60295728   -7.4315708    841.08415  0.017166384  0.016336948          997 
 4084000    0.6027482    -7.440705    843.22358  0.017205835   0.01633176         1000 
 4085000   0.59678604   -7.4272111    843.65742  0.017210474  0.016326578         1052 
 4086000   0.60037698    -7.439246    843.62157   0.01720553  0.016321393         1111 
 4087000   0.60262356   -7.4455859    843.35567  0.017195899  0.016316209         1016 
 4088000   0.60212842    -7.452997    843.28853  0.017190324  0.016311023         1085 
 4089000   0.60097883   -7.4224415    843.70242  0.017194555  0.016305835         1119 
 4090000   0.60563596   -7.4457821    843.07745  0.017177617  0.016300657         1105 
 4091000   0.60224219   -7.4363718    843.27146   0.01717737  0.016295482         1060 
 4092000      0.60995   -7.4444206    844.07832  0.017189604  0.016290302         1125 
 4093000   0.59701198   -7.4468631    843.78671  0.017179467  0.016285127         1167 
 4094000   0.60733869   -7.4569659    843.63321  0.017172147  0.016279951         1129 
 4095000   0.59536585   -7.4554056    840.77596  0.017109808  0.016274778         1157 
 4096000   0.59839711    -7.454242    842.54891  0.017141701    0.0162696         1162 
 4097000    0.5922861    -7.454297     843.3737  0.017154294  0.016264425         1110 
 4098000   0.59167762   -7.4540035     843.5854  0.017154413   0.01625925         1124 
 4099000   0.59666058   -7.4591485    844.17423  0.017162199   0.01625408         1132 
 4100000   0.58909693   -7.4370248    844.30898  0.017160752   0.01624891         1070 
 4101000    0.5819478   -7.4418235    842.57355  0.017121303  0.016243743         1168 
 4102000   0.59845671   -7.4446312    842.87313  0.017123215  0.016238579         1149 
 4103000   0.59038416   -7.4560001    842.74808  0.017116502  0.016233418         1127 
 4104000   0.59834459   -7.4410214    843.55472   0.01712871  0.016228259         1093 
 4105000   0.58534251   -7.4510823    842.91962  0.017111645  0.016223093         1134 
 4106000   0.60533146   -7.4547504    842.64388  0.017101881  0.016217929         1173 
 4107000     0.595514   -7.4588271    841.90065  0.017082636  0.016212768         1154 
 4108000    0.6112346   -7.4656436    842.44638  0.017089548  0.016207613         1121 
 4109000   0.59483547   -7.4564949    842.20219  0.017080437  0.016202455         1169 
 4110000   0.59394231   -7.4487526    840.75375  0.017046913  0.016197298         1145 
 4111000   0.59492965   -7.4708313    842.45651  0.017077283  0.016192145         1160 
 4112000    0.5969168   -7.4554111    843.00583  0.017084262  0.016186995         1117 
 4113000   0.60583582   -7.4703662    841.98024  0.017059329  0.016181848         1177 
 4114000    0.5959408   -7.4514495    843.79908  0.017092025  0.016176698         1144 
 4115000   0.58400335   -7.4486505    842.24345  0.017056368  0.016171551         1145 
 4116000   0.58136991   -7.4468228    842.39976  0.017055389  0.016166403         1140 
 4117000   0.59384103    -7.467645    842.24715  0.017048157  0.016161251         1143 
 4118000   0.59955461   -7.4587892    844.05718  0.017080646  0.016156109         1127 
 4119000   0.60828816   -7.4415807    842.40093   0.01704299  0.016150969         1166 
 4120000   0.59503407   -7.4638606     840.9659  0.017009828   0.01614583         1123 
 4121000   0.58542816   -7.4632364    843.07186  0.017048286  0.016140694         1118 
 4122000   0.59777531   -7.4610386    843.52686  0.017053349  0.016135553         1178 
 4123000   0.59292941   -7.4731908    842.74313  0.017033372  0.016130418         1159 
 4124000   0.58408307   -7.4813817    843.37474  0.017042005  0.016125282         1143 
 4125000   0.60266021   -7.4753461    842.36011  0.017017376  0.016120157         1191 
 4126000   0.57596692     -7.45621    843.70781  0.017040471  0.016115028         1172 
 4127000   0.59745932   -7.4584395    841.42875  0.016990323  0.016109904         1211 
 4128000   0.58554052   -7.4545269    842.14916   0.01700075  0.016104778         1207 
 4129000   0.58348229    -7.468909     842.2545  0.016998759  0.016099648         1159 
 4130000   0.58668514   -7.4575937    843.39156  0.017017586  0.016094523         1168 
 4131000   0.59296168   -7.4754279    844.14504  0.017028666  0.016089403         1112 
 4132000   0.60037805   -7.4751874    842.84383  0.016998302  0.016084282         1168 
 4133000   0.59123449   -7.4454768    840.97617  0.016956532  0.016079162         1180 
 4134000   0.58756992   -7.4846283    843.05213  0.016994278  0.016074051         1159 
 4135000   0.59952539   -7.4625613    843.83996  0.017006045  0.016068934         1129 
 4136000   0.58437883   -7.4576463     842.1733  0.016968353  0.016063815         1229 
 4137000   0.58733853   -7.4521522    842.22717  0.016965337  0.016058699         1195 
 4138000   0.58578637   -7.4868351    842.26736  0.016962046  0.016053577         1149 
 4139000   0.57962587   -7.4742093     842.4846  0.016962322  0.016048461         1250 
 4140000    0.5813056   -7.4627289    842.28218   0.01695415  0.016043333         1184 
 4141000   0.58579239   -7.4518172    843.47332  0.016974026  0.016038216         1213 
 4142000   0.58373158   -7.4869611    841.59051  0.016932048  0.016033102         1201 
 4143000   0.60503948    -7.446373    840.89984  0.016914069  0.016027992         1203 
 4144000   0.59521918   -7.4733544    842.37202  0.016939592  0.016022891         1191 
 4145000   0.59071791   -7.4593858    841.63581  0.016920704  0.016017797         1151 
 4146000   0.59955558   -7.4815076    842.54398  0.016934877  0.016012695         1170 
 4147000   0.58573743   -7.4769467    842.70587  0.016934046  0.016007594         1286 
 4148000   0.59096359   -7.4728293     841.3848  0.016903423  0.016002503         1239 
 4149000   0.58118674   -7.4709485    843.48194  0.016941471  0.015997409         1259 
 4150000   0.57141389   -7.4910317    842.25625  0.016912776  0.015992316         1265 
 4151000   0.59142187   -7.4713625    841.86014   0.01690075   0.01598722         1299 
 4152000   0.58867958   -7.4859292    843.48297   0.01692925  0.015982126         1315 
 4153000   0.58595035   -7.4931645    840.91367  0.016873619  0.015977028         1314 
 4154000   0.59293379   -7.4874875    840.92578    0.0168698  0.015971935         1304 
 4155000   0.58421498   -7.4873973     840.6505  0.016860219  0.015966844         1284 
 4156000    0.5851957   -7.4841512    842.39784  0.016891198  0.015961755         1264 
 4157000   0.59142516   -7.4809257    842.03949  0.016879951   0.01595667         1306 
 4158000   0.58768076   -7.4761002    842.57521  0.016886628  0.015951584         1367 
 4159000   0.59101568   -7.4735342    842.43806   0.01687982  0.015946496         1324 
 4160000    0.5812563   -7.4686766    842.01889  0.016867366  0.015941418         1333 
 4161000   0.59099014   -7.5031398    841.44417  0.016851802  0.015936333         1291 
 4162000   0.59570504   -7.4980767    843.24416  0.016883793  0.015931247         1319 
 4163000   0.60385921   -7.4764712    841.78066  0.016850442  0.015926161         1295 
 4164000   0.59146057   -7.4818153    842.01868  0.016851158  0.015921078         1335 
 4165000    0.5739515   -7.4964201    841.42085  0.016835151  0.015916002         1318 
 4166000   0.59900235   -7.4845346    842.04227   0.01684354  0.015910925         1378 
 4167000   0.56749799   -7.5192869    840.03707  0.016799398  0.015905843         1372 
 4168000    0.5785563   -7.4906908    843.02402  0.016855087  0.015900761         1325 
 4169000   0.58427024   -7.4814949    841.31312  0.016816845  0.015895676         1376 
 4170000   0.60039763   -7.4880203    840.45504  0.016795664  0.015890606         1371 
 4171000   0.58860435   -7.4836117    841.80161  0.016818541  0.015885534         1327 
 4172000   0.59065749   -7.5064212     841.3846   0.01680618  0.015880455         1319 
 4173000   0.59264822   -7.4697237    843.41289  0.016842657  0.015875392         1348 
 4174000   0.57679733   -7.5050052    841.21414  0.016794724  0.015870326         1391 
 4175000    0.5777856    -7.488642    841.79217  0.016802239  0.015865253         1360 
 4176000   0.59125545   -7.4958249    842.12905  0.016804938  0.015860186         1387 
 4177000   0.58574311   -7.4977977    841.09952  0.016780375  0.015855116         1358 
 4178000   0.58169292   -7.4906859    841.06226  0.016775616   0.01585005         1364 
 4179000   0.57465709   -7.4815351    842.12182   0.01679273  0.015844993         1387 
 4180000   0.59097889   -7.5075146    842.88347  0.016803897  0.015839934         1358 
 4181000   0.59422042    -7.491878    842.65069  0.016795238  0.015834878         1354 
 4182000   0.57618045   -7.5030474    843.82187   0.01681456  0.015829816         1351 
 4183000    0.5831605   -7.5089172    841.87819  0.016771818  0.015824751         1429 
 4184000    0.5791862    -7.491704    841.16974  0.016753699  0.015819684         1405 
 4185000   0.58247722     -7.49953    841.68163  0.016759889  0.015814622         1394 
 4186000    0.5777498    -7.515009    842.67199  0.016775601  0.015809564         1395 
 4187000   0.58587829   -7.4943011    840.84735  0.016735279  0.015804508         1399 
 4188000   0.57692135    -7.492561    841.11299  0.016736569  0.015799455         1472 
 4189000   0.58055641   -7.4915148    842.83327  0.016766795  0.015794399         1463 
 4190000   0.59133649   -7.4687506    842.05862  0.016747387  0.015789357         1423 
 4191000   0.57971665   -7.4915419     840.7973  0.016718311  0.015784315         1407 
 4192000   0.58183509   -7.4983986    841.47572  0.016727809  0.015779274         1421 
 4193000   0.58049037   -7.4842927    842.08609  0.016735951  0.015774232         1455 
 4194000   0.58857596   -7.4931541    841.77427  0.016725764  0.015769189         1479 
 4195000   0.57596773   -7.4848907    842.08902   0.01672803  0.015764145         1429 
 4196000   0.57164505   -7.4889514    841.96199   0.01672152  0.015759104         1462 
 4197000   0.58524352   -7.5001514    841.81414    0.0167146  0.015754065         1484 
 4198000   0.58553804   -7.5007605    842.29858  0.016720235  0.015749019         1468 
 4199000   0.58219751   -7.4882375     840.8535  0.016687574  0.015743983         1433 
 4200000   0.57684594   -7.5209706    842.17693   0.01670986  0.015738944         1497 
 4201000   0.58160142   -7.4942792    840.77543  0.016678081    0.0157339         1505 
 4202000   0.57998643   -7.5078725    840.08596  0.016660439  0.015728857         1542 
 4203000   0.56887264      -7.4998     840.4985  0.016664654  0.015723816         1497 
 4204000    0.5759035   -7.4910057    842.42451  0.016698868   0.01571877         1455 
 4205000    0.5742434    -7.497147    840.88159   0.01666432   0.01571373         1466 
 4206000   0.57652112   -7.5059506     840.7552  0.016657854  0.015708698         1459 
 4207000   0.55682644   -7.5008546    839.73713  0.016633728  0.015703665         1489 
 4208000    0.5847972   -7.5196949     839.9408  0.016633809  0.015698632         1504 
 4209000   0.58419663   -7.5016612    840.68647   0.01664462    0.0156936         1461 
 4210000    0.5772145   -7.5126758    840.41166  0.016635227  0.015688576         1437 
 4211000   0.56802883   -7.5003566    840.44195  0.016631876  0.015683546         1428 
 4212000   0.57515172   -7.5014158     841.1996  0.016642917  0.015678517         1431 
 4213000   0.59201248   -7.4786511    841.77344  0.016650317  0.015673492         1439 
 4214000   0.57241026   -7.5088706    841.11956  0.016633435  0.015668465         1394 
 4215000   0.58053932   -7.5187835    841.09347  0.016628973  0.015663433         1398 
 4216000   0.57711817   -7.5144112    843.00349  0.016662782  0.015658404         1448 
 4217000   0.58301343   -7.5205482      839.402  0.016587661  0.015653378         1482 
 4218000   0.58390145   -7.5165681    840.93682  0.016614051   0.01564835         1417 
 4219000   0.59013285   -7.5171794    838.91388  0.016570156  0.015643327         1413 
 4220000   0.57097933   -7.5156161    839.68554  0.016581468  0.015638305         1450 
 4221000   0.58518407   -7.5203157    839.82299  0.016580253  0.015633284         1410 
 4222000   0.57143036   -7.5287522    840.13324   0.01658245  0.015628264         1477 
 4223000   0.56471607   -7.5215815    840.01745  0.016576238  0.015623233         1453 
 4224000   0.56139321   -7.5230694    838.99876  0.016552217  0.015618204         1435 
 4225000   0.56676377   -7.5204986    840.35238  0.016574998  0.015613174         1393 
 4226000   0.57367976   -7.5203394    839.61348  0.016556505   0.01560815         1442 
 4227000   0.58037572   -7.5255773    840.01849  0.016560573  0.015603124         1452 
 4228000   0.57014015   -7.5310602    841.49886  0.016585834  0.015598106         1452 
 4229000   0.58203835   -7.5099116    840.01082   0.01655259   0.01559308         1411 
 4230000   0.57575407   -7.5211052    839.59176  0.016540421  0.015588065         1350 
 4231000   0.58717176   -7.5160637     841.3841  0.016571813   0.01558306         1456 
 4232000   0.58077383   -7.5230184     840.4794  0.016550083  0.015578048         1417 
 4233000   0.57441905   -7.5268082    841.28956  0.016562122   0.01557304         1491 
 4234000   0.58363048   -7.5122335    839.32003  0.016519446  0.015568032         1400 
 4235000   0.58329719   -7.5168396    840.31099  0.016535045  0.015563018         1423 
 4236000   0.56355787   -7.5282392    839.35311  0.016512298  0.015558019         1460 
 4237000   0.57122912   -7.5270379     839.8477  0.016518128   0.01555301         1500 
 4238000   0.57715352   -7.5128045    839.56835  0.016508737  0.015548005         1464 
 4239000   0.57211942   -7.5084205    840.67514  0.016526601  0.015543003         1483 
 4240000   0.57996028   -7.5158647    839.58983  0.016501372  0.015538003         1447 
 4241000   0.56510186   -7.5186498    840.53701  0.016516093  0.015533007         1462 
 4242000   0.56178981   -7.5175192    839.00551  0.016482113  0.015528006         1522 
 4243000   0.57473023    -7.519428    838.40387  0.016466413   0.01552301         1487 
 4244000   0.57232856   -7.5373343    839.45824  0.016483236  0.015518013         1539 
 4245000   0.55869062    -7.502105    838.18381  0.016454335  0.015513019         1494 
 4246000   0.58699836   -7.5232353    839.97375  0.016485589  0.015508028         1486 
 4247000   0.57598482   -7.5297341    839.74902  0.016477298  0.015503032         1486 
 4248000   0.56157431   -7.5474575    839.82961     0.016475  0.015498032         1474 
 4249000   0.55907252   -7.5358691     838.5804  0.016446623  0.015493038         1514 
 4250000   0.56603651   -7.5411656    841.29638  0.016496007  0.015488049         1406 
 4251000   0.57864242   -7.5426681    839.33705  0.016453718  0.015483064         1504 
 4252000   0.55827802   -7.5383261     840.2976  0.016468674  0.015478078         1477 
 4253000   0.56857318   -7.5290094    840.09204  0.016460774  0.015473088         1470 
 4254000     0.578949   -7.5264793    839.97756  0.016454661  0.015468108         1440 
 4255000   0.58140188   -7.5157545    838.73251   0.01642641  0.015463133         1461 
 4256000   0.57215072   -7.5333405    840.26553  0.016452568  0.015458156         1495 
 4257000   0.57573197   -7.5350593    841.03219  0.016463711  0.015453186         1500 
 4258000   0.56425262   -7.5514212    840.30574  0.016445627  0.015448215         1517 
 4259000   0.57369073   -7.5352533    839.04641  0.016417125  0.015443246         1529 
 4260000   0.56401173   -7.5136462    838.86097  0.016409643  0.015438277         1498 
 4261000   0.56482502   -7.5231885    840.62092  0.016440212  0.015433314         1435 
 4262000   0.55829905   -7.5269406     840.1895  0.016427919  0.015428352         1485 
 4263000   0.56232027   -7.5295345    839.37951  0.016408232  0.015423386         1477 
 4264000   0.58188628   -7.5304526    838.57587  0.016388678  0.015418427         1487 
 4265000   0.56345598   -7.5095902    838.90919  0.016391348  0.015413469         1465 
 4266000   0.56019089   -7.5426482    839.01465  0.016389566  0.015408504         1528 
 4267000   0.57870121   -7.5499668    838.79167   0.01638137  0.015403542         1529 
 4268000   0.56737149   -7.5377062    838.44806  0.016370823  0.015398581         1546 
 4269000   0.57989228   -7.5601557    839.99015  0.016397091  0.015393622         1546 
 4270000   0.56537676   -7.5481255    839.41762  0.016382077  0.015388661         1524 
 4271000   0.56626939   -7.5187282    838.25507  0.016355558  0.015383704         1530 
 4272000   0.57478325   -7.5373052     840.4566  0.016394675  0.015378755         1475 
 4273000   0.56602537   -7.5398039    840.03791  0.016382672  0.015373801         1516 
 4274000   0.57116611   -7.5247608    837.85842  0.016336344  0.015368844         1568 
 4275000   0.56158156   -7.5393172    838.46715  0.016344389  0.015363893         1490 
 4276000     0.568749    -7.552896     839.7657  0.016365874   0.01535894         1521 
 4277000   0.57150099   -7.5346888    838.07258  0.016329058  0.015353987         1590 
 4278000    0.5629109   -7.5502432    839.24666  0.016348112   0.01534904         1495 
 4279000   0.57621417   -7.5271973    839.11292  0.016341687  0.015344092         1566 
 4280000   0.56762115   -7.5374203    838.47482  0.016325444  0.015339143         1563 
 4281000   0.56286005   -7.5465683    838.39919  0.016320159  0.015334196         1554 
 4282000   0.56301491   -7.5477331    841.59242  0.016378492  0.015329252         1529 
 4283000   0.56907856   -7.5371786    840.40306  0.016351527   0.01532431         1578 
 4284000    0.5587069   -7.5358754    838.70213  0.016314623  0.015319379         1478 
 4285000   0.56175343    -7.542397    839.78736  0.016331921  0.015314443         1527 
 4286000   0.56713246    -7.544675    838.12291  0.016295748  0.015309505         1520 
 4287000    0.5601321   -7.5542718    838.94203  0.016307869  0.015304569         1595 
 4288000   0.56513622    -7.547115    839.51673  0.016315235  0.015299638         1463 
 4289000   0.57512218    -7.551397     838.1064  0.016284029  0.015294705         1537 
 4290000   0.57951333   -7.5492858    837.80426  0.016274364  0.015289776         1545 
 4291000   0.55818363   -7.5392006    839.30582  0.016299732  0.015284854         1512 
 4292000   0.55323705   -7.5403115    839.99363  0.016309289  0.015279929         1459 
 4293000   0.55864644   -7.5516238    839.61471  0.016298135  0.015275011         1470 
 4294000    0.5703606   -7.5536792    839.22036  0.016286686  0.015270093         1450 
 4295000   0.55323713   -7.5601762    838.73003   0.01627338  0.015265177         1447 
 4296000   0.57240659   -7.5548757    839.33567  0.016281341   0.01526026         1582 
 4297000   0.56114545   -7.5354832    839.44152  0.016279604  0.015255344         1524 
 4298000   0.56219589   -7.5415571     838.3028  0.016253738  0.015250432         1489 
 4299000   0.56832825   -7.5554649    838.16098  0.016247208  0.015245522         1589 
 4300000   0.55528127   -7.5462891    838.73033  0.016254464  0.015240609         1548 
 4301000   0.57274051    -7.545995    839.55785  0.016266718  0.015235704         1592 
 4302000   0.56294944   -7.5384826    839.40164  0.016259911  0.015230794         1488 
 4303000   0.56281544   -7.5384923    838.52714  0.016239196  0.015225883         1558 
 4304000   0.56941107   -7.5475527    836.87754  0.016203484  0.015220975         1525 
 4305000   0.56489164   -7.5467655    839.06138  0.016241993  0.015216071         1524 
 4306000   0.54590409   -7.5525699    839.58256  0.016248308  0.015211173         1576 
 4307000   0.56585034   -7.5615514    839.16195  0.016236397  0.015206272         1547 
 4308000   0.55906771   -7.5373179    840.17771  0.016252277  0.015201372         1548 
 4309000   0.56353041   -7.5491824    838.98771  0.016225491  0.015196475         1609 
 4310000    0.5670242   -7.5425905    838.28363  0.016208113  0.015191584         1564 
 4311000   0.55583096   -7.5541137    838.03995  0.016199643  0.015186691         1661 
 4312000   0.57149466   -7.5469071    838.36261  0.016202122    0.0151818         1560 
 4313000   0.56871725   -7.5366517    839.81153  0.016226361  0.015176912         1608 
 4314000   0.55918058   -7.5684514    837.78209  0.016183397  0.015172022         1621 
 4315000   0.55330943    -7.548679     838.8616  0.016200494  0.015167132         1566 
 4316000   0.55906494   -7.5508661    838.57898  0.016191284  0.015162242         1551 
 4317000   0.55445625   -7.5513058    839.71596  0.016209481  0.015157354         1513 
 4318000   0.56338539   -7.5599571    840.66075  0.016223961  0.015152468         1575 
 4319000   0.56068218   -7.5569968      839.163  0.016191306  0.015147582         1559 
 4320000   0.56550259   -7.5498205    838.24619  0.016169872    0.0151427         1545 
 4321000   0.55275619   -7.5699691     838.9419  0.016179548  0.015137826         1593 
 4322000   0.55205221   -7.5613048    839.81257  0.016192592  0.015132948         1551 
 4323000   0.56354048   -7.5439936    838.23823  0.016158498  0.015128075         1553 
 4324000   0.55512236   -7.5582903    838.26755  0.016155326  0.015123206         1539 
 4325000   0.56646711   -7.5618185    839.06598  0.016166975  0.015118333         1572 
 4326000   0.55662967   -7.5722755    839.27783  0.016167318  0.015113464         1521 
 4327000     0.557516   -7.5540364    839.02883  0.016158787  0.015108601         1547 
 4328000   0.55884386   -7.5474511    838.07897  0.016136764  0.015103739         1567 
 4329000   0.55886434   -7.5478873    837.83956  0.016128428  0.015098876         1583 
 4330000   0.57100168   -7.5419157    837.97706  0.016127349   0.01509401         1566 
 4331000   0.55766229   -7.5653664    839.40521  0.016151105  0.015089146         1491 
 4332000   0.55542882   -7.5381659    838.16615  0.016123541  0.015084287         1579 
 4333000   0.54287539   -7.5532068    837.46417  0.016106319  0.015079427         1506 
 4334000   0.55753244   -7.5618618    836.61223  0.016086222  0.015074568         1552 
 4335000   0.55939357   -7.5614157    837.89185   0.01610711  0.015069708         1580 
 4336000   0.57967953   -7.5419959    840.23198   0.01614837  0.015064856         1547 
 4337000   0.55162085   -7.5634118     839.3691  0.016128067  0.015060006         1584 
 4338000   0.56536377   -7.5494908     839.4636  0.016126164  0.015055151         1580 
 4339000    0.5555762   -7.5496983    838.82784  0.016110237  0.015050303         1563 
 4340000    0.5508511   -7.5473924    837.78974  0.016086593   0.01504545         1561 
 4341000   0.55802963   -7.5631101    838.87199  0.016103663  0.015040606         1607 
 4342000    0.5659312   -7.5646285    837.89514  0.016081206  0.015035766         1556 
 4343000   0.55262847   -7.5621561    838.60697  0.016091161  0.015030929         1542 
 4344000   0.55261543   -7.5594898    840.34457  0.016120791  0.015026095         1529 
 4345000   0.56699684    -7.556508    839.48451  0.016100585  0.015021257         1576 
 4346000   0.56421932   -7.5577939    838.94227  0.016086483   0.01501642         1616 
 4347000   0.55396243   -7.5444813    838.11245  0.016066875  0.015011582         1576 
 4348000   0.55166094   -7.5824263    838.39196  0.016068537  0.015006746         1583 
 4349000   0.54963617    -7.567781    836.58048  0.016030131  0.015001912         1579 
 4350000   0.56081473   -7.5607832      838.652   0.01606613  0.014997074         1586 
 4351000    0.5613913   -7.5390104     838.7461   0.01606424  0.014992243         1527 
 4352000   0.54674527    -7.584151    837.09239  0.016028883   0.01498741         1540 
 4353000   0.55427797    -7.554641    836.90691   0.01602165  0.014982581         1556 
 4354000   0.55074827   -7.5666839    838.02159  0.016039305  0.014977756         1540 
 4355000   0.53734159   -7.5542788    839.65379  0.016066854  0.014972934         1531 
 4356000    0.5567626   -7.5816993    838.30324  0.016037329  0.014968111         1517 
 4357000   0.56362516   -7.5653563    838.77427  0.016042657  0.014963288         1553 
 4358000   0.55781264   -7.5740148    838.13221  0.016026698  0.014958461         1565 
 4359000   0.54933334   -7.5658124    837.64103  0.016013631  0.014953642         1509 
 4360000   0.55121353   -7.5778028    838.65976   0.01602943  0.014948826         1567 
 4361000   0.55779746   -7.5689544    838.88976  0.016030149  0.014944015         1519 
 4362000   0.54892831   -7.5641859    837.29646  0.015996035  0.014939199         1569 
 4363000   0.54184261   -7.5686154     837.7224  0.016000504  0.014934384         1612 
 4364000   0.57372065   -7.5645989     836.7451  0.015978176  0.014929575         1555 
 4365000   0.55279462   -7.5815748    837.19783  0.015983158   0.01492477         1580 
 4366000   0.54616907   -7.5711017    838.15103  0.015997691  0.014919964         1568 
 4367000   0.54989614   -7.5609676    836.42305  0.015961053  0.014915159         1572 
 4368000   0.56560964   -7.5803629     838.2778  0.015992785  0.014910359         1566 
 4369000   0.55712254   -7.5494306     837.4357  0.015973062  0.014905561         1551 
 4370000   0.53462896   -7.5583068    838.36226  0.015987076  0.014900767         1545 
 4371000   0.55259883   -7.5639991    839.12898  0.015998036  0.014895973         1517 
 4372000    0.5518758   -7.5758179    837.83839  0.015969777  0.014891175         1633 
 4373000   0.55708546   -7.5792325     837.1706    0.0159534  0.014886376         1551 
 4374000   0.54452193   -7.5582871    837.94747  0.015964553   0.01488158         1574 
 4375000   0.55515161   -7.5882194    837.19785  0.015946626  0.014876784         1565 
 4376000   0.56068773   -7.5728832    837.36352  0.015946137  0.014871992         1570 
 4377000   0.54640711   -7.5564655    837.62531  0.015947478  0.014867204         1565 
 4378000   0.54030106   -7.5872598    837.90789  0.015949214  0.014862415         1630 
 4379000   0.55052096   -7.5773182    839.54668  0.015976758  0.014857625         1583 
 4380000   0.54575419   -7.5733397    838.05363  0.015944704  0.014852841         1577 
 4381000   0.54392777   -7.5743758    837.52124  0.015930937  0.014848059         1592 
 4382000   0.55245996   -7.5685086    838.11747   0.01593864  0.014843279         1570 
 4383000   0.55763205   -7.5735313    837.33441  0.015920116  0.014838501         1568 
 4384000   0.55431885   -7.5719318    839.14045  0.015950815  0.014833725         1603 
 4385000   0.55269747   -7.5787535    838.37626  0.015932654  0.014828952         1582 
 4386000   0.55916261   -7.5772079    838.10188  0.015923808  0.014824181         1581 
 4387000   0.56134506   -7.5807869    838.66869  0.015930945  0.014819409         1531 
 4388000   0.54527858    -7.573586    837.76492  0.015910151  0.014814636         1564 
 4389000    0.5446393   -7.5599822    836.05131   0.01587399  0.014809864         1583 
 4390000   0.54126247   -7.5576382    837.10729  0.015890419  0.014805098         1578 
 4391000   0.55052234   -7.5770521    837.20972  0.015888744  0.014800335         1596 
 4392000   0.55291991   -7.5877044    838.04799  0.015901032  0.014795569         1617 
 4393000   0.54177637   -7.5646007    837.34342  0.015884047  0.014790801         1525 
 4394000   0.54931235   -7.5807085    837.37837  0.015881095  0.014786034         1577 
 4395000   0.55365746   -7.5850125    839.20979  0.015912207  0.014781269         1471 
 4396000   0.53871162   -7.5527743    838.85259  0.015901816  0.014776504         1584 
 4397000   0.55102355   -7.5785879    836.67044  0.015856842  0.014771741         1604 
 4398000   0.54744443   -7.5874353    837.66661  0.015872113  0.014766979         1617 
 4399000   0.54550687   -7.5904246    838.98186   0.01589342  0.014762222         1567 
 4400000   0.55271141   -7.5802986    838.54411  0.015881517  0.014757461         1622 
 4401000   0.54049724   -7.5907496    838.24162  0.015872181  0.014752705         1580 
 4402000   0.55787394   -7.5611974    837.69895  0.015858302  0.014747946         1548 
 4403000   0.53625343    -7.591755    838.01439   0.01586067  0.014743195         1560 
 4404000   0.54650658   -7.5987944    838.75931  0.015871165  0.014738446         1597 
 4405000   0.54588202   -7.5693184     838.5395  0.015863403  0.014733698         1596 
 4406000   0.55710599   -7.5877027    837.57095  0.015841484  0.014728947         1562 
 4407000     0.534932   -7.5918577    837.40976  0.015834841  0.014724202         1524 
 4408000   0.53539589   -7.5942652    836.96864   0.01582291  0.014719457         1603 
 4409000   0.55091069   -7.5775571    837.37431  0.015826989   0.01471472         1584 
 4410000   0.55209414   -7.5795242    837.59083  0.015827491  0.014709988         1595 
 4411000   0.55043921   -7.5740277    836.89008  0.015810664  0.014705251         1609 
 4412000   0.55362024   -7.5836734     837.5182  0.015818945  0.014700514         1570 
 4413000   0.55507195   -7.5783194    837.28766  0.015811007  0.014695776         1532 
 4414000   0.54902928   -7.5848831    838.06218  0.015822047  0.014691042         1542 
 4415000   0.55156618   -7.5834607    837.77666  0.015813074  0.014686311         1559 
 4416000   0.55231462    -7.585711    837.45758  0.015803472  0.014681581         1568 
 4417000   0.55819763   -7.5968912      838.434  0.015818316  0.014676852         1619 
 4418000    0.5572829   -7.5973332    836.81168  0.015784135  0.014672124         1609 
 4419000   0.54395763   -7.5842695     836.5236   0.01577513  0.014667392         1614 
 4420000   0.53790028    -7.588052    836.42352  0.015769674  0.014662667         1620 
 4421000   0.54676465   -7.5722027    836.08979  0.015759817  0.014657941         1562 
 4422000    0.5512478   -7.5882036    837.03333  0.015774034  0.014653215         1634 
 4423000   0.53590516   -7.5764403     836.4043  0.015758616   0.01464849         1557 
 4424000   0.54623606   -7.5771096    836.32303  0.015753523  0.014643776         1598 
 4425000   0.53924803   -7.5828358    837.06182  0.015763876  0.014639055         1586 
 4426000     0.546098   -7.5790596    836.69799  0.015753464  0.014634338         1549 
 4427000   0.54129388   -7.5858596    837.28974  0.015761045  0.014629622         1651 
 4428000   0.55532778   -7.5856204    836.93577  0.015750824  0.014624904         1574 
 4429000   0.54990638   -7.5922164    837.91061  0.015765609  0.014620195         1551 
 4430000   0.53688047   -7.5771398    836.12461  0.015728454  0.014615482         1603 
 4431000   0.55225135   -7.5788359    835.56553   0.01571439  0.014610774         1602 
 4432000   0.53004217   -7.5792853    837.70352  0.015751044  0.014606067         1635 
 4433000   0.54063471   -7.5985822    837.27026  0.015739346  0.014601366         1538 
 4434000   0.53233759   -7.5876717    837.41025  0.015738427  0.014596666         1604 
 4435000   0.53329001   -7.6019799    836.60545  0.015719757  0.014591965         1580 
 4436000    0.5424738   -7.5871407    837.93986  0.015741281  0.014587271         1652 
 4437000   0.54204519   -7.5949209    837.07001  0.015721396  0.014582581         1662 
 4438000   0.54422714   -7.5717002    837.71478  0.015729961  0.014577889         1695 
 4439000   0.53270259   -7.5748537    837.80737  0.015728155  0.014573194         1632 
 4440000   0.54267778    -7.603666    837.21522  0.015713499  0.014568503         1579 
 4441000   0.53363015   -7.5908886     836.3053  0.015692886  0.014563811         1647 
 4442000   0.53682224   -7.5842939    838.36281  0.015727953  0.014559124         1633 
 4443000   0.54475744   -7.6058036    837.40068  0.015706367  0.014554436         1613 
 4444000   0.54179648   -7.5988784    835.29882  0.015663419  0.014549746         1662 
 4445000   0.54091024   -7.5910337    837.83288  0.015707403  0.014545058         1634 
 4446000   0.53704973   -7.6050105    837.64071  0.015700268  0.014540373         1638 
 4447000    0.5365958   -7.6014461    837.06272  0.015685907  0.014535694         1628 
 4448000   0.53587481   -7.6019928    837.46277  0.015689875   0.01453101         1604 
 4449000   0.53961268   -7.5847985    836.67897  0.015671667  0.014526327         1676 
 4450000   0.53778996   -7.6000404    837.32014  0.015680152  0.014521644         1592 
 4451000    0.5513156   -7.5831911     837.9999  0.015689356  0.014516968         1669 
 4452000   0.52914036   -7.5984802    835.86298  0.015645833  0.014512292         1677 
 4453000   0.53723982   -7.6018467      836.464  0.015653567  0.014507619         1602 
 4454000   0.53402896   -7.5927821    836.34312  0.015647791  0.014502948         1599 
 4455000   0.53194071   -7.5963495     838.8283  0.015690765   0.01449828         1605 
 4456000    0.5472836   -7.5871316    836.72499  0.015647909   0.01449361         1653 
 4457000   0.53847181   -7.5895679    836.70264   0.01564398  0.014488945         1655 
 4458000   0.53930243   -7.6123852    838.66401  0.015677135  0.014484284         1594 
 4459000   0.54192283   -7.5875474     836.0012  0.015623854  0.014479619         1667 
 4460000    0.5476803   -7.5881856    837.80223  0.015654003  0.014474963         1604 
 4461000   0.53109646   -7.5998983    837.10183   0.01563741  0.014470308         1682 
 4462000   0.52894738   -7.5865649    837.34947   0.01563853  0.014465651         1656 
 4463000   0.54291119   -7.5823041    835.98146  0.015609483  0.014460998         1619 
 4464000   0.54164264   -7.5907544    835.96793  0.015605733  0.014456349         1652 
 4465000   0.53850102   -7.5995799    837.58578  0.015632433  0.014451697         1627 
 4466000   0.54721686   -7.5676531      836.479  0.015608281  0.014447047         1636 
 4467000   0.54044694   -7.5777099    836.05536  0.015596884  0.014442399         1651 
 4468000   0.53532537   -7.5862617    836.43156   0.01560041  0.014437753         1576 
 4469000   0.53529511   -7.5948737    836.64911  0.015600975  0.014433107         1634 
 4470000    0.5357479   -7.6082059    838.35609  0.015629308  0.014428466         1616 
 4471000   0.53926014   -7.6018444    837.28642  0.015605875  0.014423825         1594 
 4472000   0.53494953   -7.6037314    837.11755  0.015599239  0.014419182         1657 
 4473000   0.54275573   -7.5988355    837.20998  0.015597473  0.014414543         1654 
 4474000   0.52075427   -7.6099012    837.64468  0.015602084    0.0144099         1698 
 4475000   0.53512449     -7.59802     837.8272  0.015601996  0.014405266         1676 
 4476000   0.53568296   -7.5922052    838.42607   0.01560966  0.014400635         1667 
 4477000   0.53352115   -7.6087483    836.80414  0.015575984  0.014396005         1667 
 4478000   0.53529873   -7.5861305    838.14812  0.015597516  0.014391376         1669 
 4479000    0.5371481   -7.5973452    838.38566  0.015598453  0.014386751         1686 
 4480000   0.52870029   -7.5838655    837.79284  0.015583944  0.014382124         1714 
 4481000   0.52989781   -7.6074009    836.87537  0.015563404  0.014377498         1685 
 4482000   0.54384617    -7.607074     837.1003  0.015564114  0.014372873         1703 
 4483000    0.5293549   -7.6119621    837.98536  0.015577094  0.014368251         1675 
 4484000   0.53706823   -7.6292134     836.9095  0.015553626  0.014363629         1688 
 4485000   0.54462137   -7.6079024    837.46327  0.015560447  0.014359008         1677 
 4486000   0.54195445   -7.5868586    837.47464   0.01555719  0.014354391         1673 
 4487000    0.5401817   -7.6000048     836.5863  0.015537224  0.014349778         1592 
 4488000   0.52302263   -7.6071776    837.16128  0.015544438  0.014345166         1600 
 4489000   0.53319945   -7.6065427    836.57767  0.015530142  0.014340554         1649 
 4490000   0.54469406   -7.5942063    837.60063  0.015545669  0.014335944         1642 
 4491000    0.5251396   -7.5991675    837.95373  0.015548759  0.014331335         1656 
 4492000   0.52401943   -7.5887172    837.82828   0.01554297  0.014326725         1687 
 4493000   0.53206911   -7.6284241    837.78339  0.015538679  0.014322119         1671 
 4494000   0.52551974   -7.6045748    836.72167  0.015515533  0.014317512         1646 
 4495000    0.5243615   -7.5781772    836.68142  0.015511335  0.014312906         1679 
 4496000   0.53394597   -7.5943604    835.97061   0.01549471  0.014308308         1615 
 4497000   0.54222745   -7.5882908    835.59091  0.015484228  0.014303714         1633 
 4498000   0.52728481   -7.5951095    837.15559  0.015509775  0.014299118         1631 
 4499000   0.53278894   -7.6016053    837.22284  0.015507573  0.014294525         1680 
 4500000   0.53075609   -7.6130712     836.0281  0.015482002  0.014289929         1718 
 4501000   0.53596887   -7.6007484    836.64994  0.015490075  0.014285338         1676 
 4502000   0.52725766   -7.6162457    835.94596  0.015473604  0.014280742         1678 
 4503000   0.52872607   -7.6257972    837.29042  0.015495048  0.014276153         1719 
 4504000   0.51546603   -7.6018756    835.30663  0.015454904  0.014271561         1712 
 4505000   0.52197473   -7.6035518    835.99648  0.015464234  0.014266974         1684 
 4506000   0.53196086   -7.6153844    836.72769  0.015474325  0.014262385         1735 
 4507000   0.52137894   -7.6045127    836.20375  0.015461204  0.014257803         1708 
 4508000   0.54073602   -7.6153532    836.19674  0.015457645  0.014253221         1704 
 4509000   0.52993751   -7.5927716    835.77207  0.015446368  0.014248641         1751 
 4510000   0.54427691   -7.6071035    836.12518  0.015449467  0.014244061         1717 
 4511000   0.53670558   -7.6152804     835.9204   0.01544226  0.014239485         1770 
 4512000   0.53554908   -7.6003946     836.3233  0.015446278  0.014234907         1746 
 4513000   0.51851503   -7.6037921    836.14327  0.015439532  0.014230331         1758 
 4514000   0.51949787   -7.6199181    835.80318  0.015429833  0.014225752         1767 
 4515000   0.52315087   -7.5935486    834.57437  0.015403735  0.014221177         1776 
 4516000   0.52514971   -7.6055013    836.85897  0.015442482  0.014216605         1720 
 4517000   0.52619825   -7.6074662    836.61952  0.015434645  0.014212036         1736 
 4518000   0.52649981   -7.6142089    835.85828  0.015417188  0.014207467         1721 
 4519000   0.52411102   -7.6219714    835.66253  0.015410167  0.014202902         1787 
 4520000   0.52777898   -7.6147187    835.08682  0.015396143  0.014198338         1742 
 4521000   0.53395893   -7.6013528    835.54004  0.015401092  0.014193774         1729 
 4522000   0.53004766   -7.5939318    835.34845  0.015394155  0.014189213         1722 
 4523000    0.5298992   -7.6083677    835.86013  0.015400179  0.014184653         1754 
 4524000   0.52029626   -7.6204172    836.55927  0.015409654  0.014180098         1663 
 4525000   0.53895299   -7.6130413    835.73859  0.015391134   0.01417554         1681 
 4526000   0.52725497   -7.6002655    836.15968  0.015395487  0.014170985         1731 
 4527000   0.52263826   -7.6205577    835.98511  0.015388873  0.014166431         1734 
 4528000   0.51685259   -7.6156888    835.18182   0.01537069  0.014161876         1739 
 4529000   0.52472011   -7.6308705    835.83761  0.015379363  0.014157321         1797 
 4530000   0.53123833   -7.6010631    836.91223  0.015395736  0.014152769         1704 
 4531000   0.52271198   -7.6082408    836.41559  0.015383204  0.014148222         1697 
 4532000   0.52809073   -7.6226744    835.90304  0.015370385  0.014143674         1720 
 4533000   0.52777727   -7.6140076    835.88184  0.015366605  0.014139127         1736 
 4534000   0.51593579   -7.6145278    837.96833  0.015401565  0.014134582         1690 
 4535000   0.51945291   -7.6242543    836.17101  0.015365142  0.014130039         1718 
 4536000   0.52353517   -7.6192916    837.23731  0.015381344  0.014125499         1683 
 4537000   0.52554202   -7.6223941    836.09466  0.015356966   0.01412096         1714 
 4538000   0.52219908   -7.6139073    836.99504  0.015370116  0.014116422         1737 
 4539000   0.53921901   -7.6059896    835.80948  0.015344964  0.014111886         1730 
 4540000     0.528728    -7.624011    836.10005  0.015346917  0.014107352         1683 
 4541000   0.53172839   -7.6322014    836.27907  0.015346823   0.01410282         1706 
 4542000   0.51851707   -7.6116767    837.22911  0.015360875  0.014098293         1651 
 4543000   0.53428819   -7.6198967      836.338  0.015341148  0.014093769         1689 
 4544000   0.51582627   -7.6247104    836.65355  0.015343558  0.014089243         1720 
 4545000   0.52021048   -7.6191864    835.91926  0.015326719  0.014084719         1708 
 4546000   0.52307541   -7.6200471    837.09806  0.015344956    0.0140802         1686 
 4547000   0.51008275   -7.6072476    835.61821   0.01531446  0.014075678         1706 
 4548000   0.52614118   -7.6282373    837.01526  0.015336691  0.014071159         1700 
 4549000   0.52842003   -7.6208088    835.76899  0.015310489  0.014066647         1712 
 4550000   0.53185985   -7.6307999    833.83275  0.015271662  0.014062134         1705 
 4551000   0.52987957   -7.6150797    836.99213  0.015326158  0.014057628         1693 
 4552000   0.51504062   -7.6196111    834.54879  0.015278061   0.01405312         1687 
 4553000   0.51324121   -7.6205499    837.04663  0.015320423  0.014048615         1707 
 4554000   0.51737979   -7.5942673    837.43775  0.015324216  0.014044112         1644 
 4555000   0.53103371   -7.6164335    835.05457  0.015277252  0.014039604         1732 
 4556000    0.5126107   -7.5932894    835.96536  0.015290558    0.0140351         1660 
 4557000    0.5276603   -7.6153951    835.71572  0.015282637  0.014030592         1720 
 4558000    0.5230285   -7.6191337    835.84328  0.015281616  0.014026089         1736 
 4559000   0.51576719    -7.614315    835.62454  0.015274266  0.014021589         1702 
 4560000   0.54330826   -7.6246297    835.95618  0.015276977  0.014017095         1726 
 4561000   0.52059476   -7.6148165    835.95582  0.015273621  0.014012604         1728 
 4562000   0.52199264   -7.6262354    835.74154  0.015266359  0.014008106         1722 
 4563000   0.51639343   -7.6236146    834.51496  0.015240612  0.014003613         1767 
 4564000   0.52977526   -7.6218309    835.22341  0.015250208  0.013999125         1767 
 4565000   0.52909624   -7.6212335    834.48009  0.015233298  0.013994631         1735 
 4566000   0.51860152   -7.6175777    835.40566  0.015246855  0.013990144         1719 
 4567000   0.51591509   -7.6081019    835.02154  0.015236507  0.013985659         1763 
 4568000   0.52980344   -7.6142015    836.13437  0.015253473  0.013981174         1714 
 4569000   0.51653855   -7.6232364    837.18056  0.015269216  0.013976693         1667 
 4570000   0.51993889   -7.6200414    835.96306  0.015243674   0.01397221         1718 
 4571000   0.51902989   -7.6159824    835.62829  0.015234236  0.013967731         1768 
 4572000   0.51627204   -7.6271307    835.13151  0.015221849  0.013963252         1754 
 4573000   0.51922248   -7.6433575    836.02279  0.015234762  0.013958775         1708 
 4574000   0.50575919   -7.6244249    835.03696   0.01521347    0.0139543         1693 
 4575000   0.52060213   -7.6155653    836.16311  0.015230658  0.013949826         1705 
 4576000   0.52693696   -7.6236221    835.91543  0.015222819  0.013945353         1714 
 4577000   0.52546804   -7.6206944    836.89723  0.015237369  0.013940886         1728 
 4578000   0.51729755   -7.6290262    835.71209  0.015212467  0.013936416         1801 
 4579000   0.51130051   -7.6183461    836.56694  0.015224702  0.013931948         1734 
 4580000   0.51731346   -7.6239689    836.69086  0.015223633  0.013927478         1729 
 4581000   0.52147395   -7.6244589    835.97063  0.015207208   0.01392301         1784 
 4582000   0.52029901   -7.6248187    835.08283  0.015187742  0.013918534         1789 
 4583000   0.51735401   -7.6422041     834.8133  0.015179528  0.013914066         1777 
 4584000   0.53067762   -7.6232319    835.28941  0.015184872  0.013909597         1729 
 4585000   0.50855607   -7.6155937    834.91235  0.015174706  0.013905129         1709 
 4586000   0.51579317   -7.6344499    835.56799  0.015183311  0.013900663         1757 
 4587000    0.5298559    -7.649112    834.35411  0.015157948  0.013896201         1741 
 4588000   0.52871843    -7.624902    835.32743  0.015172323  0.013891738         1722 
 4589000   0.51239331   -7.6380425    835.05298  0.015164033  0.013887277         1780 
 4590000   0.52299205   -7.6375862    835.06797  0.015161002  0.013882816         1718 
 4591000   0.53101246   -7.6374123    836.40905  0.015182042  0.013878357         1779 
 4592000   0.51173855   -7.6292467    835.08431  0.015154695  0.013873905         1769 
 4593000    0.5194322   -7.6205872    835.85233   0.01516533  0.013869453         1771 
 4594000   0.51115074   -7.6259055    833.95355  0.015127586  0.013865001         1739 
 4595000   0.51819233   -7.6323681    834.99692  0.015143216  0.013860555         1734 
 4596000   0.51671954    -7.634786    835.41836  0.015147562  0.013856105         1761 
 4597000    0.5237987   -7.6375875    835.94197  0.015153759  0.013851659         1728 
 4598000   0.51430348   -7.6314655    834.06742  0.015116489  0.013847213         1687 
 4599000   0.51121399   -7.6355566    834.08278  0.015113481  0.013842773         1728 
 4600000     0.512127   -7.6419701     835.5919  0.015137534  0.013838331         1734 
 4601000   0.51462559   -7.6371333    835.35283  0.015129914  0.013833888         1705 
 4602000   0.50515953   -7.6275064    834.94614  0.015119262  0.013829451         1723 
 4603000   0.50842155   -7.6241256     834.6998  0.015111518  0.013825014         1696 
 4604000   0.52363249   -7.6546321    836.09749  0.015133534  0.013820576         1716 
 4605000   0.49866949    -7.627687    834.09776   0.01509406   0.01381614         1737 
 4606000   0.51273639   -7.6406238    834.89448  0.015105198  0.013811705         1729 
 4607000   0.51072876   -7.6438083    834.55833  0.015095838  0.013807273         1747 
 4608000   0.51794445   -7.6384434    834.34267  0.015088662  0.013802843         1746 
 4609000   0.51421036     -7.63963    835.49175  0.015106165  0.013798415         1746 
 4610000   0.51208496   -7.6470557    836.03483  0.015112705  0.013793982         1719 
 4611000   0.50637365   -7.6426399    835.19266  0.015094207  0.013789556         1676 
 4612000   0.51153407   -7.6386784    835.10803  0.015089405  0.013785131         1735 
 4613000   0.51287223   -7.6310348    834.42086   0.01507372  0.013780706         1727 
 4614000    0.5100446   -7.6358199    835.31757  0.015086649  0.013776287         1730 
 4615000   0.51089318   -7.6248693    836.24755  0.015100172  0.013771868         1783 
 4616000   0.50824787   -7.6378055    835.74451   0.01508782  0.013767449         1773 
 4617000   0.51046491   -7.6383436     833.1726  0.015038131  0.013763029         1744 
 4618000   0.51685937   -7.6267391    834.64523  0.015061448   0.01375861         1745 
 4619000    0.5156182   -7.6304748    835.45836  0.015072858  0.013754195         1783 
 4620000   0.50574762   -7.6342513    835.12142  0.015063518  0.013749781         1815 
 4621000   0.51026253   -7.6347524    834.91357   0.01505651  0.013745368         1719 
 4622000    0.5108021   -7.6406942    834.61172   0.01504781  0.013740961         1785 
 4623000   0.51471918   -7.6393979    834.68233  0.015045828  0.013736554         1735 
 4624000    0.5018667   -7.6317327    834.88137  0.015046161  0.013732151         1704 
 4625000   0.50619707   -7.6497231    834.26762  0.015031849  0.013727745         1781 
 4626000   0.52275296   -7.6574482    835.67981  0.015054039  0.013723339         1776 
 4627000   0.52262288   -7.6426262    834.79518  0.015034853  0.013718941         1758 
 4628000   0.51329811   -7.6251788    833.93282  0.015016076  0.013714542         1761 
 4629000   0.51181685    -7.647257    835.12553  0.015034304  0.013710144         1786 
 4630000   0.51721411   -7.6490416    835.06271  0.015029926  0.013705748         1815 
 4631000   0.51072777    -7.636147    834.80697  0.015022079  0.013701355         1734 
 4632000   0.52366303   -7.6412542    834.24941  0.015008805  0.013696961         1744 
 4633000   0.49735861   -7.6542956    833.01265   0.01498332  0.013692564         1798 
 4634000    0.5123149   -7.6401127    835.23453  0.015020043  0.013688175         1814 
 4635000   0.51304232   -7.6473295     834.8086  0.015009144  0.013683785         1798 
 4636000   0.51127043   -7.6246266    834.83009  0.015006293  0.013679398         1766 
 4637000   0.50928879   -7.6344454    834.72051  0.015001088  0.013675011         1764 
 4638000   0.51583497   -7.6437128    834.37528   0.01499165  0.013670628         1725 
 4639000   0.50422169   -7.6462842    836.15483  0.015020386  0.013666248         1730 
 4640000   0.51048507   -7.6353747    835.03491  0.014997035  0.013661872         1721 
 4641000   0.50696437   -7.6396291    833.75345  0.014970794  0.013657496         1772 
 4642000   0.50894993   -7.6416933    833.59873  0.014964791  0.013653117         1716 
 4643000    0.5101065   -7.6528717    834.27174  0.014973647  0.013648735         1778 
 4644000   0.50368639   -7.6237603    834.28804  0.014970716  0.013644362         1700 
 4645000   0.50317937   -7.6488613    834.71469  0.014975147  0.013639986         1792 
 4646000   0.50388137   -7.6563178    834.39154  0.014966127  0.013635611         1770 
 4647000   0.50677185   -7.6207693    834.66651  0.014967838  0.013631244         1750 
 4648000   0.49767627   -7.6477929    834.62376  0.014963851  0.013626875         1781 
 4649000    0.5066544   -7.6570669    835.07813  0.014968777  0.013622512         1806 
 4650000   0.50771593   -7.6428809    833.29035  0.014933519   0.01361815         1753 
 4651000     0.513289    -7.645418    832.65225  0.014918875  0.013613789         1793 
 4652000   0.49988214   -7.6665495    833.97001  0.014939274  0.013609427         1781 
 4653000   0.51253605   -7.6440781    834.65687  0.014948364   0.01360507         1835 
 4654000   0.50261195   -7.6499285    835.07202  0.014952586  0.013600714         1762 
 4655000   0.49987077   -7.6566538    833.62544  0.014923477  0.013596359         1755 
 4656000   0.50705626   -7.6532254    834.13131  0.014929326  0.013592004         1795 
 4657000   0.50988872   -7.6479652    834.84206  0.014938839  0.013587658         1765 
 4658000   0.50135756   -7.6592614    832.39494  0.014891852  0.013583303         1755 
 4659000    0.5240627   -7.6520073    834.63047  0.014928641  0.013578952         1745 
 4660000   0.51011354   -7.6443016    834.00694  0.014914287  0.013574602         1772 
 4661000   0.50473919   -7.6521985    834.55811  0.014920942   0.01357025         1799 
 4662000   0.50745834   -7.6655771     833.8935  0.014905861  0.013565903         1710 
 4663000   0.50973558   -7.6626226    833.94592  0.014903601  0.013561559         1735 
 4664000   0.51411498   -7.6418115    833.77407  0.014897335  0.013557218         1787 
 4665000   0.50929107   -7.6262701    833.89273  0.014896262  0.013552876         1834 
 4666000   0.51640562   -7.6542209    833.85601  0.014892413  0.013548535         1739 
 4667000   0.49098324   -7.6550669     835.0253  0.014910101   0.01354419         1755 
 4668000    0.5092685   -7.6485723    834.56783   0.01489874  0.013539853         1711 
 4669000   0.49468908   -7.6558171     834.4424   0.01489331  0.013535521         1754 
 4670000    0.5094675   -7.6467602    832.76423  0.014860175  0.013531185         1732 
 4671000   0.50137187   -7.6533522    833.59717  0.014871854  0.013526851         1751 
 4672000   0.50087727   -7.6652863    834.49824  0.014884743   0.01352252         1785 
 4673000   0.50198881   -7.6537941    832.51257  0.014846148  0.013518188         1763 
 4674000   0.51778836    -7.649811    834.35674  0.014875851   0.01351386         1782 
 4675000   0.48816323   -7.6737972    832.27855  0.014835625  0.013509533         1773 
 4676000    0.5068071   -7.6591364    833.35379  0.014851614  0.013505205         1808 
 4677000   0.50136329   -7.6545942    834.57149  0.014870136  0.013500881         1777 
 4678000   0.50300157   -7.6514831    833.44757  0.014846935  0.013496556         1718 
 4679000   0.49111598   -7.6511727    833.53279   0.01484528  0.013492234         1730 
 4680000   0.51681429   -7.6510374    833.12223  0.014834798  0.013487912         1727 
 4681000   0.51353358   -7.6464205    834.78386  0.014861209  0.013483596         1780 
 4682000   0.50020898   -7.6313365    834.53964  0.014853689  0.013479283         1726 
 4683000   0.49287329   -7.6524082     834.2449  0.014845272  0.013474968         1745 
 4684000   0.51073982   -7.6690879     834.4031  0.014844917  0.013470654         1762 
 4685000   0.50472359   -7.6617261    833.66713  0.014828658  0.013466342         1791 
 4686000   0.49309401   -7.6515329    833.74978  0.014826963  0.013462035         1782 
 4687000   0.50209362   -7.6578556    834.45174   0.01483628  0.013457726         1731 
 4688000   0.50126732   -7.6514416    833.36122   0.01481373  0.013453419         1770 
 4689000   0.50641136    -7.653448    833.83697  0.014819026  0.013449114         1752 
 4690000   0.49984034    -7.663562    835.43338  0.014844232  0.013444813         1818 
 4691000   0.50182115   -7.6387619     833.8363  0.014812696   0.01344051         1778 
 4692000   0.50664346    -7.657127    833.29776  0.014799974  0.013436212         1809 
 4693000   0.50717406   -7.6590541    833.96333  0.014808639  0.013431917         1793 
 4694000   0.49310549   -7.6641479    833.55642   0.01479826   0.01342762         1781 
 4695000   0.50321034   -7.6555213     833.7204  0.014798019  0.013423325         1744 
 4696000   0.51104381   -7.6739239    831.98256  0.014764029  0.013419033         1807 
 4697000   0.50755191   -7.6600006    834.62742   0.01480781   0.01341474         1775 
 4698000   0.49265139   -7.6706275    833.36762  0.014782312  0.013410449         1771 
 4699000   0.51093011   -7.6697887    833.49163  0.014781365  0.013406156         1776 
 4700000   0.49488175   -7.6705825    834.47219  0.014795606  0.013401869         1737 
 4701000   0.50736645   -7.6654769    832.87611  0.014764166  0.013397584         1758 
 4702000   0.50428833   -7.6608265    832.78652  0.014759438  0.013393297         1810 
 4703000   0.48420481   -7.6796879    835.31067  0.014801025  0.013389016         1763 
 4704000   0.50625987   -7.6633525    832.93651   0.01475582  0.013384733         1776 
 4705000   0.48329381   -7.6762874    833.75285  0.014767142  0.013380453         1827 
 4706000   0.50595375   -7.6649296    833.64012  0.014762008  0.013376172         1819 
 4707000   0.50744814   -7.6585948    834.32664  0.014771026  0.013371897         1815 
 4708000   0.50441289   -7.6632841    832.81464  0.014741126   0.01336762         1803 
 4709000   0.49077718   -7.6728553    833.88688   0.01475697  0.013363348         1777 
 4710000   0.50380472   -7.6759296    834.60932  0.014766619  0.013359076         1785 
 4711000   0.50230972   -7.6608408     833.3595  0.014741377  0.013354806         1818 
 4712000   0.49614031    -7.659402    833.12747  0.014734145  0.013350539         1849 
 4713000   0.49488581   -7.6587978    833.84838  0.014743765  0.013346273         1827 
 4714000   0.49687327   -7.6711923    832.87541  0.014723437  0.013342003         1812 
 4715000   0.49406113    -7.661494    833.54244  0.014732104  0.013337738         1773 
 4716000   0.49104497   -7.6661029    833.62871  0.014730505  0.013333476         1742 
 4717000   0.50391285   -7.6748651    834.43063  0.014741549  0.013329211         1789 
 4718000   0.49175838    -7.660898    832.78589  0.014709373  0.013324949         1758 
 4719000   0.49185612   -7.6501343    832.84118  0.014707233   0.01332069         1805 
 4720000   0.49993877   -7.6666405    833.19386  0.014710344  0.013316434         1783 
 4721000   0.49464129   -7.6833785     834.1605   0.01472429  0.013312177         1837 
 4722000   0.49225948    -7.658514    833.67781  0.014712654  0.013307923         1859 
 4723000     0.506818   -7.6866527    832.71938  0.014692628  0.013303669         1813 
 4724000   0.49657635   -7.6723621    832.24813  0.014681205  0.013299414         1801 
 4725000   0.49370968     -7.68361    833.06955  0.014692585  0.013295158         1780 
 4726000   0.48700987   -7.6740211    832.77413  0.014684267  0.013290906         1800 
 4727000   0.49391297   -7.6750164    833.65358  0.014696664  0.013286656         1808 
 4728000   0.50014088   -7.6749791    833.42591  0.014689543  0.013282413         1807 
 4729000     0.509418    -7.655644    832.30162  0.014666625  0.013278171         1770 
 4730000   0.49271102    -7.680526    832.50476  0.014667103  0.013273925         1820 
 4731000   0.49689098   -7.6656613    833.06381   0.01467385   0.01326968         1804 
 4732000   0.50629789   -7.6736552    833.54622  0.014679245  0.013265435         1842 
 4733000    0.4834727   -7.6698724     833.2639  0.014671172  0.013261196         1801 
 4734000   0.48658743   -7.6612318    832.55223  0.014655546  0.013256953         1773 
 4735000   0.49215948   -7.6813926    833.08215  0.014661777  0.013252716         1763 
 4736000   0.50365479   -7.6556908     833.2751  0.014662076  0.013248483         1802 
 4737000   0.49297478   -7.6869273    833.08056  0.014655558   0.01324425         1842 
 4738000    0.4839299   -7.6743316    833.10202  0.014652843  0.013240018         1756 
 4739000   0.49797335   -7.6948538    832.54913  0.014640028  0.013235787         1761 
 4740000   0.48431871   -7.6703519    834.03259   0.01466302  0.013231561         1775 
 4741000   0.49132818   -7.6937461    833.29727  0.014647003  0.013227336         1728 
 4742000   0.49578486   -7.6612579    833.23616   0.01464284  0.013223113         1755 
 4743000   0.49930419   -7.6712537    832.49997  0.014626818  0.013218893         1764 
 4744000    0.4960377   -7.6762549    833.37114  0.014639038  0.013214672         1822 
 4745000   0.48515414   -7.6885427    832.52667  0.014621122  0.013210451         1785 
 4746000   0.49678154   -7.6805327    832.79258   0.01462271  0.013206233         1800 
 4747000   0.48181105   -7.6691958    832.27064  0.014610467  0.013202014         1796 
 4748000   0.49375535   -7.6774852     833.6421  0.014631461  0.013197799         1851 
 4749000   0.50412105   -7.6734061    833.85269  0.014632075  0.013193586         1765 
 4750000   0.49536156   -7.6714445    833.23994  0.014618245  0.013189375         1776 
 4751000   0.49906598   -7.6652595    833.39228   0.01461784  0.013185162         1745 
 4752000   0.49109608   -7.6779125    833.60153  0.014618433  0.013180956         1786 
 4753000      0.48604   -7.7013187    833.85295  0.014619766  0.013176747         1850 
 4754000   0.48802823   -7.6738785    832.49645  0.014592912   0.01317254         1763 
 4755000    0.4913282   -7.6859183    834.07469  0.014617502  0.013168341         1793 
 4756000   0.49351264   -7.6762346    832.63945  0.014589281  0.013164136         1819 
 4757000   0.49447533   -7.6793148    831.42676   0.01456497  0.013159932         1753 
 4758000   0.47970157   -7.6881392    832.94466  0.014588494  0.013155729         1806 
 4759000    0.4847753    -7.679565    833.29672  0.014591594   0.01315153         1805 
 4760000    0.4842143    -7.680961    834.51244  0.014609812   0.01314733         1776 
 4761000   0.49277177   -7.6696494    832.09899    0.0145645  0.013143131         1787 
 4762000   0.48839414   -7.6718332    833.03436   0.01457781  0.013138939         1749 
 4763000   0.48693672   -7.6730754    835.30017  0.014614392  0.013134747         1783 
 4764000   0.47900309   -7.6723313     832.5036  0.014562405  0.013130556         1773 
 4765000   0.49492062   -7.6811383    832.41412  0.014557785  0.013126364         1823 
 4766000   0.48959359   -7.6600825    832.67749  0.014559335  0.013122176         1828 
 4767000   0.48455292   -7.6859345    832.23493  0.014548544  0.013117989         1743 
 4768000   0.49733534   -7.6895721    832.84557  0.014556165  0.013113805         1846 
 4769000   0.48271142   -7.6652542    833.56327  0.014565654  0.013109624         1759 
 4770000   0.48353951   -7.6893772    831.96223   0.01453463  0.013105444         1817 
 4771000   0.48690241   -7.6903073    833.26849    0.0145544  0.013101262         1785 
 4772000   0.48663859    -7.674515    833.22831  0.014550648  0.013097084         1756 
 4773000   0.48812361   -7.6812841    833.03419   0.01454421  0.013092906         1739 
 4774000   0.48996793   -7.6808666    833.59582  0.014550967  0.013088728         1787 
 4775000   0.49967716   -7.6670703    832.50958  0.014528963  0.013084556         1776 
 4776000     0.490037   -7.6723224    832.91869  0.014533059  0.013080386         1797 
 4777000   0.49885972   -7.6811188     833.3189  0.014536998  0.013076215         1774 
 4778000   0.48760513   -7.7027629    832.56849  0.014520868  0.013072046         1782 
 4779000   0.48968985   -7.6736442    831.95437  0.014507121  0.013067881         1773 
 4780000   0.48236374   -7.6777345    833.41195  0.014529497  0.013063716         1760 
 4781000   0.47378755   -7.6919887    833.49127  0.014527841  0.013059551         1746 
 4782000   0.49165089   -7.6903217    833.58844  0.014526496   0.01305539         1819 
 4783000   0.48771208   -7.6906178    833.33743  0.014519086  0.013051231         1780 
 4784000   0.49122753    -7.684603    832.64952  0.014504068  0.013047069         1748 
 4785000   0.48622664   -7.6921764    832.41093  0.014496881  0.013042911         1766 
 4786000   0.48352306   -7.7005576    832.80196  0.014500661  0.013038757         1837 
 4787000   0.48899292   -7.6812716    833.72148  0.014513639    0.0130346         1732 
 4788000   0.48555004   -7.6710561        832.8   0.01449457  0.013030447         1804 
 4789000   0.49040274   -7.6832278    832.57883  0.014487694  0.013026297         1809 
 4790000   0.49330779   -7.6814614    832.51034  0.014483479  0.013022147         1761 
 4791000   0.48827253   -7.6713045    832.05165  0.014472477  0.013017999         1793 
 4792000   0.47586399   -7.6872673    833.22545  0.014489869  0.013013851         1792 
 4793000   0.48484846   -7.6775279     834.0999   0.01450205  0.013009706         1822 
 4794000    0.4867454   -7.6827091    832.98885  0.014479712  0.013005561         1793 
 4795000   0.48514238   -7.6917403    832.35095  0.014465606  0.013001418         1794 
 4796000   0.47973669   -7.6707319    832.57152  0.014466422  0.012997279         1784 
 4797000    0.4773251   -7.6973339    831.04941  0.014436964  0.012993141         1776 
 4798000   0.47564063   -7.6898128    832.55837  0.014460163  0.012989003         1841 
 4799000   0.49014059   -7.6759233    832.38941  0.014454216  0.012984866         1800 
 4800000   0.49179441   -7.6905762    833.43622  0.014469379  0.012980731         1728 
 4801000   0.48410171   -7.6793238    832.16017  0.014444216    0.0129766         1793 
 4802000   0.47361255    -7.702692    832.93198  0.014454602  0.012972466         1845 
 4803000    0.4851965   -7.6974021     832.5892  0.014445645  0.012968338         1809 
 4804000   0.48915573   -7.6988729    832.55549  0.014442053  0.012964213         1789 
 4805000   0.48468279   -7.6857713     832.5226  0.014438477  0.012960087         1781 
 4806000   0.48890711   -7.6676644    832.99309  0.014443631  0.012955964         1777 
 4807000    0.4838702   -7.6875054    832.51278    0.0144323  0.012951843         1768 
 4808000   0.48753178   -7.6949688    833.07705  0.014439078  0.012947719         1736 
 4809000   0.47369417    -7.692333    832.83202   0.01443183  0.012943597         1757 
 4810000     0.476973   -7.6859525    832.94645  0.014430812   0.01293948         1753 
 4811000   0.48174692   -7.6873737    831.87726  0.014409292  0.012935361         1784 
 4812000   0.49504769   -7.6782333    832.09352  0.014410043  0.012931244         1767 
 4813000   0.48421279   -7.6855854    832.17036  0.014408379   0.01292713         1799 
 4814000   0.48902926   -7.6824478    832.40456  0.014409441  0.012923016         1758 
 4815000   0.48118292    -7.674226    832.32407  0.014405055  0.012918907         1779 
 4816000   0.47923543   -7.6777357    832.68498  0.014408309  0.012914798         1776 
 4817000   0.48799267    -7.684431    833.26587  0.014415367  0.012910692         1773 
 4818000   0.47184718   -7.6933647    833.49965  0.014416419  0.012906587         1740 
 4819000   0.47973926   -7.6803682    832.75332  0.014400521  0.012902481         1787 
 4820000   0.47368815   -7.6776534    832.59168  0.014394739  0.012898377         1779 
 4821000   0.47760997    -7.678972    833.00717  0.014398935  0.012894276         1785 
 4822000    0.4782916    -7.691067    832.25479  0.014382946  0.012890177         1808 
 4823000   0.48157257   -7.6800097    832.38534   0.01438222  0.012886077         1795 
 4824000   0.48574584   -7.6903497    831.66101  0.014366726  0.012881982         1832 
 4825000    0.4864261    -7.693769    833.16229  0.014389677  0.012877885         1772 
 4826000   0.47926411    -7.665498    832.72548  0.014379153  0.012873791         1742 
 4827000   0.48323041   -7.7040976    832.40658  0.014370668  0.012869701         1794 
 4828000   0.47742047   -7.6857344    831.64585  0.014354561  0.012865612         1786 
 4829000   0.48757509   -7.6817656    832.19416  0.014361051  0.012861523         1834 
 4830000   0.48472831     -7.67972      831.479  0.014345738  0.012857436         1780 
 4831000   0.47660215   -7.6937272    833.80978  0.014382974  0.012853352         1807 
 4832000   0.48542322   -7.6938358    831.39138  0.014338289   0.01284927         1771 
 4833000   0.47806025   -7.6944589    831.43913  0.014336146  0.012845184         1812 
 4834000   0.47387982   -7.7033571    832.72217  0.014355299  0.012841103         1788 
 4835000   0.48006365    -7.714384    832.77709  0.014353276  0.012837021         1788 
 4836000   0.47787146   -7.6985035    830.96571  0.014319095   0.01283294         1806 
 4837000   0.48374444   -7.6879453    831.31369   0.01432213  0.012828863         1801 
 4838000   0.48799923   -7.6892783    832.17515  0.014334008  0.012824788         1795 
 4839000   0.47663089   -7.6937599    833.27684  0.014350018  0.012820718         1792 
 4840000    0.4725915   -7.6846001    831.25499  0.014312241  0.012816647         1826 
 4841000    0.4805297   -7.6957036    832.41235  0.014329208  0.012812578         1809 
 4842000   0.47641164    -7.693041     832.9321  0.014335194  0.012808512         1831 
 4843000   0.47451427   -7.6890632    832.72218  0.014328622  0.012804444         1795 
 4844000   0.48359124   -7.6895574    831.16258  0.014298833  0.012800373         1797 
 4845000   0.46662766   -7.6966708    831.66856  0.014304585  0.012796308         1795 
 4846000   0.47850904   -7.6963017    829.80246  0.014269543  0.012792242         1822 
 4847000   0.47910275   -7.6867194    832.37752  0.014310871  0.012788179         1783 
 4848000   0.47788083    -7.686074    831.44232  0.014291844  0.012784118         1804 
 4849000   0.46901596   -7.7032386    831.85119  0.014295923  0.012780059         1727 
 4850000   0.47597326   -7.7045326    832.11629  0.014297531  0.012776005         1752 
 4851000    0.4804799   -7.6970288    833.08886  0.014311291  0.012771951         1823 
 4852000   0.47401081   -7.6900948    832.23599  0.014293693  0.012767896         1771 
 4853000   0.47972905   -7.6986335     834.0128  0.014321258  0.012763843         1755 
 4854000   0.48107541   -7.6953733    831.61108  0.014277075  0.012759795         1766 
 4855000   0.46834886   -7.6938477    831.40751   0.01427064  0.012755747         1802 
 4856000   0.48136614   -7.7075625    833.72458  0.014307465  0.012751698         1787 
 4857000   0.48537575   -7.7094044    832.60506  0.014285311  0.012747651         1761 
 4858000   0.48206375   -7.7113449    833.48612  0.014297484  0.012743607         1809 
 4859000   0.47575981   -7.6918882    832.66854   0.01428052  0.012739561         1813 
 4860000   0.48205487   -7.6804032     832.3658   0.01427239  0.012735519         1756 
 4861000   0.46778291   -7.7030088    831.00751  0.014246169  0.012731476         1806 
 4862000   0.48332343    -7.691096    832.53412  0.014269404  0.012727438         1751 
 4863000   0.47793996   -7.6949839     831.0224  0.014240565  0.012723402         1800 
 4864000   0.48117548   -7.7082727    830.38784  0.014226765  0.012719365         1789 
 4865000   0.47146649   -7.6965124    831.98935  0.014251274  0.012715331         1755 
 4866000   0.47069527   -7.7026191    830.58401  0.014224278  0.012711302         1813 
 4867000   0.46274206   -7.6893943    832.23305   0.01424959  0.012707271         1805 
 4868000   0.46173613   -7.7075793    832.00626   0.01424278   0.01270324         1850 
 4869000   0.46816017   -7.6935357    831.35991  0.014228793  0.012699211         1759 
 4870000   0.47653993   -7.7091761    832.32404  0.014242369  0.012695182         1798 
 4871000   0.47870118   -7.6903153    831.67811  0.014228394  0.012691155         1809 
 4872000   0.47049631   -7.6929086    832.10076  0.014232703   0.01268713         1838 
 4873000    0.4741022   -7.7047062    832.58266  0.014238023  0.012683105         1844 
 4874000   0.46393147   -7.7087406    832.55786  0.014234678  0.012679083         1792 
 4875000   0.48183803   -7.7051708    832.92695  0.014238068  0.012675064         1783 
 4876000   0.47769225   -7.6976876    832.47032  0.014227343  0.012671046         1745 
 4877000   0.48113873   -7.7031386    832.06221  0.014217453  0.012667032         1829 
 4878000   0.47183048   -7.7184481    831.48444  0.014204668  0.012663016         1868 
 4879000    0.4697599   -7.7106396    832.45058  0.014218258  0.012659005         1809 
 4880000   0.46154128   -7.7053876    831.41219  0.014197613  0.012654992         1831 
 4881000   0.48278047   -7.6953682    831.83443  0.014201913  0.012650986         1884 
 4882000   0.47605734   -7.6959373    831.46508  0.014192699  0.012646977         1808 
 4883000   0.46810367   -7.7142556    831.54199  0.014191105  0.012642971         1736 
 4884000   0.47620428   -7.7090422    831.16389  0.014181748  0.012638967         1778 
 4885000    0.4753274   -7.6794373    830.50779  0.014167653  0.012634961         1807 
 4886000   0.47723481   -7.7278829    832.66115   0.01420148  0.012630961         1831 
 4887000   0.46774823   -7.6930727    830.32343  0.014158711  0.012626964         1812 
 4888000   0.47410605   -7.7135948    831.54996  0.014176725  0.012622967         1752 
 4889000   0.46504994   -7.7099037    832.61599  0.014191996  0.012618974         1782 
 4890000   0.46436651   -7.7052148    831.82463  0.014175607  0.012614978         1822 
 4891000   0.46678575   -7.7028351    830.48247  0.014149841  0.012610987         1786 
 4892000   0.47001768   -7.7241067    832.00891  0.014172951  0.012606997         1833 
 4893000   0.45848274   -7.6942864    832.86604  0.014184652  0.012603007         1836 
 4894000   0.47064799   -7.6982381    830.55549  0.014142411  0.012599017         1808 
 4895000   0.46875913   -7.7104307    830.92836  0.014145869  0.012595032         1758 
 4896000   0.46960048   -7.7096131    831.17929  0.014147251  0.012591046         1792 
 4897000   0.46711513   -7.6992143      832.521  0.014167194  0.012587062         1837 
 4898000    0.4710563   -7.7029721    831.51483  0.014147183  0.012583081         1837 
 4899000   0.46162306   -7.7041112    831.35152  0.014141517    0.0125791         1786 
 4900000   0.46001361   -7.7067158    832.05229  0.014150549  0.012575121         1801 
 4901000   0.47327017   -7.7097385    830.92881  0.014128559  0.012571142         1850 
 4902000   0.46681356   -7.6944491    831.06808  0.014128044  0.012567162         1857 
 4903000   0.47953755   -7.6962135    831.19914   0.01412739  0.012563185         1773 
 4904000    0.4653314   -7.7189519    831.47667  0.014129226  0.012559209         1847 
 4905000   0.45858055   -7.7022571    831.61659  0.014128722  0.012555236         1825 
 4906000   0.46103647   -7.7030636    831.32864  0.014120951  0.012551264         1803 
 4907000   0.46587539   -7.7035229    832.24122  0.014133571  0.012547296         1773 
 4908000   0.47181735   -7.6970658    831.92675  0.014125352  0.012543331         1789 
 4909000   0.46252182   -7.7065123    831.83823  0.014120972  0.012539367         1801 
 4910000   0.46796177   -7.6970551    832.08472   0.01412228  0.012535404         1849 
 4911000   0.46217951   -7.7100878    832.11647  0.014119943  0.012531439         1843 
 4912000   0.46978491    -7.709746    831.83129   0.01411223  0.012527479         1833 
 4913000   0.46249131   -7.7178514    832.65942  0.014123404  0.012523518         1859 
 4914000   0.46768483    -7.712189    832.42245  0.014116512   0.01251956         1798 
 4915000    0.4595432   -7.7208957    831.21745  0.014093209  0.012515604         1863 
 4916000   0.45515803   -7.7130846    831.35875  0.014092737   0.01251165         1836 
 4917000   0.46157114   -7.7139707     832.1756  0.014103715  0.012507696         1800 
 4918000   0.46479326   -7.7161239     831.8213  0.014094844  0.012503741         1833 
 4919000   0.46872063   -7.7226091    831.53824  0.014087183  0.012499789         1757 
 4920000   0.46301861   -7.7207347    832.54998  0.014101456  0.012495841         1802 
 4921000   0.45789821   -7.7121795    830.67935  0.014066913  0.012491888         1825 
 4922000   0.46826162   -7.7124143    831.17313  0.014072415  0.012487942         1789 
 4923000   0.46094869   -7.7071799    831.55304  0.014075988  0.012483995         1861 
 4924000   0.46021758   -7.7120039    832.16718  0.014083523  0.012480051         1830 
 4925000   0.46540208   -7.7170263    831.39251  0.014067555  0.012476111         1835 
 4926000   0.46289055   -7.6999675    832.08944  0.014076489  0.012472168         1802 
 4927000   0.46631707   -7.7034061    831.93149  0.014070961  0.012468229         1823 
 4928000   0.46370056   -7.7043514    832.04359  0.014070001  0.012464293         1837 
 4929000   0.46350042   -7.7200045    832.41048  0.014073349  0.012460354         1841 
 4930000    0.4568123   -7.7182827    831.49104  0.014054953  0.012456418         1796 
 4931000   0.45698973   -7.7164885     830.9471  0.014042911  0.012452485         1835 
 4932000   0.47122001   -7.7200642    831.67978  0.014052443  0.012448551         1836 
 4933000   0.46554505   -7.7136463    830.06971  0.014022395  0.012444619         1836 
 4934000   0.46665871   -7.7111934    830.92021  0.014033918  0.012440689         1829 
 4935000   0.45827235   -7.7246207    832.77868  0.014062457  0.012436757         1786 
 4936000   0.46204272   -7.7121601    832.17215  0.014049368  0.012432833         1804 
 4937000   0.46986609   -7.7200739    831.64626  0.014037645  0.012428912         1837 
 4938000   0.46686692   -7.7313086    831.28133  0.014028644  0.012424991         1795 
 4939000   0.45621788   -7.7142515    831.76793  0.014034014  0.012421071         1795 
 4940000   0.46694352   -7.7050432     830.2508   0.01400558  0.012417149         1811 
 4941000   0.47881411   -7.7120491    830.87069  0.014013201  0.012413232         1858 
 4942000   0.45897482   -7.7213459    831.90624  0.014027827  0.012409315         1750 
 4943000   0.45812438   -7.7233707    832.71954    0.0140387  0.012405402         1837 
 4944000   0.46425723   -7.7167766    830.29338  0.013994967  0.012401485         1826 
 4945000   0.45291916    -7.719703     830.8791  0.014002007  0.012397572         1800 
 4946000   0.46379504   -7.7058509    830.93821  0.014000172  0.012393661         1792 
 4947000   0.45817027   -7.7216141    831.17697  0.014001364  0.012389754         1817 
 4948000   0.46421458   -7.7138035    831.41477  0.014002539  0.012385846         1825 
 4949000   0.45814028   -7.7155594    831.74911   0.01400534  0.012381941         1816 
 4950000   0.47476943   -7.7185716    831.70818  0.014001821  0.012378035         1781 
 4951000   0.45289116   -7.7045029    831.36878   0.01399328  0.012374135         1799 
 4952000   0.45934479   -7.7265774    831.43326   0.01399154  0.012370236         1802 
 4953000   0.45470766    -7.730813    831.99583   0.01399818  0.012366337         1805 
 4954000    0.4531139    -7.723077    830.42688  0.013968963  0.012362438         1839 
 4955000   0.45732537   -7.7062409    830.72567  0.013971168  0.012358537         1758 
 4956000   0.45345678   -7.7178035    830.16146  0.013958862  0.012354639         1816 
 4957000   0.46180036   -7.7250653    831.25252  0.013974388  0.012350742         1849 
 4958000   0.45994977   -7.7181075    830.36979  0.013956733  0.012346849         1817 
 4959000   0.46254193   -7.7270664    831.42252  0.013971609  0.012342956         1831 
 4960000    0.4496375   -7.7133308    830.43132  0.013952139  0.012339066         1810 
 4961000   0.46812141   -7.7177369    831.25628  0.013963184  0.012335178         1860 
 4962000   0.44937315   -7.7144943    829.93938  0.013938254  0.012331293         1866 
 4963000   0.45154951   -7.7250774     830.9436  0.013952307  0.012327405         1826 
 4964000   0.45576908   -7.7197601    831.66982  0.013961688  0.012323519         1811 
 4965000   0.45713505   -7.7187764    830.63461  0.013941501  0.012319637         1855 
 4966000   0.46157763   -7.7214102    829.44955  0.013918807  0.012315757         1854 
 4967000    0.4615612     -7.70452    830.57527  0.013934892  0.012311877         1876 
 4968000   0.46938108   -7.7067203    831.91431  0.013954548     0.012308         1775 
 4969000   0.45786245   -7.7263649    831.95389  0.013952403  0.012304126         1835 
 4970000   0.45528844   -7.7309756    830.26008  0.013921195  0.012300251         1834 
 4971000   0.44040284   -7.7279328     830.9147  0.013929369  0.012296377         1806 
 4972000   0.44315754   -7.7264359    831.03486  0.013928581  0.012292505         1821 
 4973000   0.45743843   -7.7143099    832.16131  0.013944656  0.012288635         1804 
 4974000   0.45987341   -7.7183693     830.6577  0.013916662  0.012284768         1837 
 4975000   0.46727862    -7.726382    829.78149  0.013899187  0.012280903         1837 
 4976000   0.46423904   -7.7291605    831.56082  0.013926193  0.012277039         1840 
 4977000   0.45933149   -7.7364078    831.77342  0.013926954  0.012273173         1811 
 4978000   0.45541722    -7.720731     830.3224  0.013899866  0.012269312         1846 
 4979000     0.454708   -7.7247107    830.61988  0.013902053  0.012265453         1834 
 4980000   0.45762671   -7.7172341    831.10787  0.013907427  0.012261594         1791 
 4981000   0.44928147   -7.7233885    830.57027  0.013895641  0.012257739         1838 
 4982000   0.45563658   -7.7190356    829.57762  0.013876248  0.012253883         1834 
 4983000    0.4699318   -7.7357607    831.31562  0.013902529  0.012250029         1763 
 4984000   0.44633151   -7.7273661    831.32944  0.013899971  0.012246175         1804 
 4985000    0.4616047   -7.7231066    830.71417  0.013886897  0.012242322         1810 
 4986000   0.44925626   -7.7326744    831.10785  0.013890691  0.012238472         1779 
 4987000   0.46244278    -7.723663    830.29382  0.013874304  0.012234624         1825 
 4988000   0.45504379   -7.7189503    829.57565  0.013859524  0.012230776         1764 
 4989000   0.45182165   -7.7201417    830.00125  0.013863855   0.01222693         1776 
 4990000   0.46334456   -7.7313668    830.30771  0.013866194  0.012223085         1835 
 4991000   0.45745298   -7.7107501    830.63284  0.013868845  0.012219243         1798 
 4992000   0.44779614    -7.744594    831.79246  0.013885424  0.012215402         1810 
 4993000    0.4526368   -7.7264525    830.62541  0.013863165  0.012211556         1754 
 4994000   0.45384337   -7.7283881      830.025   0.01385037  0.012207718         1772 
 4995000   0.44414805    -7.735079     830.8523    0.0138614  0.012203877         1845 
 4996000   0.46841018   -7.7307824    830.46304  0.013852132  0.012200044         1801 
 4997000    0.4592103    -7.715743      830.821   0.01385533  0.012196211         1799 
 4998000   0.44599751   -7.7304768    830.79513  0.013852126  0.012192379         1792 
 4999000   0.45340467   -7.7266113    829.68661  0.013830876  0.012188551         1827 
 5000000    0.4510613   -7.7289374    830.72968  0.013845495  0.012184723         1812 
 5001000     0.448809   -7.7200704    830.30332  0.013835622  0.012180894         1806 
 5002000   0.45396614   -7.7448742    831.09656  0.013846071  0.012177066         1823 
 5003000   0.44979379   -7.7262402    830.72493  0.013837113  0.012173245         1827 
 5004000   0.45720968   -7.7233689    831.17774  0.013841889  0.012169421         1827 
 5005000   0.44661654   -7.7482608    830.15176  0.013822041  0.012165597         1833 
 5006000   0.47156808    -7.723475    830.36963  0.013822906  0.012161779         1819 
 5007000   0.45326792   -7.7345645    831.02515  0.013831056  0.012157961         1877 
 5008000   0.44571413   -7.7394138    830.84011  0.013825215  0.012154146         1813 
 5009000   0.44137152   -7.7289071    830.66197  0.013819491  0.012150327         1793 
 5010000   0.45956712   -7.7265127     830.9788  0.013822003  0.012146516         1816 
 5011000   0.44514585   -7.7251688    830.03697  0.013803582  0.012142703         1801 
 5012000   0.45372678   -7.7160494     830.1725  0.013803081  0.012138891         1848 
Loop time of 10828.1 on 48 procs for 5000000 steps with 4000 atoms

Performance: 79792.533 tau/day, 461.762 timesteps/s
99.4% CPU use with 48 MPI tasks x no OpenMP threads

MPI task timing breakdown:
Section |  min time  |  avg time  |  max time  |%varavg| %total
---------------------------------------------------------------
Pair    | 747.77     | 776.97     | 807.47     |  49.1 |  7.18
Neigh   | 66.842     | 68.154     | 68.999     |   6.5 |  0.63
Comm    | 582.65     | 623.05     | 649.65     |  66.4 |  5.75
Output  | 14.792     | 14.796     | 14.879     |   0.3 |  0.14
Modify  | 9144.5     | 9218.1     | 9260.5     |  29.4 | 85.13
Other   |            | 127        |            |       |  1.17

Nlocal:        83.3333 ave          94 max          75 min
Histogram: 1 3 6 11 10 8 5 3 0 1
Nghost:        1793.35 ave        1817 max        1765 min
Histogram: 2 1 1 6 9 12 4 7 1 5
Neighs:        10964.5 ave       12488 max        9293 min
Histogram: 1 2 3 8 7 11 7 6 1 2
FullNghs:      21928.5 ave       25169 max       19554 min
Histogram: 1 4 9 12 4 9 5 3 0 1

Total # of neighbors = 1052570
Ave neighs/atom = 263.14250
Neighbor list builds = 269572
Dangerous builds = 2

#clear
#
#next RN
#
#jump SELF
Total wall time: 3:00:30
