
units lj                  # Use reduced LJ style units
atom_style atomic         # Uncharged point particles
atom_modify map hash      # Needed for indexing of clusters etc
                          # Used to be able to find where atoms are in relation to each other.

lattice fcc 1.0 spacing 1 1 1
Lattice spacing in x,y,z = 1.5874011 1.5874011 1.5874011
region box block 0 10 0 10 0 10 units lattice
create_box 2 box
Created orthogonal box = (0.0000000 0.0000000 0.0000000) to (15.874011 15.874011 15.874011)
  3 by 4 by 4 MPI processor grid
create_atoms 1 box
Created 4000 atoms
  using lattice units in orthogonal box = (0.0000000 0.0000000 0.0000000) to (15.874011 15.874011 15.874011)
  create_atoms CPU = 0.003 seconds
set type 1 type/fraction 2 0.58 78393
Setting atom values ...
  2338 settings made for type/fraction
mass 1 1.0
mass 2 1.0
pair_style lj/cut  3.5
pair_modify tail  yes
pair_coeff 1  1  1.0  1.0   # Intearaction between 1 and 1 set with epsilon = 1 and sigma = 1
pair_coeff 1  2  1.5  0.8
pair_coeff 2  2  0.5  0.88

write_data data.0
System init for write_data ...
Neighbor list info ...
  update every 1 steps, delay 10 steps, check yes
  max neighbors/atom: 2000, page size: 100000
  master list distance cutoff = 3.8
  ghost atom cutoff = 3.8
  binsize = 1.9, bins = 9 9 9
  1 neighbor lists, perpetual/occasional/extra = 1 0 0
  (1) pair lj/cut, perpetual
      attributes: half, newton on
      pair build: half/bin/atomonly/newton
      stencil: half/bin/3d
      bin: standard
WARNING: Not all mixed pair coeffs generated from mixing. Use write_data with 'pair ij' option to store all pair coeffs. (../write_data.cpp:312)


#############################
#   M E L T   S Y S T E M   #
#############################

velocity all create 2.4 6229865 mom yes dist gaussian # Assign velocities
                                                    # Temperature 2.4, random number seed, zero linear momentum
                                                                                # Gaussian distribution

timestep 0.002   # simulation timestep
thermo 1000       # output thermodynamic data every 1000 steps bf 100

# Define a fix  in this case with index 1 applied to all
# particles in the simulation. This fix is for simulations
# in the anisotropic NPT ensemble. Note that we use the MTK
# correction.
fix 1 all npt temp 2.4 2.4 0.1 iso 5.68 5.68 0.5 mtk yes tchain 5 pchain 5 # Use NPT ensemble
                                                                         # Set temperature and pressure and damping
                                                                         # Numbers of thermostats in chain and in barostat
run 10000          # run for 10000 steps
Per MPI rank memory allocation (min/avg/max) = 3.642 | 3.644 | 3.648 Mbytes
Step Temp E_pair E_mol TotEng Press Volume 
       0          2.4   -4.8268882            0   -1.2277882   -4.1002737         4000 
    1000    2.3849156   -4.6034726            0   -1.0269936    5.5341998     3606.497 
    2000    2.4374473   -4.5347655            0   -0.8795086    5.8529144    3628.6908 
    3000    2.4185336   -4.6499337            0   -1.0230402    5.4256741    3594.3603 
    4000    2.3908666   -4.5354921            0  -0.95008873    5.5988175    3647.6373 
    5000    2.3976763   -4.5409165            0  -0.94530111    5.7985705    3620.8536 
    6000     2.395437   -4.6071547            0   -1.0148976    5.5804378    3608.8638 
    7000    2.4116597   -4.4998717            0  -0.88328655    6.0738891    3620.5914 
    8000     2.426433   -4.5835741            0  -0.94483454    5.3547926    3631.6608 
    9000    2.3710336   -4.5421458            0  -0.98648457    5.5234982    3640.3822 
   10000    2.4013846   -4.5620583            0   -0.9608819    5.5948955     3625.295 
Loop time of 2.66219 on 48 procs for 10000 steps with 4000 atoms

Performance: 649090.529 tau/day, 3756.311 timesteps/s
99.6% CPU use with 48 MPI tasks x no OpenMP threads

MPI task timing breakdown:
Section |  min time  |  avg time  |  max time  |%varavg| %total
---------------------------------------------------------------
Pair    | 1.2054     | 1.2761     | 1.3332     |   2.1 | 47.93
Neigh   | 0.21927    | 0.22587    | 0.24307    |   0.8 |  8.48
Comm    | 0.79864    | 0.89373    | 0.97038    |   3.1 | 33.57
Output  | 0.00025494 | 0.00025947 | 0.00032887 |   0.0 |  0.01
Modify  | 0.22362    | 0.25035    | 0.29253    |   3.5 |  9.40
Other   |            | 0.01592    |            |       |  0.60

Nlocal:        83.3333 ave          92 max          73 min
Histogram: 1 3 2 7 2 15 6 8 2 2
Nghost:        1749.83 ave        1778 max        1729 min
Histogram: 2 5 9 7 11 5 2 5 1 1
Neighs:        10535.6 ave       11912 max        8989 min
Histogram: 2 3 3 4 3 15 9 6 1 2

Total # of neighbors = 505708
Ave neighs/atom = 126.42700
Neighbor list builds = 903
Dangerous builds = 184

# Equilibrate just above the melting temperature to avoid step fn in T

fix 1 all npt temp 1.25 1.25 0.1 iso 5.68 5.68 0.5 mtk yes tchain 5 pchain 5
run 2000
Per MPI rank memory allocation (min/avg/max) = 3.644 | 3.646 | 3.650 Mbytes
Step Temp E_pair E_mol TotEng Press Volume 
   10000    2.4013846   -4.5620583            0   -0.9608819    5.5948955     3625.295 
   11000    1.2367893   -6.6341066            0   -4.7793865    5.6439308    2790.8949 
   12000    1.2526701   -6.6915479            0   -4.8130126    5.3489706    2784.8759 
Loop time of 0.666394 on 48 procs for 2000 steps with 4000 atoms

Performance: 518612.117 tau/day, 3001.228 timesteps/s
99.6% CPU use with 48 MPI tasks x no OpenMP threads

MPI task timing breakdown:
Section |  min time  |  avg time  |  max time  |%varavg| %total
---------------------------------------------------------------
Pair    | 0.29033    | 0.32754    | 0.35637    |   2.4 | 49.15
Neigh   | 0.04155    | 0.044553   | 0.047661   |   0.7 |  6.69
Comm    | 0.21318    | 0.24337    | 0.28619    |   3.3 | 36.52
Output  | 5.4776e-05 | 5.6394e-05 | 7.2539e-05 |   0.0 |  0.01
Modify  | 0.041594   | 0.045853   | 0.049619   |   1.1 |  6.88
Other   |            | 0.005023   |            |       |  0.75

Nlocal:        83.3333 ave          91 max          77 min
Histogram: 1 2 9 9 5 14 3 2 1 2
Nghost:        2095.79 ave        2112 max        2080 min
Histogram: 2 2 5 6 8 9 9 3 3 1
Neighs:        13721.8 ave       15623 max       12235 min
Histogram: 1 6 6 8 7 11 6 0 2 1

Total # of neighbors = 658647
Ave neighs/atom = 164.66175
Neighbor list builds = 143
Dangerous builds = 12

#############################
# L I N E A R  Q U E N C H  #
#############################

# Define solid atoms. This closely follows ten Wolde  Ruiz-Montero and Frenkel  Faraday Discuss  1996  104  93-110
# Compute components of the per-atom q6 vector
compute q6 all orientorder/atom degrees 1 6 components 6 nnn NULL cutoff 1.3 # compute the Q6 parameter.
                                                                             # Use all neighbours within 1.3 unit cell.

# get number of connections
compute coord_number all coord/atom orientorder q6 0.5

# An atom is solid if it has 8 or more connections (of a possible 14)
variable is_solid atom c_coord_number>=8
group solid dynamic all var is_solid    # Must be dynamic to update
dynamic group solid defined

# do clustering
compute cluster solid cluster/atom 1.3 # Create a cluster where all atoms within are solid and max 1.3 units from another member

# define chunks one chunk per cluster
compute clus_chunks solid chunk/atom c_cluster nchunk every compress yes  # Says which atoms are in which chunk

# count the size of each chunk
compute size_chunks solid property/chunk clus_chunks count


# Find the maximum entry in the vector of chunk sizes
variable max_n equal max(c_size_chunks)


# Thermo style which includes this variable
# thermo_style custom step temp pe vol v_max_n

thermo ${N}  # Print the thermo information every 100 steps
thermo 1000  

# Reset the npt fix at a lower temperature (below freezing)
fix 1  all npt temp  ${temp} ${temp}  0.1  iso  5.68  5.68  0.5  mtk yes tchain  5  pchain  5
fix 1  all npt temp  0.45 ${temp}  0.1  iso  5.68  5.68  0.5  mtk yes tchain  5  pchain  5
fix 1  all npt temp  0.45 0.45  0.1  iso  5.68  5.68  0.5  mtk yes tchain  5  pchain  5

dump dmp2 all dcd ${N} traj.dcd
dump dmp2 all dcd 1000 traj.dcd


compute msd all msd com yes
variable twopoint equal c_msd[4]/6/(step*dt+1.0e-6)
fix 9 all vector 10 c_msd[4]
variable fit equal slope(f_9)/6/(10*dt)
thermo_style custom step temp pe c_msd[4] v_twopoint v_fit v_max_n

fix 1 all npt temp 1.25 ${temp} 0.1 iso 5.68 5.68 0.5 mtk yes tchain 5 pchain 5
fix 1 all npt temp 1.25 0.45 0.1 iso 5.68 5.68 0.5 mtk yes tchain 5 pchain 5
run 5000000 # 5000000  # Run for this many steps
Neighbor list info ...
  update every 1 steps, delay 10 steps, check yes
  max neighbors/atom: 2000, page size: 100000
  master list distance cutoff = 3.8
  ghost atom cutoff = 3.8
  binsize = 1.9, bins = 8 8 8
  4 neighbor lists, perpetual/occasional/extra = 1 3 0
  (1) pair lj/cut, perpetual
      attributes: half, newton on
      pair build: half/bin/atomonly/newton
      stencil: half/bin/3d
      bin: standard
  (2) compute orientorder/atom, occasional
      attributes: full, newton on
      pair build: full/bin/atomonly
      stencil: full/bin/3d
      bin: standard
  (3) compute coord/atom, occasional
      attributes: full, newton on
      pair build: full/bin/atomonly
      stencil: full/bin/3d
      bin: standard
  (4) compute cluster/atom, occasional
      attributes: full, newton on
      pair build: full/bin/atomonly
      stencil: full/bin/3d
      bin: standard
Per MPI rank memory allocation (min/avg/max) = 9.845 | 9.849 | 9.852 Mbytes
Step Temp PotEng c_msd[4] v_twopoint v_fit v_max_n 
   12000    1.2526701   -6.6915479 8.3915079e-31 5.8274358e-33 8.3333333e+20            2 
   13000    1.2215395   -6.7466452   0.47722992  0.003059166  0.039136039            2 
   14000    1.2555935   -6.7416485   0.93043324 0.0055382929  0.037747926            2 
   15000    1.2572244   -6.7742341    1.3926882 0.0077371565   0.03785133            2 
   16000    1.2629318    -6.778822    1.8149412 0.0094528185  0.037505834            2 
   17000    1.2469555   -6.7601873    2.2276291   0.01091975  0.037030965            4 
   18000    1.2381196   -6.7271687    2.6002327  0.012038114  0.036246977            3 
   19000    1.2638252   -6.6937888    3.0190622    0.0132415  0.035670929            2 
   20000    1.2748116   -6.7722605    3.4252082  0.014271701  0.035323615            2 
   21000    1.2481278   -6.7803144    3.7918447  0.015047002  0.034971289            2 
   22000    1.2536393    -6.773214    4.1882933  0.015864747    0.0345708            4 
   23000    1.2325277   -6.7664526    4.6514371  0.016853033    0.0343278            2 
   24000    1.2471837   -6.7609606     5.058938  0.017565757  0.034342888            2 
   25000    1.2287016   -6.8101024    5.5029273  0.018343091  0.034348959            4 
   26000    1.2560106   -6.7864928    5.9110382  0.018945635  0.034339725            2 
   27000    1.2845873   -6.7806445    6.2335114  0.019239232  0.034238605            3 
   28000    1.2264965   -6.7844611    6.6387497  0.019758183  0.034138871            5 
   29000     1.254983   -6.7377708    7.1437136  0.020527912  0.034168006            5 
   30000    1.2382226   -6.7690148    7.5785267  0.021051463  0.034243974            1 
   31000    1.2397448   -6.7683537    7.9340124   0.02132799  0.034324432            2 
   32000     1.264045   -6.7792885    8.3537335  0.021754514   0.03434571            3 
   33000    1.2524096   -6.7674471    8.7524121   0.02210205   0.03435776            3 
   34000    1.2367999   -6.8248442    9.0647644  0.022217559  0.034285913            5 
   35000    1.2459557    -6.771562     9.583385  0.022817583  0.034225989            4 
   36000    1.2336407   -6.8273966    10.053925  0.023272975  0.034267932            2 
   37000    1.2477853    -6.707281    10.564069  0.023792947  0.034341966            2 
   38000    1.2053809   -6.7810234    11.115086  0.024375188  0.034502076            2 
   39000    1.2350431   -6.7655152    11.447764  0.024461033  0.034655701            1 
   40000    1.2370088   -6.7657755    11.890461  0.024771792   0.03472594            2 
   41000    1.2479749    -6.773655    12.388131  0.025179128  0.034816357            2 
   42000      1.27253   -6.8158318    12.749671  0.025296966  0.034929442            4 
   43000    1.2425103   -6.8320057    13.221032  0.025622155  0.035017398            3 
   44000    1.2499602   -6.7563104    13.692404  0.025932583   0.03511108            2 
   45000    1.2483005    -6.804481    14.175056  0.026250103  0.035181963            3 
   46000    1.2459423   -6.7549226     14.59548  0.026441086  0.035275043            3 
   47000    1.2459818   -6.7363774    15.078235  0.026734459  0.035342464            1 
   48000    1.2771199   -6.7483762     15.47862  0.026872603  0.035433913            1 
   49000    1.2428723   -6.7518733    15.752173   0.02678941   0.03546781            5 
   50000    1.2369751   -6.7316849    16.104808  0.026841346  0.035456268            2 
   51000     1.229218   -6.8003025    16.394664  0.026788666  0.035424328            6 
   52000    1.2725567   -6.7544125     16.88534   0.02705984  0.035389504            5 
   53000    1.2383978   -6.7733248    17.355698  0.027288833  0.035365999            3 
   54000    1.2723389   -6.7391525    17.903944  0.027629543  0.035365451            3 
   55000     1.248488   -6.7762185    18.312277  0.027745874  0.035376946            1 
   56000    1.2361361   -6.7581711    18.709941  0.027842174  0.035372926            1 
   57000    1.2319272   -6.8023497    19.047501  0.027847224  0.035364096            2 
   58000    1.2347899   -6.7623332    19.500738  0.028018302  0.035353443            2 
   59000    1.2295905   -6.7516149    20.002015  0.028251433  0.035371583            9 
   60000    1.2558722   -6.7647779    20.428648  0.028373122  0.035379554            3 
   61000    1.2259923   -6.7820845    20.853443   0.02848831  0.035396232            4 
   62000    1.2594523   -6.7442189    21.264887  0.028581837  0.035396242            2 
   63000    1.2350552   -6.7713197    21.709813  0.028716684  0.035406544            2 
   64000    1.2572395   -6.7649102    22.034643  0.028690941  0.035415879            1 
   65000    1.2443403   -6.7570792    22.515923  0.028866568  0.035412195            2 
   66000    1.2508264   -6.7446893     22.87329  0.028880416  0.035407768            2 
   67000     1.231345   -6.8285654    23.200197  0.028855967  0.035386379            2 
   68000    1.2606272   -6.7819398    23.777201  0.029138726  0.035368535            3 
   69000    1.2365888   -6.7641002     24.41472  0.029486377  0.035376401            3 
   70000    1.2405576   -6.8014328    24.830932  0.029560633  0.035407702            1 
   71000    1.2574684   -6.7837025    25.149998  0.029518777  0.035438323            2 
   72000    1.2475671     -6.77369    25.531478  0.029550322  0.035444767            1 
   73000    1.2546704   -6.7546426    25.787082  0.029437308  0.035437242            3 
   74000      1.26724    -6.776078    26.094699  0.029385922  0.035416928            2 
   75000    1.2458726   -6.8088097    26.501043  0.029445603  0.035391008            2 
   76000    1.2340439   -6.7991269    26.852358  0.029443374   0.03535374            2 
   77000    1.2344017   -6.7876046    27.304073  0.029549862  0.035316875            2 
   78000    1.2467096   -6.7645506    27.813514  0.029715292  0.035296853            3 
   79000    1.2225078   -6.7931334    28.241201  0.029790296  0.035279775            2 
   80000    1.2486232   -6.8340406    28.520562  0.029708919  0.035260596            2 
   81000    1.2201576   -6.8216311    28.898868  0.029731346  0.035239336            2 
   82000    1.2353435   -6.7882053    29.471817  0.029951033  0.035229624            4 
   83000    1.2590225   -6.7930716    30.002779  0.030123272  0.035219465            1 
   84000    1.2295854   -6.7666056    30.358794  0.030117851  0.035204123            4 
   85000     1.241732   -6.8148995     30.66931  0.030067951  0.035188553            3 
   86000    1.2276077   -6.8059389     31.05609  0.030093111  0.035167026            3 
   87000    1.2572483    -6.759452    31.494983  0.030167608  0.035149378            2 
   88000    1.2355048   -6.8110031    31.902073  0.030210296  0.035126315            2 
   89000    1.2306834   -6.7990187    32.277212  0.030222109  0.035102329            2 
   90000    1.2247838   -6.8399996    32.769174  0.030341827  0.035094606            2 
   91000    1.2207738   -6.8215484    33.219276  0.030420582   0.03508713            1 
   92000    1.2155904    -6.802529    33.524717  0.030366591  0.035072637            1 
   93000    1.2367782   -6.7868258    34.013863  0.030478372  0.035054459            2 
   94000    1.2517967    -6.805682     34.26989  0.030381108  0.035038755            3 
   95000     1.246034   -6.7898311    34.886209  0.030601937  0.035026671            2 
   96000    1.2142995   -6.7815127    35.204524  0.030559483  0.035014131            2 
   97000    1.2232513   -6.7777474    35.546399  0.030538143   0.03499631            2 
   98000      1.26725   -6.8088187    35.843187    0.0304789  0.034977027            3 
   99000    1.2252665     -6.83856     36.22863   0.03049548  0.034961114            3 
  100000    1.2424425   -6.7470793    36.844871  0.030704059  0.034944644            3 
  101000    1.2386864   -6.7619196     37.34687  0.030814249  0.034933927            2 
  102000    1.2274434   -6.8296801    37.568535  0.030693248  0.034920699            2 
  103000    1.2473759   -6.8044291    38.036672  0.030774007  0.034910187            3 
  104000    1.2413031   -6.7626426    38.824077  0.031109036  0.034910985            1 
  105000    1.2358347    -6.821211    39.080974  0.031016646  0.034920751            4 
  106000    1.2473606   -6.8109948    39.738896  0.031241271  0.034927746            4 
  107000    1.2033918   -6.8318723    40.133231  0.031256411  0.034941467            2 
  108000    1.2220881   -6.7656322    40.912597  0.031568362  0.034957638            3 
  109000    1.2364485   -6.8094052     41.14458    0.0314561  0.034977914            4 
  110000    1.2075652   -6.7768552    41.602978  0.031517408  0.034994142            2 
  111000    1.2150202   -6.8035986    41.920731   0.03147202  0.035008683            3 
  112000    1.2466619   -6.7644764    42.426981  0.031567694  0.035022323            2 
  113000    1.2238966   -6.8428783    42.979782  0.031696004  0.035038059            2 
  114000    1.2339174   -6.7998422    43.279727  0.031637227  0.035055457            3 
  115000    1.2284541   -6.7640339     43.85655  0.031780108  0.035068815            7 
  116000    1.2272596   -6.7992301    44.249754  0.031788616  0.035087569            2 
  117000    1.2058261   -6.8012288    44.757342  0.031878449  0.035109145            2 
  118000    1.2207837    -6.777392     45.23415  0.031945021  0.035125381            2 
  119000    1.2429187   -6.8461432    45.400066  0.031792763  0.035142089            4 
  120000    1.2419099   -6.8079272    46.156209  0.032052923  0.035159444            2 
  121000    1.2277244   -6.8201512    46.599243  0.032093143  0.035178135            5 
  122000    1.2187125    -6.798025    47.185598    0.0322306  0.035203493            1 
  123000    1.2206278   -6.8001238    47.638244  0.032275233  0.035230589            3 
  124000    1.2330658   -6.7939711    47.907726  0.032196052  0.035256102            3 
  125000    1.2201278   -6.7761896    48.290654  0.032193769  0.035272572            1 
  126000    1.2231768   -6.7936101    48.713253  0.032217759  0.035286678            2 
  127000    1.2254084   -6.7730935    48.934058  0.032108962    0.0352972            2 
  128000    1.2353592   -6.7681876    49.356257  0.032132979  0.035307176            2 
  129000    1.2270117   -6.7796594    49.716607  0.032116671  0.035312155            1 
  130000    1.2331969   -6.8144517    50.162642  0.032155539  0.035312614            3 
  131000    1.2417063    -6.820106    50.509698  0.032130851  0.035316193            4 
  132000    1.2197553   -6.8295894    51.129742  0.032278877  0.035324329            2 
  133000    1.2232084   -6.8528839    51.541608   0.03229424   0.03533352            1 
  134000    1.2444063   -6.7889249    52.109145  0.032406185  0.035347829            3 
  135000    1.2271768   -6.7912742    52.600392  0.032469378  0.035362164            2 
  136000    1.2101288   -6.8514437    52.854971  0.032386624  0.035373434            3 
  137000    1.2151603    -6.850758    53.699318  0.032663818  0.035388426            2 
  138000    1.2263853   -6.8113906    53.958564  0.032583674  0.035407953            2 
  139000    1.2280675    -6.776088    54.806939  0.032857877  0.035429727            2 
  140000    1.2198311   -6.8000372    54.997793  0.032736781  0.035448212            1 
  141000    1.2373207   -6.8180505    55.204134  0.032626556  0.035466235            9 
  142000    1.2227981   -6.8157479     55.73704   0.03270953  0.035481125            4 
  143000    1.2432093   -6.8596567    55.907507  0.032580132  0.035495636            5 
  144000    1.2025888   -6.8396454    56.372124  0.032622757  0.035504593            2 
  145000    1.2241526   -6.8707766    56.559186  0.032505279  0.035513615            5 
  146000    1.2466675   -6.8604687    57.216349  0.032657733  0.035520663            1 
  147000    1.2537592   -6.8190363    57.614797   0.03266145  0.035524784            1 
  148000    1.2511491   -6.7873696    58.328452  0.032842597  0.035532049            4 
  149000    1.2385829   -6.7965621    58.729314  0.032846372  0.035538518            5 
  150000    1.2473316   -6.8283302     58.92236  0.032734645  0.035548288            2 
  151000    1.2280001   -6.7995569     59.16755  0.032653173  0.035552803            1 
  152000    1.2250611   -6.8332396    59.659934  0.032708297  0.035556263            3 
  153000     1.248385    -6.820046    59.995764  0.032677431  0.035556951            2 
  154000    1.2354705   -6.8376421     60.40625  0.032687365  0.035551835            1 
  155000    1.2460793   -6.8241676     60.52235  0.032538898  0.035547877            1 
  156000    1.2201306   -6.8585185    61.018881  0.032595556  0.035542896            6 
  157000    1.2207678   -6.8164303     61.62663  0.032710525   0.03554044            2 
  158000    1.2045843   -6.7799416    62.251384  0.032833008  0.035537647            2 
  159000     1.213105   -6.8304048     62.57273  0.032794932  0.035533828            2 
  160000    1.2075986   -6.7744905    62.841503  0.032729949  0.035528313            2 
  161000    1.2351129   -6.7899532    63.142566  0.032682487  0.035524475            7 
  162000    1.2287688    -6.796056    63.912813  0.032876961  0.035518248            3 
  163000     1.223063    -6.832888    63.870273  0.032653514  0.035511386            1 
  164000    1.2136268   -6.8628159    64.013236  0.032527051  0.035502941            5 
  165000    1.2448116   -6.8319352    64.618687    0.0326357  0.035492742            4 
  166000     1.234906   -6.7896286    65.371359  0.032816947  0.035484941            2 
  167000    1.2090908   -6.8405637    65.162135  0.032516035  0.035474878            3 
  168000    1.1795135   -6.8488536    65.836304  0.032656897  0.035465037            3 
  169000    1.2312185   -6.8085404    66.179092  0.032632688  0.035455892            3 
  170000    1.2334038   -6.8087662    66.458286  0.032577591   0.03544663            6 
  171000    1.2136088   -6.8789426    66.806067  0.032556563  0.035435145            5 
  172000    1.2178393   -6.7814652    67.818433  0.032857768  0.035424639            3 
  173000    1.2296421   -6.8754224    67.674977  0.032598736  0.035414428            4 
  174000    1.2442388   -6.8240967    68.538362  0.032824886  0.035407621            2 
  175000    1.2342029   -6.7887805    68.967061  0.032841457  0.035401345            2 
  176000    1.2410524   -6.8973913    68.966815  0.032654742  0.035395435            4 
  177000    1.2088332   -6.8660211    69.562121  0.032750528  0.035385572            3 
  178000    1.1961169   -6.8564726    69.827344  0.032690704  0.035375049            2 
  179000    1.2384576   -6.8041843    70.174624   0.03266975  0.035364006            3 
  180000    1.2296791   -6.8257273    70.667575   0.03271647  0.035351386            1 
  181000    1.2226803   -6.8726037    70.987147  0.032682848  0.035340287            3 
  182000    1.2079941   -6.8290943    71.563157  0.032767013  0.035329372            4 
  183000    1.2299072   -6.8535789    71.600221  0.032604836  0.035316998            3 
  184000    1.2201319   -6.8652719    71.940966  0.032581959  0.035306623            9 
  185000    1.2417008   -6.8391586    72.572839  0.032690468  0.035294703            2 
  186000    1.2462132   -6.8464446    73.113622  0.032756999  0.035284801            3 
  187000    1.2405084   -6.8361444    73.533628  0.032768997  0.035276792            2 
  188000     1.216779   -6.7941256    73.721061  0.032677775  0.035265113            2 
  189000    1.2209522   -6.8440322    74.264996  0.032744707  0.035254443            1 
  190000    1.2201178    -6.798697    74.698195  0.032762366  0.035245141            2 
  191000    1.2136822   -6.7987959    74.914933  0.032685398  0.035233377            1 
  192000    1.2146026   -6.7533596    75.323498   0.03269249  0.035221128            2 
  193000      1.22349   -6.8121091    75.677868  0.032676109  0.035207821            3 
  194000    1.2059125   -6.8003482    76.039187  0.032662881  0.035194156            1 
  195000     1.225449   -6.8641486    76.334215  0.032621459  0.035178881            3 
  196000    1.2020139    -6.816427    77.017139  0.032745382  0.035165254            3 
  197000    1.2559546   -6.8345605    77.316418   0.03270576  0.035150231            2 
  198000    1.2336946     -6.80496    77.846427  0.032763648  0.035135159            2 
  199000    1.2398788   -6.8393356    77.863066  0.032605974  0.035120228            2 
  200000    1.2542912   -6.8837637    78.139141  0.032557975  0.035103153            3 
  201000    1.2257622   -6.9009015    78.632526   0.03260055  0.035086746            5 
  202000    1.2057199   -6.8539679    78.805127  0.032510366  0.035071003            6 
  203000    1.2371713   -6.8697418    79.005127  0.032432318  0.035052423            4 
  204000    1.2311929   -6.8422579     79.31465  0.032399775  0.035031195            1 
  205000     1.183807   -6.8012279    79.759871  0.032422712  0.035011185            1 
  206000    1.2077656   -6.8423857    80.385303  0.032518327  0.034990206            2 
  207000    1.2162816   -6.8000183    80.931814  0.032581245  0.034971213            2 
  208000    1.2160845   -6.8474065    81.313029  0.032577335  0.034953465            2 
  209000     1.227546   -6.8302933    81.771792  0.032604383  0.034938243            5 
  210000    1.2287117   -6.8461964    81.754565  0.032442288  0.034919504            1 
  211000    1.2201686   -6.8280021    81.831871  0.032319064  0.034899083            2 
  212000    1.2099653   -6.8616348    82.151294  0.032292175  0.034877005            7 
  213000    1.2066645   -6.8585412    82.570685   0.03230465  0.034856254            2 
  214000      1.21685   -6.8505248    83.075382  0.032350226  0.034835658            2 
  215000    1.2369356   -6.7641445    84.142442  0.032613349  0.034819261            5 
  216000    1.2239835   -6.8285652    83.976858  0.032398479  0.034801512            5 
  217000    1.2330714    -6.814825    84.652931  0.032508806  0.034783659            2 
  218000    1.2206045   -6.8539155    84.440204  0.032278365  0.034765452            2 
  219000    1.2156673   -6.7976123    85.187471  0.032415324  0.034746471            3 
  220000    1.2362911   -6.8909243    85.505236  0.032388347  0.034727169            1 
  221000    1.2506626   -6.8262553    85.974021   0.03241856  0.034708958            4 
  222000    1.2397398   -6.8740828    86.399137  0.032432108  0.034692061            5 
  223000    1.2210409   -6.8597545    86.636618  0.032375418  0.034674206            2 
  224000    1.2098807   -6.8458156    87.281486  0.032470791   0.03465812            2 
  225000     1.195421    -6.861121    87.491542  0.032404275  0.034642082            2 
  226000    1.2060195    -6.858958    88.166487  0.032509766  0.034625808            4 
  227000    1.1865595   -6.8498965    88.305998  0.032417767  0.034608889            4 
  228000    1.2033725   -6.8320909    88.870402  0.032481872  0.034592818            1 
  229000    1.1938998     -6.83881    89.139867  0.032438088  0.034576492            4 
  230000    1.2177596   -6.8930971    89.293533  0.032352729  0.034559055            2 
  231000    1.2221135   -6.8138693    89.523866  0.032295767  0.034539185            3 
  232000    1.2188845   -6.8551537      89.9095  0.032295079  0.034518974            2 
  233000    1.2284077   -6.8544725    90.014976  0.032194198   0.03449882            2 
  234000     1.193385   -6.8333184    90.332479  0.032169686    0.0344762            3 
  235000     1.250362   -6.8184303    90.967526  0.032257988  0.034454612            3 
  236000    1.2204275   -6.8375062    91.315811  0.032244283   0.03443436            2 
  237000    1.1955129   -6.8231681    91.805976  0.032280582   0.03441491            1 
  238000    1.2308223   -6.8772495    91.790352  0.032139479   0.03439587            2 
  239000     1.187255   -6.8633148     92.33453  0.032194745  0.034375377            2 
  240000    1.2054951   -6.8333748    93.068466  0.032315439  0.034355476            4 
  241000    1.2059469   -6.8160097    93.335058  0.032273533  0.034338236            2 
  242000    1.2136102   -6.7961103    93.761053  0.032286864  0.034321879            6 
  243000    1.2001216   -6.8394902    94.123222  0.032278197  0.034303483            4 
  244000    1.2352399   -6.8565411    94.541343   0.03228871  0.034286209            2 
  245000    1.2026243   -6.8490225    94.860967  0.032265635  0.034269471            5 
  246000    1.2184764   -6.8894542    95.160622  0.032235983  0.034255447            2 
  247000    1.1947988   -6.8632227    95.810462  0.032324717  0.034239751            2 
  248000    1.2206917   -6.8456834    96.232153  0.032336073  0.034222582            5 
  249000     1.246559   -6.8191183    96.740766  0.032376428  0.034206001            2 
  250000    1.2023462   -6.8833155    96.579704  0.032193235  0.034189812            2 
  251000    1.2104414   -6.8379343    97.083021  0.032232078  0.034173865            4 
  252000    1.2158061   -6.8809953    97.462475  0.032229654    0.0341579            3 
  253000     1.192574   -6.8187445    98.073371  0.032303482  0.034143019            2 
  254000    1.2369677   -6.8496323    98.664755  0.032370326   0.03412965            2 
  255000    1.2424169   -6.8630923     99.08739    0.0323815  0.034115318            2 
  256000    1.2232321   -6.8565111     99.23585  0.032303337  0.034100932            1 
  257000    1.2185796   -6.8526825    99.728236  0.032337301  0.034087306            3 
  258000    1.1966663   -6.8665869    100.05175  0.032316455  0.034072695            2 
  259000    1.2422646   -6.8601821    100.50919  0.032338864  0.034057441            1 
  260000    1.2173593   -6.8624692    100.76987  0.032298036  0.034043706            6 
  261000    1.2214097   -6.8438302    100.75323  0.032168975  0.034027353            1 
  262000    1.2216105   -6.8597776    101.46946  0.032274002  0.034012572            4 
  263000    1.2144056   -6.8656998    101.95041  0.032303679  0.033999769            1 
  264000    1.2016438   -6.9044365    102.21564  0.032265039  0.033986155            3 
  265000    1.2251891   -6.8673397    102.64588   0.03227858  0.033973712            2 
  266000    1.1884185    -6.863152     102.9276  0.032245489  0.033960757            4 
  267000    1.2302271   -6.9068267    103.19528  0.032208266  0.033946533            2 
  268000    1.2108849   -6.8932308    103.43867  0.032163766  0.033933103            3 
  269000    1.1814975    -6.936237    103.75506  0.032142212    0.0339195            1 
  270000     1.209681   -6.8269409    104.33188  0.032201197  0.033905175            3 
  271000    1.2133846   -6.8239899    104.63692  0.032176174  0.033890422            2 
  272000    1.2061982   -6.8618296    104.91443  0.032142902  0.033874232            3 
  273000      1.21242   -6.8654338    105.52784  0.032212406  0.033858562            2 
  274000    1.1868971   -6.8714969    105.81044  0.032180792  0.033843464            5 
  275000    1.2450103   -6.8782957    106.14785  0.032166014  0.033828471            4 
  276000    1.1941227   -6.8212631    106.30864   0.03209802  0.033813248            3 
  277000    1.2248798   -6.8785185    106.59501  0.032068293  0.033798747            1 
  278000    1.1865639   -6.8722535    107.23689  0.032145351   0.03378293            2 
  279000    1.2206994   -6.8501624    108.25463   0.03233412  0.033769268            5 
  280000    1.2203883   -6.8680725    107.83243  0.032092987   0.03375659            3 
  281000    1.1964593   -6.8203866    108.76576  0.032255562  0.033744102            2 
  282000     1.224676   -6.8875621    108.74577  0.032135274  0.033732189            3 
  283000    1.2294235   -6.8051835    109.29108  0.032182298  0.033719466            5 
  284000    1.1838768   -6.8068399    110.26595  0.032355031  0.033708564            2 
  285000    1.2319617   -6.8639382    110.19142  0.032219713  0.033698431            3 
  286000    1.1953394   -6.9015152    110.63027  0.032234929  0.033688537            3 
  287000    1.2130635   -6.8716624    110.97623  0.032223064  0.033676573            3 
  288000    1.2033265   -6.8309511    111.18601  0.032171877  0.033665234            2 
  289000    1.2118706   -6.8765743    111.57075  0.032171498  0.033653599            2 
  290000     1.237789    -6.850927    112.07105  0.032204325  0.033643273            3 
  291000    1.1897768   -6.9007287    112.45006  0.032202193  0.033633981            2 
  292000    1.1987007   -6.8700362    112.92273  0.032226806  0.033624596            1 
  293000    1.1988505   -6.8733737    113.32869  0.032232278   0.03361474            1 
  294000    1.1681257   -6.8521907    113.74142  0.032239632  0.033607251            1 
  295000    1.2059621   -6.8346761    113.83509  0.032156806  0.033597252            1 
  296000    1.2003572   -6.9041566    114.24158  0.032162606  0.033587561            2 
  297000    1.2190648   -6.8761085    114.91473  0.032243189  0.033578253            2 
  298000    1.1943988   -6.8953555    114.76567  0.032093309  0.033568945            5 
  299000     1.196862   -6.8762821    115.64683  0.032231558  0.033557551            2 
  300000    1.1960412   -6.8856707    115.87364  0.032187124  0.033547091            1 
  301000    1.2143266   -6.8740738    116.62691  0.032288734  0.033537454            4 
  302000    1.2038167   -6.8295421    116.92124  0.032263034  0.033527261            4 
  303000    1.1766996   -6.8765361    117.10117  0.032206043  0.033518046            2 
  304000    1.1587781    -6.906423    117.17296  0.032119779  0.033508786            3 
  305000    1.2210053   -6.8772301    117.66594  0.032149165  0.033498903            4 
  306000    1.2177123   -6.9189874    117.71047  0.032056228   0.03348837            4 
  307000    1.2044284   -6.8356611    118.96145  0.032291383  0.033477708            2 
  308000    1.2195957   -6.9123508    118.73399  0.032124998  0.033468163            4 
  309000    1.2051051   -6.9136208     118.7169  0.032016424  0.033457315            3 
  310000    1.1890153   -6.8766453    119.96332  0.032248205  0.033446897            3 
  311000      1.19107   -6.8914449     119.8617  0.032117284  0.033437295            3 
  312000    1.2090416   -6.8356664      120.759  0.032254006  0.033428469            2 
  313000    1.2178537   -6.9499248    120.75135  0.032148922  0.033418858            2 
  314000    1.1823243   -6.8476689    121.55433  0.032259642   0.03341143            1 
  315000     1.185641   -6.9211826    121.65558  0.032184016  0.033403912            2 
  316000    1.1748303   -6.9000086    122.52678  0.032311915   0.03339644            4 
  317000    1.1880211   -6.9174542    122.74545  0.032267469  0.033388869            4 
  318000    1.2067735   -6.9085831    123.17404  0.032278313  0.033382407            2 
  319000    1.1948534    -6.936416    123.06762  0.032149327   0.03337572            3 
  320000    1.1926159   -6.9246386    123.21171  0.032086384  0.033366391            1 
  321000     1.165619   -6.9005821    124.01416  0.032194746  0.033356755            2 
  322000    1.1989685   -6.8568894    123.94661   0.03207728  0.033346706            2 
  323000    1.1996349   -6.8715309     124.3624  0.032085244  0.033336693            2 
  324000    1.1961107   -6.8777206    124.92942  0.032132053  0.033327075            2 
  325000    1.1996002   -6.9057207     124.9708  0.032043794  0.033318117            1 
  326000    1.2235122   -6.8956511    125.59652  0.032105451  0.033309567            4 
  327000    1.1968631   -6.8446709    126.27338  0.032179762  0.033301575            5 
  328000    1.2067865   -6.8784142    126.30312  0.032089208  0.033293607            2 
  329000    1.1952535   -6.8917218    126.73105  0.032100063  0.033285594            2 
  330000    1.2199558   -6.8888854    126.69478  0.031993631  0.033275772            1 
  331000    1.2078873   -6.9182528    127.29997  0.032049338  0.033266058            2 
  332000    1.2263688   -6.9267393    127.49263  0.032001162  0.033255035            2 
  333000    1.2190733   -6.8881239    127.46779  0.031898846  0.033243805            4 
  334000    1.1804941   -6.8829027    128.16684  0.031977753   0.03323245            2 
  335000    1.1734723   -6.8887914    128.26328  0.031906289  0.033221452            2 
  336000    1.1864346   -6.9026534    128.81399  0.031947915  0.033210352            2 
  337000    1.2049431   -6.9129819    129.40359  0.031998909  0.033199843            3 
  338000    1.1881736   -6.9044802    130.07406  0.032069542  0.033189903            3 
  339000    1.2189809   -6.9293839    129.65531  0.031872004   0.03317978            2 
  340000    1.1859606   -6.8918924    130.45305  0.031973786  0.033169937            2 
  341000    1.2088009   -6.9705094    130.33716    0.0318517  0.033160015            3 
  342000    1.1974082   -6.9058198    131.08284  0.031940262  0.033149737            2 
  343000    1.1742852   -6.9074361    131.64712  0.031984237  0.033140369            2 
  344000    1.2152618   -6.9065204    132.30257  0.032050041  0.033131357            2 
  345000    1.2033657   -6.8809486    133.02639  0.032131979  0.033123249            5 
  346000    1.2067021   -6.9385025    132.64955  0.031948349  0.033115076            3 
  347000    1.2170592   -6.8633349    133.63549  0.032093058  0.033106538            1 
  348000    1.2258224   -6.8615973    133.84347  0.032050639  0.033097761            2 
  349000    1.2028108   -6.8767565    134.43667  0.032100446  0.033089222            2 
  350000    1.1938603   -6.9380567    134.45952   0.03201417  0.033080457            3 
  351000    1.2156726   -6.9074983    134.38055  0.031904213  0.033071887            5 
  352000    1.1961368     -6.88979    134.95406  0.031949352  0.033063371            3 
  353000    1.1859386    -6.890713    135.36325  0.031955442  0.033054626            1 
  354000    1.1971977   -6.9552201    135.13654  0.031811804  0.033044292            4 
  355000    1.1931463   -6.8971199    136.04418  0.031935253   0.03303444            1 
  356000    1.1998505   -6.8918778    136.09315   0.03185701  0.033024627            3 
  357000    1.2132516   -6.9123733    136.83567  0.031941099  0.033015158            3 
  358000    1.1881685   -6.9331116    136.91062  0.031869324  0.033005901            3 
  359000    1.1823413   -6.8733742    137.79209  0.031985165  0.032996944            4 
  360000    1.1960546   -6.9036902    138.12095  0.031972443  0.032987773            2 
  361000    1.2037277   -6.8932571    138.84304  0.032050564  0.032980174            2 
  362000     1.194755   -6.8824812    139.51706  0.032117186  0.032974136            4 
  363000    1.1898314   -6.9097019    139.13917  0.031941958  0.032968098            4 
  364000     1.190812   -6.8799324    139.82555  0.032011345   0.03296075            3 
  365000    1.1958307   -6.9225352    140.30571  0.032033266  0.032954338            3 
  366000    1.1974512   -6.9314938    141.08588  0.032123378  0.032949536            3 
  367000    1.1967461   -6.8368288    141.99044  0.032241244  0.032945284            2 
  368000    1.2206517   -6.8944545    141.90064  0.032133296  0.032940727            4 
  369000    1.1750407   -6.8862825    142.06028  0.032082268  0.032935699            4 
  370000    1.1893789    -6.911432     142.4091  0.032074121   0.03293073            1 
  371000    1.1906777   -6.9497822    142.26342  0.031954947  0.032924528            4 
  372000    1.1932279   -6.9309088    143.24019  0.032087856   0.03291956            3 
  373000    1.1788368   -6.9392619    143.55597  0.032072379   0.03291331            1 
  374000    1.1526643   -6.9290265    143.44692  0.031962327  0.032907493            2 
  375000    1.1698652   -6.9062331    144.15896  0.032035325  0.032900656            1 
  376000     1.195574   -6.8623544    144.78499  0.032088871  0.032894917            4 
  377000    1.1615712   -6.8707282    145.33059  0.032124356  0.032889269            3 
  378000    1.1997528   -6.9231244    145.04179  0.031975704  0.032883624            3 
  379000    1.2239147   -6.9479395    145.16117  0.031917584  0.032877499            3 
  380000     1.194594   -6.9448106    145.52906  0.031914268  0.032870657            1 
  381000    1.2131294   -6.9079283    146.13567  0.031963182   0.03286359            4 
  382000    1.2027208   -6.9105551    146.57075  0.031974422  0.032856663            3 
  383000    1.1943424   -6.9243681    146.77844  0.031936127  0.032850275            2 
  384000    1.1983499   -6.9298026    147.12866  0.031928963  0.032843284            5 
  385000    1.2109494   -6.9151233     148.0056  0.032035845  0.032837011            2 
  386000    1.1892444   -6.9140073    148.53055  0.032066181  0.032831155            6 
  387000    1.1881847   -6.8706412    148.79142  0.032039496  0.032825396            3 
  388000    1.1938447   -6.8760697    149.86753  0.032188043  0.032819787            3 
  389000    1.1982748   -6.9385573    149.57446  0.032042515  0.032814059            1 
  390000    1.1908563    -6.947598    150.07185  0.032066634  0.032808634            5 
  391000    1.1909761   -6.9633004    150.14115  0.031999393  0.032803385            3 
  392000    1.2017256   -6.9105606    150.52112  0.031998538  0.032798138            3 
  393000    1.1867675   -6.9292971    150.65017   0.03194448  0.032792139            1 
  394000    1.1735037   -6.8768544    151.35311  0.032012079   0.03278606            1 
  395000    1.1872737    -6.939643    151.05763  0.031868698  0.032779154            2 
  396000    1.1768067   -6.9118801    152.23543  0.032036074  0.032772592            5 
  397000    1.1762873   -6.9543742    152.42749  0.031995694  0.032766677            2 
  398000    1.1674761   -6.8785609     152.7599  0.031984904   0.03276066            5 
  399000     1.198495   -6.9532424    152.67617  0.031887253  0.032754454            4 
  400000    1.1933862    -6.941743    153.49962  0.031979087  0.032749221            4 
  401000     1.189969   -6.9644602    153.51635  0.031902817  0.032743489            1 
  402000    1.2053818   -6.9056462    154.29159  0.031984161  0.032737059            3 
  403000    1.2083671   -6.9177833    154.50346  0.031948606  0.032731353            3 
  404000    1.1756419   -6.9199502    154.76005  0.031922453  0.032724717            3 
  405000    1.1658218   -6.9282771    155.53072  0.032002205  0.032719411            4 
  406000    1.1741759   -6.8829833    156.22279  0.032065433  0.032715091            4 
  407000    1.1896143   -6.9128658    155.95927  0.031932693  0.032711028            3 
  408000    1.1829779   -6.9049517    156.75287  0.032016519  0.032706533            1 
  409000    1.1795353   -6.9042358    157.56146  0.032102986  0.032702152            3 
  410000    1.1842853   -6.9321771    157.11572   0.03193409  0.032697631            2 
  411000    1.1634491    -6.941602    157.56602  0.031947693  0.032693021            3 
  412000    1.1907119   -6.9305274    158.49087  0.032057215  0.032688602            2 
  413000    1.1677052   -6.9343304    159.09422  0.032101335   0.03268427            3 
  414000    1.1934972   -6.9430348    159.52685   0.03211088  0.032680401            2 
  415000    1.1812851   -6.9709278    159.23221   0.03197434   0.03267742            3 
  416000    1.1721666   -6.9486467    160.16242  0.032083817  0.032674596            3 
  417000    1.1758611   -6.8797233    161.20678  0.032215584  0.032672781            3 
  418000    1.1801712   -6.9513625    160.60126  0.032017796  0.032670513            3 
  419000    1.1685265   -6.8791274     161.1982  0.032060103  0.032668106            6 
  420000    1.1942222   -6.9433951    160.81496   0.03190773  0.032663469            2 
  421000    1.1953209   -6.9342682    161.18695  0.031905572  0.032659012            1 
  422000    1.1942468   -6.9215642     161.4095  0.031873914  0.032654252            3 
  423000    1.1793824   -6.8848832     162.4409  0.032001753  0.032648918            5 
  424000    1.1475032   -6.9229808    162.42726  0.031923597  0.032643394            4 
  425000    1.2040623   -6.9540906    163.22845  0.032005579  0.032638709            4 
  426000    1.2034504   -6.9105152    163.31837  0.031948037  0.032634258            2 
  427000    1.2191665   -6.9658882    163.86653  0.031980196  0.032630123            2 
  428000    1.2262499   -6.9107264     164.2601  0.031982107   0.03262568            4 
  429000    1.1807612   -6.9227057    164.70425  0.031993833  0.032621238            2 
  430000    1.1801415   -6.9230111    165.10491  0.031997075  0.032617718            2 
  431000    1.1734358    -6.981387     164.8996   0.03188314  0.032613723            9 
  432000    1.1715008   -6.9573262    165.60867  0.031946116  0.032609115            2 
  433000    1.1684201   -6.9213551    166.24843  0.031995463  0.032604242            5 
  434000    1.1841403   -6.9193309    166.45097  0.031960632  0.032599866            2 
  435000    1.1700038    -6.931817    166.86829  0.031967106  0.032595312            4 
  436000    1.2205256   -6.9383833    167.20259  0.031957682  0.032590766            1 
  437000    1.1798166   -6.9088008     168.3626  0.032105758  0.032586394            4 
  438000    1.1350198   -6.9701913    167.43083  0.031855181  0.032582561            2 
  439000    1.1797447   -6.9333826    168.17782  0.031924415  0.032578836            4 
  440000     1.189558   -6.9918365    168.08228  0.031833765  0.032574481            5 
  441000    1.1472258   -6.9162205    168.84345  0.031905415   0.03257011            1 
  442000    1.1845456   -6.9705127    168.93198  0.031849921  0.032564785            2 
  443000    1.1831208   -6.9318925    169.39424  0.031864981  0.032558405            5 
  444000    1.1645048   -6.9408905    169.39237  0.031792863  0.032551597            4 
  445000    1.1582605   -6.9429388    169.76806  0.031791771   0.03254618            2 
  446000    1.1493816   -6.9450184    169.99887  0.031763615  0.032539886            4 
  447000     1.162003   -6.9072235    170.69642  0.031822599  0.032534105            2 
  448000    1.1431389     -6.95754    170.81915  0.031774396  0.032528149            4 
  449000    1.1887513   -6.8941179    171.26408  0.031786206  0.032522355            4 
  450000    1.1976472   -6.9226967    171.55891  0.031770168  0.032515665            3 
  451000    1.1954846   -6.9569342    172.01929  0.031784791  0.032508688            2 
  452000    1.1879766   -6.9335941     172.2955  0.031765394  0.032502462            2 
  453000    1.2020141   -6.9194446    172.84498  0.031796355  0.032495997            2 
  454000    1.1737022   -6.9235896    173.08526  0.031770422  0.032490445            4 
  455000    1.1678277   -6.9235035    173.83671  0.031838225  0.032484249            2 
  456000    1.1790815    -6.979344    172.89779  0.031596819   0.03247751            5 
  457000    1.1698272   -6.9745432    173.88298  0.031707326  0.032470919            3 
  458000     1.173099   -6.9067835    174.45513    0.0317422  0.032464597            2 
  459000    1.1936424   -6.9230268     174.9313  0.031759495  0.032458099            2 
  460000    1.1899578   -6.9425668    174.64051  0.031637774  0.032451226            4 
  461000    1.1587363   -6.9054685    175.10547  0.031653195  0.032443952            2 
  462000    1.1780852   -6.9843866    174.82795  0.031534623  0.032437038            3 
  463000    1.1762148   -6.9756668     175.6908  0.031621815  0.032429242            2 
  464000    1.1642631   -6.9801867    175.67972  0.031551674  0.032421303            3 
  465000    1.1785582   -6.9324218    175.98847  0.031539152  0.032412727            3 
  466000    1.1943892   -6.9273686    176.44267  0.031552694  0.032404325            3 
  467000    1.1903307   -6.9683917    176.69839  0.031530762  0.032396518            2 
  468000    1.1874682   -6.9446492    177.51196  0.031608254  0.032389031            3 
  469000     1.183172   -6.9563643    177.76421   0.03158568  0.032381136            3 
  470000    1.1736056   -6.9700696    178.53564  0.031655254  0.032374464            3 
  471000    1.1463179    -6.938212    178.79105  0.031633237  0.032367379            2 
  472000     1.139514   -6.9180147    179.37629  0.031669542    0.0323602            6 
  473000    1.1690562   -6.9228859    180.23573  0.031754004  0.032353635            5 
  474000    1.1953538   -6.9857638    179.78923  0.031608515  0.032347053            5 
  475000     1.179268   -6.9714229    180.17524  0.031609692  0.032340528            3 
  476000     1.168551    -6.936099    180.87022  0.031664955  0.032334083            2 
  477000    1.1612155   -6.9436015    181.38396  0.031688323  0.032328048            9 
  478000    1.1657051   -6.9338387      182.512  0.031818688  0.032323128            2 
  479000    1.1524959   -6.9416524    183.31821  0.031892521  0.032318768            3 
  480000    1.1684702   -6.9703152    183.00494  0.031771691  0.032314437            3 
  481000    1.2009101   -6.9848481    183.18632  0.031737062  0.032310125            2 
  482000    1.1796998   -6.9382689    183.52197  0.031729249  0.032305884            1 
  483000    1.1436671   -6.9279809    184.02194  0.031749818  0.032301784            4 
  484000    1.2036908   -6.9260285    184.82379  0.031822277  0.032297617            2 
  485000    1.2031274   -6.9664035    184.06852  0.031626894  0.032292655            1 
  486000    1.1724781    -6.939226    185.12443  0.031742871  0.032288195            2 
  487000    1.1527113   -6.9426226    185.48494   0.03173938   0.03228423            2 
  488000    1.1628309   -6.9725763    185.54065  0.031683854  0.032279397            6 
  489000    1.1643412   -6.9532334    186.03993  0.031704147  0.032275062            1 
  490000     1.207416   -6.9479324    186.36194  0.031694208  0.032270787            4 
  491000    1.1611299   -6.9424316    186.82005  0.031707408  0.032265729            4 
  492000    1.1916962   -6.9433591    186.48679  0.031586515  0.032259616            3 
  493000    1.1487038   -6.9826299    186.04445  0.031447675  0.032253359            2 
  494000    1.1887297    -6.936745    187.10456  0.031562848   0.03224667            2 
  495000    1.1891892   -6.9631699    187.76116  0.031609623  0.032240161            7 
  496000    1.1849049   -6.9418416    187.70942  0.031537202  0.032233946            3 
  497000    1.1466003   -6.9788243    187.58713   0.03145324  0.032227502            2 
  498000    1.1648296   -6.9545544    188.36378  0.031520044  0.032220339            6 
  499000     1.176691   -6.9715053    188.24077  0.031436334  0.032212826            2 
  500000    1.1744001   -6.9715363    189.02816  0.031504693  0.032205052            3 
  501000     1.180013   -7.0370709    188.23205  0.031309389  0.032197637            2 
  502000    1.1855345   -6.9384524    189.16304  0.031401567  0.032190155            3 
  503000    1.1617072   -6.9652329    189.88183  0.031458222  0.032182618            2 
  504000    1.1660191   -7.0004847    189.84183  0.031389191  0.032174957            3 
  505000    1.1654413   -6.9484147    190.48694  0.031433488   0.03216824            2 
  506000    1.1421143    -6.976564    190.05645  0.031300469  0.032161061            2 
  507000    1.1677762   -6.9660406    190.72128  0.031348007  0.032153983            4 
  508000    1.1888803   -6.9918686    190.50705  0.031251156  0.032146138            4 
  509000    1.1412096   -6.9806348    191.40622  0.031336972  0.032138851            2 
  510000    1.1879312   -6.9678177    192.03398  0.031378101  0.032131617            1 
  511000    1.1951278   -6.9601249    193.10632  0.031491572  0.032124363            2 
  512000    1.1565986   -6.9225746    193.60211  0.031510759  0.032118058            1 
  513000    1.1807929   -6.9182061    193.64944  0.031457024  0.032111221            2 
  514000     1.147994   -6.9975105    193.48601  0.031369327  0.032103803            2 
  515000    1.1802977   -6.9730838     194.0115  0.031393447  0.032096677            3 
  516000    1.1809165   -6.9901125    193.90063  0.031314702  0.032089102            1 
  517000    1.1912533   -6.9604512    194.14564  0.031293624  0.032081495            2 
  518000    1.1655807   -7.0164738    194.27718  0.031254373  0.032073451            1 
  519000    1.1984643   -6.9572196    195.04057  0.031316726  0.032065833            2 
  520000    1.1586371   -6.9473053     195.1818  0.031279135   0.03205801            4 
  521000    1.1774358   -6.9502998    195.48702  0.031267918  0.032049229            3 
  522000    1.1792624   -6.9382428     195.4563  0.031203114  0.032040469            3 
  523000    1.1677483   -6.9852086    195.67496  0.031178292  0.032031431            6 
  524000     1.146165   -6.9603685    196.44942  0.031241957  0.032022295            5 
  525000    1.1869268   -6.9917408    196.32684   0.03116299  0.032013115            4 
  526000    1.1729244   -6.9806064    196.60116  0.031147205  0.032004083            5 
  527000    1.1651812   -6.9187131      197.795  0.031276882  0.031996373            8 
  528000    1.1644112   -6.9975942     197.1794  0.031120487  0.031987826            2 
  529000    1.1720372   -6.9573379    198.26974  0.031233418  0.031979479            4 
  530000    1.1619117   -6.9701245    198.56362  0.031220695  0.031971234            2 
  531000    1.1584314   -7.0023095    198.17986  0.031101673  0.031962854            3 
  532000    1.1693343   -7.0378283    198.54136  0.031099838  0.031953813            4 
  533000    1.1664588   -7.0190069    198.72146  0.031069647  0.031944768            3 
  534000     1.202008   -7.0209995    199.06503   0.03106508   0.03193563            3 
  535000    1.1895974   -6.9758732    200.00179  0.031152927   0.03192684            4 
  536000    1.1573361   -7.0192687    199.57928  0.031029117  0.031917822            2 
  537000    1.1717228   -6.9829089    200.53787  0.031120091  0.031908925            4 
  538000    1.1689387   -6.9476397    200.84936  0.031110496  0.031900022            2 
  539000    1.1393612   -6.9938897     200.8048  0.031045888  0.031890883            4 
  540000    1.1766242    -6.961296    201.58655  0.031109035  0.031881264            1 
  541000    1.1263399   -7.0033076    201.11404   0.03097875  0.031872144            4 
  542000    1.1346016   -6.9798121     202.0885  0.031071418  0.031863618            3 
  543000     1.167831   -6.9723155    203.07155  0.031165063  0.031855268            5 
  544000    1.1654099   -6.9701906    202.82373  0.031069812  0.031847118            3 
  545000    1.1862245   -7.0293598    203.05947  0.031048849  0.031838315            6 
  546000    1.1670994   -6.9508057    203.81139  0.031106745  0.031829872            2 
  547000    1.1496014   -6.9790135    204.46374  0.031149259  0.031821761            2 
  548000    1.1707349   -6.9759471    204.47993  0.031094879  0.031814238            4 
  549000    1.1567281   -6.9949393    204.83213  0.031091702   0.03180667            3 
  550000    1.1515979   -6.9632244    206.03154    0.0312169  0.031799689            3 
  551000     1.143272   -6.9700888    205.79045  0.031123782  0.031792237            3 
  552000     1.135966   -6.9595045    206.37886  0.031156229  0.031784773            4 
  553000    1.1616686   -6.9968083    206.53656  0.031123652  0.031776762            2 
  554000    1.1713861     -7.00724    206.34256  0.031038292  0.031768978            3 
  555000    1.1611821   -6.9423618    206.96959  0.031076515  0.031761056            2 
  556000    1.1388675   -7.0022822    207.13978   0.03104613  0.031752628            2 
  557000    1.1603904   -6.9969964    206.50998  0.030896167   0.03174353            2 
  558000    1.1745519   -6.9793715     207.4939  0.030987738  0.031734471            2 
  559000    1.1737421   -6.9621377    208.01266   0.03100964  0.031726542            2 
  560000    1.1505526   -6.9910614    208.29177    0.0309958  0.031718464            2 
  561000    1.1693895   -7.0095455    208.79942  0.031015956  0.031710551            4 
  562000    1.1788844   -7.0119092    208.34018  0.030892672  0.031702927           10 
  563000    1.1844288    -6.962807     209.8641  0.031063366  0.031694937            3 
  564000    1.1643873   -7.0253617    209.03343  0.030885554  0.031686873            5 
  565000    1.1798022   -6.9809583    210.04919  0.030980706   0.03167901            2 
  566000    1.1442029   -7.0031688    210.01485  0.030920914  0.031670931            3 
  567000    1.1575699   -6.9799967    210.49121  0.030936392  0.031662715            2 
  568000    1.1687507   -6.9905647    210.98607  0.030954529  0.031654095            2 
  569000    1.1371393   -6.9970423     210.8924  0.030886409  0.031645664            2 
  570000    1.1592762    -6.969459    211.82707   0.03096887  0.031637696            2 
  571000    1.1832468   -7.0230704    211.33826  0.030843295  0.031629688            3 
  572000     1.162399   -6.9968642    212.14843  0.030907405  0.031621759            2 
  573000    1.1602174   -6.9628811    213.06669  0.030987012  0.031614209            2 
  574000    1.1758282   -6.9897019    212.74898  0.030886901  0.031606415            2 
  575000    1.1856144   -7.0070197    213.22337  0.030901938  0.031598253            2 
  576000    1.1623801   -6.9798693    214.13634  0.030980374  0.031590355            5 
  577000    1.1755964    -6.996966    214.19219  0.030934747  0.031582441            2 
  578000    1.1454868   -6.9916088    213.62886  0.030800009  0.031574642            2 
  579000    1.1597713   -7.0397215    214.34835  0.030850367    0.0315668            4 
  580000     1.170853   -6.9597748    216.05622   0.03104256  0.031558951            3 
  581000    1.1966955   -6.9980375    215.45163  0.030902414    0.0315517            3 
  582000    1.1593082   -6.9734941    215.83773    0.0309046  0.031543525            2 
  583000    1.1656725   -6.9634653    216.55878  0.030954657  0.031535825            4 
  584000    1.1574029   -7.0208764    216.54837  0.030900167  0.031527949            3 
  585000    1.1467217   -7.0411165    216.19985  0.030797699  0.031519633            3 
  586000    1.1354668   -7.0388839    216.29661  0.030758904  0.031510971            4 
  587000    1.1374891    -7.019288    216.80663  0.030778909  0.031502863            3 
  588000    1.1801475   -6.9830419    217.76864  0.030862902  0.031494986            2 
  589000    1.1897128   -6.9955095    217.82208  0.030818064  0.031487286            4 
  590000    1.1617635   -7.0088362    217.91039  0.030778303   0.03147951            2 
  591000    1.1750842   -6.9897194    218.72164  0.030840615  0.031471429            3 
  592000    1.1544073   -7.0432597    218.61927  0.030774109   0.03146348            4 
  593000    1.1670169   -7.0247233    219.47435  0.030842376  0.031455762            4 
  594000    1.1640686   -6.9832989    219.12091  0.030740868  0.031448159            2 
  595000     1.160901    -7.010479    219.71019  0.030771736  0.031440353            3 
  596000    1.1504337   -7.0126218    219.81542  0.030734818  0.031433003            2 
  597000    1.1690004   -6.9934644    220.45716  0.030772915  0.031425599            2 
  598000    1.1434102   -7.0262431    221.28729  0.030837136  0.031417551            3 
  599000    1.1557549   -6.9833849    221.69774  0.030842757  0.031410088            4 
  600000    1.1415962   -6.9749277    222.00469  0.030833985  0.031402393            2 
  601000    1.1658883   -7.0390592    221.82641   0.03075796  0.031394422            3 
  602000    1.1708259    -6.973506    222.57283  0.030810192  0.031386675            3 
  603000    1.1636202   -7.0421022    221.15915   0.03056373  0.031379016            4 
  604000    1.1588118   -7.0041734    222.55496  0.030705707  0.031370897            3 
  605000    1.1775131   -7.0038341    223.50243  0.030785459  0.031362619            4 
  606000    1.1439054   -7.0005695    224.37835  0.030855108  0.031354966            4 
  607000    1.1354954   -7.0076238    223.76448  0.030720001  0.031346665            3 
  608000    1.1371995   -6.9922418    224.06394  0.030710518  0.031338684            5 
  609000    1.1383115   -7.0566038    224.35147  0.030699435  0.031330373            2 
  610000    1.1409668   -7.0464154    224.75979  0.030704889  0.031322186            3 
  611000    1.1977676   -6.9784967    226.21229   0.03085274  0.031314985            6 
  612000    1.1753859   -6.9177811    227.24734  0.030943265  0.031308152            3 
  613000    1.1553284   -6.9931802    226.73918  0.030823706  0.031301788            2 
  614000    1.1818392   -7.0288261    226.45601  0.030735072  0.031294194            5 
  615000    1.1576265   -7.0050393    226.68189  0.030715703  0.031286821            2 
  616000    1.1575281   -6.9852165    227.88734  0.030828915  0.031280025            2 
  617000    1.1452241   -6.9965278    228.41784    0.0308506  0.031273324            3 
  618000    1.1774837   -7.0122836    228.40037  0.030798324  0.031266905            3 
  619000    1.1579943     -7.05651    227.73938  0.030659583  0.031259953            3 
  620000    1.1684089   -7.0399561    228.42353  0.030702088  0.031253252            3 
  621000     1.156372   -7.0446601    228.17995  0.030619961  0.031246044            2 
  622000    1.1291712   -6.9097444    230.20517  0.030842065   0.03123889            4 
  623000    1.1437312   -7.0585948    228.43131  0.030555285  0.031231842            3 
  624000    1.1604747   -7.0698799    229.31966  0.030624955  0.031224247            4 
  625000     1.152531   -7.0112489     228.6269  0.030483587  0.031215987            4 
  626000    1.1388874    -6.999223    229.75494  0.030585056  0.031208019            2 
  627000    1.1502509   -7.0022801    230.06545  0.030577546  0.031199523            2 
  628000    1.1593633   -7.0221032    229.60059   0.03046717  0.031191256            4 
  629000    1.1717068   -7.0317367    228.90549  0.030326641  0.031182811            4 
  630000    1.1318128    -7.051524    230.63751  0.030507608  0.031173925            3 
  631000    1.1529297   -6.9970771     230.9981   0.03050688  0.031165101            3 
  632000    1.1441185   -7.0086403     231.4208  0.030514346  0.031156553            2 
  633000    1.1664733   -7.0034106    231.16468  0.030432422   0.03114758            3 
  634000    1.1567819   -6.9788554    232.19842  0.030520297  0.031138394            3 
  635000    1.1545378   -7.0206468    231.61448  0.030395601  0.031129581            2 
  636000     1.146968   -6.9989863    232.27238  0.030434011  0.031120683            3 
  637000    1.1354079   -7.0159844    232.16377  0.030372026  0.031111519            1 
  638000    1.1534422   -7.0730093    232.64352  0.030387084  0.031102578            2 
  639000     1.149609     -6.96746    233.64794  0.030470519  0.031093587            1 
  640000    1.1654727   -7.0564117    232.36218  0.030255492  0.031085018            3 
  641000     1.173217   -7.0182092    233.71973  0.030384781  0.031075763            2 
  642000     1.152891   -7.0249044    233.81591  0.030349937  0.031066599            2 
  643000    1.1529403   -7.0652089    234.13399   0.03034396  0.031057419            3 
  644000    1.1434516   -7.0423468    234.34235  0.030323802  0.031048625            4 
  645000     1.147795   -7.0847407    234.23269  0.030262621  0.031039494            2 
  646000    1.1611281   -7.0359273    234.64479  0.030268935  0.031030048            3 
  647000    1.1405744   -7.0024071    236.24851  0.030428711  0.031021117            3 
  648000    1.1629061   -7.0625098    234.96785  0.030217059  0.031012188            3 
  649000    1.1525918   -7.0525599    235.61041  0.030253005  0.031003032            3 
  650000    1.1763448   -7.0077552    236.62027  0.030335932  0.030994576            3 
  651000    1.1621284   -7.0440981    236.34073  0.030253549  0.030985652            3 
  652000    1.1309194   -7.0275861    237.20309  0.030317369  0.030976684            2 
  653000    1.1395196   -7.0540526    237.87929  0.030357235  0.030967963            3 
  654000    1.1516733   -7.0266788    237.55113  0.030269002  0.030959559            2 
  655000    1.1598545   -7.0436795    238.01399  0.030281678    0.0309509            3 
  656000    1.1320079   -7.0517085    237.91762  0.030223275  0.030942113            4 
  657000    1.1229322   -6.9501865     239.3061  0.030353386  0.030933374            2 
  658000    1.1720001    -7.024789     239.0992  0.030281054  0.030925125            5 
  659000    1.1530108    -7.085608    238.45317   0.03015341  0.030916376            1 
  660000    1.1439488   -7.0368067    239.86642  0.030286164   0.03090731            5 
  661000    1.1319582   -7.0658915    239.51497  0.030196037  0.030898449            4 
  662000    1.1495162   -7.0432155    239.85507  0.030193236  0.030889603            6 
  663000    1.1439726   -7.0355802    240.46495  0.030224353  0.030881381            2 
  664000    1.1692156   -7.0771833    240.21891  0.030147956  0.030872565            2 
  665000    1.1333705   -7.0682364    240.55764  0.030145067  0.030863735            1 
  666000    1.1484504   -7.0207108    241.47215  0.030214233  0.030855257            2 
  667000    1.1154642   -7.0281372    241.77149  0.030206333  0.030846596            4 
  668000    1.1298369   -7.0402073    241.61936  0.030142136  0.030837983            1 
  669000    1.1577008   -7.0439485    241.37975  0.030067233   0.03082852            3 
  670000    1.1501785   -7.0675676    240.78369   0.02994822  0.030818868            3 
  671000    1.1308924   -6.9959812    242.83983  0.030158945  0.030809182            3 
  672000    1.1462482   -7.0234336    242.35056  0.030053393  0.030799645            4 
  673000    1.1612658   -6.9774236    243.28302  0.030124197    0.0307905            3 
  674000      1.15868   -7.0445696     242.5154  0.029984594  0.030780647            2 
  675000    1.1434299   -7.0518054    243.38204  0.030047166  0.030770964            4 
  676000    1.1448806   -7.0240642    244.16368  0.030099073  0.030761349            8 
  677000     1.173479   -7.0498999    243.82186  0.030012539  0.030751879            3 
  678000    1.1206135   -6.9889656    244.69315  0.030075363  0.030742439            4 
  679000    1.1523084   -7.0072332    244.58116  0.030017324  0.030732638            3 
  680000    1.1533866   -7.0573851    244.75386  0.029994346  0.030722549            3 
  681000    1.1619666   -7.0522707    244.55969  0.029926541  0.030712595            4 
  682000    1.1571445   -7.0222841    245.30082  0.029973218  0.030702399            4 
  683000    1.1281081    -7.048413    244.56173  0.029839156  0.030692498            5 
  684000    1.1494687   -7.0559536    244.88376  0.029834766  0.030681873            3 
  685000    1.1479567   -7.0406086    245.13584  0.029821879   0.03067157            2 
  686000    1.1359985   -7.0362108     246.2554  0.029914407  0.030660774            5 
  687000     1.147368    -7.032887     246.6299  0.029916291  0.030650151            2 
  688000    1.1287649    -7.035982    246.19718  0.029820395  0.030639546            3 
  689000    1.1109626   -7.0634325    246.15532  0.029772051   0.03062875            2 
  690000    1.1229924   -7.0160877    246.58496  0.029780792  0.030618106            1 
  691000    1.1305386   -7.0281687    247.37135  0.029832531  0.030607304            4 
  692000    1.1380543   -6.9988442    246.84144  0.029725607  0.030596358            6 
  693000    1.1407181     -7.02471    247.58256  0.029771832  0.030585514            5 
  694000    1.1440551   -7.0781627    247.00275  0.029659312  0.030574938            3 
  695000    1.1238262   -7.0613107    248.13869   0.02975284  0.030564225            5 
  696000    1.1190491   -7.1009439    247.78535  0.029667786  0.030553319            4 
  697000    1.1136665   -7.0492318    249.18703  0.029792806   0.03054246            4 
  698000     1.151344   -7.0585348     249.0947    0.0297391  0.030531582            2 
  699000    1.1099307   -7.0370474    249.19521  0.029708537  0.030520974            2 
  700000    1.1373745   -7.0528102    248.93043  0.029634575  0.030510595            3 
  701000    1.1508927   -7.0431444    250.36643  0.029763008  0.030499875            3 
  702000    1.1600558   -7.0705321    249.31438  0.029595725  0.030488995            2 
  703000    1.1274158    -7.046872    249.54787  0.029581303  0.030478463            2 
  704000     1.157034   -7.0991068    249.48182  0.029531465  0.030467381            3 
  705000    1.0991292   -7.1187927    249.90459  0.029539549  0.030456101            2 
  706000    1.1656819   -7.0295666    250.90881  0.029616243  0.030444912            3 
  707000    1.1541647   -7.0274966    250.52762  0.029529422  0.030433835            4 
  708000    1.1324489   -7.0716803    251.37435  0.029587376  0.030422554            3 
  709000    1.1669888    -7.076137    251.06847  0.029509693  0.030410892            2 
  710000    1.1448767   -7.0681743    251.73975  0.029546919  0.030400008            3 
  711000    1.1521039   -7.0644838    251.89568  0.029523638  0.030388955            2 
  712000    1.1252373   -7.0401905    252.72748  0.029579527  0.030377757            3 
  713000    1.1553523   -7.0466639     252.3651  0.029495688  0.030366574            2 
  714000    1.1423781   -7.0417665     252.8397  0.029509769  0.030355025            1 
  715000    1.1427677   -7.0606113    252.62917  0.029443959  0.030343716            3 
  716000     1.125612   -7.0623899    253.18717  0.029467781  0.030332104            2 
  717000    1.0913741   -7.0251797     253.7625   0.02949355  0.030320514            4 
  718000    1.1768345   -7.0570101    253.20898  0.029388229   0.03030925            4 
  719000    1.1344723   -7.0594528      254.421  0.029487831  0.030297631            2 
  720000    1.0996861   -7.0786474    254.32033  0.029435223   0.03028603            1 
  721000    1.1293727   -7.0352336    254.14884  0.029374577  0.030274134            3 
  722000    1.1204985   -6.9961317    255.13624  0.029447857  0.030262565            3 
  723000    1.1493993   -7.0054947    255.14664  0.029408326  0.030251069            3 
  724000    1.1439751   -7.0717572    254.18006  0.029256452  0.030239302            2 
  725000    1.1458115   -7.1329942    254.70478  0.029276411  0.030227328            6 
  726000    1.1407515   -7.0284841    256.09764  0.029395964  0.030215909            2 
  727000    1.1309218   -7.0695934    255.80431  0.029321907  0.030204239            2 
  728000    1.1283119   -7.0703246    256.09166  0.029314521  0.030192635            4 
  729000    1.1240979     -7.03924    256.36815  0.029305916  0.030181265            5 
  730000    1.1512812   -7.0600578     255.3379  0.029148162  0.030169748            3 
  731000     1.153564   -7.0537431    256.46714   0.02923702   0.03015769            1 
  732000    1.1381269   -7.0858277    257.37318  0.029300226  0.030146132            7 
  733000    1.1416381   -7.0818137    257.28538  0.029250271  0.030134296            5 
  734000    1.1448402   -7.0600351    257.16389  0.029196627  0.030123114            2 
  735000       1.1196   -7.0557676     258.8571  0.029348877  0.030111524            5 
  736000    1.1268593   -7.0225838    258.24048  0.029239184  0.030099784            4 
  737000    1.1570986   -7.0200437    258.06675  0.029179868  0.030087923            5 
  738000    1.1309619   -7.0649029    258.08709  0.029142625  0.030075908            1 
  739000    1.1263469    -7.037922    257.76647  0.029067036  0.030063516            1 
  740000    1.1383608    -7.052206    258.47784  0.029107864  0.030051324            7 
  741000    1.1274595   -7.0444174    259.62856  0.029197994  0.030039168            3 
  742000    1.1310064    -7.028026    260.12094  0.029213942  0.030026992            2 
  743000    1.1427173   -7.0648637    259.35496  0.029088712  0.030014711            4 
  744000    1.1378937   -7.0787095    259.46668  0.029062129  0.030002397            2 
  745000    1.1367572   -7.0516557    260.38938  0.029126329  0.029990414            3 
  746000    1.1208073   -7.0375032    260.88101  0.029142204  0.029978384            1 
  747000     1.108125   -7.0626195    261.26416  0.029145934  0.029966695            3 
  748000    1.1631304   -7.0506341    260.55487  0.029027949  0.029955157           10 
  749000    1.1400066   -7.0287153    261.61779  0.029107453  0.029943461            3 
  750000    1.1313155    -7.075702     261.8317  0.029092411  0.029931808            1 
  751000    1.1163848    -7.093591    261.97292  0.029069343  0.029920348            6 
  752000    1.1527038   -7.0895806    261.69831  0.029000256  0.029908739            2 
  753000    1.1610232   -7.0473093    262.64017  0.029065978  0.029897369            4 
  754000    1.1486259   -7.1183486    261.37224  0.028887294  0.029885769            4 
  755000    1.1419034   -7.0872018    262.44641  0.028967594  0.029873833            2 
  756000    1.1247309   -7.0886779    261.80539  0.028858619  0.029861735            5 
  757000    1.1438769   -7.0708209     263.0837  0.028961218  0.029849262            2 
  758000    1.1256844   -7.0772631    263.14921  0.028930212  0.029836916            2 
  759000    1.1480914   -7.0818142    263.03519  0.028879578  0.029824578            6 
  760000     1.124418   -7.0450486    263.77306  0.028922485  0.029812162            7 
  761000    1.1136709   -7.0957705    263.02102  0.028802127  0.029799876            1 
  762000    1.1557821   -7.0646811    264.35362  0.028910063   0.02978723            5 
  763000    1.1202862   -7.0431739    263.84403  0.028816517  0.029774755            2 
  764000    1.1287686   -7.0770139    264.40104  0.028839555  0.029762173            5 
  765000    1.1395768   -7.0854624    264.34023  0.028795232  0.029749261            2 
  766000    1.1247784   -7.0544193    263.94028   0.02871413   0.02973651            2 
  767000     1.155639   -7.0470841    264.91871  0.028782997  0.029724303            2 
  768000    1.1147955   -7.0332789    265.35578  0.028792945   0.02971186            3 
  769000    1.1214744   -7.0164696    266.14203  0.028840706  0.029699546            2 
  770000    1.1334311   -7.0873505    264.67554  0.028644539  0.029686826            3 
  771000    1.1244651   -7.0919034    265.35538  0.028680867  0.029673878            4 
  772000    1.1242436   -7.1027995    265.05781  0.028611595  0.029660964            3 
  773000    1.1436095   -7.1066352    265.52714  0.028625177  0.029648157            2 
  774000    1.1151412    -7.054339    266.44223  0.028686717  0.029635544            2 
  775000    1.1494341   -7.0894531    266.73198  0.028680858  0.029622675            5 
  776000    1.1105076   -7.0982148    266.91029  0.028663047  0.029609869            2 
  777000    1.1051554   -7.0935216    266.75153   0.02860913  0.029596999            5 
  778000    1.0967925   -7.1092478    267.28604   0.02862961  0.029584168            2 
  779000    1.1158283    -7.069416    268.02807  0.028672237  0.029571485            2 
  780000     1.127656   -7.0659681     267.6011  0.028589862  0.029558975            4 
  781000    1.1372289   -7.0629153    268.01856  0.028597798  0.029546554            2 
  782000     1.147003   -7.1310623    267.45226   0.02850088  0.029533779            2 
  783000    1.1425543   -7.1375011    266.54742   0.02836818  0.029520683            3 
  784000    1.1299847   -7.1250144    268.60381  0.028550575  0.029507762            6 
  785000    1.1012185   -7.0629377    269.77239  0.028638258  0.029495294            2 
  786000    1.1345485   -7.0980166    269.52664  0.028575768  0.029482822            3 
  787000    1.1129805   -7.0858196    270.16843  0.028607415  0.029470127            2 
  788000    1.1349202   -7.0875835    270.24984  0.028579721  0.029457814            4 
  789000    1.1490414   -7.0421831    271.23091  0.028647117  0.029445513            7 
  790000    1.1376094   -7.0837477     270.8929    0.0285752  0.029433191            5 
  791000    1.1220262   -7.0711572    270.98921  0.028549222  0.029420994            2 
  792000    1.1559125   -7.1370576    270.79386   0.02849262  0.029408487            4 
  793000    1.1116632   -7.0563243    272.67597  0.028654473  0.029396646            2 
  794000     1.121077   -7.0929311    272.59633  0.028610027  0.029385035            3 
  795000    1.1187111   -7.0725452    272.58796  0.028573162    0.0293732            2 
  796000    1.1224768    -7.055721     274.1075  0.028696347    0.0293614            3 
  797000    1.0901953   -7.1095925    273.36661  0.028582874   0.02934959            4 
  798000     1.096295   -7.0984145    273.44901  0.028555661  0.029337797            2 
  799000    1.1317954   -7.0665604    274.07002  0.028584691  0.029326401            2 
  800000    1.1161071   -7.0717993    275.37521  0.028684917  0.029315394            5 
  801000    1.1523271   -7.1043882    275.34182  0.028645632  0.029304555            3 
  802000    1.1220162   -7.0693586    276.18075  0.028697086  0.029294158            2 
  803000    1.1385256    -7.079539    276.43703  0.028687945  0.029283834            2 
  804000    1.1204205   -7.0834652     276.7173  0.028681312  0.029273534            2 
  805000    1.1175517   -7.1051531    276.46302   0.02861936  0.029263143            7 
  806000    1.1128199   -7.0978986    276.35076  0.028572246  0.029252651            4 
  807000    1.1034408   -7.0983465    277.88556  0.028695329  0.029242282            3 
  808000    1.1141323   -7.0915536    277.88501  0.028659757  0.029232038            3 
  809000    1.1204785   -7.1100838     277.5574  0.028590585  0.029221417            5 
  810000    1.1352772    -7.095247    277.87997  0.028588474  0.029210929            3 
  811000    1.1209399   -7.0786571    277.44789  0.028508826  0.029200551            9 
  812000     1.114169   -7.0497641    279.56373  0.028690859  0.029190495            3 
  813000    1.1293074   -7.0911888    277.57795  0.028452024  0.029180196            2 
  814000    1.1192834   -7.0781619    279.51827  0.028615712  0.029170137            3 
  815000    1.1345531   -7.0800119    280.08587  0.028638637  0.029160111            5 
  816000     1.143791   -7.1097007    279.86496   0.02858098  0.029150053            2 
  817000     1.106487   -7.1061689    279.73726  0.028532972  0.029140086            6 
  818000    1.1267003   -7.1308888    279.88861  0.028513509  0.029129874            6 
  819000    1.1307922    -7.100728    280.81045  0.028572492  0.029119725            4 
  820000      1.15457   -7.0911386    281.19165  0.028576387  0.029109761            3 
  821000    1.1232601   -7.0676274    281.40366    0.0285631  0.029100056            3 
  822000    1.1341147   -7.1302289    281.63059  0.028551358  0.029090196            3 
  823000    1.0945923   -7.0882174    282.08709  0.028562889  0.029080371            3 
  824000    1.1320129   -7.0688697    282.10645  0.028530183  0.029070601            4 
  825000    1.1239888   -7.0915557     282.3865  0.028523889  0.029061116            2 
  826000     1.094718   -7.1109552     282.8288  0.028533979  0.029051421            2 
  827000    1.1126591   -7.0934767    283.45718  0.028562795  0.029041588            2 
  828000    1.1300982   -7.0712319    283.95308  0.028578208  0.029031734            3 
  829000    1.1217692   -7.1132032    283.68297  0.028516583  0.029021952            2 
  830000    1.1276126   -7.1108926    283.46193  0.028460033  0.029012024            3 
  831000     1.104947   -7.0729821     284.4146  0.028521319  0.029002297            4 
  832000    1.1039171   -7.1031234    285.07197  0.028552881  0.028993068            2 
  833000    1.0991965   -7.1085241    285.00405   0.02851181  0.028983674            4 
  834000    1.1318764   -7.1057497    285.44184  0.028521367  0.028974489            8 
  835000     1.144155   -7.0902506    286.12061  0.028554952  0.028965203            2 
  836000    1.1137973   -7.0971039    285.80103  0.028488938  0.028955997            5 
  837000    1.1297836   -7.1402856    286.08433  0.028483107    0.0289465            4 
  838000    1.1025202   -7.1339736    285.62022  0.028402966  0.028936707            4 
  839000    1.1286681   -7.1532175    285.56854  0.028363978  0.028927034            3 
  840000    1.1233241   -7.1071134    285.54702  0.028328078  0.028917299            5 
  841000    1.1286967   -7.1280601    287.51502    0.0284894  0.028907671            4 
  842000    1.1276475   -7.1082455    286.63993  0.028368956  0.028897761            3 
  843000    1.1069094   -7.1220656    287.55837  0.028426094  0.028888119            2 
  844000    1.1302971   -7.0633475    287.83772  0.028419996  0.028878739            2 
  845000      1.13008   -7.0758119    289.16579  0.028517336  0.028869249            8 
  846000    1.1020421   -7.1483634    287.52304  0.028321813  0.028859548            3 
  847000    1.0921262   -7.0946673    288.41843  0.028376469  0.028850072            1 
  848000     1.117265    -7.118384    288.72821  0.028373448  0.028840431            3 
  849000    1.1178478   -7.0929086    290.35386  0.028499594  0.028831101            4 
  850000     1.100901   -7.1034089    289.49975  0.028382329  0.028821943            3 
  851000    1.0964745   -7.0844525    289.86023  0.028384276  0.028812707           11 
  852000    1.1167057   -7.0950742    289.90389  0.028355232  0.028803413            5 
  853000    1.1176323   -7.1598179    289.14667  0.028248014  0.028793625            5 
  854000    1.0922202   -7.1529986    289.87089  0.028285606   0.02878387            2 
  855000    1.1084295   -7.1325172    290.57679  0.028321324  0.028774296            3 
  856000    1.1004358   -7.1356046    291.13849  0.028342922  0.028765031            2 
  857000    1.0988939   -7.0940053     291.5033  0.028345323  0.028755771            6 
  858000    1.0783225   -7.0895268    292.22672  0.028382549  0.028746291            3 
  859000    1.1120594   -7.1173875    292.14246  0.028341333  0.028736841            4 
  860000    1.1064401   -7.0798652    291.96684   0.02829136  0.028727533            2 
  861000        1.116   -7.1287987    292.45611  0.028305856  0.028718357            3 
  862000    1.1058964   -7.0967975    293.50141  0.028374073  0.028709203            5 
  863000    1.1054539   -7.1555404    291.62605  0.028160105  0.028699858            5 
  864000    1.0990868   -7.0790101    292.87659  0.028248127  0.028690398            5 
  865000    1.1129066   -7.0800285    293.80367  0.028304785  0.028680997            1 
  866000      1.11236   -7.0966231    293.96247  0.028287382  0.028671796            2 
  867000    1.1076986   -7.1012819     293.7258  0.028232007  0.028662221            2 
  868000    1.0864786   -7.1469723    293.78517  0.028205181  0.028652973            5 
  869000    1.1196556    -7.108686    293.74917  0.028169273  0.028643622            6 
  870000    1.0989623   -7.1260085    295.16185  0.028272208  0.028634442            3 
  871000    1.1049523    -7.155068    293.93212  0.028122093  0.028625151            4 
  872000    1.0857989   -7.1789425    294.43381  0.028137787  0.028615478            4 
  873000    1.1312642   -7.1806894    295.22274  0.028180865  0.028605795            6 
  874000    1.0950539   -7.1406984    294.52667  0.028082253  0.028596613            3 
  875000    1.0874496   -7.1253586    295.54589  0.028147228   0.02858726            3 
  876000    1.1264729   -7.0934082    295.76312  0.028135761  0.028577841            5 
  877000    1.0986514   -7.1657157    295.93573  0.028120081  0.028568484            2 
  878000    1.1378999   -7.1446471    295.57142  0.028053476  0.028558782            4 
  879000    1.1183086   -7.1280002    295.66911  0.028030822  0.028549013            3 
  880000    1.1308397   -7.1208027    295.55855  0.027988499  0.028538957            3 
  881000     1.119834   -7.0736514    296.56721  0.028052138  0.028529029            2 
  882000    1.0925742   -7.1296259    296.30707  0.027995755  0.028519134            4 
  883000    1.1316619    -7.113089    296.74179  0.028005077  0.028509229            4 
  884000    1.1137197   -7.1125307    297.45429  0.028040562  0.028499216            2 
  885000    1.1128493   -7.1383498    296.44213  0.027913572  0.028489078            3 
  886000     1.099736   -7.0965101    297.70731  0.028001064  0.028479253            3 
  887000    1.1258855   -7.1554981    297.37203  0.027937996  0.028469411            1 
  888000    1.1233694   -7.1116737    298.17246   0.02798165  0.028459395            3 
  889000    1.1086018   -7.1618025    297.39988  0.027877754  0.028448985            3 
  890000    1.1060919   -7.1582238    298.31766  0.027932365  0.028438804            5 
  891000    1.0999856   -7.1136223    298.84872  0.027950684  0.028429001            1 
  892000    1.0883181   -7.0860838    298.92472   0.02792645  0.028419371            1 
  893000     1.099892   -7.1290911    299.32187  0.027932239  0.028409528            2 
  894000    1.0899489   -7.1714219    298.07975  0.027785211  0.028399475            3 
  895000    1.1029723   -7.1386185    300.37919  0.027968267   0.02838908            2 
  896000    1.1239939   -7.0711752    301.47137  0.028038632  0.028379287            2 
  897000    1.0971034    -7.131031    300.36351  0.027904451  0.028369741            2 
  898000    1.1038429   -7.1493048    299.78743  0.027819917  0.028359954            3 
  899000    1.0876552   -7.1367102    301.23276  0.027922948  0.028350549            3 
  900000    1.1130692   -7.1587853    301.14559  0.027883851  0.028340811            6 
  901000    1.1016917    -7.121463    301.94315   0.02792667  0.028331057            5 
  902000    1.1262546   -7.1551021    302.30732  0.027929353  0.028321212            8 
  903000    1.0900529    -7.133583    302.50345  0.027916523  0.028311718            2 
  904000    1.0975016   -7.1756446     301.7855  0.027819459  0.028302046            5 
  905000    1.1265501   -7.1384988    302.45462  0.027850333  0.028292394            3 
  906000    1.1086771   -7.0873569    303.21535  0.027889565  0.028282896            4 
  907000    1.1199796   -7.1252416    302.57589  0.027800064  0.028273431            6 
  908000    1.1121871   -7.1820581    302.31184  0.027745213  0.028263904            5 
  909000    1.0821639    -7.155868    302.65837  0.027746459  0.028254053            2 
  910000    1.1023325    -7.157115    303.05259  0.027752069  0.028244222            3 
  911000     1.107393   -7.1287487    303.47489  0.027760235  0.028234536            3 
  912000    1.1041833   -7.1440736    303.72844  0.027752965  0.028224708            4 
  913000    1.0952096   -7.1478412    303.96735  0.027744373  0.028215211            5 
  914000    1.1054288   -7.1485608      304.775  0.027787655  0.028205484            2 
  915000    1.0866338   -7.0793639    306.18134  0.027885368  0.028196225            3 
  916000    1.1008733   -7.1604679    305.19412  0.027765113  0.028187014            2 
  917000    1.1067089   -7.1665105    305.68945  0.027779849  0.028177754            2 
  918000    1.0902389   -7.1318051    306.85944  0.027855795  0.028168481            8 
  919000    1.1017134   -7.1236181    306.91787  0.027830782   0.02815954            3 
  920000    1.1133813   -7.1813642    306.03971  0.027720988  0.028150276            2 
  921000    1.0985881   -7.1539119      306.618  0.027743213  0.028140891            3 
  922000    1.0892697   -7.1505547    307.24024  0.027769364  0.028131351            4 
  923000    1.1142264    -7.126659    306.90973  0.027709437  0.028122158            3 
  924000    1.0806708   -7.1193421    307.62163  0.027743654  0.028112898            2 
  925000    1.1083464   -7.1799069    306.87684  0.027646562  0.028103501            6 
  926000     1.108337   -7.1622896    309.08396  0.027815332  0.028094265            3 
  927000    1.1058299    -7.167963    308.19264  0.027705199  0.028085071            2 
  928000    1.1097745   -7.1534419    308.85452  0.027734781  0.028075808            2 
  929000    1.0842366   -7.1613688    307.70185  0.027601529  0.028066412            2 
  930000    1.1072353   -7.1434174    309.52378  0.027735105  0.028057069            2 
  931000    1.1219813   -7.1293168    309.69877  0.027720978  0.028047984            2 
  932000    1.0929258   -7.1622814    308.27011  0.027563493  0.028038663            3 
  933000     1.080637   -7.1546855    310.22218  0.027708305  0.028029227            8 
  934000    1.1105306   -7.1658598    308.73674  0.027546104  0.028019864            2 
  935000     1.123555   -7.1666969    309.71384  0.027603729  0.028010538            5 
  936000    1.0881729   -7.0895597    310.91176  0.027680891  0.028001317            5 
  937000    1.1128783   -7.1615389    309.89575  0.027560988  0.027992131            5 
  938000    1.0988614   -7.1733998    310.48574  0.027584021  0.027982946            4 
  939000    1.1103287   -7.1041307    311.54982  0.027649079  0.027973884            3 
  940000    1.0790643   -7.1667461       310.87  0.027559398  0.027964925            4 
  941000    1.0913941   -7.1805346    310.91616  0.027534197  0.027955455            2 
  942000    1.1140165   -7.1441736    312.07439   0.02760743  0.027946431            2 
  943000    1.1163557   -7.1083276    313.03834  0.027663338   0.02793713            2 
  944000    1.0972424   -7.1781815    311.52841  0.027500742  0.027927884            4 
  945000    1.1120285   -7.1713581    311.72203  0.027488715  0.027918577            4 
  946000    1.1111335   -7.1739683    312.85642  0.027559586   0.02790958            4 
  947000    1.1074486   -7.1554169    312.62834  0.027510414  0.027900376            4 
  948000    1.1072389   -7.1806239    312.64618  0.027482962  0.027891028            4 
  949000    1.0873653   -7.1365288    313.64318  0.027541551  0.027881822            2 
  950000    1.1123761   -7.1229582    314.63345  0.027599425  0.027872859            3 
  951000    1.0868173   -7.1308803    313.78623  0.027496165  0.027863637            4 
  952000    1.1184489   -7.1502283    314.05156  0.027490508  0.027854386            4 
  953000    1.0850754    -7.167926    313.29872  0.027395831  0.027845193            7 
  954000    1.0787928   -7.2097483    314.22292  0.027447845  0.027835787            3 
  955000    1.1051173   -7.1549293    314.40268  0.027434789  0.027826643            4 
  956000    1.1173802   -7.1407369    314.56325  0.027420088  0.027817407            4 
  957000    1.1054618   -7.1688854    316.08118  0.027523614  0.027808472            3 
  958000    1.0616621   -7.1726615    315.79044  0.027469593  0.027799522            2 
  959000    1.0929834    -7.124913    316.80931  0.027529485  0.027790345            2 
  960000    1.0827765   -7.1507237    315.79222  0.027412519  0.027781031            4 
  961000    1.1082008   -7.2066804    315.92906  0.027395861  0.027771756            5 
  962000    1.0902866   -7.1384301    316.84859  0.027447037  0.027762443            2 
  963000    1.0980274   -7.1498457    316.50898  0.027389147  0.027753154            5 
  964000    1.1054974   -7.1667862    316.64768  0.027372725  0.027744159            5 
  965000     1.087782   -7.2119591    316.40016  0.027322984  0.027734769            2 
  966000    1.0970876   -7.1463526    317.45098   0.02738535  0.027725578            3 
  967000    1.1031282   -7.1366255    318.66304  0.027461482   0.02771647            7 
  968000    1.0913503   -7.1219922    318.30925  0.027402656  0.027707538            7 
  969000    1.0917331   -7.1558436    318.29968  0.027373554   0.02769836            4 
  970000    1.0855938   -7.1868018    317.25555  0.027255632   0.02768919            4 
  971000    1.0858223   -7.1846473    317.86625  0.027279973  0.027679731            5 
  972000    1.1008739   -7.1854636    319.41726  0.027384882  0.027670485            3 
  973000    1.0979033   -7.1797856    318.18997  0.027251625  0.027661428            1 
  974000    1.1135356   -7.1670366    320.13943  0.027390437   0.02765242            2 
  975000    1.0846344   -7.1749769    320.15284  0.027363491  0.027643531            1 
  976000    1.0581671   -7.1627641    319.88039  0.027312192  0.027634701            1 
  977000    1.0937595    -7.141455    320.85052  0.027366984  0.027626014            2 
  978000    1.0910371   -7.1801685    320.11889  0.027276661  0.027617117            6 
  979000    1.1187799   -7.1636945    320.42469  0.027274829  0.027608138            4 
  980000    1.1048847   -7.1452268    321.34843  0.027325547  0.027599351            3 
  981000    1.1008838   -7.1874916    321.57483  0.027316924  0.027590435            4 
  982000    1.0816861   -7.1935591    321.87538  0.027314611    0.0275815            4 
  983000     1.077769   -7.1983622    321.94387   0.02729263  0.027572697            3 
  984000    1.1149825   -7.1870001    321.77853  0.027250892  0.027564081            4 
  985000    1.1033534   -7.1280779    323.96909  0.027408553  0.027555444            3 
  986000    1.1031067   -7.1895671    322.75298  0.027277974  0.027546614            3 
  987000    1.0990402   -7.1757145    322.67914  0.027244101  0.027537872            2 
  988000    1.0964396   -7.1832683    322.77484  0.027224598  0.027529128            3 
  989000    1.0851125   -7.1298764     324.6036  0.027351163  0.027520546            2 
  990000    1.1042644   -7.2081836    323.29799  0.027213636  0.027511969            3 
  991000    1.1099299   -7.1688708    324.38754  0.027277795  0.027503336            3 
  992000    1.0969395   -7.2145792    323.60605  0.027184648  0.027494754            6 
  993000    1.1056414   -7.1953057    324.32608  0.027217697    0.0274862            3 
  994000     1.080818   -7.1104331    325.69772  0.027305309  0.027477794            3 
  995000    1.0862658   -7.1372945    325.21583  0.027237507  0.027469604            9 
  996000    1.1123223   -7.1255044    327.07155  0.027365424  0.027461545            2 
  997000    1.0932565   -7.1876003    326.04537  0.027252204  0.027453173            3 
  998000    1.0968175   -7.1915066    325.68006  0.027194394  0.027444607            3 
  999000    1.1076098   -7.1719791    326.19418  0.027210058  0.027436365            3 
 1000000    1.0716487   -7.1197182    327.11364   0.02725947   0.02742834            3 
 1001000    1.0983419   -7.1585303    327.30941  0.027248535  0.027420196            1 
 1002000     1.075679   -7.1811541    327.60695  0.027246087  0.027411813            2 
 1003000     1.093863   -7.1758921    327.43928  0.027204992  0.027403674            5 
 1004000    1.0668493    -7.155084    326.68235  0.027115069  0.027395508            4 
 1005000    1.0887447   -7.1503337     328.1009  0.027205713  0.027387362            3 
 1006000    1.0894391    -7.175521    327.73145  0.027148066  0.027379117            4 
 1007000    1.1074126   -7.1699109    328.82406  0.027211524  0.027370937            3 
 1008000    1.0821852   -7.2180393    327.17787  0.027048435  0.027362673            4 
 1009000    1.1018545   -7.1821886    328.69046  0.027146552  0.027354455            4 
 1010000    1.1148988   -7.1610952    330.33004  0.027254954  0.027346342            3 
 1011000    1.0998982    -7.219285    329.44457  0.027155009  0.027338245            9 
 1012000    1.1020178    -7.208621    330.18056  0.027188781   0.02733001            4 
 1013000    1.1082801   -7.2315807    329.73887  0.027125607  0.027321716            7 
 1014000    1.0981607   -7.2169962    329.85154  0.027108114  0.027313526            7 
 1015000    1.0794723    -7.196104    330.60909  0.027143604   0.02730536            3 
 1016000    1.0828239   -7.1806579    331.68508  0.027205141  0.027297341            7 
 1017000    1.0793991   -7.1625316    331.58347  0.027170065  0.027289439            3 
 1018000    1.0664094   -7.2158532    329.99055  0.027012978  0.027281418            4 
 1019000    1.0893432   -7.2133261    331.71233  0.027127276  0.027273358            4 
 1020000    1.0915488   -7.1999353    333.04092  0.027209226  0.027265524            4 
 1021000     1.085127   -7.1971113    332.63792  0.027149683  0.027257795            3 
 1022000    1.0678083   -7.2148971    331.92053  0.027064622  0.027249957            3 
 1023000    1.0744787   -7.2222778    332.67533  0.027099652  0.027242101            3 
 1024000     1.094439    -7.186962    333.95184  0.027177071  0.027234214            3 
 1025000    1.0729714   -7.1992381    332.34724  0.027020101  0.027226331            2 
 1026000    1.0738256    -7.162879    334.15631  0.027140701  0.027218497            4 
 1027000    1.1146031   -7.2010803    334.55612  0.027146715   0.02721067            3 
 1028000    1.0840481   -7.1628536    334.63251  0.027126501   0.02720288            7 
 1029000    1.0899662   -7.1711467    334.57333  0.027095346  0.027195289            7 
 1030000    1.1055881   -7.2123059    334.98833  0.027102616  0.027187494            4 
 1031000    1.0886361   -7.2186603    334.14006  0.027007764  0.027179599            6 
 1032000    1.0974855   -7.2154254    334.73877   0.02702994  0.027171532            3 
 1033000    1.0804727   -7.1735153    335.61938  0.027074813  0.027163253            3 
 1034000    1.0991878   -7.1900512    335.67018  0.027052723  0.027155301            4 
 1035000    1.0721138   -7.1892361    335.53714  0.027015873  0.027147228            7 
 1036000    1.0901022   -7.1728459    335.45731  0.026983375  0.027139353            4 
 1037000    1.0960928   -7.1655479    337.05621  0.027085842  0.027131537            2 
 1038000    1.0848986   -7.1977653    336.16545  0.026988234  0.027123603            6 
 1039000    1.0819414   -7.2019994    335.77143  0.026930657  0.027115696            3 
 1040000    1.0867514   -7.2153551    337.21854  0.027020716  0.027107697            3 
 1041000    1.0697648   -7.2098416    336.57668  0.026943378  0.027099749            2 
 1042000    1.0962166   -7.2178418    337.58437   0.02699811  0.027091862            2 
 1043000    1.0956858   -7.1779509    337.53068  0.026967935  0.027083811            3 
 1044000    1.0834078   -7.1953629    337.38678  0.026930618  0.027075881            4 
 1045000    1.0812114   -7.2270116    337.49243  0.026913272  0.027067941            5 
 1046000    1.1138081   -7.1759124    338.29077  0.026951145  0.027059999            3 
 1047000    1.0758289   -7.2055444    338.49019  0.026941276  0.027052167            5 
 1048000    1.0742184   -7.1773577    338.98133  0.026954622  0.027044232            2 
 1049000    1.1006128   -7.1845975    339.78315  0.026992624  0.027036461            3 
 1050000    1.0811762   -7.1807614     339.3435  0.026932024  0.027028627            7 
 1051000    1.0745416   -7.1966773    338.87231  0.026869039  0.027020889            3 
 1052000    1.0731956   -7.1851979    340.51286  0.026973452   0.02701319            3 
 1053000    1.0774056   -7.1778656    340.80193  0.026970713  0.027005466            2 
 1054000    1.0765907   -7.1924982    340.81411  0.026946087  0.026997769            3 
 1055000    1.0737475   -7.1929154    341.05023  0.026939196  0.026990223            4 
 1056000    1.1036222   -7.2021609    341.76706  0.026970254  0.026982827            2 
 1057000    1.0965321   -7.1841296    341.69913  0.026939383  0.026975428            3 
 1058000    1.0972469   -7.1721459    342.24328   0.02695678  0.026967785            2 
 1059000    1.0978703   -7.2063647    341.13639  0.026844223   0.02696023            3 
 1060000    1.0717859   -7.1933163    342.71881  0.026943303  0.026952705            2 
 1061000    1.0574972   -7.2222873    341.51051  0.026823006  0.026944833            3 
 1062000    1.0926987   -7.1903865    342.72239  0.026892843  0.026937125            3 
 1063000    1.0772455   -7.1623445     342.7007  0.026865843  0.026929358            2 
 1064000    1.0742613    -7.244484    340.62484  0.026678011  0.026921449            6 
 1065000    1.1027593   -7.1727456    343.37833  0.026868414  0.026913659            4 
 1066000    1.0730538   -7.1961497    342.44261   0.02677006  0.026905804            2 
 1067000    1.0965798   -7.2031952    343.36268  0.026816829  0.026897768            2 
 1068000     1.050148   -7.2187882    343.39751  0.026794437   0.02688991            3 
 1069000     1.063894   -7.2036823    343.98379  0.026815075  0.026881973            3 
 1070000    1.0540639   -7.2517276     342.6326  0.026684782  0.026874004            8 
 1071000    1.0794768   -7.1852308    344.58759  0.026811982  0.026866063            2 
 1072000    1.0705631   -7.1678357    345.00112  0.026819117  0.026858391            3 
 1073000     1.085005   -7.1828863    344.90355  0.026786544  0.026850685            3 
 1074000    1.0884543   -7.2079626    344.82159  0.026755244   0.02684284            3 
 1075000    1.0945415   -7.2274829    344.37024  0.026695367  0.026834783            5 
 1076000    1.0778587   -7.1916548    344.98431  0.026718116  0.026826885            3 
 1077000    1.0710306    -7.208637    345.54583  0.026736755  0.026818783            2 
 1078000    1.0870872    -7.194967     345.5655  0.026713474  0.026811052            3 
 1079000    1.0725371   -7.2327691    344.54267  0.026609721  0.026802944            3 
 1080000    1.0990622   -7.2621029    344.37416   0.02657208  0.026794699            7 
 1081000    1.0971203   -7.2103328    345.53899  0.026637295   0.02678648            4 
 1082000    1.0944094   -7.2414209    345.86513  0.026637795  0.026778297            3 
 1083000    1.0712961   -7.1940188    345.77843  0.026606527  0.026770274            2 
 1084000    1.0775143   -7.2264669     345.9772  0.026597263   0.02676214            5 
 1085000    1.0830629   -7.1958995    348.38035  0.026757323  0.026754179            2 
 1086000    1.0596886   -7.2082633    347.55448  0.026669313  0.026746266            4 
 1087000    1.0920624   -7.2002245    347.59739  0.026648067  0.026738238            5 
 1088000     1.060757   -7.1731573    348.01617   0.02665565  0.026730237            3 
 1089000    1.0915879   -7.2262553    347.11361  0.026562106  0.026722294            2 
 1090000    1.0722277   -7.1743031    348.19475  0.026620393  0.026714401            2 
 1091000    1.0751266   -7.2042984    347.48073  0.026541455  0.026706673            2 
 1092000    1.0746609   -7.2159517    348.19268   0.02657148  0.026698741            2 
 1093000    1.0925026   -7.2219751    348.50886  0.026571276  0.026690621            1 
 1094000     1.052915   -7.2372832    348.74361  0.026564869  0.026682548            3 
 1095000    1.0738552   -7.1945231    349.42265  0.026592287  0.026674552            2 
 1096000    1.0925253   -7.1971796    348.99108   0.02653521  0.026666659            6 
 1097000    1.0533437   -7.2252327     349.9234  0.026581844  0.026658713            2 
 1098000    1.0783601   -7.2286965    349.44355  0.026521217  0.026650742            3 
 1099000    1.0657581   -7.1989263    351.31903  0.026639296   0.02664291            3 
 1100000    1.0406351   -7.2416515     350.5777  0.026558917  0.026635231            3 
 1101000    1.0586385    -7.191176    351.62716  0.026614227   0.02662777            8 
 1102000     1.044823   -7.2264617    351.66652  0.026593052  0.026620405            4 
 1103000    1.0913901   -7.2517263    351.91311  0.026587573  0.026612857            4 
 1104000    1.0496879   -7.2400904    351.72982  0.026549654  0.026605038            7 
 1105000    1.0525308   -7.2266843    351.07485  0.026476233  0.026597392            3 
 1106000    1.0938793   -7.2340637    352.02517  0.026523898  0.026589913            2 
 1107000     1.089517   -7.2150253    350.85026  0.026411492  0.026582171            3 
 1108000    1.0674569    -7.223039    350.71009  0.026377113  0.026574163            2 
 1109000    1.0728322    -7.237639    352.12381  0.026459559  0.026566215            1 
 1110000    1.0650328   -7.2113876    353.32971  0.026526255  0.026558276            4 
 1111000    1.0553444   -7.2366159    353.42214  0.026509311  0.026550638            2 
 1112000    1.0890011   -7.2321441    353.45406  0.026487864  0.026543029            4 
 1113000    1.0784019   -7.1935029    354.58866  0.026549016   0.02653544            3 
 1114000    1.0968815   -7.2515846      355.472  0.026591263  0.026528056            2 
 1115000    1.0656336   -7.2203794    354.81261  0.026518132  0.026520789            6 
 1116000    1.0821698   -7.1974242    356.49978  0.026620354  0.026513629            2 
 1117000    1.0719929   -7.2541503    355.46382  0.026519234  0.026506597            6 
 1118000     1.066976   -7.2081399    356.53369   0.02657526  0.026499338            3 
 1119000    1.0916201   -7.2512553    356.31204  0.026535005  0.026491968            3 
 1120000    1.0517189   -7.2047275    356.81909   0.02654904  0.026484842            5 
 1121000    1.0638759   -7.2512793    356.48311   0.02650038  0.026477746            4 
 1122000    1.1002501   -7.2144517    356.70944  0.026493571  0.026470613            4 
 1123000    1.0901596   -7.2905563    356.30501  0.026439968  0.026463306            5 
 1124000    1.0520644   -7.1699014    357.60191  0.026512597  0.026456117            2 
 1125000    1.0579224   -7.2196963    357.18837  0.026458398  0.026448989            6 
 1126000    1.0741692   -7.2476692    356.40153  0.026376667  0.026441907            2 
 1127000    1.0866378   -7.2483454    357.47266  0.026432465  0.026434623           15 
 1128000    1.0561488   -7.2562969    357.48939  0.026410268  0.026427436            3 
 1129000    1.0691866   -7.2735963    356.91081   0.02634417  0.026420118            3 
 1130000    1.0595575   -7.2217588     359.3987  0.026504329  0.026412793            4 
 1131000    1.0629748   -7.2267341    358.70064  0.026429461  0.026405486            6 
 1132000    1.0460167   -7.2675686    358.23231  0.026371636   0.02639803            2 
 1133000    1.0808347   -7.2368537    359.32174  0.026428489  0.026390604            9 
 1134000    1.0889352    -7.240684    358.76091   0.02636397  0.026383191            4 
 1135000    1.0519503   -7.2302678    359.99574  0.026431405  0.026375847            3 
 1136000    1.1093024   -7.2264479    359.97633  0.026406714  0.026368723            3 
 1137000    1.0456198   -7.2843016    359.73166  0.026365557  0.026361609            3 
 1138000    1.0786287   -7.2469006    359.60909  0.026333413  0.026354221            6 
 1139000    1.1013174   -7.2480514     359.3292  0.026289815  0.026346841            4 
 1140000    1.0686476   -7.2531528    359.70312  0.026294088  0.026339572            3 
 1141000    1.0624057   -7.2071854    361.73098  0.026419148  0.026332216            6 
 1142000    1.0826391   -7.2575585    360.52591  0.026308079  0.026325149            3 
 1143000    1.0568991   -7.2304015    361.89649  0.026384987  0.026317945            4 
 1144000    1.0596761   -7.2355521    362.64348  0.026416337  0.026310886            3 
 1145000    1.0873965   -7.1991014    362.56107  0.026387269   0.02630371            3 
 1146000    1.0778016   -7.2456652    361.77127  0.026306811   0.02629669            3 
 1147000    1.0783057   -7.2529034    362.19064  0.026314345  0.026289601            3 
 1148000    1.0661233   -7.2164112    363.13448  0.026359936  0.026282604            2 
 1149000    1.0683295   -7.2406813    363.67873  0.026376467  0.026275693            4 
 1150000    1.0733974   -7.2176148    363.91008  0.026370296  0.026268766            5 
 1151000    1.0805306   -7.1967733    364.00519  0.026354271  0.026261845            2 
 1152000    1.0852326   -7.2608142     364.1945  0.026345088  0.026254948            3 
 1153000    1.0591301   -7.2648713    364.10883  0.026316047  0.026247943            1 
 1154000    1.0417108   -7.2291076    365.11458  0.026365871  0.026241094            3 
 1155000    1.0595516   -7.2786656    364.86872  0.026325305  0.026234267            5 
 1156000    1.0666247   -7.2217581    365.69573  0.026362149  0.026227406            3 
 1157000    1.0782207   -7.2644753    365.38455  0.026316951  0.026220401            3 
 1158000     1.050737   -7.2569364    364.50766  0.026231121  0.026213377            2 
 1159000    1.0683766   -7.2296976    365.14478  0.026254298  0.026206148            9 
 1160000    1.0681884    -7.213046     365.1832  0.026234425  0.026198801            2 
 1161000    1.0466275   -7.2352214    364.84097  0.026187265  0.026191355            5 
 1162000    1.0890924   -7.2405201    364.94315  0.026172056  0.026183912            2 
 1163000    1.0639913   -7.2346611    365.49525  0.026189112  0.026176656            4 
 1164000    1.0801077   -7.2969612    364.82167   0.02611839  0.026169359            6 
 1165000    1.0753464   -7.2353348    367.36253   0.02627772  0.026161961            4 
 1166000    1.0586196   -7.2688365    365.49896  0.026121995   0.02615465            8 
 1167000    1.0605257   -7.2634642     364.6611  0.026039781  0.026146945            6 
 1168000    1.0608644   -7.3131334    364.64121  0.026016068  0.026139344            6 
 1169000    1.0948114   -7.2182468    365.85014  0.026079993  0.026131822            3 
 1170000    1.0517751   -7.2499548     365.2748  0.026016724  0.026124172            6 
 1171000    1.0475005   -7.2958502    365.31623  0.025997455  0.026116597            3 
 1172000    1.0264904   -7.2797821    365.72943  0.026004653  0.026108896            4 
 1173000    1.0657288   -7.2821594    366.62611  0.026046186  0.026101185            4 
 1174000    1.0747751   -7.2479134    368.03388  0.026123927  0.026093853            6 
 1175000    1.0822383   -7.3063215     365.6386  0.025931815  0.026086416            3 
 1176000    1.0626579   -7.2837491    367.55987  0.026045909  0.026078914            3 
 1177000    1.0341928    -7.251093    368.57363  0.026095556  0.026071587            2 
 1178000    1.0591259   -7.2196515    368.49006  0.026067491   0.02606424            3 
 1179000    1.0626667   -7.2981973    368.72555  0.026062026  0.026057127            3 
 1180000    1.0492672   -7.2777936     368.7405  0.026040995  0.026049883            4 
 1181000    1.0562963   -7.2466304    370.52003  0.026144512  0.026042892            2 
 1182000    1.0635051    -7.186938    371.57418  0.026196713  0.026035942            5 
 1183000    1.0632881   -7.2734968    370.07018  0.026068623  0.026028938            6 
 1184000    1.0527283   -7.2537154    370.87452  0.026103218  0.026021691            2 
 1185000    1.0751539     -7.24098    371.10394  0.026097324  0.026014571            5 
 1186000    1.0693644   -7.2233109    371.49806  0.026103012  0.026007466            5 
 1187000    1.0682811    -7.237571    370.93527   0.02604151  0.026000349            6 
 1188000    1.0808828   -7.2675367    370.37388   0.02598021  0.025992982           10 
 1189000    1.0901015   -7.2808933    370.91052  0.025995971  0.025985626            5 
 1190000    1.0529434    -7.265303    370.64197   0.02595532  0.025978291            5 
 1191000    1.0320225   -7.2512441    371.92507  0.026023304  0.025971029            4 
 1192000    1.0592531   -7.2252791    371.36868  0.025962575  0.025963904            2 
 1193000    1.0811795   -7.2880046     371.2553  0.025932893  0.025956794            4 
 1194000    1.0285285   -7.2338489    372.33036  0.025986206  0.025949642            3 
 1195000    1.0614402   -7.2198812    372.80826  0.025997787  0.025942478            2 
 1196000    1.0653986   -7.2583363    373.35691  0.026014277  0.025935222            3 
 1197000    1.0518432   -7.2581952    372.47984  0.025931485  0.025928017            3 
 1198000    1.0566543   -7.2791969    372.11182  0.025884239  0.025920843            3 
 1199000    1.0738274   -7.2601034    373.04206  0.025927305   0.02591364            3 
 1200000     1.092177   -7.2433315    374.48006   0.02600556    0.0259067            4 
 1201000    1.0716182   -7.2714727    373.66373  0.025927264  0.025899621            3 
 1202000    1.0638743   -7.2931528    373.02578  0.025861465  0.025892297            3 
 1203000    1.0505927   -7.2719367    373.95606   0.02590441    0.0258851            4 
 1204000     1.046297   -7.2824207    372.97778  0.025815184  0.025877728            4 
 1205000    1.0588867   -7.2792469    374.78028  0.025918415  0.025870418            7 
 1206000    1.0721597   -7.2630684    374.43475  0.025873048  0.025863195            1 
 1207000    1.0497287   -7.2801991    374.13801  0.025831124   0.02585611            3 
 1208000    1.0386713   -7.2436263    374.33811  0.025823545  0.025848948            3 
 1209000    1.0673483   -7.2829153    375.23046  0.025863693  0.025841697            5 
 1210000    1.0314802   -7.3094542    374.37512   0.02578341  0.025834481            4 
 1211000    1.0420436   -7.2590937     376.3877  0.025900612  0.025827247            5 
 1212000     1.052094   -7.2789679    376.19284  0.025865845  0.025820016            2 
 1213000    1.0672382   -7.3105853    376.11121  0.025838913  0.025812717            7 
 1214000    1.0795916   -7.2817255    375.77871  0.025794805  0.025805539            5 
 1215000    1.0463729   -7.2330257     377.2805  0.025876578   0.02579839            4 
 1216000    1.0621372   -7.2825916     376.1934  0.025780798  0.025791118            4 
 1217000    1.0701988   -7.2513209    376.66522  0.025791921  0.025783799            4 
 1218000    1.0473664     -7.32276    375.73081  0.025706815  0.025776478            2 
 1219000    1.0551743   -7.2878676    376.95412  0.025769355  0.025769165            6 
 1220000     1.040914   -7.2916763    377.84592  0.025809148  0.025761859            5 
 1221000    1.0436397   -7.2843804    377.78043   0.02578354  0.025754605            3 
 1222000     1.029675   -7.2637099     378.3424  0.025800763   0.02574744            2 
 1223000    1.0655924   -7.2784263    378.71096  0.025804781  0.025740377            5 
 1224000    1.0668013   -7.2856209    378.34936   0.02575908  0.025733403            6 
 1225000    1.0762006   -7.2842833    378.56661  0.025752831  0.025726463            7 
 1226000    1.0356248   -7.2195333    382.56833  0.026003829  0.025719719            7 
 1227000    1.0532905   -7.2813621    379.89425  0.025801022  0.025712957            6 
 1228000     1.055391   -7.2589439    379.63337  0.025762308  0.025705958            4 
 1229000    1.0652425   -7.3095535    379.66366    0.0257434  0.025698825            3 
 1230000    1.0535023    -7.241696    381.26213  0.025830768  0.025691967            2 
 1231000     1.034747   -7.2847917    378.84302  0.025646021  0.025685028            6 
 1232000    1.0671664   -7.2973023    380.45283  0.025734093  0.025677915            4 
 1233000    1.0638088   -7.2744548    380.18117  0.025694861  0.025670761            4 
 1234000    1.0899051   -7.2859462    380.13492  0.025670916  0.025663709            4 
 1235000     1.044141   -7.3065923    380.09281  0.025647288  0.025656488            3 
 1236000    1.0322112   -7.2888111    380.97959  0.025686326  0.025649124            4 
 1237000    1.0614851   -7.2700962    381.00641  0.025667368  0.025641799            4 
 1238000    1.0736998   -7.2714495    381.61811   0.02568781  0.025634501            6 
 1239000    1.0591773   -7.3079787    381.03224  0.025627673  0.025627102            6 
 1240000      1.04753   -7.2476347    380.75901  0.025588643  0.025619734            3 
 1241000    1.0671014   -7.2493819    380.46927  0.025548568  0.025612249            8 
 1242000     1.048786    -7.258989    381.81849  0.025618525  0.025604851            4 
 1243000    1.0545036    -7.292527    381.39933  0.025569813  0.025597523            3 
 1244000    1.0592194   -7.2930325    382.38139  0.025615045  0.025590039            2 
 1245000    1.0512739    -7.270906    381.26036  0.025519435  0.025582455            3 
 1246000     1.057815   -7.3397079     380.8488  0.025471428  0.025574829            6 
 1247000    1.0368996   -7.3042636    382.58837  0.025567253  0.025567242            2 
 1248000    1.0324605   -7.3210509    381.11572  0.025448432  0.025559646            4 
 1249000     1.044532   -7.2923727    381.98905  0.025486326  0.025551994            3 
 1250000    1.0582299   -7.2828997    381.74172  0.025449448  0.025544264            5 
 1251000    1.0318277   -7.3090029    381.42868  0.025408252  0.025536465            3 
 1252000    1.0415377   -7.3116327    382.49632   0.02545902   0.02552854            4 
 1253000    1.0807335   -7.2714668    383.59552  0.025511806  0.025520827            2 
 1254000      1.07569   -7.3100581    381.94481  0.025381766  0.025513191            4 
 1255000    1.0421626   -7.3112785      381.909  0.025359163  0.025505214            4 
 1256000    1.0353111   -7.2977811    382.29766   0.02536476    0.0254972            3 
 1257000    1.0676195    -7.322393    383.16988  0.025402405  0.025489211            3 
 1258000    1.0541347   -7.2380772    383.97962  0.025435852  0.025481549            8 
 1259000    1.0431854   -7.2890294    383.65194   0.02539396   0.02547389            6 
 1260000    1.0524694   -7.3038258    383.15689  0.025341064  0.025466187            3 
 1261000    1.0436949    -7.239841    386.68428  0.025554076  0.025458609            1 
 1262000    1.0467642   -7.2322253    385.24161  0.025438564  0.025451055            2 
 1263000    1.0668836   -7.2678298    386.05303   0.02547196  0.025443765            6 
 1264000    1.0485881   -7.2905635    385.19757  0.025395409  0.025436149            6 
 1265000    1.0299663   -7.3387797    385.12487  0.025370545  0.025428509            3 
 1266000    1.0633113   -7.2952965    385.32471  0.025363659   0.02542084            2 
 1267000    1.0498525   -7.2914789    386.03182  0.025390149  0.025413236            3 
 1268000    1.0405215   -7.2689523    385.91788  0.025362637  0.025405575            4 
 1269000    1.0323186   -7.3012756    386.42808  0.025376155  0.025398191            3 
 1270000    1.0292426   -7.2900533    386.10472  0.025334955  0.025390672            3 
 1271000    1.0415086   -7.2791404    387.33668  0.025395796  0.025383111            5 
 1272000    1.0571365   -7.2983778    387.07798  0.025358882  0.025375503            7 
 1273000    1.0343436   -7.3700087    384.51339  0.025171078  0.025367647            3 
 1274000     1.057781   -7.3188934    387.56673  0.025351042   0.02535982            2 
 1275000    1.0408531   -7.3157113    387.28603  0.025312812  0.025351962            6 
 1276000    1.0479407   -7.2865468    387.33429  0.025296127  0.025344209            4 
 1277000    1.0571386   -7.3041275    385.99131  0.025188679  0.025336483            3 
 1278000    1.0485336   -7.3462633    386.91226   0.02522902  0.025328666            4 
 1279000    1.0591755   -7.2679367    387.78992  0.025266479  0.025320878            2 
 1280000     1.037486   -7.3134019    387.52128   0.02522925  0.025313051            5 
 1281000    1.0229014   -7.2795905    387.57793   0.02521324  0.025305347            6 
 1282000    1.0444339   -7.2718856     388.8463  0.025276021  0.025297465            3 
 1283000     1.052978   -7.3073356     387.9464   0.02519787  0.025289597            3 
 1284000    1.0685655   -7.2902052     387.8023  0.025168893  0.025281728            4 
 1285000    1.0544123   -7.2688781    388.80445  0.025214296  0.025273781            5 
 1286000    1.0637353   -7.2990232    386.96746  0.025075652  0.025265812            5 
 1287000    1.0646074    -7.356838    388.29718  0.025142267  0.025257936            3 
 1288000    1.0507877   -7.3094517    388.28525  0.025121975  0.025249965            4 
 1289000    1.0559527   -7.3051247    389.25571  0.025165225  0.025242023            3 
 1290000    1.0520762   -7.3035588    388.27829  0.025082577  0.025234006            3 
 1291000    1.0306718   -7.3140726    388.40256   0.02507117  0.025226205            5 
 1292000    1.0407769   -7.3215526    389.11244  0.025097551  0.025218351            4 
 1293000      1.05373   -7.3208798    389.35381  0.025093698   0.02521059            2 
 1294000    1.0666565   -7.2789971    389.09197  0.025057443  0.025202784            3 
 1295000     1.072144   -7.2954192    390.89273  0.025153973  0.025195128            2 
 1296000    1.0425513   -7.2953513    389.79254  0.025063821  0.025187374            9 
 1297000    1.0457421   -7.2842368    391.27612  0.025139818  0.025179494            4 
 1298000    1.0330011   -7.3431614    389.56331  0.025010485  0.025171545            3 
 1299000    1.0602825   -7.3257046    390.68763  0.025063358   0.02516348            2 
 1300000    1.0470771   -7.3183229    389.48401  0.024966924  0.025155462            2 
 1301000    1.0534241   -7.2902984    390.84424  0.025034861  0.025147367            5 
 1302000    1.0588107   -7.3440569    390.23309  0.024976516  0.025139284            5 
 1303000    1.0410855   -7.3531493     390.7161  0.024988239  0.025131153            3 
 1304000    1.0206401   -7.2998902    391.21867  0.025001193   0.02512307            2 
 1305000    1.0500292    -7.319013    390.93759  0.024964086  0.025114954            4 
 1306000     1.018217   -7.3237589    390.54836  0.024920135   0.02510672            8 
 1307000    1.0462801   -7.3018293    391.41928  0.024956598  0.025098521            3 
 1308000    1.0370677   -7.3225501     392.4343  0.025002185  0.025090427            2 
 1309000    1.0495664     -7.33296    391.47167  0.024921802  0.025082175            4 
 1310000    1.0341567   -7.3642589     390.7556  0.024857226  0.025074054            4 
 1311000    1.0405717   -7.3028057    392.19897  0.024930013  0.025065947            6 
 1312000    1.0542211   -7.3061895    392.64118  0.024939099  0.025057953            2 
 1313000    1.0621814   -7.3124715    392.16308  0.024889761  0.025049898            4 
 1314000    1.0396528   -7.3592656    391.92735   0.02485587  0.025041784            9 
 1315000    1.0605729   -7.3134955    393.33505  0.024926175  0.025033734            4 
 1316000    1.0436812   -7.3007263    392.20802  0.024835868  0.025025482            3 
 1317000    1.0485132   -7.3187606    393.25793  0.024883443  0.025017277            6 
 1318000    1.0137401   -7.3127936    391.96591  0.024782873   0.02500896            4 
 1319000    1.0612632    -7.351526    392.45663  0.024795086  0.025000541            3 
 1320000    1.0320229   -7.2961627    393.98833  0.024873001  0.024992386           11 
 1321000    1.0410425   -7.2929276    394.26454  0.024871596  0.024984199            2 
 1322000    1.0485083   -7.3606402    392.02508  0.024711616  0.024976109            5 
 1323000    1.0498316   -7.3231415    393.85503  0.024808203   0.02496786            4 
 1324000    1.0398098     -7.30097    394.32974  0.024819344  0.024959731            3 
 1325000      1.02915   -7.3369566    394.71011  0.024824535  0.024951706            1 
 1326000    1.0402165   -7.3389857     394.8036  0.024811689  0.024943608            3 
 1327000    1.0598706    -7.298022    395.76899  0.024853616  0.024935555            5 
 1328000    1.0223725   -7.3484525    394.55067   0.02475845  0.024927567            2 
 1329000    1.0405596   -7.3645167      394.232  0.024719839  0.024919329            9 
 1330000    1.0326551   -7.3190054    395.32449  0.024769705  0.024911233            3 
 1331000    1.0560135   -7.3970555    394.60837  0.024706259  0.024903061            8 
 1332000    1.0578783   -7.3112093    395.65615  0.024753263  0.024894891            7 
 1333000    1.0218384   -7.3416715    395.35741  0.024716017   0.02488684            2 
 1334000    1.0300927   -7.3512869    395.86547  0.024729227   0.02487881            6 
 1335000    1.0454398   -7.3629693    394.81197  0.024644942  0.024870479            4 
 1336000     1.050328   -7.3161071    395.80691  0.024688555  0.024862139            3 
 1337000     1.014551   -7.3735566    394.33667  0.024578451  0.024853813            3 
 1338000    1.0237824   -7.3262672    395.92751  0.024659162  0.024845453            4 
 1339000    1.0373899   -7.3539136    395.69085  0.024626017  0.024837217            9 
 1340000    1.0365154   -7.3393187    395.91368  0.024621498  0.024828917            9 
 1341000    1.0089238   -7.2989446    397.63772  0.024710274  0.024820847            2 
 1342000    1.0440328   -7.3455671    396.90217  0.024646186  0.024812627            2 
 1343000    1.0217223   -7.3140871    396.95823  0.024631312  0.024804554            3 
 1344000    1.0302339   -7.3433459    397.62378  0.024654252  0.024796466            4 
 1345000    1.0242105   -7.3827642    396.59251  0.024572027  0.024788215            5 
 1346000     1.018108   -7.3693875    396.96526  0.024576849  0.024779822            6 
 1347000    1.0279541   -7.3443482    397.00266  0.024560917  0.024771453            5 
 1348000    1.0156546   -7.3231015    397.15559  0.024552151  0.024763064            8 
 1349000    1.0486206   -7.3605578    395.59042  0.024437263  0.024754611            4 
 1350000    1.0353951   -7.3375826    396.86753  0.024497995  0.024746223            3 
 1351000    1.0327731   -7.3111866    398.26918   0.02456632  0.024737785           11 
 1352000    1.0270134   -7.2911234    397.88148  0.024524253  0.024729441            8 
 1353000    1.0390253   -7.3150415    398.58493  0.024549454  0.024721066            2 
 1354000    1.0386088   -7.3041038    398.29631  0.024513559  0.024712715            5 
 1355000    1.0461165   -7.3407928    397.24392  0.024430745  0.024704155            6 
 1356000    1.0270782   -7.3102661    398.56637     0.024494  0.024695844            5 
 1357000    1.0475106   -7.3157434     399.2788    0.0245197    0.0246876            5 
 1358000    1.0434687   -7.3289856    399.78766  0.024532871  0.024679394            3 
 1359000    1.0359452   -7.3307628    399.83732  0.024517863  0.024671233            4 
 1360000    1.0223606   -7.3516658    399.08165  0.024453532   0.02466299            3 
 1361000    1.0376166   -7.3439056    399.13321  0.024438722  0.024654635            9 
 1362000    1.0375059   -7.3244114    400.66728   0.02451464  0.024646284            3 
 1363000    1.0439398   -7.3595867    399.53434  0.024427387   0.02463782            3 
 1364000      1.03426   -7.3765122    399.16014  0.024386617  0.024629305            3 
 1365000    1.0347605   -7.3214277      400.956  0.024478388  0.024620866            4 
 1366000    1.0416229   -7.3246085    401.29643  0.024481237  0.024612465           14 
 1367000    1.0329212   -7.3072251    400.43467  0.024410794  0.024604142            3 
 1368000     1.020054    -7.362862    400.72364  0.024410553  0.024595652            6 
 1369000    1.0404762   -7.3039622    399.63665  0.024326555  0.024587257            3 
 1370000    1.0323735    -7.331794     400.3875  0.024354471  0.024578827            7 
 1371000      1.01484   -7.3796512    400.66615  0.024353644  0.024570326            4 
 1372000    1.0242391    -7.334623    400.33207  0.024315602  0.024561819            2 
 1373000    1.0328508   -7.3355747    401.18292  0.024349534  0.024553325            3 
 1374000    1.0535656   -7.3576198    400.99809  0.024320602  0.024544928            5 
 1375000    1.0465614   -7.3548636    401.91598  0.024358544  0.024536487            4 
 1376000    1.0427174   -7.3934035    402.36603  0.024368098  0.024528078            6 
 1377000    1.0468915   -7.3400791    403.05145  0.024391881  0.024519955            8 
 1378000    1.0236832   -7.3250133    403.22008  0.024384378  0.024511762            4 
 1379000    1.0365116   -7.3635425    403.35841  0.024375055  0.024503661            4 
 1380000    1.0409669   -7.3369387     402.4134  0.024300326  0.024495508            4 
 1381000    1.0403095   -7.3514084    404.33919  0.024398937   0.02448735            3 
 1382000     1.032893   -7.3627061    404.98696  0.024420343  0.024479348            2 
 1383000    1.0300592    -7.354245    405.40193  0.024427689  0.024471506            5 
 1384000    1.0299766   -7.3493491    404.88884  0.024379145   0.02446367            3 
 1385000    1.0171281    -7.309255    405.76843  0.024414466   0.02445579            5 
 1386000    1.0424507   -7.3699819     404.9239  0.024346074  0.024447982            4 
 1387000    1.0326906   -7.3339989    406.93554  0.024449384   0.02444012           10 
 1388000    1.0444936   -7.3722162    404.90848  0.024310067  0.024432159            3 
 1389000    1.0274649   -7.3918482     403.8107  0.024226704  0.024424078            3 
 1390000   0.99956447   -7.3959247    405.34789  0.024301432  0.024415849            7 
 1391000    1.0162311   -7.3798267     405.1267  0.024270711  0.024407762            5 
 1392000    1.0378926   -7.3894923     405.6621  0.024285327  0.024399791            5 
 1393000    1.0187013   -7.3809174    406.38532  0.024311158  0.024391799            8 
 1394000      1.02676   -7.3609793    406.15449  0.024279919  0.024383802            6 
 1395000    1.0180283    -7.361218    406.87136  0.024305338  0.024375812            3 
 1396000    1.0256139   -7.3244239    407.53068  0.024327285  0.024368039            2 
 1397000   0.99494383   -7.3447356    406.05422  0.024221798    0.0243603            4 
 1398000    1.0208665   -7.3218113      408.546  0.024353004  0.024352552            4 
 1399000    1.0214708   -7.3333199    407.10593  0.024249817  0.024344763            3 
 1400000    1.0265018   -7.3728466    406.59135  0.024201866  0.024336855            4 
 1401000    1.0525537   -7.3215993    409.24656  0.024342527   0.02432909            6 
 1402000    1.0164752   -7.3421863    407.62092  0.024228538  0.024321454            5 
 1403000     1.034349    -7.343352    408.66297  0.024273163   0.02431363            2 
 1404000    1.0599181   -7.3435534    408.23549  0.024230501  0.024305808            4 
 1405000    1.0330453   -7.3174277    408.67391  0.024239259  0.024297942            3 
 1406000    1.0201286   -7.3683497    407.46202  0.024150191  0.024290082            3 
 1407000    1.0261563   -7.3663645    407.98296  0.024163881  0.024282204            3 
 1408000    1.0572432   -7.3925704    408.16157   0.02415729  0.024274353            5 
 1409000    1.0399604   -7.3607306     409.5626  0.024223007  0.024266538            2 
 1410000    1.0309708   -7.3344098    409.94764  0.024228584  0.024258659            6 
 1411000     1.039991   -7.3613653    409.54038   0.02418736  0.024250955            4 
 1412000    1.0458131   -7.3406917    409.52842  0.024169525  0.024243185            6 
 1413000    1.0071075   -7.3486415    409.37456  0.024143345  0.024235358            4 
 1414000    1.0242425   -7.3808932    409.41218  0.024128488   0.02422752            3 
 1415000    1.0368026   -7.4152178    410.13103  0.024153771  0.024219669            4 
 1416000    1.0120253   -7.3651232    411.05696  0.024191205  0.024211822            5 
 1417000    1.0241585    -7.416795    408.33704  0.024014176  0.024204001            2 
 1418000    1.0378224   -7.3445776    412.17254  0.024222646  0.024196257            2 
 1419000      1.02662    -7.373905    409.27218  0.024035247  0.024188473            3 
 1420000    1.0319841   -7.3749417    410.62193  0.024097531  0.024180689            6 
 1421000    1.0194081   -7.3602417    410.59845  0.024079196  0.024172943            5 
 1422000    1.0187957   -7.3627696    411.78164  0.024131601  0.024165293            1 
 1423000    1.0382031   -7.4121114    410.15195  0.024019205  0.024157589            2 
 1424000    1.0203603   -7.3241532    412.16611  0.024120208  0.024149864            2 
 1425000    1.0259391   -7.3317698    412.90597  0.024146548  0.024142128            4 
 1426000    1.0294403   -7.3500013     413.3554  0.024155879  0.024134493            4 
 1427000      1.01037   -7.3634229    412.30127  0.024077393  0.024126747            3 
 1428000    1.0314242   -7.4013997    411.92668  0.024038672  0.024118845            6 
 1429000    1.0362347   -7.3821234    412.77797  0.024071494  0.024110942            4 
 1430000     1.015463   -7.3761962    412.59494  0.024043994  0.024103169            5 
 1431000    1.0416728   -7.3858282    412.32594  0.024011527  0.024095305            4 
 1432000    1.0234241   -7.3542211    412.30154  0.023993339  0.024087325            7 
 1433000    1.0081987    -7.382573     413.3673  0.024038573  0.024079448            3 
 1434000    1.0173984   -7.4048489    412.38939  0.023964981  0.024071512            6 
 1435000    1.0021844   -7.3816282    413.84614  0.024032877  0.024063728            3 
 1436000    1.0220981   -7.3537281    413.69201  0.024007197   0.02405594            7 
 1437000    1.0306584   -7.4111085    411.42586  0.023859073  0.024048118            2 
 1438000    1.0323058   -7.4264204    412.66166  0.023914097  0.024040244            3 
 1439000    1.0100882     -7.39288    414.64322  0.024012232  0.024032331            5 
 1440000     1.002786   -7.3910014    415.33443  0.024035557  0.024024445            8 
 1441000    1.0035187   -7.3817312    413.78513  0.023929281  0.024016729            6 
 1442000    1.0235143   -7.3912368    414.56352   0.02395767  0.024008983            4 
 1443000    1.0244361   -7.3487221     415.2153  0.023978707  0.024001266            3 
 1444000     1.013303   -7.4066207    413.85197  0.023883424  0.023993537            5 
 1445000    1.0277368   -7.3770418    414.80347  0.023921769  0.023985826            5 
 1446000    1.0213316   -7.3840681    415.43511  0.023941627  0.023978073            7 
 1447000    1.0007696   -7.4347585    414.50517  0.023871526  0.023970251            3 
 1448000    1.0170753   -7.3881387    415.27992  0.023899627  0.023962455            5 
 1449000    1.0254787    -7.416011    415.71226  0.023907997  0.023954806            5 
 1450000    1.0137964   -7.4344415    416.00456  0.023908308  0.023947181            5 
 1451000    1.0186735   -7.3716483    415.70427  0.023874585  0.023939486            4 
 1452000    1.0264778   -7.4096792     417.5062  0.023961559  0.023931781            8 
 1453000    1.0260039   -7.3763672    417.77513  0.023960491  0.023924077            2 
 1454000     1.009856   -7.3848454    417.24996  0.023913914  0.023916469           10 
 1455000     1.031585   -7.4051107    417.66949  0.023921505  0.023908796            3 
 1456000    1.0340609   -7.4005166    416.84006  0.023857604  0.023901071            3 
 1457000     1.021062   -7.4003236    416.16716  0.023802743  0.023893302            4 
 1458000    1.0212372   -7.4153187      415.281  0.023735768  0.023885559            2 
 1459000    1.0081574   -7.4047579     417.5011  0.023846304  0.023877758            3 
 1460000    1.0138165   -7.4154354    418.26671   0.02387367  0.023870154            4 
 1461000   0.99404732    -7.372183    418.59874  0.023876269  0.023862519            4 
 1462000    1.0075284   -7.4326083    417.11471  0.023775348  0.023854778            4 
 1463000    1.0198004   -7.4457225    416.53927   0.02372632   0.02384688            2 
 1464000    1.0097431   -7.4198152    417.89275  0.023787156  0.023838904            4 
 1465000     1.038768   -7.3486845    418.79925  0.023822483  0.023831161            2 
 1466000    1.0348787   -7.3676134       419.14  0.023825603  0.023823482            4 
 1467000     1.009749   -7.3732552    419.06786  0.023805264  0.023815936            2 
 1468000    1.0211331   -7.3881345    417.83329  0.023718965  0.023808256            1 
 1469000    1.0087536   -7.3826202    419.10443  0.023774928  0.023800435            4 
 1470000    1.0091335   -7.3893642    419.10486  0.023758779  0.023792732            5 
 1471000    1.0193843    -7.394556    419.07011  0.023740659  0.023785137            5 
 1472000    1.0173579   -7.4095764    418.83299  0.023711107   0.02377746            5 
 1473000    1.0140614   -7.3898469    420.09145  0.023766206  0.023769838            5 
 1474000    1.0015075   -7.4023395    420.67271  0.023782944  0.023762186            2 
 1475000    1.0106399    -7.381548    419.61509  0.023707067  0.023754517            2 
 1476000    1.0203991    -7.373571     421.2337   0.02378239  0.023746838            3 
 1477000    1.0105387    -7.379385    420.93872  0.023749645  0.023739187            4 
 1478000    1.0253246   -7.3894662    420.97588  0.023735672  0.023731562            4 
 1479000     1.007102   -7.3858173    421.15647  0.023729799  0.023723987           10 
 1480000    1.0129049   -7.3729581    421.02386  0.023706298  0.023716223            3 
 1481000   0.99575662     -7.37884    419.63805  0.023612315  0.023708425            6 
 1482000    1.0070954   -7.4129494    420.26098  0.023631409  0.023700652            6 
 1483000    1.0038164   -7.3930357    421.67294  0.023694816  0.023692762            3 
 1484000    1.0118428   -7.4188711    421.09792  0.023646559  0.023684936            6 
 1485000     1.026044   -7.4072759    421.22133  0.023637561  0.023677018            5 
 1486000    1.0265971   -7.3777682    419.80473  0.023542212  0.023669226            3 
 1487000    1.0152438    -7.391518     419.9514    0.0235346  0.023661394            2 
 1488000    1.0210158   -7.3790036    421.33965  0.023596531   0.02365369            3 
 1489000    1.0083575   -7.3797167    422.40934   0.02364055  0.023645797            3 
 1490000     1.035511   -7.3957945    421.77237  0.023589059  0.023638022            5 
 1491000    1.0254261   -7.4294525    420.32891  0.023492562  0.023630207            5 
 1492000    1.0297002   -7.4430342    420.87665  0.023507409  0.023622274            5 
 1493000    1.0071456   -7.3959495       422.48  0.023581157    0.0236143            4 
 1494000    1.0063636    -7.378369    422.09092   0.02354367  0.023606495            4 
 1495000    1.0284572   -7.4307045     421.6516  0.023503434   0.02359859            4 
 1496000    1.0170023   -7.3710794      422.416  0.023530303   0.02359071            4 
 1497000    1.0256951   -7.4057198    422.61455  0.023525637  0.023582802            5 
 1498000    1.0354026   -7.3959159     422.4804   0.02350247  0.023574732            6 
 1499000    1.0321514   -7.3894415    422.36741   0.02348051  0.023566697            4 
 1500000      1.00557    -7.430167    422.17863  0.023454368  0.023558591            4 
 1501000    1.0057512   -7.4296644    421.70891  0.023412664  0.023550513            3 
 1502000    1.0059697   -7.4696724    421.95879   0.02341094  0.023542435            3 
 1503000    1.0317985   -7.4484614    421.09596  0.023347525  0.023534202            6 
 1504000    1.0111653   -7.4076384      422.355  0.023401762  0.023525912            5 
 1505000    1.0111153   -7.4661247    422.46668  0.023392397  0.023517594           11 
 1506000     1.011235   -7.4343675    424.09128   0.02346676  0.023509461            1 
 1507000     1.016687   -7.4189053    423.58245  0.023423051   0.02350143           11 
 1508000    1.0262163   -7.3949624     423.8563  0.023422652  0.023493372            4 
 1509000    1.0087051   -7.4274348    422.41874  0.023327741  0.023485256            7 
 1510000    1.0158883   -7.4208952    424.19536   0.02341034  0.023477208            2 
 1511000   0.98719924   -7.4104378    424.46393  0.023409658  0.023469227            4 
 1512000    1.0239361   -7.4685115    422.28347  0.023274001  0.023461257            4 
 1513000     1.024493   -7.4545416    423.68906  0.023336035  0.023453294            2 
 1514000     1.004313   -7.4003465     425.0602  0.023396092  0.023445444            6 
 1515000    0.9918887   -7.4460704    425.20275   0.02338849   0.02343753            5 
 1516000    1.0170098    -7.406684    424.89035   0.02335589  0.023429596            4 
 1517000    1.0179661   -7.4348534    424.85471  0.023338536  0.023421705            3 
 1518000    1.0087456   -7.4557786    424.62878  0.023310759  0.023413715            2 
 1519000    1.0175777   -7.4141699    424.53271  0.023290142  0.023405682            8 
 1520000    1.0013442   -7.4436285    425.16887  0.023309697  0.023397778            5 
 1521000     1.015294   -7.4482067    424.01339  0.023231064  0.023389831            3 
 1522000    1.0094062   -7.3899196    425.47858  0.023296024  0.023381959            3 
 1523000    1.0260756   -7.4726777    424.28582  0.023215464  0.023374013            1 
 1524000    1.0110062   -7.4097411    426.10388  0.023299644  0.023366025            8 
 1525000    1.0144183   -7.3762189    426.44067  0.023302769  0.023358221            5 
 1526000    1.0043734   -7.4316626    425.38171   0.02322967  0.023350359           11 
 1527000    1.0055276   -7.4235495     426.5091  0.023275982  0.023342484            4 
 1528000   0.99626655    -7.452348     426.1842   0.02324303  0.023334568            4 
 1529000   0.99350761   -7.4069586    427.63056  0.023306658  0.023326677            6 
 1530000    1.0275729   -7.4029296     427.1844  0.023267124  0.023318829            6 
 1531000    1.0095783   -7.4216543    426.78655  0.023230271   0.02331098            6 
 1532000    1.0347777   -7.3964642    429.12243  0.023342169  0.023303102            5 
 1533000   0.98602052   -7.3931387    428.35878  0.023285431  0.023295366            3 
 1534000     1.014775   -7.4335838    427.92138  0.023246489  0.023287482            3 
 1535000    1.0025629   -7.4205876    428.51366  0.023263499  0.023279639            3 
 1536000    1.0286624   -7.4139866    427.19577  0.023176854  0.023271749            3 
 1537000    1.0069052   -7.4410365    427.80823  0.023194981  0.023263809            3 
 1538000   0.98588265   -7.4538378    427.45945  0.023161002  0.023255775            4 
 1539000    1.0124405   -7.3985159    427.68237  0.023158023  0.023247768            5 
 1540000   0.99761727   -7.4226902     427.3002  0.023122305  0.023239669            8 
 1541000    1.0045922   -7.4727647    427.75376  0.023131828  0.023231521            4 
 1542000    1.0214409   -7.4628807    425.53774  0.022997068  0.023223416            5 
 1543000    1.0044905    -7.434603    428.92815  0.023165271  0.023215359            5 
 1544000    1.0055475   -7.4583711    427.62003  0.023079665  0.023207335            7 
 1545000    1.0052267   -7.4549362    427.53174  0.023059964  0.023199266            2 
 1546000    1.0105966   -7.4603491    429.08082  0.023128548  0.023191172            5 
 1547000    1.0200478    -7.436698    428.44748  0.023079481  0.023183157            6 
 1548000   0.99491374   -7.3932368    429.21379  0.023105824   0.02317527            4 
 1549000     1.033108   -7.4225111    430.02339  0.023134462  0.023167301            5 
 1550000    1.0291951   -7.4406162    428.65912  0.023046189  0.023159327            3 
 1551000    1.0069315   -7.4398213     429.3457  0.023068219  0.023151256            3 
 1552000   0.98468751   -7.4377223    428.29251  0.022996806  0.023143198            7 
 1553000    1.0138495   -7.4309635    429.20751  0.023031096  0.023135253            7 
 1554000   0.98446875   -7.4441684    430.15564  0.023067119  0.023127322            4 
 1555000   0.99094824   -7.3930151    429.61192  0.023023147  0.023119431            3 
 1556000    0.9801106   -7.4655656    429.74228  0.023015332   0.02311139           13 
 1557000   0.99377267   -7.4155102    430.32296  0.023031629  0.023103383            6 
 1558000   0.98220025     -7.43026    429.75028  0.022986215  0.023095397            4 
 1559000   0.99847703   -7.4280046    428.80232    0.0229208  0.023087307           22 
 1560000    1.0327656   -7.4287935    429.12316  0.022923246  0.023079258            4 
 1561000   0.98326129   -7.4023961     432.0209  0.023063256   0.02307127            2 
 1562000    1.0060824   -7.4276124    432.30478  0.023063635  0.023063331            7 
 1563000    1.0068431   -7.4324654    430.64171   0.02296021  0.023055454            9 
 1564000    0.9918429   -7.4350941    430.34192  0.022929557  0.023047538            3 
 1565000    0.9873723   -7.4436362    431.68079  0.022986197  0.023039572            4 
 1566000    1.0109042   -7.4454336    431.35809  0.022954347  0.023031687            3 
 1567000   0.97215187   -7.4365434    431.20797  0.022931715  0.023023809            3 
 1568000   0.98468063   -7.4654041    431.81118  0.022949149  0.023015925            5 
 1569000    1.0021398   -7.4695122    431.59235  0.022922899  0.023008049            7 
 1570000   0.98621245   -7.4442569    431.58291  0.022907798  0.023000145            5 
 1571000   0.97212448    -7.461952    431.03781  0.022864301  0.022992262            2 
 1572000   0.99181977   -7.4367312    432.08808  0.022905433  0.022984324            7 
 1573000     0.985027   -7.4128636    433.63201  0.022972664   0.02297637            4 
 1574000   0.99552442   -7.4304414    432.95068  0.022921997  0.022968536            7 
 1575000    1.0024934   -7.4147199    433.19448  0.022920343  0.022960701            3 
 1576000    0.9933456   -7.4225898    432.42859  0.022865302   0.02295295            6 
 1577000    1.0004209   -7.4303393    433.55712  0.022910437  0.022945073            3 
 1578000   0.99762509   -7.4214515    433.76932  0.022907125   0.02293716            3 
 1579000    1.0027306   -7.4538831    432.74426  0.022838519  0.022929313            5 
 1580000    1.0058006   -7.4307616    434.48092   0.02291566  0.022921489           11 
 1581000    1.0011465   -7.4161687    433.36935  0.022842576  0.022913643            4 
 1582000    1.0253756   -7.4119149     433.7099  0.022846076  0.022905867            3 
 1583000   0.97596708   -7.4357459    433.77631   0.02283514  0.022898087            6 
 1584000   0.99542656   -7.4225602    434.29238  0.022847874  0.022890249            8 
 1585000   0.98678496   -7.4682999    434.26777  0.022832164  0.022882491            4 
 1586000   0.98823996   -7.4423205    435.66446  0.022891155  0.022874744            4 
 1587000    1.0034049    -7.389567    436.01761  0.022895275  0.022867021            2 
 1588000     1.002285   -7.4303035    435.76312  0.022867502  0.022859307            6 
 1589000   0.98035623   -7.4352581    434.61811  0.022793062  0.022851459            2 
 1590000    1.0135541   -7.4291035    436.44843  0.022874656  0.022843716            5 
 1591000    1.0078979    -7.438124    436.50867  0.022863434   0.02283614            6 
 1592000   0.99702279   -7.4314424    435.68848  0.022806139  0.022828537            4 
 1593000   0.99886982   -7.4700318    435.84653   0.02280009  0.022820809            6 
 1594000   0.99872397   -7.4633055    436.88333   0.02283999  0.022813009            3 
 1595000    1.0107372   -7.4374543    437.10947  0.022837485  0.022805274            4 
 1596000     1.012779   -7.4379804    437.02525  0.022818779   0.02279771           14 
 1597000   0.99810457   -7.4540454    437.42179  0.022825182  0.022790006            9 
 1598000   0.96650996   -7.4348239    437.97981  0.022839998   0.02278236            3 
 1599000   0.99221046   -7.4511988    438.02606  0.022828125  0.022774753           12 
 1600000    1.0191533   -7.4538462    436.78053  0.022748986  0.022767088            5 
 1601000    1.0029326    -7.482631    436.84955  0.022738369  0.022759327            3 
 1602000    1.0017376   -7.4990865    434.93614  0.022624643   0.02275161            7 
 1603000    1.0100059   -7.4601307    436.75447  0.022705057  0.022743774            6 
 1604000   0.97718352   -7.4534931    436.23252  0.022663784  0.022736074           10 
 1605000   0.98864128   -7.4448423    437.70153  0.022725936  0.022728302            4 
 1606000   0.99855692   -7.4854028    436.19035  0.022633372  0.022720587            9 
 1607000   0.98108002   -7.5053567    436.46047  0.022633295  0.022712871            7 
 1608000   0.96602872   -7.4681905     437.9019  0.022693921   0.02270513            3 
 1609000   0.97714319   -7.4340292     438.0523  0.022687606  0.022697432            4 
 1610000   0.99477384   -7.4713833    439.02951  0.022724095  0.022689786            2 
 1611000   0.96682293   -7.4921228    437.75866  0.022644251  0.022682126            5 
 1612000    1.0069522   -7.4614103    438.33512  0.022660004  0.022674456            3 
 1613000    1.0003541   -7.4836604    438.42478  0.022650588  0.022666702            5 
 1614000   0.98820112   -7.4864289    439.10968  0.022671917  0.022659078            7 
 1615000   0.99309621   -7.5297199    438.62455  0.022632846  0.022651447            5 
 1616000   0.99146003   -7.4690979    439.04662  0.022640605   0.02264387            4 
 1617000   0.99413085   -7.4378162    440.40832   0.02269678  0.022636342            3 
 1618000   0.98198874   -7.4637001    439.49717  0.022635825  0.022628794            5 
 1619000   0.95352422   -7.4525602    439.78869  0.022636848  0.022621212            8 
 1620000    0.9916406   -7.4448505    441.22354  0.022696684  0.022613617            4 
 1621000   0.98313473   -7.4404564    440.98958  0.022670655  0.022606129            4 
 1622000   0.99203844   -7.4597319    441.41498  0.022678533  0.022598707            4 
 1623000    0.9748494   -7.4635788    439.51455  0.022566982  0.022591196            4 
 1624000   0.99584038   -7.4513709    441.26369  0.022642841  0.022583725            2 
 1625000    1.0145727   -7.4265899    440.94149  0.022612384  0.022576256            4 
 1626000   0.97513974   -7.4486692    441.07057  0.022605093   0.02256876            9 
 1627000   0.98272835   -7.4750105    440.46046   0.02255995  0.022561169            3 
 1628000   0.97224183   -7.4465144    441.65677  0.022607328  0.022553673            4 
 1629000    0.9882364   -7.4214069    442.16795  0.022619601  0.022546216            4 
 1630000    1.0002835   -7.4430209     441.5518  0.022574223  0.022538605            2 
 1631000   0.98188721    -7.453283    441.33378  0.022549243  0.022531035            7 
 1632000   0.97546872   -7.4563352    442.34692  0.022587159  0.022523523            8 
 1633000   0.99334367   -7.4629659    441.38032  0.022524001  0.022515925            2 
 1634000    0.9724335   -7.4495018    441.97811  0.022540703  0.022508356            3 
 1635000    1.0070763   -7.4132005    443.81516  0.022620548  0.022500943            2 
 1636000   0.96665103   -7.4919031    442.21238   0.02252508  0.022493437            5 
 1637000    0.9792186   -7.4877285    442.19992  0.022510686  0.022485939            6 
 1638000   0.96167121   -7.4399613    442.35243  0.022504702  0.022478384            2 
 1639000   0.98161001   -7.4873584    443.69844  0.022559408  0.022470922            5 
 1640000   0.99696768   -7.5033099    443.20081  0.022520367  0.022463421            5 
 1641000   0.97971449   -7.4904311    442.21073  0.022456364   0.02245585            4 
 1642000   0.97489033   -7.4956004    442.23527  0.022443934   0.02244836            5 
 1643000   0.98195477   -7.4607974    444.00464  0.022520016  0.022440863            3 
 1644000   0.99499497   -7.4918881    442.88396  0.022449511  0.022433339            9 
 1645000    1.0078648   -7.5149659     442.4416  0.022413455    0.0224257            4 
 1646000    1.0244738   -7.4930497    442.02992  0.022378996  0.022418098            9 
 1647000   0.99299453   -7.4572874    444.03729  0.022466975  0.022410547            4 
 1648000    0.9867982   -7.4784603    443.60592  0.022431529  0.022403038            3 
 1649000   0.97050452    -7.469893    444.89246  0.022482942  0.022395463            3 
 1650000   0.97018595   -7.4881555    443.11662  0.022379627  0.022387864            7 
 1651000   0.97400593    -7.461268    443.52538  0.022386704  0.022380181            5 
 1652000   0.98555899   -7.5151502    441.53535  0.022272768  0.022372399            6 
 1653000   0.99188643   -7.5038554    444.23153  0.022395217  0.022364761            4 
 1654000   0.96756563   -7.5312011    443.16649  0.022328017  0.022357124            2 
 1655000   0.99833031   -7.5061507      444.324   0.02237281  0.022349486            5 
 1656000    1.0013993   -7.4909483    444.38413  0.022362325  0.022341908            5 
 1657000    1.0025416   -7.4653978    445.42283  0.022401067  0.022334476            2 
 1658000   0.97211978   -7.4933516    444.48865  0.022340604  0.022327005           10 
 1659000   0.97939543    -7.489685    445.92338  0.022399205  0.022319509            8 
 1660000   0.98099273   -7.4752481    447.01551  0.022440538  0.022312149            9 
 1661000    1.0053298   -7.4629374    446.35808  0.022394044  0.022304805            4 
 1662000   0.99665385   -7.4530419     446.7076  0.022398095  0.022297421            4 
 1663000   0.98932792   -7.5106172    444.61069   0.02227955  0.022290019            6 
 1664000   0.97323631   -7.5222066    445.39387  0.022305382  0.022282457            5 
 1665000   0.97040518   -7.5124815    446.26942  0.022335807  0.022274912            5 
 1666000   0.99042172   -7.5042916    444.97167  0.022257487  0.022267506            5 
 1667000   0.98339282   -7.4812438    446.91574  0.022341319  0.022260027            4 
 1668000   0.98686725   -7.5286148    446.29086  0.022296706  0.022252599            5 
 1669000    1.0064103   -7.4980361    447.49059  0.022343249  0.022245174            5 
 1670000   0.98244093   -7.5141312    447.10933  0.022310845  0.022237684            4 
 1671000   0.98331917   -7.4890598    447.19722  0.022301876  0.022230252            4 
 1672000   0.98239283    -7.498677    447.15603  0.022286485  0.022222803            2 
 1673000   0.97854338   -7.4766323     447.4111  0.022285869  0.022215323            3 
 1674000    0.9743559   -7.5169084    447.23218  0.022263649  0.022207824            4 
 1675000   0.97423527   -7.5226331    447.21289  0.022249398   0.02220023            5 
 1676000    1.0150997   -7.5163949    446.67621  0.022209438  0.022192807            3 
 1677000   0.98659627   -7.4656302    447.84197  0.022254123  0.022185376            2 
 1678000   0.98791512   -7.5113595    447.66517   0.02223208  0.022177969            7 
 1679000   0.98090344   -7.4734323    448.53507  0.022262014  0.022170461            9 
 1680000   0.97635668    -7.527035    448.69295  0.022256594  0.022163041            6 
 1681000   0.97883177   -7.5026402     448.9543  0.022256311  0.022155658            5 
 1682000   0.98440363   -7.4646634    448.75103  0.022233008  0.022148311            4 
 1683000   0.97049235   -7.5090365    448.26373  0.022195669  0.022140912            6 
 1684000   0.97362914   -7.4931827    448.68144  0.022203159  0.022133653            5 
 1685000   0.98772134   -7.4829457    448.93373   0.02220246   0.02212628            2 
 1686000   0.98212031   -7.4814567      449.632  0.022223804  0.022118994            4 
 1687000   0.97884412   -7.4957902    450.30235  0.022243744  0.022111772            4 
 1688000   0.99228833   -7.5056582    448.92836  0.022162735  0.022104532            5 
 1689000   0.97287267   -7.4890754    450.11914  0.022208365  0.022097184            7 
 1690000    1.0011754    -7.485194    450.17282  0.022197871  0.022089749            8 
 1691000   0.97872895   -7.5263999    449.19022  0.022136321  0.022082395            4 
 1692000   0.99420595   -7.5114765    449.80982  0.022153754  0.022074921            3 
 1693000    0.9692629   -7.4994793    449.91342  0.022145768    0.0220675            4 
 1694000   0.96680214   -7.5390938    449.47866  0.022111308  0.022060114            7 
 1695000   0.97712352   -7.5070012    450.97213  0.022171688  0.022052808            2 
 1696000   0.96633012   -7.5102861    450.91846  0.022155978  0.022045433            6 
 1697000   0.97958672   -7.5045593    451.24552  0.022158983  0.022038108            4 
 1698000   0.97431598   -7.5137374    449.83827  0.022076868  0.022030746            3 
 1699000   0.98911849   -7.4985487    451.37058  0.022139032  0.022023393            5 
 1700000   0.98723867   -7.4956887    450.84813  0.022100399  0.022016033            3 
 1701000   0.95852782   -7.4679385    452.38244  0.022162573  0.022008752            7 
 1702000    1.0149164   -7.5351931    450.66237  0.022065333  0.022001448            4 
 1703000   0.97820343   -7.4535871    452.82423  0.022158164  0.021994128           12 
 1704000   0.97361928    -7.466766     453.1189  0.022159571  0.021986862            4 
 1705000   0.97688658   -7.4799482    451.94852   0.02208937  0.021979561            4 
 1706000   0.97774514   -7.5081303    452.13371  0.022085468  0.021972188            8 
 1707000     1.003037   -7.4784542    452.80337  0.022105222  0.021964945            3 
 1708000   0.96710514   -7.5109622    451.60849  0.022033982   0.02195766            7 
 1709000   0.99040936   -7.5455987    451.45285    0.0220135  0.021950341            5 
 1710000    1.0036318   -7.5356889    452.61276  0.022057152  0.021942938           10 
 1711000   0.99162357   -7.5103909    451.58688  0.021994296  0.021935621            8 
 1712000   0.98374994   -7.4812321    453.02856  0.022051624   0.02192829            5 
 1713000   0.97319181   -7.5231384    453.19735  0.022046962  0.021920908            8 
 1714000   0.97177481   -7.5187412    452.22928  0.021987032   0.02191356            3 
 1715000   0.97733321   -7.5263967    452.59104   0.02199179  0.021906181            5 
 1716000   0.98755767   -7.5180457    453.89076  0.022042092  0.021898863            5 
 1717000   0.96900347   -7.5325699    453.14841  0.021993225  0.021891621            5 
 1718000   0.99204032   -7.4567102    454.44843  0.022043482  0.021884374            3 
 1719000   0.98148498     -7.47492    454.30358  0.022023637  0.021877213            3 
 1720000   0.97582084   -7.5062202    453.74519  0.021983778   0.02187002            5 
 1721000   0.98932348   -7.4873101    454.40954  0.022003174  0.021862822            4 
 1722000   0.96518961   -7.5005662    454.23042  0.021981728   0.02185566            3 
 1723000   0.98065504   -7.5083728    453.08847  0.021913739  0.021848426            3 
 1724000   0.98229496   -7.5294391    453.70069  0.021930621  0.021841208            6 
 1725000   0.97889943   -7.5518154    452.71153  0.021870122  0.021833911            3 
 1726000   0.98432537    -7.541432    452.46663  0.021845627   0.02182661            5 
 1727000   0.97894741   -7.5209942     454.9095  0.021950854   0.02181928            6 
 1728000   0.97821194   -7.5061552    454.08404  0.021898343  0.021811981            6 
 1729000   0.97736463   -7.5243177    453.50898  0.021857961  0.021804693            5 
 1730000   0.97801569   -7.4989171    455.88093  0.021959583  0.021797479            3 
 1731000   0.98804653    -7.475699    455.40943  0.021924197  0.021790203            4 
 1732000    1.0098404   -7.5184482    454.58551  0.021871897  0.021783018            8 
 1733000   0.96553769   -7.5064957    455.79815  0.021917587  0.021775843            3 
 1734000   0.98452977   -7.5137538    455.73332  0.021901832  0.021768682           15 
 1735000   0.96553757   -7.5001178    454.88912  0.021848661  0.021761503            6 
 1736000   0.97933305   -7.4925967     457.3104  0.021952304   0.02175443            2 
 1737000    0.9799533   -7.4856805    456.39785  0.021895886  0.021747306            8 
 1738000   0.95347166   -7.5234858     457.4573  0.021934086  0.021740198           15 
 1739000   0.96457328    -7.538107    456.29642  0.021865844  0.021733072            6 
 1740000   0.98041184   -7.4795043    457.13913  0.021893636  0.021725924           11 
 1741000   0.99139176    -7.527315    457.77516  0.021911505   0.02171887            4 
 1742000   0.96894811    -7.485584    458.94947  0.021955103  0.021711867            5 
 1743000   0.97018507   -7.5290962    457.93172  0.021893848  0.021704888            4 
 1744000   0.95684344   -7.5701194    455.54648   0.02176732  0.021697812            7 
 1745000    0.9725711   -7.5535831    457.33844  0.021840422  0.021690614            4 
 1746000   0.94647402   -7.5199411     455.7195  0.021750644  0.021683463            5 
 1747000   0.97555141   -7.5350572    457.89802  0.021842111  0.021676398            9 
 1748000   0.98142299   -7.5150682    458.50352  0.021858482  0.021669311            3 
 1749000   0.97163905   -7.5146038    458.01636  0.021822773   0.02166216            4 
 1750000   0.97920092    -7.543968    458.74626   0.02184506  0.021655018            5 
 1751000   0.99206613   -7.5040336    457.96115   0.02179522   0.02164784            8 
 1752000   0.97090152   -7.5521091    457.78629  0.021774462  0.021640693            3 
 1753000    1.0001264   -7.5324775    458.03913   0.02177406  0.021633567            4 
 1754000   0.99735088   -7.5616769    458.56568  0.021786663  0.021626414           11 
 1755000   0.96771855   -7.5445801    458.17883   0.02175588   0.02161927            9 
 1756000   0.97034813   -7.5357199    460.21228  0.021839991  0.021612135            4 
 1757000    0.9646669   -7.5070469    458.59603  0.021750903   0.02160497            5 
 1758000   0.97194714   -7.5383943    457.18979  0.021671871  0.021597835            4 
 1759000   0.97273348   -7.5124607    458.92991  0.021741989   0.02159062            6 
 1760000   0.96095211   -7.4809988    460.19217  0.021789402  0.021583454            5 
 1761000   0.96567145   -7.5129229    459.04078  0.021722543  0.021576308            7 
 1762000   0.98902112   -7.5383376    458.21503  0.021671161  0.021569172            4 
 1763000   0.94755224   -7.5170721     459.0708  0.021699319  0.021562004            5 
 1764000   0.97866447    -7.540468    457.17623  0.021597517  0.021554854            5 
 1765000   0.97058033   -7.5708855    459.31739  0.021686373  0.021547698            4 
 1766000   0.97397502   -7.4923774    460.71136  0.021739872  0.021540569            3 
 1767000   0.95081755   -7.5104112    461.10784  0.021746267  0.021533484            3 
 1768000   0.94870365   -7.5574325    457.48862  0.021563377  0.021526309            5 
 1769000   0.93817056   -7.5239774    461.57963  0.021743905   0.02151916            3 
 1770000   0.97643709   -7.5080037    459.58217  0.021637579  0.021512041            4 
 1771000   0.97392234   -7.5411169    460.52319   0.02166964  0.021504856            4 
 1772000   0.97918285   -7.5455084    459.82066  0.021624372  0.021497707            4 
 1773000   0.98526808   -7.5528977    460.49087  0.021643677   0.02149056            6 
 1774000   0.96980043   -7.5589751    459.51703   0.02158573  0.021483414            7 
 1775000    0.9857915   -7.5306146    459.74609  0.021584324  0.021476246            3 
 1776000   0.98254577   -7.5075751    460.61338  0.021612865  0.021469149            9 
 1777000    0.9836151   -7.5103801    462.56142  0.021692057  0.021462037            4 
 1778000   0.97583672   -7.5424665    460.13923  0.021566331  0.021454954            2 
 1779000   0.95899993   -7.5544504    460.13923  0.021554208   0.02144779            8 
 1780000   0.94083881   -7.5292197    461.41472  0.021601813   0.02144064            4 
 1781000   0.96460088   -7.5761493    461.00957  0.021570727  0.021433505            6 
 1782000   0.96891681   -7.5231083    461.75933  0.021593684  0.021426397            4 
 1783000   0.95627995   -7.5672265    460.82329  0.021537824  0.021419143            4 
 1784000     0.967378   -7.5556648    460.29428  0.021501041  0.021411855            9 
 1785000   0.98352022    -7.533415    461.06888  0.021525158  0.021404636           11 
 1786000   0.97309906   -7.5372683    461.47042  0.021531841  0.021397465            5 
 1787000   0.95081397   -7.5229572    460.89173  0.021492806  0.021390267            6 
 1788000    0.9596563   -7.5387317    461.47139  0.021507801  0.021383111            4 
 1789000   0.96081936   -7.5185679    463.08806  0.021571085  0.021375982            7 
 1790000   0.97912015   -7.5500743    461.79711  0.021498935  0.021368835            6 
 1791000   0.96855539   -7.4769613    464.18597  0.021598082   0.02136171            5 
 1792000   0.98308659   -7.5409317      462.018  0.021485212  0.021354606           10 
 1793000   0.97971261   -7.5764617    461.44452  0.021446575  0.021347344            4 
 1794000   0.94452118   -7.5740005    461.80984  0.021451591   0.02134017            8 
 1795000   0.97231043   -7.5879315    461.63691  0.021431611  0.021332966            3 
 1796000    0.9893471    -7.566176     462.8204  0.021474592  0.021325815            4 
 1797000   0.95967671   -7.5364389    464.48505  0.021539837  0.021318675            5 
 1798000   0.97598845   -7.5508862    464.01541   0.02150609  0.021311586            6 
 1799000   0.95797914   -7.5540946    463.95633  0.021491399  0.021304555            9 
 1800000   0.96851078   -7.5559322    463.76295  0.021470507  0.021297433           11 
 1801000   0.97797417   -7.5582409    463.46813  0.021444944  0.021290275            7 
 1802000   0.97404632   -7.5423459    464.27764  0.021470479  0.021283199            6 
 1803000   0.97581164   -7.5316816    465.18175  0.021500358  0.021276134            4 
 1804000    0.9530738    -7.575526    463.70983  0.021420447  0.021269082           11 
 1805000   0.98971588   -7.6048261     462.4213  0.021349091  0.021262038            4 
 1806000   0.97997441   -7.5628892      464.956  0.021454226  0.021254952            3 
 1807000   0.95207523   -7.6034327    463.18556  0.021360706  0.021247862            5 
 1808000   0.97053297    -7.553211    463.60849  0.021368385  0.021240788            2 
 1809000   0.94696205    -7.570292    463.96667  0.021373073  0.021233691            3 
 1810000   0.96311478   -7.5635609     462.2741  0.021283338  0.021226541            8 
 1811000   0.97132016   -7.5641337    464.99047   0.02139658  0.021219474            4 
 1812000   0.96764491   -7.5532637    464.49812  0.021362128  0.021212354            6 
 1813000   0.93763341   -7.5547598    464.36198  0.021344088  0.021205321            3 
 1814000   0.96760765   -7.5607996    464.30092  0.021329517  0.021198203            1 
 1815000   0.95839975   -7.5867158    463.06298  0.021260927  0.021190985            5 
 1816000    0.9717918   -7.5791219    463.97134  0.021290902  0.021183768            4 
 1817000   0.96163288   -7.5714122     466.0176  0.021373033  0.021176573            4 
 1818000   0.97515435   -7.5667558    464.55389  0.021294183  0.021169423            7 
 1819000   0.94134721   -7.5620242     466.0876   0.02135274  0.021162282            4 
 1820000   0.95544824   -7.5820532    466.34476  0.021352782  0.021155077            7 
 1821000   0.94833722   -7.5497053    465.88512  0.021320022  0.021148022            3 
 1822000   0.96300469    -7.588195    465.42149  0.021287115  0.021140925            5 
 1823000   0.97351545   -7.5843487    465.43959  0.021276266  0.021133777            7 
 1824000   0.96795952   -7.5801418    465.06745  0.021247599  0.021126684            4 
 1825000   0.97598119    -7.538552    467.57904  0.021350641  0.021119636            6 
 1826000   0.95813397   -7.5930053    465.71952  0.021254085  0.021112627            2 
 1827000    0.9699333   -7.5551835    465.93405  0.021252237  0.021105677            3 
 1828000   0.95445654    -7.535939    467.36131  0.021305676  0.021098714            4 
 1829000   0.93881494   -7.5325166    469.01497  0.021369372  0.021091725            2 
 1830000   0.97848332   -7.5396303    466.67556  0.021251164  0.021084678            4 
 1831000    0.9716607   -7.5748664    465.15854  0.021170514  0.021077637            4 
 1832000    0.9509098   -7.5692022    466.20842  0.021206715  0.021070514            6 
 1833000   0.94599516   -7.5378257    466.34424   0.02120132  0.021063396            4 
 1834000   0.96717114   -7.5359324    467.47503  0.021241141  0.021056325            4 
 1835000   0.94947792   -7.5878862      467.363  0.021224478  0.021049248           15 
 1836000   0.97634384   -7.5504289    467.13375  0.021202512  0.021042267           13 
 1837000   0.94876889   -7.5866093    466.60822   0.02116713  0.021035148            6 
 1838000   0.95617622   -7.5486108    467.19613  0.021182269  0.021028077           13 
 1839000   0.95230988   -7.5560561    466.73522  0.021149865  0.021020945           11 
 1840000   0.96480573   -7.5744501    468.43876  0.021215524  0.021013893            4 
 1841000   0.97353977   -7.5763329    467.02114  0.021139831  0.021006818            3 
 1842000   0.96370794     -7.58723    466.90129  0.021122932  0.020999684            9 
 1843000   0.95175727   -7.5390791      469.006  0.021206638  0.020992569            6 
 1844000    0.9602059    -7.597009    466.39927  0.021077335  0.020985551            7 
 1845000   0.94641137   -7.5814025    468.20363  0.021147409  0.020978594            4 
 1846000   0.95333891   -7.5831055    468.04947  0.021128994  0.020971568            9 
 1847000   0.93540912   -7.5872945    469.07955   0.02116403  0.020964546            3 
 1848000   0.96017545   -7.5940273    467.98629  0.021103278   0.02095749            4 
 1849000   0.92723762   -7.5339917    469.45934  0.021158254  0.020950473            3 
 1850000   0.93965218   -7.5910497    468.93404  0.021123155  0.020943423           12 
 1851000   0.97446454   -7.5626909    468.47239  0.021090959  0.020936287            4 
 1852000   0.95512537   -7.5666445    469.88045  0.021142929  0.020929232            6 
 1853000   0.94360453   -7.5854609    469.87815  0.021131415  0.020922093            4 
 1854000   0.95955747   -7.5896345    468.28017  0.021048192  0.020914983            7 
 1855000   0.96441713   -7.5878983    469.17181  0.021076901  0.020907835            9 
 1856000    0.9593017   -7.5821741    467.98303  0.021012169  0.020900707            7 
 1857000   0.95360258   -7.6229304    468.42873  0.021020855  0.020893491            8 
 1858000   0.93684903   -7.5536003    467.78205  0.020980537  0.020886363            8 
 1859000   0.93671404   -7.6177204    468.69052  0.021009975  0.020879187           14 
 1860000   0.95287132   -7.5790155    469.39335  0.021030168  0.020872047            8 
 1861000   0.95268571   -7.5809848    469.01129   0.02100176  0.020864948            8 
 1862000   0.95665284    -7.574518    470.57454  0.021060443  0.020857876            4 
 1863000   0.94402108   -7.5749175    470.22987  0.021033721   0.02085076           12 
 1864000   0.96825408    -7.624366    469.51019  0.020990262  0.020843662            5 
 1865000   0.98538768   -7.5745807    470.62678    0.0210289  0.020836571           11 
 1866000   0.94608454   -7.6199611    469.01001  0.020945427  0.020829455            5 
 1867000   0.96199721   -7.6227775    469.10109  0.020938274   0.02082228           13 
 1868000   0.95144451   -7.5875675    470.30287  0.020980678  0.020815134            7 
 1869000   0.94267033   -7.6001535    470.36471  0.020972209  0.020807926            4 
 1870000   0.95976801   -7.5562251    470.65805  0.020974066  0.020800772            8 
 1871000    0.9702777    -7.600068    469.90779   0.02092944  0.020793719            6 
 1872000   0.95431592   -7.5906373    470.61788   0.02094987  0.020786645           11 
 1873000   0.95074927   -7.5927216     470.5442  0.020935407  0.020779495            5 
 1874000   0.93520502   -7.6067614    469.53165  0.020879209  0.020772365           10 
 1875000   0.95573002   -7.5795538    471.26119  0.020944942  0.020765285            6 
 1876000    0.9689387   -7.6030851    471.09067  0.020926203  0.020758167            6 
 1877000   0.96372755   -7.5711536    470.98133  0.020910199   0.02075101            9 
 1878000   0.96520827   -7.5709576    470.61408  0.020882769  0.020743988            6 
 1879000   0.94306301   -7.5691276    471.40789   0.02090686  0.020736983            7 
 1880000   0.97372667   -7.5580174    472.43103  0.020941092  0.020730005            4 
 1881000   0.94593017   -7.5532859    472.42155  0.020929539  0.020722993            5 
 1882000   0.94046836   -7.5893838    470.81698  0.020847369   0.02071603           12 
 1883000   0.94175654   -7.5359341    471.84526  0.020881805  0.020709069            6 
 1884000   0.94760261   -7.5343792    472.66588  0.020907019  0.020702154            7 
 1885000   0.93710189   -7.5784834    471.41437    0.0208406  0.020695101            3 
 1886000   0.96390559   -7.5520014    472.04678  0.020857493  0.020688113            5 
 1887000   0.95442563   -7.5529168    470.75413  0.020789354  0.020680965            4 
 1888000   0.94658567   -7.5968237    472.48086  0.020854558   0.02067386            5 
 1889000   0.95308172   -7.5880105    472.35671  0.020838041   0.02066677            7 
 1890000   0.95352057   -7.5798343    472.19826  0.020820029  0.020659677            3 
 1891000   0.96535247   -7.5427041    472.88812   0.02083942  0.020652549            4 
 1892000   0.95051117   -7.6110554    472.01732  0.020790051  0.020645474            8 
 1893000   0.95654579   -7.6233819    470.44949   0.02071005  0.020638319            4 
 1894000   0.94599602   -7.6374048    470.36915   0.02069558  0.020631111            4 
 1895000   0.94854127   -7.6021783    473.17251  0.020807938  0.020623913            8 
 1896000   0.95495528   -7.5881913    471.90813  0.020741391  0.020616713            5 
 1897000   0.94914918   -7.6072007     472.0467  0.020736544  0.020609554            6 
 1898000   0.95847228   -7.6237608    472.68239   0.02075353   0.02060243            2 
 1899000   0.95237032   -7.6018829    472.51763  0.020735371  0.020595291            3 
 1900000    0.9349489   -7.5912797    473.30068  0.020758802  0.020588223            6 
 1901000   0.96011557   -7.5944133     472.4684  0.020711398  0.020581097            4 
 1902000   0.95318298   -7.5718919    473.46977  0.020744382  0.020574041            3 
 1903000   0.94424332   -7.5911481    473.04469  0.020714867  0.020567049            4 
 1904000    0.9545689   -7.5997823    474.09042  0.020749756   0.02055998            3 
 1905000   0.93405648   -7.6007935    473.87751   0.02072955  0.020552912            2 
 1906000   0.95431097   -7.6127894    473.53758  0.020703812  0.020545853            6 
 1907000   0.95844348   -7.5819541     474.8487  0.020750249  0.020538801           12 
 1908000   0.93363568   -7.5840543     474.4775  0.020723161  0.020531809           10 
 1909000    0.9072198   -7.5788773    474.77299  0.020725205  0.020524802            9 
 1910000   0.92991757   -7.5845921     473.3403  0.020651845    0.0205178            4 
 1911000   0.94993004   -7.6264625       472.66  0.020611373  0.020510671            9 
 1912000    0.9298876   -7.6115863     473.0973  0.020619652  0.020503485            6 
 1913000   0.92958962   -7.5967142    473.53047  0.020627743  0.020496334            3 
 1914000   0.94556665   -7.5916416    474.37271  0.020653636  0.020489224            5 
 1915000   0.95332531   -7.5698376    474.29402  0.020639426  0.020482108            2 
 1916000   0.96309284   -7.6116212    473.53532  0.020595656  0.020474977            9 
 1917000   0.92330844   -7.5663003    473.82071  0.020597318  0.020467876            6 
 1918000   0.93652917    -7.632586    474.43314  0.020613188  0.020460763            5 
 1919000   0.94103962   -7.6137206    474.46351  0.020603765   0.02045355           11 
 1920000   0.93936377    -7.633923    472.73859  0.020518168  0.020446359            5 
 1921000   0.95189372    -7.622147    474.42516  0.020580651  0.020439062            8 
 1922000   0.92430128   -7.6348764    472.39997  0.020482136  0.020431745            4 
 1923000   0.92950094   -7.6431003    474.81593   0.02057618  0.020424454            6 
 1924000   0.93714916   -7.6072685    474.57023  0.020554844  0.020417218            5 
 1925000    0.9291949   -7.6112634    473.86632  0.020513693  0.020409967            9 
 1926000   0.93929719   -7.6058655    473.88068  0.020503664  0.020402735            7 
 1927000   0.93316729   -7.6107661    474.58972  0.020523686  0.020395554            6 
 1928000   0.95197613   -7.5966709    474.60524  0.020513712  0.020388387            3 
 1929000   0.92570766    -7.632793    475.12696  0.020525616  0.020381228           10 
 1930000   0.93831632   -7.5916563    475.77374  0.020542907  0.020374076            2 
 1931000   0.96126382   -7.5876654    476.43114   0.02056064  0.020366955            8 
 1932000   0.92037341   -7.6175722     474.2728  0.020456901  0.020359821           12 
 1933000   0.94116924   -7.6037522    475.14072  0.020483735  0.020352687            7 
 1934000    0.9328967   -7.6179388    474.47337  0.020444389  0.020345462            6 
 1935000   0.96252453   -7.6774759    473.29109  0.020382907  0.020338178            6 
 1936000    0.9486426   -7.6667917     473.2936  0.020372486  0.020330796            8 
 1937000   0.92547799   -7.6373496    474.17847  0.020400037  0.020323465            3 
 1938000   0.95267739   -7.6162668    474.62186  0.020408577  0.020316176           11 
 1939000   0.93088269   -7.6204932    476.48824  0.020478264  0.020308939           12 
 1940000   0.92546306   -7.5734113    476.03877  0.020448401  0.020301707            3 
 1941000   0.94941429   -7.5958318    476.57274  0.020460791  0.020294536            6 
 1942000   0.93819093    -7.577589     477.0875  0.020472344  0.020287442            5 
 1943000   0.93889814   -7.5773918    477.01251  0.020458591  0.020280325            5 
 1944000   0.92335835   -7.6217946    477.13754  0.020453427  0.020273188            3 
 1945000   0.92227451   -7.6201562    476.74426  0.020426061  0.020265963            4 
 1946000   0.93473119   -7.6306332    475.20619    0.0203497   0.02025879            8 
 1947000   0.94367824   -7.5996416    475.74137  0.020362154   0.02025158            8 
 1948000   0.91960807   -7.6146075    475.98779  0.020362243  0.020244358            6 
 1949000   0.94086145    -7.639645    474.86802  0.020303917  0.020237099           21 
 1950000   0.93378163   -7.6332147    477.42679  0.020402854  0.020229894            8 
 1951000   0.93038142   -7.5925772    477.13259   0.02037983    0.0202227            3 
 1952000   0.92497962   -7.6354625    475.16224  0.020285273  0.020215488            5 
 1953000   0.93903034   -7.6235917    475.34709  0.020282774  0.020208258            5 
 1954000   0.91033771   -7.6257957    475.57336  0.020282044  0.020200983            6 
 1955000   0.92714057   -7.6220541    475.35434  0.020262333  0.020193699            6 
 1956000   0.92930713   -7.6283622     477.5999  0.020347644  0.020186463            8 
 1957000   0.93655853   -7.6381191    477.31666  0.020325186  0.020179227            3 
 1958000     0.926176   -7.5868997    477.73717  0.020332702  0.020172036            6 
 1959000   0.94211659   -7.6301972    476.79127  0.020282086  0.020164852            4 
 1960000   0.93694479   -7.6084265     477.8565  0.020317028  0.020157651           11 
 1961000   0.94647435   -7.6390814     475.1936  0.020193507  0.020150504           11 
 1962000   0.93798682   -7.6354421    477.79322   0.02029363  0.020143357            6 
 1963000   0.91646393    -7.629339    478.69192  0.020321443  0.020136185           15 
 1964000   0.93813117   -7.6240678     476.7847  0.020230172  0.020129009           10 
 1965000   0.93457856   -7.6153831    477.17313   0.02023635  0.020121874            7 
 1966000    0.9330473   -7.6029321    478.15957  0.020267869   0.02011476           13 
 1967000   0.91178097   -7.6649911     477.7932  0.020242044  0.020107578            5 
 1968000   0.94291591   -7.6358952    478.08098  0.020243944  0.020100387            7 
 1969000   0.92122466   -7.6251278    477.29908  0.020200571  0.020093194            3 
 1970000   0.93926374   -7.6355674    477.76056  0.020209838  0.020086017            6 
 1971000   0.95206517   -7.6505901    479.29657  0.020264526  0.020078848           13 
 1972000   0.92992513   -7.6385857    478.57036  0.020223562  0.020071696           13 
 1973000   0.93028162   -7.6331875    478.39714  0.020205995  0.020064526            7 
 1974000   0.91496424   -7.6661942    477.69768  0.020166231  0.020057333           10 
 1975000   0.92209599   -7.6325177    478.46699   0.02018848  0.020050206            5 
 1976000   0.93649707   -7.6500233    479.24773   0.02021119   0.02004307           12 
 1977000   0.93524821   -7.6318169    479.06243  0.020193156  0.020035918            7 
 1978000   0.93831443   -7.6351353    479.57724  0.020204636  0.020028792            5 
 1979000   0.94479439   -7.6099206    478.69211  0.020157155   0.02002169            3 
 1980000     0.937428   -7.6587235    478.57233  0.020141933  0.020014567            9 
 1981000   0.93182407   -7.6461206    478.99127  0.020149389  0.020007471            3 
 1982000   0.93631571   -7.6550576    478.55427  0.020120849   0.02000034            6 
 1983000   0.93195716   -7.6531278    479.05925  0.020131923  0.019993197            4 
 1984000   0.93375975   -7.6461874    480.15083  0.020167626  0.019986101            7 
 1985000    0.9483385   -7.6311727    478.54581  0.020090085   0.01997901            6 
 1986000   0.94811145   -7.6672254    478.64521  0.020084139  0.019971906            7 
 1987000   0.93278681   -7.6544385    480.59731  0.020155901  0.019964815            5 
 1988000   0.92239926   -7.6098781    482.36176  0.020219725  0.019957876           14 
 1989000   0.93434855    -7.641062    479.27706  0.020080319  0.019950851           10 
 1990000   0.91436408   -7.6648046    480.07795  0.020103767  0.019943767            7 
 1991000   0.93596348   -7.6345759    478.46646  0.020026221   0.01993665           13 
 1992000   0.94921403   -7.6364177    480.48554  0.020100633  0.019929542           11 
 1993000   0.94972782   -7.6616429    479.67766  0.020056768  0.019922516           10 
 1994000   0.90601668     -7.66022    479.86023  0.020054339  0.019915447           10 
 1995000   0.90775105   -7.6495416    479.98601  0.020049541  0.019908376            3 
 1996000    0.9269058   -7.6565045    480.54958  0.020063025  0.019901354            5 
 1997000   0.93236816   -7.6308519    481.83559  0.020106643  0.019894358            7 
 1998000    0.9284488   -7.6627879    480.74756  0.020051199   0.01988739            5 
 1999000   0.95422993    -7.602023    481.62489  0.020077742  0.019880386            6 
 2000000   0.92150414   -7.6509881    480.80356  0.020033482  0.019873339            4 
 2001000   0.92234461   -7.6821866    481.45515  0.020050606  0.019866258            5 
 2002000   0.93183566   -7.6926864    480.78432  0.020012667  0.019859211            5 
 2003000   0.94836201   -7.6675053    481.02581  0.020012723  0.019852142           12 
 2004000   0.94060536   -7.6499578     480.6115  0.019985508  0.019845119            3 
 2005000   0.92326267   -7.6565825    481.64918  0.020018669   0.01983807           11 
 2006000   0.94276826   -7.6508044    480.58936  0.019964662  0.019831057            4 
 2007000   0.93755403   -7.7095145    480.37943  0.019945999  0.019824003           12 
 2008000   0.94268409   -7.6468287    482.18811  0.020011127  0.019817048            4 
 2009000   0.91850924   -7.6140237    483.03751  0.020036399  0.019810106            5 
 2010000   0.93228891   -7.6990118    482.63569  0.020009771  0.019803194           11 
 2011000   0.93986175   -7.5958955    483.55904  0.020038084   0.01979629            6 
 2012000   0.92451065   -7.6403564    482.00222  0.019963644  0.019789337           13 
 2013000   0.94012965   -7.6451048    484.34796  0.020050835  0.019782402           10 
 2014000   0.92217988   -7.6912733    481.36353  0.019917392   0.01977541           10 
 2015000   0.92242722   -7.6515648    483.58089   0.01999921  0.019768386            6 
 2016000   0.92491357   -7.6834761    483.26258  0.019976132  0.019761391            5 
 2017000   0.92994006   -7.6733628     482.0004   0.01991408  0.019754393            7 
 2018000   0.91839211    -7.650165    482.79417  0.019936991  0.019747402            8 
 2019000   0.92998102   -7.6546011    483.59198  0.019960045  0.019740392            7 
 2020000   0.91471654   -7.6417103    483.19193  0.019933661  0.019733427            4 
 2021000   0.90826941   -7.6476303    484.13601  0.019962725  0.019726497           10 
 2022000    0.9288861   -7.6461946    483.85489  0.019941267  0.019719617            6 
 2023000     0.923874   -7.6434167     484.1789  0.019944756  0.019712745            7 
 2024000    0.9322606   -7.6702179    483.40869   0.01990319  0.019705827            7 
 2025000   0.94703863   -7.6800487    484.30208  0.019930127  0.019698899            7 
 2026000   0.94248321   -7.6819932    482.81304  0.019859043  0.019691928            4 
 2027000     0.934918   -7.6369539    483.95589   0.01989623  0.019685019            9 
 2028000   0.94257427   -7.6753207    484.70852  0.019917345   0.01967809            6 
 2029000   0.92594776   -7.6859303    483.50857  0.019858246  0.019671122            3 
 2030000   0.92967039   -7.6765467    482.77312  0.019818273  0.019664125            4 
 2031000   0.93331226   -7.6219535    485.56482   0.01992306  0.019657229            5 
 2032000   0.92068525   -7.6578479    482.55674  0.019789892  0.019650322            5 
 2033000   0.94496888   -7.6769446    484.95414  0.019878428  0.019643362            4 
 2034000   0.92439746   -7.6628501    485.03544  0.019871986  0.019636498            3 
 2035000   0.92539353   -7.6495646    485.67708  0.019888496  0.019629584            5 
 2036000   0.90548579   -7.6114461    485.70462  0.019879855  0.019622726           11 
 2037000   0.91233297   -7.6675056    483.52705  0.019781012  0.019615901            5 
 2038000   0.91932287   -7.6316008    483.93581   0.01978802  0.019608976           30 
 2039000   0.92759016   -7.6589503    485.07425  0.019824843  0.019602054            9 
 2040000   0.91372991   -7.6879664    483.31149  0.019743116   0.01959511            9 
 2041000   0.91710748   -7.6507469    486.00579   0.01984345  0.019588147            5 
 2042000   0.93197406   -7.6486754    485.83737   0.01982686  0.019581228            6 
 2043000   0.92497702   -7.6909023    484.42923  0.019759717   0.01957435            7 
 2044000   0.92235163   -7.6659988    485.18906  0.019781028  0.019567467            6 
 2045000   0.93364925   -7.6700014    485.61407  0.019788674  0.019560547            5 
 2046000   0.91588056   -7.6767993    485.95851  0.019793031  0.019553666            7 
 2047000   0.93298961   -7.6383215    485.95973  0.019783412  0.019546792           16 
 2048000   0.91036991   -7.6568767    486.43084  0.019792921  0.019539938            7 
 2049000   0.92579875   -7.6818655    484.50932  0.019705113  0.019533119            8 
 2050000   0.92262967   -7.6465065    485.06735  0.019718185   0.01952621            5 
 2051000   0.91599997   -7.6446173    484.60654  0.019689848  0.019519298            7 
 2052000   0.91619594   -7.6362923    486.14476  0.019742721  0.019512363            4 
 2053000   0.92531816   -7.7280293    483.40579  0.019621927  0.019505373            4 
 2054000   0.91209985   -7.6786009    484.05014  0.019638516  0.019498332            4 
 2055000   0.93468587   -7.6549506    486.04404  0.019709815  0.019491397            7 
 2056000   0.92385482   -7.6422443    484.93389  0.019655232  0.019484453            9 
 2057000    0.9428787   -7.6552239    486.42567  0.019706112  0.019477487            4 
 2058000   0.93794843   -7.6859002    485.92999  0.019676465  0.019470518           14 
 2059000   0.91085735   -7.6562829    484.63985  0.019614693  0.019463493           14 
 2060000   0.92274169   -7.6905074    484.34209  0.019593127  0.019456458            9 
 2061000   0.90025581   -7.6971655     485.4891  0.019629997    0.0194495            7 
 2062000   0.91254871   -7.6792225    486.36297  0.019655794  0.019442534            4 
 2063000   0.91358235   -7.6510457    486.86106  0.019666386   0.01943564            3 
 2064000   0.91819108   -7.6217844    486.32453  0.019635196  0.019428759            6 
 2065000   0.90997153   -7.6754195      486.251   0.01962272    0.0194218            6 
 2066000   0.91603599   -7.6780689    486.36979  0.019618013  0.019414805           27 
 2067000   0.91029763   -7.6860469    486.75121    0.0196239  0.019407862            4 
 2068000   0.93603946   -7.6975494    486.69003  0.019611945  0.019400908            6 
 2069000   0.91064698   -7.6839669    484.81019  0.019526752  0.019393937            4 
 2070000   0.92364378   -7.6711626    486.00514  0.019565424  0.019386921            7 
 2071000   0.90381419   -7.7038327    486.47537  0.019574898  0.019379918            6 
 2072000     0.919727   -7.6660999      486.072  0.019549228  0.019372919            5 
 2073000   0.91880961   -7.6886137    486.69471   0.01956483  0.019365975            6 
 2074000   0.91812185   -7.7016331    486.62706  0.019552678  0.019358951            7 
 2075000   0.92129402   -7.6622318    487.43532  0.019575715  0.019351972            6 
 2076000   0.90965275   -7.6961955    486.56709  0.019531434  0.019345015            6 
 2077000    0.9205017   -7.7113115    486.17352   0.01950624  0.019338004            8 
 2078000    0.9338172   -7.6703301    485.84758  0.019483782  0.019331017            4 
 2079000   0.91990764   -7.6527156    488.08007  0.019563896  0.019324102            5 
 2080000   0.90828202   -7.6648483    485.87876  0.019466297  0.019317117            8 
 2081000   0.92441785    -7.627497     488.5285  0.019563051  0.019310195            8 
 2082000   0.93111745   -7.6543338    487.65569  0.019518719  0.019303303            6 
 2083000   0.91988283   -7.6718841    487.76177  0.019513593  0.019296344            3 
 2084000   0.91043419   -7.7075381    485.99996  0.019433779  0.019289362            7 
 2085000   0.88694184   -7.7067378     487.8279  0.019497518  0.019282338            3 
 2086000   0.91788915   -7.7029834    487.13534  0.019460504   0.01927533            4 
 2087000   0.91787141   -7.6756586    487.59239  0.019469429  0.019268349            6 
 2088000   0.93741166   -7.6842392    488.06536  0.019478981   0.01926141            5 
 2089000   0.91085686   -7.7132836    487.15708  0.019433424  0.019254504           16 
 2090000   0.92784356   -7.6945691     487.2721  0.019428712   0.01924757            5 
 2091000   0.94415433   -7.7357094    486.89418  0.019404359  0.019240563           11 
 2092000   0.89983651   -7.7074139    487.05632  0.019401542  0.019233574            7 
 2093000   0.90419669   -7.6731607    488.29852  0.019441731  0.019226585            5 
 2094000   0.91394108   -7.7025855    488.23644  0.019429976  0.019219604            6 
 2095000    0.9163778   -7.7125634    487.34794   0.01938536  0.019212653            6 
 2096000   0.91859227   -7.6926889    487.61513  0.019386734  0.019205706            6 
 2097000   0.93066859   -7.6922515    487.86597  0.019387457  0.019198717           12 
 2098000   0.90683584   -7.6536125    487.68647  0.019371086  0.019191745            8 
 2099000   0.90217012   -7.7051351    487.52855  0.019355588   0.01918475            6 
 2100000   0.90210141   -7.7092308    487.83214  0.019358418  0.019177739            5 
 2101000   0.93447934   -7.7357091     486.8489  0.019310206  0.019170712            7 
 2102000   0.93547056   -7.7577456    487.17294  0.019313865  0.019163643            9 
 2103000    0.9108484   -7.7109965    487.97795  0.019336581  0.019156582            6 
 2104000   0.90962961   -7.7015267    488.44259  0.019345793  0.019149548           12 
 2105000   0.92813578   -7.6912139    488.48163  0.019338148  0.019142567            6 
 2106000   0.92114463   -7.7064384    488.23726  0.019319297  0.019135583            7 
 2107000    0.9050368   -7.7058415    488.27236  0.019311516   0.01912866           12 
 2108000   0.91663085   -7.6560128    489.29772  0.019342889  0.019121767            5 
 2109000   0.91874684   -7.7045406    489.71438  0.019350181  0.019114894            9 
 2110000   0.91833066   -7.6964222    489.41663  0.019329251  0.019107979            8 
 2111000   0.92252912   -7.6963507    488.77451  0.019294746  0.019101054            4 
 2112000   0.91601321   -7.6823364    491.16371  0.019379881   0.01909417            4 
 2113000   0.92948172   -7.7246812    488.29178  0.019257445  0.019087263            7 
 2114000   0.92482469   -7.7199637    490.13473  0.019320984  0.019080363            7 
 2115000   0.90858881   -7.6992213     489.9195  0.019303369  0.019073456            7 
 2116000   0.91957169   -7.7074865    489.41445  0.019274356  0.019066519            3 
 2117000   0.90972208    -7.685068    488.59896  0.019233151  0.019059522            5 
 2118000   0.91272345   -7.7122674    489.23864  0.019249238  0.019052586            7 
 2119000    0.9022833   -7.7304647    489.60443  0.019254539  0.019045624            9 
 2120000   0.93512655   -7.7132461    490.21266  0.019269366  0.019038747            5 
 2121000   0.90646921   -7.6984707    489.07724   0.01921567  0.019031881            8 
 2122000   0.92702534   -7.7027602    491.96318  0.019319949  0.019025043           10 
 2123000   0.89156656   -7.7007017    490.75505  0.019263426  0.019018219            8 
 2124000   0.90176006   -7.6942987    489.91293  0.019221317  0.019011363            9 
 2125000   0.90738231   -7.7142295    489.48779    0.0191956  0.019004507           23 
 2126000   0.90985685   -7.7374044    488.86186  0.019162036  0.018997587           17 
 2127000    0.8968644   -7.7673868    488.87044  0.019153363  0.018990605           10 
 2128000   0.90458394    -7.731087     489.9205  0.019185483  0.018983638           19 
 2129000   0.91034821   -7.7192353    492.01677  0.019258524  0.018976798            9 
 2130000   0.91085786   -7.7002549    490.68464  0.019197365  0.018969901            4 
 2131000   0.91527805   -7.6916807    490.83385  0.019194191  0.018963022            7 
 2132000   0.93379837   -7.7606234    488.88829  0.019109142  0.018956128           13 
 2133000    0.9119442   -7.7277361    489.00612  0.019104787  0.018949135           15 
 2134000   0.91674209    -7.728059    490.12598  0.019139565  0.018942226            9 
 2135000   0.90212282   -7.7352115    491.35938  0.019178742  0.018935324            6 
 2136000   0.91546017   -7.7471408    491.06961  0.019158458  0.018928439            7 
 2137000   0.89731442   -7.7444797     490.4381  0.019124867  0.018921546            6 
 2138000   0.91362047   -7.7177219    490.29472  0.019110334  0.018914673            3 
 2139000   0.90912248   -7.7167456    490.11936  0.019094568   0.01890783            8 
 2140000   0.91806274   -7.7360962    490.39786   0.01909649  0.018901006            9 
 2141000   0.90792338   -7.7326655    490.86399  0.019105714  0.018894142            7 
 2142000    0.9025957   -7.7361595    492.69798  0.019168144   0.01888733            6 
 2143000   0.90412145    -7.745873    491.24622  0.019102746  0.018880518            5 
 2144000   0.91815365   -7.7416613    491.01876  0.019084996   0.01887371            8 
 2145000   0.90057433   -7.7273365    492.27899  0.019125058  0.018866917            6 
 2146000   0.91276573   -7.7201011    492.34928  0.019118876  0.018860171            8 
 2147000   0.91285962   -7.7123097    492.19891  0.019104134  0.018853398            6 
 2148000   0.91930459   -7.7122081    492.55177   0.01910893  0.018846683            7 
 2149000   0.88918751    -7.707716    493.24103  0.019126765  0.018839933            6 
 2150000   0.90664843   -7.6993776    492.36233  0.019083811   0.01883321            7 
 2151000   0.89215823   -7.6916234    492.84111  0.019093488  0.018826426            7 
 2152000   0.90240839   -7.7063757    493.16905  0.019097315  0.018819681            9 
 2153000   0.91398657   -7.7517561    491.86146  0.019037833  0.018812879           10 
 2154000   0.91510869   -7.7095288    494.56563  0.019133613  0.018806086            4 
 2155000   0.91177911   -7.7318535    491.29333  0.018998195  0.018799297            6 
 2156000   0.90301409   -7.7080387    492.54193  0.019037644  0.018792488            6 
 2157000   0.89144323    -7.737774     492.4391  0.019024845   0.01878568            6 
 2158000   0.91332604   -7.7490257    493.14519  0.019043296  0.018778865           10 
 2159000   0.90328109   -7.7196322    492.75373  0.019019366  0.018772154            5 
 2160000   0.92005922    -7.739255    492.55954  0.019003069  0.018765378           13 
 2161000   0.91701946   -7.7695069    492.82882  0.019004659  0.018758608            6 
 2162000   0.90714341   -7.7327746    491.56261  0.018947063  0.018751829            5 
 2163000   0.89865667   -7.7153712    493.01128  0.018994116    0.0187451            8 
 2164000   0.87778906    -7.731714    494.34352  0.019036642  0.018738336            5 
 2165000   0.92348975   -7.7183788    492.58288   0.01896008  0.018731566            7 
 2166000   0.90630998   -7.7093375     493.7594  0.018996591  0.018724794            6 
 2167000   0.91651212   -7.7165802    494.68629  0.019023469  0.018718021            4 
 2168000   0.91459113    -7.733875    493.33782  0.018962862  0.018711261            4 
 2169000   0.87756174   -7.7209619     493.7627  0.018970443  0.018704508            3 
 2170000   0.87129926    -7.722542    493.62953  0.018956587  0.018697701            6 
 2171000   0.91078453   -7.7401565    493.42726  0.018940092   0.01869093            6 
 2172000   0.91906198   -7.7782217     492.5774  0.018898764  0.018684114           10 
 2173000   0.90643036    -7.734505    492.98049  0.018905526  0.018677325           14 
 2174000   0.89450356   -7.7477278    493.02109  0.018898386  0.018670526            7 
 2175000   0.88155935   -7.7145487    494.49135  0.018946029  0.018663726           14 
 2176000   0.90418722   -7.7372787     493.8621  0.018913224   0.01865694            7 
 2177000   0.90676129    -7.711136     493.7972  0.018902052  0.018650136           12 
 2178000   0.88613572   -7.7015373    494.06055  0.018903449  0.018643313            7 
 2179000   0.89072387   -7.7123735    492.85692  0.018848742  0.018636524            9 
 2180000   0.91124123   -7.7271389    493.08226   0.01884871  0.018629734            7 
 2181000   0.90930877   -7.7208359    494.96285  0.018911923  0.018622956           10 
 2182000   0.88989996   -7.6965784    494.89917  0.018900824  0.018616177            9 
 2183000   0.91712267    -7.720139     493.5661  0.018841277  0.018609366           14 
 2184000   0.89954915   -7.7447878     494.3807  0.018863733  0.018602598            8 
 2185000   0.88463674   -7.7375155    494.96873  0.018877526  0.018595782            7 
 2186000   0.91482711   -7.6865681    494.65363  0.018856878  0.018589023            5 
 2187000   0.89887675   -7.7109457    495.87066   0.01889463  0.018582277           18 
 2188000   0.89909937    -7.743742    493.78929  0.018806722  0.018575491            6 
 2189000   0.90305675    -7.741639    495.13033  0.018849183  0.018568721            4 
 2190000   0.90628681   -7.7598299    493.60095   0.01878238  0.018561979            6 
 2191000   0.89963827   -7.7412735    495.10569   0.01883104  0.018555191            6 
 2192000   0.91444917    -7.690981    494.90719  0.018814902  0.018548462            8 
 2193000    0.9095588   -7.7178335    494.77625  0.018801347  0.018541759            5 
 2194000   0.92511801   -7.7278956    495.20532  0.018809075  0.018535012           11 
 2195000   0.90382335   -7.7136767    495.91267   0.01882736  0.018528311            8 
 2196000    0.9052172   -7.7267101    494.96984  0.018783008  0.018521601            6 
 2197000   0.90877091   -7.7518373    494.10402  0.018741618  0.018514831            8 
 2198000   0.89537117   -7.7184845    495.23565  0.018775995  0.018508092            6 
 2199000   0.89744133   -7.7445826    495.48998  0.018777095  0.018501343            6 
 2200000   0.90801203   -7.7314909    495.66623  0.018775236  0.018494618            6 
 2201000    0.8980299   -7.7394664    494.92884  0.018738787  0.018487831           14 
 2202000   0.90125768   -7.7333872    494.88614  0.018728661  0.018481074            6 
 2203000   0.87722583   -7.7386742     495.5315  0.018744572  0.018474324           11 
 2204000   0.90542267   -7.7655536    493.88542  0.018673829  0.018467607            6 
 2205000   0.90223103    -7.752016    496.27539  0.018755684  0.018460876            6 
 2206000   0.88777371   -7.7382254    497.31966   0.01878663  0.018454202            3 
 2207000   0.90899632   -7.7272291    496.73072   0.01875588  0.018447478            8 
 2208000   0.91630941   -7.7714381    496.16446  0.018726014  0.018440787           10 
 2209000    0.8955642   -7.7342193    496.68722  0.018737257  0.018434112            8 
 2210000   0.90310804   -7.7757956    495.09749  0.018668835  0.018427449            6 
 2211000   0.87882135   -7.7611267    496.44917  0.018711336  0.018420752            3 
 2212000   0.90872648   -7.7701603    496.24044  0.018695014  0.018414018            7 
 2213000   0.88308679   -7.7499835    495.79613  0.018669835  0.018407284            4 
 2214000   0.90550823   -7.7406892    495.14338  0.018636833  0.018400495            5 
 2215000      0.89043   -7.7421243    495.77759   0.01865228  0.018393748            5 
 2216000   0.89228803   -7.7881174    495.42277  0.018630519  0.018387005            4 
 2217000   0.90902057   -7.7490858    494.93389  0.018603739  0.018380265            6 
 2218000   0.90609568   -7.7579621    497.10448  0.018676904  0.018373508            5 
 2219000   0.89381986   -7.7877194    493.99769  0.018551813  0.018366754           10 
 2220000    0.9110226   -7.8001016     495.1751  0.018587654  0.018359966            9 
 2221000   0.90423517   -7.7827721    494.28051  0.018545719  0.018353195            8 
 2222000   0.91149663   -7.7640837    496.30138  0.018613163   0.01834645           13 
 2223000   0.89841557   -7.7525683    496.54373  0.018613875  0.018339759           12 
 2224000   0.91311021   -7.7162555    495.65827  0.018572327  0.018332996            9 
 2225000   0.89175021   -7.7526536    495.49911  0.018558019  0.018326188           14 
 2226000   0.89140572   -7.7549409    496.24424  0.018577577  0.018319378            8 
 2227000   0.90767552   -7.7732179    494.69738  0.018511353  0.018312558            4 
 2228000   0.87906033   -7.7442085    495.75785  0.018542708  0.018305764            9 
 2229000   0.89361789    -7.776557    494.78394  0.018497979  0.018298921            5 
 2230000   0.90850582   -7.7681592    495.71648  0.018524532  0.018292139           12 
 2231000   0.87977927    -7.799079    494.78238  0.018481338   0.01828527           11 
 2232000   0.87935832   -7.7766031    495.93327  0.018516027  0.018278389            5 
 2233000   0.88248952   -7.7864638    496.47228  0.018527851  0.018271564           10 
 2234000   0.88686994   -7.7702463    496.87149  0.018534448  0.018264763           10 
 2235000   0.88466004     -7.81746    495.47695  0.018474159  0.018257949            6 
 2236000    0.9277715   -7.8084125    495.55447  0.018468786  0.018251093           22 
 2237000   0.88663152   -7.8183892    494.74131  0.018430238  0.018244228           13 
 2238000   0.87978323   -7.8068453    495.39067  0.018446182  0.018237351            7 
 2239000    0.8691781   -7.8104812     495.6602  0.018447975  0.018230496           10 
 2240000   0.89309873   -7.7766358    497.34999  0.018502604  0.018223675            8 
 2241000   0.88287969   -7.8173308    495.61881  0.018429972   0.01821687            8 
 2242000   0.90871862   -7.7920673    496.45429  0.018452806  0.018210057            7 
 2243000   0.89810323   -7.7954915    496.92325  0.018462002  0.018203258            5 
 2244000   0.90477316   -7.8322954    496.12526  0.018424141  0.018196439            9 
 2245000   0.86607475   -7.7930534    496.09698  0.018414884  0.018189594            6 
 2246000   0.89653081   -7.7918681    496.88722  0.018436006  0.018182821           16 
 2247000    0.9015359   -7.7833588    497.39894  0.018446779   0.01817604           14 
 2248000    0.9100129   -7.8064418    496.34788   0.01839961  0.018169258            9 
 2249000   0.86102832   -7.7871429    497.47419  0.018433163  0.018162466            6 
 2250000    0.8983392   -7.8179285    496.29402   0.01838126  0.018155677           11 
 2251000   0.89715527   -7.7914137    498.85254  0.018467812  0.018148948           12 
 2252000   0.89164619   -7.7872176    496.46969  0.018371436  0.018142226           24 
 2253000   0.87927446   -7.7846113    497.16967  0.018389172  0.018135539           11 
 2254000    0.9053261   -7.8107854    498.25162  0.018421015  0.018128848            6 
 2255000   0.88374524   -7.7630422    497.54282  0.018386653  0.018122184            9 
 2256000   0.89519057   -7.7813709    498.67318  0.018420256   0.01811547           11 
 2257000   0.88136107   -7.8195212    497.72742  0.018377175  0.018108755            7 
 2258000   0.89425046   -7.8236353    497.25639  0.018351653  0.018102025            9 
 2259000   0.90665509   -7.8299757    497.35918  0.018347321  0.018095331            6 
 2260000   0.89155212   -7.7695106    498.00853  0.018363146  0.018088657            2 
 2261000   0.90782905   -7.7856836    498.64867  0.018378618   0.01808201           32 
 2262000   0.87947025   -7.8020825    498.31804  0.018358313  0.018075364            6 
 2263000      0.89777   -7.8028927    498.42302  0.018354066   0.01806875            9 
 2264000   0.88946376   -7.7496459    499.47885  0.018384822  0.018062102            3 
 2265000   0.89961524   -7.7848614    497.58469  0.018307016  0.018055443            4 
 2266000   0.90702917   -7.7659658    498.11853  0.018318569  0.018048755            8 
 2267000   0.87998811   -7.8219524    498.08019  0.018309079  0.018042032            8 
 2268000   0.87134348   -7.7988035    498.52881   0.01831749  0.018035311            4 
 2269000   0.88099789    -7.791909    499.19691  0.018333954  0.018028656           13 
 2270000   0.88335056   -7.7814724    499.79112  0.018347692  0.018022017            9 
 2271000   0.89624346    -7.743719    499.52652  0.018329903  0.018015393            7 
 2272000   0.90096138   -7.7786494    499.16785   0.01830868  0.018008768            6 
 2273000   0.87819933   -7.8155151    498.66124  0.018282052   0.01800209           14 
 2274000   0.87679123   -7.7891474    499.33248  0.018298611  0.017995416           12 
 2275000   0.89271389   -7.7941544    499.54792  0.018298458  0.017988743            9 
 2276000   0.88304108    -7.783193    499.85932   0.01830182  0.017982087            9 
 2277000   0.88351317   -7.7971852    498.07844  0.018228606  0.017975436            5 
 2278000   0.88019161   -7.8052157    500.14058  0.018296041  0.017968718            5 
 2279000   0.89043254   -7.7925293     498.4381  0.018225761  0.017962062            5 
 2280000   0.89328666   -7.8089828    499.36401  0.018251609  0.017955372            5 
 2281000   0.88062258   -7.8157061    499.29013  0.018240908  0.017948647            9 
 2282000   0.86598772   -7.8188241    499.26746  0.018232087  0.017941971           22 
 2283000    0.9031104   -7.7703327    499.33417  0.018226536  0.017935357           10 
 2284000   0.88860976   -7.7802606    498.96068  0.018204928  0.017928716            7 
 2285000   0.87723352   -7.7851264    499.54931  0.018218429  0.017922117            8 
 2286000   0.88456839   -7.8073868    498.72177  0.018180292  0.017915495           17 
 2287000   0.88236285   -7.7711425    501.03032  0.018256461  0.017908927            5 
 2288000   0.88291268   -7.8003825    499.61604  0.018196971  0.017902324           14 
 2289000   0.88278904   -7.7995708    498.93377  0.018164183   0.01789572           13 
 2290000    0.8817012   -7.8282809    499.27735  0.018168754  0.017889125           12 
 2291000   0.87145673    -7.784042    500.28662  0.018197535  0.017882516            8 
 2292000   0.89449915   -7.7901832    501.95833  0.018250376  0.017875907            9 
 2293000   0.88712268   -7.8220987    498.55937   0.01811889  0.017869286           10 
 2294000    0.8841426   -7.8103172    500.39135  0.018177541  0.017862653            7 
 2295000   0.89580354   -7.7958431    501.67657  0.018216288  0.017856023           24 
 2296000   0.87966653   -7.7923176    500.76649  0.018175323  0.017849421           23 
 2297000   0.87671746   -7.7812165    500.58099   0.01816068  0.017842826            8 
 2298000   0.87023903   -7.8030307    499.77651  0.018123604  0.017836188           12 
 2299000   0.89590819   -7.8302855    499.42824  0.018103097  0.017829528           12 
 2300000    0.8869142   -7.8074174    500.80006   0.01814493  0.017822899           11 
 2301000   0.86189031   -7.8396581    499.32147  0.018083495   0.01781627            8 
 2302000   0.88191657   -7.7875976    499.85681  0.018095019  0.017809662           17 
 2303000   0.90962464   -7.8079713     500.8284  0.018122319  0.017803043           29 
 2304000   0.87553614   -7.7864359    500.81003  0.018113789  0.017796454            9 
 2305000   0.88493306    -7.797367    501.48492   0.01813033  0.017789839            6 
 2306000   0.90508351    -7.799506    500.03519  0.018070078  0.017783246            3 
 2307000   0.87583544   -7.8274961    500.58235  0.018082009  0.017776669            8 
 2308000   0.92318595    -7.825141    500.90762  0.018085919  0.017770084           10 
 2309000   0.89172098   -7.7863305    501.28846  0.018091831  0.017763499            4 
 2310000   0.87788331   -7.8062814    500.93291  0.018071173  0.017756895            7 
 2311000   0.89111909    -7.796375    502.28477  0.018112101  0.017750315            6 
 2312000   0.88178981   -7.8053055    501.08009  0.018060845  0.017743751           24 
 2313000   0.88918117   -7.7784782    501.60824  0.018072065  0.017737159           14 
 2314000   0.87066894   -7.7929756    501.40483   0.01805693   0.01773061           22 
 2315000   0.85515497   -7.8327584    500.27455  0.018008443  0.017724065           10 
 2316000   0.87009746   -7.8054612     502.1717   0.01806893  0.017717506            5 
 2317000   0.87973168   -7.7962857    502.29465  0.018065553  0.017710997            3 
 2318000   0.88786899   -7.8150517    500.27398  0.017985116  0.017704493            6 
 2319000   0.88834205   -7.8345321    501.68837  0.018028186  0.017697922           19 
 2320000   0.86206285   -7.8409824    500.92784  0.017993098  0.017691329            7 
 2321000   0.87028356   -7.8220302    501.64288  0.018011018  0.017684753           12 
 2322000   0.89347825   -7.8238002    500.63934  0.017967246  0.017678143           13 
 2323000   0.88589806   -7.8174624    501.08335   0.01797544  0.017671534           25 
 2324000    0.8830164   -7.8406285    501.14676  0.017969979  0.017664996            4 
 2325000   0.88436069   -7.8264375    501.38724  0.017970869  0.017658403            7 
 2326000   0.89098433   -7.8500895    499.99236  0.017913169  0.017651835            8 
 2327000   0.88441414   -7.8299008    502.23493   0.01798578  0.017645234            6 
 2328000   0.88929055   -7.8412074    500.13213  0.017902783  0.017638644           16 
 2329000   0.87753186   -7.7922587    502.13159  0.017966638  0.017632074            7 
 2330000   0.85524692   -7.8393891    501.27849  0.017928415  0.017625484            4 
 2331000   0.87330082   -7.8088429    501.84537   0.01794099  0.017618941            6 
 2332000   0.89678404   -7.8204885    501.80768   0.01793195  0.017612408            9 
 2333000   0.86757974   -7.8441642    503.10395  0.017970565  0.017605875           15 
 2334000   0.88189512   -7.8309681    502.88958  0.017955212  0.017599356            8 
 2335000   0.88040591   -7.8284372     502.7886  0.017943918  0.017592858           12 
 2336000   0.89235563   -7.7713109    503.42579  0.017958968  0.017586396            9 
 2337000   0.87960527   -7.7791013    503.83084  0.017965727  0.017579996            5 
 2338000   0.92259909   -7.8141972    502.95935   0.01792698  0.017573573            7 
 2339000    0.8903009   -7.7980326    503.70682  0.017945946   0.01756713            5 
 2340000   0.86788528    -7.814939     503.5704  0.017933419  0.017560676            9 
 2341000   0.88151699   -7.7936173    503.27124  0.017915109  0.017554217            5 
 2342000   0.87631075   -7.7834707    504.64315  0.017956275  0.017547728            7 
 2343000   0.85956015   -7.8067459    502.63872   0.01787732  0.017541277            7 
 2344000   0.87044376   -7.8323712    502.53112  0.017865868  0.017534764            4 
 2345000   0.88059486   -7.8308469    501.72634  0.017829649  0.017528246            7 
 2346000   0.88045693   -7.8068475    502.32197  0.017843207  0.017521724            6 
 2347000   0.88081548   -7.8135425     504.3962  0.017909253  0.017515206            8 
 2348000   0.85606045   -7.8182412    501.82979  0.017810541  0.017508697           10 
 2349000   0.87879682   -7.8280085    502.26999  0.017818575  0.017502158            8 
 2350000   0.87823202   -7.8647387    502.87872  0.017832579  0.017495579           11 
 2351000   0.87452389   -7.8070598    503.06723  0.017831676   0.01748902            5 
 2352000   0.84585026   -7.8087145    503.03876  0.017823085   0.01748246            6 
 2353000   0.87421682   -7.8383059    501.36311  0.017756166  0.017475903            7 
 2354000   0.90050552   -7.8283966    502.55978  0.017790986  0.017469364            3 
 2355000   0.86428446   -7.8169853    503.00183  0.017799074   0.01746281            6 
 2356000   0.85320113   -7.8067161    504.59996  0.017848046  0.017456276            3 
 2357000   0.87998221   -7.8220006    505.01494  0.017855146  0.017449766            3 
 2358000   0.88079543   -7.8075196     502.9396   0.01777423  0.017443251            7 
 2359000   0.87962821   -7.8149814    503.36428  0.017781697  0.017436729            6 
 2360000   0.87327409   -7.8532841    501.67381  0.017714471  0.017430224           15 
 2361000   0.87550969   -7.8213348    504.24439  0.017797698  0.017423694            6 
 2362000   0.86604278   -7.8065003    502.80266  0.017739298  0.017417179           14 
 2363000   0.86902865   -7.8320164    503.08737  0.017741831  0.017410696            9 
 2364000   0.87377945   -7.8225239    503.13678  0.017736068  0.017404197            9 
 2365000    0.8561218   -7.8122892    503.48257  0.017740753  0.017397693            3 
 2366000   0.88651377   -7.8138711    503.94244  0.017749452  0.017391172           16 
 2367000   0.86784698   -7.8317206    503.29066  0.017719006  0.017384647            8 
 2368000   0.88613336   -7.8591585    502.22022  0.017673853  0.017378084            6 
 2369000   0.87435316   -7.8408387    502.23195  0.017666806  0.017371554            6 
 2370000   0.87234935   -7.8614887     502.8614  0.017681484  0.017365014            7 
 2371000    0.8727538    -7.866279    500.74761  0.017599733  0.017358467            7 
 2372000   0.86585529   -7.8281977     503.1216  0.017675717  0.017351924           36 
 2373000   0.87806827   -7.8498013     502.8019  0.017657041  0.017345431            7 
 2374000   0.86539439   -7.8125699    503.29647  0.017666964  0.017338917            7 
 2375000   0.89355146   -7.8135693     503.8585  0.017679246  0.017332424           10 
 2376000   0.89014643   -7.8227795    503.01162  0.017642102   0.01732591            7 
 2377000   0.88661767   -7.8309931    504.85668  0.017699365  0.017319385           13 
 2378000   0.85480257   -7.8149359    503.84155  0.017656348  0.017312866           15 
 2379000   0.86182116   -7.8497172    504.50894  0.017672304  0.017306374            7 
 2380000   0.90089299   -7.8271379    503.77172  0.017639066  0.017299858            6 
 2381000   0.87100571   -7.8018858     502.7938  0.017597431  0.017293333            8 
 2382000   0.88952274   -7.8221499    504.96002  0.017665828  0.017286803            6 
 2383000   0.84914242   -7.8154396    503.82777   0.01761882  0.017280252            6 
 2384000   0.86381992   -7.8434026    501.86029  0.017542656  0.017273675            7 
 2385000    0.8916222   -7.8177303    503.35421  0.017587498  0.017267104            8 
 2386000   0.85765564   -7.8699118    502.67787  0.017556506  0.017260528            7 
 2387000   0.87348731   -7.9169528    502.15217  0.017530798  0.017253891           10 
 2388000   0.85582948   -7.8286467     502.8579  0.017548084  0.017247268            8 
 2389000   0.86785469   -7.8533855    503.05612  0.017547653  0.017240676           18 
 2390000   0.87071355   -7.8505475    504.00038  0.017573235  0.017234093            8 
 2391000   0.87817549   -7.8564884    502.50014  0.017513597  0.017227531            9 
 2392000   0.88041877   -7.8638594    503.12031  0.017527882  0.017220986           13 
 2393000   0.85401782   -7.8362172    504.32856  0.017562633   0.01721449            8 
 2394000   0.85997064   -7.8475343    503.69337  0.017533186  0.017207947            7 
 2395000   0.87063007   -7.8602608    503.63212  0.017523734  0.017201419            9 
 2396000   0.88342805   -7.8142787    503.49267   0.01751157  0.017194906            9 
 2397000   0.85856096   -7.8768573    501.90054  0.017448913  0.017188367            7 
 2398000   0.88686489   -7.8272966    504.30988  0.017525364  0.017181821            9 
 2399000   0.87314029   -7.8703516    503.65093  0.017495169  0.017175262            8 
 2400000   0.85860634   -7.8832762    502.42961  0.017445473  0.017168675            9 
 2401000   0.85758583   -7.9015525    503.11074  0.017461847  0.017162069            8 
 2402000   0.86632952   -7.8650059     502.5641  0.017435613  0.017155442           17 
 2403000    0.8571444   -7.8635284    503.85519   0.01747313  0.017148847           20 
 2404000    0.8869409   -7.8642558    503.82361  0.017464768  0.017142262           12 
 2405000   0.88081611   -7.8594608     503.7742  0.017455794  0.017135693            9 
 2406000   0.86047228   -7.8814339    502.94058  0.017419665  0.017129088            8 
 2407000   0.87088459   -7.8813839    503.43839  0.017429663  0.017122516            8 
 2408000   0.87778404   -7.8738327    504.01836  0.017442496  0.017115966           21 
 2409000   0.87152806   -7.8702087    504.65523  0.017457286  0.017109405           19 
 2410000   0.87720676   -7.8449245     503.7827  0.017419872  0.017102874           20 
 2411000   0.88616728   -7.8647744    505.41165   0.01746895  0.017096368           23 
 2412000   0.88301157   -7.9102764    502.95501  0.017376831  0.017089839            9 
 2413000   0.86472181   -7.8923228    502.46561  0.017352729  0.017083248           23 
 2414000   0.87618753   -7.8956034    502.94137  0.017361964  0.017076648           17 
 2415000   0.87359679   -7.8886491    503.44274  0.017372075  0.017070062           12 
 2416000    0.8746622   -7.8806916    504.46675  0.017400205  0.017063477           24 
 2417000   0.86825123   -7.9000921    503.19552  0.017349177  0.017056904           10 
 2418000   0.84456775   -7.8855169    504.10549  0.017373363   0.01705038           15 
 2419000   0.85376621   -7.8534449    505.02879  0.017397988  0.017043837            9 
 2420000    0.8320243   -7.8886269    502.77534    0.0173132  0.017037265            5 
 2421000   0.85617571   -7.9140877     503.8565  0.017343264  0.017030721            9 
 2422000   0.86547967   -7.8650719    505.29379  0.017385556  0.017024208            5 
 2423000   0.87452283   -7.9084909    503.14867  0.017304604  0.017017666            3 
 2424000    0.8622335   -7.8783405    504.47654  0.017343115  0.017011115            6 
 2425000   0.85720934   -7.8658889    503.18323   0.01729152  0.017004619            4 
 2426000   0.87123609    -7.894563     504.6559  0.017334979  0.016998133            8 
 2427000   0.87135149   -7.8589897    505.84908  0.017368805  0.016991618           11 
 2428000   0.84892466   -7.8778979    506.10628  0.017370479  0.016985145            5 
 2429000   0.87509233   -7.8981112    504.61486  0.017312161   0.01697867           10 
 2430000    0.8471493   -7.9024994    504.19156   0.01729052  0.016972176           11 
 2431000   0.86266915   -7.8829225    504.85617   0.01730619  0.016965717            9 
 2432000   0.84017966   -7.8749834    505.01161    0.0173044  0.016959243            7 
 2433000    0.8603285   -7.8582589    505.23812  0.017305046  0.016952826           14 
 2434000   0.86260545   -7.8439633    506.70895  0.017348293  0.016946392           13 
 2435000   0.87160734   -7.8486161     506.0956  0.017320178  0.016940016            6 
 2436000   0.86572907   -7.9061734     504.3358  0.017252867  0.016933621            8 
 2437000   0.86246087   -7.9013101    506.19136  0.017309238  0.016927177           11 
 2438000   0.85995426    -7.883167    503.83128  0.017221468  0.016920705            3 
 2439000   0.84496978   -7.8576171    506.36601  0.017301012  0.016914278            8 
 2440000   0.85971447   -7.8361863    507.43528   0.01733044  0.016907858            4 
 2441000    0.8656742    -7.888531     506.2353  0.017282374  0.016901482           10 
 2442000   0.86993909   -7.8893542    505.97525  0.017266423  0.016895077           13 
 2443000   0.87568275   -7.9094721    505.35305  0.017238131   0.01688869           13 
 2444000   0.85757561   -7.8349162    508.03846  0.017322642  0.016882292           21 
 2445000   0.86173641   -7.8573478    506.34912  0.017257979  0.016875929           14 
 2446000    0.8433219   -7.8854749     506.6511  0.017261212  0.016869542           25 
 2447000   0.84515595   -7.9317021     506.2776  0.017241438  0.016863147           25 
 2448000   0.87025346   -7.9008145    505.81673  0.017218707  0.016856744           10 
 2449000   0.84381644   -7.8777764    506.22412  0.017225538  0.016850337            5 
 2450000   0.84447182   -7.9027254    506.45258  0.017226278   0.01684396           13 
 2451000   0.84994359   -7.8941307    506.53063  0.017221903  0.016837585            6 
 2452000    0.8629653   -7.9055989    507.62418  0.017252045  0.016831205           12 
 2453000   0.85302168   -7.8825196    506.38623  0.017202957  0.016824829           16 
 2454000   0.85055955    -7.903998    505.63731  0.017170515  0.016818469           16 
 2455000   0.86088574   -7.9392102    504.62036  0.017129001  0.016812067           21 
 2456000   0.83343193   -7.8803458    506.19992  0.017175621  0.016805672           13 
 2457000   0.86332384   -7.8891754    506.55047  0.017180521  0.016799321           22 
 2458000   0.87899779    -7.885911    506.78052   0.01718133  0.016792938            8 
 2459000   0.84928077   -7.8984038    507.03811  0.017183073  0.016786553            7 
 2460000   0.86800223   -7.8828737    506.56374  0.017160018  0.016780171            8 
 2461000   0.86164556    -7.920423    505.73125  0.017124856  0.016773796            9 
 2462000   0.84548418   -7.9114819     506.5299  0.017144933  0.016767429           10 
 2463000    0.8440025   -7.8610329    507.13566  0.017158467  0.016761101           15 
 2464000   0.86955155    -7.844554    509.03356  0.017215691   0.01675481            8 
 2465000   0.86977174   -7.8866142    505.62874  0.017093602  0.016748511            7 
 2466000   0.84448054   -7.8883198     507.1944  0.017139578  0.016742192            9 
 2467000   0.85254904     -7.85745    506.76173  0.017118016  0.016735853           30 
 2468000   0.86254999   -7.9257655     506.1526  0.017090512  0.016729499           40 
 2469000   0.85525216   -7.9083528    507.31943  0.017122972  0.016723127           29 
 2470000   0.85628061   -7.9306592    505.32635  0.017048797  0.016716748           23 
 2471000   0.83930737   -7.9108217    506.66609   0.01708708  0.016710349           27 
 2472000    0.8436325   -7.9196439    506.52495  0.017075409  0.016703945           29 
 2473000   0.83559507   -7.8751964    506.24653  0.017059123  0.016697572           34 
 2474000   0.85537593   -7.8947467    508.06196  0.017113378  0.016691252           39 
 2475000   0.85264328   -7.9004859    506.36929  0.017049471  0.016684926           26 
 2476000   0.86193843   -7.8798767    508.02542  0.017098325    0.0166786            9 
 2477000   0.85785528   -7.9201048    507.51974  0.017074409  0.016672243           17 
 2478000    0.8809666   -7.8702114     508.2155  0.017090917  0.016665973           13 
 2479000   0.85355329   -7.9098753    507.05455  0.017044996  0.016659665            9 
 2480000   0.84190693   -7.8521284    507.04482  0.017037796  0.016653389           14 
 2481000   0.84998426   -7.8878621    508.08047  0.017065715  0.016647104           13 
 2482000   0.85334156   -7.8868667    507.66096  0.017044754   0.01664087           13 
 2483000   0.84867091   -7.8503478    507.98332  0.017048708  0.016634623           12 
 2484000   0.84764191   -7.9268673    507.30966  0.017019245  0.016628324            7 
 2485000   0.85049535   -7.9284047    507.64262  0.017023562  0.016622025            5 
 2486000   0.83804072    -7.889509    508.56802  0.017047734  0.016615746            5 
 2487000   0.85145265    -7.878303    508.39135   0.01703496   0.01660949            9 
 2488000   0.85546413   -7.8952769    508.70323  0.017038559  0.016603221            7 
 2489000   0.84929377   -7.8634768    510.05506  0.017076974  0.016596959           10 
 2490000   0.86047877   -7.8993609    508.54583  0.017019606  0.016590687            5 
 2491000   0.83368664   -7.8644768    508.81398  0.017021744  0.016584433           11 
 2492000   0.84111622   -7.8698306    509.63941  0.017042516  0.016578246           10 
 2493000   0.84002424   -7.8630745    509.14913  0.017019292  0.016572066            7 
 2494000   0.82030778   -7.8661444    510.02077  0.017041592   0.01656588           12 
 2495000   0.84671393   -7.8746415    510.05579  0.017035932  0.016559716           12 
 2496000   0.84069177   -7.9133989    508.99959  0.016993843  0.016553487            6 
 2497000   0.85234537   -7.9240028     508.3359  0.016964888  0.016547236           19 
 2498000   0.85226265   -7.8792711    508.17425  0.016952704  0.016540942            5 
 2499000   0.85442933   -7.9290613    507.18786  0.016913027  0.016534665           17 
 2500000    0.8423112   -7.9122011    507.83095  0.016927698  0.016528413           30 
 2501000    0.8672362   -7.9158504    508.48703   0.01694279  0.016522161           10 
 2502000   0.85616118   -7.9208179    508.53135  0.016937495   0.01651591            4 
 2503000   0.85452062   -7.9205874    507.83223  0.016907452  0.016509636           10 
 2504000   0.85049668    -7.912488    508.64649  0.016927798  0.016503353            9 
 2505000   0.85827777   -7.9430564    507.54652  0.016884449   0.01649708           15 
 2506000   0.85744042   -7.9060311     508.8632  0.016921495  0.016490826            7 
 2507000    0.8570035    -7.881328     509.8359  0.016947078  0.016484585            5 
 2508000   0.86009344    -7.923064    508.78323  0.016905344  0.016478326            9 
 2509000   0.84993999   -7.9202701    508.23604  0.016880432  0.016472085           14 
 2510000   0.84717897   -7.9293448    508.60078  0.016885816  0.016465852           18 
 2511000   0.84301472   -7.9238642     507.6315  0.016846923  0.016459607            8 
 2512000   0.84568932   -7.9391824    509.28344  0.016895019  0.016453368           19 
 2513000   0.85642095   -7.8923156    509.26806  0.016887785  0.016447163           21 
 2514000   0.85106583   -7.8930484    509.54202  0.016890149  0.016440928           16 
 2515000   0.84808625   -7.8962773    509.59332  0.016885133  0.016434727           14 
 2516000   0.84633707    -7.927785    509.52964  0.016876313  0.016428482           34 
 2517000   0.84698014   -7.9052652    510.05359  0.016886955  0.016422224           53 
 2518000   0.83935261   -7.9558027    508.47106  0.016827875  0.016415956           18 
 2519000   0.86440447   -7.9342205    508.92167  0.016836101  0.016409689           11 
 2520000   0.86123207   -7.9084328     510.0214  0.016865787  0.016403446           15 
 2521000   0.83419098   -7.9499943     508.1771  0.016798132  0.016397221           12 
 2522000    0.8394017   -7.9333338    509.61155   0.01683887  0.016390982           11 
 2523000   0.84173217   -7.9296194    509.72877  0.016836067  0.016384746            8 
 2524000   0.86388335   -7.9241901    509.81658  0.016832296  0.016378556           14 
 2525000   0.85861859   -7.9229622    508.99413  0.016798486  0.016372363            6 
 2526000   0.85799865   -7.9339409    510.13788  0.016829568  0.016366162            7 
 2527000   0.83231169   -7.9566405    508.57799  0.016771468  0.016359921           21 
 2528000     0.857982   -7.9459485    508.19113  0.016752081  0.016353676           14 
 2529000   0.86000406   -7.9563233    509.79315  0.016798245  0.016347426           19 
 2530000   0.85188506   -7.9374149    509.28038  0.016774716  0.016341177           20 
 2531000   0.84993007   -7.9451469    508.63729  0.016746915  0.016334919           18 
 2532000   0.85551803   -7.9539667    509.45986  0.016767373  0.016328665           13 
 2533000   0.84908298   -7.9017075    510.48652   0.01679453  0.016322456            7 
 2534000   0.84732205   -7.8951351    510.04238  0.016773296  0.016316251           12 
 2535000   0.84812949   -7.9101895    509.32702  0.016743163  0.016310044           13 
 2536000   0.83975787   -7.9171867    509.80613  0.016752304  0.016303842           16 
 2537000   0.86379375   -7.9154845    510.35814  0.016763833  0.016297676            9 
 2538000   0.85058384   -7.9410777    509.76602  0.016737786  0.016291478           14 
 2539000   0.84939434   -7.9113423    510.37649   0.01675123  0.016285304           12 
 2540000   0.85159033   -7.9252789    509.32017  0.016709979  0.016279116           13 
 2541000    0.8597748   -7.9428974     509.9419  0.016723793  0.016272929            9 
 2542000   0.84250521    -7.936901    510.44102  0.016733577  0.016266742           13 
 2543000   0.85819823   -7.9293709    509.62613  0.016700293  0.016260537           34 
 2544000   0.83023525   -7.9655039    509.26928  0.016682039  0.016254316           15 
 2545000   0.84341675   -7.9230205    509.31078  0.016676843  0.016248123           16 
 2546000   0.83600218   -7.9323944    510.48296  0.016708659  0.016241912           12 
 2547000   0.84262295   -7.9553385     510.3915  0.016699107  0.016235751           19 
 2548000   0.85093935   -7.9572233    509.64225  0.016668049  0.016229558           16 
 2549000   0.84852192   -7.9304401    510.27564  0.016682216  0.016223343           13 
 2550000   0.86036446   -7.9214336    509.96229  0.016665434  0.016217131           22 
 2551000   0.84027636    -7.928365    510.72492  0.016683814  0.016210918            9 
 2552000    0.8639899    -7.975017    508.60472  0.016608044  0.016204691            7 
 2553000   0.83143561   -7.9283306    509.56937  0.016633026  0.016198497           17 
 2554000   0.82278215   -7.9584223    509.62595  0.016628359  0.016192307           10 
 2555000   0.82127204   -7.9441881    509.31313  0.016611648  0.016186118           16 
 2556000   0.81800413   -7.9640708    508.73364  0.016586256  0.016179893           15 
 2557000   0.84607977     -7.97043    509.26101  0.016596956  0.016173661            7 
 2558000   0.84683847   -7.9440654     508.8625  0.016577486  0.016167509            8 
 2559000   0.83974631   -7.9469207    510.03711  0.016609259  0.016161357           16 
 2560000   0.84744344   -7.9475774    509.78798  0.016594661   0.01615519           15 
 2561000   0.80837632   -7.9370381    510.65597  0.016616425  0.016149053            7 
 2562000   0.84740137   -7.9210523    509.72291   0.01657959  0.016142915            9 
 2563000   0.85651003   -7.9082441    511.93405  0.016645014  0.016136817            9 
 2564000   0.82770208   -7.9398306    510.47824  0.016591206  0.016130678           12 
 2565000   0.84286829   -7.9471485     510.3702  0.016581228  0.016124514            6 
 2566000   0.85325276   -7.9201989    510.28533   0.01657201  0.016118381           11 
 2567000   0.85949348   -7.9539459    509.91877  0.016553654  0.016112234           12 
 2568000    0.8502265   -7.9722096    510.65191  0.016570999  0.016106047           15 
 2569000   0.84343867   -7.9892042    510.66296  0.016564907  0.016099876            8 
 2570000   0.83535827   -7.9000033    511.92448  0.016599367  0.016093759            8 
 2571000   0.82033503   -7.9082255    511.71063  0.016585979  0.016087668           24 
 2572000   0.84301946   -7.9407835    511.50478  0.016572861  0.016081572           22 
 2573000   0.84388233   -7.9360896    511.56048  0.016568224  0.016075468           23 
 2574000   0.84924705   -7.9405244    510.21279  0.016518155  0.016069322           25 
 2575000   0.81221242   -7.9611431    510.27916  0.016513889  0.016063181           18 
 2576000   0.82823626   -7.9429661     510.8368  0.016525518  0.016057084            5 
 2577000   0.82881964   -7.9531177    510.62698   0.01651232  0.016050966            9 
 2578000   0.84241573   -7.9070446    509.71653  0.016476485  0.016044842           10 
 2579000   0.84738021   -7.9513678     511.4723  0.016526829   0.01603875           11 
 2580000   0.85193216   -7.9398606    511.41801   0.01651867  0.016032632           12 
 2581000   0.83964638   -7.9255818    510.37713  0.016478662  0.016026523            7 
 2582000   0.85224726   -7.9202133    511.44478  0.016506738  0.016020404           10 
 2583000   0.85582039   -7.9522625    510.88882  0.016482411  0.016014299            8 
 2584000   0.83926272    -7.924176     510.2325  0.016454867  0.016008203           14 
 2585000   0.84112387   -7.9258483    512.31479  0.016515628  0.016002113            9 
 2586000    0.8417586   -7.9064036    511.61433  0.016486669  0.015996033            4 
 2587000   0.82747505   -7.9503062    510.97953  0.016459848  0.015989916            9 
 2588000   0.83533374   -7.9313378    511.50803  0.016470506  0.015983804            9 
 2589000   0.85204203    -7.964872    510.75003  0.016439746  0.015977686            7 
 2590000   0.83917143   -7.9838058    508.30397  0.016354697  0.015971575            6 
 2591000   0.83667276   -7.9322387     511.4243  0.016448742  0.015965468            7 
 2592000   0.84617672   -7.9475239     511.4434  0.016443011  0.015959401            7 
 2593000   0.86244617   -7.9606948    510.87941  0.016418544  0.015953322           12 
 2594000   0.83243103   -7.9384273    511.95371  0.016446727  0.015947266            8 
 2595000   0.83221702   -7.9566842    510.70312  0.016400229  0.015941187           12 
 2596000   0.83665744   -7.9186556    511.79984  0.016429117  0.015935109            8 
 2597000   0.82503995   -7.9690589    510.05709  0.016366868  0.015929006           20 
 2598000   0.84071633   -7.9260528    511.91269  0.016420089  0.015922922            6 
 2599000   0.83841186     -7.94477    511.03944  0.016385771  0.015916839           12 
 2600000   0.83082455    -7.942359    511.91607  0.016407566  0.015910754           14 
 2601000   0.82164411   -7.9426189    512.53683  0.016421147  0.015904701           16 
 2602000   0.83904273   -7.9936761    510.02639  0.016334435  0.015898627           18 
 2603000   0.84171896   -7.9261204    513.25997   0.01643168   0.01589254           13 
 2604000   0.82987173   -7.9801325    510.35945  0.016332548  0.015886463           11 
 2605000   0.82571837    -7.924853    512.81815  0.016404931  0.015880404           25 
 2606000   0.82972926   -7.9603858    511.10347  0.016343805  0.015874323           18 
 2607000    0.8259949   -7.9480357    511.61575  0.016353911  0.015868199           11 
 2608000   0.84193393   -7.9345355    510.66483  0.016317255  0.015862102            8 
 2609000   0.83972253   -7.9500828    511.33324  0.016332351  0.015855992           10 
 2610000   0.82043975   -7.9433317    511.01227  0.016315845  0.015849927           14 
 2611000   0.82037727   -7.9541556    512.05875  0.016342996  0.015843847           11 
 2612000   0.82794888   -7.9553008    509.66417  0.016260342  0.015837778           16 
 2613000   0.83770955    -7.981858    511.08907  0.016299562  0.015831673            9 
 2614000   0.83761362   -7.9776626    510.79439  0.016283932  0.015825537           10 
 2615000   0.83376726   -7.9694217     509.9368  0.016250376  0.015819415           13 
 2616000   0.84640291   -7.9875767    510.15025  0.016250964  0.015813284           12 
 2617000    0.8244576   -7.9975143    510.65368  0.016260785  0.015807144           15 
 2618000   0.84807843   -7.9557344    511.37774  0.016277621   0.01580102            6 
 2619000   0.84997602   -7.9492915    510.56245  0.016245464  0.015794945           15 
 2620000   0.84134167   -7.9470272    511.76277  0.016277442  0.015788834            7 
 2621000   0.84460262   -7.9720941    510.37923  0.016227243  0.015782728           11 
 2622000   0.82419647   -8.0091812     510.0116  0.016209369  0.015776592            9 
 2623000   0.82656152   -7.9778739    509.88626  0.016199208  0.015770439            7 
 2624000   0.83969874   -7.9933217    511.64981  0.016249041  0.015764282           26 
 2625000   0.83422182   -8.0086058    510.68502  0.016212223   0.01575814           11 
 2626000   0.84330056   -7.9724667    510.67896  0.016205857  0.015752046           12 
 2627000   0.83645119   -7.9902201     510.3291   0.01618859  0.015745925            7 
 2628000   0.83268428    -7.980879    511.31042  0.016213547  0.015739803           11 
 2629000   0.81974198   -7.9731295    511.00191  0.016197601  0.015733682            6 
 2630000   0.82498923   -7.9994385    509.06368  0.016130028   0.01572754           11 
 2631000   0.82788825    -7.969475    510.22963  0.016160827  0.015721407            9 
 2632000   0.84109063   -7.9853504    511.59725  0.016197988  0.015715272           20 
 2633000   0.84298497   -7.9784182    510.56801  0.016159261  0.015709134           12 
 2634000   0.83603337   -7.9770697    511.14919  0.016171513   0.01570298            7 
 2635000   0.81867235   -7.9408149     511.4896  0.016176142  0.015696853            5 
 2636000   0.82278084   -7.9647486    510.69434  0.016144864  0.015690734           14 
 2637000   0.83141703   -7.9882869    510.29794  0.016126215  0.015684626            7 
 2638000   0.82739314   -7.9499337    511.24767  0.016150103  0.015678514           10 
 2639000   0.82984152   -7.9536208    511.50262  0.016152034  0.015672432            7 
 2640000   0.81499093   -7.9833342    509.81614  0.016092681   0.01566632           11 
 2641000   0.80920303   -8.0037863    510.55409  0.016109873  0.015660212           14 
 2642000   0.81452595   -7.9776123    508.29074  0.016032385  0.015654068            7 
 2643000   0.81962286   -8.0132723    510.61215  0.016099513  0.015647923            7 
 2644000   0.83817324   -8.0132224    510.64259  0.016094383  0.015641752           10 
 2645000   0.82272762   -7.9922589    510.43816  0.016081858  0.015635599           14 
 2646000   0.83440435   -7.9897194    510.74759  0.016085525  0.015629469           10 
 2647000   0.82203818   -7.9689663    510.79517  0.016080946  0.015623356           11 
 2648000   0.81575737   -8.0047601    510.08316  0.016052466  0.015617253           12 
 2649000   0.84133155   -7.9864629    511.42744  0.016088695  0.015611185           10 
 2650000   0.85124594   -7.9547117    511.79777  0.016094269  0.015605098           15 
 2651000   0.85120792   -8.0127301    510.13891  0.016036053  0.015599023           34 
 2652000   0.82794827   -7.9969993    510.98009  0.016056438  0.015592949           16 
 2653000   0.82666622      -8.0007    509.88523  0.016015996  0.015586863           16 
 2654000   0.80891098    -7.997344    510.61413  0.016032848  0.015580756           36 
 2655000   0.82326836   -7.9602889    511.85066   0.01606562  0.015574663           35 
 2656000   0.82238954   -7.9935557     512.1468  0.016068863  0.015568599           46 
 2657000   0.82334235    -8.001742    512.36851  0.016069769  0.015562497           27 
 2658000   0.82164368   -7.9979451     511.1108  0.016024291  0.015556431           49 
 2659000   0.81624915   -7.9862363    511.00628  0.016014989  0.015550353           78 
 2660000   0.82314178    -8.021581    510.82496  0.016003288  0.015544253           31 
 2661000   0.83209057    -8.032531    512.23245  0.016041352  0.015538146           26 
 2662000   0.80908828   -7.9941638    510.58806  0.015983849  0.015532054           22 
 2663000   0.81792225   -7.9984851     510.7588  0.015983189  0.015525942           41 
 2664000   0.81019294   -8.0096316    510.77911  0.015977825  0.015519857           36 
 2665000    0.8465621   -8.0090715    511.35288  0.015989771  0.015513781           52 
 2666000   0.81286991   -8.0274923    511.41793  0.015985807  0.015507703           42 
 2667000   0.83138098   -8.0212685     510.0842  0.015938139  0.015501613           41 
 2668000   0.82796464   -8.0030546    509.99776  0.015929465   0.01549551           32 
 2669000   0.83315655   -8.0171375    510.52179  0.015939859  0.015489403           27 
 2670000   0.83653816   -8.0359494    510.64636  0.015937777  0.015483287           41 
 2671000   0.80945512   -8.0356373    511.71088  0.015965022  0.015477168           47 
 2672000   0.83189963   -8.0256618    511.97667  0.015967336  0.015471052           45 
 2673000   0.83648266   -8.0307956    510.19907  0.015905944  0.015464952           42 
 2674000   0.82337394   -8.0339323    510.75813  0.015917419  0.015458892           44 
 2675000   0.83315118   -8.0254018    510.52511  0.015904209  0.015452825           57 
 2676000   0.83257992   -8.0268049    510.92233  0.015910636  0.015446743           47 
 2677000   0.80189542   -8.0011515    511.58212  0.015925231  0.015440654           34 
 2678000   0.81526213    -8.023977    511.39046   0.01591332  0.015434576           48 
 2679000   0.82577304   -8.0428311    511.13906   0.01589956  0.015428496           40 
 2680000    0.8202917   -8.0494253    510.32379  0.015868277  0.015422391           45 
 2681000   0.82895658    -8.041762    512.29604  0.015923661   0.01541628           67 
 2682000   0.81782814    -8.020357    510.93477  0.015875428  0.015410193           42 
 2683000   0.82393237    -8.046745    510.35891  0.015851625  0.015404093           34 
 2684000   0.82413784   -8.0403715    511.28465  0.015874461  0.015398018           67 
 2685000   0.82030044   -8.0287052    510.54563  0.015845612  0.015391954           53 
 2686000   0.81380651   -8.0390422    510.73867  0.015845702  0.015385887           27 
 2687000   0.82363701   -8.0184202    512.40829  0.015891586  0.015379806           41 
 2688000   0.83440906   -8.0376519    510.14153    0.0158154  0.015373746           53 
 2689000   0.81234463   -8.0479881    510.22821  0.015812204  0.015367656           48 
 2690000   0.81033064   -8.0288921    511.91267  0.015858509  0.015361562           55 
 2691000   0.83423519   -8.0365129    512.20394  0.015861636  0.015355479           52 
 2692000   0.82135102   -8.0439026    510.73361  0.015810228  0.015349376           83 
 2693000    0.8156784   -8.0546053    510.30899  0.015791218  0.015343288           40 
 2694000   0.81517569   -8.0481124    511.06405  0.015808712   0.01533721           75 
 2695000   0.81913775   -8.0497747    511.14624  0.015805388  0.015331112           87 
 2696000   0.83475646    -8.026644    510.09103  0.015766909  0.015324989           55 
 2697000   0.81538122   -8.0419936    509.90213  0.015755226   0.01531889           47 
 2698000   0.80834612   -8.0179855    510.01993  0.015753025  0.015312826           89 
 2699000   0.81807629   -8.0284941    511.81311  0.015802554  0.015306752           63 
 2700000   0.82947857   -8.0401168    511.01124  0.015771952  0.015300673           75 
 2701000   0.81290369   -8.0294211    512.06268  0.015798552  0.015294609           84 
 2702000   0.83185663   -8.0140415    510.29952  0.015738327  0.015288546           84 
 2703000    0.8198946   -8.0520171    510.25232  0.015731049  0.015282453          108 
 2704000   0.82080357   -8.0654379    510.69861  0.015738986  0.015276348           86 
 2705000   0.82372862   -8.0565755    509.95289  0.015710194  0.015270231           97 
 2706000    0.8396136   -8.0273158    512.22501   0.01577436  0.015264134          112 
 2707000   0.82439167   -8.0383794    510.00984   0.01570034  0.015258026          116 
 2708000   0.80636416   -8.0401455    509.99123  0.015693969  0.015251903          125 
 2709000    0.8137739   -8.0626076    509.57491  0.015675369  0.015245788          125 
 2710000   0.82590235   -8.0820597    509.40143  0.015664251   0.01523968          124 
 2711000   0.82021294   -8.0851752    509.56345  0.015663453  0.015233563          127 
 2712000    0.8099284   -8.0877036    509.73802  0.015663041  0.015227458          125 
 2713000   0.82566935   -8.0504442    510.80606  0.015690074  0.015221338           84 
 2714000   0.83000009   -8.0661979     509.8886  0.015656123  0.015215223          108 
 2715000   0.82824125   -8.0594443    510.29187  0.015662734  0.015209131          126 
 2716000   0.79416215   -8.0265564    511.44868  0.015692461  0.015203034          145 
 2717000   0.82424384   -8.0512298    509.93693  0.015640318   0.01519694          138 
 2718000   0.82469949   -8.0713542    510.01359  0.015636914  0.015190832          186 
 2719000   0.82999453   -8.0713945    510.13239  0.015634804  0.015184723          195 
 2720000   0.79705501   -8.0653231    510.11301  0.015628462  0.015178593          201 
 2721000   0.81454954   -8.0536608    510.26315  0.015627317  0.015172481          166 
 2722000   0.79693222   -8.0719017    511.63776  0.015663659  0.015166371          216 
 2723000   0.82526803   -8.0771779    510.31481   0.01561742  0.015160251          244 
 2724000   0.79459247   -8.0906619    510.10954  0.015605407  0.015154136          203 
 2725000   0.82692582   -8.0373346    510.32964  0.015606411  0.015148017          219 
 2726000   0.82054978   -8.0740707    509.67573  0.015580696  0.015141919          194 
 2727000   0.80353893   -8.0506281     509.3687    0.0155656  0.015135837          250 
 2728000   0.82258177   -8.0941174    509.63788  0.015568117  0.015129717          268 
 2729000   0.81523464   -8.0760677    509.69051  0.015564019  0.015123596          202 
 2730000   0.81522433   -8.0697705    508.00175  0.015506769   0.01511748          195 
 2731000   0.81729977   -8.0924575     509.4211  0.015544401  0.015111333          238 
 2732000   0.80790419    -8.082653    509.83145  0.015551228  0.015105232          214 
 2733000   0.83282812    -8.075756    509.22175  0.015526947  0.015099099          187 
 2734000   0.83208197   -8.0801223    510.69995  0.015566324  0.015092974          258 
 2735000   0.79384066   -8.0453633    511.66737  0.015590109  0.015086852          236 
 2736000   0.80077541   -8.0802302    510.08688  0.015536272  0.015080739          198 
 2737000   0.81093045   -8.0657012    510.88209  0.015554807   0.01507461          177 
 2738000   0.80372949    -8.094407    509.10298  0.015494977  0.015068488          213 
 2739000   0.80160019   -8.0951845    508.75989  0.015478882  0.015062365          271 
 2740000   0.82234254   -8.0746539    509.88469  0.015507442  0.015056251          235 
 2741000    0.8148707   -8.0850748    509.80818  0.015499458  0.015050166          207 
 2742000   0.80056366   -8.0793275    508.92355   0.01546692   0.01504409          233 
 2743000   0.81401929   -8.0695232    510.53774  0.015510321  0.015038004          218 
 2744000   0.80028447   -8.0918423    509.91266  0.015485686   0.01503191          231 
 2745000   0.83001068   -8.0659311    511.19417  0.015518949  0.015025851          248 
 2746000   0.82307935   -8.0781689    510.09061  0.015479807  0.015019772          260 
 2747000   0.83256725   -8.0722717    510.73064  0.015493588  0.015013697          258 
 2748000   0.81028447   -8.1022185    508.85141  0.015430962   0.01500761          305 
 2749000   0.79559146    -8.092291    508.09562  0.015402438  0.015001479          315 
 2750000   0.79101333   -8.0859829    508.06044  0.015395771  0.014995353          308 
 2751000   0.80159958   -8.0728957    510.02551    0.0154497  0.014989235          298 
 2752000   0.83037685   -8.1212301    510.03034  0.015444233  0.014983128          323 
 2753000   0.81350069   -8.1177125    508.15238  0.015381777   0.01497703          395 
 2754000   0.83464849   -8.1170477    509.66455  0.015421948  0.014970933          413 
 2755000   0.82170169   -8.0965241    509.35775   0.01540707  0.014964818          382 
 2756000   0.80738182   -8.1027824      510.617  0.015439556  0.014958728          358 
 2757000   0.79946927   -8.1254505    509.85726  0.015410992  0.014952617          424 
 2758000   0.80468214   -8.1212996    509.75191  0.015402221    0.0149465          388 
 2759000    0.8285522    -8.141412    508.37159  0.015354947  0.014940381          395 
 2760000   0.79124743   -8.1354871    509.47488  0.015382696  0.014934273          374 
 2761000   0.81487492   -8.1314443    509.44226   0.01537614  0.014928142          490 
 2762000   0.80850454   -8.1280946    509.39139  0.015369038  0.014922005          473 
 2763000   0.80087314   -8.1499643    509.11378  0.015355103  0.014915863          495 
 2764000   0.80791795   -8.1542618    508.52254  0.015331722  0.014909713          546 
 2765000   0.82358702   -8.1808644     508.5017  0.015325549  0.014903592          551 
 2766000   0.80682188   -8.1265491    507.83011  0.015299774  0.014897463          544 
 2767000   0.81090284   -8.1578481    508.17421  0.015304608  0.014891329          619 
 2768000   0.81111049   -8.1622899    507.68762   0.01528443  0.014885186          624 
 2769000   0.80277048   -8.1646083    508.51908  0.015303933  0.014879036          802 
 2770000   0.81262004    -8.165047    507.53391   0.01526877  0.014872854          677 
 2771000   0.82010231    -8.177637    508.02925  0.015278156  0.014866681          719 
 2772000   0.81035141   -8.1972792    508.36285  0.015282673  0.014860516          903 
 2773000    0.7985582   -8.1861769    507.50598  0.015251412  0.014854333          721 
 2774000    0.8057264   -8.1858071    507.61787  0.015249275  0.014848152          721 
 2775000   0.80228743   -8.1812311    508.55312  0.015271866  0.014841972          717 
 2776000   0.79775725   -8.1897146     508.1257  0.015253533  0.014835764         1011 
 2777000   0.81397831   -8.1967288    507.57087  0.015231391  0.014829586          985 
 2778000   0.78964914   -8.2111834    508.94856  0.015267235  0.014823402         1001 
 2779000   0.79512685   -8.1923983    508.48772  0.015247922  0.014817215          909 
 2780000   0.82055405   -8.1975422    507.93452  0.015225855  0.014811036          847 
 2781000    0.7981264   -8.2339703    507.04106  0.015193607  0.014804835         1044 
 2782000   0.81285064   -8.2217836      506.266  0.015164929  0.014798595          881 
 2783000   0.80372054   -8.2388624    506.31083  0.015160822  0.014792377          969 
 2784000   0.81191306   -8.2498198    505.58176  0.015133553  0.014786127         1240 
 2785000    0.7936162   -8.2326713    506.32677  0.015150412  0.014779865         1220 
 2786000   0.80097398   -8.2586526    506.04068  0.015136417  0.014773602         1022 
 2787000   0.80884563   -8.2503651    506.71342  0.015151101  0.014767348         1281 
 2788000   0.80458515   -8.2760961    505.60401  0.015112506  0.014761091         1246 
 2789000   0.80016565   -8.2911163    506.08684  0.015121514  0.014754822         1317 
 2790000   0.81735585   -8.2590356    506.85963  0.015139177  0.014748571         1307 
 2791000   0.80125843   -8.2583991    506.07418    0.0151103  0.014742322         1356 
 2792000   0.80882279   -8.2685747    505.88206  0.015099154  0.014736075         1363 
 2793000   0.79539228   -8.2727311    506.20762  0.015103462  0.014729813         1372 
 2794000   0.79250868    -8.295855    504.71375    0.0150535  0.014723565         1372 
 2795000   0.81347475   -8.2627356    505.81452  0.015080934  0.014717296         1404 
 2796000   0.79452534   -8.3090361    505.26031  0.015059022   0.01471103         1422 
 2797000   0.81694626   -8.3042232    505.17396  0.015051065   0.01470475         1494 
 2798000   0.79754822   -8.3010961    505.77477   0.01506358  0.014698468         1529 
 2799000   0.81069602   -8.2987509    504.62611     0.015024  0.014692197         1598 
 2800000   0.81939358   -8.2995804    505.89014  0.015056254  0.014685903         1672 
 2801000   0.80356401   -8.2967313    505.92919  0.015052041  0.014679621         1819 
 2802000   0.81843848   -8.3320085    504.82271  0.015013761  0.014673317         1806 
 2803000   0.80422992   -8.3559688    504.02019  0.014984546  0.014666991         1877 
 2804000   0.80213776   -8.3218294    504.62377   0.01499714  0.014660652         1939 
 2805000    0.7951536   -8.3421017    503.79191   0.01496708  0.014654303         1884 
 2806000   0.79967461   -8.3744717      503.025   0.01493897  0.014647941         2001 
 2807000   0.81429816   -8.3933364     503.6337  0.014951719  0.014641536         2061 
 2808000   0.79837375   -8.3344647    503.16738  0.014932555  0.014635141         2009 
 2809000   0.78727212   -8.3572372    503.02487  0.014923011   0.01462875         1982 
 2810000    0.8115233    -8.348513    504.47004  0.014960559   0.01462236         2006 
 2811000   0.79517731    -8.362281    502.45951  0.014895634  0.014615939         2140 
 2812000   0.80896065   -8.3949714    501.91046  0.014874065  0.014609511         2026 
 2813000   0.80882905   -8.4006557    501.89693  0.014868377  0.014603067         2161 
 2814000   0.79672936   -8.3829202    502.59921   0.01488389   0.01459663         2211 
 2815000   0.80606596   -8.4133037    501.92434  0.014858625  0.014590174         2219 
 2816000   0.80866219   -8.4166572    501.90927  0.014852902  0.014583712         2311 
 2817000   0.81179935   -8.4412297    501.26441  0.014828553  0.014577265         2314 
 2818000   0.80873273   -8.4323095    501.74219   0.01483742  0.014570805         2305 
 2819000   0.80825676   -8.4544964    500.57499  0.014797652  0.014564323         2342 
 2820000   0.79315892   -8.4445544    501.87694  0.014830879  0.014557839         2405 
 2821000   0.81969998   -8.4286134    501.89169  0.014826057  0.014551345         2315 
 2822000   0.79704451   -8.4448935    500.62378  0.014783362  0.014544858         2403 
 2823000   0.80253602   -8.4298516    501.54024  0.014805179  0.014538372         2459 
 2824000   0.80239427   -8.4592717    501.01284  0.014784373  0.014531887         2478 
 2825000   0.82009804    -8.464763    501.87434  0.014804553  0.014525378         2538 
 2826000   0.80795127    -8.465177    501.51268  0.014788649  0.014518863         2456 
 2827000   0.79468349   -8.4568442    501.10279  0.014771336  0.014512362         2471 
 2828000    0.7834638   -8.4693438    501.56736  0.014779802  0.014505836         2480 
 2829000   0.80296833   -8.4691637    501.05716  0.014759549  0.014499319         2450 
 2830000   0.81318304   -8.4700153     499.7178  0.014714894  0.014492804         2552 
 2831000   0.78768529   -8.4829658    500.25117  0.014725397  0.014486288         2600 
 2832000   0.80683563   -8.4649743    500.18258  0.014718179  0.014479755         2474 
 2833000   0.78356777     -8.48036    498.74019  0.014670555  0.014473218         2550 
 2834000   0.80378607   -8.4888352    500.83728  0.014727043  0.014466683         2672 
 2835000   0.81717801   -8.4467061    501.70575  0.014747377  0.014460158         2504 
 2836000   0.80213911   -8.4861663    501.13241   0.01472533  0.014453643         2620 
 2837000   0.81185486   -8.5089446    499.62271  0.014675793  0.014447111         2628 
 2838000   0.81726713   -8.4867651    500.11451  0.014685063  0.014440589         2629 
 2839000   0.77919497   -8.4904378    499.58286  0.014664285  0.014434066         2628 
 2840000   0.79525244   -8.5095321    499.74262  0.014663809  0.014427522         2721 
 2841000   0.78683094   -8.5015967    500.31649  0.014675481  0.014420988         2656 
 2842000   0.77673488   -8.5112734    498.57908  0.014619372  0.014414453         2711 
 2843000   0.80331775   -8.5343872     499.2949  0.014635212  0.014407907         2685 
 2844000   0.77811432    -8.527719    498.99987  0.014621421   0.01440135         2696 
 2845000   0.79329811   -8.5076078    499.72678  0.014637574  0.014394809         2787 
 2846000   0.81590509   -8.5369446    499.37636   0.01462217  0.014388278         2693 
 2847000   0.79315706   -8.5064413    499.71987  0.014627089  0.014381745         2686 
 2848000   0.79981949   -8.5257006    499.63241  0.014619394  0.014375206         2714 
 2849000   0.78861913   -8.5126203     500.2619  0.014632675  0.014368672         2699 
 2850000   0.80108028   -8.5330014    499.81318   0.01461442  0.014362156         2765 
 2851000    0.7969016   -8.4904642     499.6176  0.014603578  0.014355642         2632 
 2852000    0.8073708   -8.5129592    499.66326  0.014599791  0.014349119         2782 
 2853000   0.78441601   -8.5115437    499.40294   0.01458707  0.014342594         2711 
 2854000   0.79683921   -8.5584412    498.84704  0.014565728   0.01433607         2748 
 2855000   0.81755704   -8.5317392    497.46926   0.01452041  0.014329528         2727 
 2856000   0.79305642   -8.5544656    499.18665  0.014565437     0.014323         2745 
 2857000   0.78250219    -8.521088    499.53516  0.014570504  0.014316487         2755 
 2858000   0.79752634   -8.5321758    499.97467  0.014578221  0.014309975         2758 
 2859000   0.77610204   -8.5287599    498.67142  0.014535135  0.014303471         2772 
 2860000   0.79765788   -8.5545028    498.89296  0.014536508  0.014296954         2822 
 2861000   0.82044882   -8.5277664    499.39792  0.014546135  0.014290453         2811 
 2862000   0.80575021    -8.538862    499.52665  0.014544801  0.014283945         2808 
 2863000   0.80189432   -8.5406819    498.24893   0.01450253   0.01427744         2792 
 2864000    0.7878037   -8.5487723    499.81145  0.014542931  0.014270934         2809 
 2865000   0.79718594   -8.5416973    499.29102  0.014522717  0.014264411         2875 
 2866000   0.79639987   -8.5426926    499.09585  0.014511975  0.014257892         2837 
 2867000   0.78776929   -8.5532387    498.68868  0.014495079  0.014251381         2814 
 2868000   0.81002067   -8.5583724    498.89671  0.014496069  0.014244859         2962 
 2869000   0.79476866   -8.5890216     498.8017  0.014488257  0.014238337         3039 
 2870000   0.78391956   -8.5588437    499.65118  0.014507874  0.014231809         3015 
 2871000   0.77436003   -8.5495638    498.21687  0.014461189  0.014225285         3066 
 2872000   0.79107536   -8.5754741    498.50809  0.014464603  0.014218763         2981 
 2873000   0.78105737   -8.5511054    498.31744  0.014454039  0.014212246         2954 
 2874000   0.81287248   -8.5900254    497.25192  0.014418114  0.014205728         2966 
 2875000   0.79659492    -8.569812    498.05892  0.014436491  0.014199218         2882 
 2876000   0.78637584   -8.5618751    498.75973  0.014451777  0.014192701         2875 
 2877000   0.79430991   -8.5668924    499.05086  0.014455186  0.014186173         2973 
 2878000   0.79673877   -8.5752888    498.57972  0.014436522  0.014179663         3042 
 2879000   0.79785102   -8.5711617    499.44743  0.014456623  0.014173148         2948 
 2880000    0.7932747   -8.5982314    497.75228  0.014402554  0.014166638         3015 
 2881000   0.77822417   -8.5958112    497.63689  0.014394218  0.014160125         2979 
 2882000   0.79047493   -8.5875077    498.00972  0.014400003  0.014153615         3047 
 2883000   0.78504332   -8.5733302    497.67251  0.014385261  0.014147111         3003 
 2884000   0.79809905    -8.575271    497.38908  0.014372084   0.01414061         3025 
 2885000   0.79578855   -8.6159921    497.43375  0.014368393  0.014134104         3025 
 2886000   0.79308219    -8.572214    498.11152  0.014382985  0.014127597         2954 
 2887000   0.78192637     -8.59468    496.73597  0.014338297  0.014121101         3127 
 2888000   0.79439538   -8.5864322    497.55077  0.014356844  0.014114597         3050 
 2889000    0.7907867   -8.5913833     498.5627  0.014381063  0.014108098         3051 
 2890000    0.7927593   -8.5591305    498.89328  0.014385619  0.014101615         3029 
 2891000   0.78496583   -8.5669305    499.00897  0.014383978  0.014095136         3039 
 2892000   0.80139138   -8.6083878    496.60631  0.014309771  0.014088648         3065 
 2893000   0.80031188   -8.5958028    497.29315   0.01432461  0.014082159         3071 
 2894000   0.77628484   -8.5972271    498.22729  0.014346559   0.01407568         3171 
 2895000   0.79664592   -8.6254598    497.15063  0.014310611  0.014069203         3067 
 2896000   0.78969506     -8.57149     498.0337   0.01433108  0.014062725         3107 
 2897000   0.80299895   -8.6028205    498.00157  0.014325209  0.014056246         3076 
 2898000   0.78911389   -8.5946246    498.52905  0.014335434  0.014049782         3065 
 2899000   0.77612772   -8.5843594    498.04065   0.01431645  0.014043314         3048 
 2900000     0.783743   -8.6276415    497.27291  0.014289451  0.014036842         3135 
 2901000   0.79154912   -8.5881375    498.15404  0.014309837  0.014030366         3219 
 2902000   0.78794616   -8.6165962    498.01243  0.014300839    0.0140239         3221 
 2903000   0.78670877   -8.6055826    498.24565  0.014302608  0.014017426         3178 
 2904000   0.78641156   -8.6036546    498.03851  0.014291739   0.01401097         3173 
 2905000   0.79926343   -8.6193249    497.01673  0.014257508  0.014004497         3229 
 2906000   0.77449102   -8.5926532    497.41115  0.014263912  0.013998037         3210 
 2907000   0.78705677   -8.6137003    498.33922   0.01428561  0.013991565         3214 
 2908000   0.78718254   -8.6226329    496.36084  0.014224004    0.0139851         3223 
 2909000   0.76858617    -8.614084    496.44047  0.014221395   0.01397864         3189 
 2910000   0.78583498     -8.61686    497.64375  0.014250967  0.013972182         3196 
 2911000   0.79124079    -8.599164    498.01534  0.014256708  0.013965741         3269 
 2912000    0.7853585   -8.5864038    498.04357   0.01425262   0.01395929         3205 
 2913000   0.79159313   -8.6021985    497.60354  0.014235139  0.013952847         3284 
 2914000   0.78139793   -8.6517878    496.17583  0.014189425   0.01394639         3284 
 2915000    0.7848313   -8.6362562    496.51643  0.014194295  0.013939943         3254 
 2916000   0.77378728   -8.6105951    496.14479  0.014178806   0.01393349         3233 
 2917000   0.79713361   -8.6413405    496.92796  0.014196319   0.01392705         3262 
 2918000   0.77896873    -8.611964    497.03929  0.014194634  0.013920605         3256 
 2919000   0.79277132   -8.6219556    497.16305  0.014193304  0.013914163         3194 
 2920000   0.77061935   -8.6604884    497.87899  0.014208875  0.013907718         3263 
 2921000   0.79068395   -8.6250524    497.66267   0.01419784  0.013901276         3273 
 2922000   0.78281704   -8.6387229    497.24756  0.014181142  0.013894837         3241 
 2923000    0.7871233   -8.6185129    498.23252  0.014204371    0.0138884         3233 
 2924000   0.79888995   -8.6314717    496.80672  0.014158878  0.013881963         3217 
 2925000   0.77825505   -8.6256966    497.25815  0.014166899  0.013875527         3214 
 2926000   0.77006134   -8.6294274    497.34097  0.014164416  0.013869106         3252 
 2927000    0.7832192   -8.6186499    497.59911  0.014166926  0.013862686         3185 
 2928000   0.76782142   -8.6103971    496.72059  0.014137084  0.013856264         3191 
 2929000   0.76699657   -8.6273353    497.67481  0.014159406   0.01384985         3324 
 2930000   0.78217222   -8.6392961    497.06368  0.014137192  0.013843439         3286 
 2931000    0.7757634   -8.6486883    495.96286  0.014101071  0.013837029         3305 
 2932000   0.78955547   -8.6228006    496.75469  0.014118767  0.013830627         3252 
 2933000   0.77612531    -8.649037    496.97027  0.014120078  0.013824227         3361 
 2934000   0.79865896   -8.6220967    496.92841  0.014114077  0.013817837         3315 
 2935000   0.78089096   -8.6487497    496.30565  0.014091586   0.01381145         3257 
 2936000   0.77504186     -8.63088    497.51205  0.014121028  0.013805073         3223 
 2937000   0.78678579   -8.6236118    498.10106  0.014132932  0.013798693         3213 
 2938000   0.78357018   -8.6177358    496.90246  0.014094125  0.013792296         3263 
 2939000   0.77269549   -8.6286531    496.81838  0.014086945  0.013785912         3247 
 2940000   0.77163303   -8.6678287    496.37691   0.01406964  0.013779539         3365 
 2941000   0.78234009    -8.593831    498.59325  0.014127656  0.013773158         3215 
 2942000   0.78776075   -8.6199327    496.65385   0.01406792  0.013766798         3266 
 2943000   0.78038806   -8.6418667    497.58714  0.014089567  0.013760426         3295 
 2944000   0.77983187   -8.6258279    497.47219  0.014081527  0.013754071         3285 
 2945000   0.77192036   -8.6245137    498.61838  0.014109179   0.01374771         3280 
 2946000   0.77487992   -8.6294219    497.09499  0.014061298  0.013741345         3293 
 2947000    0.7859894   -8.6349613    495.73439  0.014018052  0.013734986         3298 
 2948000   0.77418521   -8.6336627    497.64633  0.014067343  0.013728615         3299 
 2949000   0.78192062   -8.6425626    496.90521   0.01404163  0.013722252         3350 
 2950000   0.79139283   -8.6437778    495.97504  0.014010594  0.013715897         3309 
 2951000   0.78658427   -8.6550212    496.66881  0.014025438  0.013709539         3264 
 2952000   0.77696194   -8.6382269    497.54968  0.014045553  0.013703184         3267 
 2953000   0.78261145    -8.646988    496.90447  0.014022589   0.01369683         3298 
 2954000   0.80175066   -8.6315437    496.14306  0.013996363  0.013690479         3282 
 2955000   0.78866789   -8.6363512    496.99397  0.014015623  0.013684126         3264 
 2956000   0.78747246   -8.6737076    496.48606  0.013996562  0.013677771         3353 
 2957000   0.78682516   -8.6500556    497.29184  0.014014537  0.013671426         3291 
 2958000   0.78031569   -8.6461577    495.81133   0.01396809  0.013665077         3342 
 2959000   0.78225966   -8.6536323    496.89446  0.013993874  0.013658724         3307 
 2960000    0.7695236   -8.6441079    496.07892  0.013966186  0.013652374         3379 
 2961000    0.7896127   -8.6446759    496.85622  0.013983345  0.013646033         3386 
 2962000   0.78865093   -8.6783798    496.35078  0.013964404  0.013639692         3393 
 2963000   0.78303439   -8.6739183    495.40893  0.013933202  0.013633358         3341 
 2964000   0.77451748   -8.6484121    495.93837  0.013943386  0.013627011         3421 
 2965000   0.79081171   -8.6589125    496.82798  0.013963687  0.013620682         3336 
 2966000    0.7581049   -8.6633001    495.82643  0.013930839  0.013614353         3440 
 2967000   0.78815347   -8.6230514    496.70499   0.01395082  0.013608029         3296 
 2968000   0.76890913   -8.6674093    495.69355  0.013917721  0.013601702         3494 
 2969000   0.78628629   -8.6803176    495.71704  0.013913693   0.01359538         3453 
 2970000   0.79568319   -8.6687154    496.13334  0.013920689  0.013589055         3406 
 2971000   0.77972455   -8.6688315    496.92339  0.013938163   0.01358273         3412 
 2972000   0.77524874   -8.6380576    496.19727  0.013913113   0.01357641         3449 
 2973000    0.7895951   -8.6803038    495.61638  0.013892151  0.013570097         3429 
 2974000   0.77750048   -8.6646135    495.55904  0.013885873  0.013563779         3477 
 2975000   0.78196714   -8.6530556    496.40436  0.013904884  0.013557482         3484 
 2976000     0.779171   -8.6885679    495.72778  0.013881266  0.013551175         3422 
 2977000   0.78278508   -8.6714203    495.42119  0.013868021  0.013544866         3467 
 2978000   0.78455912    -8.684641    496.03167  0.013880448  0.013538575         3433 
 2979000   0.78469453   -8.6591294    496.38063   0.01388555  0.013532282         3416 
 2980000   0.74904179   -8.6368826    496.33237  0.013879541  0.013525992         3337 
 2981000   0.78049849   -8.6532161    495.87961  0.013862228  0.013519708         3426 
 2982000   0.76206201   -8.6523914    496.84683  0.013884608   0.01351343         3427 
 2983000   0.78007853   -8.6860151    496.15306  0.013860573   0.01350715         3435 
 2984000   0.76714357   -8.6821767    495.84452  0.013847311  0.013500859         3463 
 2985000   0.79634872   -8.6873641     495.8676  0.013843317  0.013494579         3429 
 2986000   0.76448222   -8.6811643     496.0113  0.013842691  0.013488304         3441 
 2987000   0.78014863   -8.6746747    496.36615  0.013847956  0.013482033         3437 
 2988000   0.77291176   -8.6865309    495.87171  0.013829532   0.01347576         3440 
 2989000   0.77336238   -8.6781066    496.11957  0.013831816  0.013469489         3447 
 2990000   0.76965963   -8.6914532    495.46439  0.013808929   0.01346321         3454 
 2991000   0.78315955   -8.6650299    495.67725  0.013810243  0.013456941         3485 
 2992000   0.77872855     -8.68695    495.67836  0.013805658  0.013450676         3409 
 2993000   0.76981919   -8.6439968    496.82824  0.013833062   0.01344442         3489 
 2994000   0.78426623   -8.6830765    495.50449  0.013791597   0.01343817         3415 
 2995000   0.75887124   -8.6841023    495.98388   0.01380033  0.013431911         3496 
 2996000   0.77525972   -8.6656323    496.56706  0.013811945  0.013425664         3477 
 2997000   0.77665734   -8.6947803    495.55411  0.013779171  0.013419416         3427 
 2998000   0.77752481    -8.676179    496.39847  0.013798045  0.013413172         3474 
 2999000   0.78234498   -8.6960837    495.93307  0.013780512  0.013406929         3476 
 3000000   0.77415543   -8.6830012    495.79407  0.013772057  0.013400688         3385 
 3001000   0.75941598   -8.6683809    495.14867  0.013749546  0.013394449         3481 
 3002000   0.76678361   -8.6983858    494.75535  0.013734048  0.013388209         3539 
 3003000   0.78034953   -8.6797416    494.88344  0.013733029  0.013381976         3501 
 3004000   0.75698987   -8.6895112    496.20022  0.013764986  0.013375737         3455 
 3005000   0.78296448   -8.6768825    496.62685  0.013772237  0.013369503         3372 
 3006000   0.75694634   -8.6722092    495.80766  0.013744945  0.013363273         3479 
 3007000   0.76262673   -8.6578387    495.75174  0.013738824  0.013357052         3453 
 3008000   0.77751354   -8.6813805    496.42362  0.013752871  0.013350829         3484 
 3009000   0.76841404    -8.669799    494.64314   0.01369899  0.013344605         3543 
 3010000   0.77358411   -8.6864169     495.2912  0.013712381  0.013338394         3526 
 3011000   0.76787806   -8.6655717    495.74114   0.01372028  0.013332166         3461 
 3012000    0.7650118   -8.6796914    495.93214  0.013721009  0.013325945         3506 
 3013000   0.76273897   -8.6731211    495.63769  0.013708311  0.013319726         3399 
 3014000   0.76466723   -8.6924246     495.1039  0.013689004  0.013313529         3489 
 3015000   0.76851739   -8.6894874    495.13572  0.013685343  0.013307328         3463 
 3016000   0.76696254   -8.6888276    496.02827  0.013705467   0.01330112         3498 
 3017000   0.74961839   -8.6851264    495.95816  0.013698988  0.013294916         3512 
 3018000   0.75747345   -8.7108763    494.77857  0.013661878  0.013288721         3516 
 3019000    0.7521212   -8.7132244    494.95369  0.013662186   0.01328253         3491 
 3020000   0.76041571   -8.7049347    494.03598   0.01363234  0.013276328         3536 
 3021000   0.77589388   -8.6583169     496.5782  0.013697953  0.013270142         3428 
 3022000   0.77147492   -8.6996533    495.57474  0.013665749  0.013263958         3499 
 3023000   0.77878326   -8.7043808    495.57489  0.013661233  0.013257787         3550 
 3024000   0.77281862   -8.7117161     494.7399  0.013633705  0.013251613         3533 
 3025000     0.777162   -8.7246292    495.12887  0.013639914  0.013245441         3526 
 3026000   0.77517496   -8.6679562    495.09497  0.013634473  0.013239272         3457 
 3027000   0.77382671   -8.6943336    496.34568    0.0136644  0.013233105         3434 
 3028000   0.75402175   -8.6775917    495.43128  0.013634723  0.013226948         3470 
 3029000   0.77904342   -8.7076519    495.44668  0.013630645  0.013220787         3543 
 3030000   0.76039593   -8.7132007    495.33245  0.013623005  0.013214626         3495 
 3031000    0.7855294   -8.6730571    495.61259  0.013626212  0.013208469         3502 
 3032000   0.76768093   -8.6939852     495.7614  0.013625808  0.013202314         3471 
 3033000   0.75238012   -8.6791911    495.34035  0.013609747  0.013196164         3471 
 3034000   0.75609243   -8.6910269    495.36652   0.01360598  0.013190018         3514 
 3035000    0.7667559   -8.6838897    496.31085  0.013627426   0.01318386         3472 
 3036000   0.77230614   -8.6769418    495.63633  0.013604423   0.01317771         3499 
 3037000   0.77411492   -8.6947371    495.57801  0.013598343  0.013171569         3514 
 3038000   0.79171887   -8.7190526    494.98974  0.013577731  0.013165427         3551 
 3039000   0.77628327   -8.7072703    494.22632  0.013552329  0.013159286         3514 
 3040000   0.75325938   -8.6960762    494.53676   0.01355638  0.013153152         3551 
 3041000   0.77262323    -8.700061     495.0044  0.013564737  0.013147015         3552 
 3042000   0.76294512   -8.7091294     495.6614  0.013578276  0.013140887         3513 
 3043000   0.77556517   -8.7141747    494.89781  0.013552903  0.013134758         3513 
 3044000   0.75942281   -8.7026462    495.56264  0.013566651  0.013128636         3577 
 3045000   0.75574667   -8.7098712    494.98691   0.01354644  0.013122522         3481 
 3046000    0.7682613   -8.6835884    495.99669  0.013569618  0.013116407         3501 
 3047000   0.75071165   -8.7008215    494.75448  0.013531191  0.013110292         3542 
 3048000   0.76478835   -8.7309087    494.80115  0.013528028  0.013104172         3622 
 3049000   0.76813237    -8.693482    495.65174  0.013546839  0.013098054         3514 
 3050000   0.75461997   -8.6938619      495.077  0.013526694   0.01309194         3540 
 3051000   0.76774234    -8.731902    495.05039  0.013521534  0.013085831         3561 
 3052000   0.76775318   -8.7104363    495.29628  0.013523817   0.01307972         3523 
 3053000   0.74869091   -8.6865092    495.98359  0.013538148  0.013073633         3593 
 3054000   0.75261407   -8.7441544    493.76882  0.013473281  0.013067524         3503 
 3055000    0.7636976   -8.6944271    494.82574  0.013497702  0.013061418         3528 
 3056000   0.77329913   -8.7266994     494.6018  0.013487178  0.013055322         3604 
 3057000   0.77787818   -8.7109542    494.80034  0.013488179  0.013049224         3535 
 3058000   0.76607083    -8.709678    494.74547  0.013482273  0.013043135         3476 
 3059000   0.75154396   -8.7167055    494.11414  0.013460666  0.013037039         3635 
 3060000   0.77335635   -8.7112462    495.81235  0.013502515  0.013030944         3513 
 3061000   0.75939634   -8.7194823    494.12374  0.013452133  0.013024855         3558 
 3062000   0.77309431   -8.7425348    494.43395  0.013456182  0.013018762         3657 
 3063000   0.75845676   -8.7393525    493.96979  0.013439161  0.013012673         3580 
 3064000   0.76167918   -8.7186016    494.09236  0.013438108  0.013006591         3584 
 3065000   0.77775703   -8.7427717    494.19108  0.013436408  0.013000501         3657 
 3066000   0.76048014   -8.7362637    494.03836  0.013427874  0.012994419         3627 
 3067000   0.77650313   -8.7110411    494.87541   0.01344624  0.012988347         3593 
 3068000   0.75942975   -8.7146305    494.62769  0.013435129  0.012982266         3624 
 3069000   0.75303437   -8.7366613     493.9785  0.013413123   0.01297619         3606 
 3070000   0.75851731   -8.7223976     494.0448  0.013410554  0.012970125         3553 
 3071000   0.75866274   -8.7202378    494.60194  0.013421305  0.012964065         3667 
 3072000   0.76970596   -8.6952753    494.71623  0.013420037  0.012958006         3584 
 3073000   0.75623213   -8.7438535     494.7212  0.013415804  0.012951953         3659 
 3074000   0.74721389   -8.7131838    493.94634  0.013390434  0.012945894         3713 
 3075000   0.77821201    -8.697328    494.55184  0.013402489  0.012939845         3652 
 3076000    0.7532726   -8.7199342    495.49751  0.013423751  0.012933799         3617 
 3077000   0.77334317    -8.708629    494.37238  0.013388917  0.012927749         3632 
 3078000   0.75124895   -8.7137349    494.90769   0.01339906  0.012921699         3628 
 3079000   0.74593004   -8.7260849    494.56065  0.013385316  0.012915651         3613 
 3080000   0.76628618    -8.713913    494.37461  0.013375936   0.01290961         3656 
 3081000   0.77667642   -8.7016381    494.61126  0.013377996  0.012903572         3629 
 3082000   0.76163002   -8.7455859    493.77627  0.013351078  0.012897533         3633 
 3083000   0.76852309   -8.7004582    494.63965  0.013370085  0.012891504         3652 
 3084000    0.7575074   -8.7259103     493.7236  0.013340996  0.012885478         3623 
 3085000   0.77139543   -8.7326803    494.43418  0.013355867  0.012879459         3651 
 3086000   0.75457826   -8.7530822    493.08252  0.013315039  0.012873432         3666 
 3087000   0.76228889   -8.7345792    494.28047  0.013343064  0.012867416         3647 
 3088000   0.76252011    -8.697741    495.27024  0.013365453  0.012861401         3684 
 3089000   0.76301883   -8.7199145    493.90797  0.013324376  0.012855389         3669 
 3090000    0.7724687   -8.7256487    493.72775  0.013315204   0.01284938         3611 
 3091000   0.75963472   -8.7303099    492.54974  0.013279137  0.012843373         3643 
 3092000   0.74735625   -8.7268664    494.31401  0.013322391  0.012837371         3674 
 3093000   0.76067661   -8.7459677    493.29145  0.013290534  0.012831364         3644 
 3094000   0.73293973   -8.7221787     494.4388  0.013317141  0.012825366         3633 
 3095000   0.76176895   -8.7304673    494.68517  0.013319471  0.012819374         3661 
 3096000   0.75030629    -8.705589    495.31478  0.013332116   0.01281338         3546 
 3097000   0.76333056   -8.7363651    494.48724  0.013305544  0.012807391         3642 
 3098000   0.72814747   -8.7259438    494.55975    0.0133032  0.012801403         3601 
 3099000   0.75573727   -8.7205919    494.50772  0.013297508  0.012795422         3668 
 3100000   0.74657099   -8.7405598    493.89192  0.013276665   0.01278944         3650 
 3101000   0.76434741   -8.7535153    494.36825  0.013285184  0.012783465         3684 
 3102000   0.74444046   -8.7520976    493.89821  0.013268273  0.012777483         3655 
 3103000   0.75002197   -8.7460255    494.08047  0.013268892   0.01277152         3646 
 3104000   0.77590693   -8.7412107    494.15989   0.01326675  0.012765552         3603 
 3105000    0.7468868   -8.7429291     493.7621  0.013251801  0.012759586         3633 
 3106000    0.7536764   -8.7327759    494.09181  0.013256381  0.012753628         3593 
 3107000   0.76383412   -8.7350737    494.88568  0.013273406  0.012747674         3536 
 3108000   0.75672105   -8.7054401     494.7995  0.013266825   0.01274173         3602 
 3109000   0.75903926   -8.7200177    494.94889  0.013266562  0.012735783         3587 
 3110000   0.76541111   -8.7615731    493.53945   0.01322453  0.012729841         3628 
 3111000    0.7590698   -8.7548791    493.50127  0.013219256  0.012723885         3672 
 3112000   0.73836331   -8.7432348    494.27902  0.013235835  0.012717939         3676 
 3113000   0.76306099   -8.7218457    493.82912   0.01321954  0.012712004         3677 
 3114000   0.75475529   -8.7580581    493.19275  0.013198265  0.012706071         3655 
 3115000   0.76666213    -8.750811    493.81105  0.013210569  0.012700132         3712 
 3116000   0.73835823   -8.7489257    494.50568  0.013224906  0.012694205         3609 
 3117000   0.75410261   -8.7323073    493.15923  0.013184666  0.012688285         3676 
 3118000   0.74339106   -8.7532639    494.01524  0.013203315  0.012682361         3682 
 3119000   0.76458771   -8.7445387    494.34319  0.013207844  0.012676445         3643 
 3120000   0.75604134   -8.7531892    495.29515  0.013229037  0.012670525         3685 
 3121000   0.75688115   -8.7476032     493.9922  0.013190008   0.01266461         3648 
 3122000    0.7595566   -8.7665597    493.65817  0.013176868  0.012658701         3676 
 3123000   0.75550284   -8.7685153    494.74426  0.013201629  0.012652792         3664 
 3124000   0.74705394   -8.7426656    494.47946   0.01319034  0.012646888         3689 
 3125000   0.75894799   -8.7423861     493.7756  0.013167349  0.012640981         3677 
 3126000   0.75350067   -8.7078723    493.38709   0.01315278  0.012635079         3662 
 3127000   0.74149856   -8.7293304    493.04693  0.013139509  0.012629191         3676 
 3128000   0.75268323   -8.7562587    492.70505    0.0131262  0.012623305         3611 
 3129000   0.76133341     -8.72919    494.33503  0.013165416  0.012617416         3610 
 3130000   0.73336031   -8.7403633    494.65037  0.013169605  0.012611531         3590 
 3131000   0.74739467   -8.7306618    493.34774  0.013130729  0.012605648         3621 
 3132000   0.72714706   -8.7622863    492.98321  0.013116837  0.012599766         3744 
 3133000   0.75062598   -8.7403223    494.70154  0.013158356  0.012593887         3672 
 3134000   0.74544901      -8.7428     493.7529  0.013128933  0.012588017         3647 
 3135000   0.75494083   -8.7457323    493.46535  0.013117101  0.012582151         3608 
 3136000   0.76006721   -8.7399633    493.79694   0.01312173  0.012576283         3626 
 3137000   0.74523988   -8.7625389    493.67729  0.013114369   0.01257042         3611 
 3138000   0.75024159   -8.7245454    494.28867  0.013126425  0.012564564         3576 
 3139000   0.74738579   -8.7367392    493.03208  0.013088884  0.012558711         3582 
 3140000   0.75801545   -8.7509603    493.56061  0.013098742  0.012552858         3643 
 3141000   0.74556615   -8.7322002    494.68678   0.01312445  0.012547006         3629 
 3142000   0.74319033   -8.7481322    493.22073   0.01308139  0.012541163         3587 
 3143000   0.75858115    -8.752349    493.12853  0.013074783  0.012535322         3611 
 3144000   0.72719084   -8.7520866    494.34417  0.013102846  0.012529475         3626 
 3145000   0.75824749     -8.73656    494.58255  0.013104996  0.012523628         3650 
 3146000   0.76751625   -8.7545299    492.52137  0.013046233  0.012517797         3687 
 3147000   0.73403611   -8.7661021    493.49182  0.013067785  0.012511965         3640 
 3148000   0.74747732   -8.7363767    493.58566  0.013066118  0.012506137         3608 
 3149000   0.74265376     -8.75576    493.60162  0.013062391   0.01250032         3644 
 3150000   0.75286507   -8.7517306    492.33307  0.013024684  0.012494496         3675 
 3151000   0.73685422   -8.7461809    493.80641  0.013059516  0.012488679         3659 
 3152000   0.76094905   -8.7517559    493.49205  0.013047061  0.012482869         3679 
 3153000   0.75253888   -8.7182078    494.09926  0.013058972  0.012477064         3638 
 3154000   0.75103523   -8.7499145    493.10323  0.013028515  0.012471261         3634 
 3155000   0.72795585   -8.7306588    493.73103  0.013040968  0.012465461         3673 
 3156000   0.77028157   -8.7444487     494.1544  0.013048014  0.012459664         3648 
 3157000   0.75444707    -8.728702    493.75012   0.01303321  0.012453872         3677 
 3158000   0.75700555   -8.7469077    494.42775  0.013046964  0.012448085         3641 
 3159000   0.72569741   -8.7457444    494.24214  0.013037938  0.012442295         3660 
 3160000   0.74391779   -8.7237166    494.00642  0.013027595  0.012436512         3631 
 3161000    0.7473444   -8.7518315    493.99219  0.013023099  0.012430726         3684 
 3162000    0.7554736   -8.7308598    494.12026  0.013022356  0.012424948         3599 
 3163000   0.76578702   -8.7547453    493.56373  0.013003576  0.012419165         3658 
 3164000   0.73984777   -8.7302763    493.93324  0.013009198  0.012413389         3630 
 3165000   0.73059896   -8.7304078    494.51917  0.013020515  0.012407615         3671 
 3166000   0.73611867   -8.7469858    493.62746  0.012992932  0.012401856         3684 
 3167000    0.7663304   -8.7462269    494.33907  0.013007554  0.012396082         3648 
 3168000   0.73646107   -8.7580677    493.87554  0.012991255  0.012390326         3635 
 3169000   0.74471427    -8.764879    492.56936  0.012952808  0.012384566         3703 
 3170000   0.74734992   -8.7483444    493.28864   0.01296763  0.012378807         3690 
 3171000   0.72616106   -8.7545948    494.06466  0.012983934  0.012373041         3663 
 3172000   0.73882448     -8.76782    493.06718  0.012953636  0.012367292         3646 
 3173000   0.72325533   -8.7498073    493.07693  0.012949809   0.01236154         3692 
 3174000    0.7344571   -8.7476583    492.95955  0.012942647  0.012355794         3597 
 3175000   0.73261578   -8.7608211    493.37991  0.012949604   0.01235005         3657 
 3176000   0.74975433    -8.740926     493.4959   0.01294857   0.01234432         3661 
 3177000   0.75607765   -8.7753623    494.54894  0.012972116  0.012338584         3669 
 3178000   0.74079705   -8.7369865    493.27338  0.012934586  0.012332844         3675 
 3179000   0.75033275   -8.7327431    493.74818  0.012942964  0.012327109         3688 
 3180000   0.73820078   -8.7401548    492.63236  0.012909653  0.012321385         3695 
 3181000   0.73386531   -8.7325857    493.78298  0.012935738  0.012315662         3666 
 3182000   0.74429662   -8.7629008    493.28386  0.012918601  0.012309941         3705 
 3183000   0.72569371   -8.7536696    494.49949  0.012946368  0.012304213         3719 
 3184000   0.73239127   -8.7549201     493.5067  0.012916319  0.012298498         3726 
 3185000   0.75408021   -8.7698612    492.66223  0.012890168  0.012292795         3693 
 3186000    0.7582938   -8.7644602     493.2387  0.012901201  0.012287088         3679 
 3187000   0.75480646   -8.7701036    492.66634  0.012882187  0.012281389         3658 
 3188000   0.73150817    -8.780195    492.60083  0.012876433  0.012275687         3698 
 3189000    0.7507662   -8.7648357    493.39863  0.012893243   0.01226998         3736 
 3190000   0.72695815   -8.7661994    492.69164  0.012870733   0.01226428         3695 
 3191000   0.73583563   -8.7631989    493.82587   0.01289632  0.012258592         3651 
 3192000   0.74137942   -8.7702511    492.98334  0.012870284    0.0122529         3710 
 3193000   0.75624994     -8.79113    492.39642  0.012850935  0.012247213         3673 
 3194000   0.73884731   -8.7334728    492.97659  0.012862048  0.012241535         3680 
 3195000   0.73873646   -8.7629655    493.25239  0.012865216  0.012235859         3676 
 3196000    0.7415851   -8.7674577    493.57824  0.012869687  0.012230176         3702 
 3197000   0.74120333    -8.764821    493.71648  0.012869265  0.012224504         3708 
 3198000   0.74107615   -8.7563665    492.85017  0.012842667  0.012218833         3693 
 3199000   0.74693048      -8.7703    493.33153  0.012851191  0.012213169         3682 
 3200000   0.74090641   -8.7595129    493.62914  0.012854926   0.01220751         3687 
 3201000    0.7408961   -8.7568298    493.40674   0.01284512  0.012201843         3690 
 3202000    0.7354185   -8.7610971    494.21251  0.012862079  0.012196184         3693 
 3203000    0.7383272   -8.7506538    493.23588  0.012832654  0.012190525         3651 
 3204000   0.73215596   -8.7621033    493.97266  0.012847812  0.012184882         3658 
 3205000   0.72525129   -8.7670338    494.06677   0.01284625  0.012179238         3657 
 3206000   0.73531994   -8.7618403     492.9358  0.012812846  0.012173597         3710 
 3207000   0.73467511   -8.7921785    493.15012  0.012814419  0.012167953         3690 
 3208000   0.73897067    -8.754854    493.48814  0.012819206  0.012162313         3646 
 3209000   0.71289325   -8.7706382    493.00407   0.01280264  0.012156675         3697 
 3210000   0.76088954    -8.750636    493.17885  0.012803189  0.012151043         3712 
 3211000   0.72659529    -8.784434    492.71413  0.012787141  0.012145416         3703 
 3212000   0.76826725   -8.7515521    492.98354   0.01279015  0.012139791         3699 
 3213000   0.73432379   -8.7558672    493.11234   0.01278951  0.012134174         3688 
 3214000   0.72017144   -8.7409388      492.522  0.012770224  0.012128561         3661 
 3215000   0.73567076   -8.7486793    492.92138  0.012776604  0.012122946         3658 
 3216000   0.73364926   -8.7752952    491.92609  0.012746841  0.012117328         3723 
 3217000    0.7516082   -8.7958139    493.28347   0.01277804   0.01211171         3710 
 3218000   0.73246517   -8.7805658    493.21696  0.012772347  0.012106097         3637 
 3219000   0.73448203   -8.7503821    493.75588  0.012782331  0.012100492         3671 
 3220000   0.74684322   -8.7667936     493.2019  0.012764024   0.01209489         3674 
 3221000   0.73913543   -8.7692299    493.18777  0.012759696  0.012089291         3693 
 3222000   0.73270127   -8.7573232    493.48184  0.012763342  0.012083695         3709 
 3223000   0.72634395   -8.7570836     492.9663  0.012746052  0.012078101         3723 
 3224000   0.76794865   -8.7942349    492.14372  0.012720837  0.012072508         3732 
 3225000   0.72484471   -8.7864092    493.33325  0.012747629  0.012066916         3725 
 3226000   0.73041621   -8.7931698    493.73781  0.012754128  0.012061335         3712 
 3227000   0.73329806   -8.7504834    494.14625  0.012760723  0.012055756         3727 
 3228000   0.73974634   -8.7806505    492.83568  0.012722937  0.012050182         3683 
 3229000   0.72867043   -8.7271109    494.10913  0.012751861  0.012044612         3681 
 3230000   0.73273255   -8.7711668    493.77984  0.012739418  0.012039047         3682 
 3231000   0.71774562   -8.7953693    492.67376  0.012706947  0.012033479         3721 
 3232000   0.73069842   -8.7764274    493.82952  0.012732816  0.012027922         3706 
 3233000   0.73987943   -8.7619383    493.90048  0.012730706  0.012022364         3673 
 3234000   0.74811823   -8.7512452    493.93839  0.012727747  0.012016803         3686 
 3235000   0.72988038   -8.7792379     492.2771  0.012681018  0.012011251         3677 
 3236000   0.74452479   -8.7676135    493.10527  0.012698426    0.0120057         3744 
 3237000   0.73569113   -8.7841941    492.99066  0.012691552   0.01200015         3665 
 3238000     0.737946   -8.7587068    492.39525  0.012672309  0.011994609         3716 
 3239000   0.73400237   -8.7818271    492.69723  0.012676166  0.011989067         3697 
 3240000   0.74054971   -8.7550492    493.60399  0.012695576  0.011983526         3662 
 3241000   0.73857783   -8.7813116    493.04439   0.01267727  0.011977984         3679 
 3242000   0.71501565   -8.7704809    494.18145  0.012702587  0.011972451         3679 
 3243000    0.7309793   -8.7717623     493.3223  0.012676593  0.011966917         3734 
 3244000   0.73782994   -8.7882933    493.56919  0.012679028   0.01196139         3701 
 3245000    0.7238588   -8.7753713    493.94171  0.012684687  0.011955866         3670 
 3246000   0.75276917   -8.7769645    493.17662  0.012661137  0.011950348         3741 
 3247000   0.73010375   -8.7883033    493.74868   0.01267192  0.011944832         3679 
 3248000   0.73375271   -8.7817799     493.8211  0.012669876  0.011939322         3753 
 3249000   0.73725575   -8.7914967    492.27882  0.012626419  0.011933805         3755 
 3250000   0.72443529   -8.7672612    493.30384  0.012648816  0.011928298         3641 
 3251000   0.73831402   -8.7726863    493.46227  0.012648987  0.011922797         3663 
 3252000   0.72538141   -8.8001201    493.46598  0.012645192  0.011917292         3722 
 3253000   0.73232501   -8.7723055    493.22724  0.012635189  0.011911796         3672 
 3254000   0.73815087   -8.7610343    494.15713   0.01265512  0.011906298         3708 
 3255000   0.73203106   -8.7916265    492.77074  0.012615738  0.011900807         3754 
 3256000   0.71895376   -8.7672819    492.94749  0.012616387  0.011895315         3734 
 3257000   0.73955387   -8.7638576    493.00627  0.012614018  0.011889834         3676 
 3258000   0.72803491    -8.762416    492.65056  0.012601048  0.011884348         3729 
 3259000   0.73908376   -8.7760728    493.11662  0.012609098  0.011878862         3697 
 3260000    0.7353791   -8.7803189    492.67415   0.01259392  0.011873389         3676 
 3261000   0.70428437   -8.7847052    492.00748  0.012573021  0.011867911         3679 
 3262000   0.72850564   -8.7829477    492.49953  0.012581738  0.011862437         3694 
 3263000   0.70881073   -8.7821772    493.58167  0.012605518   0.01185697         3689 
 3264000    0.7440544   -8.7846481     494.1154  0.012615283  0.011851502         3709 
 3265000   0.74341629   -8.7579002    492.19821  0.012562486  0.011846035         3677 
 3266000   0.73470253   -8.7712851    492.70393  0.012571544  0.011840571         3672 
 3267000   0.73315984   -8.7788982    492.62131  0.012565588  0.011835108         3679 
 3268000   0.71428377   -8.7883839    493.36382  0.012580677  0.011829653         3726 
 3269000   0.73405671   -8.7841555    492.60365   0.01255745  0.011824197         3703 
 3270000   0.73949845   -8.7634343    493.29859   0.01257132  0.011818747         3693 
 3271000   0.74327745   -8.7716596     493.5273  0.012573303  0.011813301         3755 
 3272000   0.71166188   -8.7458618     493.3595  0.012565187  0.011807856         3680 
 3273000   0.73186955   -8.7775283    492.92415  0.012550263  0.011802418         3615 
 3274000   0.70969169   -8.8022878    492.58576  0.012537817  0.011796979         3739 
 3275000   0.72078679   -8.7790029    492.28718  0.012526391  0.011791544         3678 
 3276000   0.73667028   -8.7675179    493.09998  0.012543243  0.011786115         3720 
 3277000   0.72537331   -8.7736404    492.57401   0.01252604  0.011780689         3689 
 3278000   0.72109052   -8.8089063    492.82721  0.012528656  0.011775267         3689 
 3279000   0.73022434    -8.789628    492.89675  0.012526602  0.011769845         3645 
 3280000   0.70880795   -8.7707906    493.24546  0.012531643  0.011764423         3682 
 3281000   0.73614175   -8.7702147    493.96611  0.012546127  0.011759009         3621 
 3282000   0.72777252   -8.7952315    492.60416  0.012507723  0.011753601         3688 
 3283000   0.73016902    -8.785657    492.54869  0.012502505  0.011748195         3705 
 3284000   0.70626094   -8.7744948    492.96707  0.012509315  0.011742786         3713 
 3285000   0.73635463   -8.7893862    491.85819  0.012477377   0.01173738         3708 
 3286000   0.71915049   -8.7746464    492.86375  0.012499081  0.011731984         3680 
 3287000   0.72508248    -8.779114    492.60328  0.012488675  0.011726591         3701 
 3288000   0.71292854   -8.8001785    492.82684  0.012490542  0.011721193         3667 
 3289000   0.72335066   -8.8096604    492.58646  0.012480654    0.0117158         3674 
 3290000   0.71366958   -8.8160524    492.77377  0.012481605  0.011710413         3619 
 3291000   0.73138982   -8.8211583    492.57055  0.012472667  0.011705028         3689 
 3292000   0.71845707   -8.7875549    492.89737  0.012477151  0.011699647         3672 
 3293000   0.71500651   -8.7898299    492.17911  0.012455186  0.011694267         3695 
 3294000   0.72088521   -8.7718681    492.70905  0.012464811  0.011688884         3716 
 3295000   0.71706883   -8.7956437    492.88984  0.012465601  0.011683511         3670 
 3296000   0.72385235   -8.7521211    493.30356  0.012472279  0.011678146         3674 
 3297000    0.7291723   -8.7928975     492.8449  0.012456903  0.011672777         3628 
 3298000   0.72378089   -8.7859119    491.89036  0.012429006  0.011667417         3695 
 3299000   0.73418776   -8.7977681    493.90243  0.012476064  0.011662056         3731 
 3300000   0.71704197   -8.7781169    492.89636  0.012446878  0.011656697         3643 
 3301000   0.72400452   -8.7963111    493.36059  0.012454827  0.011651349         3734 
 3302000   0.72129951   -8.7816757    492.19652  0.012421677  0.011646002         3688 
 3303000   0.72856735    -8.788469    492.15529  0.012416876  0.011640654         3693 
 3304000   0.72982598   -8.7706047    493.06838  0.012436148  0.011635306         3696 
 3305000   0.71258339   -8.7878166    492.01485  0.012405821  0.011629961         3695 
 3306000   0.70869558   -8.7996547    492.37176  0.012411065  0.011624623         3656 
 3307000   0.72338849   -8.7781734    492.06942  0.012399693   0.01161928         3685 
 3308000   0.71430499   -8.8013623    492.76806  0.012413544  0.011613947         3687 
 3309000   0.72241194   -8.7851198    492.30235  0.012398065  0.011608613         3692 
 3310000   0.71440385    -8.770453    493.00337  0.012411968  0.011603283         3664 
 3311000   0.72358665   -8.8236812    491.78395  0.012377528  0.011597951         3752 
 3312000   0.72427155   -8.8138032    492.48196  0.012391354  0.011592628         3688 
 3313000   0.73592553   -8.7778674    492.66222  0.012392148  0.011587305         3703 
 3314000   0.72014703   -8.8110481    492.97705  0.012396325  0.011581986         3720 
 3315000   0.71275167   -8.7972969    492.78355  0.012387721  0.011576674         3688 
 3316000   0.71792925   -8.7988145    491.58628  0.012353897  0.011571366         3661 
 3317000   0.71422774   -8.7755812    493.72352  0.012403867  0.011566062         3700 
 3318000   0.72150167   -8.8017023    493.20463  0.012387096  0.011560756         3662 
 3319000   0.70643944   -8.7992405    492.56484    0.0123673   0.01155546         3670 
 3320000   0.71223456   -8.7988135    492.32846  0.012357642  0.011550165         3642 
 3321000   0.72781798   -8.7960794    492.70941   0.01236348  0.011544872         3659 
 3322000   0.71969083   -8.8139667    492.54671  0.012355677  0.011539577         3702 
 3323000   0.70756529   -8.8207077    492.45901   0.01234976  0.011534287         3710 
 3324000   0.71189067   -8.7985348     492.2193  0.012340035  0.011529004         3653 
 3325000   0.72032472   -8.7922187    492.14185  0.012334382  0.011523727         3721 
 3326000   0.72309038   -8.7979874     491.8411  0.012323139  0.011518445         3675 
 3327000   0.72607702   -8.8099397    492.60189   0.01233849  0.011513165         3724 
 3328000   0.73537299   -8.8228565    492.11802  0.012322667  0.011507887         3670 
 3329000   0.70811898   -8.8266395    492.35563  0.012324913  0.011502616         3718 
 3330000   0.70002482   -8.8004621    492.37517  0.012321701  0.011497345         3716 
 3331000   0.70767606   -8.8063497    492.23346  0.012314457  0.011492071         3674 
 3332000   0.72917794   -8.8064954    492.59923  0.012319909  0.011486809         3721 
 3333000   0.72474524   -8.8278527    492.91803  0.012324183  0.011481547         3696 
 3334000   0.71773345   -8.8011157    492.35521  0.012306419  0.011476285         3665 
 3335000   0.71248027   -8.8242358    492.26829  0.012300557  0.011471026         3735 
 3336000   0.70916425   -8.7998089    492.31563  0.012298052   0.01146577         3714 
 3337000   0.71733421   -8.7843802    492.41619  0.012296878   0.01146052         3720 
 3338000   0.70673814   -8.7779273    492.69584  0.012300176  0.011455271         3675 
 3339000   0.70425228    -8.808923    492.44441  0.012290217  0.011450025         3682 
 3340000   0.69857502   -8.7986172    492.49069  0.012287692  0.011444777         3690 
 3341000   0.72149745   -8.7745794    493.37203  0.012305997  0.011439537         3691 
 3342000    0.7150944   -8.7885585    492.87186  0.012289843    0.0114343         3669 
 3343000   0.70941594   -8.7914965    492.45457  0.012275765  0.011429068         3721 
 3344000   0.73162018   -8.7994889    491.77959  0.012255273  0.011423836         3696 
 3345000    0.7143046   -8.8253094    491.84676  0.012253282  0.011418609         3710 
 3346000   0.72504895   -8.7990507    491.67842  0.012245428  0.011413383         3741 
 3347000   0.72259639   -8.8133952    492.65749  0.012266146  0.011408154         3718 
 3348000   0.71643656   -8.8090428    492.55818   0.01226001  0.011402935         3708 
 3349000   0.72166024   -8.7828979    493.13754  0.012270766  0.011397721         3698 
 3350000   0.71533345   -8.8117446    492.01707  0.012239231   0.01139251         3646 
 3351000   0.71463442   -8.8016786    492.14226  0.012238692  0.011387304         3683 
 3352000   0.72832139   -8.8187348    491.96037  0.012230518   0.01138209         3742 
 3353000   0.71194471   -8.8441702    491.55487  0.012216793  0.011376881         3682 
 3354000   0.71976087   -8.7924228    493.64653   0.01226512  0.011371677         3682 
 3355000   0.70596478   -8.8218713    492.30496  0.012228141  0.011366475         3713 
 3356000   0.70865187   -8.8216784    491.87084  0.012213718  0.011361275         3740 
 3357000   0.73009512   -8.8034722     493.3344  0.012246411   0.01135608         3644 
 3358000   0.70174148   -8.7959876    492.38601  0.012219228  0.011350889         3701 
 3359000   0.70765875   -8.8175373    492.77506  0.012225242  0.011345697         3742 
 3360000   0.72638264   -8.7998218    492.36181  0.012211354  0.011340507         3699 
 3361000   0.71943396   -8.8220205    492.23726  0.012204633  0.011335327         3718 
 3362000    0.7208275   -8.8040311    491.62008  0.012185705   0.01133015         3707 
 3363000   0.69522956   -8.8162753    491.59067  0.012181353   0.01132497         3682 
 3364000   0.73094382   -8.7942607    492.52652  0.012200915    0.0113198         3715 
 3365000   0.71451941   -8.8172198    491.60147   0.01217438  0.011314627         3672 
 3366000   0.71466336   -8.8226519    492.38402  0.012190137  0.011309453         3721 
 3367000   0.71510459   -8.8206234    492.36271  0.012185989  0.011304289         3779 
 3368000   0.72072578    -8.803723    491.56927  0.012162739  0.011299131         3723 
 3369000   0.71764349   -8.8004594    491.71642  0.012162769  0.011293967         3738 
 3370000   0.69652828   -8.7954272    491.55005  0.012155046  0.011288806         3710 
 3371000   0.71836296   -8.8464188    491.94334  0.012161162  0.011283649         3732 
 3372000   0.70661583   -8.8387172    490.75335  0.012128147  0.011278502         3738 
 3373000    0.7136734   -8.8228285    491.92007  0.012153377  0.011273352         3707 
 3374000   0.71226001   -8.8230921    492.08962  0.012153962   0.01126821         3725 
 3375000   0.70055821   -8.8245516    492.21251  0.012153395  0.011263068         3726 
 3376000   0.71483605    -8.813559    492.67666  0.012161252  0.011257923         3734 
 3377000   0.71303211   -8.8014737    491.33196  0.012124468  0.011252784         3724 
 3378000   0.70451198   -8.8228837    492.43002  0.012147968   0.01124765         3715 
 3379000    0.7318245   -8.8181178    492.24639  0.012139844  0.011242516         3705 
 3380000    0.7150164   -8.8215711    491.92481  0.012128324  0.011237389         3696 
 3381000   0.71153465   -8.8120731    493.12241  0.012154254  0.011232261         3666 
 3382000   0.69730104   -8.8031214    493.29022  0.012154795  0.011227139         3709 
 3383000   0.71613505   -8.8341466    492.12813  0.012122577  0.011222016         3720 
 3384000   0.71943095   -8.8292533    490.51022  0.012079152  0.011216903         3705 
 3385000    0.7085647   -8.8241883    492.01081  0.012112526  0.011211797         3683 
 3386000   0.70573814   -8.8363631    492.07505   0.01211053  0.011206691         3707 
 3387000   0.71478352   -8.8288226    492.62203  0.012120412  0.011201579         3711 
 3388000   0.70647494   -8.8161178    492.86146  0.012122724  0.011196472         3700 
 3389000    0.7034554   -8.8254879    491.38876  0.012082934  0.011191367         3707 
 3390000   0.71862824   -8.8056908    492.57758  0.012108593  0.011186268         3709 
 3391000    0.6861444   -8.8057907     491.6937  0.012083301  0.011181172         3689 
 3392000   0.69000539   -8.8304695    491.73641  0.012080788  0.011176075         3687 
 3393000    0.6969174   -8.8178276    492.25201  0.012089891  0.011170982         3719 
 3394000   0.73852629   -8.8380655    492.84648  0.012100925  0.011165893         3696 
 3395000   0.72016569   -8.8508457    492.25576  0.012082861  0.011160802         3664 
 3396000   0.69471551   -8.8338334    491.97244  0.012072351  0.011155716         3730 
 3397000    0.7105738   -8.8105517    492.32087  0.012077345  0.011150627         3694 
 3398000   0.70963857   -8.8131379    491.65549  0.012057472  0.011145545         3701 
 3399000   0.72043802   -8.8344416    492.53963  0.012075601  0.011140469         3720 
 3400000   0.71082527   -8.8142633    492.36715  0.012067822   0.01113539         3692 
 3401000   0.69843083   -8.8301838    491.64884  0.012046674  0.011130317         3702 
 3402000    0.7235625   -8.8423073    491.94328  0.012050345  0.011125249         3677 
 3403000   0.70251127   -8.8221906    491.02871  0.012024408   0.01112018         3692 
 3404000     0.710314   -8.8489235      491.968   0.01204387  0.011115116         3724 
 3405000   0.70641197   -8.8373871    492.18509  0.012045646  0.011110055         3706 
 3406000   0.70474129   -8.8562092    490.94183  0.012011691  0.011104992         3756 
 3407000   0.70891123    -8.840118     492.1351  0.012037352  0.011099938         3707 
 3408000   0.71422624   -8.8452293    491.70254  0.012023243  0.011094884         3715 
 3409000   0.68451783   -8.8335797    491.17961  0.012006933  0.011089836         3697 
 3410000   0.70152814   -8.8410087    490.14551  0.011978141  0.011084784         3736 
 3411000   0.71201237   -8.8391049    491.48414  0.012007333  0.011079746         3698 
 3412000   0.70159885   -8.8138387    491.81978  0.012012011  0.011074703         3710 
 3413000    0.7163986   -8.8251701    490.64765  0.011979872  0.011069659         3701 
 3414000   0.70558183   -8.8322068    491.53508  0.011998025   0.01106462         3720 
 3415000   0.70454101   -8.8526733     490.7749  0.011975961  0.011059585         3751 
 3416000   0.70963592   -8.8338145    491.64518  0.011993686  0.011054551         3736 
 3417000   0.69496734    -8.816607    491.81241  0.011994255   0.01104952         3749 
 3418000   0.69553105   -8.8336729    491.79802  0.011990395   0.01104449         3774 
 3419000   0.70498068   -8.8094261    492.45314  0.012002855  0.011039471         3701 
 3420000   0.69142872   -8.8079424    491.87675  0.011985301  0.011034452         3748 
 3421000     0.714174   -8.8303679    491.65841  0.011976479  0.011029433         3733 
 3422000   0.70574887   -8.8472246    491.99855  0.011981262  0.011024422         3746 
 3423000    0.7141273   -8.8601068    490.55576  0.011942637  0.011019405         3765 
 3424000   0.71040394   -8.8330828    490.68135  0.011942206  0.011014393         3732 
 3425000   0.69615537   -8.8363316     492.0969  0.011973161  0.011009381         3698 
 3426000   0.68684719   -8.8343726    491.35895  0.011951716  0.011004378         3707 
 3427000   0.69598385     -8.83853     491.0143  0.011939848  0.010999378         3743 
 3428000   0.68504512   -8.8467014    491.16745  0.011940088  0.010994379         3739 
 3429000   0.69592545   -8.8468496    491.98772   0.01195654  0.010989383         3736 
 3430000   0.70731732   -8.8372293    491.54821  0.011942376  0.010984392         3751 
 3431000   0.68565451   -8.8525931    491.41355  0.011935625  0.010979406         3719 
 3432000   0.70925742   -8.8480693    491.39283  0.011931644   0.01097442         3751 
 3433000   0.71099017   -8.8345936    491.43478  0.011929187  0.010969442         3760 
 3434000    0.7220249   -8.8398324    492.37049   0.01194842  0.010964458         3707 
 3435000   0.70037467    -8.865345    491.72308  0.011929235  0.010959482         3720 
 3436000   0.69106629   -8.8358676    491.36371  0.011917048  0.010954503         3714 
 3437000   0.70023857   -8.8423558    491.66562  0.011920901  0.010949528         3744 
 3438000   0.70076828   -8.8536124     491.5297  0.011914139  0.010944559         3747 
 3439000   0.71765551   -8.8500631    491.82081  0.011917728  0.010939596         3741 
 3440000   0.70665065   -8.8392195    492.02147  0.011919125  0.010934633         3725 
 3441000   0.69373505   -8.8461053    491.77495  0.011909691  0.010929666         3740 
 3442000   0.70114701   -8.8512484    491.38924  0.011896892   0.01092471         3712 
 3443000   0.69384425   -8.8409309    491.73799  0.011901878  0.010919755         3692 
 3444000   0.70528373   -8.8280502    491.13474  0.011883826    0.0109148         3746 
 3445000   0.70698341   -8.8532362     491.7943   0.01189633  0.010909848         3709 
 3446000   0.69762816    -8.854576    490.92516   0.01187186    0.0109049         3756 
 3447000   0.70490144   -8.8390466    491.27275  0.011876819  0.010899954         3742 
 3448000   0.70868947   -8.8377684    491.56207  0.011880367   0.01089501         3712 
 3449000   0.69794594    -8.837075    491.86067  0.011884137  0.010890067         3700 
 3450000   0.68637996   -8.8467582    492.08325  0.011886069  0.010885135         3748 
 3451000   0.68089976   -8.8283655    491.32223  0.011864248  0.010880207         3736 
 3452000   0.69952215   -8.8249298    491.39662  0.011862607  0.010875275         3706 
 3453000   0.69456655   -8.8615813    491.18688  0.011854109  0.010870344         3738 
 3454000   0.70815231   -8.8378813    491.12052  0.011849076  0.010865422         3724 
 3455000   0.70428867   -8.8411417    491.65006  0.011858419  0.010860498         3757 
 3456000   0.71125245   -8.8355659    490.86575  0.011836076  0.010855578         3760 
 3457000   0.70170472   -8.8518371    491.84456  0.011856247  0.010850661         3745 
 3458000   0.69390567   -8.8152676    491.08349  0.011834478  0.010845751         3716 
 3459000   0.70707978   -8.8442892    491.12628  0.011832087  0.010840839         3782 
 3460000   0.68529856   -8.8317883    491.40956   0.01183549  0.010835933         3738 
 3461000   0.69406239   -8.8517307    491.57938   0.01183616  0.010831029         3743 
 3462000   0.69133909    -8.854558    490.27307  0.011801297  0.010826128         3722 
 3463000   0.68647575   -8.8519506    490.58103    0.0118053  0.010821224         3734 
 3464000     0.699014   -8.8531961    491.01781  0.011812399  0.010816325         3726 
 3465000   0.70042394   -8.8433515    492.56633  0.011846232  0.010811435         3688 
 3466000   0.70009074   -8.8378045    491.27476  0.011811761  0.010806545         3731 
 3467000   0.71323177   -8.8666265    491.11648   0.01180455  0.010801655         3740 
 3468000   0.69805203   -8.8636916    490.12804  0.011777394  0.010796765         3786 
 3469000   0.69520077   -8.8626819    491.64087  0.011810341  0.010791876         3755 
 3470000   0.69372099   -8.8571845    491.69953  0.011808346  0.010786993         3780 
 3471000   0.68710541   -8.8441247     491.4266  0.011798392  0.010782117         3747 
 3472000   0.70348897   -8.8487274    491.53089  0.011797496  0.010777242         3760 
 3473000   0.70379293   -8.8658441    491.53332  0.011794158  0.010772369         3790 
 3474000   0.69718241   -8.8321491    492.11142   0.01180463  0.010767502         3749 
 3475000   0.70892092   -8.8582669    490.62937  0.011765692  0.010762634         3755 
 3476000   0.69597087   -8.8585724    491.73479  0.011788809   0.01075777         3744 
 3477000   0.70808948   -8.8488901    491.91728  0.011789792  0.010752911         3733 
 3478000   0.70549835   -8.8249524    491.31345  0.011771934  0.010748049         3748 
 3479000   0.69681611   -8.8513626    491.45097  0.011771845  0.010743197         3749 
 3480000   0.69099061   -8.8465629    491.12302  0.011760609  0.010738349         3792 
 3481000   0.69554984   -8.8515806    490.75763  0.011748483    0.0107335         3791 
 3482000   0.70854466    -8.841813    491.72383  0.011768233  0.010728654         3709 
 3483000   0.68666747    -8.832791     491.2969  0.011754639  0.010723813         3752 
 3484000    0.7110864   -8.8444433    491.12004  0.011747035  0.010718973         3750 
 3485000   0.69676895   -8.8510638    491.45729  0.011751729  0.010714132         3775 
 3486000   0.69209415   -8.8634652    490.66131  0.011729329  0.010709295         3769 
 3487000   0.71088221   -8.8365698    491.75719  0.011752155  0.010704464         3771 
 3488000   0.70371246    -8.846063    490.60261  0.011721201  0.010699628         3738 
 3489000   0.68992328   -8.8506226    491.24922  0.011733286  0.010694798         3782 
 3490000   0.69190355   -8.8253391    492.77861  0.011766443  0.010689977         3754 
 3491000    0.7018597   -8.8620652    491.17136  0.011724705  0.010685159         3745 
 3492000    0.6970604   -8.8850751    490.86586  0.011714057  0.010680335         3783 
 3493000   0.67205936   -8.8444226    490.89552  0.011711411  0.010675516         3778 
 3494000   0.68264233   -8.8309041    491.45449  0.011721391  0.010670703         3801 
 3495000   0.69328017   -8.8490276    490.77394  0.011701811  0.010665882         3807 
 3496000   0.69472303   -8.8602314    490.51237  0.011692228  0.010661078         3712 
 3497000    0.6842166   -8.8638762    490.60122  0.011691002  0.010656268         3707 
 3498000   0.69331529   -8.8332933    492.19364  0.011725597  0.010651465         3726 
 3499000   0.71485834   -8.8388111    491.83069  0.011713601  0.010646666         3747 
 3500000   0.69901022   -8.8474295    491.27667  0.011697064  0.010641873         3693 
 3501000   0.70022267    -8.859428    490.74201  0.011680996  0.010637082         3737 
 3502000   0.69253871   -8.8823339     490.3791  0.011669025  0.010632294         3732 
 3503000   0.68939944   -8.8470608      491.244  0.011686269  0.010627504         3761 
 3504000   0.70572525   -8.8571411    490.58031   0.01166715  0.010622716         3769 
 3505000   0.69505673   -8.8611913    491.21406  0.011678889   0.01061794         3735 
 3506000   0.68798291   -8.8490836    491.11309  0.011673158  0.010613163         3775 
 3507000   0.68462539   -8.8432451    491.09692  0.011669445  0.010608385         3770 
 3508000   0.69266247   -8.8223871    490.83822  0.011659973   0.01060361         3757 
 3509000     0.701041   -8.8686175    490.68668  0.011653051  0.010598842         3724 
 3510000   0.70287525   -8.8705031    490.43991  0.011643872   0.01059407         3803 
 3511000   0.69126183   -8.8632063     490.7533  0.011647994  0.010589303         3768 
 3512000   0.68223077   -8.8578645    490.73221  0.011644177  0.010584537         3762 
 3513000   0.69821414   -8.8750312    491.40949  0.011656929  0.010579779         3791 
 3514000   0.67562487   -8.8762967    491.15591  0.011647598  0.010575021         3785 
 3515000   0.67478186   -8.8450506     491.6529  0.011656067  0.010570261         3755 
 3516000   0.67695463   -8.8892189    490.02966  0.011614279  0.010565503         3760 
 3517000   0.68618008   -8.8601786    489.88961  0.011607658  0.010560745         3800 
 3518000   0.68333492   -8.8352941    491.09075  0.011632811  0.010555992         3772 
 3519000   0.67757896   -8.8523527    489.89955  0.011601296  0.010551248         3807 
 3520000   0.68114749   -8.8552026    490.66909  0.011616219  0.010546503         3722 
 3521000   0.68955773   -8.8461436    490.80721  0.011616189  0.010541755         3833 
 3522000   0.69172798   -8.8675126    490.58274  0.011607579  0.010537014         3811 
 3523000   0.70569323   -8.8486828    490.15424  0.011594149  0.010532274         3774 
 3524000   0.70113076   -8.8634869    491.30409   0.01161805  0.010527545         3775 
 3525000   0.67671139   -8.8607544    490.31609  0.011591397  0.010522812         3784 
 3526000   0.68808076   -8.8614482    490.45708  0.011591442  0.010518081         3745 
 3527000   0.67950433   -8.8700609    489.53183  0.011566294  0.010513354         3769 
 3528000   0.68801159   -8.8786487    490.20378  0.011578887  0.010508627         3790 
 3529000   0.69374657   -8.8596571    491.40597  0.011603995  0.010503904         3792 
 3530000   0.69456599   -8.8509429    490.51232  0.011579611  0.010499186         3818 
 3531000   0.68435971   -8.8685738    489.84598  0.011560606  0.010494468         3765 
 3532000   0.69221032   -8.8688957    491.31538  0.011592001  0.010489752         3784 
 3533000   0.67457402    -8.848951    491.01191  0.011581562  0.010485039         3751 
 3534000   0.68757901   -8.8660824     489.6411  0.011545961  0.010480331         3716 
 3535000   0.68668236   -8.8435278    491.00347  0.011574811  0.010475631         3748 
 3536000   0.69664384   -8.8590303    490.45019  0.011558498  0.010470921         3774 
 3537000   0.69085399   -8.8743356    490.06882  0.011546245  0.010466219         3822 
 3538000   0.69762206    -8.881017    491.19957  0.011569615  0.010461524         3812 
 3539000   0.68560691   -8.8753398    490.96424  0.011560804  0.010456826         3829 
 3540000   0.69226846    -8.864356    490.58013  0.011548497  0.010452134         3769 
 3541000   0.69745963   -8.8626806    490.60409  0.011545799  0.010447441         3718 
 3542000   0.68819771    -8.854006    490.72051  0.011545278  0.010442756         3797 
 3543000   0.68909435    -8.865738    491.57039  0.011562009  0.010438069         3812 
 3544000   0.67015572   -8.8759177    490.11526  0.011524531  0.010433387         3814 
 3545000   0.69721545    -8.870235    491.46283  0.011552958  0.010428707         3788 
 3546000   0.67638187   -8.8714645    491.08738  0.011540877  0.010424034         3794 
 3547000    0.6756242   -8.8575441    491.24901   0.01154142   0.01041936         3804 
 3548000   0.67735589   -8.8704721    490.62506  0.011523512  0.010414689         3771 
 3549000   0.67165786   -8.8548121    491.13328  0.011532199  0.010410017         3765 
 3550000   0.66569673   -8.8653698    491.47355  0.011536938  0.010405351         3765 
 3551000   0.67894035   -8.8618287    490.84252   0.01151888  0.010400688         3771 
 3552000   0.68834641   -8.8601996    489.84332  0.011492195  0.010396026         3780 
 3553000   0.68715428   -8.8605473    490.38664  0.011501704  0.010391366         3799 
 3554000    0.6810889   -8.8638144     490.3721  0.011498126  0.010386708         3810 
 3555000   0.67467193   -8.8659316    490.79667  0.011504845  0.010382055         3786 
 3556000   0.68455523   -8.8436946    490.92052  0.011504512  0.010377406         3743 
 3557000   0.67934341   -8.8626659    490.50245  0.011491483  0.010372759         3784 
 3558000   0.67308567   -8.8653267    490.07839  0.011478321  0.010368116         3770 
 3559000   0.68428723   -8.8647029    490.25373  0.011479201  0.010363467         3778 
 3560000   0.69364706   -8.8624843    490.26213  0.011476174  0.010358832         3778 
 3561000   0.66606695   -8.8837299    490.32495  0.011474421  0.010354195         3828 
 3562000   0.68203024   -8.8826242    491.24519  0.011492728  0.010349559         3787 
 3563000   0.68754264   -8.8741028    490.19468  0.011464933  0.010344929         3818 
 3564000   0.67699482   -8.8876564    490.13043  0.011460214  0.010340297         3794 
 3565000   0.67815899   -8.8584182    490.03993  0.011454884  0.010335667         3759 
 3566000   0.68869652   -8.8775108    490.54729  0.011463528  0.010331043         3839 
 3567000   0.67194092    -8.867165    489.73269  0.011441283   0.01032642         3785 
 3568000    0.6775164    -8.869568    490.68663  0.011460357  0.010321798         3767 
 3569000    0.6916302   -8.8664056    490.77322  0.011459167  0.010317182         3801 
 3570000   0.67881156   -8.8772501    491.91646  0.011482644  0.010312567         3781 
 3571000   0.66421996   -8.8838579    490.06941  0.011436325  0.010307956         3771 
 3572000   0.69818529   -8.8784633     489.6717  0.011423845  0.010303342         3778 
 3573000    0.6840205   -8.8790759    489.53065  0.011417358  0.010298736         3773 
 3574000   0.68815161   -8.8683306    491.22498   0.01145367   0.01029413         3763 
 3575000   0.66685795   -8.8717269    490.04387  0.011422934  0.010289526         3792 
 3576000   0.67969087   -8.8854659    490.18344  0.011422992  0.010284925         3793 
 3577000   0.66828927   -8.8916483    489.87607  0.011412638  0.010280329         3803 
 3578000   0.64621213   -8.8870604    489.28231  0.011395619  0.010275733         3819 
 3579000   0.68537147   -8.8740233    490.71369  0.011425763  0.010271138         3764 
 3580000   0.67217571   -8.8782951    490.01922  0.011406406  0.010266551         3770 
 3581000   0.66968211   -8.8960422    490.84723   0.01142249  0.010261963         3814 
 3582000    0.6827736    -8.896614    489.92257  0.011397789  0.010257381         3802 
 3583000   0.66537606    -8.867535     490.2661  0.011402598  0.010252798         3760 
 3584000   0.69067659   -8.8848718    490.62324   0.01140772  0.010248219         3788 
 3585000   0.67926796    -8.892944     490.2028  0.011394765  0.010243644         3745 
 3586000    0.6716934   -8.8508132    490.25743  0.011392857  0.010239067         3794 
 3587000   0.67288564   -8.8800015    490.53151  0.011396048  0.010234497         3781 
 3588000   0.68240548   -8.8969637    491.09117  0.011405871  0.010229929         3779 
 3589000   0.68071079   -8.8586894    490.96593  0.011399785  0.010225365         3785 
 3590000   0.67522897   -8.8939146    490.67513  0.011389859  0.010220804         3811 
 3591000   0.66726071   -8.8903155    490.28373  0.011377604  0.010216243         3771 
 3592000   0.67142615   -8.8792506    490.69151  0.011383897  0.010211688         3811 
 3593000    0.6672234   -8.8704939    490.12995  0.011367705  0.010207131         3807 
 3594000   0.68348119   -8.8863728    490.83595  0.011380911  0.010202576         3817 
 3595000   0.68361863   -8.9126957    490.94321  0.011380232  0.010198032         3831 
 3596000   0.67459469   -8.8948784    490.99969  0.011378376   0.01019349         3803 
 3597000   0.68453058   -8.8743184    490.50225  0.011363689  0.010188944         3775 
 3598000   0.68548456   -8.8652823    489.94081  0.011347527  0.010184403         3794 
 3599000   0.69087651   -8.8914906    490.47835   0.01135682  0.010179864         3794 
 3600000   0.67654105   -8.8704491    490.97343  0.011365126   0.01017533         3778 
 3601000    0.6768352   -8.8823703    490.25468  0.011345336  0.010170791         3770 
 3602000   0.67746421   -8.9022453    490.40291  0.011345616   0.01016626         3816 
 3603000    0.6797675   -8.8864795    489.46141  0.011320691  0.010161731         3798 
 3604000   0.67209209   -8.8577386    489.99561  0.011329902  0.010157207         3784 
 3605000   0.66417219   -8.8779996    490.12022   0.01132964  0.010152681         3819 
 3606000   0.67481241   -8.8660617    491.16137  0.011350559  0.010148162         3782 
 3607000   0.67541885   -8.8721228    490.66963  0.011336051  0.010143641         3786 
 3608000   0.67596642   -8.8870559    490.50518  0.011329111  0.010139121         3804 
 3609000   0.66950993   -8.8855362     489.2524  0.011297044  0.010134608         3785 
 3610000   0.68070369   -8.8846976     490.5091  0.011322925  0.010130097         3810 
 3611000    0.6728385   -8.8732449    491.01525   0.01133147  0.010125585         3761 
 3612000   0.66845733   -8.8716268     490.9898  0.011327745  0.010121083         3778 
 3613000   0.67310612   -8.8932237    490.10886  0.011304291  0.010116581         3832 
 3614000    0.6835037   -8.8764654     490.4082  0.011308066  0.010112079         3765 
 3615000   0.66655029   -8.8698936    490.56547  0.011308563  0.010107584         3750 
 3616000   0.68533254   -8.8722506    490.59958  0.011306222   0.01010309         3790 
 3617000   0.67454337   -8.8901942     490.2604  0.011295282  0.010098597         3789 
 3618000   0.66945171   -8.8864646    490.54728  0.011298767  0.010094106         3789 
 3619000   0.67257191   -8.8899968    490.09385  0.011285204   0.01008962         3795 
 3620000   0.68107695   -8.8813054    490.70366  0.011296125  0.010085135         3790 
 3621000   0.65787761   -8.8982742    489.46966  0.011264606  0.010080652         3820 
 3622000   0.67048024    -8.906865    490.41724  0.011283297  0.010076165         3759 
 3623000   0.67653083   -8.8837111    490.42754   0.01128042  0.010071688         3818 
 3624000    0.6757976   -8.9121626    490.27203  0.011273731  0.010067206         3787 
 3625000   0.67880324   -8.8880243    489.86775  0.011261327  0.010062734         3788 
 3626000   0.66252283   -8.9214074    490.10437   0.01126366  0.010058263         3797 
 3627000   0.68044189   -8.9081775    490.47823  0.011269144  0.010053796         3832 
 3628000   0.68349476   -8.8739461    490.56498  0.011268031  0.010049332         3821 
 3629000   0.66988518   -8.9012322    490.87572  0.011272061  0.010044869         3787 
 3630000   0.66588766   -8.9056122    490.42782  0.011258674  0.010040413         3804 
 3631000    0.6665043   -8.9086585    489.96074  0.011244853  0.010035955         3809 
 3632000   0.65640391   -8.8799276     490.9802  0.011265148  0.010031504         3782 
 3633000   0.67063377    -8.876981    489.75896  0.011234034  0.010027049         3812 
 3634000   0.66679479   -8.9110899    490.06566  0.011237976  0.010022603         3770 
 3635000   0.66939612     -8.88678    490.53162  0.011245567  0.010018158         3804 
 3636000   0.67815325   -8.8946895    490.08657  0.011232274  0.010013712         3812 
 3637000   0.67025045   -8.9060943    489.65883  0.011219385  0.010009274         3805 
 3638000   0.65978329   -8.8820334    489.91448  0.011222157  0.010004836         3745 
 3639000   0.66847136   -8.8863605    490.34355  0.011228899  0.010000398         3782 
 3640000   0.65498783   -8.8939474    489.91032  0.011215896 0.0099959604         3797 
 3641000   0.65950047    -8.895951    489.76246  0.011209431  0.009991528         3806 
 3642000   0.67222395   -8.8767011    490.76645  0.011229326 0.0099870979         3790 
 3643000   0.67138775   -8.9063656    489.99615  0.011208623 0.0099826666         3808 
 3644000   0.66484708   -8.8781226    490.33376  0.011213267 0.0099782386         3773 
 3645000   0.68731809   -8.8911366    489.91104  0.011200527 0.0099738201         3790 
 3646000   0.67652692   -8.9071776    489.69713  0.011192566 0.0099693996         3743 
 3647000   0.66314265   -8.8861629    490.05172  0.011197599 0.0099649833         3742 
 3648000   0.65002618   -8.9028693     489.9332  0.011191822 0.0099605713         3831 
 3649000   0.67638604   -8.8975685    488.73347  0.011161356 0.0099561581         3818 
 3650000   0.65168481   -8.8860472    490.59425  0.011200782 0.0099517507         3774 
 3651000   0.66161035   -8.8844919    489.83176   0.01118031 0.0099473461         3747 
 3652000   0.68682471   -8.8852033    489.46054  0.011168778 0.0099429392         3761 
 3653000   0.67013092   -8.9077926    489.41038  0.011164577 0.0099385412         3786 
 3654000   0.66508807   -8.8928021    490.29941  0.011181797 0.0099341447         3776 
 3655000   0.65889952   -8.9103237    489.45211  0.011159419 0.0099297495         3817 
 3656000   0.66775064    -8.911997    489.40118  0.011155206  0.009925359         3800 
 3657000   0.66031723   -8.9041895    489.84696  0.011162313 0.0099209704         3792 
 3658000    0.6765608   -8.8999486    489.46983   0.01115067 0.0099165828         3749 
 3659000   0.66775472   -8.8671249    490.09919  0.011161957 0.0099121953         3793 
 3660000   0.66884241   -8.8967225    489.78723  0.011151804  0.009907811         3781 
 3661000   0.66531469    -8.903758    490.13222  0.011156611 0.0099034337         3753 
 3662000   0.66889275   -8.9056001     489.2778  0.011134121 0.0098990604         3781 
 3663000    0.6670072   -8.9018307    489.73853  0.011141563 0.0098946812         3803 
 3664000   0.67025156   -8.8944927    489.68251  0.011137248 0.0098903114         3785 
 3665000   0.66069632   -8.9136921    489.24155  0.011124183 0.0098859426         3769 
 3666000   0.66161662   -8.9223459    489.38827  0.011124483 0.0098815716         3796 
 3667000   0.66723044   -8.8908901    489.54815  0.011125083 0.0098772104         3780 
 3668000   0.67743181   -8.8703418    490.31787  0.011139537 0.0098728522         3756 
 3669000   0.66404887   -8.9046329    489.98083  0.011128846  0.009868492         3784 
 3670000    0.6651276   -8.9124548    489.11477  0.011106148  0.009864135         3783 
 3671000   0.65917508   -8.8856094    489.83687  0.011119515 0.0098597798         3765 
 3672000   0.67536119   -8.8971232    489.08856  0.011099504  0.009855426         3801 
 3673000    0.6707529   -8.8986949    490.18027  0.011121251  0.009851075         3824 
 3674000   0.66342437   -8.9139713    490.50724   0.01112564 0.0098467279         3803 
 3675000   0.66658138   -8.8975155    490.11301  0.011113674 0.0098423783         3789 
 3676000    0.6693848   -8.9192661     489.4714  0.011096105 0.0098380423         3763 
 3677000   0.66058146   -8.8929018    489.87012  0.011102124 0.0098337021         3770 
 3678000   0.67376063   -8.9014838    489.17384   0.01108333 0.0098293608         3792 
 3679000   0.65960724   -8.9069925    489.43856  0.011086313  0.009825022         3778 
 3680000    0.6588623   -8.9008656    490.40441  0.011105172 0.0098206918         3759 
 3681000   0.65191977    -8.884709    490.18805  0.011097257 0.0098163608         3725 
 3682000    0.6609865      -8.9039    489.39864  0.011076377 0.0098120348         3784 
 3683000   0.65122141   -8.8837414    490.30279  0.011093827 0.0098077074         3801 
 3684000   0.67863531   -8.9091807    489.96443  0.011083162 0.0098033839         3778 
 3685000   0.66091023   -8.9029586    490.18203  0.011085075 0.0097990588         3792 
 3686000   0.66086546   -8.9091417    489.83452  0.011074211 0.0097947412         3796 
 3687000    0.6730951   -8.9329053    488.57814  0.011042811 0.0097904279         3772 
 3688000   0.66604383   -8.9128191    489.08354  0.011051237 0.0097861158         3782 
 3689000   0.66677275   -8.9111254    489.16243  0.011050023 0.0097818041         3782 
 3690000   0.66708725   -8.9067146    489.27528  0.011049577 0.0097774986         3773 
 3691000   0.67274335   -8.9101749    490.25342  0.011068668 0.0097731942         3770 
 3692000   0.66869764   -8.8987422    489.23396  0.011042659 0.0097688902         3775 
 3693000    0.6507069   -8.9001316    489.48418  0.011045315 0.0097645893         3755 
 3694000   0.65632152   -8.9149072    488.82685  0.011027496 0.0097602852         3800 
 3695000   0.64983114   -8.9111488    489.17802  0.011032432 0.0097559855         3804 
 3696000   0.65013905   -8.8866592    490.34219  0.011055695 0.0097516863         3773 
 3697000   0.65364478   -8.8925623    490.64047  0.011059428 0.0097473955         3761 
 3698000   0.67040848   -8.9125206     489.6782  0.011034753  0.009743101         3789 
 3699000   0.65341606   -8.9328324    488.62776  0.011008105 0.0097388111         3789 
 3700000   0.65988238   -8.9066142    489.75776   0.01103058 0.0097345287         3800 
 3701000   0.66742333   -8.9044993    490.12296  0.011035823 0.0097302485         3768 
 3702000    0.6668224    -8.916174    489.02026  0.011008019  0.009725965         3766 
 3703000   0.64957209     -8.90407    489.30087  0.011011362 0.0097216907         3770 
 3704000   0.66609172   -8.9067733     490.9093  0.011044576 0.0097174187         3747 
 3705000   0.65439049   -8.9308065    489.59681  0.011012074 0.0097131417         3792 
 3706000   0.65462858   -8.9096361    489.53007  0.011007602 0.0097088686         3815 
 3707000      0.65913   -8.9019484    490.24968  0.011020809 0.0097045982         3783 
 3708000   0.65719241    -8.922253    490.07368  0.011013882 0.0097003298         3786 
 3709000   0.66436556   -8.8901063    489.90839  0.011007199 0.0096960688         3758 
 3710000   0.65041449   -8.9293578    489.17985  0.010987867 0.0096918077         3811 
 3711000   0.65770035   -8.9266048    489.28381  0.010987241 0.0096875472         3743 
 3712000   0.65768455   -8.9177961    489.46667  0.010988386 0.0096832937         3816 
 3713000   0.65242397   -8.9290467    490.00607  0.010997533 0.0096790386         3737 
 3714000   0.65598099   -8.9109842    490.29487  0.011001052 0.0096747885         3789 
 3715000   0.65443379   -8.9451701    489.13885  0.010972159 0.0096705364         3815 
 3716000   0.64819919   -8.9094459     488.9264  0.010964442   0.00966629         3814 
 3717000   0.64012705   -8.9184694    490.64991  0.011000132 0.0096620425         3789 
 3718000   0.66249221   -8.9157486    489.44336  0.010970131 0.0096577968         3757 
 3719000   0.65349941   -8.8973505    489.80545  0.010975295 0.0096535545         3783 
 3720000   0.66143626   -8.9191868    489.07019  0.010955874 0.0096493164         3763 
 3721000   0.65486828   -8.9304997    490.13837  0.010976851 0.0096450822         3798 
 3722000   0.65986255   -8.8973798    488.76228  0.010943092 0.0096408553         3772 
 3723000   0.67068753   -8.9265961    488.11302   0.01092562 0.0096366261         3817 
 3724000   0.66792301   -8.9166063    488.70504  0.010935934 0.0096324033         3788 
 3725000   0.64792243   -8.9103972    490.10502  0.010964318 0.0096281784         3788 
 3726000     0.643384   -8.9119529    489.13294  0.010939635 0.0096239588         3772 
 3727000   0.66035612   -8.9195997    489.56719  0.010946409 0.0096197389         3790 
 3728000   0.65599816   -8.9215972    488.85672  0.010927591 0.0096155229         3780 
 3729000   0.64030659   -8.8967963    490.25314  0.010955867 0.0096113069         3839 
 3730000    0.6537368   -8.9153543    489.61722  0.010938723  0.009607094         3822 
 3731000   0.66406305   -8.9234462    489.22549  0.010927041 0.0096028785         3794 
 3732000   0.66162698   -8.9134889    489.40302  0.010928077 0.0095986687         3803 
 3733000   0.65860831   -8.9329308    489.56546  0.010928776 0.0095944634         3784 
 3734000   0.65643069   -8.9138429    488.03727  0.010891744   0.00959026         3790 
 3735000   0.65593729   -8.9137164    489.46082   0.01092059  0.009586059         3742 
 3736000   0.67335381   -8.9219284    490.10754  0.010932092 0.0095818635         3751 
 3737000   0.64057328   -8.9062965    490.12057  0.010929457 0.0095776694         3810 
 3738000   0.65301069   -8.9189722    489.91522  0.010921955 0.0095734783         3776 
 3739000   0.65604853   -8.9443553    489.89086  0.010918491  0.009569287         3761 
 3740000   0.64825055   -8.9178642    489.60721  0.010909251 0.0095650995         3815 
 3741000   0.65508764   -8.9406641    488.70603  0.010886261 0.0095609099         3794 
 3742000    0.6604004   -8.9204068    489.07304  0.010891525 0.0095567264         3804 
 3743000   0.66256883   -8.9090818    490.05647   0.01091051 0.0095525451         3786 
 3744000   0.62920835   -8.9162421    488.64954  0.010876281 0.0095483668         3793 
 3745000   0.64134954   -8.9299792     488.9154  0.010879292 0.0095441844         3786 
 3746000   0.63589082   -8.9074681    488.30278   0.01086276 0.0095400091         3739 
 3747000   0.66689109   -8.9118647    489.97846  0.010897128 0.0095358356         3785 
 3748000   0.65547109   -8.9144449    489.93456  0.010893244 0.0095316697         3795 
 3749000   0.64620193   -8.9247298    489.65802  0.010884192 0.0095275034         3779 
 3750000    0.6633685   -8.9296704    488.81413  0.010862536 0.0095233348         3803 
 3751000   0.65188447   -8.9479134    488.49585  0.010852569 0.0095191673         3760 
 3752000   0.65771726   -8.9334156    489.34314  0.010868495 0.0095150035         3764 
 3753000   0.65613955   -8.9159877     488.4293  0.010845308 0.0095108481         3783 
 3754000     0.647859   -8.9174054     489.2518  0.010860677 0.0095066893         3770 
 3755000   0.66368733   -8.9137331    489.18147  0.010856224 0.0095025321         3793 
 3756000   0.64977643   -8.8982306    490.01837  0.010871902 0.0094983788         3724 
 3757000   0.65705252   -8.9074063    489.47879   0.01085704  0.009494234         3757 
 3758000   0.66626347   -8.9300946    489.26581  0.010849428 0.0094900892         3794 
 3759000   0.64851271   -8.9366107    489.42972  0.010850176  0.009485942         3780 
 3760000   0.65760946   -8.9146278    489.96663  0.010859189 0.0094817991         3811 
 3761000   0.64397236   -8.9129452    490.04833  0.010858112 0.0094776601         3768 
 3762000   0.64748751   -8.9189005    489.37501  0.010840311 0.0094735214         3791 
 3763000    0.6416119   -8.9450275    488.97535   0.01082858 0.0094693796         3799 
 3764000   0.65644821      -8.9161    489.55642  0.010838568 0.0094652475         3777 
 3765000   0.64104563   -8.9117998    489.44019  0.010833116 0.0094611158         3797 
 3766000   0.64287827   -8.9181983    488.85536  0.010817299 0.0094569889         3775 
 3767000   0.64710512    -8.942024    488.63745  0.010809606 0.0094528653         3817 
 3768000   0.64599424   -8.9133154    489.34244  0.010822329 0.0094487402         3756 
 3769000   0.63795665   -8.9397895    488.99676  0.010811815 0.0094446156         3784 
 3770000   0.66328432   -8.9137089    489.08685  0.010810938 0.0094404972         3782 
 3771000   0.64583952   -8.9217211    488.99303  0.010805998 0.0094363778         3782 
 3772000   0.64993926   -8.9437658    489.30433  0.010810011 0.0094322651         3754 
 3773000   0.65341206   -8.9271575    488.30081  0.010784981 0.0094281572         3785 
 3774000   0.62920011   -8.8954147    489.29249  0.010804021 0.0094240464         3778 
 3775000   0.65900275   -8.9362874    488.38097  0.010781037 0.0094199336         3797 
 3776000   0.64794979    -8.912302    488.34922  0.010777481 0.0094158296         3799 
 3777000   0.66124521   -8.9224577    488.21709  0.010771712 0.0094117265         3757 
 3778000   0.64416165   -8.9242232    489.67197  0.010800952 0.0094076268         3759 
 3779000   0.65313529   -8.9289767    489.83884  0.010801774 0.0094035243         3736 
 3780000   0.64330371   -8.9322303    489.08273  0.010782247 0.0093994315         3779 
 3781000   0.64205767   -8.9396444    488.99624  0.010777489 0.0093953381         3798 
 3782000   0.64588124   -8.9238267    488.85357  0.010771496  0.009391246         3762 
 3783000   0.64143989   -8.9231613    488.98124  0.010771461 0.0093871591         3747 
 3784000   0.65116416   -8.9295816    489.10951  0.010771439 0.0093830751         3779 
 3785000    0.6484536   -8.9330855    489.32947  0.010773436 0.0093789946         3810 
 3786000   0.64349056    -8.931231    488.65741  0.010755798 0.0093749168         3776 
 3787000   0.64886113   -8.9360025    488.27019  0.010744437 0.0093708379         3800 
 3788000   0.65178106   -8.9401622    489.03539  0.010758434 0.0093667634         3808 
 3789000   0.66031445   -8.9427613     488.0116  0.010733078 0.0093626877         3800 
 3790000   0.63423306   -8.9240816    489.11526  0.010754513 0.0093586134         3790 
 3791000    0.6417765   -8.9198673    488.82919  0.010745388 0.0093545427         3798 
 3792000   0.66045934   -8.9375018    488.52818  0.010735939 0.0093504713         3822 
 3793000   0.63883792   -8.9450648    488.50407  0.010732579 0.0093464016         3818 
 3794000   0.66196606   -8.9462132     489.5335  0.010752361 0.0093423367         3788 
 3795000   0.64662931   -8.9163747    488.94316  0.010736565  0.009338278         3765 
 3796000   0.64659845   -8.9320353    489.24343  0.010740328 0.0093342186         3765 
 3797000   0.63908569   -8.9375236     489.1119  0.010734613 0.0093301647         3795 
 3798000   0.64395296    -8.929566     489.2921   0.01073574 0.0093261143         3819 
 3799000   0.63885646   -8.9547848    489.25189  0.010732032 0.0093220598         3809 
 3800000   0.62635852   -8.9315937    488.76774  0.010718591 0.0093180107         3774 
 3801000   0.64605725   -8.9303663    488.34668  0.010706539   0.00931396         3761 
 3802000   0.65586967   -8.9233415    489.41119  0.010727056 0.0093099158         3772 
 3803000   0.65209382   -8.9179685     489.4694   0.01072551 0.0093058729         3776 
 3804000   0.64228028   -8.9358965    489.05763   0.01071367 0.0093018318         3791 
 3805000   0.65232483   -8.9472348    489.92754  0.010729907 0.0092977951         3762 
 3806000   0.64930854   -8.9306609    489.11406  0.010709276 0.0092937611         3803 
 3807000   0.64861552   -8.9326937    488.83624  0.010700382   0.00928973         3796 
 3808000   0.64329072   -8.9433802    488.05553  0.010680487 0.0092856984         3806 
 3809000   0.65404792    -8.951327     489.5483  0.010710342 0.0092816694         3782 
 3810000   0.64414842   -8.9399369    489.50637  0.010706614 0.0092776393         3777 
 3811000   0.63370952   -8.9267239     488.1765  0.010674724 0.0092736178         3774 
 3812000   0.63896281   -8.9301395    489.07963  0.010691667 0.0092695928         3816 
 3813000   0.63503388   -8.9461188    488.98547  0.010686805 0.0092655714         3762 
 3814000   0.65259838   -8.9401652    488.74711  0.010678796 0.0092615544         3772 
 3815000   0.63325098   -8.9379134    488.48578  0.010670288 0.0092575394         3795 
 3816000   0.63120306   -8.9411689    488.80766  0.010674521  0.009253526         3759 
 3817000   0.65055093   -8.9471876    488.85924   0.01067285 0.0092495162         3770 
 3818000   0.64152662   -8.9436909    489.46189  0.010683209 0.0092455102         3778 
 3819000   0.63387243   -8.9385634    489.45787  0.010680324 0.0092415012         3786 
 3820000   0.65096524   -8.9288314    488.35211  0.010653406 0.0092374982         3790 
 3821000    0.6507877   -8.9435216    488.53326  0.010654568 0.0092334951         3783 
 3822000   0.63443559   -8.9474847    488.74308  0.010656355 0.0092294939         3814 
 3823000   0.64819212    -8.952921    488.43993   0.01064696 0.0092254958         3836 
 3824000   0.64662281   -8.9233117    489.85558  0.010675026 0.0092214991         3776 
 3825000   0.63389227    -8.944072    488.84897  0.010650304 0.0092175069         3800 
 3826000   0.64088524   -8.9608111    488.96809  0.010650115 0.0092135165         3817 
 3827000   0.64021089   -8.9480681    488.59111  0.010639123 0.0092095294         3814 
 3828000   0.63719178   -8.9528345    487.98199  0.010623084 0.0092055476         3799 
 3829000   0.63281935     -8.95058    489.50394  0.010653433 0.0092015654         3810 
 3830000   0.65904778   -8.9309178    488.92762  0.010638112 0.0091975862         3798 
 3831000   0.64232966   -8.9490102    488.77711  0.010632061 0.0091936061         3789 
 3832000   0.64143659   -8.9513419    487.95856  0.010611486 0.0091896268         3814 
 3833000   0.64622086   -8.9401053    488.77905  0.010626556 0.0091856499         3819 
 3834000   0.64855601   -8.9341093    488.59181  0.010619714 0.0091816767         3768 
 3835000   0.63405336   -8.9434439     489.0618  0.010627158 0.0091777061         3813 
 3836000   0.63744307    -8.946327    489.23418  0.010628132 0.0091737351         3820 
 3837000   0.63964003    -8.943526    489.09804  0.010622405 0.0091697658         3803 
 3838000   0.63703042   -8.9571966    488.73507  0.010611757 0.0091658005         3784 
 3839000   0.64667592   -8.9537381    488.67159  0.010607615 0.0091618396         3788 
 3840000   0.64456087    -8.927554    489.16675  0.010615598 0.0091578813         3765 
 3841000   0.63732782   -8.9445489    489.12653  0.010611961 0.0091539266         3788 
 3842000   0.63562997   -8.9520294    489.24141  0.010611691 0.0091499704         3798 
 3843000   0.62769769   -8.9472016    488.81693  0.010599725 0.0091460215         3788 
 3844000   0.63773692   -8.9540232    488.41382  0.010588229 0.0091420697         3789 
 3845000   0.65085834   -8.9544812    488.29173  0.010582829 0.0091381223         3789 
 3846000   0.64271465   -8.9356506     488.5182  0.010584984 0.0091341767         3842 
 3847000   0.63446162   -8.9444506    488.29748  0.010577452 0.0091302377         3826 
 3848000   0.64749816    -8.940396    488.74813  0.010584462  0.009126301         3820 
 3849000   0.64326512   -8.9428105     489.6095  0.010600361 0.0091223597         3796 
 3850000   0.62893727   -8.9731147    488.49291   0.01057344  0.009118422         3810 
 3851000   0.63902042   -8.9465929    488.40803  0.010568857 0.0091144869         3775 
 3852000   0.65296218   -8.9670058    488.57677  0.010569764  0.009110554         3756 
 3853000   0.63066549   -8.9538959    489.44103  0.010585713 0.0091066232         3818 
 3854000   0.64677871   -8.9394286    488.68762  0.010566676 0.0091026936         3811 
 3855000   0.64081181   -8.9523652    488.67571  0.010563677  0.009098766         3802 
 3856000   0.65362207   -8.9790238    488.52994  0.010557787 0.0090948429         3813 
 3857000     0.637794   -8.9615872     489.4818  0.010575616 0.0090909166         3796 
 3858000   0.65032577   -8.9621472    488.42559   0.01055006 0.0090869939         3811 
 3859000   0.62282948   -8.9509122    488.65325  0.010552243  0.009083073         3792 
 3860000   0.63912657   -8.9346358    488.61915  0.010548773 0.0090791554         3787 
 3861000   0.63111749    -8.921331    488.74043  0.010548658 0.0090752436         3783 
 3862000   0.64536848    -8.957089    488.79363  0.010547075 0.0090713339         3821 
 3863000   0.63053364   -8.9508851    488.77662  0.010543977 0.0090674225         3822 
 3864000   0.64384454   -8.9419052    488.17552  0.010528285 0.0090635181         3808 
 3865000   0.62469335   -8.9492791    488.32136  0.010528706 0.0090596166         3818 
 3866000   0.63489566   -8.9523716    487.97228  0.010518457 0.0090557151         3792 
 3867000   0.65101069   -8.9486482    489.07826  0.010539571 0.0090518159         3779 
 3868000   0.63521139    -8.947877     489.2896  0.010541399  0.009047913         3794 
 3869000   0.62938282   -8.9493411    488.21519  0.010515534 0.0090440165         3809 
 3870000   0.63001782   -8.9444134    489.04705  0.010530729 0.0090401204         3794 
 3871000   0.62346784   -8.9585085    488.81423  0.010522997 0.0090362305         3795 
 3872000    0.6407823   -8.9511932    488.75907  0.010519091 0.0090323385         3806 
 3873000   0.63289014   -8.9530034    488.45588  0.010509852 0.0090284495         3773 
 3874000    0.6504524   -8.9641706    487.97425  0.010496779  0.009024565         3796 
 3875000   0.63085228   -8.9591126    487.87624  0.010491962  0.009020682         3785 
 3876000   0.64351637   -8.9553491    488.56744  0.010504116 0.0090167999         3804 
 3877000   0.62948515   -8.9605016     488.3929  0.010497655 0.0090129236         3794 
 3878000   0.61779588   -8.9605891    488.54009  0.010498111 0.0090090508         3798 
 3879000   0.64116562   -8.9552717     487.7228  0.010477847 0.0090051759         3784 
 3880000    0.6313803   -8.9536144    488.83575   0.01049905 0.0090013055         3785 
 3881000    0.6291079   -8.9650123    488.00823  0.010478576 0.0089974353         3803 
 3882000   0.61298238   -8.9385795    488.81478   0.01049319 0.0089935676         3770 
 3883000   0.62245164   -8.9509512    489.14387  0.010497551  0.008989703         3807 
 3884000   0.62596877   -8.9837311    488.19032  0.010474389  0.008985835         3786 
 3885000   0.64083951   -8.9617837    487.41923  0.010455153  0.008981973         3810 
 3886000   0.62014392   -8.9609529    488.09118  0.010466872 0.0089781126         3810 
 3887000   0.61412685   -8.9714612    488.37607  0.010470287 0.0089742551         3750 
 3888000   0.63405323   -8.9413089    489.16897  0.010484589 0.0089704017         3764 
 3889000   0.62356298   -8.9485703    489.36915  0.010486182 0.0089665487         3834 
 3890000   0.63254709    -8.966427    488.10376  0.010456379 0.0089626968         3804 
 3891000   0.63373146   -8.9614177    488.52327  0.010462676 0.0089588477         3797 
 3892000   0.62976264   -8.9485951    488.35295  0.010456341 0.0089550032         3774 
 3893000    0.6252673   -8.9658844    487.87391  0.010443401 0.0089511632         3795 
 3894000   0.62412377   -8.9687082     487.6739  0.010436438 0.0089473221         3799 
 3895000   0.63732798   -8.9605598    488.27507  0.010446621 0.0089434852         3789 
 3896000   0.62053356   -8.9652928    487.94515  0.010436883 0.0089396486         3810 
 3897000   0.63406867   -8.9437137    489.25488  0.010462212 0.0089358132         3786 
 3898000   0.61287147   -8.9534707    488.42552  0.010441797 0.0089319832         3783 
 3899000   0.62164962   -8.9504507    488.46665  0.010439999 0.0089281511         3792 
 3900000   0.62451693   -8.9586464    488.23068  0.010432279 0.0089243207         3811 
 3901000   0.62714527    -8.978088    488.16712  0.010428248 0.0089204929         3833 
 3902000   0.62631146   -8.9590388    489.05058  0.010444443 0.0089166658         3785 
 3903000    0.6305738   -8.9498552    489.07835   0.01044236  0.008912843         3819 
 3904000   0.61658864   -8.9617982     488.2142  0.010421239 0.0089090262         3801 
 3905000   0.62586633   -8.9782727    488.07221   0.01041554 0.0089052088         3779 
 3906000    0.6242879   -8.9708334     488.3765  0.010419366 0.0089013951         3771 
 3907000   0.62069868   -8.9787897    487.51069  0.010398232 0.0088975828         3817 
 3908000   0.62362951   -8.9748761    488.38194  0.010414149 0.0088937705         3820 
 3909000   0.63082983   -8.9676928    488.56966  0.010415487  0.008889958         3804 
 3910000   0.62732189   -8.9559866    488.43283  0.010409907 0.0088861493         3807 
 3911000    0.6331123   -8.9596174    488.11396  0.010400451  0.008882342         3841 
 3912000   0.61123482   -8.9638112    487.75452  0.010390136 0.0088785356         3797 
 3913000   0.62416837   -8.9619532    489.22668  0.010418832 0.0088747323         3781 
 3914000   0.62135638   -8.9564151     488.6437  0.010403758 0.0088709316         3784 
 3915000   0.62416652   -8.9786974    487.18854  0.010370126 0.0088671344         3792 
 3916000   0.61927841   -8.9760197    488.09828  0.010386838 0.0088633385         3778 
 3917000   0.62179235   -8.9564674    489.13656  0.010406275 0.0088595452         3780 
 3918000   0.61058736   -8.9586253    489.20088  0.010404987 0.0088557574         3789 
 3919000   0.63777778   -8.9604625    488.78837  0.010393561 0.0088519714         3791 
 3920000   0.62780497   -8.9705695    488.53458  0.010385514 0.0088481856         3819 
 3921000   0.61312243   -8.9430516    487.99668  0.010371433 0.0088444006         3810 
 3922000   0.63048039   -8.9791439    487.65927   0.01036162 0.0088406185         3814 
 3923000   0.62723904   -8.9849594    487.87447   0.01036355 0.0088368386         3828 
 3924000   0.61753097   -8.9540849    488.58861  0.010376075 0.0088330673         3787 
 3925000   0.62721067   -8.9626946    487.67299  0.010353991 0.0088292931         3835 
 3926000   0.61940852    -8.975097    488.07014  0.010359784 0.0088255213         3811 
 3927000   0.63183396   -8.9608153    488.10192   0.01035782 0.0088217532         3812 
 3928000   0.62059107   -8.9789335     487.4245  0.010340812 0.0088179822         3790 
 3929000   0.62601807   -8.9523662    488.16191   0.01035382 0.0088142179         3836 
 3930000   0.63479332    -8.972712    487.71178  0.010341641  0.008810455         3787 
 3931000   0.62743029   -8.9733216    487.60738  0.010336797 0.0088066965         3776 
 3932000   0.61220246   -8.9522496     488.7232  0.010357816 0.0088029369         3759 
 3933000   0.61164406   -8.9589937    487.76373  0.010334853 0.0087991816         3780 
 3934000   0.62398948   -8.9650143    487.66093  0.010330048 0.0087954269         3796 
 3935000   0.62881506   -8.9528576    488.72885  0.010350039 0.0087916738         3811 
 3936000   0.61640793   -8.9623322     488.5128  0.010342835 0.0087879245         3808 
 3937000   0.61323805   -8.9528617    488.02854  0.010329958 0.0087841783         3783 
 3938000   0.63356649   -8.9646516    487.95517  0.010325782 0.0087804347         3798 
 3939000   0.61652523   -8.9577478    487.00002  0.010302954  0.008776694         3816 
 3940000    0.6275425   -8.9643348    487.34847  0.010307709 0.0087729514         3788 
 3941000   0.61877374   -8.9486522    487.86192   0.01031595 0.0087692084         3799 
 3942000   0.62430575   -8.9616957    488.28319  0.010322239 0.0087654728         3792 
 3943000   0.61825746   -8.9663856    487.71092  0.010307526 0.0087617354         3814 
 3944000   0.62410628   -8.9701597    488.33429  0.010318084 0.0087580021         3792 
 3945000   0.61700713   -8.9646807    487.93302  0.010306992 0.0087542702         3809 
 3946000   0.62479158   -8.9571525    488.09883  0.010307882 0.0087505406         3745 
 3947000   0.62609553   -8.9711773    488.61761  0.010316223 0.0087468143         3784 
 3948000    0.6280329   -8.9954865    487.41503  0.010288227  0.008743088         3770 
 3949000   0.61481266   -8.9620523    487.85569   0.01029492 0.0087393673         3796 
 3950000   0.62924946   -8.9714444     487.6287  0.010287525 0.0087356488         3785 
 3951000   0.62882234   -8.9753328    487.87261  0.010290066 0.0087319289         3803 
 3952000   0.60995741   -8.9710599    487.72677  0.010284387 0.0087282124         3815 
 3953000   0.62695746   -8.9640254    488.26199  0.010293068 0.0087244991         3782 
 3954000   0.61876966     -8.96098    488.15352  0.010288179 0.0087207885         3827 
 3955000   0.62214537    -8.956198    488.31212  0.010288919 0.0087170801         3783 
 3956000   0.60699247   -8.9586969    487.23459   0.01026362 0.0087133738         3813 
 3957000   0.62824046    -8.966597    487.42314  0.010264998 0.0087096634         3821 
 3958000   0.61505027   -8.9477099    488.43684  0.010283747 0.0087059643         3784 
 3959000   0.61861452   -8.9864285    488.17435  0.010275624 0.0087022667         3833 
 3960000   0.63279742   -8.9522316    487.89121  0.010267071 0.0086985679         3801 
 3961000   0.62400492   -8.9839454    487.33667  0.010252812 0.0086948703         3784 
 3962000   0.60820413   -8.9765223    487.99892  0.010264154 0.0086911759         3817 
 3963000   0.63078629   -8.9700727    487.43483  0.010249702 0.0086874827         3776 
 3964000   0.61600827   -8.9835367    487.92612  0.010257444 0.0086837927         3801 
 3965000   0.61598139   -8.9579059    487.05951  0.010236644 0.0086801014         3815 
 3966000   0.60912353   -8.9758095    487.15765  0.010236125 0.0086764107         3803 
 3967000   0.61747076   -8.9533202    487.62945  0.010243455 0.0086727263         3804 
 3968000   0.62064341   -8.9617304    488.26975  0.010254321 0.0086690439         3760 
 3969000   0.61728751   -8.9870974    487.81918  0.010242277 0.0086653656         3804 
 3970000   0.62665164   -8.9838783    487.86454  0.010240649 0.0086616836         3794 
 3971000   0.61508367   -8.9713164     487.6514  0.010233598 0.0086580069         3833 
 3972000   0.62578971   -8.9839032    488.74681  0.010254003 0.0086543371         3816 
 3973000   0.61712118   -8.9890567    488.45675  0.010245338 0.0086506627         3805 
 3974000    0.6020209   -8.9679909    488.05349  0.010234304  0.008646995         3811 
 3975000   0.61775577   -8.9873086    488.23089  0.010235448 0.0086433295         3795 
 3976000   0.61335611   -8.9718245     487.7875  0.010223581 0.0086396604         3824 
 3977000   0.61846219   -8.9604138    488.92816  0.010244911 0.0086359967         3809 
 3978000   0.61808232   -8.9847966     488.0907  0.010224793 0.0086323318         3832 
 3979000    0.6193373   -8.9744882    487.73186  0.010214708 0.0086286692         3783 
 3980000   0.60572509   -8.9777945    488.02848  0.010218352 0.0086250105         3804 
 3981000   0.61206545   -8.9758674    488.30129  0.010221496 0.0086213526         3813 
 3982000   0.62393785   -8.9649423    488.24638   0.01021778 0.0086176994         3827 
 3983000   0.61415585   -8.9868418    488.03149  0.010210718 0.0086140493         3786 
 3984000   0.61897847   -8.9901951     487.5426  0.010197929 0.0086103979         3772 
 3985000   0.61510439   -8.9651545    488.76595  0.010220953 0.0086067522         3807 
 3986000   0.62226635   -8.9842171    487.34859  0.010188756 0.0086031056         3809 
 3987000   0.62564528   -8.9765659    488.23729  0.010204776 0.0085994617         3791 
 3988000   0.61960641   -8.9713583    487.82915  0.010193688 0.0085958189         3828 
 3989000   0.60197255   -9.0018114     486.2855  0.010158885 0.0085921809         3811 
 3990000   0.61584555   -8.9732454    487.51615  0.010182041 0.0085885432         3792 
 3991000    0.6019822   -8.9784098    488.51335  0.010200312 0.0085849062         3801 
 3992000   0.61655617    -8.977501    488.81599  0.010204075 0.0085812688         3781 
 3993000   0.60842307   -8.9733593    487.39229  0.010171807 0.0085776369         3776 
 3994000   0.59848828   -8.9950488    487.55619   0.01017268 0.0085740052         3828 
 3995000    0.5996506   -8.9821077    487.77669  0.010174733 0.0085703759         3845 
 3996000    0.6113348   -8.9902822    487.77272  0.010172104 0.0085667476         3777 
 3997000   0.60348976   -8.9872905    488.68262  0.010188529 0.0085631209         3823 
 3998000   0.60438594   -8.9769006    488.93605  0.010191263 0.0085594956         3839 
 3999000   0.61535283   -8.9830994    488.15843   0.01017251 0.0085558725         3832 
 4000000    0.6270903    -8.984237    487.72732  0.010160986 0.0085522599         3792 
 4001000   0.60520847    -8.989225    487.38101  0.010151233  0.008548641         3803 
 4002000   0.60926847   -8.9791978    487.59494  0.010153151 0.0085450252         3791 
 4003000   0.61003407    -8.988948    487.57668  0.010150235 0.0085414133         3826 
 4004000   0.62143465   -8.9870955    488.06298  0.010157821 0.0085377994         3829 
 4005000   0.61570453   -8.9958545    487.84475  0.010150744 0.0085341937         3813 
 4006000   0.59991324   -8.9489197      487.835  0.010148007 0.0085305831         3841 
 4007000    0.6292557   -9.0036489    487.34495  0.010135283 0.0085269753         3762 
 4008000   0.60495064    -8.980908    488.23988  0.010151361 0.0085233731         3818 
 4009000   0.60967339   -8.9895871    487.19669  0.010127145 0.0085197748         3808 
 4010000   0.61905264   -8.9706076    488.47805  0.010151248 0.0085161785         3797 
 4011000   0.60536614    -8.983375    487.50781  0.010128559 0.0085125833         3833 
 4012000   0.61657675   -9.0008783    487.26637   0.01012102  0.008508991         3825 
 4013000   0.60930867   -8.9867049    487.64625  0.010126386    0.0085054         3808 
 4014000   0.61282227   -8.9764982    487.66227  0.010124196 0.0085018101         3834 
 4015000   0.61642069   -8.9894149    487.81469  0.010124838 0.0084982192         3805 
 4016000   0.62241915   -8.9798048    487.83973  0.010122836 0.0084946301         3806 
 4017000   0.62232268   -8.9961918     488.9028   0.01014237 0.0084910467         3795 
 4018000   0.60837038   -8.9843319    487.67521  0.010114385 0.0084874644         3831 
 4019000   0.60624447   -9.0054483    487.13912  0.010100753 0.0084838853         3814 
 4020000   0.61521665   -8.9815854     487.9025  0.010114065 0.0084803101         3835 
 4021000   0.61519222    -8.953344    488.04713  0.010114547  0.008476733         3795 
 4022000   0.60324672   -8.9926614     487.2286  0.010095073 0.0084731571         3785 
 4023000   0.61907679   -8.9860192    487.48408  0.010097856 0.0084695806         3820 
 4024000   0.59669131   -9.0044925    486.70078  0.010079125 0.0084660074         3772 
 4025000   0.60465258   -9.0019838    487.34869  0.010090035 0.0084624384         3843 
 4026000   0.61133409   -9.0161616    488.28369  0.010106882 0.0084588731         3813 
 4027000   0.61264976   -8.9942199    487.18328  0.010081601 0.0084553056         3825 
 4028000   0.61510988   -9.0117963    486.83314  0.010071854 0.0084517448         3806 
 4029000   0.60370894   -9.0048113    487.47386  0.010082607 0.0084481841         3796 
 4030000   0.60225685   -8.9848498    487.97615  0.010090491 0.0084446258         3802 
 4031000   0.60924412   -9.0112765    487.20707  0.010072089 0.0084410691         3816 
 4032000   0.60636615   -8.9747841    488.34461  0.010093101 0.0084375098         3812 
 4033000   0.60151019   -8.9893476    486.99932  0.010062801 0.0084339565         3805 
 4034000    0.6060526   -8.9804154    487.88789  0.010078662 0.0084304065         3787 
 4035000   0.60805748   -8.9847134    486.99259  0.010057674 0.0084268613         3818 
 4036000   0.60462198   -8.9873091    487.25913  0.010060686 0.0084233111         3801 
 4037000   0.60411015   -8.9897612    487.63548  0.010065962 0.0084197662         3787 
 4038000   0.60356107   -9.0172257    486.86972  0.010047666 0.0084162217         3820 
 4039000   0.60252831   -8.9951514    487.38204  0.010055749 0.0084126834         3829 
 4040000   0.60869249   -8.9850244    487.55047  0.010056734 0.0084091421         3831 
 4041000    0.6252716   -8.9836291    488.24234  0.010068513 0.0084056057         3815 
 4042000   0.59375906   -9.0101461    487.18786  0.010044282 0.0084020696         3793 
 4043000    0.5943988   -8.9902959    487.47715  0.010047761 0.0083985377         3828 
 4044000   0.59856843   -8.9969958    487.52588   0.01004628 0.0083950037         3799 
 4045000   0.60235778   -8.9975914    487.41216  0.010041454   0.00839147         3830 
 4046000   0.59457373   -8.9912116    488.39337  0.010059181 0.0083879382         3828 
 4047000   0.59219501   -8.9927253    487.07926  0.010029636   0.00838441         3797 
 4048000   0.59873525   -8.9774779    486.76631  0.010020716  0.008380886         3828 
 4049000    0.5879751   -9.0058258    487.32919  0.010029826 0.0083773621         3797 
 4050000   0.60484578    -8.997505    488.03589  0.010041891 0.0083738408         3799 
 4051000   0.61480526   -8.9962487    488.44315   0.01004779 0.0083703201         3822 
 4052000   0.60632573   -9.0210841    486.98613  0.010015345 0.0083668052         3810 
 4053000   0.60462779   -9.0044913    487.35316   0.01002042  0.008363291         3841 
 4054000   0.60205453   -8.9726924    487.43033  0.010019535 0.0083597756         3810 
 4055000   0.61328651   -8.9937082    487.89731  0.010026661 0.0083562663         3780 
 4056000   0.59511796    -9.009441     486.2296 0.0099899244 0.0083527545         3816 
 4057000   0.59814307   -8.9881371    487.12245  0.010005802 0.0083492462         3798 
 4058000   0.60709555   -8.9940821     487.2432  0.010005816 0.0083457425         3815 
 4059000   0.60014345   -9.0031485    487.51983   0.01000903 0.0083422425         3798 
 4060000   0.60505526   -8.9997521    486.79496 0.0099916864 0.0083387414         3845 
 4061000   0.59741426   -9.0062255    487.04511 0.0099943591 0.0083352413         3786 
 4062000   0.61199747   -8.9955764     486.8416 0.0099877236 0.0083317436         3789 
 4063000   0.60787365   -9.0017525    486.61426 0.0099806025 0.0083282479         3847 
 4064000   0.60369482   -9.0051042    486.87468 0.0099834867 0.0083247554         3811 
 4065000   0.61363181   -9.0135844    486.76476 0.0099787774 0.0083212676         3781 
 4066000   0.61109728    -8.978824    487.08047 0.0099827937 0.0083177787         3809 
 4067000   0.60840505   -9.0059455    487.04163 0.0099795433 0.0083142932         3821 
 4068000   0.60503148   -9.0206758    486.39828 0.0099639109 0.0083108067         3858 
 4069000    0.5950411   -9.0073381    487.29737 0.0099798758 0.0083073228         3809 
 4070000   0.59724828   -8.9829473    486.84544 0.0099681703 0.0083038419         3795 
 4071000   0.60350175   -8.9882784    487.70813  0.009983381 0.0083003662         3793 
 4072000   0.59491401    -9.007518    487.38077 0.0099742299 0.0082968895         3815 
 4073000   0.59164616   -8.9876695    487.33584 0.0099708618 0.0082934142         3828 
 4074000   0.59831272   -9.0054673    487.39447 0.0099696136 0.0082899404         3791 
 4075000   0.59980145   -8.9868194    487.29057 0.0099650424 0.0082864702         3825 
 4076000    0.5964677   -9.0132222    486.69572 0.0099504358 0.0082830014         3820 
 4077000   0.59328184   -9.0097392    487.37826 0.0099619463 0.0082795327         3803 
 4078000   0.59999669   -8.9941244    487.57383 0.0099634998 0.0082760644         3796 
 4079000   0.60678773   -8.9940484     487.8023 0.0099657248 0.0082726013         3824 
 4080000   0.60924716   -9.0049002    486.92911 0.0099454474 0.0082691424         3831 
 4081000   0.59783341   -9.0075956    487.18633 0.0099482628 0.0082656829         3800 
 4082000    0.5951842   -8.9952753    487.47124 0.0099516423 0.0082622237         3821 
 4083000   0.58389238   -9.0346884    486.47262 0.0099288231 0.0082587637         3817 
 4084000   0.60289641   -8.9995583    487.50998 0.0099475591 0.0082553078         3840 
 4085000   0.59296268   -9.0137276    487.52119 0.0099453527 0.0082518553         3809 
 4086000   0.60632049   -9.0181209    487.66662 0.0099458848 0.0082484074         3831 
 4087000   0.58761312   -9.0089015    487.27051 0.0099353745  0.008244957         3817 
 4088000    0.5916313    -9.014471    487.31835 0.0099339193 0.0082415108         3819 
 4089000   0.59894231   -9.0100928    488.08234 0.0099470601 0.0082380666         3813 
 4090000   0.58737399   -9.0072258    487.98011  0.009942545 0.0082346237         3847 
 4091000   0.60372118   -8.9755707    488.18876 0.0099443648 0.0082311829         3851 
 4092000   0.59422578   -9.0056904     487.4297 0.0099264765 0.0082277453         3826 
 4093000   0.59892541   -9.0080236    487.56773 0.0099268614 0.0082243095         3826 
 4094000   0.60650803    -9.007271    487.45157 0.0099220724  0.008220877         3826 
 4095000   0.59989189     -9.00519    486.86236  0.009907659 0.0082174439         3825 
 4096000   0.59681088   -9.0062122    487.04409 0.0099089374 0.0082140113         3810 
 4097000   0.60364491   -9.0138428    485.60573 0.0098772624 0.0082105809         3792 
 4098000   0.60279644   -9.0313973    486.92311 0.0099016412 0.0082071538         3800 
 4099000   0.59141421   -9.0228329    488.17039  0.009924583 0.0082037252         3817 
 4100000   0.60210495   -9.0163728    486.43623 0.0098869152 0.0082003024         3837 
 4101000   0.60000743   -9.0183209    487.42392 0.0099045745 0.0081968834         3810 
 4102000   0.58817242   -9.0338841    487.23639 0.0098983502 0.0081934614         3818 
 4103000   0.60233649    -9.014088    487.34178 0.0098980782  0.008190042         3817 
 4104000   0.59516495   -9.0145328    487.46089  0.009898085 0.0081866243         3801 
 4105000    0.5954951   -8.9972997    486.61657 0.0098785337 0.0081832104         3827 
 4106000   0.59764698   -9.0273611    486.60066  0.009875805 0.0081797971         3821 
 4107000    0.5995305   -9.0018379    487.91859 0.0099001418  0.008176384         3820 
 4108000    0.5962517    -9.010863     487.4541 0.0098883095 0.0081729758         3782 
 4109000   0.58815785   -9.0169435    487.55142 0.0098878766 0.0081695713         3823 
 4110000   0.58360625   -9.0315171    486.77747 0.0098697784 0.0081661632         3809 
 4111000   0.59776649   -9.0145202    487.36955 0.0098793795 0.0081627626         3816 
 4112000   0.58536967   -8.9960738    487.51369 0.0098798981 0.0081593607         3810 
 4113000   0.58589201   -9.0236073    487.15933 0.0098703162 0.0081559629         3832 
 4114000   0.59594693   -9.0226443    486.28196  0.009850145  0.008152565         3821 
 4115000   0.58024884   -8.9930194    487.63441 0.0098751398 0.0081491702         3811 
 4116000   0.59589168   -9.0206063    486.53021 0.0098503848  0.008145774         3831 
 4117000   0.58852489   -9.0177242    486.57338 0.0098488661 0.0081423816         3819 
 4118000   0.59191417   -9.0192036    487.56668 0.0098665751 0.0081389958         3807 
 4119000   0.59445915   -9.0385282    486.38517 0.0098402761 0.0081356087         3797 
 4120000   0.61475248   -9.0128238    486.60856 0.0098424062  0.008132224         3803 
 4121000   0.58864052   -9.0150716    486.77364  0.009843356  0.008128839         3824 
 4122000   0.59062231   -9.0030004    487.24838 0.0098505656 0.0081254566         3829 
 4123000     0.601082    -9.006952    486.73266 0.0098377529  0.008122077         3836 
 4124000    0.6046994   -9.0263989    486.58331 0.0098323494 0.0081187018         3824 
 4125000   0.57805126   -9.0091543    486.89752 0.0098363136 0.0081153261         3803 
 4126000   0.59772209   -9.0230637    487.04898 0.0098369887 0.0081119521         3809 
 4127000   0.58869611   -9.0163694    486.73685 0.0098283024  0.008108579         3818 
 4128000   0.58440401   -9.0073725    487.20525 0.0098353772 0.0081052093         3802 
 4129000   0.59618799    -9.007538    487.36384  0.009836196 0.0081018391         3791 
 4130000   0.59258843   -8.9902372    487.28804  0.009832285 0.0080984727         3812 
 4131000   0.59501596   -9.0155584    485.86257 0.0098011493 0.0080951071         3823 
 4132000   0.59904915   -9.0159001    486.86216 0.0098189367 0.0080917458         3807 
 4133000   0.59692526   -8.9983249    487.48458 0.0098291109 0.0080883849         3804 
 4134000   0.59630041    -8.985119    486.86042 0.0098141513 0.0080850256         3837 
 4135000   0.57432534   -9.0195887     486.4766 0.0098040428 0.0080816686         3830 
 4136000   0.60075682   -9.0119933    486.60657  0.009804291 0.0080783116         3821 
 4137000   0.59076663   -9.0199623     488.0872 0.0098317461 0.0080749562         3804 
 4138000   0.59510847   -9.0107426    487.28617 0.0098132386 0.0080716048         3820 
 4139000   0.60308914   -9.0293173    486.49795 0.0097949978 0.0080682532         3819 
 4140000   0.57967901    -9.035998    486.67341 0.0097961637 0.0080649044         3812 
 4141000   0.59277024   -9.0140034     486.6036 0.0097923932 0.0080615564         3813 
 4142000   0.60011843   -9.0155452    486.33955 0.0097847165 0.0080582097         3836 
 4143000   0.57693467   -9.0238465    486.60248 0.0097876435 0.0080548639         3819 
 4144000   0.59062384   -9.0230661    486.57614 0.0097847519 0.0080515207         3818 
 4145000   0.60842145   -9.0229028    486.63602 0.0097835952 0.0080481811         3804 
 4146000   0.59216448   -9.0220139    486.91802 0.0097869034 0.0080448435         3803 
 4147000   0.58137616   -9.0202693     486.6755   0.00977967 0.0080415064         3823 
 4148000   0.58687113   -9.0264027    487.26625 0.0097891805 0.0080381731         3826 
 4149000    0.5904724   -8.9925498      487.544 0.0097923998 0.0080348443         3827 
 4150000   0.60172329   -9.0132111    486.66562  0.009772402 0.0080315161         3790 
 4151000   0.57958167   -9.0191578    485.78451 0.0097523591 0.0080281866         3832 
 4152000   0.59119419   -9.0103169    486.64954 0.0097673719 0.0080248604         3829 
 4153000   0.58385722   -9.0149701    486.71943 0.0097664225  0.008021538         3804 
 4154000   0.58927534   -9.0252071    486.74287 0.0097645415 0.0080182179         3805 
 4155000   0.59043009   -9.0369392    486.79246 0.0097631861 0.0080148969         3858 
 4156000   0.58219181   -9.0051699    486.76968 0.0097603802 0.0080115797         3776 
 4157000   0.57853938   -9.0102071    487.19455 0.0097665494 0.0080082605         3812 
 4158000   0.58649505   -9.0324392    486.41522 0.0097485815 0.0080049433         3839 
 4159000   0.58712719   -9.0299555    486.33412 0.0097446124 0.0080016319         3836 
 4160000   0.59204786    -9.026073    487.40489 0.0097637198 0.0079983234         3793 
 4161000   0.58215504   -9.0098101    486.82079 0.0097496754 0.0079950093         3819 
 4162000   0.59234671   -9.0218028    487.18408 0.0097546067  0.007991703         3811 
 4163000   0.58522469   -9.0281212    486.66662 0.0097419053 0.0079883964         3810 
 4164000   0.59689331   -9.0086033    486.40055 0.0097342409 0.0079850897         3828 
 4165000   0.60355131   -9.0153487    486.52248 0.0097343433 0.0079817911         3808 
 4166000   0.58164724    -9.032466    487.58248 0.0097532101 0.0079784926         3821 
 4167000   0.58034128   -9.0351674    487.08833 0.0097409873 0.0079751949         3817 
 4168000   0.59765367   -9.0169359    485.44744 0.0097058429 0.0079718978         3834 
 4169000   0.59165688   -9.0284236    486.22653 0.0097190879 0.0079686021         3811 
 4170000   0.58751505   -9.0171417    487.01135 0.0097324411 0.0079653085         3816 
 4171000   0.58176223   -9.0182041    486.06065 0.0097111134 0.0079620185         3846 
 4172000   0.57947098   -9.0330359     486.4971 0.0097175035 0.0079587285         3825 
 4173000   0.58815387   -9.0167484    486.52495 0.0097157311 0.0079554385         3817 
 4174000   0.58301074   -9.0141249     487.3343 0.0097295619 0.0079521535         3837 
 4175000   0.56835097   -9.0282837    486.47447 0.0097100693 0.0079488692         3856 
 4176000   0.59541898   -9.0297288    487.21741 0.0097225697 0.0079455905         3824 
 4177000   0.58815901   -9.0150984    486.56281 0.0097071823 0.0079423078         3863 
 4178000   0.58387396   -9.0323854    485.82117 0.0096900665 0.0079390265         3835 
 4179000   0.58692821   -9.0359622    487.29179 0.0097170733 0.0079357492         3844 
 4180000   0.59971361   -9.0205896    486.37096 0.0096963907 0.0079324711         3802 
 4181000   0.58560676   -9.0492748    486.13126 0.0096892941 0.0079291976         3819 
 4182000   0.57970955   -9.0342109    486.61404 0.0096965974 0.0079259265         3831 
 4183000   0.56630161   -9.0358211    486.80134 0.0096980105 0.0079226546         3838 
 4184000   0.57469144    -9.028229    486.26407 0.0096849919 0.0079193854         3826 
 4185000   0.58050336   -9.0309145     486.3068 0.0096835285 0.0079161189         3817 
 4186000   0.58603886   -9.0136142    486.49982 0.0096850577 0.0079128539         3857 
 4187000   0.58845014   -9.0197921    486.28297 0.0096784287 0.0079095911         3828 
 4188000   0.59159061   -9.0457141    485.83486  0.009667201 0.0079063289         3815 
 4189000   0.57057398   -9.0300206    487.15728 0.0096912008 0.0079030701         3825 
 4190000   0.58382702   -9.0465662     486.2709 0.0096712589 0.0078998155         3831 
 4191000   0.57564752   -9.0313524     486.8998 0.0096814563 0.0078965606         3848 
 4192000   0.57228787    -9.037507    486.28919 0.0096670084 0.0078933063         3824 
 4193000   0.58782902   -9.0219938    486.48662 0.0096686266 0.0078900561         3807 
 4194000   0.57867358   -9.0212696    486.50069 0.0096666009 0.0078868036         3818 
 4195000   0.58083983    -9.025103     485.5586  0.009645582 0.0078835562         3854 
 4196000   0.57778638   -9.0382263    486.50909 0.0096621602 0.0078803083         3811 
 4197000   0.57810331   -9.0238223    486.83195 0.0096662685 0.0078770632         3800 
 4198000   0.57293622   -9.0331955    486.04918 0.0096484275 0.0078738182         3824 
 4199000   0.57990702   -9.0517329     486.4715  0.009654511 0.0078705759         3819 
 4200000   0.59470859   -9.0201522    486.81017 0.0096589319 0.0078673366         3821 
 4201000    0.5829905   -9.0513688     485.1678 0.0096240538 0.0078641007         3841 
 4202000   0.58565755   -9.0200753    487.13552  0.009660787 0.0078608647         3843 
 4203000    0.5620049   -9.0311089     485.9503 0.0096349889 0.0078576318         3829 
 4204000   0.58317036   -9.0399819    486.27395 0.0096391126 0.0078543986         3797 
 4205000   0.56695742   -9.0504034    485.82376 0.0096278985 0.0078511684         3818 
 4206000   0.57379954   -9.0168571    485.40896 0.0096173911 0.0078479399         3821 
 4207000   0.59214077    -9.033095    486.32426 0.0096332355 0.0078447133         3817 
 4208000   0.56730408    -9.036818    486.97373 0.0096438081 0.0078414894         3832 
 4209000   0.58569907   -9.0148781      486.823 0.0096385326 0.0078382658         3817 
 4210000   0.57260232   -9.0284494    486.26898 0.0096252768 0.0078350457         3824 
 4211000   0.58787872   -9.0485514    486.78151 0.0096331337  0.007831827         3820 
 4212000   0.59168124   -9.0335026    486.69309 0.0096290973 0.0078286072         3811 
 4213000   0.57384472     -9.04707    485.77903 0.0096087316 0.0078253887         3838 
 4214000   0.58520703   -9.0428406    486.42781 0.0096192811 0.0078221759         3837 
 4215000   0.57264736   -9.0346547    486.40822 0.0096166118  0.007818962         3833 
 4216000   0.57870105   -9.0525784    485.93424 0.0096049621 0.0078157531         3824 
 4217000   0.58010079   -9.0232142    486.06688 0.0096053054  0.007812539         3848 
 4218000   0.56784326   -9.0525979    485.19323  0.009585768 0.0078093309         3830 
 4219000   0.57908296   -9.0295029    486.50567  0.009609419 0.0078061208         3815 
 4220000   0.59019172   -9.0358459    485.78786 0.0095929673 0.0078029151         3782 
 4221000   0.57976839   -9.0463378    485.59005 0.0095867893 0.0077997105         3822 
 4222000    0.5833731   -9.0409116    485.96863  0.009591991 0.0077965119         3827 
 4223000   0.56700363   -9.0394952    485.42628 0.0095790173 0.0077933134         3852 
 4224000   0.56832308   -9.0472825    485.92882 0.0095866639 0.0077901159         3807 
 4225000   0.57939595   -9.0541982    485.53211 0.0095765703 0.0077869182         3822 
 4226000   0.56386196   -9.0574976    485.94676 0.0095824807 0.0077837238         3815 
 4227000   0.58482794   -9.0217583    485.80581 0.0095774349  0.007780533         3842 
 4228000   0.57454798   -9.0398488    486.35661 0.0095860259 0.0077773423         3811 
 4229000   0.58455701    -9.032591    487.02961 0.0095970208 0.0077741548         3844 
 4230000   0.56247296   -9.0279113    486.34148 0.0095811954 0.0077709695         3832 
 4231000   0.58175682   -9.0351365    486.57794 0.0095835882 0.0077677844         3828 
 4232000    0.5829774   -9.0375071    487.04178 0.0095904572 0.0077646028         3781 
 4233000   0.57662784    -9.042332     485.9304 0.0095663122 0.0077614206         3826 
 4234000   0.57561502   -9.0286919    485.68415 0.0095592061 0.0077582393         3820 
 4235000    0.5810443   -9.0408094    485.98587  0.009562886 0.0077550604         3793 
 4236000   0.58271009   -9.0319859    485.95589 0.0095600388  0.007751884         3821 
 4237000   0.57201454   -9.0523788     485.8932 0.0095565495 0.0077487092         3792 
 4238000    0.5738085   -9.0342968    486.36491 0.0095635699 0.0077455374         3788 
 4239000   0.57902687   -9.0529999    486.19235 0.0095579214 0.0077423656         3790 
 4240000   0.58329378     -9.05855    485.82621 0.0095484712 0.0077391965         3829 
 4241000   0.58422052   -9.0312077    486.60497 0.0095615218 0.0077360291         3835 
 4242000   0.56690766   -9.0631372    487.29762 0.0095728749 0.0077328649         3806 
 4243000   0.58113481   -9.0448011    486.02062 0.0095455382 0.0077297003         3793 
 4244000   0.56662519   -9.0542326    486.76972  0.009557998 0.0077265357         3802 
 4245000   0.56560751   -9.0300516    486.43099 0.0095490968 0.0077233759         3823 
 4246000   0.58731725   -9.0393852    486.59506  0.009550068  0.007720214         3816 
 4247000   0.57251462   -9.0299685    486.68215 0.0095495281  0.007717058         3818 
 4248000   0.57792183   -9.0250104    486.68069 0.0095472514 0.0077139044         3805 
 4249000    0.5745902   -9.0529187    485.99067 0.0095314715 0.0077107509         3789 
 4250000   0.56828178   -9.0667088    486.12065 0.0095317775 0.0077075996         3847 
 4251000   0.58418873   -9.0606582    486.14301 0.0095299735 0.0077044476         3827 
 4252000   0.58143501   -9.0628901    486.06897 0.0095262811 0.0077012976         3836 
 4253000   0.54632261   -9.0554784    485.94614 0.0095216346 0.0076981499         3804 
 4254000   0.57715935   -9.0455765    486.63547 0.0095328998 0.0076950065         3830 
 4255000   0.58152986   -9.0485767     486.6796 0.0095315236 0.0076918636         3826 
 4256000   0.56878977   -9.0447959    485.70716 0.0095102435 0.0076887227         3815 
 4257000   0.56760041   -9.0598298    486.04998 0.0095147204 0.0076855834         3794 
 4258000   0.56428555   -9.0262519    486.83638 0.0095278765 0.0076824474         3812 
 4259000   0.55852196    -9.045996    486.34229 0.0095159718 0.0076793095         3800 
 4260000   0.57426287   -9.0463863    485.49563 0.0094971759 0.0076761749         3817 
 4261000   0.57364919   -9.0518362    485.93265 0.0095034939 0.0076730442         3815 
 4262000   0.57907687   -9.0386775    485.88988 0.0095004279 0.0076699132         3814 
 4263000   0.57155866   -9.0475875    484.94529 0.0094797344 0.0076667831         3830 
 4264000   0.58095829   -9.0284033    486.65521 0.0095109289 0.0076636561         3813 
 4265000   0.56592891   -9.0592396    485.97484 0.0094954052 0.0076605302         3824 
 4266000   0.57577365   -9.0622328    485.64663 0.0094867681 0.0076574063         3877 
 4267000   0.56566405   -9.0393454    486.46434 0.0095005144 0.0076542877         3833 
 4268000   0.57098389   -9.0558903    486.14138 0.0094919825 0.0076511687         3842 
 4269000   0.57326874   -9.0632554    487.07432 0.0095079705 0.0076480466         3836 
 4270000   0.55917462   -9.0515314    486.32839 0.0094911864 0.0076449294         3828 
 4271000   0.56602834   -9.0631413    486.42017 0.0094907549 0.0076418131         3809 
 4272000   0.56435023   -9.0471411    486.70131 0.0094940174    0.0076387         3823 
 4273000   0.57569515    -9.045168    485.83175 0.0094748372 0.0076355865         3816 
 4274000   0.58405102   -9.0584517    486.12136  0.009478267 0.0076324771         3816 
 4275000   0.56381073   -9.0547529    485.12502  0.009456628 0.0076293681         3829 
 4276000   0.58150751   -9.0381783    486.25976  0.009476531 0.0076262624         3821 
 4277000    0.5670952   -9.0358304    486.05553 0.0094703361 0.0076231598         3789 
 4278000   0.55537763   -9.0527278    485.48862 0.0094570793 0.0076200549         3835 
 4279000   0.56410907   -9.0572188    484.47606 0.0094351495 0.0076169541         3796 
 4280000   0.57656316   -9.0554632    485.95566 0.0094617536 0.0076138532         3826 
 4281000   0.55023189    -9.042209    486.17628 0.0094638379 0.0076107548         3811 
 4282000   0.56722643   -9.0554232    486.14979 0.0094611123 0.0076076596         3832 
 4283000   0.56944796   -9.0543515    486.10217 0.0094579766 0.0076045657         3839 
 4284000   0.55492628    -9.058005    485.65469 0.0094470644 0.0076014692         3797 
 4285000    0.5569953   -9.0565678    485.74072 0.0094465328 0.0075983744         3813 
 4286000   0.56207531   -9.0556816    486.01614 0.0094496839 0.0075952833         3842 
 4287000   0.57190916   -9.0549573    485.39102 0.0094353281 0.0075921937         3849 
 4288000   0.56272524   -9.0579978    486.74026  0.009459349 0.0075891058         3800 
 4289000   0.56760164   -9.0620394    485.47071 0.0094324768 0.0075860211         3826 
 4290000   0.56988454   -9.0617655    485.97717 0.0094401159 0.0075829402         3821 
 4291000   0.56944531   -9.0539025    486.10976 0.0094404909 0.0075798593         3821 
 4292000   0.56900491   -9.0454533    486.47587 0.0094453998 0.0075767779         3839 
 4293000   0.57569929   -9.0556672    486.22768 0.0094383819 0.0075736965         3814 
 4294000   0.57208743   -9.0484022    486.37984 0.0094391368 0.0075706186         3825 
 4295000   0.57149154   -9.0616504    485.35329 0.0094170216  0.007567543         3815 
 4296000   0.56252571   -9.0633941    485.90758 0.0094255815  0.007564466         3824 
 4297000   0.56716283   -9.0577002    486.23125 0.0094296651 0.0075613924         3839 
 4298000   0.57793471    -9.047037     486.4163  0.009431059 0.0075583226         3825 
 4299000   0.56858109   -9.0652918    486.68043 0.0094339853  0.007555252         3808 
 4300000   0.57112498   -9.0422842    485.58928 0.0094106449 0.0075521837         3806 
 4301000   0.56395913    -9.071584    485.67473 0.0094101126 0.0075491177         3817 
 4302000   0.55897617   -9.0595616    485.45859 0.0094037383 0.0075460524         3813 
 4303000   0.56084225   -9.0612662     485.4665 0.0094017063 0.0075429889         3813 
 4304000   0.55756847   -9.0691164    486.13815 0.0094125261 0.0075399252         3823 
 4305000   0.56111402   -9.0767951    485.40897 0.0093962247 0.0075368656         3841 
 4306000   0.56841319   -9.0601239    486.25644 0.0094104435 0.0075338076         3859 
 4307000    0.5610221   -9.0698773     485.1649 0.0093871392 0.0075307509         3817 
 4308000   0.56952482   -9.0468345    485.52917 0.0093920066 0.0075276937         3844 
 4309000    0.5594229   -9.0553912    484.56245 0.0093711311 0.0075246414         3842 
 4310000   0.55693848   -9.0753712    485.01921 0.0093777883 0.0075215884         3816 
 4311000   0.57001562   -9.0657033    485.25001 0.0093800744 0.0075185376         3826 
 4312000   0.57210694   -9.0336618    486.14128 0.0093951236 0.0075154904         3811 
 4313000   0.56583333   -9.0557419    486.06301  0.009391433  0.007512447         3836 
 4314000   0.55790076   -9.0547223    485.57872 0.0093799011 0.0075094029         3818 
 4315000    0.5638639   -9.0674574    486.31083 0.0093918662  0.007506359         3832 
 4316000   0.56783375   -9.0593882    484.91604 0.0093627596 0.0075033168         3829 
 4317000   0.56828324   -9.0522977    485.82545 0.0093781456 0.0075002763         3828 
 4318000   0.55842237   -9.0665802    485.92119 0.0093778214 0.0074972397         3812 
 4319000   0.56771348   -9.0521026     485.4208 0.0093659952 0.0074942031         3818 
 4320000   0.56669366   -9.0590013    484.74591 0.0093508085 0.0074911686         3832 
 4321000   0.56488139    -9.069083    485.50087 0.0093632043 0.0074881343         3863 
 4322000    0.5575971   -9.0547138    485.19179 0.0093550785 0.0074851017         3803 
 4323000   0.56870671   -9.0647155    485.24703 0.0093539792 0.0074820706         3859 
 4324000    0.5517854   -9.0718035    485.42152 0.0093551789 0.0074790407         3813 
 4325000   0.56144285   -9.0510159    486.21751 0.0093683527 0.0074760143         3847 
 4326000   0.56915764   -9.0624506    485.75932 0.0093573609 0.0074729885         3829 
 4327000   0.55966373   -9.0536636    485.68596 0.0093537855  0.007469966         3854 
 4328000   0.54256678   -9.0576404    485.67013 0.0093513196 0.0074669427         3818 
 4329000   0.56439068   -9.0674168    485.43649 0.0093446617 0.0074639242         3848 
 4330000   0.56767144   -9.0586208    484.72255 0.0093287634 0.0074609057         3814 
 4331000   0.55408622   -9.0591291    484.67307 0.0093256575 0.0074578872         3805 
 4332000   0.55320571   -9.0735573    485.86462 0.0093464262 0.0074548725         3823 
 4333000   0.55629276   -9.0704536    485.13704 0.0093302762 0.0074518575         3795 
 4334000   0.55172593   -9.0762025    485.13722 0.0093281268 0.0074488471         3848 
 4335000   0.56215348   -9.0804739    485.38951 0.0093308249 0.0074458331         3809 
 4336000   0.56924954   -9.0600868    486.33713 0.0093468853 0.0074428235         3831 
 4337000   0.55707901   -9.0582496    485.41395 0.0093269916 0.0074398147         3820 
 4338000   0.54395773   -9.0602996    486.13882 0.0093387664 0.0074368111         3805 
 4339000   0.56296672   -9.0747259    485.87559 0.0093315585   0.00743381         3832 
 4340000   0.54629226   -9.0725239    486.02137 0.0093322076 0.0074308078         3825 
 4341000   0.55501718   -9.0531134    485.24796 0.0093152108 0.0074278081         3835 
 4342000   0.55868113   -9.0680246     485.5054 0.0093180063 0.0074248081         3811 
 4343000   0.56398102   -9.0681211    487.29959 0.0093502877 0.0074218129         3814 
 4344000   0.55563669   -9.0761981    485.91315 0.0093215383 0.0074188176         3846 
 4345000   0.54721941   -9.0687855    485.44391 0.0093103934 0.0074158214         3811 
 4346000    0.5452578   -9.0641387    485.68993 0.0093129685 0.0074128282         3782 
 4347000   0.55512595   -9.0778625     485.4269 0.0093057837 0.0074098381         3830 
 4348000   0.56451171   -9.0548476    485.66209  0.009308151 0.0074068452         3829 
 4349000   0.56935041   -9.0809295    484.50613 0.0092838609 0.0074038583         3837 
 4350000   0.54676723   -9.0764545    485.41144 0.0092990697 0.0074008722         3835 
 4351000   0.55794637   -9.0710694    485.09704  0.009290911 0.0073978869         3828 
 4352000   0.55110449   -9.0706011    485.00264 0.0092869684 0.0073949059         3845 
 4353000   0.55991159   -9.0792109    484.98807  0.009284556 0.0073919256         3846 
 4354000    0.5521578   -9.0792092     485.2277 0.0092870101 0.0073889426         3850 
 4355000   0.56398091    -9.086396    486.19378 0.0093033636 0.0073859641         3837 
 4356000   0.56065258   -9.0541765    485.43462 0.0092867046 0.0073829871         3829 
 4357000   0.54792838   -9.0744867    485.02651 0.0092767675 0.0073800125         3828 
 4358000   0.55026964   -9.0729432    486.07821 0.0092947493 0.0073770405         3769 
 4359000   0.56130617   -9.0880858    485.85845 0.0092884157 0.0073740692         3837 
 4360000   0.55728901     -9.07284    485.92606 0.0092875777 0.0073710999         3802 
 4361000   0.55046698   -9.0633175    485.96553 0.0092862022 0.0073681299         3831 
 4362000   0.55333492   -9.0747794    485.57679 0.0092766466 0.0073651627         3814 
 4363000   0.56041297   -9.0510976    485.94907 0.0092816309 0.0073621992         3843 
 4364000   0.56610494    -9.086946    485.28478 0.0092668191 0.0073592337         3858 
 4365000   0.56029661   -9.0719437    485.64659 0.0092716035 0.0073562705         3835 
 4366000   0.55769749   -9.0704414     485.9915 0.0092760632 0.0073533083         3844 
 4367000   0.56021268    -9.077613    485.73833 0.0092691079 0.0073503516         3803 
 4368000   0.54773036   -9.0801868    485.62559  0.009264835 0.0073473952         3807 
 4369000   0.55474356   -9.0640099    485.61869 0.0092625828 0.0073444397         3829 
 4370000   0.55522319   -9.0747047    485.30393 0.0092544609 0.0073414854         3813 
 4371000   0.55534586   -9.0851669    484.66185 0.0092401024 0.0073385312         3809 
 4372000   0.54574787   -9.0668023    485.74191 0.0092585756 0.0073355822         3852 
 4373000    0.5530557   -9.0750158    485.49388 0.0092517318 0.0073326326         3822 
 4374000   0.54999381   -9.0778559    484.62729 0.0092331064 0.0073296847         3813 
 4375000   0.55201315    -9.083505    485.21122 0.0092421184 0.0073267402         3854 
 4376000    0.5475935   -9.0821283    484.76126 0.0092314377  0.007323796         3797 
 4377000   0.56631437   -9.0622214    484.83339  0.009230702  0.007320853         3829 
 4378000   0.54897636   -9.0724688    485.54429 0.0092421253 0.0073179129         3816 
 4379000   0.55427242    -9.100434    484.67369 0.0092234469 0.0073149725         3857 
 4380000   0.56549013   -9.0739411    484.26942 0.0092136495 0.0073120319         3855 
 4381000   0.55333341   -9.0681374    485.28206 0.0092308085 0.0073090963         3820 
 4382000   0.55097829   -9.0739237    485.43219 0.0092315569 0.0073061621         3804 
 4383000   0.55960905   -9.0740367     485.5321 0.0092313503 0.0073032276         3829 
 4384000   0.54507695   -9.0841471    485.37918 0.0092263378 0.0073002979         3833 
 4385000   0.55931965   -9.0790654     485.2123 0.0092210623 0.0072973644         3826 
 4386000   0.55377098   -9.0615632    486.40068  0.009241539 0.0072944358         3829 
 4387000   0.54960241   -9.0674299     485.1269 0.0092152363 0.0072915074         3834 
 4388000   0.54953518   -9.0788282    485.69677 0.0092239586 0.0072885803         3823 
 4389000   0.53541237    -9.080795    485.40847 0.0092163832 0.0072856539         3824 
 4390000   0.55213672   -9.0673483    485.68599 0.0092195517 0.0072827313         3833 
 4391000   0.54833998   -9.0731676    485.96314 0.0092227121 0.0072798118         3831 
 4392000   0.55279017   -9.0734578    485.27824 0.0092076169 0.0072768922         3835 
 4393000   0.54723524   -9.0773955    484.51494 0.0091910414 0.0072739745         3832 
 4394000   0.54269867   -9.0773272    485.02394  0.009198603 0.0072710583         3804 
 4395000   0.54305327   -9.0902658    484.87233 0.0091936353 0.0072681424         3833 
 4396000   0.54894199   -9.0793972    485.34036 0.0092004162 0.0072652279         3848 
 4397000   0.54263045   -9.0801848    484.94409 0.0091908136 0.0072623159         3838 
 4398000   0.53400861    -9.067137    485.67773 0.0092026249 0.0072594048         3849 
 4399000   0.54367548   -9.0895707    486.05126  0.009207609 0.0072564935         3813 
 4400000   0.54371527   -9.0577768    485.21648 0.0091897061 0.0072535855         3832 
 4401000   0.55488365    -9.083812    485.61368  0.009195139 0.0072506809         3789 
 4402000   0.55054624   -9.0840722     486.0729 0.0092017434 0.0072477756         3817 
 4403000   0.54597718   -9.0833815    485.40096 0.0091869362 0.0072448709         3826 
 4404000   0.54615756   -9.0974715    485.26596 0.0091822957 0.0072419695         3841 
 4405000    0.5481324   -9.0732006    484.50617 0.0091658374 0.0072390702         3812 
 4406000   0.55373344   -9.0846028    485.41245 0.0091808981 0.0072361729         3845 
 4407000   0.54973476   -9.0924654    485.82382 0.0091865936 0.0072332758         3848 
 4408000   0.54456165    -9.081408    485.13887 0.0091715605  0.007230379         3856 
 4409000   0.54270456   -9.0877808    485.01619 0.0091671617 0.0072274845         3834 
 4410000   0.54164882   -9.0966059    484.85992   0.00916213 0.0072245935         3850 
 4411000   0.56074455   -9.0714775    485.21831 0.0091668237 0.0072217026         3873 
 4412000   0.54483815   -9.0795641    484.79925 0.0091568307 0.0072188138         3859 
 4413000   0.54286651   -9.0756059    484.50151 0.0091491335 0.0072159277         3869 
 4414000   0.54165456   -9.0986987    484.73702  0.009151507 0.0072130418         3800 
 4415000   0.53583161   -9.0956481    484.74789 0.0091496393 0.0072101577         3839 
 4416000   0.54381567   -9.0998412    485.37616 0.0091594233 0.0072072749         3839 
 4417000   0.53531598   -9.0813735     485.1251 0.0091526131 0.0072043949         3833 
 4418000   0.53707382    -9.093966    484.66414 0.0091418466 0.0072015154         3845 
 4419000   0.55490522   -9.0837028    484.46668 0.0091360541 0.0071986349         3829 
 4420000   0.54840607    -9.071803    485.18506 0.0091475313 0.0071957588         3817 
 4421000   0.55162215   -9.0712909     485.4268 0.0091500189 0.0071928848         3812 
 4422000   0.54697733   -9.0769836    485.39911 0.0091474279 0.0071900142         3802 
 4423000   0.54062644   -9.0880584    485.74936 0.0091519586 0.0071871442         3823 
 4424000   0.53079549   -9.0808879    485.04566 0.0091366346 0.0071842771         3834 
 4425000   0.53878901   -9.0873858    485.24966 0.0091384117 0.0071814091         3816 
 4426000    0.5310277    -9.080555     485.3225 0.0091377185 0.0071785422         3862 
 4427000   0.53979836   -9.0966584      485.158 0.0091325577 0.0071756759         3831 
 4428000   0.53951326   -9.0853859    484.78987 0.0091235672 0.0071728119         3833 
 4429000   0.54103528   -9.0914615    485.21976 0.0091295958 0.0071699498         3825 
 4430000   0.53066504   -9.0881032    484.55381 0.0091150078 0.0071670889         3829 
 4431000   0.55899501   -9.0962051    484.32494 0.0091086463 0.0071642292         3830 
 4432000   0.54172394   -9.0960084    485.03689 0.0091199777 0.0071613744         3867 
 4433000   0.54825419   -9.0839371    484.99958  0.009117219 0.0071585173         3844 
 4434000   0.54624625   -9.0931434     485.2269  0.009119435 0.0071556622         3839 
 4435000   0.53715422   -9.0927007    484.78123 0.0091090047 0.0071528088         3856 
 4436000   0.54489442   -9.0868099    485.22078 0.0091152085 0.0071499572         3802 
 4437000   0.53423145   -9.0746399    484.85559 0.0091062953 0.0071471071         3805 
 4438000   0.54506704   -9.0947929    484.49066 0.0090973911 0.0071442599         3834 
 4439000   0.54321192   -9.0666867    485.25027 0.0091096018 0.0071414137         3841 
 4440000   0.54300246   -9.0792557    485.38149  0.009110013 0.0071385676         3868 
 4441000   0.54228262   -9.0820586    485.62396 0.0091125115 0.0071357225         3834 
 4442000   0.54097563   -9.0860345    485.00609 0.0090988686 0.0071328804         3856 
 4443000   0.54709136   -9.1028488    485.27351 0.0091018364 0.0071300388         3851 
 4444000   0.53597204    -9.096594    485.10287 0.0090965884 0.0071272011         3859 
 4445000   0.54724561    -9.088065    484.52443 0.0090836976 0.0071243605         3848 
 4446000   0.53937935    -9.063254    485.10215 0.0090924829 0.0071215251         3840 
 4447000   0.54663219   -9.1027533    484.80709 0.0090849092 0.0071186915         3793 
 4448000   0.54445893   -9.0889235    484.69948 0.0090808506 0.0071158557         3850 
 4449000   0.54436546   -9.1000015     484.2961 0.0090712538 0.0071130229         3832 
 4450000   0.55243605   -9.1021108     484.2856 0.0090690188 0.0071101921         3828 
 4451000   0.53932149   -9.0851396    485.58884 0.0090913809 0.0071073618         3853 
 4452000   0.53014441   -9.0901936    485.33483 0.0090845843 0.0071045336         3862 
 4453000    0.5424285   -9.0965361    485.15207 0.0090791239 0.0071017045         3840 
 4454000    0.5412381   -9.0966237     484.7581 0.0090697145  0.007098884         3841 
 4455000   0.54007604   -9.1161981    485.65863 0.0090845235 0.0070960607         3825 
 4456000    0.5296189    -9.099387    485.01268 0.0090704046 0.0070932402         3830 
 4457000   0.52483027   -9.0565993    484.42044 0.0090572965 0.0070904214         3826 
 4458000   0.52938313   -9.0861623    484.73902 0.0090612199 0.0070876037         3829 
 4459000   0.54329303   -9.1099757    484.48881 0.0090545116 0.0070847883         3848 
 4460000   0.55240611   -9.0807076    484.20464 0.0090471719 0.0070819727         3795 
 4461000   0.54032354   -9.0983155    484.36376 0.0090481162 0.0070791574         3844 
 4462000   0.54328275   -9.0873407    485.38132 0.0090650927 0.0070763453         3832 
 4463000   0.53603638     -9.09754    484.90423 0.0090541533 0.0070735354         3856 
 4464000   0.55643576   -9.0872558    485.34884 0.0090604249 0.0070707272         3817 
 4465000   0.54039116   -9.1154453    484.34823 0.0090397206 0.0070679209         3852 
 4466000   0.54180757   -9.0911219    484.91836 0.0090483349 0.0070651149         3819 
 4467000   0.53454888   -9.0980662    484.52808 0.0090390285 0.0070623092         3808 
 4468000   0.55104306   -9.0938138    485.76417 0.0090600598  0.007059506         3848 
 4469000   0.52900573   -9.0953759    484.40732 0.0090327314 0.0070567057         3778 
 4470000    0.5493615   -9.0844037    485.30083 0.0090473682 0.0070539047         3864 
 4471000   0.54027004    -9.107948    484.78578 0.0090357447 0.0070511062         3837 
 4472000   0.52777588   -9.0977766     484.9004 0.0090358602 0.0070483104         3820 
 4473000    0.5379006   -9.0977343    485.13561 0.0090382221  0.007045516         3838 
 4474000   0.53784336   -9.0797788    485.93377 0.0090510685 0.0070427224         3809 
 4475000   0.53284137   -9.0942208     484.4682 0.0090217542 0.0070399303         3823 
 4476000   0.53527018   -9.1036114    484.76624 0.0090252875 0.0070371421         3831 
 4477000   0.53066172   -9.0988999    484.93054 0.0090263297 0.0070343507         3805 
 4478000   0.52483793   -9.0871693    484.93899 0.0090244713 0.0070315633         3868 
 4479000   0.54145882   -9.1021006    484.93326 0.0090223498 0.0070287745         3853 
 4480000   0.54266077   -9.0869343    484.69144 0.0090158378  0.007025989         3830 
 4481000   0.54069795   -9.1005729    484.07344 0.0090023328 0.0070232061         3834 
 4482000   0.54135291   -9.1014292    484.50182 0.0090082892 0.0070204252         3818 
 4483000   0.53190775   -9.0801641    484.16124 0.0089999486 0.0070176445         3827 
 4484000   0.52483499   -9.0973016    485.03205 0.0090141253 0.0070148649         3831 
 4485000   0.52105085   -9.1044664    484.29593 0.0089984379 0.0070120864         3857 
 4486000   0.53822386   -9.1030945    483.69185 0.0089852105 0.0070093098         3841 
 4487000   0.53465527   -9.1082217    484.95448 0.0090066578 0.0070065342         3851 
 4488000   0.53479961   -9.1100468    484.41011 0.0089945431 0.0070037607         3865 
 4489000   0.52121781   -9.0989532    485.74399 0.0090173014 0.0070009897         3819 
 4490000   0.52652435   -9.1116233    484.59324 0.0089939354 0.0069982191         3848 
 4491000   0.53569466   -9.1153985    484.28435 0.0089862011  0.006995451         3855 
 4492000   0.54891932   -9.1179799    484.22531 0.0089831053 0.0069926831         3845 
 4493000    0.5378674   -9.0954776    485.48298 0.0090044325 0.0069899156         3865 
 4494000   0.52655036   -9.1045587    484.16058 0.0089779072 0.0069871531         3833 
 4495000   0.53433613   -9.1045006    485.14708 0.0089941988 0.0069843917         3839 
 4496000   0.53558778   -9.1125762    485.40347 0.0089969505 0.0069816288         3802 
 4497000   0.52948605   -9.1188234    485.39573 0.0089948064 0.0069788672         3844 
 4498000   0.52867662   -9.0959458    484.48479 0.0089759299 0.0069761083         3812 
 4499000   0.54198972   -9.0968483     484.0965 0.0089667426 0.0069733512         3843 
 4500000   0.52487215   -9.1074073    484.47455 0.0089717509  0.006970594         3841 
 4501000   0.52551793   -9.1037614    484.63291 0.0089726896 0.0069678416         3839 
 4502000   0.53473886   -9.1095725    485.13405 0.0089799728 0.0069650873         3837 
 4503000   0.53080442   -9.0979902     485.0968 0.0089772891 0.0069623338         3828 
 4504000    0.5237442   -9.0925438    484.25491 0.0089597193 0.0069595847         3836 
 4505000   0.52985467   -9.0887395    484.75983 0.0089670704 0.0069568348         3832 
 4506000   0.54025545   -9.1209065     484.5469 0.0089611426 0.0069540904         3852 
 4507000   0.52079908   -9.1070445    484.56399 0.0089594702 0.0069513437         3831 
 4508000   0.52651869   -9.1181274    484.33141 0.0089531835 0.0069485995         3823 
 4509000   0.52010542   -9.1017728    483.96752 0.0089444725 0.0069458557         3849 
 4510000   0.52433518   -9.1094923    484.53084 0.0089528979 0.0069431155         3832 
 4511000   0.53720297   -9.1176661     484.9713   0.00895905 0.0069403768         3823 
 4512000   0.52444432   -9.1041598    484.57616 0.0089497666 0.0069376401         3864 
 4513000   0.53777319   -9.1061367    485.01174 0.0089558266 0.0069349057         3822 
 4514000   0.52113177   -9.1024247    484.83575 0.0089505936 0.0069321692         3818 
 4515000   0.53012223    -9.111963    484.06586 0.0089344012 0.0069294344         3818 
 4516000   0.54338848    -9.112431     485.3623  0.008956346 0.0069267032         3850 
 4517000   0.52742044   -9.0995873    484.23914 0.0089336421 0.0069239689         3813 
 4518000   0.51601078   -9.1109812    485.00385 0.0089457698 0.0069212378         3847 
 4519000   0.53335322   -9.1050546    484.57427 0.0089358683   0.00691851         3794 
 4520000   0.53373663   -9.0907106    484.64795 0.0089352499 0.0069157828         3844 
 4521000   0.51980789   -9.1003856    484.40783 0.0089288475 0.0069130563         3842 
 4522000   0.53345945   -9.1005908    484.72854  0.008932783 0.0069103314         3859 
 4523000   0.53403189   -9.1078849    485.28915 0.0089411369 0.0069076109         3837 
 4524000   0.53888955    -9.097859    484.63918  0.008927188 0.0069048894         3856 
 4525000   0.53607026   -9.1200925    485.11568 0.0089339904 0.0069021692         3847 
 4526000    0.5169021   -9.0886491    485.12663 0.0089322181 0.0068994502         3824 
 4527000   0.51933805   -9.1109649    484.19121 0.0089130257  0.006896732         3866 
 4528000   0.53511217   -9.0997295    485.00592 0.0089260512  0.006894018         3828 
 4529000   0.53171778   -9.1063154    484.52975 0.0089153189 0.0068913035         3849 
 4530000   0.52995108   -9.1003506    483.80105 0.0088999458 0.0068885899         3859 
 4531000   0.51239275   -9.1088401    483.81808 0.0088982948  0.006885878         3835 
 4532000   0.52700299   -9.1113433    484.00425 0.0088997545 0.0068831671         3845 
 4533000   0.53391178   -9.1015045    484.49843  0.008906876 0.0068804603         3847 
 4534000   0.53044814   -9.1117931    484.95133 0.0089132358 0.0068777546         3833 
 4535000   0.51183189   -9.1198085    483.64425 0.0088872519 0.0068750489         3847 
 4536000     0.528772   -9.1223424    484.49576 0.0089009363 0.0068723426         3820 
 4537000   0.53197854   -9.1190259    483.91643 0.0088883335  0.006869643         3843 
 4538000   0.52613473   -9.1099942    484.20891 0.0088917457 0.0068669441         3852 
 4539000    0.5172325   -9.1128639    484.26622  0.008890839 0.0068642448         3834 
 4540000   0.52102585   -9.1192391    483.98752  0.008883765 0.0068615472         3837 
 4541000   0.51357304   -9.1126378     484.2302 0.0088862622 0.0068588499         3831 
 4542000   0.51621329   -9.1111072    483.73099 0.0088751466 0.0068561532         3817 
 4543000   0.52581388   -9.1261952    484.28696 0.0088833912 0.0068534585         3828 
 4544000   0.52997872   -9.1152332     484.3773 0.0088830932 0.0068507663         3849 
 4545000   0.51613418   -9.1074432     485.1681 0.0088956381 0.0068480768         3829 
 4546000   0.52744572   -9.1205188    485.15002 0.0088933499 0.0068453863         3848 
 4547000    0.5109736   -9.1270036    483.28889 0.0088572848 0.0068426974         3828 
 4548000   0.52526211   -9.1168902    483.83262 0.0088653001 0.0068400096         3835 
 4549000   0.52492906   -9.1143767    483.41331   0.00885567 0.0068373242         3836 
 4550000   0.52384418   -9.1049737    484.56326  0.008874785  0.006834638         3829 
 4551000   0.53030092   -9.1113731    484.17175  0.008865666 0.0068319559         3843 
 4552000   0.52000646   -9.1140201    483.66637 0.0088544664 0.0068292713         3852 
 4553000    0.5223706    -9.123845    483.96722 0.0088580281 0.0068265892         3834 
 4554000   0.51831426   -9.1243854    484.56492 0.0088670201 0.0068239109         3827 
 4555000    0.5261128   -9.1160452    483.75917 0.0088503324 0.0068212349         3834 
 4556000   0.51572519   -9.1124759    484.03543 0.0088534428 0.0068185595         3816 
 4557000   0.53080322   -9.1249223    483.66044 0.0088446426  0.006815885         3845 
 4558000   0.50810716   -9.1084948    483.97527 0.0088484582 0.0068132108         3852 
 4559000   0.51036281   -9.1181953    484.82863 0.0088621157 0.0068105395         3860 
 4560000    0.5210702   -9.1287862    483.90965 0.0088433781 0.0068078694         3873 
 4561000   0.51341102   -9.1245185    483.97793 0.0088426867 0.0068051999         3820 
 4562000   0.52219633   -9.1130161    484.35157 0.0088475737 0.0068025319         3839 
 4563000   0.52933971   -9.1124095    484.63936 0.0088508905  0.006799865         3811 
 4564000   0.52764244   -9.1103647    483.72131 0.0088321887 0.0067972002         3834 
 4565000   0.52853189   -9.1164083    484.06231 0.0088364788 0.0067945374         3820 
 4566000   0.51179843   -9.1231802    484.65674 0.0088453924 0.0067918748         3825 
 4567000   0.52344022   -9.1272309    484.55956 0.0088416824 0.0067892149         3846 
 4568000    0.5220997   -9.1251047    485.34439 0.0088540644 0.0067865557         3838 
 4569000   0.51817764   -9.1270577    483.88003 0.0088254181 0.0067838989         3834 
 4570000   0.52780602   -9.1351019    483.94749 0.0088247172 0.0067812431         3841 
 4571000   0.52932089   -9.1327155    484.33559  0.008829862 0.0067785901         3829 
 4572000   0.51189984   -9.1331959    484.00228 0.0088218556 0.0067759372         3844 
 4573000   0.51178919   -9.1402618    484.22624 0.0088240076  0.006773285         3819 
 4574000   0.51927026   -9.1003599    484.97262 0.0088356766 0.0067706323         3844 
 4575000   0.50474778   -9.1078771      484.249 0.0088205647 0.0067679835         3835 
 4576000   0.50806192   -9.1206753    483.29404 0.0088012463 0.0067653349         3833 
 4577000   0.52986165   -9.1159088    484.54523 0.0088221039 0.0067626863         3852 
 4578000   0.51828521   -9.1295419    484.40283 0.0088175846 0.0067600423         3822 
 4579000   0.51326709   -9.1137911    484.50092 0.0088174442 0.0067573974         3833 
 4580000   0.51711729   -9.1251916    484.18307 0.0088097355 0.0067547554         3838 
 4581000   0.51415844   -9.1232261    483.42186 0.0087939653  0.006752114         3863 
 4582000   0.51105003   -9.1212367    483.79399  0.008798814 0.0067494751         3830 
 4583000   0.51322738    -9.124473    483.79159 0.0087968505 0.0067468359         3838 
 4584000   0.51362388   -9.1106529    484.17782 0.0088019528  0.006744198         3816 
 4585000   0.52179489   -9.1208736    484.51806  0.008806217 0.0067415636         3839 
 4586000   0.52300771   -9.1177225    484.12467 0.0087971484 0.0067389294         3838 
 4587000   0.51722856   -9.1306659    484.23273 0.0087971937 0.0067362972         3836 
 4588000   0.51954755   -9.1244882     483.2987 0.0087783111 0.0067336646         3864 
 4589000   0.51841123   -9.1374498    484.47171 0.0087976993 0.0067310374         3838 
 4590000   0.52474186    -9.136046    483.99779 0.0087871784 0.0067284106         3814 
 4591000    0.5216033   -9.1121619    484.14697 0.0087879724 0.0067257848         3829 
 4592000   0.50764424   -9.1250006    484.18824 0.0087868076 0.0067231582         3828 
 4593000   0.50814114   -9.1387191    484.43754 0.0087894175 0.0067205326         3838 
 4594000   0.51439159   -9.1178258    483.92263 0.0087781641   0.00671791         3858 
 4595000   0.51108247   -9.1166551    484.79772  0.008792124 0.0067152889         3854 
 4596000   0.52094435   -9.1291057    483.78908 0.0087719227 0.0067126688         3841 
 4597000   0.51074519   -9.1315925    483.79351 0.0087700949 0.0067100509         3840 
 4598000   0.52741416   -9.1232335    483.82869  0.008768825 0.0067074331         3831 
 4599000    0.5159542   -9.1298975    484.38797 0.0087770524  0.006704817         3836 
 4600000   0.51598416   -9.1283934    484.81817 0.0087829379 0.0067022057         3817 
 4601000   0.52470046   -9.1350598    484.01051 0.0087664006  0.006699592         3849 
 4602000   0.51234178   -9.1179782    484.12523 0.0087665731  0.006696983         3850 
 4603000   0.51368303    -9.123257    483.73688 0.0087576378 0.0066943731         3866 
 4604000   0.51543081   -9.1420474    483.54358 0.0087522368 0.0066917633         3849 
 4605000    0.5069542   -9.1213864    483.05462 0.0087414879 0.0066891538         3846 
 4606000   0.51491095   -9.1349204    484.31887 0.0087624632 0.0066865483         3824 
 4607000   0.52212871   -9.1395888    483.99058  0.008754623 0.0066839458         3857 
 4608000   0.50820109   -9.1205399     484.2583 0.0087575647 0.0066813408         3844 
 4609000   0.51001347    -9.125269    483.63978 0.0087444815 0.0066787395         3826 
 4610000   0.51013811    -9.149518      483.618 0.0087421909 0.0066761384         3850 
 4611000   0.52574565    -9.138156    483.79238 0.0087434465 0.0066735382         3861 
 4612000   0.52187358   -9.1214345    484.37311 0.0087520437 0.0066709397         3821 
 4613000   0.52611321    -9.130851    484.05483 0.0087443967 0.0066683429         3850 
 4614000   0.50756208   -9.1329924    483.50494 0.0087325701 0.0066657478         3843 
 4615000   0.50701245   -9.1409659    485.03729 0.0087583475 0.0066631536         3835 
 4616000    0.5116709   -9.1261337    484.44191 0.0087457018 0.0066605615         3813 
 4617000   0.50649916   -9.1283313    484.28656 0.0087410036 0.0066579691         3838 
 4618000   0.51438935   -9.1335429    484.84983 0.0087492751 0.0066553783         3826 
 4619000   0.51834532   -9.1447088    484.15539 0.0087348522 0.0066527905         3839 
 4620000   0.51372552   -9.1163918    483.86628 0.0087277468  0.006650202         3850 
 4621000   0.51445549   -9.1436943    484.19873 0.0087318533 0.0066476167         3867 
 4622000   0.50337785   -9.1303946    483.71587 0.0087212583 0.0066450321         3848 
 4623000   0.50644395   -9.1351897    483.12946 0.0087088013 0.0066424484         3835 
 4624000   0.51269501   -9.1329553    483.65412 0.0087163733  0.006639869         3813 
 4625000    0.5248422   -9.1421804    484.03793 0.0087214041 0.0066372885         3847 
 4626000   0.50532205   -9.1229085    483.61556 0.0087119103 0.0066347089         3865 
 4627000   0.50391458   -9.1383468    483.19773 0.0087025021 0.0066321317         3827 
 4628000    0.5231084   -9.1362954    483.61868 0.0087082015 0.0066295545         3827 
 4629000   0.51807399    -9.130073     483.5232 0.0087046014 0.0066269797         3857 
 4630000   0.52141703    -9.136493    483.38554 0.0087002437 0.0066244083         3832 
 4631000   0.49954767   -9.1299584     483.8747 0.0087071673 0.0066218364         3829 
 4632000   0.50979252   -9.1327826    483.75508 0.0087031354 0.0066192655         3841 
 4633000    0.5096464   -9.1480119    484.38215  0.008712536 0.0066166962         3828 
 4634000     0.501254   -9.1452049    483.62957 0.0086971221 0.0066141284         3854 
 4635000   0.50335319   -9.1295662    483.30101 0.0086893385 0.0066115596         3846 
 4636000   0.51264681   -9.1486885    484.53326 0.0087096143 0.0066089948         3848 
 4637000   0.49826001    -9.146006    484.13114 0.0087005092 0.0066064297         3836 
 4638000   0.50678259   -9.1378403    483.88048 0.0086941296 0.0066038686         3842 
 4639000   0.51131353   -9.1243373    484.06371  0.008695547 0.0066013048         3835 
 4640000   0.50211609   -9.1395908    483.97937 0.0086921582 0.0065987438         3827 
 4641000   0.52244728   -9.1284712    483.62801 0.0086839764 0.0065961867         3843 
 4642000   0.50717731   -9.1338699    483.83941 0.0086859007 0.0065936295         3848 
 4643000   0.49763339   -9.1421803    484.15773 0.0086897431 0.0065910728         3843 
 4644000    0.5042898   -9.1448206    483.74762 0.0086805128 0.0065885178         3837 
 4645000   0.52425242   -9.1323346     483.6459 0.0086768191 0.0065859649         3834 
 4646000   0.51375905   -9.1402697    483.65831 0.0086751741 0.0065834131         3871 
 4647000   0.51421094   -9.1324332    483.50873  0.008670625 0.0065808631         3837 
 4648000    0.5126814   -9.1544938    483.41103 0.0086670078 0.0065783136         3836 
 4649000   0.50498391   -9.1489613     483.3505 0.0086640587 0.0065757657         3858 
 4650000   0.51475002   -9.1331639    484.27798 0.0086788169 0.0065732191         3836 
 4651000   0.51790585   -9.1559361    483.55392 0.0086639776  0.006570674         3849 
 4652000   0.50671006   -9.1440032    483.87485 0.0086678641   0.00656813         3841 
 4653000   0.51923284   -9.1231076    484.18271  0.008671515  0.006565588         3817 
 4654000   0.51068154   -9.1440325    483.87509 0.0086641435 0.0065630458         3856 
 4655000   0.51757641   -9.1408418    483.69672 0.0086590891 0.0065605034         3878 
 4656000   0.49827151   -9.1378125    483.28367 0.0086498366 0.0065579638         3854 
 4657000   0.51334149   -9.1298014    484.48283 0.0086694372 0.0065554252         3832 
 4658000   0.49870499   -9.1592248    484.09344 0.0086606097   0.00655289         3853 
 4659000   0.51811237   -9.1480409    483.40376 0.0086464149 0.0065503557         3856 
 4660000    0.5118449   -9.1331011     484.5106 0.0086643526 0.0065478226         3843 
 4661000   0.50886007   -9.1390899    483.46214 0.0086437485 0.0065452909         3836 
 4662000   0.50131131   -9.1626298    483.84622 0.0086487598 0.0065427592         3839 
 4663000   0.50673609   -9.1392851    483.66571 0.0086436792 0.0065402282         3858 
 4664000   0.51018975   -9.1425792    484.52658 0.0086572074 0.0065376994         3854 
 4665000   0.50376809   -9.1374727    483.60166 0.0086388292  0.006535171         3851 
 4666000   0.49731731    -9.123641     483.0641 0.0086273772 0.0065326449         3839 
 4667000   0.50553049   -9.1426336    483.41544  0.008631802 0.0065301209         3808 
 4668000   0.49484289   -9.1493248    483.27748 0.0086274899 0.0065275975         3845 
 4669000   0.50636747     -9.15158    482.89506 0.0086188166 0.0065250738         3819 
 4670000   0.49480904   -9.1374786     483.8212 0.0086334976 0.0065225529         3859 
 4671000   0.51464809   -9.1429071    483.38375 0.0086238449 0.0065200323         3809 
 4672000   0.50222813   -9.1543448    483.39478 0.0086221958 0.0065175132         3830 
 4673000   0.49687483   -9.1405114    483.50923 0.0086223916 0.0065149972         3858 
 4674000   0.51120223   -9.1394919    484.05629 0.0086303005 0.0065124824         3857 
 4675000   0.49684841   -9.1560059    483.63523 0.0086209488 0.0065099676         3860 
 4676000    0.5122549   -9.1377806    484.04745 0.0086264515 0.0065074541         3852 
 4677000   0.50451927   -9.1347454    484.06313 0.0086248865 0.0065049423         3843 
 4678000   0.50909369   -9.1419855    484.35883 0.0086283104 0.0065024331         3836 
 4679000    0.4982017   -9.1379792    483.56487 0.0086123258 0.0064999235         3843 
 4680000    0.4955278   -9.1631123    483.37711 0.0086071422 0.0064974141         3846 
 4681000   0.50229586   -9.1599983    483.43908 0.0086064068 0.0064949083         3832 
 4682000   0.49623865   -9.1365414    483.94465 0.0086135671 0.0064924017         3843 
 4683000   0.49749279   -9.1407538    484.17841 0.0086158874 0.0064898973         3836 
 4684000   0.50082801   -9.1339297    483.65471 0.0086047308 0.0064873935         3851 
 4685000   0.50042308   -9.1359164    484.06171 0.0086101336 0.0064848919         3847 
 4686000   0.50923126    -9.143353     484.0381 0.0086078764 0.0064823935         3837 
 4687000   0.50631328   -9.1451888    483.77439 0.0086013511 0.0064798959         3865 
 4688000   0.51744023   -9.1423075    483.12362 0.0085879483 0.0064773991         3842 
 4689000   0.50327842    -9.153823    483.25467 0.0085884459 0.0064749027         3857 
 4690000   0.50342911   -9.1570907    484.10813 0.0086017792 0.0064724087         3859 
 4691000   0.50742196   -9.1443508    484.25635 0.0086025785 0.0064699174         3842 
 4692000   0.48818114   -9.1514454    483.55717 0.0085883271 0.0064674261         3847 
 4693000    0.5005522   -9.1648294     483.7903 0.0085906368 0.0064649366         3850 
 4694000   0.50335087   -9.1558342    483.64594 0.0085862438 0.0064624458         3869 
 4695000   0.50652683   -9.1504892    483.84256 0.0085879049 0.0064599557         3851 
 4696000   0.50986555   -9.1460412     483.5647 0.0085811452 0.0064574692         3792 
 4697000   0.49176937   -9.1496241    483.27928 0.0085742546 0.0064549834         3834 
 4698000   0.49875211   -9.1484469    483.19073 0.0085708587 0.0064524976         3827 
 4699000   0.49699975   -9.1415176    483.12406 0.0085678523 0.0064500151         3811 
 4700000   0.50722601   -9.1358075    484.02522 0.0085820074 0.0064475327         3804 
 4701000   0.49439404   -9.1408273    483.92973 0.0085784891 0.0064450532         3803 
 4702000   0.49559708   -9.1466411    484.13495 0.0085803019  0.006442574         3828 
 4703000   0.50643551   -9.1525218    482.91089  0.008556788 0.0064400932         3850 
 4704000   0.49643075   -9.1559022    482.99453 0.0085564508 0.0064376159         3836 
 4705000   0.50056749   -9.1531352    482.99409 0.0085546243 0.0064351391         3863 
 4706000   0.49205606   -9.1520952    483.48509 0.0085615011 0.0064326645         3880 
 4707000   0.50098047   -9.1586421    484.23073  0.008572883 0.0064301924         3853 
 4708000    0.4991403   -9.1590762    483.75261 0.0085625993 0.0064277214         3872 
 4709000   0.50548907   -9.1613705    483.82268  0.008562021 0.0064252511         3845 
 4710000   0.50607205    -9.148371    483.26626 0.0085503584 0.0064227814         3879 
 4711000   0.50482828   -9.1461692    483.93119 0.0085603055 0.0064203128         3851 
 4712000   0.50439781   -9.1414626    483.56524 0.0085520169 0.0064178473         3857 
 4713000   0.50001987   -9.1513507    483.54105 0.0085497746 0.0064153833         3835 
 4714000   0.49814297    -9.153683    482.88227 0.0085363151 0.0064129202         3844 
 4715000   0.50518327   -9.1470889    483.10042 0.0085383601 0.0064104588         3813 
 4716000   0.49845056   -9.1446726    483.57198 0.0085448823 0.0064079976         3814 
 4717000   0.50109268   -9.1571432    483.15411 0.0085356884 0.0064055347         3870 
 4718000   0.48809903   -9.1585734    482.98768 0.0085309396 0.0064030754         3863 
 4719000    0.4914792   -9.1579802    482.96683 0.0085287638 0.0064006168         3857 
 4720000   0.49846752   -9.1642429    483.30179 0.0085328705  0.006398161         3831 
 4721000   0.49929707   -9.1492958    484.16356 0.0085462749 0.0063957064         3860 
 4722000   0.50563017   -9.1624443     484.3549 0.0085478417 0.0063932539         3845 
 4723000   0.50282299   -9.1477369    483.28922 0.0085272288 0.0063908026         3847 
 4724000   0.49998923   -9.1565576    483.74419 0.0085334496 0.0063883507         3852 
 4725000   0.48528282   -9.1583667    483.59536 0.0085290186 0.0063859012         3846 
 4726000   0.50828553   -9.1470712    483.00853 0.0085168665 0.0063834531         3846 
 4727000   0.50130765   -9.1554485    483.17176 0.0085179423 0.0063810053         3851 
 4728000   0.50337056   -9.1530151    483.60224 0.0085237282 0.0063785588         3826 
 4729000   0.49226295   -9.1624109    483.64991 0.0085227657 0.0063761121         3835 
 4730000   0.49910787   -9.1479694    483.16162 0.0085123612 0.0063736679         3869 
 4731000   0.49163528   -9.1574127    482.95882 0.0085069898 0.0063712257         3855 
 4732000   0.49291559   -9.1554067    483.50026  0.008514727 0.0063687841         3852 
 4733000    0.5046803   -9.1689442    483.28699 0.0085091729 0.0063663443         3836 
 4734000    0.5060991   -9.1592647    483.94501 0.0085189588 0.0063639074         3853 
 4735000   0.48356995   -9.1763939    482.77078 0.0084964938 0.0063614688         3867 
 4736000   0.48568919   -9.1605704    482.55879 0.0084909697 0.0063590307         3851 
 4737000   0.48412576   -9.1510684    483.49614 0.0085056671  0.006356596         3827 
 4738000   0.48957547   -9.1554759    482.65145 0.0084890152 0.0063541635         3827 
 4739000   0.49924538   -9.1628936    483.09304 0.0084949891 0.0063517326         3866 
 4740000   0.50217486    -9.159074    483.85692 0.0085066265 0.0063493039         3847 
 4741000   0.50872203     -9.15868    483.30732  0.008495172  0.006346877         3852 
 4742000    0.4938399   -9.1520318    483.12781 0.0084902259 0.0063444478         3834 
 4743000   0.50068162   -9.1515167    483.47272 0.0084944958 0.0063420205         3842 
 4744000   0.49192617   -9.1500269    483.37305 0.0084909543 0.0063395944         3853 
 4745000   0.49923135   -9.1633333      483.478 0.0084910082 0.0063371691         3836 
 4746000   0.49024428   -9.1622081     483.5456 0.0084904059 0.0063347431         3854 
 4747000   0.49751234   -9.1783501    483.03163 0.0084795946 0.0063323211         3854 
 4748000   0.50330388   -9.1690051    483.02648 0.0084777183 0.0063298979         3853 
 4749000   0.50251604   -9.1674446    483.36431 0.0084818613 0.0063274762         3851 
 4750000   0.50190257    -9.151308     483.6874 0.0084857439 0.0063250582         3848 
 4751000   0.49096096   -9.1668196     483.5089 0.0084808269 0.0063226379         3851 
 4752000   0.48440871   -9.1730914     483.2996 0.0084753718 0.0063202199         3856 
 4753000   0.48679225   -9.1574037    483.70115 0.0084806289 0.0063178036         3855 
 4754000   0.49485066    -9.161899    482.78099 0.0084627154 0.0063153885         3855 
 4755000    0.4895383   -9.1614196    482.76396 0.0084606373 0.0063129744         3847 
 4756000   0.49736027   -9.1631329    483.17833 0.0084661188 0.0063105627         3844 
 4757000   0.47767065    -9.158411    482.80892 0.0084578676 0.0063081531         3836 
 4758000   0.48480142   -9.1567643    483.17013 0.0084624165 0.0063057448         3856 
 4759000   0.49777934   -9.1717752    483.25349 0.0084620979 0.0063033359         3819 
 4760000   0.48679521   -9.1728088    483.12061 0.0084579939 0.0063009272         3845 
 4761000   0.48987324     -9.14188     483.7517 0.0084672635 0.0062985226         3866 
 4762000   0.48850483   -9.1529762    482.10757 0.0084367138  0.006296118         3859 
 4763000   0.49490093   -9.1675277    483.22526 0.0084544975 0.0062937158         3831 
 4764000   0.49226778    -9.167629    483.15712 0.0084515309 0.0062913121         3841 
 4765000   0.49665456   -9.1771118    482.43787 0.0084371785 0.0062889102         3868 
 4766000   0.49075441   -9.1731096    482.90739 0.0084436178 0.0062865096         3846 
 4767000   0.48707816   -9.1781149    483.20566 0.0084470608 0.0062841091         3871 
 4768000   0.48268121   -9.1827524    482.94585 0.0084407482 0.0062817113         3863 
 4769000   0.47613009   -9.1509665    483.87335 0.0084551853  0.006279315         3833 
 4770000   0.48857838   -9.1657371    483.01328 0.0084383872  0.006276921         3858 
 4771000   0.47583055    -9.180618    483.04041 0.0084370923 0.0062745267         3875 
 4772000   0.48762062   -9.1767689    483.06521 0.0084357574 0.0062721344         3855 
 4773000   0.47362225   -9.1710825    483.32008 0.0084384399 0.0062697444         3847 
 4774000   0.49038526   -9.1720614    483.28414 0.0084360449 0.0062673535         3841 
 4775000   0.48436998   -9.1704749    482.62761 0.0084228204 0.0062649651         3851 
 4776000   0.48719133   -9.1604945    482.27015 0.0084148198 0.0062625777         3848 
 4777000   0.49002174   -9.1415633    483.57996 0.0084359075 0.0062601921         3843 
 4778000   0.49409598   -9.1706238    482.93806 0.0084229464 0.0062578069         3865 
 4779000   0.48555622   -9.1663055    482.83159 0.0084193274 0.0062554217         3858 
 4780000   0.48632719   -9.1784388    482.53504 0.0084123961 0.0062530399         3851 
 4781000   0.47913675   -9.1663493    483.19099 0.0084220699 0.0062506595         3836 
 4782000   0.49428751   -9.1817257    483.15972 0.0084197637 0.0062482801         3848 
 4783000   0.49166052   -9.1632714    482.79667 0.0084116779  0.006245902         3838 
 4784000   0.48678182   -9.1731279    482.67191 0.0084077465  0.006243526         3873 
 4785000   0.48123305   -9.1650077    483.02398 0.0084121208 0.0062411495         3834 
 4786000   0.48024415   -9.1772311    482.68446 0.0084044515 0.0062387742         3862 
 4787000   0.48861511   -9.1841756    482.92766 0.0084069295 0.0062364006         3848 
 4788000   0.48797792   -9.1725481    482.91258 0.0084049112 0.0062340295         3891 
 4789000   0.48790504   -9.1804426      483.356 0.0084108722 0.0062316567         3848 
 4790000    0.4796369   -9.1674114     482.3286 0.0083912422  0.006229287         3845 
 4791000   0.48588939   -9.1803432     482.8995 0.0083994208 0.0062269159         3866 
 4792000   0.47684484   -9.1679513    482.23177 0.0083860561 0.0062245471         3853 
 4793000   0.48458511   -9.1709791    482.99317 0.0083975445 0.0062221809         3878 
 4794000   0.48629224    -9.172366    483.39025 0.0084026952  0.006219815         3858 
 4795000   0.49775783   -9.1810504    482.62211 0.0083875932 0.0062174514         3854 
 4796000   0.48728472   -9.1815271    482.91633 0.0083909565 0.0062150886         3849 
 4797000   0.48363454   -9.1706184    483.28265  0.008395571 0.0062127282         3847 
 4798000   0.48859981   -9.1783154    482.99166 0.0083887672 0.0062103675         3828 
 4799000   0.48766655   -9.1799873     483.1002  0.008388904 0.0062080066         3834 
 4800000   0.47715838    -9.182469    482.67011 0.0083796895 0.0062056491         3865 
 4801000   0.48102544   -9.1753724     483.0582 0.0083846803 0.0062032913         3868 
 4802000   0.48393656   -9.1940145    483.01862 0.0083822473 0.0062009343         3843 
 4803000   0.47360071   -9.1785948     482.5617 0.0083725744 0.0061985783         3849 
 4804000   0.48592966   -9.1802305    483.19966  0.008381898 0.0061962243         3855 
 4805000   0.49381071   -9.1790353    482.50977 0.0083681889 0.0061938735         3813 
 4806000   0.48202841   -9.1840239    483.45234 0.0083827913 0.0061915218         3848 
 4807000   0.48798912   -9.1653293    483.11204  0.008375148  0.006189171         3866 
 4808000   0.48838772    -9.177524    483.40374  0.008378462 0.0061868231         3843 
 4809000   0.47672416   -9.1681809    483.18923 0.0083730025 0.0061844744         3871 
 4810000   0.47623726   -9.1746792    482.99164 0.0083678385 0.0061821285         3844 
 4811000   0.47988753   -9.1694474    482.99455 0.0083661497 0.0061797833         3826 
 4812000   0.48816502   -9.1923012    482.81816 0.0083613563 0.0061774386         3850 
 4813000   0.48732306   -9.1593673     481.8886 0.0083435244 0.0061750957         3857 
 4814000   0.48791207   -9.1843511    482.82853 0.0083580621 0.0061727539         3843 
 4815000   0.48288678   -9.1713023    483.26627 0.0083639023 0.0061704128         3877 
 4816000   0.48226045   -9.1784495    482.84639 0.0083549001 0.0061680728         3837 
 4817000   0.48170645   -9.1798209     483.1556  0.008358515  0.006165736         3863 
 4818000   0.47757234   -9.1823443    482.68965 0.0083487209 0.0061633982         3888 
 4819000   0.48157636   -9.1764117    483.11335 0.0083543154 0.0061610647         3862 
 4820000   0.48005858   -9.1642937    482.83031 0.0083476886 0.0061587299         3865 
 4821000   0.48536909   -9.1947518    483.46158  0.008356869 0.0061563965         3856 
 4822000    0.4753393   -9.1712146    482.84619 0.0083445007 0.0061540639         3863 
 4823000   0.48748968   -9.1932013    483.40846 0.0083524857 0.0061517324         3851 
 4824000    0.4859411   -9.1760618    482.68199 0.0083382046 0.0061494018         3849 
 4825000   0.48330338   -9.1872358    482.89622 0.0083401766 0.0061470727         3877 
 4826000    0.4771553   -9.1885733    482.81184 0.0083369912 0.0061447462         3845 
 4827000    0.4771599   -9.1680738    482.95105 0.0083376675   0.00614242         3865 
 4828000   0.48278367   -9.1868528    482.80766 0.0083334655 0.0061400943         3865 
 4829000   0.48182279   -9.1877719    482.63289 0.0083287238 0.0061377701         3881 
 4830000   0.47764727   -9.1818241    481.87205 0.0083138725 0.0061354466         3862 
 4831000   0.48587919   -9.1915721    483.23839 0.0083357206 0.0061331252         3853 
 4832000    0.4732611   -9.1773104    483.56496 0.0083396275 0.0061308048         3865 
 4833000   0.47386888   -9.1636626    483.55837 0.0083377882 0.0061284856         3843 
 4834000   0.47829387   -9.1785361    482.70653 0.0083213786 0.0061261682         3868 
 4835000   0.47408209   -9.1943044    483.17748 0.0083277745 0.0061238497         3870 
 4836000   0.48347813   -9.1874471    482.34702 0.0083117421 0.0061215337         3858 
 4837000   0.48219823    -9.173403    482.22595  0.008307938 0.0061192192         3856 
 4838000   0.47749365   -9.1895719    482.88244 0.0083175285 0.0061169063         3853 
 4839000   0.48086761   -9.1929178    482.04204  0.008301337 0.0061145942         3843 
 4840000   0.47602866   -9.1910692    482.92367 0.0083148014 0.0061122843         3845 
 4841000    0.4841079    -9.167873    483.25438 0.0083187767 0.0061099738         3863 
 4842000   0.47962956   -9.1953344    482.53874 0.0083047422 0.0061076657         3860 
 4843000   0.46767657   -9.1822213    481.84652 0.0082911164 0.0061053574         3821 
 4844000   0.48676682   -9.1921361    483.27488 0.0083139774 0.0061030509         3857 
 4845000   0.48651126   -9.1838541    482.44396 0.0082979697  0.006100746         3846 
 4846000   0.47635277   -9.1817393    482.78566 0.0083021334 0.0060984421         3883 
 4847000   0.49796214   -9.1959051    481.93093 0.0082857253 0.0060961398         3855 
 4848000   0.47807045   -9.1927879    482.77649 0.0082985508 0.0060938378         3840 
 4849000   0.47574354   -9.1884145    481.80881 0.0082802091  0.006091538         3879 
 4850000   0.47383855   -9.1937089    482.20789 0.0082853589 0.0060892408         3850 
 4851000   0.46954346   -9.1909057    481.86891 0.0082778277 0.0060869427         3846 
 4852000   0.47525952    -9.198443    482.39276 0.0082851189 0.0060846449         3859 
 4853000   0.47470951   -9.1909037    482.84088 0.0082911066 0.0060823498         3834 
 4854000   0.46658474   -9.1922244    482.46442 0.0082829353 0.0060800553         3865 
 4855000   0.47344468   -9.1967463     482.3946 0.0082800309 0.0060777622         3859 
 4856000   0.48615951   -9.1804814    482.57084 0.0082813503 0.0060754706         3835 
 4857000   0.47392547   -9.1769841    482.05913 0.0082708656 0.0060731795         3886 
 4858000   0.47357507   -9.1898757    482.73587 0.0082807718 0.0060708896         3865 
 4859000   0.47661067   -9.1848875     482.7698 0.0082796494 0.0060685997         3879 
 4860000   0.47297062   -9.1985075    482.38063 0.0082712728 0.0060663108         3870 
 4861000   0.47439846   -9.1984845    482.24364 0.0082672228 0.0060640235         3860 
 4862000   0.46884271   -9.1859742    482.52711  0.008270381 0.0060617386         3844 
 4863000    0.4730734   -9.1800498    483.10492 0.0082785818 0.0060594542         3846 
 4864000   0.47341534   -9.1951771    482.12451 0.0082600827 0.0060571717         3833 
 4865000   0.47559965   -9.2004198    482.15057 0.0082588314 0.0060548897         3856 
 4866000   0.47199551   -9.2093657    482.25034 0.0082588426 0.0060526089         3851 
 4867000   0.48096848   -9.1876975    482.94526 0.0082690442  0.006050331         3852 
 4868000   0.45980583   -9.2033486    481.74783 0.0082468472 0.0060480518         3841 
 4869000   0.46666918   -9.1925384    482.30432  0.008254678 0.0060457737         3873 
 4870000   0.47120391   -9.1883805    482.05346 0.0082486903 0.0060434968         3837 
 4871000   0.48155707    -9.194581    482.59343 0.0082562346 0.0060412227         3836 
 4872000   0.47166924   -9.1991737    482.12693 0.0082465609 0.0060389501         3872 
 4873000   0.46535131   -9.1981498    482.32636 0.0082482789 0.0060366779         3875 
 4874000   0.47889895   -9.1767129    483.10822 0.0082599545 0.0060344082         3863 
 4875000   0.47901361   -9.1965392    483.38844 0.0082630503   0.00603214         3869 
 4876000   0.46977755   -9.2105257    482.33081 0.0082432802 0.0060298719         3885 
 4877000   0.47339229   -9.1831925    483.06545 0.0082541427 0.0060276055         3882 
 4878000   0.47127614   -9.2047173    482.39876 0.0082410612 0.0060253384         3841 
 4879000   0.46398968    -9.184762    483.16631 0.0082524818 0.0060230729         3849 
 4880000   0.47878808   -9.1860866    483.25846 0.0082523643 0.0060208093         3853 
 4881000   0.48192104    -9.198995    481.82821 0.0082262551 0.0060185463         3857 
 4882000   0.47351177   -9.1832405    482.83235 0.0082417102 0.0060162835         3842 
 4883000    0.4814379   -9.1917521    482.72748 0.0082382327 0.0060140238         3870 
 4884000   0.47514698   -9.1986087    481.47777 0.0082152227 0.0060117636         3832 
 4885000   0.46990574   -9.1904958    482.93113 0.0082383339 0.0060095063         3846 
 4886000   0.46103509   -9.1706698    482.04378 0.0082215135 0.0060072491         3847 
 4887000   0.45911672   -9.2041867    482.23243 0.0082230481 0.0060049908         3846 
 4888000   0.46050722   -9.1877264    482.66104 0.0082286729 0.0060027369         3854 
 4889000   0.45627672   -9.1952286    482.36067   0.00822187 0.0060004832         3859 
 4890000    0.4668657    -9.188013    482.95356 0.0082302924 0.0059982299         3840 
 4891000   0.46072056   -9.1972108    482.26725 0.0082169162 0.0059959764         3854 
 4892000   0.47834945   -9.1817325    481.55156 0.0082030451 0.0059937255         3860 
 4893000   0.47284771   -9.2142938    482.03929 0.0082096753 0.0059914745         3879 
 4894000   0.48179139   -9.1919995    481.65995 0.0082015384 0.0059892268         3874 
 4895000   0.46744315   -9.1982181     482.7506 0.0082184304 0.0059869783         3859 
 4896000   0.47013626   -9.1830123    483.18912 0.0082242157 0.0059847343         3870 
 4897000   0.47096548     -9.20159    482.27767 0.0082070258 0.0059824884         3858 
 4898000    0.4675348   -9.2011934    482.39749 0.0082073889 0.0059802437         3862 
 4899000   0.46533077   -9.1923479    482.52197 0.0082078311 0.0059780007         3874 
 4900000    0.4809131   -9.1887951    482.34822 0.0082032011 0.0059757598         3848 
 4901000   0.46647023   -9.1995976     481.8916 0.0081937632 0.0059735203         3851 
 4902000   0.47578742   -9.2035745    481.37709 0.0081833451 0.0059712811         3854 
 4903000   0.45870169   -9.2038851    482.62854 0.0082029462 0.0059690428         3848 
 4904000   0.46220521   -9.2023538    481.89148 0.0081887486 0.0059668045         3855 
 4905000   0.46702485   -9.1864685    482.44197 0.0081964316 0.0059645673         3873 
 4906000   0.45792114   -9.1899435    481.88217 0.0081852522 0.0059623327         3856 
 4907000   0.46263862   -9.1987416    482.55033 0.0081949313 0.0059600983         3861 
 4908000   0.46758698    -9.192755    482.14916 0.0081864501 0.0059578646         3837 
 4909000   0.46265072   -9.2032651     482.9333 0.0081980937 0.0059556343         3872 
 4910000   0.46589326   -9.1923429    482.18556 0.0081837332 0.0059534039         3868 
 4911000   0.45465607   -9.2024633    482.10914   0.00818077  0.005951173         3887 
 4912000   0.46010748   -9.2073526    481.51348  0.008168999 0.0059489453         3857 
 4913000   0.46814478   -9.1996001    482.43912 0.0081830369 0.0059467193         3837 
 4914000   0.46438491   -9.2029153    482.08149 0.0081753067 0.0059444942         3877 
 4915000    0.4627452   -9.1930152    482.36256 0.0081784089 0.0059422698         3845 
 4916000   0.46066327   -9.1854064    482.34471 0.0081764428 0.0059400448         3831 
 4917000   0.47697204   -9.1940717    481.92072 0.0081675941 0.0059378226         3858 
 4918000   0.46246253   -9.1893665    482.11297 0.0081691909 0.0059356019         3842 
 4919000   0.47163137   -9.1889711     482.8071 0.0081792895  0.005933382         3855 
 4920000   0.47924238   -9.1956444    482.65681 0.0081750814 0.0059311643         3855 
 4921000   0.47173802   -9.2017494    482.65038 0.0081733113 0.0059289478         3847 
 4922000   0.46618215   -9.2008708    481.88196 0.0081586407 0.0059267322         3837 
 4923000   0.45468561   -9.2116168    481.84532 0.0081563633 0.0059245161         3859 
 4924000   0.47360063    -9.208303    481.93438 0.0081562141 0.0059223004         3868 
 4925000   0.46259209     -9.19521    481.90898 0.0081541282 0.0059200878         3854 
 4926000   0.46914174   -9.2082175    482.36855 0.0081602475 0.0059178758         3874 
 4927000   0.46660665   -9.2123552      482.525 0.0081612375 0.0059156642         3881 
 4928000   0.45299359   -9.2050526    482.53274 0.0081597122 0.0059134562         3867 
 4929000    0.4649373   -9.2135238    482.54428 0.0081582519 0.0059112464         3884 
 4930000   0.47203428   -9.2164737    481.33047 0.0081360796 0.0059090407         3894 
 4931000   0.45983939   -9.2143074    482.24412 0.0081498703 0.0059068351         3869 
 4932000   0.47569382   -9.2109786    482.70403 0.0081559886 0.0059046288         3882 
 4933000   0.46740659   -9.2180314    482.50782 0.0081510206 0.0059024236         3873 
 4934000   0.46505932   -9.2220984    482.07828 0.0081421139 0.0059002178         3875 
 4935000   0.45132665   -9.2053126    482.29838 0.0081441807  0.005898016         3884 
 4936000   0.46054147   -9.2089451    482.73097 0.0081498341 0.0058958142         3861 
 4937000   0.45548528   -9.2010719    481.82255 0.0081328497 0.0058936128         3877 
 4938000   0.46287879   -9.2252179    481.67462 0.0081287062 0.0058914131         3865 
 4939000   0.46351853   -9.1957237    481.69159 0.0081273469 0.0058892139         3862 
 4940000   0.46401399   -9.2111137    481.69072 0.0081256868 0.0058870163         3826 
 4941000   0.46516813   -9.2077915    482.73219 0.0081416075 0.0058848206         3854 
 4942000   0.46390334   -9.2030966    481.73278 0.0081231077 0.0058826255         3844 
 4943000   0.46721079   -9.2066086    481.30662 0.0081142797 0.0058804329         3863 
 4944000    0.4672649   -9.2077219    481.59381 0.0081174793 0.0058782396         3854 
 4945000   0.45478782   -9.2120582    481.69519 0.0081175462  0.005876048         3865 
 4946000   0.46292598   -9.1999716    481.71439 0.0081162284 0.0058738588         3883 
 4947000   0.45706697    -9.213247    482.44096  0.008126827 0.0058716699         3886 
 4948000   0.45527935   -9.2118829     481.5526 0.0081102231 0.0058694825         3852 
 4949000   0.45299721   -9.2150363     482.3617 0.0081222081 0.0058672952         3889 
 4950000   0.45497082   -9.1898853    482.07376 0.0081157199 0.0058651092         3837 
 4951000   0.46559903   -9.2099269    482.85959 0.0081273075 0.0058629246         3858 
 4952000   0.45008838   -9.1958199    482.51313 0.0081198359 0.0058607417         3865 
 4953000   0.45769174   -9.1935021    482.61117 0.0081198461 0.0058585588         3826 
 4954000   0.46292866   -9.2070352    482.00621 0.0081080307 0.0058563767         3872 
 4955000   0.45076946   -9.2222555    482.27916 0.0081109849 0.0058541945         3863 
 4956000   0.45888264    -9.220125     481.5721 0.0080974593 0.0058520146         3885 
 4957000   0.46161701   -9.2006401    481.98772 0.0081028128 0.0058498364         3850 
 4958000   0.46429157    -9.211017    481.68348 0.0080960649 0.0058476598         3870 
 4959000   0.46839211    -9.205901    481.72854 0.0080951895 0.0058454836         3866 
 4960000   0.45008693   -9.2061791    481.18149 0.0080843664 0.0058433086         3889 
 4961000   0.46409756   -9.2274195    482.00245 0.0080965271 0.0058411352         3847 
 4962000   0.44362538   -9.2192876    481.76366 0.0080908851 0.0058389622         3865 
 4963000   0.45319082   -9.2042851    482.45427 0.0081008507 0.0058367906         3850 
 4964000    0.4537545   -9.2168636    482.82907 0.0081055109 0.0058346199         3856 
 4965000   0.44577621   -9.2165712    482.63989 0.0081007031 0.0058324492         3879 
 4966000   0.47065308   -9.2075486    481.44144  0.008078961 0.0058302792         3868 
 4967000   0.46716332   -9.2020192    482.36538 0.0080928356 0.0058281114         3890 
 4968000   0.45846919   -9.2088517    481.50956 0.0080768512 0.0058259433         3876 
 4969000   0.45925999   -9.2300928    481.07054 0.0080678631 0.0058237763         3872 
 4970000    0.4508148   -9.2044106    481.86195 0.0080795096  0.005821613         3873 
 4971000   0.45357743   -9.2023007    482.46328 0.0080879649 0.0058194482         3854 
 4972000    0.4546383   -9.2202927    481.36457 0.0080679233 0.0058172857         3859 
 4973000   0.45365028   -9.2121461    481.36264 0.0080662686 0.0058151231         3854 
 4974000   0.46288377   -9.1987003    482.45378 0.0080829276 0.0058129629         3864 
 4975000   0.44085468   -9.2214349    481.70757 0.0080688036 0.0058108048         3862 
 4976000   0.45778385   -9.2211762    482.14421 0.0080744944 0.0058086477         3875 
 4977000    0.4421734   -9.2173653    481.82096 0.0080674597 0.0058064912         3868 
 4978000   0.46089731   -9.2170605    481.88402 0.0080668946 0.0058043336         3868 
 4979000    0.4600965   -9.2246495    482.34212 0.0080729417 0.0058021801         3890 
 4980000    0.4672373   -9.2183433    481.95632 0.0080648648 0.0058000263         3863 
 4981000   0.45717331      -9.2337    481.59537 0.0080572069 0.0057978742         3866 
 4982000   0.45739022   -9.2215444    481.56047 0.0080550058 0.0057957225         3883 
 4983000   0.44848009   -9.2090773    482.25653 0.0080650299 0.0057935722         3859 
 4984000   0.44912662   -9.2085234    481.94877  0.008058266 0.0057914222         3862 
 4985000   0.44517116   -9.2158249    482.09167 0.0080590383 0.0057892731         3857 
 4986000   0.45448627   -9.2178177    481.28689 0.0080439713 0.0057871269         3872 
 4987000   0.46332296   -9.2185734    482.24478 0.0080583647 0.0057849813         3850 
 4988000   0.45609334   -9.2194867    482.24501 0.0080567531  0.005782837         3852 
 4989000   0.44680528   -9.1989688    482.05577 0.0080519772 0.0057806932         3860 
 4990000   0.45116308   -9.2200078    482.30898 0.0080545922 0.0057785512         3886 
 4991000    0.4568712   -9.2093636    480.92743  0.008029911 0.0057764087         3874 
 4992000   0.46328003   -9.2134806    482.26982 0.0080507114 0.0057742678         3869 
 4993000   0.44354701   -9.2008214    481.55139 0.0080371085 0.0057721282         3857 
 4994000   0.45060378   -9.2165344    482.00612  0.008043087 0.0057699889         3883 
 4995000    0.4501594    -9.218629    481.23738 0.0080286517 0.0057678509         3868 
 4996000     0.455147   -9.2159472    481.62616 0.0080335296  0.005765713         3872 
 4997000   0.44547953   -9.2168384    481.81487 0.0080350688 0.0057635767         3857 
 4998000    0.4537293   -9.2261745    481.57241 0.0080294186  0.005761442         3869 
 4999000   0.44706886   -9.2296244    482.22105 0.0080386253 0.0057593089         3875 
 5000000   0.44991667    -9.205703    482.40479 0.0080400798 0.0057571765         3877 
 5001000   0.44643178   -9.2074882     482.0743 0.0080329651 0.0057550455         3878 
 5002000   0.44581077   -9.2272059    481.86376 0.0080278516 0.0057529162         3880 
 5003000   0.45233183   -9.2414553    482.03492 0.0080290979 0.0057507869         3849 
 5004000   0.43437362   -9.2161291    481.65907 0.0080212342 0.0057486596         3881 
 5005000   0.45180722   -9.2277912     481.2594 0.0080129771 0.0057465342         3858 
 5006000    0.4609199    -9.218085    481.60041  0.008017053 0.0057444069         3868 
 5007000   0.45321925   -9.2122212    482.33194  0.008027627 0.0057422829         3881 
 5008000   0.45067883   -9.2163158    482.20474 0.0080239074  0.005740159         3866 
 5009000   0.44687742   -9.2276782    481.83016 0.0080160738 0.0057380378         3883 
 5010000   0.45273885   -9.2246819    481.83834 0.0080146098 0.0057359159         3891 
 5011000   0.45286999   -9.2346519    481.54115  0.008008068 0.0057337944         3897 
 5012000   0.45456453   -9.2282792    480.90249 0.0079958514 0.0057316748         3866 
Loop time of 13156.5 on 48 procs for 5000000 steps with 4000 atoms

Performance: 65671.076 tau/day, 380.041 timesteps/s
99.4% CPU use with 48 MPI tasks x no OpenMP threads

MPI task timing breakdown:
Section |  min time  |  avg time  |  max time  |%varavg| %total
---------------------------------------------------------------
Pair    | 1012       | 1105.5     | 1230.4     | 167.4 |  8.40
Neigh   | 93.301     | 97.723     | 102.67     |  22.0 |  0.74
Comm    | 811.2      | 945.7      | 1061.4     | 192.3 |  7.19
Output  | 18.592     | 18.597     | 18.697     |   0.3 |  0.14
Modify  | 10828      | 10870      | 10921      |  18.3 | 82.62
Other   |            | 119.1      |            |       |  0.91

Nlocal:        83.3333 ave          92 max          76 min
Histogram: 4 6 3 8 3 8 9 1 5 1
Nghost:        2451.23 ave        2472 max        2439 min
Histogram: 7 6 7 8 6 5 6 0 2 1
Neighs:        16943.6 ave       19960 max       14665 min
Histogram: 6 4 8 4 4 7 8 5 0 2
FullNghs:      33888.3 ave       37958 max       30790 min
Histogram: 6 3 6 7 7 6 7 3 2 1

Total # of neighbors = 1626637
Ave neighs/atom = 406.65925
Neighbor list builds = 266025
Dangerous builds = 0

#clear
#
#next RN
#
#jump SELF
Total wall time: 3:39:20
