
units lj                  # Use reduced LJ style units
atom_style atomic         # Uncharged point particles
atom_modify map hash      # Needed for indexing of clusters etc
                          # Used to be able to find where atoms are in relation to each other.

lattice fcc 1.0 spacing 1 1 1
Lattice spacing in x,y,z = 1.5874011 1.5874011 1.5874011
region box block 0 10 0 10 0 10 units lattice
create_box 2 box
Created orthogonal box = (0.0000000 0.0000000 0.0000000) to (15.874011 15.874011 15.874011)
  3 by 4 by 4 MPI processor grid
create_atoms 1 box
Created 4000 atoms
  using lattice units in orthogonal box = (0.0000000 0.0000000 0.0000000) to (15.874011 15.874011 15.874011)
  create_atoms CPU = 0.004 seconds
set type 1 type/fraction 2 0.6 78393
Setting atom values ...
  2421 settings made for type/fraction
mass 1 1.0
mass 2 1.0
pair_style lj/cut  3.5
pair_modify tail  yes
pair_coeff 1  1  1.0  1.0   # Intearaction between 1 and 1 set with epsilon = 1 and sigma = 1
pair_coeff 1  2  1.5  0.8
pair_coeff 2  2  0.5  0.88

write_data data.0
System init for write_data ...
Neighbor list info ...
  update every 1 steps, delay 10 steps, check yes
  max neighbors/atom: 2000, page size: 100000
  master list distance cutoff = 3.8
  ghost atom cutoff = 3.8
  binsize = 1.9, bins = 9 9 9
  1 neighbor lists, perpetual/occasional/extra = 1 0 0
  (1) pair lj/cut, perpetual
      attributes: half, newton on
      pair build: half/bin/atomonly/newton
      stencil: half/bin/3d
      bin: standard
WARNING: Not all mixed pair coeffs generated from mixing. Use write_data with 'pair ij' option to store all pair coeffs. (../write_data.cpp:312)


#############################
#   M E L T   S Y S T E M   #
#############################

velocity all create 2.4 5833274 mom yes dist gaussian # Assign velocities
                                                    # Temperature 2.4, random number seed, zero linear momentum
                                                                                # Gaussian distribution

timestep 0.002   # simulation timestep
thermo 1000       # output thermodynamic data every 1000 steps bf 100

# Define a fix  in this case with index 1 applied to all
# particles in the simulation. This fix is for simulations
# in the anisotropic NPT ensemble. Note that we use the MTK
# correction.
fix 1 all npt temp 2.4 2.4 0.1 iso 5.68 5.68 0.5 mtk yes tchain 5 pchain 5 # Use NPT ensemble
                                                                         # Set temperature and pressure and damping
                                                                         # Numbers of thermostats in chain and in barostat
run 10000          # run for 10000 steps
Per MPI rank memory allocation (min/avg/max) = 3.642 | 3.644 | 3.648 Mbytes
Step Temp E_pair E_mol TotEng Press Volume 
       0          2.4   -4.7127585            0   -1.1136585   -4.0555291         4000 
    1000    2.3509838   -4.3987999            0  -0.87320583    5.8630833    3624.5828 
    2000    2.3423697   -4.4808238            0  -0.96814759     5.874393     3580.191 
    3000    2.4355811   -4.4119294            0  -0.75947111    5.9282045    3625.1836 
    4000    2.4528891   -4.4913746            0  -0.81296074    5.7306157    3597.2038 
    5000    2.3875828   -4.5228414            0   -0.9423625     5.863494    3565.6609 
    6000     2.385256   -4.4706013            0  -0.89361172    5.3898773    3629.0297 
    7000    2.4080131   -4.4648327            0  -0.85371615    5.7686094    3602.4626 
    8000    2.3854723   -4.5018043            0   -0.9244904    5.3821659    3614.2095 
    9000     2.400176   -4.4498616            0  -0.85049758    5.7325963    3617.8062 
   10000     2.405774    -4.450357            0  -0.84259824    5.8462256    3599.4667 
Loop time of 2.69808 on 48 procs for 10000 steps with 4000 atoms

Performance: 640454.507 tau/day, 3706.334 timesteps/s
99.6% CPU use with 48 MPI tasks x no OpenMP threads

MPI task timing breakdown:
Section |  min time  |  avg time  |  max time  |%varavg| %total
---------------------------------------------------------------
Pair    | 1.2156     | 1.2864     | 1.3712     |   3.0 | 47.68
Neigh   | 0.22075    | 0.22764    | 0.24201    |   0.9 |  8.44
Comm    | 0.84149    | 0.9138     | 0.99724    |   3.7 | 33.87
Output  | 0.00025889 | 0.0002636  | 0.00033676 |   0.0 |  0.01
Modify  | 0.20834    | 0.25435    | 0.29134    |   4.6 |  9.43
Other   |            | 0.01568    |            |       |  0.58

Nlocal:        83.3333 ave          90 max          75 min
Histogram: 5 1 4 1 8 2 12 3 7 5
Nghost:        1760.38 ave        1791 max        1738 min
Histogram: 4 2 3 17 5 8 6 1 1 1
Neighs:        10573.5 ave       11720 max        9271 min
Histogram: 1 7 2 3 10 7 6 3 5 4

Total # of neighbors = 507529
Ave neighs/atom = 126.88225
Neighbor list builds = 911
Dangerous builds = 238

# Equilibrate just above the melting temperature to avoid step fn in T

fix 1 all npt temp 1.25 1.25 0.1 iso 5.68 5.68 0.5 mtk yes tchain 5 pchain 5
run 2000
Per MPI rank memory allocation (min/avg/max) = 3.644 | 3.646 | 3.650 Mbytes
Step Temp E_pair E_mol TotEng Press Volume 
   10000     2.405774    -4.450357            0  -0.84259824    5.8462256    3599.4667 
   11000    1.2376698   -6.4893983            0   -4.6333577    5.8891892     2772.242 
   12000    1.2705681   -6.5584834            0   -4.6531077    5.6562261    2763.4079 
Loop time of 0.666352 on 48 procs for 2000 steps with 4000 atoms

Performance: 518645.153 tau/day, 3001.419 timesteps/s
99.6% CPU use with 48 MPI tasks x no OpenMP threads

MPI task timing breakdown:
Section |  min time  |  avg time  |  max time  |%varavg| %total
---------------------------------------------------------------
Pair    | 0.30235    | 0.32947    | 0.34884    |   1.7 | 49.44
Neigh   | 0.042233   | 0.044259   | 0.045948   |   0.4 |  6.64
Comm    | 0.21965    | 0.24126    | 0.2734     |   2.3 | 36.21
Output  | 5.4534e-05 | 5.8116e-05 | 0.00018149 |   0.0 |  0.01
Modify  | 0.042654   | 0.046217   | 0.049465   |   1.0 |  6.94
Other   |            | 0.005091   |            |       |  0.76

Nlocal:        83.3333 ave          91 max          74 min
Histogram: 2 2 4 2 10 6 8 7 4 3
Nghost:        2113.04 ave        2130 max        2095 min
Histogram: 1 0 7 7 6 8 12 3 2 2
Neighs:        13825.7 ave       15615 max       11856 min
Histogram: 3 2 2 4 11 10 6 6 0 4

Total # of neighbors = 663633
Ave neighs/atom = 165.90825
Neighbor list builds = 142
Dangerous builds = 13

#############################
# L I N E A R  Q U E N C H  #
#############################

# Define solid atoms. This closely follows ten Wolde  Ruiz-Montero and Frenkel  Faraday Discuss  1996  104  93-110
# Compute components of the per-atom q6 vector
compute q6 all orientorder/atom degrees 1 6 components 6 nnn NULL cutoff 1.3 # compute the Q6 parameter.
                                                                             # Use all neighbours within 1.3 unit cell.

# get number of connections
compute coord_number all coord/atom orientorder q6 0.5

# An atom is solid if it has 8 or more connections (of a possible 14)
variable is_solid atom c_coord_number>=8
group solid dynamic all var is_solid    # Must be dynamic to update
dynamic group solid defined

# do clustering
compute cluster solid cluster/atom 1.3 # Create a cluster where all atoms within are solid and max 1.3 units from another member

# define chunks one chunk per cluster
compute clus_chunks solid chunk/atom c_cluster nchunk every compress yes  # Says which atoms are in which chunk

# count the size of each chunk
compute size_chunks solid property/chunk clus_chunks count


# Find the maximum entry in the vector of chunk sizes
variable max_n equal max(c_size_chunks)


# Thermo style which includes this variable
# thermo_style custom step temp pe vol v_max_n

thermo ${N}  # Print the thermo information every 100 steps
thermo 1000  

# Reset the npt fix at a lower temperature (below freezing)
fix 1  all npt temp  ${temp} ${temp}  0.1  iso  5.68  5.68  0.5  mtk yes tchain  5  pchain  5
fix 1  all npt temp  0.45 ${temp}  0.1  iso  5.68  5.68  0.5  mtk yes tchain  5  pchain  5
fix 1  all npt temp  0.45 0.45  0.1  iso  5.68  5.68  0.5  mtk yes tchain  5  pchain  5

dump dmp2 all dcd ${N} traj.dcd
dump dmp2 all dcd 1000 traj.dcd


compute msd all msd com yes
variable twopoint equal c_msd[4]/6/(step*dt+1.0e-6)
fix 9 all vector 10 c_msd[4]
variable fit equal slope(f_9)/6/(10*dt)
thermo_style custom step temp pe c_msd[4] v_twopoint v_fit v_max_n

fix 1 all npt temp 1.25 ${temp} 0.1 iso 5.68 5.68 0.5 mtk yes tchain 5 pchain 5
fix 1 all npt temp 1.25 0.45 0.1 iso 5.68 5.68 0.5 mtk yes tchain 5 pchain 5
run 500000 # 5000000  # Run for this many steps
Neighbor list info ...
  update every 1 steps, delay 10 steps, check yes
  max neighbors/atom: 2000, page size: 100000
  master list distance cutoff = 3.8
  ghost atom cutoff = 3.8
  binsize = 1.9, bins = 8 8 8
  4 neighbor lists, perpetual/occasional/extra = 1 3 0
  (1) pair lj/cut, perpetual
      attributes: half, newton on
      pair build: half/bin/atomonly/newton
      stencil: half/bin/3d
      bin: standard
  (2) compute orientorder/atom, occasional
      attributes: full, newton on
      pair build: full/bin/atomonly
      stencil: full/bin/3d
      bin: standard
  (3) compute coord/atom, occasional
      attributes: full, newton on
      pair build: full/bin/atomonly
      stencil: full/bin/3d
      bin: standard
  (4) compute cluster/atom, occasional
      attributes: full, newton on
      pair build: full/bin/atomonly
      stencil: full/bin/3d
      bin: standard
Per MPI rank memory allocation (min/avg/max) = 9.847 | 9.851 | 9.856 Mbytes
Step Temp PotEng c_msd[4] v_twopoint v_fit v_max_n 
   12000    1.2705681   -6.5584834 1.673174e-30 1.1619263e-32 8.3333333e+20            2 
   13000    1.2404785   -6.6014117   0.50900193 0.0032628328  0.041402224            3 
   14000    1.2345447   -6.6123772   0.97522294 0.0058048983  0.040008936            2 
   15000    1.2425816   -6.6264944    1.4453279 0.0080295992  0.039056342            1 
   16000     1.270325   -6.6147738     1.931601  0.010060421  0.039350733            3 
   17000    1.2675761   -6.6572042    2.3300055  0.011421595  0.039150567            3 
   18000    1.2502343   -6.5870649    2.7172322  0.012579779  0.037931367            1 
   19000    1.2417525   -6.6206566    3.0813904   0.01351487  0.036903959            4 
   20000    1.2285611   -6.6583026    3.5240783  0.014683659   0.03620721            2 
   21000    1.2369149   -6.6650283     4.065968  0.016134793  0.036265221            5 
   22000    1.2316811   -6.6305498     4.457295  0.016883693  0.036395118            2 
   23000     1.221956   -6.6954567    4.9294361  0.017860275  0.036432509            2 
   24000    1.2262917   -6.6807681    5.3089841  0.018433972  0.036399399            5 
   25000    1.2215964   -6.6677785     5.732838   0.01910946  0.036327857            2 
   26000    1.2408551   -6.6876299    6.0838123  0.019499398  0.036169722            2 
   27000    1.2020667   -6.6958138    6.4736842  0.019980507  0.035869003            3 
   28000    1.2299427     -6.70412    6.8138655  0.020279361  0.035493392            1 
   29000    1.2595314   -6.7194279    7.2017657  0.020694729  0.035221745            5 
   30000    1.2322461   -6.7161474    7.5616817  0.021004671  0.034953352            2 
   31000     1.212107   -6.7122272    7.9223158  0.021296548  0.034692296            3 
   32000    1.2172196   -6.6505717    8.4227003  0.021934115  0.034509667            2 
   33000    1.1934095   -6.6880619    8.7769851  0.022164103  0.034402159            4 
   34000    1.2093302    -6.691701    9.2463141  0.022662534  0.034305456            4 
   35000    1.2179338   -6.7045302    9.6249446  0.022916534  0.034225556            2 
   36000     1.207897    -6.729652    10.045052  0.023252435  0.034153844            2 
   37000    1.1751112   -6.7190634    10.314175  0.023230123  0.034077424            2 
   38000    1.2128852   -6.7457515    10.717869  0.023504098  0.033950314            4 
   39000    1.2108822   -6.6776257    11.189502  0.023909191  0.033867978            2 
   40000    1.2178544   -6.6622815    11.579109  0.024123144  0.033806158            1 
   41000    1.2142469   -6.7321111    11.953785   0.02429631  0.033753333            5 
   42000    1.2081491     -6.78216    12.338178  0.024480512  0.033684663            1 
   43000    1.1927713   -6.7541092    12.843349  0.024890211  0.033674483            1 
   44000    1.2261239   -6.7461036    13.275952  0.025143848  0.033695467            4 
   45000    1.2027321   -6.7531424    13.607405  0.025198898  0.033684599            2 
   46000    1.1925912   -6.7654851    13.900605  0.025182256   0.03363029            4 
   47000    1.1829627   -6.7769042    14.212611  0.025199664  0.033560057            1 
   48000    1.1562323   -6.7790065    14.436315  0.025063047  0.033456919            3 
   49000    1.1868215   -6.7595389    14.819422  0.025203098  0.033326055            2 
   50000    1.2037424   -6.7683775    15.210957  0.025351594  0.033204865            3 
   51000    1.1842905   -6.7505835    15.673016  0.025609503  0.033114097            2 
   52000    1.1863874   -6.8068107    16.098606  0.025799048  0.033057657            3 
   53000    1.1926942   -6.8078033    16.543108  0.026011175  0.033027646            6 
   54000    1.1608333   -6.7988905    16.987602  0.026215434  0.033012022            2 
   55000    1.1729706   -6.7491385    17.337045  0.026268249  0.032992757            2 
   56000     1.191773   -6.7681314    17.763986  0.026434503  0.032971975            1 
   57000    1.1536876   -6.8061067    18.151301  0.026536989  0.032940837            2 
   58000    1.1800151   -6.7971451    18.349589  0.026364351  0.032891628            2 
   59000    1.1666297   -6.8231738    18.743395  0.026473722  0.032836918            2 
   60000    1.1867055   -6.8341443    19.087845  0.026510896  0.032787348            2 
   61000    1.1568934   -6.8182354     19.43646  0.026552541  0.032732184            2 
   62000    1.1745047   -6.8385616    19.752275  0.026548756   0.03267522            2 
   63000    1.1672444   -6.8348519    20.093403  0.026578575  0.032610877            5 
   64000    1.1562453    -6.870158    20.499518  0.026692081  0.032557157            2 
   65000    1.1649299   -6.8252765    20.978158  0.026895074  0.032514555            3 
   66000    1.1838876   -6.8057647    21.195618  0.026762143  0.032473174            5 
   67000    1.1773018   -6.8499604    21.513504  0.026758089  0.032406642            2 
   68000     1.168071   -6.8597102    21.769478  0.026678282  0.032329912            3 
   69000    1.1563443   -6.9288364     22.12061  0.026715713  0.032255742            4 
   70000    1.1413667   -6.8198274    22.584744    0.0268866  0.032194353            4 
   71000    1.1505299   -6.8660009    22.961959  0.026950656  0.032147374            3 
   72000    1.1710423    -6.808766    23.332226  0.027004891   0.03209569            3 
   73000    1.1645329   -6.8358153    23.444424   0.02676304  0.032016746            6 
   74000    1.1580378   -6.8664231    23.759087  0.026755729   0.03193002            4 
   75000    1.1691456    -6.846848    24.133642  0.026815158  0.031850044            2 
   76000    1.1745632   -6.8659996    24.338496  0.026686947  0.031765275            2 
   77000    1.1645447   -6.8846996    24.591543  0.026614224  0.031679793            2 
   78000    1.1384525   -6.8826922    24.959394  0.026666019  0.031583666            2 
   79000    1.1457787   -6.9267778    25.112206  0.026489669  0.031473885            4 
   80000    1.1423217   -6.8846488    25.324737  0.026379934   0.03136186            3 
   81000    1.1688506   -6.9210333    25.595594  0.026332915  0.031247792            3 
   82000    1.1229573   -6.8696185    25.981493  0.026403956  0.031138135            4 
   83000    1.1307582   -6.8871973    26.208951  0.026314208   0.03103157            4 
   84000    1.1281774   -6.9057186    26.546846  0.026336156  0.030924693            2 
   85000    1.1269632   -6.9520322    26.651694  0.026129111  0.030812118            2 
   86000    1.1355091   -6.9233674     27.11976  0.026278837  0.030701709            2 
   87000    1.1376114   -6.9398409    27.262987  0.026113972  0.030595856            2 
   88000    1.1455699   -6.9359269    27.681105  0.026213168  0.030495971            2 
   89000    1.1166688    -6.939509    28.169486  0.026375923  0.030402664            2 
   90000     1.143544   -6.9324557    28.497813  0.026386864  0.030320917            3 
   91000    1.1037136    -6.936612    28.654028  0.026239953   0.03023955            4 
   92000    1.1085096   -6.9426809    28.959271  0.026231224  0.030152973            4 
   93000    1.1126321   -6.8950526    29.482404  0.026417925  0.030079636            7 
   94000    1.1262183   -6.9017366    29.799064   0.02641761  0.030010383            1 
   95000    1.0893636   -6.9032277    29.968437  0.026288103   0.02993626            3 
   96000    1.1111171   -6.9166553    30.209607  0.026223617  0.029856478            3 
   97000    1.1099082   -6.9736476    30.386175  0.026104961  0.029777865            2 
   98000    1.0803379   -7.0196318    30.670862  0.026080665  0.029696037            4 
   99000    1.1194141   -6.9956212    31.032506  0.026121638  0.029617413            2 
  100000    1.1309519   -7.0330088     31.28925  0.026074375  0.029539155            3 
  101000    1.1177356   -6.9646962    31.672037  0.026132043   0.02945879            2 
  102000    1.1018572   -7.0197378     31.92768  0.026084706   0.02938213            1 
  103000     1.109776   -6.9480804    32.250707  0.026092805  0.029307179            1 
  104000    1.0938338   -7.0074508    32.612338  0.026131681  0.029235864            3 
  105000    1.0880835   -6.9902104    32.932176  0.026136648  0.029170098            4 
  106000     1.114668   -7.0165852    33.072296  0.026000233  0.029101118            5 
  107000    1.1051631    -7.044783    33.403211  0.026014962  0.029033799            7 
  108000       1.0886   -7.0183924    33.664836  0.025975953  0.028965927            3 
  109000     1.104473   -6.9998358    33.745799   0.02579954  0.028893839            2 
  110000    1.0968368   -7.0294628     34.14519  0.025867568  0.028817925            6 
  111000    1.0936889   -6.9978089    34.453819   0.02586623   0.02874456            7 
  112000    1.0783416   -7.0242352    34.750292  0.025855872  0.028675306            2 
  113000    1.0916254   -7.0227145    34.777183   0.02564689  0.028597073            3 
  114000    1.0947786   -6.9706305    35.080188  0.025643412  0.028515225            3 
  115000    1.0805976   -6.9971395    35.458498  0.025694564  0.028438577            3 
  116000    1.0865663   -7.0480313    35.673391  0.025627436  0.028365667            3 
  117000    1.0894833    -7.055742    35.819213   0.02551226  0.028289909            3 
  118000    1.0742092   -7.1164985     36.03455  0.025448129  0.028216584            5 
  119000    1.0970036   -7.0382972    36.664696  0.025675558  0.028149724            2 
  120000    1.0819747   -7.0488905    37.018665  0.025707406  0.028088267            2 
  121000    1.0722846   -7.0766626    37.141618  0.025579626  0.028027015            4 
  122000    1.0648682   -7.0708274    37.198747   0.02540898  0.027959957            6 
  123000    1.0795713   -7.1375526    37.221912  0.025218098   0.02788812            3 
  124000     1.067428   -7.0908545    37.712188  0.025344212  0.027815221            3 
  125000    1.0866017   -7.1356675    37.708275   0.02513885   0.02774227            2 
  126000    1.0732749   -7.1240252    38.041899  0.025159986  0.027668227            4 
  127000    1.0949696   -7.1000009    38.155994  0.025036741  0.027590272            3 
  128000    1.0580793   -7.0648349    38.459548  0.025038768  0.027512422            3 
  129000    1.0630591   -7.1309376    38.575996  0.024919894  0.027433376            3 
  130000    1.0739875   -7.1336479    38.628979  0.024762166  0.027355692            4 
  131000    1.0610771   -7.1560816    38.898586  0.024744647  0.027275515            4 
  132000    1.0550446   -7.1157565    39.220592  0.024760474  0.027197088            3 
  133000    1.0591969   -7.1502051    39.424894  0.024702315  0.027117185            5 
  134000    1.0471423   -7.0952726    39.725507  0.024704917  0.027041236            4 
  135000    1.0848763   -7.1006421    40.000443  0.024691631  0.026967799            3 
  136000    1.0464449    -7.147986    40.350847  0.024724784   0.02689739            7 
  137000    1.0489974   -7.1613807    40.428183  0.024591352   0.02682706            3 
  138000    1.0331546   -7.1188786    40.681833  0.024566324  0.026755295            5 
  139000    1.0770291   -7.1524699    40.829296  0.024477995  0.026682929            5 
  140000    1.0589338   -7.1743964    41.148505  0.024493157   0.02661078            3 
  141000    1.0315254   -7.2023095    41.352883  0.024440238  0.026539311            4 
  142000    1.0504683   -7.1822517    41.396403  0.024293664  0.026466672            4 
  143000    1.0550689   -7.1749337    41.722407  0.024313757  0.026391153            3 
  144000    1.0351264    -7.143791    42.108228  0.024368187  0.026320753            9 
  145000    1.0318581   -7.1257032    42.379315  0.024355928  0.026250849            3 
  146000    1.0513893   -7.1534575    42.414848  0.024209388  0.026181637            6 
  147000    1.0485939   -7.2051135    42.430802  0.024053742   0.02611141            6 
  148000    1.0340565   -7.2270466    42.757468  0.024075151  0.026039918            4 
  149000    1.0247006    -7.151192    43.156044   0.02413649  0.025971607            2 
  150000     1.026144   -7.1578505    43.364964  0.024091647  0.025908196            5 
  151000    1.0523541   -7.1818386    43.548446  0.024033359  0.025842037            3 
  152000    1.0416109   -7.2300066    43.763302  0.023993038  0.025773842            3 
  153000    1.0098202   -7.2168618    43.892892  0.023906804  0.025706101            3 
  154000    1.0264868   -7.2307511    43.983858  0.023800789  0.025636019            5 
  155000   0.99950681   -7.2225809    44.296212  0.023815167  0.025566423            3 
  156000    1.0237347   -7.2269397    44.358513  0.023695787  0.025496803            4 
  157000    1.0413735   -7.2440582    44.488087  0.023613634  0.025425331            4 
  158000    1.0411803   -7.2581148    44.480723  0.023460297  0.025352659            6 
  159000    1.0144841   -7.2341007    44.979674  0.023574252  0.025280447            5 
  160000    1.0076579   -7.2920062     45.00449  0.023439838  0.025211147            5 
  161000    1.0035421   -7.2820436    45.323113  0.023459168  0.025142493           14 
  162000   0.99408354   -7.2572843     45.34402  0.023325113  0.025072359            5 
  163000   0.99758373   -7.2497214    45.571643  0.023298386  0.025000207            4 
  164000    1.0019611   -7.2610209    45.640922  0.023191525  0.024927744            9 
  165000    1.0126879    -7.252004    45.881123  0.023172284  0.024856651            2 
  166000    1.0004571   -7.2820702    45.955935  0.023070249  0.024783195            4 
  167000   0.97754712   -7.2813839    46.147251   0.02302757  0.024709256            4 
  168000    0.9649207   -7.2890793    46.231733  0.022932407  0.024635383            4 
  169000    1.0054812   -7.3170979    46.411848  0.022885527  0.024560475            7 
  170000   0.97601117   -7.2874284    46.716406  0.022900199  0.024487152            3 
  171000   0.98574144   -7.2817379    46.859467  0.022835998  0.024413908            6 
  172000   0.99402238   -7.2815835     47.02233  0.022782137  0.024341925            2 
  173000   0.99109358   -7.3082349    47.071814  0.022674284   0.02426878            8 
  174000   0.99444054   -7.2967285    47.280673     0.022644  0.024195941            4 
  175000   0.98146636   -7.3627926     47.54644  0.022641162  0.024125021            3 
  176000   0.98644832   -7.3297561    47.852628  0.022657494  0.024056412            4 
  177000   0.98671703   -7.3177089    47.828759  0.022518248   0.02398805            4 
  178000   0.98755377   -7.3240088     47.95622  0.022451414  0.023918547            4 
  179000   0.98735602   -7.3330401     48.04791  0.022368673  0.023848032            4 
  180000   0.96566587   -7.3143287    48.470968  0.022440263  0.023779628            7 
  181000   0.98594378   -7.3334526    48.480329  0.022320593  0.023711303            6 
  182000   0.98002082   -7.3166223    48.596158  0.022250988  0.023642104            3 
  183000   0.98632644   -7.3530918     48.59696  0.022129763  0.023571689            5 
  184000   0.97567409   -7.4045221     48.71477  0.022062849  0.023499114            4 
  185000   0.97899837   -7.4285855     48.73061  0.021950725  0.023424812            6 
  186000   0.96011573   -7.3765193    48.975681  0.021942509  0.023353397            4 
  187000   0.97922006   -7.3836817    49.225599  0.021936542  0.023281156            7 
  188000   0.95176371   -7.4011556     49.32152  0.021862376  0.023209906            5 
  189000   0.96238168   -7.3971719    49.387977  0.021776004  0.023138104            8 
  190000    0.9711623   -7.4214018    49.571562  0.021741913  0.023065992            5 
  191000    0.9762382   -7.3841813    49.783483  0.021720542  0.022994848            3 
  192000   0.98807657    -7.393264    49.757908  0.021596314  0.022924175           10 
  193000   0.97886459   -7.3954265    50.057405  0.021613733  0.022854532            3 
  194000   0.96578918   -7.4035615     50.08663  0.021514875  0.022784191            5 
  195000    0.9601233   -7.4290079    50.117874  0.021417895  0.022712382            3 
  196000   0.95906944   -7.4344863    50.312137  0.021391215  0.022642077            5 
  197000   0.95999629   -7.4012961    50.428041  0.021331659  0.022571006            4 
  198000   0.96224468   -7.3775689    50.444414  0.021230814  0.022499392            9 
  199000   0.95560324   -7.3944317    50.566098  0.021175083  0.022427792            2 
  200000   0.93542636   -7.4526399    50.620535  0.021091889  0.022356164            4 
  201000   0.95708873   -7.4708008    50.648192  0.020998421  0.022283458            4 
  202000   0.95906544   -7.4258218    50.697593  0.020914849  0.022210498            4 
  203000   0.94592421   -7.5089187    50.825119   0.02086417  0.022137874            4 
  204000   0.91435007   -7.4574246    51.028012  0.020844776  0.022065595           13 
  205000   0.94268425   -7.4941852    51.006832  0.020734484  0.021992756            9 
  206000   0.93559835   -7.4701419    51.094787  0.020669412   0.02192001            6 
  207000   0.93882155   -7.4942404    51.447473  0.020711543  0.021847727            6 
  208000   0.94944628   -7.4550623    51.534968  0.020647023   0.02177577            5 
  209000   0.93104273   -7.4919064    51.479525  0.020526126  0.021704479           11 
  210000   0.93052059   -7.4749602    51.603044  0.020477399  0.021631717           11 
  211000   0.91924585   -7.4794723     51.81802  0.020465253  0.021560265            6 
  212000   0.92416458   -7.4861437    51.818674  0.020368976  0.021488687           10 
  213000   0.94563865   -7.5095457    51.966249  0.020331083  0.021418721            9 
  214000   0.91393244   -7.4819204    52.030727  0.020261187  0.021348714            2 
  215000   0.93779428   -7.5095711     52.20341   0.02023388  0.021278306            4 
  216000   0.92711864   -7.5495811    52.170292  0.020127427  0.021207302           10 
  217000   0.92142635   -7.5211006    52.331744  0.020096676  0.021137268            8 
  218000   0.91754442   -7.5042083    52.532405  0.020081194  0.021067192            7 
  219000    0.9164925    -7.551687    52.545814  0.019994602  0.020996832            5 
  220000   0.90325554   -7.5300416    52.875669  0.020028662  0.020927567            9 
  221000   0.89962262   -7.5491198    52.656763  0.019855491  0.020858912            9 
  222000   0.89041771   -7.5210236    52.823532  0.019828653  0.020790493            7 
  223000   0.87780589   -7.5446001    52.850532  0.019749825  0.020721427            8 
  224000   0.91883669   -7.5839133    53.136393  0.019768003  0.020652055            8 
  225000   0.90334666   -7.5576586    53.108949  0.019669981  0.020583606            5 
  226000   0.92092825   -7.5759968    53.241625  0.019631868  0.020515379            6 
  227000   0.89486406   -7.5764454    53.289012   0.01956278  0.020447765            5 
  228000   0.89912187   -7.5663703    53.486903  0.019549307  0.020379805           14 
  229000     0.877804   -7.5895165    53.605057  0.019506935  0.020313135           19 
  230000   0.90398453   -7.5746226    53.627455  0.019430237  0.020246526            9 
  231000   0.87416334   -7.5837339     53.64161   0.01935123  0.020179562            6 
  232000   0.88791996   -7.5761127    53.775069  0.019315758  0.020112805           10 
  233000   0.87444718   -7.5830134    53.916744  0.019283528  0.020046089            9 
  234000   0.87836003   -7.6066245    53.878824  0.019187615  0.019979781            7 
  235000   0.91285176   -7.6135249    54.002068  0.019149669  0.019913279            6 
  236000   0.89736085   -7.6386506    53.898923  0.019032106  0.019846153           15 
  237000   0.88379307   -7.6370988    54.122781  0.019030514  0.019778706           19 
  238000   0.88348959    -7.617666    54.043149  0.018922671   0.01971206           16 
  239000   0.88701572   -7.6453296    54.036114  0.018841044  0.019644985            7 
  240000   0.86514835   -7.6408638    54.250195  0.018836873   0.01957776            7 
  241000   0.87748852   -7.6161188    54.253629  0.018759899  0.019511092            5 
  242000    0.8795614   -7.6795757    54.231789  0.018674858  0.019444001            7 
  243000    0.9002896   -7.6637308    54.329096  0.018631377  0.019377005            9 
  244000   0.87473529   -7.6680254    54.302804   0.01854604  0.019309389            6 
  245000    0.8703902    -7.677039    54.371116  0.018493577  0.019241968            9 
  246000   0.87011617   -7.6789542     54.52461  0.018470396  0.019174615            8 
  247000   0.88141955   -7.6408222    54.580987  0.018414638   0.01910744            7 
  248000   0.87201334   -7.6832072    54.540851  0.018326899  0.019040663           26 
  249000   0.88938813   -7.7001133     54.63404  0.018284485  0.018973528           21 
  250000   0.85463994   -7.7001594    54.579755  0.018193252  0.018906031            6 
  251000   0.85010779   -7.6558593    54.721246  0.018167744  0.018839135            8 
  252000   0.86834969   -7.6699679    54.867344  0.018143963  0.018772538           11 
  253000   0.86566009     -7.69042    54.654429  0.018002117  0.018705702           25 
  254000   0.84910962    -7.737691    54.709873  0.017949433  0.018638833           30 
  255000   0.86462585   -7.6921807    55.005927  0.017975793  0.018572532           37 
  256000   0.85146672   -7.7245571    54.982518  0.017897955  0.018506751           23 
  257000   0.87184433   -7.7033804    55.062958  0.017854396  0.018441099           24 
  258000   0.85023801   -7.6888363    55.191933  0.017826852  0.018376213           24 
  259000   0.83763933   -7.7309074    55.179789  0.017754115  0.018310967            8 
  260000   0.84244044   -7.7474636    55.108649  0.017663028  0.018245707           10 
  261000   0.85030797   -7.7686897    55.125635  0.017600778  0.018180737           13 
  262000   0.85554574   -7.7716835    55.138813   0.01753779  0.018116141           27 
  263000   0.83672855   -7.7672971     55.40462  0.017555329  0.018051904           17 
  264000   0.83075301   -7.7608907    55.250386  0.017440147  0.017987273           41 
  265000   0.85387287   -7.7255639    55.482002   0.01744717   0.01792292           21 
  266000   0.86115824   -7.8004093    55.243311  0.017306802  0.017857797           10 
  267000   0.83357582   -7.7921042    55.444503  0.017304776  0.017792835           25 
  268000   0.81084635   -7.7820444    55.347367  0.017210002  0.017727738           21 
  269000   0.84641433   -7.7879381    55.257685  0.017118242  0.017662547           18 
  270000    0.8428951   -7.8065084    55.375641  0.017091247  0.017597707           20 
  271000   0.84894575   -7.7747783    55.649784   0.01711248  0.017533328           31 
  272000   0.84547564   -7.7783007    55.459437  0.016991249  0.017468723            7 
  273000   0.84005412   -7.8136511    55.534983   0.01695207  0.017404381            6 
  274000   0.82434059    -7.782681     55.55721  0.016896962  0.017340359           15 
  275000   0.83757832   -7.8393902    55.497346  0.016817378  0.017276343           33 
  276000   0.83401816   -7.8215723    55.604112  0.016788681  0.017212774           20 
  277000   0.83643968   -7.8417225    55.701915  0.016757495  0.017149346           20 
  278000   0.82876766   -7.8220581    55.894743  0.016755019  0.017086879           15 
  279000   0.83858067   -7.8175518    55.988228  0.016722888  0.017024648           20 
  280000   0.82165952   -7.8035339    55.741049  0.016589598   0.01696226           13 
  281000   0.83590114   -7.8179258    56.014076  0.016611529  0.016900493           13 
  282000   0.79468812   -7.8522342    55.844101  0.016502394  0.016838843           15 
  283000   0.83255678   -7.8371261    55.796504  0.016430066  0.016776586           36 
  284000   0.82155671   -7.8503452    55.871744  0.016394291  0.016714469           33 
  285000   0.81964302   -7.8605739    55.852746  0.016331212  0.016652295           30 
  286000   0.79641458   -7.8828778     55.99773  0.016316355  0.016590765           13 
  287000   0.81027047   -7.8985461    55.875485  0.016224008  0.016528781           14 
  288000   0.80869351     -7.91239    55.873486  0.016167097  0.016467155           10 
  289000   0.79669464    -7.916473    56.028076  0.016155731  0.016405842           37 
  290000   0.80484283   -7.9303451     55.88063  0.016057652  0.016344575           17 
  291000   0.81025832   -7.8907997    55.997005  0.016035798  0.016283436           30 
  292000    0.8075875   -7.9424763    55.810684  0.015927707   0.01622221           22 
  293000   0.78234332   -7.8962644    56.034266  0.015936936  0.016161564           32 
  294000   0.81001271    -7.912451     56.02906  0.015881253  0.016101209           38 
  295000   0.79762645   -7.9005688    56.017379  0.015824118  0.016040891           37 
  296000   0.77037962   -7.9387706    56.057215  0.015781874  0.015980846           15 
  297000   0.79209144   -7.9166144    56.062072  0.015730099  0.015920617           10 
  298000   0.79074342   -7.9341886    55.997676  0.015659305  0.015860383           51 
  299000   0.77856102   -7.9513002    56.102669  0.015636195  0.015800473           18 
  300000   0.79781535   -7.9572221     55.92248  0.015534022  0.015740398           46 
  301000     0.781954   -7.9760073    56.034883  0.015513533   0.01568041           19 
  302000    0.7875277    -7.983175    55.992043  0.015450343  0.015620873           25 
  303000   0.78373206   -7.9883058    56.058782  0.015417707  0.015561511           14 
  304000   0.78397513   -7.9571167    55.967217  0.015341891  0.015502136           19 
  305000   0.77245918   -7.9818124    56.128229  0.015335582  0.015443105           19 
  306000   0.78001125    -7.963624    56.109788  0.015280443  0.015384466            9 
  307000   0.78579834   -7.9748761    56.124617  0.015234695  0.015326041           28 
  308000    0.7898702   -8.0122946    56.081816  0.015173652   0.01526758           15 
  309000   0.76463606   -8.0007726    56.052762   0.01511671  0.015209226           31 
  310000   0.77628143   -8.0081764    56.070813  0.015072799  0.015151144           34 
  311000   0.76262139   -8.0170802    56.149628  0.015045452  0.015092675           74 
  312000   0.76192298   -8.0193766    56.005084  0.014958623    0.0150345           46 
  313000   0.77019873   -8.0182668    56.202468  0.014963383  0.014976599           18 
  314000   0.77464929   -8.0135084    56.235273  0.014924435  0.014919032           34 
  315000   0.77103239    -8.026716    56.213606  0.014871324  0.014861641           22 
  316000   0.77563065   -8.0377891    56.096653  0.014793421    0.0148043           40 
  317000   0.76631491   -8.0397673    56.022243  0.014727193  0.014747036           33 
  318000    0.7575212   -8.0286125    56.142866  0.014712491  0.014690002           25 
  319000   0.75634678   -8.0399707    56.279915  0.014702172  0.014633355           18 
  320000   0.75511814   -8.0351523    56.192761  0.014633532  0.014577223           35 
  321000   0.74786123   -8.0503153    56.361566  0.014631767  0.014521261           48 
  322000   0.75619215   -8.0606192    56.066176   0.01450988   0.01446557           27 
  323000    0.7517894   -8.0514543    56.301665  0.014525713  0.014410345           18 
  324000   0.76712678   -8.0529148    56.193405  0.014453036  0.014355027           28 
  325000    0.7499618   -8.0663449    56.315587  0.014439894  0.014299946           28 
  326000   0.76189599   -8.0760364    56.226743  0.014372889  0.014244949           35 
  327000   0.73117471   -8.0619076    56.272655  0.014340636  0.014190195           28 
  328000   0.72969135    -8.105655    56.045826  0.014239285  0.014135515           64 
  329000   0.75317373   -8.1108122     56.10247  0.014210352  0.014080728          106 
  330000   0.73735091   -8.0853505    56.138297  0.014176338  0.014026104           74 
  331000   0.74472039   -8.1049029    56.308251  0.014176297  0.013972029           80 
  332000   0.74384641   -8.0985988    56.211152  0.014109225  0.013917704           61 
  333000   0.72448512   -8.1357545    56.095647   0.01403795   0.01386395           49 
  334000   0.74268794   -8.1399337     56.11572  0.014000928  0.013810284           65 
  335000    0.7323062   -8.1218031    56.195271  0.013978923  0.013756718           33 
  336000   0.72546069   -8.1508541    56.079762  0.013908671  0.013703193          111 
  337000   0.72553178   -8.1643962     56.16724  0.013889031  0.013649872           41 
  338000   0.71828091   -8.1759023    56.056252  0.013820575  0.013596737          105 
  339000   0.74105655   -8.1769231    55.989482  0.013763393  0.013543769           69 
  340000   0.72567173   -8.1369667    56.220041  0.013779422  0.013490949           91 
  341000    0.7228373   -8.1527331     56.24607  0.013745374  0.013438496           97 
  342000   0.73593964   -8.1558804    56.163489  0.013685061  0.013386333          123 
  343000   0.72179648   -8.1605263    56.100318  0.013629815  0.013334246           82 
  344000   0.71990461   -8.1808126    56.015688  0.013569692  0.013282194          104 
  345000   0.74386238   -8.1830115    55.948338  0.013514091  0.013230061           30 
  346000   0.72802714    -8.224774    55.986996  0.013484344  0.013178293           55 
  347000   0.72407785   -8.1927665     56.06545  0.013464325  0.013126685           85 
  348000   0.72183016   -8.2213361    56.022515  0.013415353  0.013075461           84 
  349000   0.71478579   -8.2091431    55.948259  0.013359183  0.013024353           68 
  350000   0.70827683   -8.1891698    56.223617  0.013386576  0.012973751           60 
  351000   0.69888008   -8.1957685    56.110613  0.013321608  0.012923493           75 
  352000   0.71804174   -8.2015429     56.05765  0.013271224  0.012873252           87 
  353000   0.70370814   -8.2198921    56.072057   0.01323703  0.012823114           86 
  354000   0.70177236   -8.2508295    55.937172  0.013167884  0.012772978           70 
  355000   0.68711654   -8.2182194    56.071467  0.013162316  0.012723216           78 
  356000   0.70981626    -8.226904    56.016995  0.013112592  0.012673548          117 
  357000   0.70494941   -8.2331925    55.966268  0.013064022  0.012624143           70 
  358000   0.68157093   -8.2411477    56.095168  0.013057534  0.012575025           94 
  359000   0.68682108   -8.2471416    55.881354  0.012971531  0.012525893           90 
  360000   0.68930803   -8.2442437    56.050287  0.012974603  0.012477059           85 
  361000   0.68445569   -8.2658433    55.960634  0.012917967  0.012428395           86 
  362000     0.686594   -8.2378223    56.089168  0.012911871   0.01237988           75 
  363000   0.67456896   -8.2731697    55.875253  0.012827193  0.012331582           92 
  364000   0.69239743   -8.2738793    55.848515  0.012785832  0.012283518           59 
  365000   0.68264909   -8.2823837    56.050487  0.012796915  0.012235614           74 
  366000   0.69759119   -8.3003695    55.814694  0.012708264  0.012187755           61 
  367000   0.66697019   -8.2525928    55.876569  0.012687686  0.012140129           50 
  368000   0.67752811   -8.2759116    55.857656  0.012648926  0.012092554          123 
  369000   0.67798137   -8.2820892    55.969458  0.012639896  0.012045539           81 
  370000   0.67264763    -8.301949    56.029342  0.012619221  0.011998498           57 
  371000   0.67259406    -8.298619    55.811227  0.012536215  0.011951688           60 
  372000   0.66077786   -8.2871659    55.793948  0.012498644  0.011905118           78 
  373000   0.67060711   -8.3015383     55.82965  0.012473112  0.011858671           74 
  374000   0.67332214   -8.3222457    55.880532  0.012451099  0.011812545           51 
  375000   0.68069972   -8.3068185    55.913738  0.012425275  0.011766645           90 
  376000   0.68244198   -8.2846982    55.924981  0.012394721  0.011720937           39 
  377000   0.67995712   -8.3113451    55.977841  0.012373528  0.011675371           48 
  378000   0.67411391   -8.3022871    55.811995  0.012304232  0.011629887           57 
  379000   0.67652408   -8.2950427    55.858616  0.012282018   0.01158465           51 
  380000     0.667865   -8.3062801    55.882412  0.012254915  0.011539521           73 
  381000   0.65459687    -8.314974    55.869459  0.012219917  0.011494604          141 
  382000   0.66727847   -8.3329983    55.776255  0.012167595  0.011449847           59 
  383000   0.64122772   -8.3302308    55.676419  0.012114103  0.011405345           72 
  384000   0.65459343   -8.3391351    55.851893  0.012120636  0.011361183           52 
  385000   0.63995211   -8.3678476     55.74606  0.012066247  0.011317096           53 
  386000   0.64963784   -8.3217315     55.77043  0.012040248  0.011273174           54 
  387000   0.65356803   -8.3573413    55.730124  0.012000457  0.011229645           66 
  388000   0.65668507   -8.3789803    55.781506  0.011980564  0.011186101           89 
  389000   0.64756772   -8.3611718    55.707203  0.011933848  0.011142801           82 
  390000    0.6398474   -8.3531544    55.702595  0.011902264  0.011099647          105 
  391000   0.64205306   -8.3775536     55.72749  0.011877129  0.011056684           84 
  392000   0.64173524   -8.3652897     55.67136  0.011834898  0.011013927           90 
  393000    0.6353298   -8.3503333    55.835928  0.011839679   0.01097144           96 
  394000   0.63555374   -8.3597391    55.729183  0.011787052  0.010929082           63 
  395000   0.64680198    -8.369859    55.794162   0.01177092  0.010886884           46 
  396000   0.62675751    -8.373848     55.71955  0.011725495  0.010844904           94 
  397000   0.64169025   -8.3872141    55.688679  0.011689479  0.010803113           59 
  398000   0.63119981   -8.3938306    55.794918  0.011682353   0.01076156           88 
  399000   0.62245631   -8.3898053    55.741554  0.011641929  0.010720121           68 
  400000   0.62520363   -8.3964039    55.644951  0.011592698  0.010678909           70 
  401000   0.63017946   -8.3950397    55.712598  0.011577847  0.010637721           88 
  402000   0.62954673   -8.4047142    55.526574  0.011510484  0.010596745           61 
  403000   0.62858728   -8.3991769     55.54782  0.011486315  0.010555913           90 
  404000   0.63155744   -8.4185596    55.575684  0.011463631  0.010515247           62 
  405000   0.62015315    -8.393978    55.751833  0.011471571  0.010474905           63 
  406000   0.61840345   -8.4120366    55.526874  0.011397142   0.01043474           65 
  407000   0.62238094   -8.4144507    55.616194  0.011387427  0.010394731           71 
  408000   0.61445984   -8.4192041    55.580779  0.011352283  0.010354916           54 
  409000   0.62601666   -8.4162105      55.6416  0.011336919  0.010315404           72 
  410000   0.59820372   -8.4247193    55.704638  0.011322081  0.010276052           61 
  411000   0.61871332    -8.423548    55.672585  0.011288034  0.010236969           69 
  412000   0.61734715   -8.4360157    55.673432  0.011260807  0.010197967           65 
  413000   0.60939309   -8.4314493    55.605839  0.011219903   0.01015918           73 
  414000   0.60492576    -8.426923    55.433545  0.011158121  0.010120438           56 
  415000   0.60194005   -8.4457032    55.606764  0.011166017  0.010082025           63 
  416000   0.60579005   -8.4273041    55.704368  0.011158728  0.010043772           70 
  417000   0.60722906   -8.4379292    55.473627  0.011085857  0.010005741           80 
  418000   0.60376911   -8.4374429    55.552681  0.011075096 0.0099677372          128 
  419000    0.5925032   -8.4616102    55.501881   0.01103856 0.0099298654           54 
  420000   0.58933806   -8.4702488    55.503334  0.011012566 0.0098921934           60 
  421000   0.59524713   -8.4892189    55.441289  0.010974127 0.0098547082           76 
  422000   0.58897379   -8.4491602    55.532813  0.010966195 0.0098174361           73 
  423000   0.59646787   -8.4756233    55.457545  0.010925442 0.0097803925           68 
  424000   0.59552055   -8.4741461    55.476483  0.010903397 0.0097434326           73 
  425000   0.59169954   -8.4748893    55.504617  0.010883258 0.0097066009           83 
  426000   0.58374292   -8.4929201    55.374002   0.01083216 0.0096699235           81 
  427000   0.58725028   -8.4806149    55.442305  0.010820122 0.0096334685           85 
  428000   0.59914863   -8.4925577    55.476265  0.010801453 0.0095971979           68 
  429000    0.5932654    -8.474407    55.529615  0.010786638 0.0095611183           82 
  430000    0.5909319   -8.5052825    55.460385  0.010748137  0.009525227           67 
  431000   0.57592257   -8.4882902    55.522403   0.01073519 0.0094894352           74 
  432000    0.5788593   -8.5148299    55.415967  0.010689808 0.0094539419           71 
  433000   0.57497494   -8.4994659    55.384478   0.01065906  0.009418539           85 
  434000   0.58629337    -8.494053     55.42472  0.010642227 0.0093833135           97 
  435000   0.58103551   -8.5056651    55.518716  0.010635769  0.009348284           67 
  436000   0.57503186   -8.4892868    55.469909  0.010602047 0.0093135085           69 
  437000   0.57470048   -8.5043289    55.466603  0.010577155 0.0092787817           62 
  438000   0.55905144   -8.4974366     55.40128  0.010540578 0.0092441629           90 
  439000   0.56258843   -8.4995978    55.419872  0.010520097 0.0092097713           58 
  440000   0.55558143   -8.5283618    55.330328  0.010479229 0.0091755032           87 
  441000   0.55931037   -8.5171164    55.385181  0.010465832 0.0091413344           63 
  442000   0.55801425   -8.5118991    55.321271  0.010430104 0.0091074611           92 
  443000   0.57024354   -8.5266392     55.25378  0.010393864 0.0090736511          140 
  444000   0.55483493   -8.5146935    55.269229  0.010373354 0.0090399699           78 
  445000   0.55482837   -8.5284112    55.353132  0.010365755 0.0090065101          123 
  446000   0.55594636   -8.5304882    55.399757  0.010351225   0.00897315           64 
  447000    0.5586913   -8.5272463    55.367987  0.010322145 0.0089400044           78 
  448000   0.54282152   -8.5492142    55.336157  0.010293184 0.0089070048           74 
  449000   0.55355963   -8.5301642    55.369904  0.010276523 0.0088741713           75 
  450000   0.54767279   -8.5439774    55.367677  0.010253273 0.0088415238           88 
  451000   0.54324014   -8.5551301    55.364259  0.010229907  0.008808983          105 
  452000   0.54415945   -8.5512562    55.252364  0.010186645 0.0087766017          100 
  453000    0.5435202   -8.5378584    55.316436  0.010175945 0.0087443668           81 
  454000   0.53949385   -8.5607919     55.34925  0.010159554 0.0087123332           59 
  455000   0.54345609   -8.5438069    55.333836  0.010134402 0.0086804044           86 
  456000   0.53610603   -8.5371738     55.36989  0.010118766 0.0086486649          103 
  457000   0.54615107   -8.5593037     55.30895  0.010085512 0.0086170527           77 
  458000   0.53902055   -8.5730457    55.288439   0.01005976 0.0085856361          105 
  459000   0.53248861   -8.5657826    55.373726  0.010053327  0.008554349           92 
  460000   0.52863359   -8.5687382    55.255313   0.01001002 0.0085231909           70 
  461000   0.53133754   -8.5740954    55.322144  0.010000387 0.0084921822          131 
  462000    0.5303973   -8.5794417    55.219456 0.0099602192 0.0084613513           69 
  463000   0.51701673   -8.5613954    55.246108 0.0099435039 0.0084306509           81 
  464000   0.53150325   -8.5798403    55.379685 0.0099460641 0.0084000869          103 
  465000   0.52776481   -8.5726931    55.293739 0.0099092722 0.0083696888           71 
  466000     0.534035   -8.5783172    55.285567 0.0098865464 0.0083393918           98 
  467000   0.54148258   -8.5720427    55.225598 0.0098546749 0.0083092258           84 
  468000   0.51814687   -8.5663239    55.266572 0.0098409137 0.0082792579           82 
  469000   0.51732622   -8.5850513     55.22319 0.0098122228 0.0082493614          107 
  470000   0.51442489   -8.5930852    55.278614 0.0098011726  0.008219641           82 
  471000   0.51277866   -8.5959129    55.233236 0.0097723348 0.0081900604           79 
  472000   0.49771181   -8.5985801     55.24444 0.0097536087 0.0081606292           97 
  473000   0.50824649   -8.6011843    55.262326 0.0097361392 0.0081313476          106 
  474000   0.50469443   -8.5881773     55.12049 0.0096906628 0.0081021824          106 
  475000   0.51188377   -8.6186377    55.125923 0.0096712145 0.0080731574           74 
  476000   0.51510601   -8.6022468    55.238609 0.0096706248 0.0080442812           94 
  477000   0.50816338   -8.6054022    55.240616 0.0096507017  0.008015485          102 
  478000   0.49906069   -8.6132159    55.180347 0.0096200047 0.0079868902           94 
  479000   0.50856915   -8.6196255    55.131113 0.0095913558 0.0079583961          107 
  480000   0.49533706   -8.6281839    55.228501 0.0095882815 0.0079300572           86 
  481000   0.49865205   -8.6161858    55.242105 0.0095707042 0.0079018261           77 
  482000   0.48707586   -8.6324764      55.1037 0.0095269192 0.0078737046           75 
  483000   0.49260454   -8.6174602    55.153408 0.0095157708 0.0078456723          105 
  484000   0.49370729   -8.6268105    55.136215 0.0094931499 0.0078178245           80 
  485000   0.49240148   -8.6198487    55.047648 0.0094583588 0.0077900442           76 
  486000   0.48441407   -8.6204467    55.093928 0.0094468326 0.0077624182           81 
  487000   0.48844334   -8.6394908    55.227129 0.0094502274 0.0077349563           87 
  488000   0.48506751   -8.6541502    55.055868 0.0094016168 0.0077076502           79 
  489000     0.487824   -8.6216428    55.009549 0.0093744972 0.0076804114           97 
  490000   0.48379308   -8.6508415     55.10446 0.0093715068 0.0076532959           87 
  491000   0.48358196   -8.6435749     55.24505 0.0093762813 0.0076263749           86 
  492000   0.47650646   -8.6410796    55.120413 0.0093361134 0.0075995255           63 
  493000   0.48643932   -8.6515521    55.104716 0.0093145227 0.0075728576           74 
  494000   0.48432721   -8.6401934    55.062974 0.0092886259 0.0075462924          119 
  495000   0.47426398   -8.6504344    55.149232 0.0092843825 0.0075198504           86 
  496000   0.47683401    -8.649824    55.099825 0.0092573631 0.0074935412           77 
  497000   0.46740914   -8.6576338    55.051783 0.0092306812 0.0074673343           91 
  498000    0.4737981   -8.6565385    55.105362 0.0092211115 0.0074412872           62 
  499000   0.46227124   -8.6557399    55.105555 0.0092026645 0.0074153326          185 
  500000   0.47104047    -8.663828    55.042829 0.0091738048 0.0073895033           75 
  501000   0.46566917   -8.6712522    55.033364 0.0091539195 0.0073637909           84 
  502000   0.46746369    -8.667964    55.047267 0.0091379926 0.0073381903           75 
  503000   0.45816368   -8.6809821     55.00693 0.0091131428   0.00731269           69 
  504000   0.44959793   -8.6754321    55.062267 0.0091042108 0.0072873015           95 
  505000   0.47149323   -8.6691697    55.048849 0.0090839685 0.0072620675           79 
  506000   0.45458514   -8.6814394    55.019987 0.0090612626 0.0072369574           75 
  507000   0.45575484    -8.696221     54.98143 0.0090370529 0.0072119451           96 
  508000   0.45540684   -8.6936041    54.961273 0.0090159569 0.0071870017          107 
  509000   0.45080958   -8.6943421    54.953752 0.0089970125 0.0071621768           86 
  510000   0.44790151   -8.6993544    54.994986 0.0089861089 0.0071374498           73 
  511000   0.44677129   -8.6967748    55.054686 0.0089782593 0.0071128505           75 
  512000   0.44866571   -8.6999345    54.992044  0.008950528 0.0070883386          139 
Loop time of 1320.78 on 48 procs for 500000 steps with 4000 atoms

Performance: 65416.020 tau/day, 378.565 timesteps/s
99.4% CPU use with 48 MPI tasks x no OpenMP threads

MPI task timing breakdown:
Section |  min time  |  avg time  |  max time  |%varavg| %total
---------------------------------------------------------------
Pair    | 93.131     | 100.97     | 107.9      |  31.7 |  7.64
Neigh   | 9.2017     | 9.5427     | 9.8051     |   4.7 |  0.72
Comm    | 85.22      | 90.866     | 101.03     |  40.5 |  6.88
Output  | 0.95567    | 0.95649    | 0.97908    |   0.3 |  0.07
Modify  | 1100.5     | 1105.5     | 1112.7     |   8.7 | 83.70
Other   |            | 12.99      |            |       |  0.98

Nlocal:        83.3333 ave          90 max          77 min
Histogram: 2 1 6 13 4 4 8 5 3 2
Nghost:        2408.56 ave        2432 max        2389 min
Histogram: 2 4 3 13 9 5 6 3 1 2
Neighs:        16653.0 ave       19550 max       14096 min
Histogram: 2 4 6 8 7 8 5 3 2 3
FullNghs:      33304.9 ave       36133 max       30728 min
Histogram: 2 1 9 9 6 7 3 6 3 2

Total # of neighbors = 1598637
Ave neighs/atom = 399.65925
Neighbor list builds = 26611
Dangerous builds = 0

#clear
#
#next RN
#
#jump SELF
Total wall time: 0:22:04
